LAMMPS (30 Jul 2021)
  using 1 OpenMP thread(s) per MPI task
package omp 0
using multi-threaded neighbor list subroutines
echo both

include		in.partitions
variable        pid world 0
include		in.temp
variable	temperature equal 270
variable	melttemp equal 450.0
variable	tempDamp equal 100.0
include		in.pressure
variable        pressure equal 8000
variable        pressureDamp equal 1000.0 # This is 1 ps
include		in.seed
variable        seed world 745823

units		real
atom_style	full



include 	in.box

read_data       ice.data
Reading data file ...
  orthogonal box = (0.0055940000 0.0000000 0.0000000) to (49.454405 24.971228 23.019015)
  7 by 3 by 2 MPI processor grid
  reading atoms ...
  3840 atoms
  scanning bonds ...
  2 = max bonds/atom
  scanning angles ...
  1 = max angles/atom
  reading bonds ...
  2560 bonds
  reading angles ...
  1280 angles
Finding 1-2 1-3 1-4 neighbors ...
  special bond factors lj:    0        0        0       
  special bond factors coul:  0        0        0       
     2 = max # of 1-2 neighbors
     1 = max # of 1-3 neighbors
     1 = max # of 1-4 neighbors
     2 = max # of special neighbors
  special bonds CPU = 0.103 seconds
  read_data CPU = 0.409 seconds
include 	in.setup
variable	out_freq equal 500
variable	out_freq2 equal 500

timestep	1.0

neigh_modify    delay 5 every 1

include		in.tip4p
# This is TIP4P/Ice

# create groups ###
group ox type 2
1280 atoms in group ox
group hy type 1
2560 atoms in group hy

# set charges - beside manually ###
set group ox charge -1.1794
Setting atom values ...
  1280 settings made for charge
set group hy charge 0.5897
Setting atom values ...
  2560 settings made for charge

# ### TIP3P Potential Parameters ###
pair_style lj/cut/tip4p/long 2 1 1 1 0.1577 8.5
pair_coeff 1 1*2 0.000 0.000
pair_coeff 2 2 0.21084 3.1668
bond_style  harmonic
bond_coeff  1 450 0.9572
angle_style harmonic
angle_coeff 1 55 104.52
kspace_style pppm/tip4p 1.0e-5
pair_modify tail yes

thermo          ${out_freq}
thermo          500
thermo_style 	custom step temp pe etotal epair emol press lx ly lz xy xz yz vol pxx pyy pzz pxy pxz pyz cella cellb cellc cellalpha cellbeta cellgamma

restart 	${out_freq} restart.lmp.${pid} restart2.lmp.${pid}
restart 	500 restart.lmp.${pid} restart2.lmp.${pid}
restart 	500 restart.lmp.0 restart2.lmp.${pid}
restart 	500 restart.lmp.0 restart2.lmp.0

include         in.dump
dump            myDump all atom ${out_freq2} dump.water.${pid}
dump            myDump all atom 500 dump.water.${pid}
dump            myDump all atom 500 dump.water.0
dump_modify     myDump append yes


timer           timeout 23:50:00 every 1000
New timer settings: style=normal  mode=nosync  timeout=23:50:00


fix 		0 all shake 1e-6 200 0 b 1 a 1
       0 = # of size 2 clusters
       0 = # of size 3 clusters
       0 = # of size 4 clusters
    1280 = # of frozen angles
  find clusters CPU = 0.087 seconds
fix             1 all nph aniso ${pressure} ${pressure} ${pressureDamp}
fix             1 all nph aniso 8000 ${pressure} ${pressureDamp}
fix             1 all nph aniso 8000 8000 ${pressureDamp}
fix             1 all nph aniso 8000 8000 1000
fix             2 all temp/csvr ${temperature} ${temperature} ${tempDamp} ${seed}
fix             2 all temp/csvr 270 ${temperature} ${tempDamp} ${seed}
fix             2 all temp/csvr 270 270 ${tempDamp} ${seed}
fix             2 all temp/csvr 270 270 100 ${seed}
fix             2 all temp/csvr 270 270 100 745823
velocity        all create ${temperature} ${seed}
velocity        all create 270 ${seed}
velocity        all create 270 745823

run             500000
PPPM initialization ...
  extracting TIP4P info from pair style
  using 12-bit tables for long-range coulomb (../kspace.cpp:340)
  G vector (1/distance) = 0.37376444
  grid = 54 32 30
  stencil order = 5
  estimated absolute RMS force accuracy = 0.0034051979
  estimated relative force accuracy = 1.0254652e-05
  using double precision FFTW3
  3d grid and FFT values/proc = 7296 1350
Last active /omp style is kspace_style pppm/tip4p/omp
Neighbor list info ...
  update every 1 steps, delay 5 steps, check yes
  max neighbors/atom: 2000, page size: 100000
  master list distance cutoff = 10.8154
  ghost atom cutoff = 10.8154
  binsize = 5.4077, bins = 10 5 5
  1 neighbor lists, perpetual/occasional/extra = 1 0 0
  (1) pair lj/cut/tip4p/long/omp, perpetual
      attributes: half, newton on, omp
      pair build: half/bin/newton/omp
      stencil: half/bin/3d
      bin: standard
Per MPI rank memory allocation (min/avg/max) = 9.730 | 9.757 | 9.785 Mbytes
Step Temp PotEng TotEng E_pair E_mol Press Lx Ly Lz Xy Xz Yz Volume Pxx Pyy Pzz Pxy Pxz Pyz Cella Cellb Cellc CellAlpha CellBeta CellGamma 
       0          270   -18883.321    -16823.79   -18883.321            0    2187.4647    49.448811    24.971228    23.019015            0            0            0    28423.823    9029.7272    5112.6172   -7579.9504   -3523.3565   -458.89829    4225.3848    49.448811    24.971228    23.019015           90           90           90 
     500    267.43712   -18268.319   -16228.337   -18268.319            0    6619.9581    50.249713    24.955704    22.992277            0            0            0    28832.706     6309.326      7537.42    6013.1282   -29.461136    276.19792   -237.46205    50.249713    24.955704    22.992277           90           90           90 
    1000     267.0894   -18118.493   -16081.163   -18118.493            0    7709.8568     49.89971      25.0288    23.089397            0            0            0    28837.038    8294.6197    6829.7601    8005.1907    266.55855   -83.224224    277.13657     49.89971      25.0288    23.089397           90           90           90 
    1500     270.8666   -18125.914   -16059.773   -18125.914            0    7907.0514    50.064355    24.954135     23.07373            0            0            0    28826.304    7852.5276    7838.6843    8029.9424   -215.50028    24.888697   -100.81491    50.064355    24.954135     23.07373           90           90           90 
    2000    272.66069   -18129.813   -16049.987   -18129.813            0    7499.9514    49.998512    25.073508    23.026293            0            0            0    28866.638    7596.5606    7225.3342    7677.9593    125.19368     666.9306    303.96504    49.998512    25.073508    23.026293           90           90           90 
    2500    273.53938   -18096.755   -16010.226   -18096.755            0    7528.1484    50.117405    24.935202    23.123965            0            0            0    28897.733    7492.2245    8199.2021    6893.0186   -107.94693    706.74449   -24.936812    50.117405    24.935202    23.123965           90           90           90 
    3000    268.83384   -18109.746    -16059.11   -18109.746            0    7316.4277    50.071227    25.163983    22.931032            0            0            0    28892.907    8013.3337    6129.1331    7806.8163    302.57951    20.494265   -57.032713    50.071227    25.163983    22.931032           90           90           90 
    3500    263.38734   -18147.413   -16138.323   -18147.413            0    7662.0741    50.009369    24.915391    23.152339            0            0            0    28847.884    7332.1231    9351.3092    6302.7899   -50.671313    39.225962   -296.54433    50.009369    24.915391    23.152339           90           90           90 
    4000    265.94112   -18146.773   -16118.203   -18146.773            0    7984.3045    50.064993    25.032739    22.964767            0            0            0    28780.913    8196.6385     7481.084     8275.191    456.15265    253.82808    318.95982    50.064993    25.032739    22.964767           90           90           90 
    4500    267.80788   -18140.342   -16097.532   -18140.342            0    8386.3023    49.997924    24.955838    23.052473            0            0            0    28763.494    9211.6417    7875.2228    8072.0424   -508.37357   -1129.0197   -643.11072    49.997924    24.955838    23.052473           90           90           90 
    5000    274.14339   -18151.657   -16060.521   -18151.657            0    8023.4025    49.931911    24.977935     23.07628            0            0            0    28780.644    8381.3106    8228.2845    7460.6125    560.33198    186.94803    921.37178    49.931911    24.977935     23.07628           90           90           90 
    5500    269.57005   -18161.725   -16105.474   -18161.725            0    8061.5416    50.218847    25.007701    22.893593            0            0            0    28751.099    7730.1958    7327.0571     9127.372    412.48906   -182.63494   -170.25666    50.218847    25.007701    22.893593           90           90           90 
    6000    268.71658   -18111.499   -16061.758   -18111.499            0     7898.418    49.806141    24.949679    23.157738            0            0            0    28776.899    7814.7883    8699.9177     7180.548    90.383644    68.344472   -36.162948    49.806141    24.949679    23.157738           90           90           90 
    6500    261.47671   -18117.875   -16123.359   -18117.875            0    8201.9043    50.105267    24.978827     22.95724            0            0            0     28732.61    7463.7598    8503.5139    8638.4392    220.37862    797.63094    344.89767    50.105267    24.978827     22.95724           90           90           90 
    7000    269.41768   -18106.323   -16051.234   -18106.323            0    7796.4283    49.984061    25.013461    23.073408            0            0            0    28848.089    8868.9656    7134.3055    7386.0137    110.81175   -67.225499   -658.78388    49.984061    25.013461    23.073408           90           90           90 
    7500    269.27863   -18107.044   -16053.016   -18107.044            0    8143.8181    50.066074    24.980054    23.026194            0            0            0    28797.783    8396.9687    8074.7369    7959.7487    26.916384    61.241764   -128.51808    50.066074    24.980054    23.026194           90           90           90 
    8000    270.03557   -18147.381   -16087.579   -18147.381            0    7754.7088    50.058704    25.003129    23.015618            0            0            0    28806.906    8082.1653    7507.5967    7674.3642    350.77315   -958.07646   -390.23358    50.058704    25.003129    23.015618           90           90           90 
    8500    269.73171   -18141.212   -16083.728   -18141.212            0    7681.5883     49.87057    25.011623    23.144106            0            0            0    28868.659    8331.4244    7598.2364    7115.1041    228.06667   -630.29809   -444.85919     49.87057    25.011623    23.144106           90           90           90 
    9000    272.30978   -18072.254   -15995.104   -18072.254            0    7955.5077    50.228529    24.997171     22.98316            0            0            0    28856.992    7422.8799    8583.2657    7860.3777     -70.6983    11.148661     647.0841    50.228529    24.997171     22.98316           90           90           90 
    9500    272.23497   -18120.567   -16043.988   -18120.567            0     8142.237    49.881948    25.033737    23.078968            0            0            0    28819.436    9317.2712    6976.7308    8132.7091    18.872513    -377.2767   -133.77001    49.881948    25.033737    23.078968           90           90           90 
   10000     267.6491   -18074.001   -16032.403   -18074.001            0    7941.8024    50.120451      24.9487    23.072829            0            0            0     28851.19    7246.3409    8675.1236    7903.9427   -305.44695     154.1696   -681.71289    50.120451      24.9487    23.072829           90           90           90 
   10500    279.14158    -18102.27   -15973.008    -18102.27            0    7602.0798    49.982725    25.062764     23.03046            0            0            0    28850.377    7676.4092    7018.8977    8110.9325    -1.881983    194.19048    585.94634    49.982725    25.062764     23.03046           90           90           90 
   11000    268.52964   -18117.204   -16068.889   -18117.204            0    7944.0303    50.123053    24.954237    23.050979            0            0            0    28831.761    7831.5776    8535.4114     7465.102   -61.483639   -177.03239    567.05971    50.123053    24.954237    23.050979           90           90           90 
   11500    265.91205   -18170.535   -16142.186   -18170.535            0    7190.4169    49.961954    25.091062    23.050776            0            0            0    28896.419    7752.0578    6091.6047    7727.5882   -711.64986    935.48242   -131.63231    49.961954    25.091062    23.050776           90           90           90 
   12000    273.92267   -18110.394   -16020.941   -18110.394            0    6769.9426    50.132567    24.958254    23.123039            0            0            0     28932.04    6970.9958    7421.1456    5917.6864   -263.93017   -156.95835     688.0049    50.132567    24.958254    23.123039           90           90           90 
   12500     272.4183   -18119.592   -16041.614   -18119.592            0    7289.7277    50.056608    25.050211    23.078375            0            0            0    28938.635    8249.6807    6683.7777    6935.7246   -273.39583   -575.68152   -337.13145    50.056608    25.050211    23.078375           90           90           90 
   13000    273.98963   -18096.151   -16006.188   -18096.151            0    7154.3566    50.287201    24.994068    23.058256            0            0            0    28981.501    6634.6689    7017.4581    7810.9427    328.30642   -198.83639   -864.68574    50.287201    24.994068    23.058256           90           90           90 
   13500    264.17521   -18113.773   -16098.673   -18113.773            0    7057.8018    49.925005    25.073073    23.117163            0            0            0    28937.448    7155.6396    7282.0673    6735.6987    -455.2711    152.69268   -855.29454    49.925005    25.073073    23.117163           90           90           90 
   14000    263.04699   -18161.336   -16154.841   -18161.336            0     7212.631    50.232439    24.991528    23.011042            0            0            0    28887.727    7012.7455    7001.1811    7623.9665   -175.84334    255.06515   -505.92257    50.232439    24.991528    23.011042           90           90           90 
   14500    263.68324   -18180.272   -16168.924   -18180.272            0    7408.5324    49.960312    25.013651    23.079951            0            0            0     28842.78    7965.6118    7044.5295    7215.4558   -76.928703    27.628393    445.67613    49.960312    25.013651    23.079951           90           90           90 
   15000    274.52969   -18124.285   -16030.202   -18124.285            0    6866.9428    50.185912    25.017092     23.06145            0            0            0     28953.78    6931.3359    7189.7397    6479.7527    81.401593    262.67115   -845.22489    50.185912    25.017092     23.06145           90           90           90 
   15500    264.44316   -18098.816   -16081.672   -18098.816            0    7093.8265    50.081104    25.069987    23.028153            0            0            0    28912.596    7366.7456    6630.8376    7283.8963    563.99189   -40.980244    76.554741    50.081104    25.069987    23.028153           90           90           90 
   16000    264.87646   -18110.512   -16090.063   -18110.512            0    7057.7117    50.135431    24.973103    23.111578            0            0            0    28936.558    6864.6006     7518.703    6789.8314    147.52984     300.5381   -102.35306    50.135431    24.973103    23.111578           90           90           90 
   16500    270.39429   -18106.072   -16043.533   -18106.072            0    7774.7291    50.013262    25.035558    23.026413            0            0            0      28831.6    7953.7163    7697.8425    7672.6285    -146.2471    363.52401    312.80947    50.013262    25.035558    23.026413           90           90           90 
   17000    274.66969   -18156.687   -16061.536   -18156.687            0    8070.1136     50.12388    24.972798    22.997745            0            0            0    28787.049    8261.3715    7577.8571     8371.112   -337.56804     500.2848    -485.7089     50.12388    24.972798    22.997745           90           90           90 
   17500    268.08421   -18138.083   -16093.165   -18138.083            0     8104.568     49.81472    25.013242    23.107995            0            0            0    28793.201    8836.4145     7569.292    7907.9974    66.337547   -765.42481    498.03514     49.81472    25.013242    23.107995           90           90           90 
   18000    269.58341   -18186.393    -16130.04   -18186.393            0    7921.7599    50.232964    24.965882    22.912097            0            0            0    28734.295     7061.235    8437.3803    8266.6643    215.06353    114.22767   -554.70331    50.232964    24.965882    22.912097           90           90           90 
   18500     269.3404   -18150.011   -16095.511   -18150.011            0    7763.9018    49.816637    25.005745    23.110828            0            0            0    28789.207    9306.0635    7162.8706    6822.7714    73.130886   -109.87546   -191.59169    49.816637    25.005745    23.110828           90           90           90 
   19000    267.35507    -18113.75   -16074.394    -18113.75            0      7772.23    50.166329     24.94645    23.009306            0            0            0    28795.498    7105.0736    8495.9108    7715.7055   -487.67276    707.44666   -406.89769    50.166329     24.94645    23.009306           90           90           90 
   19500     266.8326   -18120.149   -16084.778   -18120.149            0    7743.9907    50.040702    25.003863    23.066932            0            0            0    28861.596    8305.4294    7708.6035    7217.9392   -141.13421   -244.17197    613.40904    50.040702    25.003863    23.066932           90           90           90 
   20000    270.31769   -18199.324    -16137.37   -18199.324            0    7719.9394    49.990667    24.986248     23.07656            0            0            0    28824.451    8361.3471    7090.9844    7707.4868   -224.40817    490.61994   -1094.6912    49.990667    24.986248     23.07656           90           90           90 
   20500    276.51645   -18177.328    -16068.09   -18177.328            0    7414.3405    50.061208    24.986228    23.046253            0            0            0    28827.192    7382.5104    7716.8256    7143.6854     330.6445   -528.22993    196.61015    50.061208    24.986228    23.046253           90           90           90 
   21000     264.5214   -18160.298   -16142.557   -18160.298            0    7886.0558    50.031132      24.9952    23.019226            0            0            0     28786.42    7597.6683    8346.3939    7714.1053     349.8079   -298.75347    -24.02968    50.031132      24.9952    23.019226           90           90           90 
   21500    263.79877   -18182.505   -16170.276   -18182.505            0    8264.9399    49.962708    24.984309    23.027915            0            0            0    28745.372    8367.4111    8235.6122    8191.7963   -216.68447   -365.46704   -363.55569    49.962708    24.984309    23.027915           90           90           90 
   22000    273.77639   -18150.439   -16062.102   -18150.439            0    8142.8047    49.995858    24.978723    23.033539            0            0            0    28765.037    8141.9983    7940.1583    8346.2573    591.54516    -120.7413    575.07845    49.995858    24.978723    23.033539           90           90           90 
   22500    272.42785   -18153.232   -16075.181   -18153.232            0    8396.2873    49.952534    24.998989    23.024501            0            0            0    28752.141    8853.1502    7996.6321    8339.0797   -507.77672   -1090.9824    125.11859    49.952534    24.998989    23.024501           90           90           90 
   23000     267.9075   -18185.299   -16141.729   -18185.299            0    8459.4426    49.970536    24.938827    23.046142            0            0            0    28720.254    8115.1818    8544.7245    8718.4216     146.4606   -271.61988   -79.688733    49.970536    24.938827    23.046142           90           90           90 
   23500    268.90125   -18136.686   -16085.536   -18136.686            0    8896.5571    50.000532    24.985391    22.972289            0            0            0    28698.886    8413.0396    8568.2911    9708.3406   -344.38214   -531.31644   -320.58073    50.000532    24.985391    22.972289           90           90           90 
   24000    279.03006   -18122.064   -15993.653   -18122.064            0    8440.8742    49.995834    24.914988    23.072845            0            0            0    28740.588    8453.1244     8911.975    7957.5232   -621.14596   -493.97919    113.96835    49.995834    24.914988    23.072845           90           90           90 
   24500    267.79061   -18131.104   -16088.426   -18131.104            0    8626.4803    49.899972    25.001515    23.025715            0            0            0    28726.303    8743.9465    8357.2328    8778.2616   -439.19761    -138.1148   -676.44627    49.899972    25.001515    23.025715           90           90           90 
   25000    276.61779   -18061.356   -15951.345   -18061.356            0     9130.076    50.126832    24.932871     23.00109            0            0            0    28746.897    8294.0133    9315.7177     9780.497   -47.596926   -287.22814    404.04411    50.126832    24.932871     23.00109           90           90           90 
   25500    269.35289   -18116.207   -16061.612   -18116.207            0    9182.7443    49.799641    25.011903    23.020504            0            0            0    28673.966    9676.5864    9112.6536    8758.9929    -424.3024    737.04469    79.498872    49.799641    25.011903    23.020504           90           90           90 
   26000    275.01113   -18081.102   -15983.347   -18081.102            0    8671.4206    50.109847    24.963321    22.995766            0            0            0    28765.593    8618.2038     8754.811     8641.247    501.29315   -489.66936   -2.1777515    50.109847    24.963321    22.995766           90           90           90 
   26500    260.46924   -18126.979   -16140.148   -18126.979            0    8282.7975    49.954432    25.018985    23.024503            0            0            0    28776.234    8317.4269    8262.7627    8268.2029     67.46495   -202.79828    96.918979    49.954432    25.018985    23.024503           90           90           90 
   27000    271.32608   -18105.596    -16035.95   -18105.596            0    7633.8696     50.13874    24.925091    23.092629            0            0            0    28859.151    7105.3505    8259.9063     7536.352    862.88347    472.90075    215.00745     50.13874    24.925091    23.092629           90           90           90 
   27500    267.09278   -18096.221   -16058.866   -18096.221            0    7484.2504    49.927629    25.093375     23.04798            0            0            0    28875.724    7963.4719    6943.2077    7546.0715   -174.83833   -323.50352   -186.31436    49.927629    25.093375     23.04798           90           90           90 
   28000    271.43796   -18162.511   -16092.012   -18162.511            0      7171.84    50.147428     24.92558      23.1026            0            0            0    28877.181     6962.346    7612.8287    6940.3452   -387.66449    488.02782   -1024.1021    50.147428     24.92558      23.1026           90           90           90 
   28500    268.90948   -18101.227   -16050.015   -18101.227            0    7415.3111    49.947478    25.113596    23.051255            0            0            0    28914.591    8383.0421    6422.7293    7440.1618    148.41847   -462.25172   -636.22929    49.947478    25.113596    23.051255           90           90           90 
   29000    263.32308   -18160.339   -16151.739   -18160.339            0    7245.7342    50.190579    24.954538    23.048526            0            0            0    28867.879    6063.0744    8102.4827    7571.6455   -464.98348    290.35065   -90.467687    50.190579    24.954538    23.048526           90           90           90 
   29500    264.56325   -18076.929   -16058.869   -18076.929            0    7526.2545    49.849486    25.080988    23.109388            0            0            0    28893.075     7966.799     7473.462    7138.5025    87.893257    799.81268    193.55492    49.849486    25.080988    23.109388           90           90           90 
   30000    280.79531   -18089.125   -15947.249   -18089.125            0    7566.0818    50.237648    24.991915    23.024418            0            0            0    28907.963    6986.0749    7330.2961    8381.8743   -240.47666   -758.62913    640.08007    50.237648    24.991915    23.024418           90           90           90 
   30500    262.62261   -18082.763   -16079.506   -18082.763            0    7385.1958     49.98261     25.02409    23.101256            0            0            0    28894.342    7665.0221     7325.648    7164.9174   -290.11268    815.28648   -562.63913     49.98261     25.02409    23.101256           90           90           90 
   31000    272.72704    -18080.31   -15999.977    -18080.31            0    7768.6887    50.220829    24.992533    23.031735            0            0            0    28908.183    7346.2599    7174.9419    8784.8643    427.38355   -168.97571   -316.48168    50.220829    24.992533    23.031735           90           90           90 
   31500    264.91485   -18099.369   -16078.627   -18099.369            0    8001.2045    49.948398    25.059351    23.064963            0            0            0    28869.825    8600.4894    7368.3397    8034.7845    124.56466     297.1561   -358.42246    49.948398    25.059351    23.064963           90           90           90 
   32000    266.28047   -18098.031   -16066.872   -18098.031            0    8565.5268    50.227875    24.904763    23.004548            0            0            0    28776.694    7512.5991    9639.0118    8544.9695     320.4066   -348.88655     484.7096    50.227875    24.904763    23.004548           90           90           90 
   32500    264.52492   -18049.913   -16032.145   -18049.913            0    8740.1523    49.768175    25.126354    22.993685            0            0            0    28753.437    9400.6593    8101.8346     8717.963    570.27525    68.929021   -104.99302    49.768175    25.126354    22.993685           90           90           90 
   33000    272.40935   -18091.826   -16013.917   -18091.826            0    8478.8033    50.110847    24.849307    23.100323            0            0            0    28764.979    8393.5208    8353.3892       8689.5    652.22885   -798.82757   -51.191746    50.110847    24.849307    23.100323           90           90           90 
   33500    264.70482    -18179.25   -16160.109    -18179.25            0     8234.701    49.925534    25.063542    22.982309            0            0            0    28758.009    8425.7145    7663.2332    8615.1553   -30.345304    643.91782   -798.75303    49.925534    25.063542    22.982309           90           90           90 
   34000    265.64559   -18163.597   -16137.281   -18163.597            0    8402.6219    50.080253    24.907198    23.044503            0            0            0    28744.763    7893.4295    9106.5226    8207.9135   -214.26722     -102.821   -194.15181    50.080253    24.907198    23.044503           90           90           90 
   34500    260.23969   -18128.096   -16143.015   -18128.096            0    8250.5107    49.938616    25.003931    23.031818            0            0            0    28758.949    8747.6416    8171.9898    7831.9008    292.96423    513.29765    375.56293    49.938616    25.003931    23.031818           90           90           90 
   35000    269.53038   -18156.304   -16100.355   -18156.304            0     7501.693    50.148436    24.991999    22.998127            0            0            0    28823.775     7397.199     7863.008    7244.8722    201.85686    602.49076   -12.672748    50.148436    24.991999    22.998127           90           90           90 
   35500    270.23976   -18104.509   -16043.149   -18104.509            0    8441.8486    49.902957    24.989866    23.080123            0            0            0    28782.488    9284.9191    7368.0135    8672.6131    -459.2828   -279.95998   -294.73948    49.902957    24.989866    23.080123           90           90           90 
   36000    268.82297   -18172.905   -16122.352   -18172.905            0      7885.79    50.106336     24.96419    23.004598            0            0            0    28775.624    6959.1086    9001.2728    7696.9886    438.14449   -119.26976    723.19405    50.106336     24.96419    23.004598           90           90           90 
   36500    266.79744   -18130.865   -16095.763   -18130.865            0    7908.7464    49.961083    25.004735    23.066295            0            0            0    28815.883    8399.9975     7662.948    7663.2937   -144.38606    7.2845853     30.39564    49.961083    25.004735    23.066295           90           90           90 
   37000     269.9397   -18140.545   -16081.474   -18140.545            0    8203.5869    50.066007    24.931618     23.02293            0            0            0    28737.833    7894.1717    8318.1203    8398.4685   -244.23543    496.78334    -110.0125    50.066007    24.931618     23.02293           90           90           90 
   37500    270.42569   -18151.028    -16088.25   -18151.028            0     8306.457    49.935818    25.047953    23.019272            0            0            0    28792.276    8533.3703    8026.4846    8359.5162    247.22894   -104.13248   -189.28815    49.935818    25.047953    23.019272           90           90           90 
   38000    273.20617   -18092.408    -16008.42   -18092.408            0    7935.4618     50.01844    24.891139    23.152916            0            0            0     28825.75     8004.689    8954.5001    6847.1962    21.261036   -916.54769    712.50382     50.01844    24.891139    23.152916           90           90           90 
   38500    269.96778   -18115.245   -16055.959   -18115.245            0    8475.5264    49.986671    25.076842    22.975691            0            0            0    28800.209    8323.2455    7999.4292    9103.9046   -79.602853    489.29746    356.93154    49.986671    25.076842    22.975691           90           90           90 
   39000     270.0126   -18138.513   -16078.886   -18138.513            0    8896.0344    50.000304    24.912654    23.088112            0            0            0    28759.482    8288.9795     9843.484    8555.6399    228.83465   -659.05752     533.3109    50.000304    24.912654    23.088112           90           90           90 
   39500    275.26914   -18097.143    -15997.42   -18097.143            0    8318.5852    49.942581    25.058232    23.018716            0            0            0    28807.297    9306.9555    7967.6378    7681.1624    239.67154    526.17973    180.61225    49.942581    25.058232    23.018716           90           90           90 
   40000    267.81972   -18149.814   -16106.914   -18149.814            0    8428.6336    50.028776    24.953187    23.034461            0            0            0    28755.701    8371.3464    9197.4814    7717.0728    94.385302     418.4344     1168.272    50.028776    24.953187    23.034461           90           90           90 
   40500     266.6145   -18135.494   -16101.787   -18135.494            0     8521.917     49.99034    24.971196    23.006047            0            0            0    28718.876    8826.9592     8041.568    8697.2239    223.50571    918.11637    234.39742     49.99034    24.971196    23.006047           90           90           90 
   41000    265.03754   -18177.624   -16155.946   -18177.624            0    8458.9673     49.95974    24.970958    23.012636            0            0            0    28709.243    8577.2163    8723.5658    8076.1198   -113.20826    105.41839    -258.8947     49.95974    24.970958    23.012636           90           90           90 
   41500     272.5333   -18140.253   -16061.398   -18140.253            0    8270.5148    50.022736     24.95694    23.050606            0            0            0    28776.709     8004.672    8471.2038    8335.6686    315.05159   -224.04309   -157.56122    50.022736     24.95694    23.050606           90           90           90 
   42000    273.05716    -18140.61   -16057.759    -18140.61            0    8050.3051    49.989273    25.006588    23.032567            0            0            0    28792.117    8439.1654    7655.7491    8056.0007    427.33941   -216.66801    666.57123    49.989273    25.006588    23.032567           90           90           90 
   42500    272.67385    -18162.58   -16082.653    -18162.58            0    7640.1982    49.981583    24.959563    23.092734            0            0            0    28808.612    8115.6367    7692.7864    7112.1715   -208.29784   -60.094086    493.98757    49.981583    24.959563    23.092734           90           90           90 
   43000    264.29554   -18082.753   -16066.735   -18082.753            0    7897.8515    50.127456    25.030096     23.01858            0            0            0    28881.298    7295.6794    7762.2559    8635.6192   -56.714637    42.375566   -250.14685    50.127456    25.030096     23.01858           90           90           90 
   43500    277.21525   -18144.666   -16030.098   -18144.666            0    7768.2559    50.061497    24.995732     23.05931            0            0            0    28854.662    8083.0262    7210.3548    8011.3868   -620.45471    301.48523   -137.23422    50.061497    24.995732     23.05931           90           90           90 
   44000    266.02824   -18148.926   -16119.691   -18148.926            0    8269.9554    49.960248     24.98741    23.052819            0            0            0    28778.614    7907.8623    8546.9908     8355.013    119.80203   -301.22976    637.98435    49.960248     24.98741    23.052819           90           90           90 
   44500    270.25502     -18116.2   -16054.723     -18116.2            0    8624.3706    50.050351    24.951941    23.017425            0            0            0    28745.389    7798.0727    9566.8905    8508.1487   -435.51229    26.851906    133.79521    50.050351    24.951941    23.017425           90           90           90 
   45000    267.53558   -18153.434   -16112.701   -18153.434            0    8902.5591    49.891273    24.997577    23.007461            0            0            0    28694.006    9747.3276    8377.6608     8582.689    288.42173     216.9239   0.92783768    49.891273    24.997577    23.007461           90           90           90 
   45500    268.04872   -18157.412   -16112.765   -18157.412            0    8784.4778    50.008397    24.947203    23.017316            0            0            0    28715.704    8934.5801    8493.7852    8925.0682    390.74409   -633.65611    461.31348    50.008397    24.947203    23.017316           90           90           90 
   46000    278.93301   -18152.887   -16025.216   -18152.887            0    8620.8461    49.900253    24.978019    23.059741            0            0            0     28741.88    9149.6651    8797.7226    7915.1507     259.3026   -225.17302   -318.69679    49.900253    24.978019    23.059741           90           90           90 
   46500    278.09878   -18129.546   -16008.238   -18129.546            0    9833.0417    49.906812    24.947377    22.971334            0            0            0    28600.322    9184.5905    10561.479    9753.0553   -678.02972    -703.8396    590.19747    49.906812    24.947377    22.971334           90           90           90 
   47000    273.49365   -18128.512   -16042.332   -18128.512            0    9634.0156    49.776425    24.905372    23.089444            0            0            0    28623.992     9391.872    10303.615    9206.5601    206.96675   -515.35422   -442.60045    49.776425    24.905372    23.089444           90           90           90 
   47500    275.08509   -18104.265   -16005.945   -18104.265            0    8230.6352    50.034832    25.012437    22.981727            0            0            0    28761.473    7793.6564    8704.7701    8193.4791   -259.43168    348.40377    493.89183    50.034832    25.012437    22.981727           90           90           90 
   48000    264.48778    -18135.86   -16118.376    -18135.86            0    8300.1871    49.921969    24.956369    23.060186            0            0            0    28730.019    8867.4804    7785.1007    8247.9803    810.85459    -234.1545   -869.14021    49.921969    24.956369    23.060186           90           90           90 
   48500    276.38864   -18144.274   -16036.011   -18144.274            0    8187.5189    49.991293    24.989802    23.044342            0            0            0    28788.663    8360.9468    7722.7802    8478.8297    323.01305    144.40011    246.33924    49.991293    24.989802    23.044342           90           90           90 
   49000    271.30976   -18075.633   -16006.111   -18075.633            0    8057.9836     50.04465    24.950695    23.077416            0            0            0    28815.589    8123.4153    8015.4364     8035.099   -379.78464     826.3968   -4.4834221     50.04465    24.950695    23.077416           90           90           90 
   49500    277.38333   -18070.684   -15954.833   -18070.684            0     7653.576    50.108729    25.079151    22.998052            0            0            0    28901.293    6562.0218    7505.3735    8893.3328   -768.53395    462.81374   -145.67498    50.108729    25.079151    22.998052           90           90           90 
   50000    273.61412   -18151.823   -16064.724   -18151.823            0    6960.8228     50.00228    24.928658    23.182649            0            0            0    28896.934    6472.7649    7434.3208    6975.3826   -40.273187    1051.6592    744.80152     50.00228    24.928658    23.182649           90           90           90 
   50500    264.20269   -18116.727   -16101.417   -18116.727            0     6988.979    50.121328    25.059667    23.013929            0            0            0    28906.042    7348.0653    6514.6246    7104.2471    190.99696    188.99744    213.48994    50.121328    25.059667    23.013929           90           90           90 
   51000    267.17738   -18049.027   -16011.026   -18049.027            0    7409.2199    50.080234    25.043361    23.053419            0            0            0    28913.077    7466.1555    6936.0846    7825.4196    86.365214   -141.10131   -499.46362    50.080234    25.043361    23.053419           90           90           90 
   51500    268.83834   -18098.171   -16047.501   -18098.171            0    8209.3105     50.00417    24.958921    23.072304            0            0            0    28795.392    7811.9285    8487.6569    8328.3461   -603.20222    428.42904   -698.25072     50.00417    24.958921    23.072304           90           90           90 
   52000    268.08024   -18137.527    -16092.64   -18137.527            0    7693.7421     50.01023    25.007494    23.038141            0            0            0    28812.202    7513.5413    7772.7628    7794.9224   -108.26392    409.44538   -289.01405     50.01023    25.007494    23.038141           90           90           90 
   52500      269.468   -18079.714   -16024.241   -18079.714            0    8376.6472     50.06138    24.985197    23.044166            0            0            0    28823.491    8304.5101    8517.2399    8308.1917   -322.86999    179.97869    268.23288     50.06138    24.985197    23.044166           90           90           90 
   53000    266.12584   -18116.607   -16086.627   -18116.607            0    8218.1247    50.125851    25.029521    22.907955            0            0            0    28740.917    7726.4942    8525.2677    8402.6121    310.94683    593.27315   -137.95324    50.125851    25.029521    22.907955           90           90           90 
   53500    268.70333   -18119.372   -16069.732   -18119.372            0    8542.6552    49.721808    24.924488    23.199231            0            0            0    28750.588     9439.037    8626.4492    7562.4795    202.96494    138.30203   -145.32907    49.721808    24.924488    23.199231           90           90           90 
   54000     275.6749   -18097.735   -15994.917   -18097.735            0    8275.5999    50.267363     24.99824    22.894879            0            0            0    28769.604    8165.4964    7779.7738    8881.5295   -101.77713   -428.78932   -520.73808    50.267363     24.99824    22.894879           90           90           90 
   54500    269.10347   -18208.791   -16156.098   -18208.791            0    8272.5473    49.789583    24.976778    23.090711            0            0            0    28715.224    9134.0588    8029.3674    7654.2157    597.55363     231.2329    39.824066    49.789583    24.976778    23.090711           90           90           90 
   55000    275.10705   -18089.913   -15991.426   -18089.913            0    8604.1233    50.120737    24.934767    23.040426            0            0            0    28794.748    7728.9579    9044.1707    9039.2413    18.320831    174.15038   -71.902668    50.120737    24.934767    23.040426           90           90           90 
   55500    266.75785   -18135.834   -16101.033   -18135.834            0      8505.73    49.939061    25.066745    22.970986            0            0            0    28755.304    8584.3416    7236.1315    9696.7168    274.47965    130.50642    909.69632    49.939061    25.066745    22.970986           90           90           90 
   56000    268.38582   -18055.281   -16008.063   -18055.281            0    8404.7755    50.084088    24.936914     23.08407            0            0            0    28830.677    7753.8174    8375.1496    9085.3597    419.97132    22.408254   -704.74901    50.084088    24.936914     23.08407           90           90           90 
   56500     267.7287    -18107.71   -16065.504    -18107.71            0    7933.5159    49.956751     25.09876    22.980953            0            0            0    28814.726    8312.1993    7371.2268    8117.1216   -111.63098    618.38842    660.29031    49.956751     25.09876    22.980953           90           90           90 
   57000    265.71507   -18164.844   -16137.998   -18164.844            0    8247.8717    50.041886    24.854728    23.135602            0            0            0     28775.54    7886.2792    8888.7838    7968.5522   -232.84001    300.62696     15.64123    50.041886    24.854728    23.135602           90           90           90 
   57500    273.99119   -18141.501   -16051.526   -18141.501            0    7641.2624    49.975817    25.137266    22.942764            0            0            0    28821.971    7398.0346    6831.9776    8693.7749   -93.288321    154.80792   -20.007206    49.975817    25.137266    22.942764           90           90           90 
   58000    271.08186   -18154.991   -16087.208   -18154.991            0    7941.1875    50.074815     24.90404    23.091223            0            0            0    28796.262    7572.4007    8973.7611    7277.4006   -289.81348    374.99139   -513.03375    50.074815     24.90404    23.091223           90           90           90 
   58500    281.59228   -18151.406    -16003.45   -18151.406            0    7509.4127     49.98717    25.042854    23.050585            0            0            0    28855.216    8316.4164    7006.6974    7205.1244   -41.585303    74.614405    672.04732     49.98717    25.042854    23.050585           90           90           90 
   59000    272.85932   -18156.009   -16074.668   -18156.009            0    7453.4603    50.126564    25.009786    23.000225            0            0            0    28834.338    7634.5476    7251.5717    7474.2616   -670.33995    80.149683   -131.93793    50.126564    25.009786    23.000225           90           90           90 
   59500    275.55981   -18134.479   -16032.538   -18134.479            0    7763.1008    49.960201    24.989288    23.099352            0            0            0    28838.844    8149.9768    7411.9837    7727.3418   -129.78943   -411.97825    235.05144    49.960201    24.989288    23.099352           90           90           90 
   60000    275.29096   -18176.435   -16076.545   -18176.435            0    7352.8083    50.074349    25.050012    23.010605            0            0            0    28863.653    7234.4097    7156.5102    7667.5049    218.32227   -104.60755   -651.54803    50.074349    25.050012    23.010605           90           90           90 
   60500    269.20917   -18151.087   -16097.588   -18151.087            0     7992.708    50.040032    24.928031    23.078853            0            0            0    28788.548    8051.9904     8352.824    7573.3097    256.88888    494.32611   -808.10757    50.040032    24.928031    23.078853           90           90           90 
   61000    266.88291   -18128.211   -16092.457   -18128.211            0    7832.8774    49.824729    25.030699    23.096371            0            0            0    28804.588    8466.1623    7501.0054    7531.4646    -223.5362   -9.1756599    822.79885    49.824729    25.030699    23.096371           90           90           90 
   61500    276.14858   -18108.716   -16002.284   -18108.716            0    8066.2762    50.357134    24.983676    22.902729            0            0            0    28814.069    7170.5141    9025.0755    8003.2391   -221.08219   -52.436413    453.98995    50.357134    24.983676    22.902729           90           90           90 
   62000    274.70587   -18138.743   -16043.316   -18138.743            0    7425.7475    49.826997     25.01161    23.176105            0            0            0      28883.3     9055.408    6266.6128    6955.2218   -864.91637    32.215889    83.789292    49.826997     25.01161    23.176105           90           90           90 
   62500    268.05623    -18152.77   -16108.066    -18152.77            0    7538.8834    50.260461    24.986491    22.982448            0            0            0    28862.106    6670.6492    7992.9939    7953.0071    220.41197    222.30437   -323.38783    50.260461    24.986491    22.982448           90           90           90 
   63000    273.53041   -18044.966   -15958.505   -18044.966            0    7730.8884    49.945504    25.033298     23.09433            0            0            0    28874.856    8604.9887    6906.8295     7680.847   -303.58749   -910.15063     94.51399    49.945504    25.033298     23.09433           90           90           90 
   63500     270.8422   -18146.978   -16081.022   -18146.978            0    7562.0929    50.050233    24.982933    23.061696            0            0            0    28836.382    7580.1882    7564.2804    7541.8102   -148.81899   -574.30911    24.758751    50.050233    24.982933    23.061696           90           90           90 
   64000    273.35744   -18093.259   -16008.118   -18093.259            0    7963.1724    50.031459    25.049466    22.999444            0            0            0    28824.314    8391.1625    7272.8072    8225.5474   -41.103994    84.643583    205.87474    50.031459    25.049466    22.999444           90           90           90 
   64500    262.49113   -18139.327   -16137.072   -18139.327            0    7869.2144    50.002588    24.919815    23.114231            0            0            0    28801.609    7650.2539     8020.638    7936.7515    136.01032    74.739721    170.94131    50.002588    24.919815    23.114231           90           90           90 
   65000     261.1068   -18144.942   -16153.247   -18144.942            0    8086.3962    50.074767    25.061271    22.903164            0            0            0    28742.034    7349.9768    8029.3626     8879.849   -552.92733    320.53625   -785.30038    50.074767    25.061271    22.903164           90           90           90 
   65500    266.53636   -18148.557   -16115.446   -18148.557            0    7854.9554    49.999003     24.95516    23.090818            0            0            0    28811.179    7731.6703    8374.8684    7458.3276   -193.31802    163.71758    -104.3921    49.999003     24.95516    23.090818           90           90           90 
   66000    272.77698   -18079.652   -15998.938   -18079.652            0    7690.0006    50.049569    25.025652    23.049019            0            0            0    28869.428    8724.9653    6865.3511    7479.6854   -514.00442   -680.67316    526.95358    50.049569    25.025652    23.049019           90           90           90 
   66500    274.49057   -18078.105    -15984.32   -18078.105            0    8179.5318    50.054319    24.997164    23.051692            0            0            0    28842.647    8655.2858    8167.2953    7716.0143    293.05998   -310.78115   -774.01359    50.054319    24.997164    23.051692           90           90           90 
   67000    265.88059   -18126.397   -16098.288   -18126.397            0    8207.7884    49.986967    25.000181    23.049943            0            0            0    28805.126    7883.8926    8768.7019    7970.7708   -132.11542   -291.77214   -274.65178    49.986967    25.000181    23.049943           90           90           90 
   67500    270.98191   -18175.158   -16108.137   -18175.158            0    8189.6015    50.058659    24.985743    23.039606            0            0            0    28816.851    8465.6293    8333.0476    7770.1275   -57.148512   -336.53155    411.70747    50.058659    24.985743    23.039606           90           90           90 
   68000    267.94079   -18176.912   -16133.088   -18176.912            0    7775.1688    50.002429     25.00437     23.05175            0            0            0    28821.124    8521.3627    6778.1685    8025.9753    98.782987   -292.00415    455.09155    50.002429     25.00437     23.05175           90           90           90 
   68500    273.39325   -18086.952   -16001.537   -18086.952            0    7603.2472    50.128363    24.991726    23.032674            0            0            0    28855.204    7272.2437    7911.7071    7625.7909   -99.238243   -268.49064   -722.72561    50.128363    24.991726    23.032674           90           90           90 
   69000    264.00845   -18167.349    -16153.52   -18167.349            0    7828.8551    49.876303     25.02393     23.07118            0            0            0    28795.165    8189.1216    7398.8992    7898.5444   -257.50464     -290.239    614.02567    49.876303     25.02393     23.07118           90           90           90 
   69500    269.03717   -18144.531   -16092.344   -18144.531            0     8247.042    50.108853    24.931342    23.016512            0            0            0     28754.09    7735.5435      7999.06    9006.5224   -73.901476    76.478821   -167.36064    50.108853    24.931342    23.016512           90           90           90 
   70000    269.11062   -18122.127    -16069.38   -18122.127            0    7513.3296    49.983295    25.039757    23.058033            0            0            0    28858.731    7254.3011    7829.0049    7456.6829   -445.64919   -144.70823    249.75521    49.983295    25.039757    23.058033           90           90           90 
   70500    268.03749   -18159.009   -16114.448   -18159.009            0     7619.429    50.046505    25.012148    23.077966            0            0            0    28888.319    7494.9513    8228.8748    7134.4609   -193.82377    927.67004    26.864203    50.046505    25.012148    23.077966           90           90           90 
   71000    263.32823   -18156.909   -16148.269   -18156.909            0     7377.786    50.016311    25.047195    23.049146            0            0            0    28875.238    6875.3885    7883.7101    7374.2594   -162.37625    109.11458    206.04741    50.016311    25.047195    23.049146           90           90           90 
   71500    269.75551   -18136.885   -16079.218   -18136.885            0    7492.5687    50.104618    24.996223    23.079362            0            0            0    28905.198    7732.7424    6630.9323    8114.0314    300.30743   -782.53574    27.314336    50.104618    24.996223    23.079362           90           90           90 
   72000    277.55512   -18089.817   -15972.657   -18089.817            0    6943.1742    50.071913    25.064089    23.090885            0            0            0     28979.22    6003.0629    7635.1744    7191.2854   -441.44187    363.26345   -148.18536    50.071913    25.064089    23.090885           90           90           90 
   72500    268.40046   -18167.521   -16120.191   -18167.521            0    7054.9435    50.153167     24.98968    23.054877            0            0            0    28894.945    7239.8307    7072.7913    6852.2086   -35.890255    293.96745   -410.71816    50.153167     24.98968    23.054877           90           90           90 
   73000    268.96368   -18157.305   -16105.679   -18157.305            0     6965.851    50.039358    25.104549    23.026352            0            0            0    28926.061    6354.1847    6820.0164    7723.3519    216.31759   -11.351415   -170.72413    50.039358    25.104549    23.026352           90           90           90 
   73500    270.20693   -18068.836   -16007.726   -18068.836            0    6393.4294    50.187054    24.966178    23.161993            0            0            0    29021.489    7180.6929    5810.5186    6189.0769     -773.007    379.34743    561.40099    50.187054    24.966178    23.161993           90           90           90 
   74000    270.96058   -18130.456   -16063.598   -18130.456            0    7502.0397    50.050482    25.067833    23.011603            0            0            0    28871.671    7995.2872    6385.0398    8125.7921    496.12667    -45.08324    361.14808    50.050482    25.067833    23.011603           90           90           90 
   74500     271.5717     -18120.8   -16049.281     -18120.8            0    7242.1631    50.102831    24.920986    23.116665            0            0            0    28863.744    7063.3907    7641.2576    7021.8411   -592.69603   -1171.9889     21.66879    50.102831    24.920986    23.116665           90           90           90 
   75000    266.96908   -18109.211   -16072.799   -18109.211            0    7513.5894    49.988365    25.095061    23.011959            0            0            0    28867.607    7572.3209    7107.9446    7860.5028    224.00837   -620.76712   -435.95823    49.988365    25.095061    23.011959           90           90           90 
   75500    268.27066   -18116.313   -16069.973   -18116.313            0    8014.9024    50.077137    24.922821    23.079899            0            0            0    28805.179    7430.5326    8981.4209    7632.7537    -319.7634   -104.31474    41.282928    50.077137    24.922821    23.079899           90           90           90 
   76000    268.42692   -18159.071   -16111.539   -18159.071            0    7682.4594    49.925374     25.09198    23.015116            0            0            0    28831.645     7741.984      6949.96    8355.4343   -88.257776   -334.41592   -44.181893    49.925374     25.09198    23.015116           90           90           90 
   76500    259.88026    -18205.33   -16222.991    -18205.33            0    7727.1803    50.206219    24.901453    23.008549            0            0            0    28765.468    6664.2933    8248.2464    8269.0012   -290.36876    631.45382    310.75344    50.206219    24.901453    23.008549           90           90           90 
   77000    269.27278   -18207.803   -16153.819   -18207.803            0    7469.5497    49.712172    25.033469    23.135214            0            0            0    28791.037    8983.8099    6738.6963    6686.1428     86.95045    665.72719   -291.98354    49.712172    25.033469    23.135214           90           90           90 
   77500    268.56067   -18122.683   -16074.131   -18122.683            0    8008.1929    50.254531    24.989813     22.91317            0            0            0    28775.535    6798.3661    8065.0548    9161.1578    153.65233    559.63631    769.63353    50.254531    24.989813     22.91317           90           90           90 
   78000    279.98043   -18105.924   -15970.263   -18105.924            0    8081.5429    49.847127    24.964258    23.147524            0            0            0    28804.698    8827.4046    7813.1761    7604.0479   -395.93313   -458.93935   -424.22758    49.847127    24.964258    23.147524           90           90           90 
   78500    259.54539   -18116.143   -16136.358   -18116.143            0    8441.3497    50.151664    24.981816    22.949077            0            0            0    28752.431    7789.6159    8307.9475    9226.4856   -458.50557   -72.576238   -762.50251    50.151664    24.981816    22.949077           90           90           90 
   79000      271.678   -18216.088   -16143.757   -18216.088            0    8332.0265    49.884051    24.995403     23.05053            0            0            0    28741.059    9176.0135    7821.5608    7998.5052     317.4897    -474.2702    274.65053    49.884051    24.995403     23.05053           90           90           90 
   79500    265.42843   -18102.904   -16078.245   -18102.904            0    8576.5012    50.139213    24.945488      23.0418            0            0            0    28819.466    8232.8718    9153.4698     8343.162   -416.43825   -104.92249    -397.2801    50.139213    24.945488      23.0418           90           90           90 
   80000    273.27396   -18153.688   -16069.184   -18153.688            0    7638.3978    50.061684    25.086076    22.988202            0            0            0    28869.762    8485.7687     7040.857    7388.5676   -917.86289   -995.34883   -260.07398    50.061684    25.086076    22.988202           90           90           90 
   80500    266.10834   -18130.849   -16101.003   -18130.849            0    7610.8668    50.067087    24.920771     23.15216            0            0            0    28887.191    7719.3338    8342.1583    6771.1081    42.193698     524.1954    25.768361    50.067087    24.920771     23.15216           90           90           90 
   81000    264.15627   -18134.958   -16120.003   -18134.958            0    6993.1824    50.068101    25.073778    22.996315            0            0            0    28869.492    6976.3108    7142.9672    6860.2692   -33.538819   -275.32723    8.1504378    50.068101    25.073778    22.996315           90           90           90 
   81500     264.9602   -18134.047   -16112.959   -18134.047            0     7105.465    50.107406    24.922502     23.11879            0            0            0    28870.788    6602.1965    8042.6772    6671.5213   -293.50086   -338.14604   -210.92803    50.107406    24.922502     23.11879           90           90           90 
   82000    270.74336   -18171.427   -16106.226   -18171.427            0     7160.148    49.895115    25.069161    23.087883            0            0            0    28878.986     8369.208    6503.3998    6607.8361   -240.82623   -558.12341   -26.700978    49.895115    25.069161    23.087883           90           90           90 
   82500    274.85618   -18081.767   -15985.194   -18081.767            0    7447.6027      50.2078    25.031993     22.98231            0            0            0    28884.197    6882.8653    7484.0395    7975.9032    186.55434   -1183.0204    742.82701      50.2078    25.031993     22.98231           90           90           90 
   83000    267.72384   -18113.032   -16070.863   -18113.032            0    7914.3627    49.842869    24.961978     23.17877            0            0            0    28838.484    9603.0618    6992.2159    7147.8102   -934.50507    176.68634    -98.36562    49.842869    24.961978     23.17877           90           90           90 
   83500    267.21077   -18134.514   -16096.259   -18134.514            0    7973.5325    50.155899    25.012581    22.956306            0            0            0    28799.339    7544.4947    7281.4924    9094.6102    283.78807    63.752754    595.86289    50.155899    25.012581    22.956306           90           90           90 
   84000     276.3303   -18128.928    -16021.11   -18128.928            0    7273.8002    49.971288    24.994281    23.098948            0            0            0    28850.504    7291.3578    7621.0465    6908.9961   -151.47577    366.31439   -89.505939    49.971288    24.994281    23.098948           90           90           90 
   84500    268.52436   -18188.547   -16140.272   -18188.547            0    7833.3666    50.031988    24.994657    23.030359            0            0            0     28800.21    7120.2401    7696.9822    8682.8775    248.62206   -773.19755   -254.51206    50.031988    24.994657    23.030359           90           90           90 
   85000    271.98245   -18163.001   -16088.348   -18163.001            0     7923.793     50.01935    24.998089     23.01421            0            0            0    28776.695    7358.8516    7852.0271    8560.5003    145.79592    14.875761    340.16234     50.01935    24.998089     23.01421           90           90           90 
   85500    270.74401   -18096.698   -16031.492   -18096.698            0    7521.3091    49.958213    24.970814     23.15644            0            0            0    28887.595    7015.1637    8591.7206    6957.0429    362.98133   -370.48364    431.43041    49.958213    24.970814     23.15644           90           90           90 
   86000    267.33194    -18098.74   -16059.561    -18098.74            0    7856.9438    50.195085    25.014477    22.952545            0            0            0    28819.302    7155.8486     7682.664    8732.3189    211.04005    599.78559   -1000.8856    50.195085    25.014477    22.952545           90           90           90 
   86500    264.20758   -18156.468   -16141.121   -18156.468            0    7679.1916    49.782835    25.048812    23.133408            0            0            0     28847.38    8984.3088    6595.2334    7458.0326   -350.30499   -486.96164    841.45297    49.782835    25.048812    23.133408           90           90           90 
   87000    268.27584   -18118.215   -16071.836   -18118.215            0    7743.4532    50.166587    24.965406    23.048765            0            0            0    28866.947     7618.239    8236.3838    7375.7366   -269.22342    325.12136    502.07636    50.166587    24.965406    23.048765           90           90           90 
   87500    265.82435   -18124.643   -16096.963   -18124.643            0    7705.8457    49.950981    25.067023    23.037974            0            0            0    28846.363    7759.4652    6681.0776    8676.9944    -41.79489   -761.37179   -337.57049    49.950981    25.067023    23.037974           90           90           90 
   88000    265.18905   -18067.081   -16044.248   -18067.081            0    7793.2386    50.113942    24.950496    23.100006            0            0            0    28883.501    7478.6358    8253.8081    7647.2719   -421.94107   -24.416903   -561.39449    50.113942    24.950496    23.100006           90           90           90 
   88500    265.29825   -18099.677    -16076.01   -18099.677            0    8266.5686    50.023972    25.049057    22.964358            0            0            0    28775.566    8709.9753    7411.5206      8678.21    191.96258   -927.15109   -145.69483    50.023972    25.049057    22.964358           90           90           90 
   89000    264.70555    -18214.06   -16194.914    -18214.06            0    7767.9223    49.946117    24.919876    23.125652            0            0            0    28783.367    7719.4696    8425.6909    7158.6064   -150.19986    149.49427    130.65339    49.946117    24.919876    23.125652           90           90           90 
   89500    266.61555   -18214.107   -16180.393   -18214.107            0    8072.3202      50.0624    24.999861    22.974162            0            0            0    28753.382    7449.6999    7915.2098    8852.0508   -524.48873   -666.43112   -684.10172      50.0624    24.999861    22.974162           90           90           90 
   90000    266.52125   -18180.002   -16147.007   -18180.002            0    7551.5077    49.954056    24.983503    23.069115            0            0            0    28790.886    7777.3823    7590.5215    7286.6193   -833.23566     584.0638    416.24553    49.954056    24.983503    23.069115           90           90           90 
   90500    267.42894   -18083.126   -16043.207   -18083.126            0    8015.7108    50.105175    24.972755    23.064485            0            0            0    28859.766    7783.0693    8212.5015    8051.5617     749.1488   -207.89335    138.28613    50.105175    24.972755    23.064485           90           90           90 
   91000    267.07217   -18143.223   -16106.025   -18143.223            0    7628.7378    49.983378    25.042749    23.032131            0            0            0    28829.806    7722.4161    7779.0954    7384.7019    749.33448   -121.44018    228.80403    49.983378    25.042749    23.032131           90           90           90 
   91500    266.28943   -18147.085   -16115.857   -18147.085            0    7832.4987    50.075029    24.969674    23.052122            0            0            0    28823.386    8018.9586    7320.0445    8158.4928    239.10106    441.55318   -89.935328    50.075029    24.969674    23.052122           90           90           90 
   92000    268.17664   -18077.238   -16031.615   -18077.238            0    8316.8442    49.955804    25.034382    23.022098            0            0            0    28791.727    8724.3658    7779.5026    8446.6641     14.92569    6.8902415    123.34052    49.955804    25.034382    23.022098           90           90           90 
   92500    263.84808   -18117.419   -16104.814   -18117.419            0    8722.0725    50.015626    24.944304    23.043097            0            0            0    28748.683    8982.1729     9523.512    7660.5325    -151.5445   -199.22532   -294.66223    50.015626    24.944304    23.043097           90           90           90 
   93000    271.51731   -18129.948   -16058.843   -18129.948            0    8077.4618     50.00388    25.029223    23.050139            0            0            0    28848.592    8927.2503      7179.02     8126.115   -62.534751     360.4811   -12.226628     50.00388    25.029223    23.050139           90           90           90 
   93500    264.65465   -18160.003   -16141.246   -18160.003            0    7648.8494    50.029824    24.984021    23.045221            0            0            0    28805.286     6607.235    8662.2938    7677.0193   -98.495586   -782.38064   -602.01048    50.029824    24.984021    23.045221           90           90           90 
   94000    270.77186    -18132.04   -16066.622    -18132.04            0    7309.6809    50.016578    25.004187     23.11124            0            0            0    28903.469    6982.8194    7342.9234       7603.3    188.27484    702.78933   -430.52326    50.016578    25.004187     23.11124           90           90           90 
   94500    270.49584   -18149.752   -16086.439   -18149.752            0    7346.5682    50.071456    25.012251    23.060582            0            0            0    28881.069    7517.1007    7274.0785    7248.5253   -316.47128   0.33837451   -270.99365    50.071456    25.012251    23.060582           90           90           90 
   95000    270.78205   -18137.843   -16072.346   -18137.843            0    6951.2462    50.073213    25.015408    23.077522            0            0            0    28906.947    7048.1373    7533.1852    6272.4162   -281.91774    470.79004   -189.62757    50.073213    25.015408    23.077522           90           90           90 
   95500    265.50021    -18109.99   -16084.783    -18109.99            0    7339.7529    49.921818    25.056427    23.078108            0            0            0    28867.538    8868.0854    6320.2991    6830.8741   -321.83079    418.69634    313.83592    49.921818    25.056427    23.078108           90           90           90 
   96000    264.50079   -18142.644    -16125.06   -18142.644            0    7045.7556    50.153701    24.980548    23.059155            0            0            0    28890.052    6639.8793    6948.3743    7549.0131    547.48248   -563.07032   -430.82541    50.153701    24.980548    23.059155           90           90           90 
   96500    266.71905   -18180.282   -16145.777   -18180.282            0    6834.3982     49.97478    25.056485    23.083894            0            0            0    28905.474     6637.418    6742.1831    7123.5937    436.05346   -257.95907    491.44187     49.97478    25.056485    23.083894           90           90           90 
   97000    262.02287   -18105.958   -16107.275   -18105.958            0     7277.536    50.116118    24.981408    23.068059            0            0            0    28880.545    6294.7145    7699.3088    7838.5847   -3.6635108   -226.01948   -400.90754    50.116118    24.981408    23.068059           90           90           90 
   97500    265.26961   -18128.138    -16104.69   -18128.138            0    7282.8198    50.026707      25.0467    23.051323            0            0            0    28883.398    7950.3856    6402.9628    7495.1111   -350.27115   -167.09144   -1147.2135    50.026707      25.0467    23.051323           90           90           90 
   98000    273.55679   -18169.225   -16082.564   -18169.225            0    7162.2243    50.152096    24.962947    23.067519            0            0            0    28879.244    6352.3786     8116.466    7017.8283   -120.72312   -159.93158    20.567299    50.152096    24.962947    23.067519           90           90           90 
   98500    265.48258   -18160.722   -16135.649   -18160.722            0    6784.9842     49.95096    25.080844      23.0705            0            0            0    28903.005    7154.1807    5765.8857    7434.8862    -56.83363   -292.71596   -1068.7073     49.95096    25.080844      23.0705           90           90           90 
   99000    269.00288   -18087.003   -16035.078   -18087.003            0    7440.3774    50.276174    24.953019    23.028448            0            0            0    28890.163    6640.2935    8002.6745    7678.1641   -718.61159   -335.23445   -411.06683    50.276174    24.953019    23.028448           90           90           90 
   99500    271.18801   -18105.702   -16037.109   -18105.702            0     7487.142    49.910792    25.092645     23.06348            0            0            0    28884.559    7924.4791    6935.8503    7601.0964    303.57184    780.75129    251.34025    49.910792    25.092645     23.06348           90           90           90 
  100000    271.79773   -18130.674    -16057.43   -18130.674            0    7461.4937    50.141946     24.96857     23.02916            0            0            0    28831.879    6276.4102    7968.2823    8139.7886    33.331708    -178.7664     -118.082    50.141946     24.96857     23.02916           90           90           90 
  100500    271.54678   -18168.397   -16097.068   -18168.397            0    7131.6886    50.003731    25.051915    23.061112            0            0            0    28888.406    7581.3898    6233.8654    7579.8105   -238.14613    380.81958   -69.924255    50.003731    25.051915    23.061112           90           90           90 
  101000    264.51193    -18121.65   -16103.981    -18121.65            0    7219.5233    50.067266    24.949824    23.112801            0            0            0    28871.805    7027.8113    7818.1773    6812.5813   -265.06418   -340.56992    249.05797    50.067266    24.949824    23.112801           90           90           90 
  101500    267.74792   -18102.417   -16060.064   -18102.417            0    7238.9267    50.158997    25.095277    22.968516            0            0            0    28911.709    7520.1066    6273.5373    7923.1362    -445.3901     118.9947   -521.26144    50.158997    25.095277    22.968516           90           90           90 
  102000    267.30426   -18116.276   -16077.307   -18116.276            0    6515.7932      50.0546    24.980319    23.170949            0            0            0    28972.487    6182.1152    7273.9805    6091.2839    109.14112    485.97372    602.04342      50.0546    24.980319    23.170949           90           90           90 
  102500    266.31782   -18148.089   -16116.645   -18148.089            0    6960.7907    50.070251    25.045806    23.053197            0            0            0    28909.857    6759.8823    6995.3145    7127.1754   -12.077334   -1072.6164   -351.67767    50.070251    25.045806    23.053197           90           90           90 
  103000    265.63453   -18158.199   -16131.967   -18158.199            0    6876.0793    50.139076     25.00383    23.048862            0            0            0    28895.642    6125.2519    8004.6734    6498.3125    303.45157   -31.699375   -22.484778    50.139076     25.00383    23.048862           90           90           90 
  103500     269.2035   -18140.361   -16086.905   -18140.361            0    7693.0471    50.011467    24.982676    23.088555            0            0            0    28847.309    7973.7845    7527.7964    7577.5605   -56.583459    185.07307   -136.79329    50.011467    24.982676    23.088555           90           90           90 
  104000    264.68387   -18103.786   -16084.805   -18103.786            0    7854.7327    50.087525    25.057501    22.968605            0            0            0    28827.166    7829.1187    7925.9207    7809.1587   -127.47434    209.77186   -84.254021    50.087525    25.057501    22.968605           90           90           90 
  104500    268.55938   -18181.682    -16133.14   -18181.682            0    7934.2384    50.003032     24.93941    23.120895            0            0            0    28832.823    8021.3136    7828.7133    7952.6882    66.290978    326.95771    802.34427    50.003032     24.93941    23.120895           90           90           90 
  105000    272.39172   -18169.897   -16092.122   -18169.897            0    6624.9721    50.043893    25.106125    23.034773            0            0            0    28941.078    6961.2473    5446.6357    7467.0333   -471.30821   -400.28213   -191.85992    50.043893    25.106125    23.034773           90           90           90 
  105500    272.63588   -18044.162   -15964.525   -18044.162            0    7229.0832    50.208507    25.017405    23.100075            0            0            0    29015.694    7611.2492    7082.6211    6993.3792    246.91065   -43.367554    30.353987    50.208507    25.017405    23.100075           90           90           90 
  106000    271.00215   -18169.707   -16102.531   -18169.707            0    7258.4816    50.045192    25.011744      23.0877            0            0            0    28899.279    7958.2349    6451.3159    7365.8941   -24.469711   -669.56242    519.29642    50.045192    25.011744      23.0877           90           90           90 
  106500    265.30645   -18057.237   -16033.507   -18057.237            0    8207.6115    50.171824     24.99665    23.010702            0            0            0    28858.354    7409.1599     8622.507    8591.1677   -632.12002    933.38474     253.4484    50.171824     24.99665    23.010702           90           90           90 
  107000    274.19617   -18159.533   -16067.994   -18159.533            0    7366.7252    49.907406    24.983328    23.124816            0            0            0    28833.249    7535.0421    7817.1502    6747.9833    127.49005    334.02974   -50.578059    49.907406    24.983328    23.124816           90           90           90 
  107500    270.73183   -18057.596   -15992.482   -18057.596            0    7729.4999    50.164819    25.064933     22.97912            0            0            0    28893.436    7532.5209    7924.1726     7731.806     466.6397   -18.192024    254.73138    50.164819    25.064933     22.97912           90           90           90 
  108000    269.36965   -18102.541   -16047.818   -18102.541            0    6771.0599    50.091016    24.972637    23.113277            0            0            0    28912.509    6672.1298    7324.4141    6316.6358     -36.8701    56.488794     449.0445    50.091016    24.972637    23.113277           90           90           90 
  108500    271.55622   -18116.902     -16045.5   -18116.902            0    7417.8792    50.029814    25.055135    23.057312            0            0            0    28902.426    7539.5489    7139.9156    7574.1732   -198.95742    759.71374   -103.45304    50.029814    25.055135    23.057312           90           90           90 
  109000    271.32993   -18134.691   -16065.015   -18134.691            0     7270.121    50.212441    25.004925    23.010193            0            0            0    28890.639    6224.8961    7607.1134    7978.3535    352.12873    681.27442   -64.733229    50.212441    25.004925    23.010193           90           90           90 
  109500    275.89253   -18179.621   -16075.142   -18179.621            0    7186.4029    49.911835    25.025233    23.117781            0            0            0    28875.386    7838.5087    6844.4703    6876.2296   -580.36661    548.85514    522.42416    49.911835    25.025233    23.117781           90           90           90 
  110000    270.63475   -18157.405   -16093.033   -18157.405            0    7118.2416    50.221391    24.973023    23.009153            0            0            0    28857.618    6245.4985    7919.6828    7189.5436   -260.97365   -804.66242   -65.451317    50.221391    24.973023    23.009153           90           90           90 
  110500    263.32548   -18128.269   -16119.651   -18128.269            0    7025.2539    49.996381    25.013676     23.09911            0            0            0    28887.592    7346.7031    6856.1647    6872.8939   -500.96534     1193.614   -404.06524    49.996381    25.013676     23.09911           90           90           90 
  111000    262.10216   -18095.545   -16096.258   -18095.545            0    7291.6471    50.097921    25.057642    23.026208            0            0            0    28905.623    7073.7163    7210.3087    7590.9162   -351.81852   -131.95512    203.43248    50.097921    25.057642    23.026208           90           90           90 
  111500    270.41995     -18129.8   -16067.066     -18129.8            0    7661.6902    50.050309    24.996589    23.087088            0            0            0    28883.956    8032.5178    7226.8433    7725.7093   -11.243756   -684.20842    448.30225    50.050309    24.996589    23.087088           90           90           90 
  112000    267.76542   -18173.813   -16131.327   -18173.813            0     6727.926    49.992644    25.064614    23.051585            0            0            0    28884.705    6319.8086    7169.3083    6694.6612    305.31228    198.79113     418.6943    49.992644    25.064614    23.051585           90           90           90 
  112500    269.61726   -18177.153   -16120.542   -18177.153            0    6479.6956      50.1393     24.98093    23.071114            0            0            0    28897.178    6273.0752    7054.5439    6111.4678   -301.45314   -643.36188    516.52759      50.1393     24.98093    23.071114           90           90           90 
  113000     273.8321   -18146.918   -16058.156   -18146.918            0    6867.5887    49.950604    25.072874    23.086004            0            0            0    28913.031    6835.1073    6867.9785    6899.6802   -111.56016   -51.274013    23.679484    49.950604    25.072874    23.086004           90           90           90 
  113500    259.81518   -18082.817   -16100.974   -18082.817            0    7504.7015    50.326132    25.000506     22.94861            0            0            0    28873.455    6852.2697    7586.4898    8075.3451    1079.3352   -183.65357   -122.69792    50.326132    25.000506     22.94861           90           90           90 
  114000    267.35853   -18056.572    -16017.19   -18056.572            0    7401.8606    49.836803    25.055241    23.173203            0            0            0    28935.755    7926.0279     7019.204    7260.3499    142.41865   -340.93308     841.2042    49.836803    25.055241    23.173203           90           90           90 
  114500    269.69175   -18122.347   -16065.167   -18122.347            0    7349.2611    50.177062    24.992162     23.01273            0            0            0    28858.729    7322.7132    7431.4918    7293.5783   -165.15742   -689.25441   -645.60586    50.177062    24.992162     23.01273           90           90           90 
  115000    271.03728    -18085.39   -16017.946    -18085.39            0    7714.1904    49.990429    25.003086    23.095315            0            0            0     28867.18    7954.9057    7789.1519    7398.5136    322.13289    150.53622    49.478897    49.990429    25.003086    23.095315           90           90           90 
  115500    274.25806   -18169.209   -16077.197   -18169.209            0    6880.8706    50.135255    24.995577     23.05174            0            0            0     28887.51    6133.7159    7788.0407    6720.8553    120.72252    123.67085     822.5829    50.135255    24.995577     23.05174           90           90           90 
  116000    269.39462    -18192.73   -16137.817    -18192.73            0    6817.6788    49.971615    25.068972    23.089077            0            0            0    28924.541    7279.4107    6377.8317     6795.794   -398.32101   -552.83529   -758.97025    49.971615    25.068972    23.089077           90           90           90 
  116500    275.61063   -18151.408   -16049.079   -18151.408            0    6926.4469    50.274374    24.965221    23.053965            0            0            0    28935.282    5951.9114    7680.8266    7146.6027   -171.34277    570.97899    452.41156    50.274374    24.965221    23.053965           90           90           90 
  117000    264.39948   -18133.418   -16116.607   -18133.418            0    7796.4828    49.853461    25.062565    23.060948            0            0            0    28813.632    8569.3641    6747.9411    8072.1431    -221.1502   -115.46006    7.1623924    49.853461    25.062565    23.060948           90           90           90 
  117500    270.77461   -18230.113   -16164.673   -18230.113            0    7113.4265    50.130397    24.992431    23.016748            0            0            0    28837.235    6751.1209    7526.8864    7062.2723   -794.96388   -508.15953   -144.68413    50.130397    24.992431    23.016748           90           90           90 
  118000    268.83967   -18129.058   -16078.378   -18129.058            0    7633.6835    49.975572    25.029144     23.03489            0            0            0    28813.095    7289.6553    8142.4861    7468.9092   -613.57674    305.33576    360.53317    49.975572    25.029144     23.03489           90           90           90 
  118500    269.85184   -18136.951    -16078.55   -18136.951            0      8013.21    49.954982    24.947128    23.117172            0            0            0     28809.39    9249.4194    7875.3385    6914.8721    330.72332    287.01327   -1387.3237    49.954982    24.947128    23.117172           90           90           90 
  119000    275.18174   -18099.504   -16000.447   -18099.504            0    7716.3629    50.112785     25.06649    22.953391            0            0            0    28832.939    6869.2667    7618.2916    8661.5304    19.983322    -651.6304    -337.5376    50.112785     25.06649    22.953391           90           90           90 
  119500    271.52113   -18126.766   -16055.632   -18126.766            0    8116.6744     49.94808    24.894666    23.151245            0            0            0    28787.203    8351.5361    8884.0723    7114.4149    925.37913   -71.405167    478.16257     49.94808    24.894666    23.151245           90           90           90 
  120000    266.33398   -18126.686   -16095.119   -18126.686            0    8680.9963    50.028974    25.064359    22.905622            0            0            0     28722.37    8489.9498    7937.2837    9615.7555    118.54778    -682.4954    191.97283    50.028974    25.064359    22.905622           90           90           90 
  120500    270.38341    -18127.29   -16064.834    -18127.29            0    8081.8013    50.078368    24.961053    23.036641            0            0            0    28796.003    8356.0376    8137.0047    7752.3615    152.12744    734.74112    828.79259    50.078368    24.961053    23.036641           90           90           90 
  121000    262.62807   -18092.346   -16089.047   -18092.346            0    8254.0904    49.911369    24.988822    23.087575            0            0            0    28795.431    8851.5986    7635.2035    8275.4692    376.23817    377.22743    290.35046    49.911369    24.988822    23.087575           90           90           90 
  121500    276.34833   -18153.356   -16045.401   -18153.356            0    8009.3188    50.132786    24.980758    22.990125            0            0            0    28791.798    7508.8581    7846.9439    8672.1545     395.0485   -19.514284   -189.69489    50.132786    24.980758    22.990125           90           90           90 
  122000    267.98359   -18153.499   -16109.348   -18153.499            0    7790.7518    49.967876    24.961031    23.083069            0            0            0    28790.352    8685.0542    7533.4697    7153.7314   -229.89195    744.41545    381.21408    49.967876    24.961031    23.083069           90           90           90 
  122500    269.01256   -18102.775   -16050.776   -18102.775            0    7164.4628     50.08162    25.084146    22.994293            0            0            0    28886.687    7872.6382    6591.5732    7029.1771    518.37493    103.84516    310.49723     50.08162    25.084146    22.994293           90           90           90 
  123000    266.13709   -18191.893   -16161.828   -18191.893            0    7071.9705    50.127402    24.931381    23.107128            0            0            0    28878.026    7449.0459    7304.0817     6462.784    -1002.655   -255.07121    257.22937    50.127402    24.931381    23.107128           90           90           90 
  123500    264.93559   -18088.067   -16067.166   -18088.067            0    7115.7479    49.939656    25.093912    23.076298            0            0            0    28918.786    7207.3138    6305.6914    7834.2386    416.82598    330.00338   -235.77532    49.939656    25.093912    23.076298           90           90           90 
  124000    267.24557   -18083.649   -16045.128   -18083.649            0    7772.0998    50.200878    25.016529    23.004199            0            0            0    28889.863    7956.1672    7377.3175    7982.8147   -516.52436    766.28555   -1223.5922    50.200878    25.016529    23.004199           90           90           90 
  124500    264.53785   -18091.558   -16073.692   -18091.558            0    7817.2024    49.884823    24.993519    23.125593            0            0            0    28832.926    8339.9526    7342.8612    7768.7934   -460.45264   -306.85194    134.81454    49.884823    24.993519    23.125593           90           90           90 
  125000    272.91243   -18052.089   -15970.342   -18052.089            0    7800.0819    50.266131    25.003365     22.98655            0            0            0    28890.011    7591.8844    7316.0372     8492.324   -186.29991   -129.48978   -412.70424    50.266131    25.003365     22.98655           90           90           90 
  125500    268.05278   -18144.738    -16100.06   -18144.738            0     7457.231    49.886819    25.016966    23.110195            0            0            0    28841.913    7874.6797       7482.8    7014.2131    54.797227   -667.07862    363.99676    49.886819    25.016966    23.110195           90           90           90 
  126000    273.14538   -18101.677   -16018.153   -18101.677            0    8284.8234    50.074003     24.95003    23.063236            0            0            0    28814.005    7153.9296    9317.3436    8383.1969     737.4516   -113.73905   -259.86773    50.074003     24.95003    23.063236           90           90           90 
  126500    263.55425   -18118.907   -16108.544   -18118.907            0    8449.8944    49.928593    25.057995     22.97167            0            0            0    28740.096    9049.9781     7540.399     8759.306    321.92036    249.54478    241.59738    49.928593    25.057995     22.97167           90           90           90 
  127000    267.38211   -18102.722    -16063.16   -18102.722            0    8705.1348    49.884867    24.898167    23.138005            0            0            0    28738.369      9500.78    9080.6446    7533.9797    998.26892   -498.66165   -613.43437    49.884867    24.898167    23.138005           90           90           90 
  127500    269.55842   -18141.568   -16085.406   -18141.568            0    8670.7317    50.065882    25.061787    22.862941            0            0            0    28687.058    7790.6547    8514.8291    9706.7112   -83.120484   -132.43419    420.50295    50.065882    25.061787    22.862941           90           90           90 
  128000    270.29345   -18115.656   -16053.886   -18115.656            0    8305.7831    49.836666    24.929373    23.148672            0            0            0    28759.836    9730.5931    8378.3771     6808.379   -233.54181   -492.57175    4.9583384    49.836666    24.929373    23.148672           90           90           90 
  128500    274.21659   -18162.547   -16070.852   -18162.547            0    8330.7948    50.037345    24.996393    22.995286            0            0            0    28761.426    8788.8657    7515.7761    8687.7425    256.18036    618.50348   -491.96527    50.037345    24.996393    22.995286           90           90           90 
  129000    270.41597   -18145.541   -16082.837   -18145.541            0    7118.0964    50.059007    25.027728    23.052929            0            0            0    28882.166     7172.275    6997.7617    7184.2524   -324.38285   -272.42674    243.15085    50.059007    25.027728    23.052929           90           90           90 
  129500    270.71257   -18103.623   -16038.657   -18103.623            0    7333.9853    50.072173    25.009498    23.103519            0            0            0    28932.072    7116.1058    7568.2223     7317.628    257.20602    316.37737    622.69424    50.072173    25.009498    23.103519           90           90           90 
  130000    272.26173   -18170.038   -16093.255   -18170.038            0    7402.2044    50.064953    25.011511    23.007786            0            0            0    28810.352    6929.7411     8000.061    7276.8113    150.26676   -154.57575   -935.18578    50.064953    25.011511    23.007786           90           90           90 
  130500    275.48916   -18115.166   -16013.764   -18115.166            0      8314.49    50.058925    24.930596    23.073801            0            0            0    28796.076    8649.9835    8142.0266    8151.4599    206.00446    464.44469    1226.8828    50.058925    24.930596    23.073801           90           90           90 
  131000    259.84907   -18148.485   -16166.384   -18148.485            0    8721.1543    49.865644    24.990585    23.029296            0            0            0    28698.455    9228.9117    8216.9945    8717.5565   -468.59339   -406.47255   -345.06486    49.865644    24.990585    23.029296           90           90           90 
  131500    268.09765    -18213.69    -16168.67    -18213.69            0    7765.1872    50.144338    24.978781    22.969597            0            0            0    28770.441     6883.684    8170.7317    8241.1459    105.32421   -262.46498   -320.03855    50.144338    24.978781    22.969597           90           90           90 
  132000    274.32202   -18160.534   -16068.035   -18160.534            0    8214.7059    49.846778    24.981019     23.14022            0            0            0    28814.741    8840.7974    8036.5147    7766.8057    199.31374    224.43142   -70.174753    49.846778    24.981019     23.14022           90           90           90 
  132500    276.25274   -18119.288   -16012.062   -18119.288            0    7527.8118    50.217521    25.024248    22.960494            0            0            0    28853.435    6648.0969    7785.5624     8149.776    336.51425   -938.84659   -255.27856    50.217521    25.024248    22.960494           90           90           90 
  133000    272.72262   -18128.052   -16047.753   -18128.052            0    7677.0129    49.793143    25.058666    23.120826            0            0            0    28849.004     8736.162    7624.4018    6670.4748   -162.67047     522.7686    24.651078    49.793143    25.058666    23.120826           90           90           90 
  133500    265.28105   -18122.589   -16099.054   -18122.589            0    7594.7666    50.253831    24.960806    22.999483            0            0            0    28850.002    7872.7036     7300.069    7611.5273   -116.88784    251.09657   -82.849623    50.253831    24.960806    22.999483           90           90           90 
  134000    262.34197   -18085.863   -16084.746   -18085.863            0    7365.3555     49.91049     25.08357    23.069923            0            0            0    28882.003    7552.3771    7206.7493      7336.94   -251.46615   -281.43953    116.93074     49.91049     25.08357    23.069923           90           90           90 
  134500     270.4029   -18092.922   -16030.317   -18092.922            0    7444.7844    50.253544    24.949918    23.034916            0            0            0    28881.681    6572.9953    8082.6472    7678.7107   -607.51584   -208.97254    477.25381    50.253544    24.949918    23.034916           90           90           90 
  135000    267.57356   -18174.185   -16133.163   -18174.185            0    7298.2082    49.894142    25.078225    23.041883            0            0            0    28831.307    8727.8192    6008.1662     7158.639    7.7126379    636.15881   -561.37695    49.894142    25.078225    23.041883           90           90           90 
  135500    263.58611   -18112.096   -16101.489   -18112.096            0    7048.4298    50.209087    24.908049    23.098717            0            0            0    28887.496    5671.1973    8161.5782    7312.5138    267.27813   -292.84446   -575.03494    50.209087    24.908049    23.098717           90           90           90 
  136000    274.10315   -18188.019   -16097.189   -18188.019            0    7037.9365    49.855161    25.157135    23.035387            0            0            0    28891.283    7821.9969    6235.5266    7056.2859   -659.78563   -78.100459    484.98874    49.855161    25.157135    23.035387           90           90           90 
  136500    267.86736   -18115.311   -16072.048   -18115.311            0    7439.1452    50.174552    24.926922    23.099686            0            0            0    28890.712    7423.7265    7533.3618    7360.3474   -63.405118    437.90707   -521.08678    50.174552    24.926922    23.099686           90           90           90 
  137000    266.44893   -18104.032   -16071.588   -18104.032            0    7312.1253    49.910121    25.121724    23.069749            0            0            0    28925.504    7362.4001    7047.8297    7526.1459    147.28723   -45.821975   -486.24543    49.910121    25.121724    23.069749           90           90           90 
  137500    266.12157   -18083.243   -16053.296   -18083.243            0    7465.2917    50.210949    24.967326    23.051793            0            0            0    28898.491    6830.6158    7932.7346    7632.5249   -761.52741   -158.03214   -33.433315    50.210949    24.967326    23.051793           90           90           90 
  138000    269.84013   -18121.839   -16063.528   -18121.839            0      8039.58    49.855968    25.030025    23.086021            0            0            0    28808.956    8694.0502    7089.9806    8334.7092   -312.21642    260.75674   -1014.3335    49.855968    25.030025    23.086021           90           90           90 
  138500    265.79672   -18136.144   -16108.675   -18136.144            0     7708.531    50.132315    24.978472    22.991197            0            0            0    28790.235    7391.1135    7730.5014     8003.978   -495.63741    -493.2665   -26.455233    50.132315    24.978472    22.991197           90           90           90 
  139000    256.87223   -18163.777   -16204.383   -18163.777            0    7891.0672    49.890883    25.038672    23.068897            0            0            0    28817.699    8382.5259      7600.71    7689.9657    267.60418   -521.59848    96.449658    49.890883    25.038672    23.068897           90           90           90 
  139500    275.38473   -18130.242   -16029.637   -18130.242            0    8073.0041    50.210847    24.926906    23.014812            0            0            0    28805.362    6743.4982    8466.6481    9008.8659    176.48591    494.01201   -15.969887    50.210847    24.926906    23.014812           90           90           90 
  140000    271.51594     -18092.1   -16021.006     -18092.1            0    8042.9169    49.858577    25.104753     23.03278            0            0            0    28829.837    8890.5333    7352.4116    7885.8059   -298.01386    654.94426    203.34086    49.858577    25.104753     23.03278           90           90           90 
  140500    269.58666   -18077.451   -16021.073   -18077.451            0    7707.6397    50.178563    24.905765    23.104719            0            0            0    28874.787    7419.9892    7965.8289     7737.101    12.340052   -430.03278    650.44227    50.178563    24.905765    23.104719           90           90           90 
  141000     269.2816   -18167.806   -16113.754   -18167.806            0    7732.3558    49.936071     25.06026    23.047064            0            0            0    28841.347    7382.9411     6819.533    8994.5932   -127.94228     819.7964   -866.33905    49.936071     25.06026    23.047064           90           90           90 
  141500    279.35345   -18205.541   -16074.663   -18205.541            0    7233.8828    50.090229     24.98372    23.042838            0            0            0    28836.734    7453.6461    7115.6873     7132.315    342.54821    186.96699    436.69891    50.090229     24.98372    23.042838           90           90           90 
  142000      269.201   -18118.925   -16065.489   -18118.925            0    8611.6833    49.896698    24.994182     23.06335            0            0            0     28762.93    8539.3281    8790.2116    8505.5103    561.98918    572.62217   -445.29904    49.896698    24.994182     23.06335           90           90           90 
  142500    275.93023   -18097.745   -15992.979   -18097.745            0    9094.0661    50.042846    24.921882    23.030047            0            0            0    28722.197    9365.9386    8930.0108    8986.2489   -1389.6759   -735.29195   -225.48373    50.042846    24.921882    23.030047           90           90           90 
  143000    265.66245   -18122.697   -16096.253   -18122.697            0    9360.8454    49.909119    24.993436    23.004413            0            0            0    28695.714     9205.522    9201.1544      9675.86    8.4183208    463.34013    351.29243    49.909119    24.993436    23.004413           90           90           90 
  143500    270.72129   -18131.053    -16066.02   -18131.053            0     9459.899    49.999383    24.907246    23.042653            0            0            0    28696.097    8565.5398    10129.823    9684.3346      709.709   -118.05224   -481.56569    49.999383    24.907246    23.042653           90           90           90 
  144000    277.68472   -18165.387   -16047.238   -18165.387            0    9705.9726    49.896474    25.001378    22.961438            0            0            0    28643.948    9042.0143    9048.4651    11027.438   -169.09868   -252.30839    -616.3286    49.896474    25.001378    22.961438           90           90           90 
  144500    277.61865   -18152.271   -16034.625   -18152.271            0    9656.7123    49.971295    24.871343    23.043279            0            0            0    28639.414    8364.7449    10854.103    9751.2885    -668.8597   -88.386587   -136.93818    49.971295    24.871343    23.043279           90           90           90 
  145000     269.1331   -18129.423   -16076.504   -18129.423            0    9146.1751     49.87482    24.989385    23.010891            0            0            0    28679.418     9310.994    8997.9311    9129.6002    352.02855    647.31585   -381.89477     49.87482    24.989385    23.010891           90           90           90 
  145500    268.71793   -18103.195   -16053.443   -18103.195            0    9137.2688    49.998118    24.954479    23.031476            0            0            0    28735.843    9270.0885    9725.7088     8416.009    136.02378   -112.70684    504.26419    49.998118    24.954479    23.031476           90           90           90 
  146000    273.58408   -18175.894   -16089.024   -18175.894            0    8352.3165    49.945079    25.006565    23.003077            0            0            0    28729.805    8258.8646    8376.3268    8421.7582    254.92652    224.45976    699.43917    49.945079    25.006565    23.003077           90           90           90 
  146500    269.02871   -18145.496   -16093.374   -18145.496            0    7909.2649    50.061652    24.971372    23.027562            0            0            0    28786.942     7629.903    8151.8113    7946.0805    534.31642    419.78145    376.44299    50.061652    24.971372    23.027562           90           90           90 
  147000    264.07027   -18132.081   -16117.781   -18132.081            0    7908.9367    49.935967    24.994256    23.073715            0            0            0    28798.589    8829.7885    7473.0163    7424.0054   -25.919372    56.118294   -541.93223    49.935967    24.994256    23.073715           90           90           90 
  147500    277.44178   -18166.081   -16049.785   -18166.081            0    7948.5203    50.078238    24.995017    23.012392            0            0            0    28804.759    7978.3166    7729.3161    8137.9282   0.27022623   -365.43802   -811.82567    50.078238    24.995017    23.012392           90           90           90 
  148000    267.37579   -18130.095   -16090.581   -18130.095            0    8412.5824    49.918279    24.955122    23.078235            0            0            0    28748.944    8931.1963    9564.4195    6742.1315   -918.72863    123.83202    373.61624    49.918279    24.955122    23.078235           90           90           90 
  148500    267.27595   -18065.951   -16027.199   -18065.951            0    8783.8199    49.990583    24.982027    23.018999            0            0            0    28747.647    8562.0567    8862.0861    8927.3168   -557.25213    561.99099   -1012.1675    49.990583    24.982027    23.018999           90           90           90 
  149000    282.95909   -18111.326   -15952.944   -18111.326            0    8186.9274    50.041848    24.999713    23.002802            0            0            0    28777.238     8075.164    8066.3036    8419.3146    494.43996   -467.61941   -318.49837    50.041848    24.999713    23.002802           90           90           90 
  149500    266.74287   -18076.807   -16042.121   -18076.807            0    8292.3663    49.931446    24.910508    23.143324            0            0            0    28786.075    8851.3971    8213.4278    7812.2738   -373.31357    14.809306    330.20012    49.931446    24.910508    23.143324           90           90           90 
  150000    271.91746   -18191.683   -16117.526   -18191.683            0    8494.4905    50.021558    24.998981    22.964319            0            0            0    28716.605    8108.0847    7957.3993    9417.9876    106.66422   -650.48061    558.97488    50.021558    24.998981    22.964319           90           90           90 
  150500    270.92617   -18125.488   -16058.892   -18125.488            0    8267.8899    49.972988    24.969482      23.0663            0            0            0     28782.12    8197.4274    8402.2863     8203.956   -368.83549    13.464654    492.16393    49.972988    24.969482      23.0663           90           90           90 
  151000    269.81497   -18120.653   -16062.533   -18120.653            0    7729.9768    50.061164    25.032398    23.020494            0            0            0    28848.154    8319.4454    6958.6901     7911.795    7.7580983    -246.6727    39.117878    50.061164    25.032398    23.020494           90           90           90 
  151500    267.56549   -18100.844   -16059.883   -18100.844            0    7903.3813    50.074121    24.974216    23.060705            0            0            0     28838.84    8025.4279    8010.0575    7674.6584    539.10465    572.56611   -511.26521    50.074121    24.974216    23.060705           90           90           90 
  152000    267.81565   -18143.741   -16100.872   -18143.741            0    7441.4649     49.92203    24.990884    23.112044            0            0            0    28834.486    8152.0675    7248.6133     6923.714     181.4705    607.11685    107.64199     49.92203    24.990884    23.112044           90           90           90 
  152500    262.98686   -18137.952   -16131.917   -18137.952            0    7850.1758    50.209525    25.005016    22.933132            0            0            0    28792.317    6798.2722    8266.2066    8486.0486     229.8585   -550.09228    120.41674    50.209525    25.005016    22.933132           90           90           90 
  153000    268.56395   -18117.531   -16068.954   -18117.531            0    7422.4669     49.87215    25.003155    23.156338            0            0            0    28875.052     7526.853      8374.96    6365.5877    -277.6677   -178.38338   -95.777531     49.87215    25.003155    23.156338           90           90           90 
  153500    269.61635   -18162.124    -16105.52   -18162.124            0    7611.1085    50.179549    25.009088    22.983775            0            0            0    28843.368      7212.67    8138.0695    7482.5861   -367.30995   -631.44642    386.86192    50.179549    25.009088    22.983775           90           90           90 
  154000    274.62452   -18121.047    -16026.24   -18121.047            0    7919.9906    50.008294    24.994627    23.081622            0            0            0    28850.611    7809.0174    7745.6513    8205.3031   -195.72497    577.57767   -141.47326    50.008294    24.994627    23.081622           90           90           90 
  154500    269.67518   -18187.888   -16130.834   -18187.888            0    8082.0309     49.99188    24.985898    23.040032            0            0            0    28779.119    7251.9642    8249.9019    8744.2265    403.03481    -248.0527   -231.82332     49.99188    24.985898    23.040032           90           90           90 
  155000    273.83981   -18127.031    -16038.21   -18127.031            0    8413.0788    49.991182     24.98981    23.011341            0            0            0    28747.381    8178.9737    9365.3327      7694.93    211.66319     -274.288   -527.96615    49.991182     24.98981    23.011341           90           90           90 
  155500    269.36964    -18124.86   -16070.138    -18124.86            0    8070.1707    49.897513    24.945531    23.109926            0            0            0    28765.386    7741.6067    8642.5904    7826.3149    89.469334    535.63776    463.08724    49.897513    24.945531    23.109926           90           90           90 
  156000    260.73073   -18164.924   -16176.098   -18164.924            0     7853.222    50.144783    25.037316    22.936338            0            0            0     28796.36    7075.3838    7461.4417    9022.8403   -143.36981    -653.2107   -641.92503    50.144783    25.037316    22.936338           90           90           90 
  156500     267.0446    -18174.87   -16137.883    -18174.87            0    7726.5385    49.842247    24.973654    23.135852            0            0            0    28798.191     8210.881    8674.6629    6294.0715   -494.41976    -390.7293   -92.276145    49.842247    24.973654    23.135852           90           90           90 
  157000    270.36563   -18153.388   -16091.068   -18153.388            0    7917.1781    50.235731    25.040255     22.89592            0            0            0    28801.133    7276.1641    8114.3743     8360.996   -276.52007   -162.14084    210.53699    50.235731    25.040255     22.89592           90           90           90 
  157500    265.94713   -18151.027   -16122.411   -18151.027            0    7661.1856    49.894703    25.009252     23.10302            0            0            0    28828.624    7655.4179    7446.8206    7881.3183    -218.9847    81.494215    271.94807    49.894703    25.009252     23.10302           90           90           90 
  158000    267.27871   -18168.157   -16129.384   -18168.157            0    7818.5558    50.086447    24.974748    23.030995            0            0            0    28809.388     6715.845    8429.8426    8309.9798   -362.42222    259.19901   -283.85031    50.086447    24.974748    23.030995           90           90           90 
  158500    271.06266   -18131.513   -16063.876   -18131.513            0    8331.2205    50.025861    24.995355     23.01774            0            0            0    28781.708    7930.1474    8463.7611    8599.7529    -316.0387   -620.01408   -470.24203    50.025861    24.995355     23.01774           90           90           90 
  159000    270.77379   -18098.457   -16033.024   -18098.457            0    8069.0271    50.000301    24.967251    23.066606            0            0            0     28795.66    8151.3039    8330.0449    7725.7324   -91.937531   -33.477023    -648.6982    50.000301    24.967251    23.066606           90           90           90 
  159500    276.43114   -18142.179   -16033.592   -18142.179            0    7963.4495    49.899372    25.045796    23.032604            0            0            0    28785.446    7824.3696    8101.2068    7964.7721    183.16668    262.09744   -562.60125    49.899372    25.045796    23.032604           90           90           90 
  160000    266.68787   -18108.895   -16074.629   -18108.895            0    8149.1085    50.132781    24.887023    23.045259            0            0            0    28752.548    7194.5883    8294.2787    8958.4584   -255.15445   -894.95156    59.821646    50.132781    24.887023    23.045259           90           90           90 
  160500    275.01907   -18076.773   -15978.957   -18076.773            0    9058.8263    49.716658     25.10629    23.025406            0            0            0    28740.331    10046.156    8177.0899    8953.2331    340.48335   -440.21341   -713.30918    49.716658     25.10629    23.025406           90           90           90 
  161000    267.60704   -18161.331   -16120.053   -18161.331            0    8819.4029    50.139923     24.86373    23.036098            0            0            0    28718.309    8493.8033    9571.1128    8393.2925   -201.00557    421.76412   -214.66326    50.139923     24.86373    23.036098           90           90           90 
  161500    273.36334   -18130.571   -16045.385   -18130.571            0     8773.112     49.83244    25.055018    23.017489            0            0            0    28738.548    9198.4055    7585.0178    9535.9126   -893.98784   -400.66775   -354.83579     49.83244    25.055018    23.017489           90           90           90 
  162000    260.59846   -18081.632   -16093.815   -18081.632            0    8953.5787    50.102537    24.917911     23.03191            0            0            0    28754.201    8712.6405    9156.0329    8992.0628   -406.69846    369.76268    897.83939    50.102537    24.917911     23.03191           90           90           90 
  162500    269.23281   -18184.941   -16131.261   -18184.941            0     8059.001    49.891578    25.028107    23.037525            0            0            0    28766.767    8467.9379     8351.527     7357.538   -178.69035   -257.94505    264.29997    49.891578    25.028107    23.037525           90           90           90 
  163000    265.79644   -18141.198   -16113.732   -18141.198            0    8363.7132    50.038147    24.941073    23.071243            0            0            0    28793.028    7824.5811    8400.4192    8866.1392    306.26747   -503.61719   -76.997138    50.038147    24.941073    23.071243           90           90           90 
  163500    272.28503   -18187.448   -16110.487   -18187.448            0    7747.3494    49.939606    25.072612    23.024617            0            0            0      28829.5    8734.8936    6396.3388    8110.8159   -180.28094    615.52092      -369.68    49.939606    25.072612    23.024617           90           90           90 
  164000    265.86873   -18076.298    -16048.28   -18076.298            0    7974.4939    50.171574    24.908183    23.096796            0            0            0    28863.668    7649.7475    9016.5207    7257.2134    739.74806     89.94604   -379.88658    50.171574    24.908183    23.096796           90           90           90 
  164500    274.77521   -18071.782   -15975.826   -18071.782            0    7964.2328    49.905485    25.066459    23.063439            0            0            0    28851.296     8542.831    7643.1378    7706.7295   -670.19965   -183.45907    -711.9203    49.905485    25.066459    23.063439           90           90           90 
  165000    272.17537   -18099.542   -16023.417   -18099.542            0    8621.5383    50.056406     24.99635       22.999            0            0            0     28776.98    8150.1909    9491.7544    8222.6696     93.73575     344.0584   -137.66465    50.056406     24.99635       22.999           90           90           90 
  165500    270.48435   -18139.521   -16076.295   -18139.521            0    8291.9041    49.972859    24.962668    23.063261            0            0            0      28770.4    7292.0011    8950.9408    8632.7703    881.24645    -504.7981   -563.72397    49.972859    24.962668    23.063261           90           90           90 
  166000    268.58326   -18095.652   -16046.927   -18095.652            0    8139.2339    50.015104     25.00647    23.025051            0            0            0    28797.459    9365.9063     7489.649    7562.1463    -412.8119    404.16259    208.24027    50.015104     25.00647    23.025051           90           90           90 
  166500    261.49794   -18150.881   -16156.202   -18150.881            0    8254.2307    49.993767    24.971766    23.040232            0            0            0    28764.179     7776.427    9170.6323    7815.6327    394.07045    -500.2429   -327.28048    49.993767    24.971766    23.040232           90           90           90 
  167000    258.35186   -18140.267   -16169.587   -18140.267            0    8629.9931    49.990092    24.990687    23.004497            0            0            0    28739.213    8692.9113     8069.759     9127.309    381.70853    761.37171    229.65397    49.990092    24.990687    23.004497           90           90           90 
  167500    267.78056   -18154.006   -16111.405   -18154.006            0    8088.5686     49.92478    24.986594    23.078358            0            0            0    28789.103    8264.9558    7907.9843    8092.7657   -61.212341   -190.58911   -385.09196     49.92478    24.986594    23.078358           90           90           90 
  168000    272.13456   -18126.125   -16050.312   -18126.125            0    8337.7541    49.999596    25.025227    23.014112            0            0            0    28796.435    8143.8871    8587.6044    8281.7709   -534.72665   -206.05911    934.85619    49.999596    25.025227    23.014112           90           90           90 
  168500    273.99558   -18135.996   -16045.987   -18135.996            0    8441.9976    50.037309    24.945068    23.033641            0            0            0    28750.224    8017.4828    8981.5055    8327.0045    344.56621   -592.56398   -770.18728    50.037309    24.945068    23.033641           90           90           90 
  169000    268.19374   -18110.618   -16064.865   -18110.618            0     7611.134    49.978217    25.009501    23.058005            0            0            0    28820.898    8307.3738    7091.3282       7434.7    239.38597    190.51869   -24.259226    49.978217    25.009501    23.058005           90           90           90 
  169500    270.63407   -18111.464   -16047.096   -18111.464            0    7302.7063    50.109384    25.003014    23.035559            0            0            0    28860.921    6585.6374    8111.6846    7210.7968    106.66407   -162.65791   -89.077861    50.109384    25.003014    23.035559           90           90           90 
  170000    272.17695   -18159.937   -16083.801   -18159.937            0    7741.1365    49.966649    25.026286    23.065813            0            0            0    28843.329    7978.9222    6942.7829    8301.7042   -861.08044   -1138.9127   -349.95158    49.966649    25.026286    23.065813           90           90           90 
  170500    260.57044   -18215.228   -16227.624   -18215.228            0    7337.2498    50.145545    24.958089    23.007659            0            0            0    28794.937    6824.5262    6778.5006    8408.7226   -251.25824     205.4691   -455.83762    50.145545    24.958089    23.007659           90           90           90 
  171000    264.23124   -18134.084   -16118.556   -18134.084            0     7166.585    49.923678    25.090405    23.079216            0            0            0    28909.148    8030.1769    6457.0184    7012.5597   -108.79195   -188.48794    152.12973    49.923678    25.090405    23.079216           90           90           90 
  171500     266.8241   -18094.043   -16058.737   -18094.043            0    7926.3578    50.145192    24.957356    23.036749            0            0            0    28830.293    6798.8911    8278.9868    8701.1955    137.82996   -433.16375    13.464986    50.145192    24.957356    23.036749           90           90           90 
  172000    279.39932   -18189.812   -16058.583   -18189.812            0    7648.1043    49.987855    25.035623    23.027589            0            0            0      28818.5    8384.0293    6827.9319    7732.3517   -174.23254    499.68592    186.18036    49.987855    25.035623    23.027589           90           90           90 
  172500    274.91229   -18138.332    -16041.33   -18138.332            0    8280.1292    50.031883    24.929444     23.06095            0            0            0    28763.162    8296.9097    8700.3836    7843.0945    46.061721   -473.82093   -583.77129    50.031883    24.929444     23.06095           90           90           90 
  173000    271.41202   -18123.884   -16053.582   -18123.884            0    8574.8839    49.996561    25.040373    22.958816            0            0            0    28742.889    8158.0991    8816.2245    8750.3281   -219.71772    336.29395    583.13468    49.996561    25.040373    22.958816           90           90           90 
  173500    270.30478   -18106.383   -16044.527   -18106.383            0    8804.0669    50.038956    24.839614    23.124671            0            0            0    28742.772    7816.9788     10474.87    8120.3516   -894.45778    568.52931    381.24343    50.038956    24.839614    23.124671           90           90           90 
  174000    268.58979   -18182.017   -16133.243   -18182.017            0     8113.886    49.854272    25.079089    23.017147            0            0            0    28778.333    8654.8886    7927.4156    7759.3537   -161.62525   -262.42585    351.29466    49.854272    25.079089    23.017147           90           90           90 
  174500    270.84361   -18099.453   -16033.487   -18099.453            0    7504.4741    50.221393    24.968422    23.012409            0            0            0    28856.386    6090.6675    8822.6475    7600.1072   -406.02236   -179.94393    516.57834    50.221393    24.968422    23.012409           90           90           90 
  175000    268.98204   -18144.737   -16092.971   -18144.737            0    8263.0201    49.811723    25.029053    23.081726            0            0            0    28776.917    8715.2946    7962.4516    8111.3141    270.54058    -367.7716    288.77866    49.811723    25.029053    23.081726           90           90           90 
  175500      266.253     -18151.8   -16120.851     -18151.8            0    8083.8009    50.189391    24.932287    23.005093            0            0            0    28787.108    8200.6401    8198.4058    7852.3568    210.86991    428.22596     503.1467    50.189391    24.932287    23.005093           90           90           90 
  176000     264.0956   -18170.993     -16156.5   -18170.993            0    7787.9069    49.944179    25.021797    23.020196            0            0            0     28768.18     9151.689    7530.9489     6681.083    284.38689   -390.00008   -528.19231    49.944179    25.021797    23.020196           90           90           90 
  176500    274.09009   -18118.782   -16028.052   -18118.782            0    8138.5255     50.05527    24.968482    23.067373            0            0            0    28829.698    7711.9686    8489.0258    8214.5822    260.09253    -144.3541    701.49307     50.05527    24.968482    23.067373           90           90           90 
  177000    270.17646   -18140.473   -16079.596   -18140.473            0    7827.9867    49.986929    25.077946    22.977962            0            0            0    28804.473     8006.519    7624.3291    7853.1119   -506.23388    653.31753   -244.88953    49.986929    25.077946    22.977962           90           90           90 
  177500    273.24597   -18175.369   -16091.078   -18175.369            0    7149.9178    50.102367    24.867902    23.185546            0            0            0    28887.816    6802.7371    8610.2741    6036.7422     39.81262   -39.798487   -362.68997    50.102367    24.867902    23.185546           90           90           90 
  178000    269.04416   -18077.377   -16025.137   -18077.377            0    7188.4311    49.943523    25.186923    22.996849            0            0            0    28928.281     7254.562    6124.5982    8186.1331   -392.13123    2.2359354    532.53312    49.943523    25.186923    22.996849           90           90           90 
  178500    265.70527   -18194.119   -16167.348   -18194.119            0    7492.7305    50.272259     24.88552    23.030963            0            0            0    28812.917     6017.132    8382.2194    8078.8401   -484.15209   -231.32232   -169.53318    50.272259     24.88552    23.030963           90           90           90 
  179000    266.48202    -18135.52   -16102.823    -18135.52            0    7492.0942    49.931506    25.036937      23.0749            0            0            0     28846.67    7905.6359     7279.649    7290.9976    3.9402678    228.71833    163.15012    49.931506    25.036937      23.0749           90           90           90 
  179500    268.38419   -18094.003   -16046.797   -18094.003            0    8227.7486    50.089246    24.974227    23.025867            0            0            0    28803.982    8152.8851    7848.3432    8682.0174   -250.47186   -100.89106    1121.5387    50.089246    24.974227    23.025867           90           90           90 
  180000    266.30213   -18141.265   -16109.941   -18141.265            0    8081.7937    50.015832    25.003385    23.040587            0            0            0    28813.754    8167.4013    8209.8426    7868.1372    175.39405   -261.54442    199.79281    50.015832    25.003385    23.040587           90           90           90 
  180500    267.51636   -18066.669   -16026.083   -18066.669            0    8724.8213    49.957814    24.965548    23.087205            0            0            0     28794.92    9415.6538    8375.5298    8383.2804    468.41683    -113.1986    179.99096    49.957814    24.965548    23.087205           90           90           90 
  181000     267.4391   -18149.103   -16109.107   -18149.103            0    8199.1487    50.117717    24.982351    22.953259            0            0            0    28738.821    7820.4113    8680.8087    8096.2262   -145.53856   -727.81473   -752.40429    50.117717    24.982351    22.953259           90           90           90 
  181500    270.57554   -18162.556   -16098.635   -18162.556            0    8165.5762    49.786894    24.992556    23.101955            0            0            0    28745.803    8750.5885    8152.6602    7593.4798    548.72557    1069.2456    243.06628    49.786894    24.992556    23.101955           90           90           90 
  182000    268.03568   -18104.762   -16060.214   -18104.762            0    8682.2771    50.128443    24.922712    23.026122            0            0            0    28767.381    8783.2799    8335.3668    8928.1846   -181.20097   -803.37437   -52.058214    50.128443    24.922712    23.026122           90           90           90 
  182500    263.11439   -18099.648    -16092.64   -18099.648            0    8262.2631    50.045753    25.029034    22.990553            0            0            0    28797.894    8227.8416    8521.2038    8037.7439   -79.090904    1317.5042    1135.3973    50.045753    25.029034    22.990553           90           90           90 
  183000    273.04429   -18114.406   -16031.653   -18114.406            0    8292.7167    49.962334    24.936041    23.094695            0            0            0    28772.822    8373.3305    9084.4285    7420.3913   -7.6154831   -1109.4764    52.221758    49.962334    24.936041    23.094695           90           90           90 
  183500    277.00216   -18109.778   -15996.835   -18109.778            0    8870.8948     50.07688    25.066244    22.908965            0            0            0    28756.233    8996.1209    7506.6725    10109.891    216.14246   -580.03407   -388.64787     50.07688    25.066244    22.908965           90           90           90 
  184000    274.85032    -18141.53   -16045.001    -18141.53            0     8450.479    49.869027    24.847554    23.218159            0            0            0    28770.162    8613.4352    8847.3822    7890.6196   -211.24175    754.36313    802.92211    49.869027    24.847554    23.218159           90           90           90 
  184500    267.27463   -18084.551   -16045.809   -18084.551            0    8706.5188    49.981054    25.110741    22.902023            0            0            0    28743.442    9222.0085    6717.8722    10179.676   -342.08951    654.05492   -604.26251    49.981054    25.110741    22.902023           90           90           90 
  185000    267.53719   -18164.178   -16123.433   -18164.178            0    7809.1968    50.095995    24.905699    23.065132            0            0            0    28777.806    7241.2058    8934.1032    7252.2815   -822.12956    833.64504    -536.9758    50.095995    24.905699    23.065132           90           90           90 
  185500    268.08634   -18088.531   -16043.597   -18088.531            0    8236.5623     49.91185    25.016872    23.059339            0            0            0    28792.775    8555.7703    8174.3862    7979.5303    299.45886   -1316.9255    134.71021     49.91185    25.016872    23.059339           90           90           90 
  186000    270.76196   -18095.904    -16030.56   -18095.904            0    8350.8336    50.196898    24.937299     23.00681            0            0            0     28799.35    6900.4382    9136.7496    9015.3132   -109.04809    204.51229    55.096585    50.196898    24.937299     23.00681           90           90           90 
  186500    263.78999   -18145.863   -16133.702   -18145.863            0    8189.3405    49.852718     24.98585     23.09255            0            0            0    28764.369    8677.9507    7363.5763    8526.4946    511.72871     168.1526   -520.57363    49.852718     24.98585     23.09255           90           90           90 
  187000    267.77949   -18143.539   -16100.946   -18143.539            0    8107.7598    50.229699    24.999726    22.941307            0            0            0    28808.058    6847.2934    8610.2116    8865.7744    36.406899   -831.10683    415.96281    50.229699    24.999726    22.941307           90           90           90 
  187500     263.1112   -18096.723   -16089.739   -18096.723            0    7523.4831    49.821348    25.015205    23.137496            0            0            0    28836.058    7878.9568    7663.5452    7027.9474     325.5721   -655.57755    100.25207    49.821348    25.015205    23.137496           90           90           90 
  188000    271.48615   -18123.029   -16052.161   -18123.029            0     7312.395    50.141049     25.01104    22.989182            0            0            0    28830.269    6945.5043    7567.8427    7423.8379   -33.348282   -306.63446   -53.498175    50.141049     25.01104    22.989182           90           90           90 
  188500    270.31637   -18104.639   -16042.695   -18104.639            0    7870.2191    49.931783    25.040919    23.062905            0            0            0     28836.42    7638.8324    7620.4542    8351.3708    363.72202    595.41332    178.08482    49.931783    25.040919    23.062905           90           90           90 
  189000    270.92167   -18213.249   -16146.688   -18213.249            0    7994.9314    50.019085    24.928307    23.064066            0            0            0    28758.378    7472.6836    7552.3301    8959.7807   -462.05284    62.216331    250.03327    50.019085    24.928307    23.064066           90           90           90 
  189500     270.4902   -18142.692   -16079.422   -18142.692            0    8679.3384    50.058131    25.031065    22.949921            0            0            0    28756.441    8425.5255    7868.0578    9744.4318   -756.97695    197.66466    124.75951    50.058131    25.031065    22.949921           90           90           90 
  190000     276.9855   -18085.319   -15972.503   -18085.319            0    7902.0669    49.970249     24.90347    23.192279            0            0            0    28861.227    8447.7908    8390.3137     6868.096    508.17685   -404.20989    268.78071    49.970249     24.90347    23.192279           90           90           90 
  190500     280.7728    -18080.49   -15938.785    -18080.49            0    7899.9174    50.082369    25.066256    22.957423            0            0            0    28820.232    7467.6252     8045.539    8186.5881      443.478    132.40645   -419.94308    50.082369    25.066256    22.957423           90           90           90 
  191000    279.27623    -18182.69   -16052.401    -18182.69            0    7781.2781    49.958798    24.942532    23.072445            0            0            0    28750.549    8164.1518    7710.6204    7469.0622   -210.78288   -354.89395   -165.00656    49.958798    24.942532    23.072445           90           90           90 
  191500    267.21855   -18076.668   -16038.353   -18076.668            0    8240.7011    50.005596    24.970433    23.057387            0            0            0    28790.869    7962.6696    8007.5698    8751.8639   -61.326904    523.53825   -52.938982    50.005596    24.970433    23.057387           90           90           90 
  192000    265.98071   -18104.774   -16075.902   -18104.774            0    8536.9971     49.98468     25.03507    22.976235            0            0            0     28751.77    8668.1964    7823.8845    9118.9102     229.1156   -381.21013    70.967844     49.98468     25.03507    22.976235           90           90           90 
  192500    277.34344   -18127.578   -16012.032   -18127.578            0    7460.0177    49.957023    24.934189    23.172291            0            0            0    28864.283    7411.6084     8601.674    6366.7707     252.7428   -280.99249   -717.00091    49.957023    24.934189    23.172291           90           90           90 
  193000    266.57339   -18102.263    -16068.87   -18102.263            0    7737.4631    50.202824    25.075866    22.924326            0            0            0     28858.96    7129.8439    7667.4191    8415.1263   -519.29277   -235.74913    206.98299    50.202824    25.075866    22.924326           90           90           90 
  193500    270.61728   -18154.357   -16090.117   -18154.357            0    7078.6875    49.887569    24.930512    23.203435            0            0            0    28858.638    7484.5132    7765.0326    5986.5166    -110.3224   -909.27228    394.92839    49.887569    24.930512    23.203435           90           90           90 
  194000    267.03321   -18119.729   -16082.828   -18119.729            0    7094.4362    50.182346    25.123684    22.930073            0            0            0    28909.443    6202.0582    6450.0812    8631.1691   -281.62322   -318.82941    -700.3091    50.182346    25.123684    22.930073           90           90           90 
  194500    272.60945   -18139.542   -16060.106   -18139.542            0    7487.1331    49.994685    25.011388    23.083665            0            0            0    28864.656    7499.1849    7790.7539    7171.4604   -276.59763    222.96524    6.3568658    49.994685    25.011388    23.083665           90           90           90 
  195000    273.81313   -18143.725   -16055.108   -18143.725            0    7629.8567    50.047609    24.992474    23.073149            0            0            0    28860.208     8086.244     7571.433    7231.8932   -109.85961     59.78575   -545.10734    50.047609    24.992474    23.073149           90           90           90 
  195500    270.29793   -18062.911   -16001.108   -18062.911            0    7755.2675     50.10818    25.052376    23.000173            0            0            0    28872.783    7875.4104    7493.4942    7896.8978    67.213886    -708.2301    302.14695     50.10818    25.052376    23.000173           90           90           90 
  196000    273.19828   -18107.274   -16023.347   -18107.274            0    7684.9353    49.986055      24.9423    23.111606            0            0            0    28814.791    7891.4024    7793.1254    7370.2781   -269.78998    1143.9689    625.01085    49.986055      24.9423    23.111606           90           90           90 
  196500    278.77269   -18117.932   -15991.484   -18117.932            0    7426.1857    50.078454    25.093599    22.973465            0            0            0    28869.573    7332.7807    6599.4533    8346.3231    -654.2527    -140.2246    260.16389    50.078454    25.093599    22.973465           90           90           90 
  197000    271.63568   -18145.916   -16073.908   -18145.916            0    7180.8837    50.057816    24.943906    23.118222            0            0            0    28866.278    7261.1863    7921.1812    6360.2837    108.91904    103.02907   -232.80385    50.057816    24.943906    23.118222           90           90           90 
  197500    270.53561   -18149.774   -16086.157   -18149.774            0    7272.8628    50.052655    25.007002     23.04804            0            0            0    28848.468    7145.1237    7461.3579    7212.1067    435.22347   -224.35423    742.11193    50.052655    25.007002     23.04804           90           90           90 
  198000    270.21191   -18129.572   -16068.425   -18129.572            0    7718.2322    50.174021     25.03729    22.979135            0            0            0    28866.883    7761.3004    7637.7601     7755.636     80.39068    387.66513    -1032.078    50.174021     25.03729    22.979135           90           90           90 
  198500    260.08636   -18080.286   -16096.375   -18080.286            0     7899.775    49.946826    24.956541    23.144105            0            0            0    28849.127    8085.0565    8325.8322    7288.4363    277.09309   -118.84326   -86.995981    49.946826    24.956541    23.144105           90           90           90 
  199000    270.85042    -18101.57   -16035.552    -18101.57            0    7566.8948    50.101869    25.096215    22.975267            0            0            0    28888.349    7167.3827    7276.9413    8256.3603    206.80006    618.22152    374.40242    50.101869    25.096215    22.975267           90           90           90 
  199500    274.31556   -18100.766   -16008.316   -18100.766            0    6792.4583    50.004875    24.979066    23.167768            0            0            0    28938.282    6546.1047    7599.8887    6231.3817   -22.927623   -229.54528    427.84768    50.004875    24.979066    23.167768           90           90           90 
  200000    270.03522   -18164.725   -16104.926   -18164.725            0    7753.9936    50.077434    25.050781    22.991722            0            0            0    28842.629    7451.0083    7440.8228    8370.1497    63.299218   -540.86813    41.031847    50.077434    25.050781    22.991722           90           90           90 
  200500    261.53193   -18154.259   -16159.322   -18154.259            0     6935.564    50.031047    24.959193    23.133497            0            0            0    28887.597    7213.2951    6870.1361    6723.2609   -574.80619   -390.27997    -370.0112    50.031047    24.959193    23.133497           90           90           90 
  201000    266.84121   -18097.338   -16061.902   -18097.338            0    6678.4357    50.029286    25.062587    23.121333            0            0            0    28990.992     6859.457    6147.9376    7027.9125    49.064683    626.88477    -88.65999    50.029286    25.062587    23.121333           90           90           90 
  201500    265.23649   -18114.334   -16091.138   -18114.334            0    7364.2882    50.131965     25.07793    22.998049            0            0            0    28913.284    7425.4119    6903.5493    7763.9035   -335.99923   -227.84961   -377.31436    50.131965     25.07793    22.998049           90           90           90 
  202000    269.05622   -18121.063   -16068.731   -18121.063            0    7381.3715    50.059166    24.990413    23.108023            0            0            0    28908.119    7346.1683    7408.1443    7389.8019    201.89756    501.37986     -703.834    50.059166    24.990413    23.108023           90           90           90 
  202500    268.43059    -18159.97    -16112.41    -18159.97            0    7096.7222    50.061915    25.062663    23.013388            0            0            0     28874.55    7859.2248    7407.3369    6023.6048     478.4907      607.439    428.21659    50.061915    25.062663    23.013388           90           90           90 
  203000    263.71586   -18203.882   -16192.285   -18203.882            0    7627.7226    50.074067    24.947745    23.051542            0            0            0    28796.795    7203.9189    7740.8855    7938.3633    360.49152    345.42614   -298.63212    50.074067    24.947745    23.051542           90           90           90 
  203500     270.0721   -18132.502   -16072.421   -18132.502            0    7511.8272    49.885671    25.054686    23.059137            0            0            0    28820.919    7939.5906    7302.9132     7292.978   -123.23947    14.636774    343.15685    49.885671    25.054686    23.059137           90           90           90 
  204000    270.18224   -18120.428   -16059.506   -18120.428            0    8368.8953    50.180299    24.948444     22.97454            0            0            0    28762.294    8216.5661      7841.17    9048.9497   -370.85515   -517.46263    372.49531    50.180299    24.948444     22.97454           90           90           90 
  204500     275.1774   -18194.886   -16095.862   -18194.886            0      8657.27    49.748958    25.002309    23.037157            0            0            0    28654.511    8616.8401    8654.1295    8700.8405    316.03123   -1024.0157    74.148761    49.748958    25.002309    23.037157           90           90           90 
  205000     266.8564   -18167.553   -16132.001   -18167.553            0     8784.062    50.126271    24.866448    23.015454            0            0            0    28687.897    8150.7971    9556.8936    8644.4954    525.73486    5.3966691    137.33177    50.126271    24.866448    23.015454           90           90           90 
  205500    273.26444   -18074.562    -15990.13   -18074.562            0    8600.8923    49.937265    25.062742    23.023317            0            0            0    28815.174    9090.0384    8444.0345    8268.6039   -569.01794   -298.15975   -632.83738    49.937265    25.062742    23.023317           90           90           90 
  206000    268.30949   -18211.179   -16164.543   -18211.179            0    8363.9366    50.090202    24.924728    23.047858            0            0            0    28774.898    8432.1207    8613.1752     8046.514   -653.01722   -1051.9599   -321.59333    50.090202    24.924728    23.047858           90           90           90 
  206500    271.96322    -18095.18   -16020.674    -18095.18            0     8385.545    49.953389    25.063241     23.02036            0            0            0    28821.348    8437.4419    8009.1592     8710.034    332.91525    226.58895    -53.35918    49.953389    25.063241     23.02036           90           90           90 
  207000    268.89733   -18130.409   -16079.289   -18130.409            0    7952.0796    50.200133    24.917242    23.052859            0            0            0    28835.642    7843.5669    8138.6826    7873.9894   -301.73237    169.07882      963.342    50.200133    24.917242    23.052859           90           90           90 
  207500    266.63805   -18126.661   -16092.775   -18126.661            0    8085.8876    49.809457    25.121968    23.044998            0            0            0    28836.473    8949.5707    7284.3072    8023.7848    -292.0062   -562.16849    717.63375    49.809457    25.121968    23.044998           90           90           90 
  208000    269.78015   -18133.113   -16075.259   -18133.113            0    7643.1967    50.300993    24.847886    23.059964            0            0            0    28822.034    6873.9762    8591.4109     7464.203    224.83671    185.27054   -54.987447    50.300993    24.847886    23.059964           90           90           90 
  208500    273.78513   -18162.788   -16074.385   -18162.788            0    8042.0553    49.744672    25.128475    23.011457            0            0            0      28764.5    8860.6733    6370.8258    8894.6669     747.6718   -468.06689   -139.19257    49.744672    25.128475    23.011457           90           90           90 
  209000    270.33645   -18113.119   -16051.022   -18113.119            0    8183.0021     50.17575    24.866145     23.05438            0            0            0    28764.431    7470.8612    9007.2006    8070.9444   -340.55553    227.49413    37.703139     50.17575    24.866145     23.05438           90           90           90 
  209500    273.23173   -18119.173   -16034.991   -18119.173            0    8688.2523    49.826058    25.035205    23.024168            0            0            0    28720.475    9216.4315    8520.0484    8328.2769   -73.646382   -143.99564   -233.85307    49.826058    25.035205    23.024168           90           90           90 
  210000    270.89668   -18112.359   -16045.988   -18112.359            0    8450.8042     50.13478    24.856713    23.074017            0            0            0    28754.514    8496.3133    8771.5155    8084.5838   -290.03386    622.40434   -187.55067     50.13478    24.856713    23.074017           90           90           90 
  210500     268.6505   -18098.414   -16049.177   -18098.414            0    8183.7137    49.879618    25.082029    23.024679            0            0            0    28805.763    7944.8856    8260.5538    8345.7016    128.35222    -44.66576    57.212327    49.879618    25.082029    23.024679           90           90           90 
  211000    267.25045   -18112.312   -16073.754   -18112.312            0    8602.5204    50.125545    24.895278    23.040084            0            0            0    28751.476    7790.8419    9373.2995      8643.42    431.78447   -467.93272    405.51226    50.125545    24.895278    23.040084           90           90           90 
  211500    266.27806   -18147.153   -16116.012   -18147.153            0    8684.4127    49.808875    25.017238     23.04757            0            0            0    28719.127    9249.3319    8296.5845    8507.3218    717.12727    150.83558   -1.9651409    49.808875    25.017238     23.04757           90           90           90 
  212000    270.13018   -18157.237   -16096.712   -18157.237            0    8746.6213    50.240448    24.907263    22.965699            0            0            0    28738.174    7921.6028    9183.5597    9134.7014    -454.6398    753.67572   -944.09872    50.240448    24.907263    22.965699           90           90           90 
  212500    270.37382   -18081.331   -16018.949   -18081.331            0     8418.226    49.718385    25.073057    23.088431            0            0            0    28781.851    9299.7398    8061.5057    7893.4325    149.92296   -762.11554    181.50763    49.718385    25.073057    23.088431           90           90           90 
  213000    273.66112   -18163.304   -16075.846   -18163.304            0    7926.9663    50.274128    24.843907    23.024502            0            0            0    28757.736     7039.223    9091.9861    7649.6899   -673.46472    225.05114   -155.07227    50.274128    24.843907    23.024502           90           90           90 
  213500    271.70046   -18106.508   -16034.006   -18106.508            0    8375.5516    49.853885    25.098242    23.003291            0            0            0     28782.75    8020.3047    8227.9955    8878.3547    430.38294    24.551102    143.46078    49.853885    25.098242    23.003291           90           90           90 
  214000    274.34369   -18141.154   -16048.489   -18141.154            0    7978.0484    50.001245    24.899834    23.120147            0            0            0    28785.107    8112.3178    8876.2825    6945.5449    120.14523     111.5042   -845.28864    50.001245    24.899834    23.120147           90           90           90 
  214500    273.92387   -18162.732    -16073.27   -18162.732            0    7826.3997    49.994216    25.053067    22.957432            0            0            0    28754.377    7252.2346    7935.5346    8291.4298   -198.00341   -811.55387   -283.94608    49.994216    25.053067    22.957432           90           90           90 
  215000     259.0259   -18160.008   -16184.186   -18160.008            0    7857.7977    49.988959    24.930073    23.087101            0            0            0    28771.801    8094.2186    8104.2273    7374.9474    379.05273   -175.54778   -453.09734    49.988959    24.930073    23.087101           90           90           90 
  215500    271.87963   -18079.873   -16006.005   -18079.873            0    7043.5457    50.091204    25.088596    23.013817            0            0            0    28921.878    6571.5562     7018.116    7540.9649   -308.44196   -889.21904    465.18071    50.091204    25.088596    23.013817           90           90           90 
  216000    270.98787   -18185.631   -16118.564   -18185.631            0    6987.1262    50.108097    24.934491    23.149328            0            0            0    28923.231    6812.9837    7179.7812    6968.6139    636.90434   -206.05776     1.232346    50.108097    24.934491    23.149328           90           90           90 
  216500    261.49842   -18104.969   -16110.287   -18104.969            0    7640.9707    49.977367    25.113228    23.014565            0            0            0     28885.42    8102.5335    6373.6264    8446.7521    387.78488   -247.04983    84.792731    49.977367    25.113228    23.014565           90           90           90 
  217000    273.19005   -18116.156   -16032.292   -18116.156            0    7703.4783    50.147457    24.915577    23.093623            0            0            0    28854.393    7513.2828      8340.49    7256.6621    51.321044   -314.57541     656.6827    50.147457    24.915577    23.093623           90           90           90 
  217500    270.62359   -18127.459   -16063.172   -18127.459            0    7828.2659    49.910641    25.038315    23.069491            0            0            0    28829.442    8069.1082    7047.2585    8368.4311    470.95288   -301.93803   -100.51673    49.910641    25.038315    23.069491           90           90           90 
  218000    275.30952   -18144.703   -16044.671   -18144.703            0    7806.2852    50.208352    24.968063    22.999702            0            0            0    28832.548    6978.0832    7764.7282    8676.0443    194.75186    222.05409   -1153.6717    50.208352    24.968063    22.999702           90           90           90 
  218500    272.15179   -18132.453   -16056.509   -18132.453            0     8257.138    49.739948    25.003722    23.134453            0            0            0    28771.945    9254.2297    7401.7948    8115.3894   -106.53242   -344.54596    1414.6086    49.739948    25.003722    23.134453           90           90           90 
  219000    271.97151   -18167.084   -16092.515   -18167.084            0    8077.6728    50.182723    24.972814    22.945403            0            0            0    28755.267    7452.2371    8941.4288    7839.3526    143.27171    50.918178    89.256772    50.182723    24.972814    22.945403           90           90           90 
  219500    268.99738   -18172.452   -16120.569   -18172.452            0    7324.0612    49.835771    25.046012    23.086606            0            0            0    28816.409    8081.2039    6976.2802    6914.6995   -433.40894   -529.26699   -299.94205    49.835771    25.046012    23.086606           90           90           90 
  220000    267.95156   -18134.064   -16090.158   -18134.064            0    8134.3737    50.197749    24.925144    23.015029            0            0            0    28796.086    7133.1968    8870.7958    8399.1284   -294.93551   -516.88219   -367.61024    50.197749    24.925144    23.015029           90           90           90 
  220500    266.90422    -18168.53   -16132.613    -18168.53            0    7877.5111    49.722499    25.106261    23.032393            0            0            0    28752.397    9640.1228    6321.6011    7670.8093   -96.253522    -290.6092   -493.49571    49.722499    25.106261    23.032393           90           90           90 
  221000    271.17106   -18130.318   -16061.854   -18130.318            0    8085.5069    50.158822    24.841477    23.111919            0            0            0    28797.895    7388.4067    9525.4292    7342.6849    93.231983    44.481507   -417.31255    50.158822    24.841477    23.111919           90           90           90 
  221500    268.36704   -18165.335    -16118.26   -18165.335            0    8696.6484    49.887011    25.090805    22.986224            0            0            0    28771.979    9453.3015    7734.9726    8901.6712    -408.8756    311.95489    151.34925    49.887011    25.090805    22.986224           90           90           90 
  222000    266.07366   -18173.783   -16144.201   -18173.783            0    7935.6417     50.05831    24.903905    23.080652            0            0            0    28773.435    7417.6232     8649.352    7739.9499    388.98327    114.82201    138.81548     50.05831    24.903905    23.080652           90           90           90 
  222500     270.6388   -18093.945   -16029.541   -18093.945            0    8294.0521    49.898583    25.062703    23.021605            0            0            0    28790.667    8761.1187    7921.9339    8199.1038   -282.33659    98.704932    262.41327    49.898583    25.062703    23.021605           90           90           90 
  223000    275.34791   -18150.448   -16050.123   -18150.448            0    8044.7176     50.11052     24.96697    23.008154            0            0            0    28785.682     7860.969    8673.8457    7599.3379    49.395533    555.96979   -115.60508     50.11052     24.96697    23.008154           90           90           90 
  223500    272.41463   -18116.114   -16038.164   -18116.114            0    7910.5669    49.904556    24.964986    23.153255            0            0            0    28845.867     8364.656    8322.2233    7044.8214     297.8769   -98.440948    224.52339    49.904556    24.964986    23.153255           90           90           90 
  224000    269.78207   -18088.921   -16031.052   -18088.921            0     8140.275    50.091429    25.046137    22.941622            0            0            0    28782.485    7768.4013    8332.8248     8319.599   -235.12486   -146.54742     185.5076    50.091429    25.046137    22.941622           90           90           90 
  224500    268.00831   -18154.396   -16110.057   -18154.396            0    7717.7087    49.970102    24.949674    23.108284            0            0            0     28809.97    8639.7478    7570.1819    6943.1965   -47.834708    -397.0582   -839.88066    49.970102    24.949674    23.108284           90           90           90 
  225000    271.36953   -18107.427   -16037.449   -18107.427            0    8859.3706    49.914063    24.984927    23.019028            0            0            0    28707.012     8498.987     9301.637    8777.4879    337.50916   -816.06227    25.250272    49.914063    24.984927    23.019028           90           90           90 
  225500    273.96985   -18123.747   -16033.935   -18123.747            0      7977.65    50.127769    25.025323    22.962771            0            0            0    28805.961    7005.9096    7930.4088    8996.6315    522.70577    217.23025   -92.998405    50.127769    25.025323    22.962771           90           90           90 
  226000    266.46735    -18170.16   -16137.575    -18170.16            0    7443.0451    49.921058    24.948783    23.136186            0            0            0    28815.417    7366.1612    7688.1752    7274.7989   -680.37948    275.06913    711.73941    49.921058    24.948783    23.136186           90           90           90 
  226500    271.77986   -18184.914   -16111.806   -18184.914            0    7314.9541    50.166941    25.077709     22.92502            0            0            0    28841.324    6420.6485    6869.8717    8654.3422    627.72017   -313.54434     270.2167    50.166941    25.077709     22.92502           90           90           90 
  227000    265.79685    -18106.24    -16078.77    -18106.24            0    7212.6022    49.945273    24.989516    23.141068            0            0            0    28882.557     7775.819     7315.175    6546.8127   -481.14842   -314.43659    511.65172    49.945273    24.989516    23.141068           90           90           90 
  227500    266.12573   -18100.089   -16070.111   -18100.089            0     7423.536    50.128771    25.078795    22.982705            0            0            0    28893.148    7717.9047    6609.3386    7943.3648   -126.59687     195.8487    690.27273    50.128771    25.078795    22.982705           90           90           90 
  228000    272.03555   -18074.222   -15999.164   -18074.222            0    7341.1347    50.085741    25.057738    23.046652            0            0            0    28924.363     7723.804    6589.4309    7710.1692    358.29857    1025.8411   -448.81455    50.085741    25.057738    23.046652           90           90           90 
  228500      270.772   -18117.434   -16052.014   -18117.434            0    7211.0372    50.013686    24.986655    23.118666            0            0            0    28890.813    6588.9411    7912.5311    7131.6396   -111.05351   -578.80214    314.45145    50.013686    24.986655    23.118666           90           90           90 
  229000    274.88078   -18160.524   -16063.763   -18160.524            0      7460.91    50.174067    25.037249    22.989228            0            0            0    28879.542    7710.9146    6759.9155       7911.9   -448.48975    276.72944     340.1392    50.174067    25.037249    22.989228           90           90           90 
  229500    272.38225   -18147.456   -16069.753   -18147.456            0    7726.7921    49.969694    24.992003    23.098758            0            0            0    28846.716    8119.0654    7523.8853    7537.4256   -717.32217   -718.11884   -69.570949    49.969694    24.992003    23.098758           90           90           90 
  230000    270.82342   -18171.956   -16106.144   -18171.956            0    6714.1606    50.166571    25.041061    23.035194            0            0            0    28937.368     6623.919    6880.3218    6638.2409     1185.123    508.00056   -22.279878    50.166571    25.041061    23.035194           90           90           90 
  230500     273.9836   -18186.407   -16096.489   -18186.407            0    6517.0226     50.07631    25.064989    23.076135            0            0            0    28964.292    6687.5082    6616.4912    6247.0684   -287.59888   -358.57441    573.00948     50.07631    25.064989    23.076135           90           90           90 
  231000    267.35384   -18051.252   -16011.905   -18051.252            0    7741.8098    50.095495    24.983255    23.123403            0            0            0    28940.062    7854.8138    8069.2888    7301.3268    190.19053     196.4033    -109.6762    50.095495    24.983255    23.123403           90           90           90 
  231500     269.8029   -18167.405   -16109.377   -18167.405            0    7745.5913    50.090786    25.077412    22.964921            0            0            0    28847.323    7988.8529    6521.1435    8726.7773   -676.26995   -1014.4103    295.26979    50.090786    25.077412    22.964921           90           90           90 
  232000    270.63238   -18153.306   -16088.951   -18153.306            0    7642.3104    49.964393     24.95603    23.128705            0            0            0     28839.48    8143.6486    7412.1801    7371.1026    20.989281    1.0800024   -36.176219    49.964393     24.95603    23.128705           90           90           90 
  232500    268.50743   -18172.407   -16124.261   -18172.407            0      7335.57    50.098501    25.066146    22.974905            0            0            0    28851.342    6334.5793    7395.5162    8276.6146   -69.008336    328.06041    334.68776    50.098501    25.066146    22.974905           90           90           90 
  233000    265.74551   -18074.809    -16047.73   -18074.809            0    8428.8659    50.051864    24.961172    23.068348            0            0            0    28820.514    8651.8451    7932.0058    8702.7468   -52.582491    625.67097    593.88497    50.051864    24.961172    23.068348           90           90           90 
  233500    268.18774   -18103.101   -16057.394   -18103.101            0    8143.9018    49.995712    25.019396    23.006673            0            0            0    28778.185    8655.4768    8462.7403    7313.4883   -533.91386   -1171.8463    406.09078    49.995712    25.019396    23.006673           90           90           90 
  234000     275.0071   -18158.475   -16060.751   -18158.475            0    8621.0333    50.034338    24.954067    23.031884            0            0            0    28756.693    8278.1827    8762.6099    8822.3073    665.07946    275.50335   -415.95264    50.034338    24.954067    23.031884           90           90           90 
  234500     268.1334   -18187.738   -16142.445   -18187.738            0    8463.8438    49.905947    25.003633    23.048129            0            0            0    28760.146    8545.8582    7503.0115    9342.6616    39.290005   -20.819954   -115.62959    49.905947    25.003633    23.048129           90           90           90 
  235000    264.36568   -18131.634   -16115.081   -18131.634            0    8560.2442    50.023734    24.960192    22.997541            0            0            0    28714.775    8364.0447    9055.9902    8260.6977    799.69996    -61.75784    660.90813    50.023734    24.960192    22.997541           90           90           90 
  235500    277.69105   -18106.992   -15988.794   -18106.992            0    9041.2247    49.989614    24.974205    22.995001            0            0            0     28708.13    9134.3386    9055.9229    8933.4127   -314.35735   -224.69724   -550.08962    49.989614    24.974205    22.995001           90           90           90 
  236000    265.83356    -18142.63    -16114.88    -18142.63            0    9022.4791    49.889242    24.954782    23.066718            0            0            0    28717.491    9359.1685    8644.5291    9063.7397   -834.36115    -443.4401    157.80782    49.889242    24.954782    23.066718           90           90           90 
  236500    265.64602   -18078.523   -16052.203   -18078.523            0    8683.3893    50.119137    24.956591    22.993935            0            0            0    28760.879     7671.565     9216.873      9161.73   -380.91314   -433.21246    200.00616    50.119137    24.956591    22.993935           90           90           90 
  237000    269.42213    -18165.52   -16110.397    -18165.52            0    8195.2129     49.91553    24.960086    23.096973            0            0            0    28776.424    8693.1595    8271.1024    7621.3768   -23.822004    669.83135   -418.49694     49.91553    24.960086    23.096973           90           90           90 
  237500    267.61136    -18164.95   -16123.639    -18164.95            0    8262.6703    50.145228    24.971172    22.947593            0            0            0    28734.635    7605.4071    8825.6896    8356.9142   -234.54774    3.2717031    118.30805    50.145228    24.971172    22.947593           90           90           90 
  238000    272.71052   -18098.908   -16018.702   -18098.908            0    8784.6712    49.841187    25.001387    23.064304            0            0            0    28740.402    9605.2252    8075.4543    8673.3341   -567.54584   -845.48621    126.84339    49.841187    25.001387    23.064304           90           90           90 
  238500    269.62213   -18146.316   -16089.668   -18146.316            0    8541.9166    50.079634    24.888487    23.059095            0            0            0    28741.002    8184.1219     8759.499    8682.1289   -49.989046   -387.15471    125.73215    50.079634    24.888487    23.059095           90           90           90 
  239000    264.81325   -18130.428   -16110.461   -18130.428            0    7991.5011    49.904597     25.07713    23.025483            0            0            0    28815.565     8357.245    7961.4632    7655.7952   -16.907301   -220.19932    125.35544    49.904597     25.07713    23.025483           90           90           90 
  239500    266.84962   -18092.345   -16056.845   -18092.345            0    8131.1887    50.075009    24.901944    23.105676            0            0            0    28811.971    8865.4446    8743.5653    6784.5561     246.9106    566.70464     513.4429    50.075009    24.901944    23.105676           90           90           90 
  240000    271.23145   -18160.295   -16091.371   -18160.295            0    7681.3614    49.934992    25.148876    22.951397            0            0            0     28822.57    7997.0117    6676.9582    8370.1142   -423.81448   -512.38153    55.351538    49.934992    25.148876    22.951397           90           90           90 
  240500    266.24756   -18112.888   -16081.981   -18112.888            0    7526.0349    50.248588     24.84393    23.094551            0            0            0      28830.6    6215.3772    8268.7326     8093.995    353.91178    1453.7175   -421.67945    50.248588     24.84393    23.094551           90           90           90 
  241000    273.21793   -18140.948   -16056.871   -18140.948            0    7538.5302    49.904288    25.054505    23.075819            0            0            0    28852.325    8501.4524    7012.6076    7101.5307   -64.535076   -5.4855492    205.80388    49.904288    25.054505    23.075819           90           90           90 
  241500    280.34456   -18113.174   -15974.736   -18113.174            0    7925.5178    50.063702    24.968152     23.06438            0            0            0    28830.431    8133.7569    8512.6189    7130.1775   -336.87748     234.4256    -303.9309    50.063702    24.968152     23.06438           90           90           90 
  242000    274.82607    -18131.46   -16035.116    -18131.46            0    8941.4061    49.902325    24.985448    23.060251            0            0            0    28752.257    9535.5639     8402.408    8886.2464    107.88101    422.70158   -605.79603    49.902325    24.985448    23.060251           90           90           90 
  242500    274.11606   -18061.085   -15970.157   -18061.085            0    8147.3303    50.128152    24.978913    23.018599            0            0            0    28822.664    7741.3467     8576.591    8124.0532   -481.74677   -323.36123    -563.8676    50.128152    24.978913    23.018599           90           90           90 
  243000    271.92518   -18110.253   -16036.036   -18110.253            0    8119.7692    49.842514    24.966036    23.140312            0            0            0     28795.11    8285.8684     8797.555    7275.8841    38.032412    475.70546   -779.33998    49.842514    24.966036    23.140312           90           90           90 
  243500    262.55343   -18105.278   -16102.549   -18105.278            0    8884.6785     50.11757    25.001682    22.902764            0            0            0    28697.702    7926.7733    9073.6368    9653.6253    48.516667    262.39429   -403.74063     50.11757    25.001682    22.902764           90           90           90 
  244000    275.64945   -18154.356   -16051.732   -18154.356            0    8616.8589    49.772426    24.921532    23.164809            0            0            0    28733.748    8803.5283     9126.361    7920.6873    459.71814    296.26055    890.08596    49.772426    24.921532    23.164809           90           90           90 
  244500    280.22708   -18082.468   -15944.926   -18082.468            0     8148.324    50.166589    25.048794    22.959264            0            0            0    28850.899    7389.0503    8105.3195    8950.6023   -299.70016   -209.75756    23.134069    50.166589    25.048794    22.959264           90           90           90 
  245000    278.39595    -18116.29   -15992.715    -18116.29            0    8336.1959    49.879533    24.983485     23.16449            0            0            0    28866.767    8540.3308    8215.8986    8252.3582    167.97578    207.51195   -143.72354    49.879533    24.983485     23.16449           90           90           90 
  245500    274.77141   -18070.414   -15974.487   -18070.414            0    7872.2218    50.028732     25.01148    23.053146            0            0            0    28846.231     7868.406     8214.055    7534.2044     49.58817    -92.85519   -97.426029    50.028732     25.01148    23.053146           90           90           90 
  246000    273.59777   -18143.314   -16056.339   -18143.314            0    7831.9815    50.083564    24.992199    23.018416            0            0            0    28812.115    7319.3338    8317.8275    7858.7832   -190.52609   -350.72708    59.247221    50.083564    24.992199    23.018416           90           90           90 
  246500    268.25286   -18124.985   -16078.781   -18124.985            0     7233.012    49.962073    24.987132     23.11965            0            0            0    28862.778    8056.3431    7622.5948    6020.0981   -51.646981    771.14563    207.31681    49.962073    24.987132     23.11965           90           90           90 
  247000    274.68724   -18119.275    -16023.99   -18119.275            0    7355.6807     50.24118    25.042275    22.978955            0            0            0    28911.052    6925.5017    7535.6916    7605.8487    84.183411   -196.69027   -178.61697     50.24118    25.042275    22.978955           90           90           90 
  247500    268.17939   -18138.387   -16092.744   -18138.387            0    7439.3108    49.787579    24.994965    23.218501            0            0            0    28894.003    7996.4033    8051.6728    6269.8564   -34.068631   -505.96408   -130.60625    49.787579    24.994965    23.218501           90           90           90 
  248000    266.56681   -18149.707   -16116.364   -18149.707            0    6686.6863    50.311381    25.030644    22.966357            0            0            0    28922.136    6048.9016     6339.114    7672.0434    135.15117     -713.477    413.58874    50.311381    25.030644    22.966357           90           90           90 
  248500    269.08257   -18168.049   -16115.516   -18168.049            0     6834.239    49.978523    25.009345    23.125846            0            0            0    28905.692    7873.3205    6366.8185    6262.5782   -742.26455   -208.72375    591.28248    49.978523    25.009345    23.125846           90           90           90 
  249000    266.52944   -18131.895   -16098.837   -18131.895            0    8200.6605     50.01243    24.970741    23.067926            0            0            0     28808.32    8867.3053    7879.0449    7855.6313     360.7205   -547.50863    16.482184     50.01243    24.970741    23.067926           90           90           90 
  249500    269.17082   -18172.975   -16119.769   -18172.975            0    7360.4419    50.016298     25.02248    23.039181            0            0            0    28834.268     7691.313    7587.5479    6802.4648   -340.50425   -74.541592    64.684272    50.016298     25.02248    23.039181           90           90           90 
  250000    280.31579   -18101.017   -15962.798   -18101.017            0    6693.6331    50.128029    25.001365    23.152059            0            0            0    29015.761    6764.6716    6982.7798     6333.448    259.79093   -684.12167     946.3656    50.128029    25.001365    23.152059           90           90           90 
  250500    272.57534   -18122.912   -16043.736   -18122.912            0    6579.7753    50.156256    25.030073    23.087916            0            0            0     28984.91    6312.7478     7100.112    6326.4662    309.96615    954.18114    62.299537    50.156256    25.030073    23.087916           90           90           90 
  251000    268.58787   -18066.553   -16017.794   -18066.553            0    7165.4011    50.064767    25.105786    23.056991            0            0            0    28980.685    7588.2277    5965.6314    7942.3441   -682.64533   -52.713646    371.38273    50.064767    25.105786    23.056991           90           90           90 
  251500    266.16976   -18063.421   -16033.106   -18063.421            0    7251.4003     49.94288    24.960063    23.206177            0            0            0    28928.296    7655.0536    7734.4806    6364.6668   -104.19669    201.69406    612.92833     49.94288    24.960063    23.206177           90           90           90 
  252000    266.62867    -18160.52   -16126.705    -18160.52            0    6968.4347    50.236375    25.087955    22.886329            0            0            0     28844.28    6243.8375    6668.2541    7993.2124    67.313204   -314.38857    -9.567001    50.236375    25.087955    22.886329           90           90           90 
  252500    268.41606   -18100.762   -16053.314   -18100.762            0    7545.6239    49.890588    24.989879    23.146413            0            0            0    28858.016    8108.1854    7904.3429    6624.3434    816.67732   -106.72805     144.4459    49.890588    24.989879    23.146413           90           90           90 
  253000     274.6512   -18205.325   -16110.315   -18205.325            0    7853.6016    50.073691    24.981001    23.035923            0            0            0    28815.426    7403.3646    8444.2135    7713.2266    457.28205   -481.83551    388.86291    50.073691    24.981001    23.035923           90           90           90 
  253500    269.67565    -18077.97   -16020.913    -18077.97            0    7965.7613    50.022108    25.050749    23.010935            0            0            0    28834.802    8482.3574    7023.8098    8391.1168    195.88191   -966.64574   -840.37756    50.022108    25.050749    23.010935           90           90           90 
  254000    276.50256   -18192.197   -16083.065   -18192.197            0    8030.6287    49.981881    24.918652    23.115886            0            0            0    28790.399    7454.1579    8868.7908    7768.9374   -187.25815   -162.06344    265.64582    49.981881    24.918652    23.115886           90           90           90 
  254500    275.23962   -18069.914   -15970.416   -18069.914            0    8415.7563    49.954249    25.048117     23.00355            0            0            0    28783.419    8603.5977    7718.2199    8925.4514    152.53887   -425.26345   -324.28402    49.954249    25.048117     23.00355           90           90           90 
  255000    271.45192    -18130.01   -16059.403    -18130.01            0    7940.2446    50.049598     24.94643      23.0515            0            0            0    28781.154    7261.9881    8825.0614    7733.6844   -401.36389    71.080486    387.86636    50.049598     24.94643      23.0515           90           90           90 
  255500    261.67509   -18096.698   -16100.668   -18096.698            0    8433.7714     49.84426    25.013107     23.04469            0            0            0    28731.193    8692.2972    8269.4424    8339.5747    628.15494   -140.07748    1077.4859     49.84426    25.013107     23.04469           90           90           90 
  256000    271.26339    -18048.38   -15979.212    -18048.38            0    8815.4104    50.262959    24.974833    22.854004            0            0            0    28688.837    7951.1148    8560.3641    9934.7523    594.01307    676.92444   -343.58679    50.262959    24.974833    22.854004           90           90           90 
  256500    280.36764   -18181.866   -16043.252   -18181.866            0    8477.3391    49.714882      24.9519    23.171253            0            0            0    28743.494    9288.0047     8171.433    7972.5795   -187.88559    721.03721     132.5749    49.714882      24.9519    23.171253           90           90           90 
  257000    272.61545   -18153.423   -16073.942   -18153.423            0    8380.0522    50.192286    24.970035    22.956853            0            0            0    28771.897    7091.6187    8763.7534    9284.7846    149.64238   -440.41648    388.60299    50.192286    24.970035    22.956853           90           90           90 
  257500    266.15619   -18166.513   -16136.302   -18166.513            0    7886.0194    49.864616    25.008268     23.08842            0            0            0    28791.899    8163.0676    7558.3475    7936.6431    687.13969   -5.7348156   -222.54643    49.864616    25.008268     23.08842           90           90           90 
  258000    269.63496   -18175.732   -16118.985   -18175.732            0    7566.3445    50.160094    24.920476    23.073231            0            0            0    28841.848    7261.5988    7711.9255    7725.5093   -722.47589    559.98899    149.68578    50.160094    24.920476    23.073231           90           90           90 
  258500     273.2009   -18151.782   -16067.835   -18151.782            0    7678.1178     49.98948    25.131834    22.947521            0            0            0    28829.597    7582.5369    7703.1308    7748.6857   -463.13281   -679.53502   -166.19402     49.98948    25.131834    22.947521           90           90           90 
  259000    266.13368   -18150.085   -16120.046   -18150.085            0    7518.8644    50.003917     24.93181    23.131123            0            0            0    28837.297    7495.6395    7730.2503    7330.7034    40.364078   -581.42324   -1233.8992    50.003917     24.93181    23.131123           90           90           90 
  259500    265.62347   -18142.358   -16116.211   -18142.358            0    8314.0159    49.953719    25.060157     22.99248            0            0            0    28783.091    8563.2918     7843.975    8534.7808   -444.28592    143.26032   -267.91981    49.953719    25.060157     22.99248           90           90           90 
  260000     264.6193   -18171.226   -16152.738   -18171.226            0    8444.6394    49.942834    24.911346    23.077007            0            0            0    28711.102    8391.8173    8652.2458    8289.8552   -138.38528    154.33263   -285.00374    49.942834    24.911346    23.077007           90           90           90 
  260500    267.06433   -18120.749   -16083.611   -18120.749            0    8425.6787    50.029871    25.018259    22.947683            0            0            0    28722.704     8149.546    8283.5646    8843.9255    664.71613    1077.1321    110.50121    50.029871    25.018259    22.947683           90           90           90 
  261000    263.22769   -18124.616   -16116.743   -18124.616            0    8888.1365    49.972585    24.887384    23.105033            0            0            0    28735.427    8692.1689    9613.5204    8358.7202    22.614079   -1279.9813    56.201337    49.972585    24.887384    23.105033           90           90           90 
  261500    267.59735     -18071.8   -16030.596     -18071.8            0    9450.1891    49.793355    25.063066    23.009059            0            0            0    28714.711    9682.6183    8668.0333    9999.9156    586.56067    798.91871    684.03773    49.793355    25.063066    23.009059           90           90           90 
  262000    276.76732   -18136.614   -16025.462   -18136.614            0    8816.5949    50.148597    24.918558      22.9683            0            0            0    28701.893    8159.2095     9513.705    8776.8701    57.832374   -773.89741   -285.38636    50.148597    24.918558      22.9683           90           90           90 
  262500    266.52969   -18132.165   -16099.105   -18132.165            0    8666.5663    49.821064    24.987678    23.082079            0            0            0    28735.174    9265.9447    8043.0346    8690.7196    442.29415    260.99443   -210.51738    49.821064    24.987678    23.082079           90           90           90 
  263000     281.8614   -18108.689    -15958.68   -18108.689            0    8475.7184    50.132093    25.002621    22.952299            0            0            0    28769.185    7475.1023    8473.3623    9478.6906   -226.54254    591.12008    181.60316    50.132093    25.002621    22.952299           90           90           90 
  263500    275.86966   -18091.631   -15987.326   -18091.631            0    8100.8233    49.945747    24.989507    23.088614            0            0            0    28817.351    7974.7653    8583.0723    7744.6323   -668.38958   -192.38588   -907.54062    49.945747    24.989507    23.088614           90           90           90 
  264000     265.7769   -18111.877   -16084.559   -18111.877            0    8451.4427     50.07807    24.987688    23.002504            0            0            0    28783.842     8591.436    8723.2605    8039.6316   -168.87005    37.720984    440.59164     50.07807    24.987688    23.002504           90           90           90 
  264500    268.90127    -18175.89    -16124.74    -18175.89            0    8414.9709    49.923148    25.005951    23.007629            0            0            0    28722.167    8585.9817    8213.9072    8445.0237    -109.2958    98.768065    963.34611    49.923148    25.005951    23.007629           90           90           90 
  265000    273.94681   -18164.215   -16074.578   -18164.215            0    8512.4187    49.984652    24.909774    23.079117            0            0            0    28735.955    7988.3084    9068.3274    8480.6203   -155.47245    156.24686    77.819874    49.984652    24.909774    23.079117           90           90           90 
  265500    266.12322   -18142.195   -16112.236   -18142.195            0    8253.7423    49.913471     25.06379    22.991713            0            0            0     28763.11    8894.8691    7153.5287    8712.8292   -103.73768   -521.91199    78.200317    49.913471     25.06379    22.991713           90           90           90 
  266000    270.05679   -18189.207   -16129.243   -18189.207            0     8481.578    50.097072    24.909961    23.061358            0            0            0     28778.64     8010.075     8812.426     8622.233   -253.73054   -138.42506    363.05723    50.097072    24.909961    23.061358           90           90           90 
  266500    272.92786   -18094.232   -16012.367   -18094.232            0    8235.8141    49.898825     25.04412    23.059121            0            0            0    28816.342    8770.0931    7082.0987    8855.2506   -385.92005    419.11076    85.545438    49.898825     25.04412    23.059121           90           90           90 
  267000    271.82881   -18074.739   -16001.258   -18074.739            0    8374.6762    50.068303     24.94555    23.037895            0            0            0    28773.901    8719.4195     8402.887     8001.722    414.23591    323.61936   -247.96779    50.068303     24.94555    23.037895           90           90           90 
  267500    266.72165   -18117.537   -16083.013   -18117.537            0    8123.9492    49.926022    24.990064    23.057017            0            0            0     28767.19    7957.5439     8330.268    8084.0357    479.04777   -146.22058   -837.20708    49.926022    24.990064    23.057017           90           90           90 
  268000    270.46681   -18173.145   -16110.053   -18173.145            0    8451.8396    50.059234    24.953048    22.998796            0            0            0    28728.497    7342.0185    9678.5185    8334.9818    588.64456    31.844718     115.5805    50.059234    24.953048    22.998796           90           90           90 
  268500    266.90528   -18140.371   -16104.446   -18140.371            0    8693.5788    49.948656    25.016459    22.993449            0            0            0    28731.201    9432.6446    7793.0902    8855.0016    245.80723   -675.15132    182.29225    49.948656    25.016459    22.993449           90           90           90 
  269000    269.53924   -18170.436    -16114.42   -18170.436            0    8010.1799    50.089754    24.831107     23.10958            0            0            0    28743.326     7114.267    9776.4658    7139.8069    431.12477    131.35221    150.52417    50.089754    24.831107     23.10958           90           90           90 
  269500    279.09362   -18097.361   -15968.465   -18097.361            0    7988.9701    49.855562    25.164566    22.976283            0            0            0    28825.897    8730.5804    7405.1968    7831.1331    336.47569    90.174795   -871.47756    49.855562    25.164566    22.976283           90           90           90 
  270000    271.40594   -18145.961   -16075.706   -18145.961            0    7839.4285    50.157257    24.894963    23.078666            0            0            0    28817.477    7899.4394    8440.9058    7177.9403   -484.89706   -7.8386445    350.45246    50.157257    24.894963    23.078666           90           90           90 
  270500    267.89813   -18131.391   -16087.893   -18131.391            0    8439.9073    49.804727    25.043012    23.059741            0            0            0    28761.502    8067.4567    8707.1769    8545.0882     488.7782   -97.424883   -454.69317    49.804727    25.043012    23.059741           90           90           90 
  271000    268.53527   -18174.325   -16125.967   -18174.325            0    8151.6717    50.153245    24.957101    22.979763            0            0            0      28763.3    7083.6289    9024.4347    8346.9516   0.78333096   -630.14779   -1005.9563    50.153245    24.957101    22.979763           90           90           90 
  271500    270.40313   -18081.084   -16018.478   -18081.084            0    8438.9854    49.862963    25.012879    23.067905            0            0            0    28770.666    8736.0407     8398.641    8182.2746   -93.681551   -105.93881   -387.11538    49.862963    25.012879    23.067905           90           90           90 
  272000    270.57062   -18065.685   -16001.801   -18065.685            0    8417.4156     50.07489    24.992509    22.975338            0            0            0    28753.569     8751.264    7493.8332    9007.1497   -141.83379   -671.35824   -149.43064     50.07489    24.992509    22.975338           90           90           90 
  272500    275.47351   -18118.154   -16016.872   -18118.154            0    8211.3358    49.900255    24.954691    23.121818            0            0            0    28792.339    9641.3562    7608.6643    7383.9869   -826.90758   -881.10759    -121.4887    49.900255    24.954691    23.121818           90           90           90 
  273000    278.35186   -18158.499   -16035.261   -18158.499            0    7730.1268    50.098307    25.008577    22.989903            0            0            0    28803.759    7664.4992     7738.171    7787.7103     227.2535    439.99722    145.88468    50.098307    25.008577    22.989903           90           90           90 
  273500     267.5244    -18119.07   -16078.423    -18119.07            0    8545.0484    49.972034     24.99022    23.031924            0            0            0    28762.546     8306.762    8658.5439    8669.8394    64.173921    8.4642374   -57.351058    49.972034     24.99022    23.031924           90           90           90 
  274000    269.03473   -18052.134   -15999.966   -18052.134            0    7936.2244    49.931494    24.995215    23.117753            0            0            0    28852.075    7770.8056    8456.1319    7581.7358   -187.56843   -377.18615    209.18627    49.931494    24.995215    23.117753           90           90           90 
  274500    268.77221   -18136.204   -16086.038   -18136.204            0    7669.2199    50.105866     25.04201    22.981346            0            0            0    28835.881    7140.3567    7714.6542    8152.6487   -180.34544    859.47163     31.79167    50.105866     25.04201    22.981346           90           90           90 
  275000    272.75584   -18134.017   -16053.465   -18134.017            0    7098.9027    50.049011    25.003446    23.081122            0            0            0    28883.664    7288.3414    7293.6011    6714.7655   -287.14886   -82.007086    83.701817    50.049011    25.003446    23.081122           90           90           90 
  275500    262.58805   -18146.678   -16143.684   -18146.678            0    7515.5307    50.144852    24.985042    23.030852            0            0            0    28854.691    7818.4825    8033.6056     6694.504    28.055606    454.02868     15.20343    50.144852    24.985042    23.030852           90           90           90 
  276000    266.26694   -18084.123   -16053.068   -18084.123            0    7335.9431    50.062745    25.039003    23.088061            0            0            0    28941.375    7538.2413    7307.6251    7161.9628   -321.46327    1024.1643   -710.57561    50.062745    25.039003    23.088061           90           90           90 
  276500    267.24202   -18162.933    -16124.44   -18162.933            0    6736.1052    50.157683    25.061965    23.046334            0            0            0    28970.396    6281.6217    6176.5924    7750.1016    -341.2253   -107.92045     381.9449    50.157683    25.061965    23.046334           90           90           90 
  277000    273.11467   -18135.199    -16051.91   -18135.199            0    6861.4001    50.052261    25.035652    23.097293            0            0            0     28943.01     7062.025    6589.1908    6932.9846    302.18312    411.48713    214.44259    50.052261    25.035652    23.097293           90           90           90 
  277500    265.21081   -18155.184   -16132.184   -18155.184            0    6970.3587     50.04905    25.035483    23.060426            0            0            0    28894.764    6583.1642    7050.8014    7277.1106    307.58641   -107.63282   -125.83898     50.04905    25.035483    23.060426           90           90           90 
  278000    269.31517   -18134.852   -16080.545   -18134.852            0    7806.8979    50.068104    24.974221     23.07343            0            0            0    28851.292    7600.3037    7646.2067    8174.1832    -181.0539   -190.72038    577.99469    50.068104    24.974221     23.07343           90           90           90 
  278500    272.62614   -18083.302   -16003.739   -18083.302            0    7849.4354    49.967442    25.046648    23.066278            0            0            0    28867.838    8249.4954    7838.7882    7460.0226     68.18052    487.83205   -323.42207    49.967442    25.046648    23.066278           90           90           90 
  279000    274.27001   -18117.337   -16025.235   -18117.337            0    8270.4763    50.041803    24.978442    23.042459            0            0            0    28802.297    8780.2866    7678.2366    8352.9056   -250.49696    28.122438   -363.40543    50.041803    24.978442    23.042459           90           90           90 
  279500    271.26859   -18126.595   -16057.387   -18126.595            0    8287.3683    49.833933    25.049363    23.029989            0            0            0    28748.525    8598.1537     8198.421    8065.5301    240.65887    1268.9503     664.3965    49.833933    25.049363    23.029989           90           90           90 
  280000    278.78358   -18074.362    -15947.83   -18074.362            0     8745.669    50.096042    24.835145    23.095132            0            0            0    28733.634    8593.2363    9083.0465    8560.7242   -721.65507    61.597464    308.83855    50.096042    24.835145    23.095132           90           90           90 
  280500    275.94393   -18105.146   -16000.275   -18105.146            0    9092.1367     49.85658    25.091426    22.949941            0            0            0     28709.75    10153.035    7254.2624    9869.1129    189.70937   -153.62793   -650.02088     49.85658    25.091426    22.949941           90           90           90 
  281000    270.82446   -18155.842   -16090.022   -18155.842            0    8684.4825    50.021384    24.907629    23.045457            0            0            0     28712.66    8264.7111    9692.2021    8096.5343      359.854    48.923516   -1108.3016    50.021384    24.907629    23.045457           90           90           90 
  281500    275.98575   -18145.473   -16040.283   -18145.473            0    8159.0466    49.965479    25.027842    23.001706            0            0            0    28764.281    8281.0205    8245.6017    7950.5175   -596.09626    -114.6953   -29.912435    49.965479    25.027842    23.001706           90           90           90 
  282000    265.95918   -18077.814   -16049.106   -18077.814            0    8551.6301    50.104867    24.891769    23.038397            0            0            0     28733.46    7188.8586    9815.8006    8650.2311    78.531169    254.87819   -26.459166    50.104867    24.891769    23.038397           90           90           90 
  282500    268.81769   -18132.163   -16081.651   -18132.163            0    8518.1678     49.81601    25.043956    23.037005            0            0            0    28740.736    9275.5322    7949.6331    8329.3381   -245.90071    305.31141   -238.31757     49.81601    25.043956    23.037005           90           90           90 
  283000    270.29164   -18088.781   -16027.025   -18088.781            0    8508.8273    50.188967    24.948051    22.988298            0            0            0    28784.037    8605.0941    8518.9351    8402.4526   -182.61454   -105.28542    94.313059    50.188967    24.948051    22.988298           90           90           90 
  283500    267.50114   -18176.685   -16136.215   -18176.685            0    8458.0915    49.862986    24.975926    23.089322            0            0            0    28754.848    10234.301    7847.1634    7292.8102   -266.88568    57.020314    344.35676    49.862986    24.975926    23.089322           90           90           90 
  284000    280.66179   -18125.599   -15984.741   -18125.599            0    8743.7589    50.154481    25.025123    22.946191            0            0            0    28800.271    8140.5653     8004.531     10086.18   -192.53437    495.53045   -657.53031    50.154481    25.025123    22.946191           90           90           90 
  284500    274.23676    -18062.77   -15970.922    -18062.77            0    7310.9382       49.906    25.021265    23.148811            0            0            0    28906.181    7165.5269    7926.2128     6841.075    437.93243    14.309858    314.10355       49.906    25.021265    23.148811           90           90           90 
  285000    265.03968   -18126.323   -16104.629   -18126.323            0    7434.3213    50.147476    25.001009    23.022578            0            0            0     28864.27     7108.394    7923.3559    7271.2139     153.1537    -433.5893   -344.48939    50.147476    25.001009    23.022578           90           90           90 
  285500    268.06995   -18147.614   -16102.805   -18147.614            0    7013.0637    50.005516    25.056062    23.051313            0            0            0    28881.942    7496.6699    6322.9441    7219.5772    473.15667     340.8387    148.27013    50.005516    25.056062    23.051313           90           90           90 
  286000    260.53844   -18134.167   -16146.808   -18134.167            0    7661.2887    50.005599    24.958542    23.079905            0            0            0    28805.264    7929.1208    7699.0436    7355.7017   -236.08318     630.0119   -329.17765    50.005599    24.958542    23.079905           90           90           90 
  286500    271.56965    -18109.87   -16038.366    -18109.87            0    7662.6857    50.041006    25.032186    23.031159            0            0            0    28849.654    8178.1017    7227.3399    7582.6155    152.01971   -132.94048     110.9567    50.041006    25.032186    23.031159           90           90           90 
  287000    268.04185   -18156.603   -16112.008   -18156.603            0    8108.2635    49.942669    24.959357    23.064728            0            0            0    28751.035    8443.7189    8332.9066    7548.1649   -290.32919    552.61554    -413.9999    49.942669    24.959357    23.064728           90           90           90 
  287500    278.49116   -18125.911   -16001.611   -18125.911            0    8241.3506    50.107094    25.030025    22.954699            0            0            0    28789.366    8579.9332    7995.9967    8148.1221   -685.19998   -223.84036   -97.596302    50.107094    25.030025    22.954699           90           90           90 
  288000    266.75259   -18192.219   -16157.459   -18192.219            0     8702.007    49.892613    24.880121    23.105459            0            0            0    28681.598    8765.8874    9258.0895    8082.0442   -316.84347    237.42267     175.5422    49.892613    24.880121    23.105459           90           90           90 
  288500    266.12446   -18103.351   -16073.382   -18103.351            0    9988.4094    49.859129    24.999009    22.974372            0            0            0     28635.92    10007.488    9691.6193    10266.121   -862.56568    165.79595    959.96033    49.859129    24.999009    22.974372           90           90           90 
  289000    276.13367   -18076.464   -15970.146   -18076.464            0     9458.216    50.064376    24.951222    22.981599            0            0            0    28707.863    9740.4033     9022.758    9611.4867   -428.69213   -403.89227     181.3481    50.064376    24.951222    22.981599           90           90           90 
  289500    267.34765   -18159.762   -16120.463   -18159.762            0    8627.9687     49.84989    24.973122    23.069352            0            0            0    28719.207     9473.424    8054.6422    8355.8398   -377.40539   -644.46062    -160.9666     49.84989    24.973122    23.069352           90           90           90 
  290000    276.41356    -18138.03   -16029.577    -18138.03            0    8145.1012    50.088919    24.990568    22.981997            0            0            0    28767.727    8138.9132    7730.1835     8566.207   -79.125014    742.83561    -238.8348    50.088919    24.990568    22.981997           90           90           90 
  290500    262.38631   -18107.312   -16105.857   -18107.312            0    7971.8854    49.913043    24.978632    23.118697            0            0            0    28823.456    8839.5058    7593.0694    7483.0812    148.62046    -327.2807    104.87415    49.913043    24.978632    23.118697           90           90           90 
  291000    275.73242   -18108.588    -16005.33   -18108.588            0    7189.9981    50.112732    25.055022    22.994699            0            0            0    28871.583    6480.5247    7419.9972    7669.4725    291.45919    26.474501   -1062.9832    50.112732    25.055022    22.994699           90           90           90 
  291500    278.73803   -18131.872   -16005.688   -18131.872            0    7201.9534     50.01207    25.006673    23.129028            0            0            0    28925.983    7491.4505    7405.0234    6709.3863    231.60589   -682.70509    127.78297     50.01207    25.006673    23.129028           90           90           90 
  292000    270.77595   -18145.866   -16080.416   -18145.866            0     7470.359     50.03912    25.025462    23.046179            0            0            0    28859.626    6964.5522    8026.3474    7420.1774    -282.1658   -833.78989   -407.10491     50.03912    25.025462    23.046179           90           90           90 
  292500    266.25205   -18137.192    -16106.25   -18137.192            0     7496.244    50.106654    25.053146    22.994832            0            0            0    28866.086    7386.6826    7386.8048    7715.2446    389.61964   -653.43651    130.63798    50.106654    25.053146    22.994832           90           90           90 
  293000    269.08914   -18188.052   -16135.469   -18188.052            0    7683.7259    49.981796    24.922426    23.130255            0            0            0     28812.61    7997.2252    7946.2113    7107.7413    445.80901   -428.10511   -227.63992    49.981796    24.922426    23.130255           90           90           90 
  293500    270.89375    -18121.31   -16054.961    -18121.31            0    8092.7295    50.028217    25.073022    22.939028            0            0            0    28773.767    7832.6504    8134.2034    8311.3346   -153.71671   -827.49381    185.37955    50.028217    25.073022    22.939028           90           90           90 
  294000    278.27708    -18174.83   -16052.163    -18174.83            0    7755.7942    50.003313    24.922123     23.14217            0            0            0    28839.512    7693.0733    8697.2329    6877.0765    284.76702    -648.4775   -211.32267    50.003313    24.922123     23.14217           90           90           90 
  294500    273.17955   -18071.275   -15987.491   -18071.275            0    8011.9575    50.039688    25.094526    22.953447            0            0            0    28823.154    8058.6535    7413.7062    8563.5128   -824.39529    640.33738   -36.340479    50.039688    25.094526    22.953447           90           90           90 
  295000    275.48261   -18086.454   -15985.102   -18086.454            0    8377.9326    50.035349    24.911541    23.109891            0            0            0    28805.501    8423.6106     8648.177    8062.0102    394.64627    176.50859    154.81925    50.035349    24.911541    23.109891           90           90           90 
  295500    271.02972   -18144.598   -16077.212   -18144.598            0    8154.9653    49.996695    25.035518    23.016621            0            0            0    28809.747     7161.645    9007.1233    8296.1276   -29.528349   -140.55304    828.21981    49.996695    25.035518    23.016621           90           90           90 
  296000    274.87311   -18128.775   -16032.072   -18128.775            0    8140.1791     50.07245    24.923136    23.065948            0            0            0    28785.437    7537.1023    8796.1915    8087.2436   -73.767411    84.335708   -14.946972     50.07245    24.923136    23.065948           90           90           90 
  296500    272.71892   -18204.486   -16124.215   -18204.486            0    7924.1192    49.782707    25.002899    23.097425            0            0            0    28749.642    9268.1218    7164.1728    7340.0631   -327.06707     618.7535   -23.428058    49.782707    25.002899    23.097425           90           90           90 
  297000    266.86835   -18138.532   -16102.889   -18138.532            0    8100.6646    50.209529    24.965337    22.927763            0            0            0    28739.901    6929.7154    7675.2166    9697.0617   -83.384972   -398.13772    -620.2894    50.209529    24.965337    22.927763           90           90           90 
  297500    273.29812   -18106.595   -16021.906   -18106.595            0    8150.0335    49.807132    24.975383    23.175634            0            0            0     28829.38    8712.1089     7959.347    7778.6446    634.26552    699.90108    295.27288    49.807132    24.975383    23.175634           90           90           90 
  298000     268.8512   -18195.578    -16144.81   -18195.578            0    7646.5529    50.174262    24.997247       22.931            0            0            0    28760.483    6612.8686    7500.8436    8825.9465    327.65802    98.154059    291.40733    50.174262    24.997247       22.931           90           90           90 
  298500    271.07965   -18147.526   -16079.759   -18147.526            0    7588.4279    49.843446    24.980292    23.169892            0            0            0    28848.921    7991.0444    8097.7993      6676.44    145.04481    273.72939   -269.32044    49.843446    24.980292    23.169892           90           90           90 
  299000    267.58282   -18145.687   -16104.594   -18145.687            0    7624.3243    50.108106    25.014219    22.989981            0            0            0    28815.991    7482.8937    7805.7853    7584.2938   -219.25022   -651.81619    175.54399    50.108106    25.014219    22.989981           90           90           90 
  299500    267.27382   -18162.602   -16123.866   -18162.602            0    7620.7506    49.981857    25.011015    23.076508            0            0            0    28847.873    7979.9128     7742.705    7139.6339    -81.81287   -306.92233   -407.19084    49.981857    25.011015    23.076508           90           90           90 
  300000    274.20752   -18085.759   -15994.133   -18085.759            0    8416.8419    50.138452    25.004979     22.98613            0            0            0    28817.963    7775.7508    8271.9652    9202.8097   -520.96032   -168.97094   -142.30773    50.138452    25.004979     22.98613           90           90           90 
  300500    272.03346   -18129.528   -16054.486   -18129.528            0    8594.6814    49.951189    25.014009    23.016028            0            0            0    28758.055     8343.587    9297.8395    8142.6177   -274.12173    558.65183   -204.11819    49.951189    25.014009    23.016028           90           90           90 
  301000    268.61459   -18110.907   -16061.944   -18110.907            0    9111.2059    49.872273    24.903001    23.122686            0            0            0    28717.665    10187.508    9440.2921    7705.8174   -215.70832   -371.59573   -85.005487    49.872273    24.903001    23.122686           90           90           90 
  301500    272.57381   -18160.569   -16081.405   -18160.569            0    8483.6679    50.008355    25.021931    22.924836            0            0            0    28685.976    8326.9162    8578.8881    8545.1993   -272.74016   -109.91586    448.02698    50.008355    25.021931    22.924836           90           90           90 
  302000    269.66832   -18141.674   -16084.673   -18141.674            0    8540.2202    49.985306    24.913053    23.079759            0            0            0    28740.913    8297.7544    8564.5504    8758.3559    136.90114    402.51364    367.93595    49.985306    24.913053    23.079759           90           90           90 
  302500    267.98299   -18222.693   -16178.547   -18222.693            0    8224.1313    49.909802    25.032269    22.990711            0            0            0    28723.573    9191.0656    7173.6373    8307.6911    195.36166   -140.26981   -308.36074    49.909802    25.032269    22.990711           90           90           90 
  303000     268.7331   -18125.382   -16075.514   -18125.382            0    8408.4551    50.058599    24.920975    23.055776            0            0            0    28762.291    7242.3394    9616.3651    8366.6608   -509.71343   -819.76083   -585.81901    50.058599    24.920975    23.055776           90           90           90 
  303500    272.15477   -18097.567     -16021.6   -18097.567            0    8198.5952    49.686138    25.069803    23.150286            0            0            0    28836.498    8915.1819     7866.341    7814.2625    609.73155    529.17299     790.4277    49.686138    25.069803    23.150286           90           90           90 
  304000    271.44888   -18173.597   -16103.014   -18173.597            0    8375.9174    50.311814    24.933835    22.902018            0            0            0    28729.814    6765.3737     9097.042    9265.3364   -170.91951   -129.64139   -549.22219    50.311814    24.933835    22.902018           90           90           90 
  304500    268.30513   -18137.875   -16091.273   -18137.875            0    7932.4718    49.810483     25.01779    23.112933            0            0            0    28802.139    8817.7183    7632.8778    7346.8194   -31.683874    109.16552    321.54312    49.810483     25.01779    23.112933           90           90           90 
  305000    272.42006   -18111.105   -16033.114   -18111.105            0    7848.3731     50.07719    24.954798    23.041269            0            0            0    28793.894    7633.4222    8073.2639    7838.4332    97.402231   -639.20992   -8.6585047     50.07719    24.954798    23.041269           90           90           90 
  305500    273.87103   -18126.982   -16037.923   -18126.982            0    8410.5239    49.951182    25.007927    23.021068            0            0            0    28757.355    8846.0708    7843.9553    8541.5456   -1010.4504   -251.14718   -358.62921    49.951182    25.007927    23.021068           90           90           90 
  306000    268.28922   -18131.368   -16084.887   -18131.368            0    8977.4047    50.001008    24.946631    23.023789            0            0            0    28718.878    8798.6379    8731.6623    9401.9139   -121.61583    -933.3878     202.2686    50.001008    24.946631    23.023789           90           90           90 
  306500    264.97371   -18087.885   -16066.694   -18087.885            0    8885.3892    49.985898    25.005776    22.974552            0            0            0    28716.723    8087.1456    9330.0506    9238.9715    342.44417    261.17366   -1178.6511    49.985898    25.005776    22.974552           90           90           90 
  307000    270.26742   -18097.523   -16035.952   -18097.523            0    8695.6225    49.902722    24.906086    23.149302            0            0            0    28771.838    8687.5872    9432.8231    7966.4573   -193.63247   -238.09622    233.97235    49.902722    24.906086    23.149302           90           90           90 
  307500    272.13699   -18155.146   -16079.314   -18155.146            0    9049.2665    49.978853    25.061153    22.892018            0            0            0    28672.885     8787.718    8543.0293     9817.052   -523.62414   -86.243027    239.71517    49.978853    25.061153    22.892018           90           90           90 
  308000    271.22757   -18140.502   -16071.608   -18140.502            0    8561.0098    49.950585    24.893469    23.097245            0            0            0    28720.116    8790.4056    8913.2518    7979.3719    330.37925    441.01068    1116.3551    49.950585    24.893469    23.097245           90           90           90 
  308500    270.13202    -18107.21   -16046.672    -18107.21            0    8987.7977    49.942573    24.977355    23.041353            0            0            0    28742.554    9816.0068    8557.0033    8590.3831   -318.66145   -757.87065   -707.75974    49.942573    24.977355    23.041353           90           90           90 
  309000    269.26857   -18120.024   -16066.072   -18120.024            0    8642.8444    50.018314    24.951365    23.010664            0            0            0    28717.888    8009.1597    9042.9335      8876.44    225.87436    513.07179   -166.00646    50.018314    24.951365    23.010664           90           90           90 
  309500    274.39448   -18118.719   -16025.668   -18118.719            0    8146.7595    49.940927    24.970611    23.074419            0            0            0     28775.08     8571.308    8066.3554     7802.615    -516.7792    126.61906   -404.96882    49.940927    24.970611    23.074419           90           90           90 
  310000    280.31211   -18164.521   -16026.331   -18164.521            0    8324.3126    50.055424    25.003444    22.966782            0            0            0     28744.26    7010.1331     8984.644    8978.1607   -297.07562    -274.2383    129.59899    50.055424    25.003444    22.966782           90           90           90 
  310500     279.8357   -18065.703   -15931.146   -18065.703            0    8784.2616    49.880925      24.9364    23.150579            0            0            0    28795.864    9463.4405    8797.1352    8092.2092   -689.39047      179.987    368.30617    49.880925      24.9364    23.150579           90           90           90 
  311000    274.36416   -18135.201   -16042.381   -18135.201            0    8711.9062    50.085013    25.027846    22.927989            0            0            0    28740.693    8486.3722     8506.251    9143.0954   -507.67715    159.17393    549.87557    50.085013    25.027846    22.927989           90           90           90 
  311500     269.8744   -18145.749   -16087.176   -18145.749            0    8313.8882    49.861614    24.946127    23.087359            0            0            0    28717.307    7977.0814    8831.2327    8133.3505    341.47232   -172.40143   -427.83682    49.861614    24.946127    23.087359           90           90           90 
  312000    265.51367   -18092.747   -16067.437   -18092.747            0    8939.0688    50.006106     24.98342      23.0105            0            0            0     28747.56    9040.8921    8609.0385    9167.2758    -160.4853    5.5189755   -277.06496    50.006106     24.98342      23.0105           90           90           90 
  312500    269.66682    -18126.94    -16069.95    -18126.94            0    8883.5679    49.974851    25.005087    22.990344            0            0            0     28729.32    9198.5162    7649.5299    9802.6577    481.53438   -115.06492   -92.046892    49.974851    25.005087    22.990344           90           90           90 
  313000    271.85968   -18155.344   -16081.627   -18155.344            0    8270.6047    49.995143    24.921861    23.090773            0            0            0    28770.457    8197.2785    8085.2266    8529.3091    255.55815    -281.2377    -601.6477    49.995143    24.921861    23.090773           90           90           90 
  313500    273.58961   -18180.102    -16093.19   -18180.102            0    7995.0493    50.075585    25.040747     22.96283            0            0            0    28793.783    8166.3964    7337.7135    8481.0381    870.96045   -1401.6673    254.74662    50.075585    25.040747     22.96283           90           90           90 
  314000    265.77392   -18040.914   -16013.619   -18040.914            0    8856.7886    49.902326    24.957809      23.1325            0            0            0    28810.435    9048.7837    9060.9473    8460.6348   -50.971746   -668.94554    77.113783    49.902326    24.957809      23.1325           90           90           90 
  314500    271.32097   -18071.167   -16001.559   -18071.167            0     8853.785    50.019314    25.042808    22.950663            0            0            0    28748.553    8642.5581    8025.5533    9893.2436    97.146575    316.92644   -98.158703    50.019314    25.042808    22.950663           90           90           90 
  315000    275.24363   -18154.544   -16055.015   -18154.544            0    8398.7014    49.990888    24.893479     23.08306            0            0            0    28725.648    7922.2046    9128.5206     8145.379   -321.92438    212.94034    140.53622    49.990888    24.893479     23.08306           90           90           90 
  315500    269.17939   -18115.161    -16061.89   -18115.161            0    8420.1314    49.918883    24.995522    23.069091            0            0            0    28784.424     8103.931    8509.8439    8646.6193    -147.5806    1.8726538    352.07094    49.918883    24.995522    23.069091           90           90           90 
  316000    267.12098   -18085.389   -16047.819   -18085.389            0    8368.7364    50.169655    25.016665     22.96545            0            0            0    28823.418    7666.5443    8710.6959     8728.969   -173.27723    494.60025   -42.771569    50.169655    25.016665     22.96545           90           90           90 
  316500    271.25613   -18086.758   -16017.645   -18086.758            0     8464.869    49.884697    24.980526    23.138466            0            0            0    28833.907    8735.9534    8837.6405    7821.0131   -313.65424   -358.54234   -81.693113    49.884697    24.980526    23.138466           90           90           90 
  317000    273.42775   -18200.908    -16115.23   -18200.908            0    7966.6688    50.110078    25.032455    22.924969            0            0            0    28756.583     7134.077    8541.3938    8224.5357    338.13854   -418.42438    420.24441    50.110078    25.032455    22.924969           90           90           90 
  317500    268.90278   -18228.907   -16177.746   -18228.907            0    8089.4356    49.901644    24.926589    23.112972            0            0            0    28749.712     8564.183    7998.9275    7705.1964   -87.478323   -762.06777    40.655492    49.901644    24.926589    23.112972           90           90           90 
  318000    267.74105   -18103.349   -16061.049   -18103.349            0    8556.8931    50.055736     25.02848    22.959074            0            0            0    28763.564     8338.112    8601.4354    8731.1318    542.77666   -704.12626   -483.84336    50.055736     25.02848    22.959074           90           90           90 
  318500    269.62888   -18100.013   -16043.313   -18100.013            0    8747.9468    49.991916    24.935912    23.044811            0            0            0    28727.524    8459.7358    9304.2456    8479.8592    46.614787    282.02879   -1102.8294    49.991916    24.935912    23.044811           90           90           90 
  319000    271.91687   -18092.957   -16018.804   -18092.957            0    8960.9227    49.885538    24.981188    23.044327            0            0            0     28717.84    9754.9943    8486.3054    8641.4685   -85.561304   -48.339887   -418.27021    49.885538    24.981188    23.044327           90           90           90 
  319500    266.18604   -18076.765   -16046.326   -18076.765            0    9145.0193    50.100218    24.972404    22.957216            0            0            0    28722.299    8040.3631    9841.9511    9552.7437   -296.45707   -529.02553    344.63487    50.100218    24.972404    22.957216           90           90           90 
  320000    275.04379    -18140.59   -16042.585    -18140.59            0    8695.6422    49.828999    24.950967    23.132252            0            0            0    28759.905    9211.1759    8603.9369    8271.8139   -224.00626   -303.03568   -904.45117    49.828999    24.950967    23.132252           90           90           90 
  320500    271.75002   -18137.905   -16065.025   -18137.905            0    8431.8939    50.099238    24.980903    22.940141            0            0            0    28710.142    7372.8919    8695.6412    9227.1486    188.07437   -559.30336   -451.12508    50.099238    24.980903    22.940141           90           90           90 
  321000    266.44231   -18139.228   -16106.835   -18139.228            0    8333.6029    49.864811    24.955638     23.10159            0            0            0    28747.807    9729.6819    7697.8354    7573.2915    219.43824    362.02778   -85.484183    49.864811    24.955638     23.10159           90           90           90 
  321500    266.22283   -18150.321   -16119.602   -18150.321            0    8677.4229    50.002181    24.986944    22.986047            0            0            0    28718.806    8571.2768    8174.6149    9286.3769   -779.47283   -279.42724    994.92159    50.002181    24.986944    22.986047           90           90           90 
  322000    271.22183   -18136.741    -16067.89   -18136.741            0    8350.5857    49.983796    24.958612    23.074969            0            0            0    28786.627    7923.9052    9341.3923    7786.4598    122.24876    609.75502    775.98562    49.983796    24.958612    23.074969           90           90           90 
  322500    269.83608   -18119.339   -16061.059   -18119.339            0     8152.484    49.955974    25.027347    23.027466            0            0            0    28790.447     8529.143    7905.0253    8023.2839   -36.517854   -159.13529   -330.30846    49.955974    25.027347    23.027466           90           90           90 
  323000    272.30913   -18108.423   -16031.278   -18108.423            0    8535.1316    50.133527    24.922407    23.021883            0            0            0    28764.649      8093.73    9014.1468    8497.5181    532.77939   -216.13223    511.47767    50.133527    24.922407    23.021883           90           90           90 
  323500    266.46307   -18077.178   -16044.626   -18077.178            0    9179.8861     49.80269    24.998259    23.096365            0            0            0    28754.525    9839.3684    7973.0628    9727.2271   -166.57357   -990.26386    40.558243     49.80269    24.998259    23.096365           90           90           90 
  324000    269.10697   -18148.147   -16095.427   -18148.147            0    8487.3618    50.166537    24.992682    22.926441            0            0            0    28745.087    8466.4163    7850.2494    9145.4196   -708.56731    72.575572    428.56882    50.166537    24.992682    22.926441           90           90           90 
  324500    272.63883   -18166.569   -16086.909   -18166.569            0     7108.596    50.003878    24.946849    23.130638            0            0            0    28854.066    6983.7762    7857.3149    6484.6967   -873.53113    391.27167   -253.51734    50.003878    24.946849    23.130638           90           90           90 
  325000    275.12675   -18104.471   -16005.833   -18104.471            0    6898.0586    50.109174    25.059111    23.039771            0            0            0    28930.841    7421.0809    6023.7768    7249.3181   -446.47037    13.513653    216.35468    50.109174    25.059111    23.039771           90           90           90 
  325500    265.72154   -18124.575    -16097.68   -18124.575            0    6276.1664    50.117785    25.061045    23.089534            0            0            0    29000.549    6148.3226    6241.9376    6438.2391   -134.23864   -58.752834   -246.49527    50.117785    25.061045    23.089534           90           90           90 
  326000    265.90985   -18143.012   -16114.681   -18143.012            0    6795.3336    50.065222    25.039547     23.08763            0            0            0    28942.895    7010.8881    6728.1809    6646.9317    12.459183     -670.676    1105.3948    50.065222    25.039547     23.08763           90           90           90 
  326500    264.63474   -18112.676    -16094.07   -18112.676            0    6673.7169    50.169168    25.074977    23.037874            0            0            0    28981.431    6205.5057    6395.4395    7420.2055   -17.209659   -87.066468   -264.67589    50.169168    25.074977    23.037874           90           90           90 
  327000    266.80418   -18121.396   -16086.242   -18121.396            0    6876.8181    50.061782    25.043554    23.085622            0            0            0     28943.02    7239.4462    7028.2608    6362.7472    348.27556   -360.66138   -115.29135    50.061782    25.043554    23.085622           90           90           90 
  327500    262.36098   -18168.756   -16167.495   -18168.756            0    7240.1029    50.034161    24.998354    23.078713            0            0            0      28866.2    7499.1994    7677.6445    6543.4647   -140.73227   -1396.9529   -104.80988    50.034161    24.998354    23.078713           90           90           90 
  328000    272.85069   -18151.087   -16069.811   -18151.087            0    6430.4093    50.136574    25.080631    23.011723            0            0            0     28936.25    6004.0387    5770.7661     7516.423   -20.983414    444.29982    212.14191    50.136574    25.080631    23.011723           90           90           90 
  328500    265.92167   -18136.522     -16108.1   -18136.522            0    7305.4984    49.984121    24.986012    23.156729            0            0            0    28920.528    7747.0391    7113.1879    7056.2681   -74.323977   -457.57416    600.50667    49.984121    24.986012    23.156729           90           90           90 
  329000    272.22786   -18161.799   -16085.274   -18161.799            0    7116.7679    50.125017    25.059375    23.004322            0            0            0    28895.765     5979.244    6541.4014    8829.6582    174.52389    255.56961    189.93598    50.125017    25.059375    23.004322           90           90           90 
  329500    268.08615   -18149.129   -16104.196   -18149.129            0    7077.7609    49.985254     24.98264    23.142136            0            0            0    28899.057    7854.4019    6986.0274    6392.8534   -420.64807    783.48573   0.89457015    49.985254     24.98264    23.142136           90           90           90 
  330000    269.85807   -18070.642   -16012.194   -18070.642            0    6811.0886    50.080895    25.089398     23.05476            0            0            0    28968.294    6639.2625    6431.9071     7362.096   -296.83315    395.34127   -870.98885    50.080895    25.089398     23.05476           90           90           90 
  330500    269.58431   -18148.655   -16092.295   -18148.655            0    6948.1544    50.082572    25.050149    23.013328            0            0            0    28871.967    6825.0974    6505.7909    7513.5749   -515.15533    280.96781    163.77814    50.082572    25.050149    23.013328           90           90           90 
  331000    272.13078   -18166.255    -16090.47   -18166.255            0    7688.7559     49.97494    24.973347    23.115418            0            0            0    28849.001    8040.4347    7658.5905    7367.2427    386.85367    212.97134   -206.80062     49.97494    24.973347    23.115418           90           90           90 
  331500    272.51209   -18115.457   -16036.764   -18115.457            0    7497.8867    50.073073    25.033294    23.019625            0            0            0    28854.962    8700.0695    6212.4802    7581.1104   -59.823978    30.085989  -0.63107412    50.073073    25.033294    23.019625           90           90           90 
  332000    275.90193   -18124.749   -16020.199   -18124.749            0    7686.8479     50.08353    24.977317    23.074921            0            0            0    28865.623    6632.5179    8259.6104    8168.4155    80.412006    183.94096    582.68053     50.08353    24.977317    23.074921           90           90           90 
  332500    275.17662   -18161.503   -16062.485   -18161.503            0    7774.1619    49.977858    25.038542    23.056374            0            0            0    28852.116    7309.4706     7844.599    8168.4162   -359.43629   -160.02355    116.51332    49.977858    25.038542    23.056374           90           90           90 
  333000    275.35376   -18101.448   -16001.079   -18101.448            0    7995.7786    50.247058      24.9579    22.996313            0            0            0     28838.78    7480.9415    8671.7047    7834.6896   -236.14802    416.22732    331.92582    50.247058      24.9579    22.996313           90           90           90 
  333500    272.63482   -18059.596   -15979.967   -18059.596            0    7908.6925    49.762127     25.04747    23.138287            0            0            0    28839.917    8641.7906    8293.9715    6790.3153    244.06927   -264.75727    388.46417    49.762127     25.04747    23.138287           90           90           90 
  334000    280.35104    -18175.86   -16037.373    -18175.86            0    8066.5994    50.259282    24.960705    22.936641            0            0            0    28774.179     8016.756    7733.3519    8449.6903   -412.79457   -721.08708    219.36147    50.259282    24.960705    22.936641           90           90           90 
  334500    277.72903   -18190.335   -16071.847   -18190.335            0    7578.9164    49.846928    24.966996    23.166317            0            0            0    28831.131    8833.9179    7332.5637    6570.2675    365.82194   -308.00963   -128.38059    49.846928    24.966996    23.166317           90           90           90 
  335000    264.39578   -18175.206   -16158.424   -18175.206            0    7275.4594    50.138959    25.013097    23.000141            0            0            0    28845.181    7146.9072    7313.9379     7365.533   -167.93123    339.92632   -512.41026    50.138959    25.013097    23.000141           90           90           90 
  335500    274.16116    -18057.62   -15966.348    -18057.62            0    7745.9722    50.053371    25.027118      23.0741            0            0            0    28904.731    7985.6693    7971.9155    7280.3318    -437.8752   -323.66872     284.4032    50.053371    25.027118      23.0741           90           90           90 
  336000     271.1957   -18136.706   -16068.054   -18136.706            0    7237.5517    50.016915    24.953278    23.109937            0            0            0    28843.189    7179.7912    7505.2924    7027.5714    105.58695   -609.74475   -211.07562    50.016915    24.953278    23.109937           90           90           90 
  336500    272.00171   -18139.366   -16064.566   -18139.366            0    7769.7138    50.075232    24.997253    23.029781            0            0            0    28827.374    7212.9609    7752.5084     8343.672    375.56023   -657.43875    337.69936    50.075232    24.997253    23.029781           90           90           90 
  337000    269.81882   -18127.107   -16068.958   -18127.107            0    7555.9467    50.007042    25.023525    23.069838            0            0            0    28868.499    7720.6947     6567.686    8379.4594    -256.0535    230.86742   -459.16863    50.007042    25.023525    23.069838           90           90           90 
  337500    270.34614   -18089.179   -16027.007   -18089.179            0    7388.9026    50.154609    25.033766    23.019209            0            0            0     28901.97    7022.7576    8230.0696    6913.8804   -279.59452    388.16594   -447.32122    50.154609    25.033766    23.019209           90           90           90 
  338000    267.19444   -18189.922   -16151.791   -18189.922            0    7105.7294    49.962751    24.960279    23.143964            0            0            0    28862.472    7841.4943    6681.9139      6793.78    521.67801   -234.30765     40.34938    49.962751    24.960279    23.143964           90           90           90 
  338500    263.36139   -18125.085   -16116.192   -18125.085            0    7664.1626    50.067438    25.078906     22.96759            0            0            0    28838.945    7282.7918    7862.8224    7846.8735   -32.628466   -929.82634      688.979    50.067438    25.078906     22.96759           90           90           90 
  339000    271.34051   -18095.408   -16025.651   -18095.408            0    7248.8167    50.020583    25.013312    23.111773            0            0            0    28916.999    7969.5014    7361.6011    6415.3477   -355.60549    327.17639    192.50988    50.020583    25.013312    23.111773           90           90           90 
  339500    264.32731   -18057.511    -16041.25   -18057.511            0     7697.562     50.04124    24.995663    23.088132            0            0            0    28878.957    6727.4903    8669.7876    7695.4079   -247.63979   -1012.7317   -383.17537     50.04124    24.995663    23.088132           90           90           90 
  340000    271.67378   -18089.995   -16017.696   -18089.995            0    8112.7392    50.152518    25.079644    22.957163            0            0            0    28875.687    8103.6409    7318.9705    8915.6061   -105.66698   -558.69362    180.06295    50.152518    25.079644    22.957163           90           90           90 
  340500    275.15109   -18125.938   -16027.115   -18125.938            0    7289.2484    49.910676    24.979197    23.209777            0            0            0    28936.293    6609.2393    8718.0637    6540.4422    205.86631   -572.45958    168.14796    49.910676    24.979197    23.209777           90           90           90 
  341000    268.61172    -18115.71   -16066.769    -18115.71            0    7190.5487    50.161438    25.069197    22.980576            0            0            0    28898.234     6670.803    7161.9937    7738.8493   -46.859801     347.2221    902.64377    50.161438    25.069197    22.980576           90           90           90 
  341500    267.66636   -18163.553   -16121.822   -18163.553            0    7302.7297    50.002605    24.989413    23.108115            0            0            0    28874.416    7742.5601    7157.6404    7007.9886     281.2599    315.78358     413.7316    50.002605    24.989413    23.108115           90           90           90 
  342000    266.03618   -18107.255   -16077.959   -18107.255            0    6988.8577    50.077144     25.00717    23.078713            0            0            0    28901.187    6529.5603     7066.239    7370.7739   -298.71932    174.38458   -1203.3859    50.077144     25.00717    23.078713           90           90           90 
  342500    273.86678   -18170.207    -16081.18   -18170.207            0    7057.4299    50.165378    25.021361    23.048035            0            0            0    28930.032     6687.169    7114.4185    7370.7023   -245.75257     305.1949    451.71424    50.165378    25.021361    23.048035           90           90           90 
  343000    270.48368    -18148.79    -16085.57    -18148.79            0    7034.4642    49.927223    25.028259    23.148635            0            0            0    28926.337    8363.1016    6533.2307    6207.0605   -334.89141    677.32565    364.86486    49.927223    25.028259    23.148635           90           90           90 
  343500    262.45623    -18142.36   -16140.371    -18142.36            0    7572.3054    50.116429    25.012088    23.013081            0            0            0    28847.277    7739.5442    7414.8418    7562.5302    407.12247   -397.05649   -292.90621    50.116429    25.012088    23.013081           90           90           90 
  344000    268.58417   -18214.267   -16165.535   -18214.267            0    7348.0697    49.976903    25.041896    23.058158            0            0            0    28857.663    7194.5501    7745.8595    7103.7995    462.21269    160.95542   -544.87519    49.976903    25.041896    23.058158           90           90           90 
  344500    268.27302   -18142.623   -16096.265   -18142.623            0    7947.7118    50.159036    24.970106     23.03998            0            0            0    28857.033    7106.9544    8128.7971    8607.3838    512.56003   -203.49614    70.539532    50.159036    24.970106     23.03998           90           90           90 
  345000    269.88614   -18129.969   -16071.306   -18129.969            0    7360.3037    49.927258    25.091077    23.051318            0            0            0    28877.047    8104.0387    6590.8494     7386.023    564.66533   -75.413207    1153.0302    49.927258    25.091077    23.051318           90           90           90 
  345500    267.25454    -18149.25   -16110.661    -18149.25            0     6770.093    50.315819    24.909957    23.081656            0            0            0    28929.738    5649.8304    7959.2067     6701.242   -518.56173   -300.27188   -384.42353    50.315819    24.909957    23.081656           90           90           90 
  346000    264.86354   -18165.712   -16145.362   -18165.712            0    7007.7308    49.875967    25.134734     23.05588            0            0            0    28903.293    8164.4094    5614.0944    7244.6888   -351.17797   -595.28371    668.05249    49.875967    25.134734     23.05588           90           90           90 
  346500    269.37078   -18157.326   -16102.595   -18157.326            0    7884.5569    50.145632    24.920805    23.068945            0            0            0    28828.558    6831.1437    9264.0977    7558.4294   -456.89827   -747.12803    329.25916    50.145632    24.920805    23.068945           90           90           90 
  347000    268.67587   -18119.758   -16070.327   -18119.758            0    7361.0294    50.007557    25.043588     23.03593            0            0            0    28849.476    8149.1642    6405.7058    7528.2183    535.39018    320.31337    580.75976    50.007557    25.043588     23.03593           90           90           90 
  347500    269.30434    -18090.99   -16036.766    -18090.99            0     7511.136    50.121646    24.971383    23.080656            0            0            0    28887.906    7725.0031    7627.7939     7180.611    -134.0184    -142.4209    24.247827    50.121646    24.971383    23.080656           90           90           90 
  348000    260.53531   -18186.842   -16199.507   -18186.842            0    7140.5977    50.002328    25.059708     23.02629            0            0            0    28852.949    7386.4636    7369.8389    6665.4906   -127.11941   -136.90267   -417.39707    50.002328    25.059708     23.02629           90           90           90 
  348500    269.92967   -18197.979   -16138.984   -18197.979            0    7277.5625     50.10053    25.011091      23.0241            0            0            0    28850.784    7732.0272    6594.6016    7506.0588   -402.83534   -151.58539   -111.27392     50.10053    25.011091      23.0241           90           90           90 
  349000    269.98807   -18154.535   -16095.095   -18154.535            0    7851.1018     49.88501    24.980578     23.12939            0            0            0    28822.836    7788.9388    8056.3847     7707.982   -522.56689   -318.81406    -311.9316     49.88501    24.980578     23.12939           90           90           90 
  349500    269.39054    -18043.07   -15988.188    -18043.07            0    8181.7964    50.281644    25.032157    22.900998            0            0            0    28824.524    8023.6573    8322.3607    8199.3713    341.06843   -45.207205    92.536323    50.281644    25.032157    22.900998           90           90           90 
  350000    265.07333   -18114.342   -16092.391   -18114.342            0    7954.6936    49.695683    24.995259    23.186642            0            0            0    28801.437     8641.275    7459.6326    7763.1731   -302.49334   -36.951478    29.811345    49.695683    24.995259    23.186642           90           90           90 
  350500    272.01003   -18106.306   -16031.443   -18106.306            0    7923.5054    50.217365    24.940983    23.011659            0            0            0    28821.423    6807.0499    8261.8374    8701.6289    126.89127   -42.635662    -456.7544    50.217365    24.940983    23.011659           90           90           90 
  351000    274.73696   -18173.862   -16078.198   -18173.862            0    7424.4977     49.90577    25.050317    23.053389            0            0            0    28820.317    7116.8772    7583.3477    7573.2683   -237.96481    218.38519   -235.74991     49.90577    25.050317    23.053389           90           90           90 
  351500    272.53156   -18107.573   -16028.731   -18107.573            0    8214.8873    50.071959    24.929495    23.094653            0            0            0    28828.331    9210.8509    8216.1115    7217.6996   -27.714694   -290.91494   -146.71116    50.071959    24.929495    23.094653           90           90           90 
  352000    271.23648   -18119.209   -16050.246   -18119.209            0     7910.464    50.088313    25.074759    23.006079            0            0            0     28894.54    7523.9068    6903.2099    9304.2754   -212.62514   -289.16765   -379.09505    50.088313    25.074759    23.006079           90           90           90 
  352500    266.06371   -18177.704   -16148.199   -18177.704            0    7688.3715    50.029077    24.951599    23.064332            0            0            0    28791.331    7486.0543    7658.6477    7920.4126   -670.04059    266.70967    31.326271    50.029077    24.951599    23.064332           90           90           90 
  353000    261.77954   -18189.863   -16193.036   -18189.863            0    7490.4991    49.980672    25.036694    23.031059            0            0            0    28819.933    7661.7942     7358.365     7451.338    208.80634    181.02014   -314.76074    49.980672    25.036694    23.031059           90           90           90 
  353500    263.73358   -18148.025   -16136.294   -18148.025            0    8136.3547    49.984147    24.977061    23.046324            0            0            0    28772.348    8290.4291    8279.5182    7839.1168    628.74086    -376.2895   -833.78385    49.984147    24.977061    23.046324           90           90           90 
  354000    274.77351   -18118.781   -16022.838   -18118.781            0    8542.5916    50.031312    24.975523    23.034511            0            0            0    28782.962    8841.2585    8362.5131    8424.0032    505.39472    62.723542    915.33417    50.031312    24.975523    23.034511           90           90           90 
  354500    272.73052   -18070.887   -15990.528   -18070.887            0    8331.6016    50.021667    25.086397     22.93758            0            0            0    28783.529    8285.5056     7912.071     8797.228   -345.15801    305.56349      20.2686    50.021667    25.086397     22.93758           90           90           90 
  355000    261.39436   -18055.851   -16061.962   -18055.851            0    8691.9959    49.936785    24.906728     23.14818            0            0            0    28790.824    8784.1367    8576.8816    8714.9695   -783.88373    452.65999    89.608119    49.936785    24.906728     23.14818           90           90           90 
  355500    260.28947   -18132.202   -16146.742   -18132.202            0    8379.2572    49.976554     25.09255    22.929995            0            0            0    28755.112     7900.169    7987.9154    9249.6873    385.46686    252.81172   -133.12394    49.976554     25.09255    22.929995           90           90           90 
  356000    272.50768   -18133.542   -16054.883   -18133.542            0    8410.1088     50.02886    24.881029    23.113409            0            0            0    28770.867    8677.0213    9182.6186    7370.6866    -196.5386   -428.48828    124.85573     50.02886    24.881029    23.113409           90           90           90 
  356500    273.67023   -18091.687    -16004.16   -18091.687            0    9054.4862    49.841407    25.026024    23.025894            0            0            0    28720.941    9823.2782    8748.2223    8591.9583    304.85882   -317.98833   -1041.8174    49.841407    25.026024    23.025894           90           90           90 
  357000    275.48731   -18155.471   -16054.083   -18155.471            0    8428.0074    50.129853    24.907093    23.020982            0            0            0    28743.743    7604.8526    8852.9112    8826.2584    898.17117    287.62797   -342.38134    50.129853    24.907093    23.020982           90           90           90 
  357500    270.52911   -18106.075   -16042.508   -18106.075            0    8141.8803    49.920716     25.02083    23.069012            0            0            0    28814.528     8257.514    7795.0674    8373.0594   -18.623741    230.82606    35.915772    49.920716     25.02083    23.069012           90           90           90 
  358000    274.29209   -18209.964   -16117.693   -18209.964            0    7661.8137    50.158414    25.009483    22.986938            0            0            0    28835.642    7291.0756    7614.7237    8079.6418    461.22117    342.49465   -518.36599    50.158414    25.009483    22.986938           90           90           90 
  358500    273.16618   -18192.547   -16108.864   -18192.547            0    7304.0231    50.002865    25.017281    23.085769            0            0            0    28878.812    6797.8823    8045.6495    7068.5374   -171.74292    346.49258   -414.57959    50.002865    25.017281    23.085769           90           90           90 
  359000    264.53711   -18087.359   -16069.498   -18087.359            0    7790.5796    50.062724    24.994158    23.052338            0            0            0    28844.828     7433.988    8002.9801    7934.7705    107.26255    172.40955    752.01715    50.062724    24.994158    23.052338           90           90           90 
  359500    273.48824   -18134.953   -16048.814   -18134.953            0     8026.372     50.03142    24.999863    23.062356            0            0            0    28845.904    7703.3501    8061.3498     8314.416     368.6328   -545.80899   -568.69574     50.03142    24.999863    23.062356           90           90           90 
  360000    265.48442   -18147.101   -16122.014   -18147.101            0    8066.9235    49.998853    24.995422    23.052383            0            0            0    28809.541    8561.4072    7807.9479    7831.4153     45.32658    538.65185   -21.464848    49.998853    24.995422    23.052383           90           90           90 
  360500    264.85397   -18159.356   -16139.078   -18159.356            0    7489.7187    50.084439    24.994882    23.041528            0            0            0    28844.643    7459.3302    7035.1003    7974.7257   -812.58746    1.3456225   -647.75815    50.084439    24.994882    23.041528           90           90           90 
  361000    273.09149   -18138.068   -16054.955   -18138.068            0    8308.2779    49.983856    24.958608    23.073887            0            0            0    28785.308    9140.1843    8192.7791    7591.8703   -446.83523     556.7535   -281.58003    49.983856    24.958608    23.073887           90           90           90 
  361500    273.06747   -18140.932   -16058.003   -18140.932            0    8179.5461    49.927671    25.011517    23.037398            0            0            0    28768.338    8409.7102    7873.2348    8255.6934    106.51576    64.743097    322.79596    49.927671    25.011517    23.037398           90           90           90 
  362000    269.86296   -18182.663   -16124.177   -18182.663            0     8471.111    50.075683    24.943863    23.018373            0            0            0    28751.812    8143.0592    8747.8696    8522.4042   -309.56545    -41.50939   -806.35049    50.075683    24.943863    23.018373           90           90           90 
  362500    274.82268    -18089.61   -15993.292    -18089.61            0      8629.82    49.817388    25.016792    23.083475            0            0            0     28768.27    9161.2296     7931.886    8796.3443   -589.54195    141.14178    246.09583    49.817388    25.016792    23.083475           90           90           90 
  363000    271.16211   -18132.389   -16063.993   -18132.389            0    8965.0541    50.086785    24.874677    23.006536            0            0            0    28663.673    8282.6249    8748.9217    9863.6156   -695.61466   -124.48197   -753.16529    50.086785    24.874677    23.006536           90           90           90 
  363500    269.85301   -18063.539   -16005.129   -18063.539            0     8804.213    49.949667    25.009464    22.975322            0            0            0    28701.103    8211.6599    9407.9954    8792.9838   -478.10468  -0.42646957    247.65858    49.949667    25.009464    22.975322           90           90           90 
  364000    277.50615   -18145.583   -16028.796   -18145.583            0    8594.8302    49.989855    24.941871    23.066643            0            0            0    28760.424    7970.0237     9032.735    8781.7319   -258.77677   -56.308634   -290.40071    49.989855    24.941871    23.066643           90           90           90 
  364500    267.82871   -18148.351   -16105.382   -18148.351            0    8032.4712    49.923768    25.020287    23.030724            0            0            0    28767.839    8221.4638    8232.7524    7643.1975    451.51566    788.56125    873.19146    49.923768    25.020287    23.030724           90           90           90 
  365000    272.36237   -18070.435   -15992.884   -18070.435            0    7460.7779    50.134784    24.992489    23.036562            0            0            0    28864.651    7468.0442    7831.7213    7082.5682   -254.76937    -595.4426   -31.769081    50.134784    24.992489    23.036562           90           90           90 
  365500    273.30199   -18172.897   -16088.179   -18172.897            0    7010.1013    49.871918    25.029925    23.148385            0            0            0    28895.906    7370.7563    6637.5324    7022.0152   -357.65036   -479.68297   -272.95112    49.871918    25.029925    23.148385           90           90           90 
  366000    278.63379   -18127.549   -16002.161   -18127.549            0     6983.932    50.246941    25.015775    23.004004            0            0            0    28915.255    6428.3422    6602.7005    7920.7532    46.331055    -1465.454    -20.83829    50.246941    25.015775    23.004004           90           90           90 
  366500    274.13317   -18179.484   -16088.426   -18179.484            0    7667.4388    49.927485    25.030785    23.061598            0            0            0    28820.635    7735.3635    7877.1019    7389.8509   -148.85316   -207.08397   -528.33948    49.927485    25.030785    23.061598           90           90           90 
  367000    268.64771   -18173.403   -16124.187   -18173.403            0    7496.1389    50.119513    24.988874    23.012065            0            0            0    28821.005    6115.9367    7923.8493    8448.6309   -540.77135   -962.00724    52.276507    50.119513    24.988874    23.012065           90           90           90 
  367500    275.41007   -18170.971   -16070.172   -18170.971            0     7591.155    49.894915    25.035597    23.069244            0            0            0    28816.922    8560.4721    6757.9152    7455.0777   -417.98195    299.39273    196.27072    49.894915    25.035597    23.069244           90           90           90 
  368000    268.29486   -18080.572   -16034.047   -18080.572            0    7638.2112    50.176191     24.98594    23.017941            0            0            0    28857.577    7017.9648    7891.1887      8005.48    501.83403   -668.43215    70.254522    50.176191     24.98594    23.017941           90           90           90 
  368500     262.9224    -18120.43   -16114.886    -18120.43            0    7541.0707    49.963526    25.037502    23.059426            0            0            0    28846.462     7449.864    7270.8493    7902.4989    52.455557   -177.70948   -707.97017    49.963526    25.037502    23.059426           90           90           90 
  369000    269.48526   -18121.098   -16065.493   -18121.098            0    7641.0448    50.032617    24.969031    23.093657            0            0            0     28850.12    6920.4701    8343.3499    7659.3144    184.82634      54.2954    1214.1686    50.032617    24.969031    23.093657           90           90           90 
  369500    271.89762   -18128.212   -16054.206   -18128.212            0    8030.5952    49.996998    25.023409    23.008067            0            0            0    28785.285    7760.3884    7635.9382    8695.4591    219.50967   -675.28759    -636.4924    49.996998    25.023409    23.008067           90           90           90 
  370000    269.90586   -18109.175   -16050.362   -18109.175            0    8301.6987    49.999893    24.955805    23.091834            0            0            0    28813.704    8727.1126    7570.7982    8607.1852   -141.70371   -233.27413   -634.01929    49.999893    24.955805    23.091834           90           90           90 
  370500    266.96035   -18150.974   -16114.629   -18150.974            0    7570.7055    50.047228    25.040547    22.978118            0            0            0    28796.407    6931.6909    7573.8356      8206.59    252.76448    567.80236    252.58835    50.047228    25.040547    22.978118           90           90           90 
  371000    265.07903   -18176.227   -16154.232   -18176.227            0     7298.879    49.975723    24.975504    23.140492            0            0            0    28883.242    7084.5303    7538.4731    7273.6338   -428.26947   -5.3076159     277.9675    49.975723    24.975504    23.140492           90           90           90 
  371500    262.88604   -18122.166     -16116.9   -18122.166            0    7158.7603     50.16146     25.03556    23.006352            0            0            0    28891.842    7137.4047      6647.67    7691.2062   -633.38741   -774.05823   -57.817874     50.16146     25.03556    23.006352           90           90           90 
  372000    269.13154   -18110.449   -16057.542   -18110.449            0    7219.7443    50.009429    25.006849    23.100747            0            0            0    28889.292    7056.8412     7756.446    6845.9457   -170.59775    -461.0988    754.11346    50.009429    25.006849    23.100747           90           90           90 
  372500    273.60921   -18203.068   -16116.006   -18203.068            0    7104.5532    50.084962    25.011165    23.021631            0            0            0    28838.812    6534.0186    7527.9265    7251.7144    249.48254   -596.97206   -105.73418    50.084962    25.011165    23.021631           90           90           90 
  373000    264.36885   -18188.056   -16171.479   -18188.056            0    7625.0897    50.060371    25.022232    23.028862            0            0            0    28846.463    6835.4247    7467.9286    8571.9157    -257.3353   -392.57961    78.492085    50.060371    25.022232    23.028862           90           90           90 
  373500    269.39204   -18104.266   -16049.372   -18104.266            0    6922.6646    50.085834    25.006054    23.082454            0            0            0    28909.598    7319.2913    6930.4219    6518.2807   -635.73251    932.22057    254.87553    50.085834    25.006054    23.082454           90           90           90 
  374000    271.29327    -18102.77   -16033.374    -18102.77            0    6831.0522    50.118045     25.04256    23.063472            0            0            0    28946.598     7201.188     6682.712    6609.2565     552.8514    190.18087   -198.33909    50.118045     25.04256    23.063472           90           90           90 
  374500    275.33114   -18136.438   -16036.241   -18136.438            0    6428.6775    50.067621    25.030045    23.128065            0            0            0    28983.971    6298.5159    6413.1478    6574.3686    -89.87443    472.69564   -282.38395    50.067621    25.030045    23.128065           90           90           90 
  375000    267.17916   -18153.868   -16115.854   -18153.868            0    7054.4072    50.128272    25.025954     23.04378            0            0            0    28908.602    6635.2627    6784.0439    7743.9152    232.92155   -361.46522    671.93839    50.128272    25.025954     23.04378           90           90           90 
  375500    268.98739   -18128.016   -16076.209   -18128.016            0    7468.8879    50.055288    25.003416     23.07797            0            0            0    28883.306    7272.2712    7304.1512    7830.2413    34.022093    317.00287   -499.50062    50.055288    25.003416     23.07797           90           90           90 
  376000    274.34059   -18095.494   -16002.854   -18095.494            0    8224.8408    50.007606    25.027675    23.032741            0            0            0    28827.182    7991.9521    8513.6996    8168.8707    514.86162   -796.20458    18.465455    50.007606    25.027675    23.032741           90           90           90 
  376500     265.3736   -18100.603   -16076.361   -18100.603            0    7785.3225    50.090874    25.004861    23.048587            0            0            0    28868.708    7585.0678    8056.1642    7714.7354    228.10247    526.78314    208.08264    50.090874    25.004861    23.048587           90           90           90 
  377000    261.42493   -18117.415   -16123.294   -18117.415            0    7291.5934    50.047411    25.013511     23.06105            0            0            0    28869.239    7721.9246    7260.6251    6892.2305    443.96511   -361.62936    353.67663    50.047411    25.013511     23.06105           90           90           90 
  377500    264.56603   -18141.163   -16123.081   -18141.163            0    7858.3775     50.08429    24.963437    23.055765            0            0            0     28826.07    8013.9358    8007.8089     7553.388   -832.02905    189.02271   -874.52188     50.08429    24.963437    23.055765           90           90           90 
  378000    265.04745   -18102.795   -16081.042   -18102.795            0    7718.2781    50.053867    25.057156    23.014681            0            0            0    28865.186      7635.05    7447.1661    8072.6181    681.85443   -605.91699   -284.39035    50.053867    25.057156    23.014681           90           90           90 
  378500    270.89897    -18127.51   -16061.122    -18127.51            0    8406.9437    50.039614    24.911523    23.099126            0            0            0    28794.516    8220.5172    8673.8376    8326.4761    148.15854    382.23557   -131.27531    50.039614    24.911523    23.099126           90           90           90 
  379000    272.19396   -18147.075   -16070.809   -18147.075            0    9074.1055    49.884234     25.05434    22.954368            0            0            0    28688.749    9800.3001    7779.2891    9642.7272    405.86254   -82.238585   -267.14671    49.884234     25.05434    22.954368           90           90           90 
  379500    269.90833   -18210.101   -16151.269   -18210.101            0     8354.923    50.087593     24.86117    23.040498            0            0            0    28690.861    7842.9515    9188.1511    8033.6665   -47.302484   -176.09375   -69.389577    50.087593     24.86117    23.040498           90           90           90 
  380000    267.04349   -18199.957   -16162.978   -18199.957            0    8778.4647    49.828028    25.011413    23.029384            0            0            0    28700.816    9453.9298    8196.3021    8685.1623   -608.92995    34.167103   -286.07547    49.828028    25.011413    23.029384           90           90           90 
  380500    268.15117   -18048.867   -16003.439   -18048.867            0     8401.367    50.125027    24.976267    23.006941            0            0            0     28803.22    7997.6157    8699.7072     8506.778    -120.4843    467.12366   -548.05209    50.125027    24.976267    23.006941           90           90           90 
  381000    270.46948    -18129.97   -16066.857    -18129.97            0    8334.9425    49.906746    24.953379    23.117017            0            0            0    28788.591    8330.8659    8521.2982    8152.6632   -480.18257    301.26107    452.47206    49.906746    24.953379    23.117017           90           90           90 
  381500    265.07416   -18040.179   -16018.222   -18040.179            0    8435.9657    50.148077    25.002432    23.001246            0            0            0    28839.512    7124.1963    9032.8944    9150.8064   -255.04829    1039.6791    240.26417    50.148077    25.002432    23.001246           90           90           90 
  382000    273.91267   -18158.346   -16068.969   -18158.346            0     8395.995    50.020471    24.977817    23.023915            0            0            0     28766.13     8901.933    7909.9608    8376.0912   -37.046607    267.53818   -56.088763    50.020471    24.977817    23.023915           90           90           90 
  382500    278.20862    -18123.56   -16001.414    -18123.56            0    8475.9689     49.91466    24.965282     23.11314            0            0            0    28802.059    8035.4258    8953.5021    8438.9788     957.4184   -352.89403   -771.69834     49.91466    24.965282     23.11314           90           90           90 
  383000    278.20794   -18110.531    -15988.39   -18110.531            0    8375.9852    50.188855    25.061051    22.872767            0            0            0    28769.033    7278.0511    8270.2358    9579.6686   -27.772892    66.365981   -1090.2901    50.188855    25.061051    22.872767           90           90           90 
  383500    272.31802   -18117.794   -16040.582   -18117.794            0    7938.2945     49.90402    24.913412    23.184138            0            0            0    28824.362    9136.3032    8194.3327    6484.2474   -343.98832    106.44966    419.45681     49.90402    24.913412    23.184138           90           90           90 
  384000    265.80107   -18173.361   -16145.859   -18173.361            0    7997.2248    49.998019    25.041562    22.963509            0            0            0    28750.968    8120.2093    7641.2144    8230.2508    136.48053    88.077185    392.30117    49.998019    25.041562    22.963509           90           90           90 
  384500    267.64009   -18150.417   -16108.887   -18150.417            0     8115.462    49.995263    24.956143    23.096024            0            0            0    28816.654    7743.4694    9114.6205     7488.296    4.4270531   -755.65141   -196.76185    49.995263    24.956143    23.096024           90           90           90 
  385000    267.39861   -18170.722   -16131.034   -18170.722            0    8248.4748    49.984103      24.9879    23.054057            0            0            0    28794.466    8158.8473    8139.5135    8447.0637   -388.49877   -67.312063   -19.220356    49.984103      24.9879    23.054057           90           90           90 
  385500    265.74602   -18119.633   -16092.551   -18119.633            0    7965.7729    50.105241    25.030737    22.962403            0            0            0    28798.781    7511.1497      8269.53     8116.639     34.79228    -140.5538   -125.16865    50.105241    25.030737    22.962403           90           90           90 
  386000    273.10463   -18120.922   -16037.709   -18120.922            0    8550.0547    49.810476     24.91957    23.169334            0            0            0    28759.067    9641.4833    8682.3753    7326.3056   -227.41964   -794.84529   -98.821149    49.810476     24.91957    23.169334           90           90           90 
  386500    271.79487   -18127.425   -16054.203   -18127.425            0    8858.8939    50.206542    25.017129      22.8518            0            0            0    28702.399    8497.3351    8182.5425    9896.8041    182.24418    391.57883   -161.52386    50.206542    25.017129      22.8518           90           90           90 
  387000    271.08224   -18131.858   -16064.072   -18131.858            0    8151.8752    49.782586    24.963317    23.139471            0            0            0     28756.31    8687.0115    8357.0545    7411.5596    385.62881   -342.00969    107.33897    49.782586    24.963317    23.139471           90           90           90 
  387500    265.37252   -18114.039   -16089.805   -18114.039            0     8241.752    50.043151    24.957507    23.046019            0            0            0    28783.379    8395.9091     8099.577    8229.7701   -722.48659    202.14701    423.30355    50.043151    24.957507    23.046019           90           90           90 
  388000    266.09846   -18143.882   -16114.112   -18143.882            0    7783.8407    49.982321    25.017244    23.014534            0            0            0    28777.832    8171.6525    7665.7152    7514.1544      2.34323    73.056297    2024.2421    49.982321    25.017244    23.014534           90           90           90 
  388500     259.5427   -18144.549   -16164.785   -18144.549            0    8661.4203    49.873292     24.95703    23.083553            0            0            0     28731.85     8953.586    8811.2215    8219.4533   -288.88243    523.72246    -150.6184    49.873292     24.95703    23.083553           90           90           90 
  389000    268.15105   -18177.012   -16131.584   -18177.012            0    8227.1007    50.074857    25.017826    22.918429            0            0            0    28711.383    8230.6116    8508.3763    7942.3142     191.5114   -111.85869   -76.562336    50.074857    25.017826    22.918429           90           90           90 
  389500    270.33457   -18192.498   -16130.415   -18192.498            0    8110.1753    49.760412    24.954014    23.159739            0            0            0    28757.958    9090.2873    7944.8086    7295.4301      229.367   -176.71908    107.74386    49.760412    24.954014    23.159739           90           90           90 
  390000     260.1206   -18154.555   -16170.383   -18154.555            0    9033.9687    50.144843    24.978173     22.88176            0            0            0    28660.012    8635.4639    9242.2253     9224.217    324.67904   -112.21032   -657.06443    50.144843    24.978173     22.88176           90           90           90 
  390500    277.74489   -18149.511   -16030.903   -18149.511            0    8629.9078     49.90344    24.957661    23.078257            0            0            0    28743.348    8996.5113    8233.5678    8659.6443    135.64583   -65.189319   -217.39156     49.90344    24.957661    23.078257           90           90           90 
  391000    268.47683   -18111.939   -16064.026   -18111.939            0    8730.2846    49.984347    24.935609    23.074317            0            0            0    28759.602    8165.0708    8714.9238    9310.8591   -80.646643   -54.842193    148.20938    49.984347    24.935609    23.074317           90           90           90 
  391500    268.84668   -18126.194    -16075.46   -18126.194            0    7490.7408    50.045088    25.052476    23.017859            0            0            0    28858.719    7454.0923    7540.0329    7478.0972   -345.82757   -23.060103    733.97213    50.045088    25.052476    23.017859           90           90           90 
  392000    268.37361   -18157.676   -16110.551   -18157.676            0    8279.7054    49.971833    24.936456    23.075388            0            0            0    28754.712    8191.0638    8822.9662    7825.0862   -170.56227    92.885748   -369.29817    49.971833    24.936456    23.075388           90           90           90 
  392500     276.8295   -18136.932   -16025.306   -18136.932            0    8072.5987    49.987462    25.005229    23.017931            0            0            0    28771.216    7932.6499    8521.1865    7763.9596   -408.32933   -329.74458    63.507657    49.987462    25.005229    23.017931           90           90           90 
  393000    273.18741    -18115.27   -16031.426    -18115.27            0    8330.5458    49.996833     24.96113    23.030297            0            0            0    28741.292    8166.3927    8740.4214    8084.8234     3.333975    319.44463   -486.43848    49.996833     24.96113    23.030297           90           90           90 
  393500    276.90586   -18197.465   -16085.256   -18197.465            0    9056.0683      49.8329     24.94442    23.078237            0            0            0    28687.467    8728.5938    9714.8143    8724.7969    589.59915   -588.38776    657.53102      49.8329     24.94442    23.078237           90           90           90 
  394000    268.48381   -18146.612   -16098.646   -18146.612            0    8713.9646    50.076767    25.001264    22.933622            0            0            0    28712.492    8692.1124    8753.4101    8696.3712    299.79061    447.03136    79.489752    50.076767    25.001264    22.933622           90           90           90 
  394500    272.83937   -18146.982   -16065.793   -18146.982            0    8668.6762    49.829839    24.940355    23.107876            0            0            0    28717.865    9527.1326    8938.5201     7540.376   -1009.4621    334.64182   -16.007827    49.829839    24.940355    23.107876           90           90           90 
  395000    274.06949   -18181.085   -16090.512   -18181.085            0     8658.674    50.019399    24.974236    22.966618            0            0            0    28689.813     8180.115    8429.4262    9366.4809    623.10005   -389.34465   -620.16902    50.019399    24.974236    22.966618           90           90           90 
  395500    262.91568    -18122.67   -16117.177    -18122.67            0      8639.54    50.009362    24.974215    23.005583            0            0            0    28732.697    8203.6279    9248.1824    8466.8099   -787.30396    515.29442   -336.07852    50.009362    24.974215    23.005583           90           90           90 
  396000    266.46711   -18135.563    -16102.98   -18135.563            0    8832.1545    49.891764    24.943344    23.087841            0            0            0    28732.066    8276.7313     9568.924    8650.8083   -160.76437    558.86444    205.40662    49.891764    24.943344    23.087841           90           90           90 
  396500    275.93996   -18092.827   -15987.986   -18092.827            0    8421.2252    50.105851    25.009519     22.94716            0            0            0    28755.619    7803.1212    8624.1827    8836.3716   -432.26116   -275.90461    61.003207    50.105851    25.009519     22.94716           90           90           90 
  397000    267.65171     -18172.1   -16130.482     -18172.1            0    8390.2821    49.836173    24.963449    23.086113            0            0            0    28721.035    9297.6828    7968.1584    7905.0049     770.9473    1462.5384   -75.594571    49.836173    24.963449    23.086113           90           90           90 
  397500    268.80336   -18077.842   -16027.439   -18077.842            0    8701.5212    50.167457    24.962294    22.964778            0            0            0    28758.673     7999.065     9036.224    9069.2745    89.920063    15.447019   -64.369833    50.167457    24.962294    22.964778           90           90           90 
  398000    270.90991   -18164.803   -16098.332   -18164.803            0    8000.4753    49.854164    25.055283    22.996943            0            0            0    28725.717    8817.5257    7614.0912    7569.8089   -132.82855   -287.96486    578.30021    49.854164    25.055283    22.996943           90           90           90 
  398500    270.78234   -18161.158    -16095.66   -18161.158            0     8298.519    50.049409    24.870347    23.118082            0            0            0    28776.145     8184.511    8823.9076    7887.1385   -395.80924   -1104.8324    408.90501    50.049409    24.870347    23.118082           90           90           90 
  399000    261.42473   -18172.052   -16177.932   -18172.052            0    8456.0124    49.917233    25.039637    22.986306            0            0            0      28730.8    8343.9675    8594.1579    8429.9118    63.497664   -20.507026   -32.396015    49.917233    25.039637    22.986306           90           90           90 
  399500    267.97989     -18179.4   -16135.278     -18179.4            0    8170.2688    50.042792     24.93131    23.070203            0            0            0    28783.132    8054.1939    8710.5276    7746.0849    549.32606   -268.10171   -71.775325    50.042792     24.93131    23.070203           90           90           90 
  400000    265.60744   -18141.731   -16115.706   -18141.731            0    7477.0242    49.970653    25.056371    23.042238            0            0            0    28850.799    7013.8685    7562.8522    7854.3519   -633.85743   -104.81697   -569.10005    49.970653    25.056371    23.042238           90           90           90 
  400500     260.9097   -18091.299   -16101.108   -18091.299            0     7401.121    50.247167    24.971636    23.064081            0            0            0    28939.748     6785.262    7924.6446    7493.4565    249.48678   -238.12714   -119.50652    50.247167    24.971636    23.064081           90           90           90 
  401000    263.63144   -18081.185   -16070.232   -18081.185            0    7189.6354    49.948699    25.058195    23.128444            0            0            0    28948.121     7620.167    6946.1058    7002.6335   -270.10007    373.90123   -650.46662    49.948699    25.058195    23.128444           90           90           90 
  401500    280.23865   -18194.787   -16057.157   -18194.787            0     6749.118    50.165234     25.02384    23.018034            0            0            0    28895.155    6160.5278    6808.6148    7278.2114    172.29983   -49.767828   -60.105772    50.165234     25.02384    23.018034           90           90           90 
  402000    264.16263   -18130.261   -16115.257   -18130.261            0    7315.6389    50.010567    24.973557    23.112574            0            0            0    28866.259    7494.2884    6991.6333    7460.9949    183.46991   -795.88214   -1039.6187    50.010567    24.973557    23.112574           90           90           90 
  402500    270.70856   -18101.702   -16036.766   -18101.702            0    7729.7651    50.134774    25.013443     23.02234            0            0            0    28871.012    7982.8701    7502.1411    7704.2841    606.19374   -114.38261    332.07595    50.134774    25.013443     23.02234           90           90           90 
  403000    268.06478   -18155.428   -16110.659   -18155.428            0    7594.9386    49.989703    24.993267    23.082472            0            0            0    28839.379    7180.6079    8371.7609    7232.4468    425.10254    359.21063    26.001643    49.989703    24.993267    23.082472           90           90           90 
  403500    269.44229    -18174.06   -16118.783    -18174.06            0     7234.898    50.110317    24.917269    23.078774            0            0            0     28816.44    7223.5689    7819.8962     6661.229   -283.24767    256.50564   -347.23605    50.110317    24.917269    23.078774           90           90           90 
  404000    270.21209   -18198.702   -16137.553   -18198.702            0    7995.3811    49.895584    25.147389    22.920952            0            0            0     28759.92     8324.971    6463.1264     9198.046    -461.6512   -699.95229    789.69942    49.895584    25.147389    22.920952           90           90           90 
  404500    265.83262   -18156.955   -16129.212   -18156.955            0    7749.4175    50.044994    24.878351    23.144834            0            0            0    28816.173    7502.2051    8869.6105    6876.4369    1058.3038   -159.34476    101.01883    50.044994    24.878351    23.144834           90           90           90 
  405000    270.69135   -18165.497   -16100.693   -18165.497            0    7258.2894    50.006472    25.087479    22.996151            0            0            0    28849.506    7529.8275    6611.5613    7633.4795   -721.38899     -401.875    70.214729    50.006472    25.087479    22.996151           90           90           90 
  405500    268.60988   -18085.322   -16036.394   -18085.322            0    7953.7034    50.064832    24.926687    23.118434            0            0            0    28850.659    7659.2289    8105.9489    8095.9323    868.94979    68.533211   -187.99792    50.064832    24.926687    23.118434           90           90           90 
  406000    268.73015   -18078.084   -16028.239   -18078.084            0    7871.5801    49.896183    25.063964    23.039722            0            0            0    28813.388    8330.8728     7658.631    7625.2365    94.338341    44.064125    162.97194    49.896183    25.063964    23.039722           90           90           90 
  406500    266.90326   -18175.114   -16139.205   -18175.114            0    7717.6779    50.205725    24.934819    22.986057            0            0            0    28775.569    6608.4109      8551.39    7993.2328    71.836564    556.15554    652.18053    50.205725    24.934819    22.986057           90           90           90 
  407000    272.67768   -18182.932   -16102.976   -18182.932            0     8146.349     49.76419    24.983986    23.128259            0            0            0    28755.546    8402.9864    8123.0304    7913.0301    517.58501   -550.79822    139.25185     49.76419    24.983986    23.128259           90           90           90 
  407500    268.34057   -18100.473     -16053.6   -18100.473            0    8329.3665      50.2692    24.946066    22.943835            0            0            0    28772.001    7769.3852     8650.534    8568.1802    311.38768    53.671618    57.860954      50.2692    24.946066    22.943835           90           90           90 
  408000     270.4504   -18105.199   -16042.233   -18105.199            0    7284.8176    49.795056    25.052968    23.140488            0            0            0    28868.082    8054.6087    7386.8361    6413.0081    290.88004    204.75685   -472.92972    49.795056    25.052968    23.140488           90           90           90 
  408500    274.95556   -18131.244   -16033.912   -18131.244            0    7275.4548     50.24406    24.977675    23.024708            0            0            0    28895.544    6914.4093     7653.271     7258.684    109.61664   -120.90844   -319.50759     50.24406    24.977675    23.024708           90           90           90 
  409000    272.57172   -18094.647   -16015.499   -18094.647            0    7923.4864    49.915143    25.069335    23.036883            0            0            0     28826.96    8957.6141    7171.5528    7641.2923    523.27797    57.756361    10.324883    49.915143    25.069335    23.036883           90           90           90 
  409500    263.80547   -18112.115   -16099.835   -18112.115            0    7609.9146    50.095214    24.968162    23.076484            0            0            0    28863.729    7680.4113    7557.6065    7591.7261    283.84424    42.311702   -364.92355    50.095214    24.968162    23.076484           90           90           90 
  410000    271.64071   -18157.903   -16085.857   -18157.903            0    7434.7233    49.957548    25.068513    23.029056            0            0            0    28840.702    8605.6114    6012.8303    7685.7283    31.415274    -33.97771   -1048.8109    49.957548    25.068513    23.029056           90           90           90 
  410500    268.84879   -18129.733   -16078.984   -18129.733            0    7202.7411    50.133306    24.905108    23.122882            0            0            0    28870.661    6530.6802    8603.7546    6473.7885    138.17288   -290.01625    423.65591    50.133306    24.905108    23.122882           90           90           90 
  411000    276.37034   -18084.199   -15976.076   -18084.199            0     7942.243    49.939893    25.149239     22.97206            0            0            0    28851.766    8628.0015    6655.1265    8543.6009    422.62416     208.3263   -267.87953    49.939893    25.149239     22.97206           90           90           90 
  411500    270.81683   -18221.981   -16156.219   -18221.981            0    7250.0531     50.08585    24.899299    23.132252            0            0            0     28848.29    6291.3424    8148.7874    7310.0297   -356.73691   -144.84192   -130.60855     50.08585    24.899299    23.132252           90           90           90 
  412000    270.50802   -18159.555   -16096.149   -18159.555            0    7905.2429    49.968875    25.069074    22.997024            0            0            0     28807.76    7258.9326    7988.2973    8468.4988   -781.68199   -139.80025   -443.92867    49.968875    25.069074    22.997024           90           90           90 
  412500    266.25481   -18089.383    -16058.42   -18089.383            0     8012.305    50.094612    24.939389    23.083591            0            0            0    28839.001    7587.0292    7948.8437    8501.0422   -150.42319   -381.34772    161.87725    50.094612    24.939389    23.083591           90           90           90 
  413000    257.71804   -18118.578   -16152.733   -18118.578            0     8378.951    49.920067    25.024271    23.030619            0            0            0    28770.156    8343.5791    8194.9608    8598.3131     107.3277   -403.09254    -172.3024    49.920067    25.024271    23.030619           90           90           90 
  413500    266.56658   -18113.508   -16080.167   -18113.508            0    9059.9294    50.103187    24.957339    22.979317            0            0            0    28734.308    7911.0933     9516.998    9751.6969    48.317643    49.813947    78.069878    50.103187    24.957339    22.979317           90           90           90 
  414000    272.11625   -18154.838   -16079.164   -18154.838            0    8428.0908    49.827011     24.91992     23.13673            0            0            0    28728.533    9723.0797    8258.1275    7303.0652   -231.43974   -611.31857   -365.00127    49.827011     24.91992     23.13673           90           90           90 
  414500    269.16505   -18182.966   -16129.804   -18182.966            0    8587.1191    50.127295     25.01014    22.899182            0            0            0     28708.49     7453.793    8389.2693    9918.2949    492.72932    543.78031    70.107336    50.127295     25.01014    22.899182           90           90           90 
  415000    266.77468   -18116.556   -16081.628   -18116.556            0    8024.2116    49.929596    24.976945    23.095532            0            0            0    28802.178    7762.3626    8421.3573    7888.9149   -111.86303    373.79719   -629.83538    49.929596    24.976945    23.095532           90           90           90 
  415500    266.64171   -18124.053   -16090.139   -18124.053            0    8218.0398     50.04941    24.998071    23.012889            0            0            0    28792.317    8583.3446     8182.708    7888.0668   -108.68743   -4.4942833    11.047637     50.04941    24.998071    23.012889           90           90           90 
  416000    272.02419   -18131.729   -16056.758   -18131.729            0    8145.4763    49.997067    24.953267    23.093025            0            0            0    28810.631    8852.8945    7881.0752    7702.4594    157.64205   -257.74065    438.49883    49.997067    24.953267    23.093025           90           90           90 
  416500    271.19207   -18157.222   -16088.598   -18157.222            0    8028.8467    49.945291    24.994989    23.050031            0            0            0    28775.243     7980.429    8413.3582    7692.7528    72.479795    -498.8544   -397.74626    49.945291    24.994989    23.050031           90           90           90 
  417000    267.80894   -18129.673   -16086.855   -18129.673            0    8682.0239    50.095108    24.952969    22.964993            0            0            0    28706.739    7743.2674    8911.0305    9391.7737    470.48042    287.58779    334.07604    50.095108    24.952969    22.964993           90           90           90 
  417500    271.23219   -18092.858   -16023.928   -18092.858            0    8690.3591    49.796321    24.989569    23.128009            0            0            0     28780.23     9331.655    8446.0197    8293.4025   -364.40627   -61.351567    433.99035    49.796321    24.989569    23.128009           90           90           90 
  418000    270.23096   -18126.389   -16065.096   -18126.389            0    8626.9975    50.168003    24.990537    22.937558            0            0            0    28757.397    7956.2727    8614.9791    9309.7407    132.18431   -291.38598    106.79501    50.168003    24.990537    22.937558           90           90           90 
  418500    279.58945   -18092.295   -15959.617   -18092.295            0    8509.0979    49.876487    24.955837    23.146224            0            0            0    28810.325    9480.1022    8261.0874    7786.1042    365.90772   -471.58359    -58.40723    49.876487    24.955837    23.146224           90           90           90 
  419000    268.32789   -18086.709   -16039.933   -18086.709            0    8207.8533    50.145689    24.965553    22.997963            0            0            0    28791.491    6886.6212     8680.012    9056.9265    647.23002   -192.13937    667.01119    50.145689    24.965553    22.997963           90           90           90 
  419500    271.63621   -18134.733   -16062.721   -18134.733            0    8332.6768     49.91611    25.008964    23.044523            0            0            0    28767.635     9081.503    7055.2777    8861.2497    47.606605   -13.557345    -532.5512     49.91611    25.008964    23.044523           90           90           90 
  420000    271.14308   -18129.516   -16061.266   -18129.516            0    8194.6574    50.088005    24.905889    23.050938            0            0            0    28755.729    7275.1608    9105.5291    8203.2823    687.95718    302.08639    985.34574    50.088005    24.905889    23.050938           90           90           90 
  420500    269.93257   -18060.319   -16001.303   -18060.319            0     8321.474    49.900397    25.088309     22.99284            0            0            0    28785.118    8667.8071    7897.1806    8399.4345   -561.63033    420.24148   -1279.9489    49.900397    25.088309     22.99284           90           90           90 
  421000    268.82791     -18143.7   -16093.109     -18143.7            0    7881.8334    50.120504    24.870654    23.116696            0            0            0    28815.649    7625.2729    8801.1728    7219.0544    541.35481   -307.33057   -394.78832    50.120504    24.870654    23.116696           90           90           90 
  421500    270.25564   -18073.626   -16012.145   -18073.626            0    7533.6505    49.896864    25.136312    23.036914            0            0            0    28893.431    7861.7367    7234.6761    7504.5388    -641.8551   -397.81354    616.21811    49.896864    25.136312    23.036914           90           90           90 
  422000    272.69341   -18138.844   -16058.768   -18138.844            0    6859.2844    50.320066    24.929005    23.053007            0            0            0    28918.364    6270.6442    7673.8679     6633.341    56.919862    -221.4417    386.59409    50.320066    24.929005    23.053007           90           90           90 
  422500    274.01766    -18104.64   -16014.463    -18104.64            0    7359.1669    49.818233    25.061882    23.153343            0            0            0    28907.844    8214.7915    6758.3451    7104.3641   -96.709426    315.38371    191.52018    49.818233    25.061882    23.153343           90           90           90 
  423000    272.72709   -18104.511   -16024.178   -18104.511            0    7741.8876    50.202006    24.975915    23.000314            0            0            0    28838.737     7381.076    7656.4616    8188.1253    928.85772   -438.14903    659.76416    50.202006    24.975915    23.000314           90           90           90 
  423500     264.9697   -18176.478   -16155.317   -18176.478            0    7105.1762    49.984893    25.037142    23.048746            0            0            0    28845.019    6465.0586    7712.2194    7138.2507    17.865454    354.71872   -290.42441    49.984893    25.037142    23.048746           90           90           90 
  424000     263.8399   -18150.566   -16138.024   -18150.566            0    7568.7716    50.056204    24.961968    23.074925            0            0            0    28832.151     6427.569    8060.3315    8218.4143    491.89603    290.06762   -178.83835    50.056204    24.961968    23.074925           90           90           90 
  424500    271.76012   -18126.365   -16053.407   -18126.365            0    7888.3965    49.968626    25.017575    23.049522            0            0            0    28814.066    8198.0114    7569.2899    7897.8881   -370.35555    283.32009   -339.72788    49.968626    25.017575    23.049522           90           90           90 
  425000    270.14581   -18106.832   -16046.188   -18106.832            0    7168.4503    50.190767     25.02063     23.00312            0            0            0    28887.424    7199.0307    6796.7806    7509.5397    63.887447   -266.49563    464.37134    50.190767     25.02063     23.00312           90           90           90 
  425500    268.17332   -18074.613   -16029.016   -18074.613            0    7494.3205    49.914726    25.019866    23.132983            0            0            0    28889.852    8031.6313     7501.443    6949.8873   -589.62281    -452.9259   -862.52297    49.914726    25.019866    23.132983           90           90           90 
  426000    266.30206   -18109.875   -16078.552   -18109.875            0     6808.077    50.266553    24.983117    23.031888            0            0            0    28923.794    6275.2651    7457.4236    6691.5423    373.95806   -878.79002   -427.37758    50.266553    24.983117    23.031888           90           90           90 
  426500    266.41356   -18120.122   -16087.948   -18120.122            0    7474.5962    49.891054    25.086643    23.063663            0            0            0    28866.458    7792.1657    7219.9872    7411.6358    101.27161   -405.98138    252.72186    49.891054    25.086643    23.063663           90           90           90 
  427000    268.06925   -18191.931   -16147.127   -18191.931            0    7495.7121    50.123423    24.906177    23.102566            0            0            0    28840.847    6739.9823    9075.9074    6671.2466   -520.68588   -668.46197    38.760152    50.123423    24.906177    23.102566           90           90           90 
  427500    272.31426   -18110.253   -16033.069   -18110.253            0    7670.7264    50.008721    25.077167    23.003001            0            0            0    28847.536    7812.7829    7005.6737    8193.7227    78.433699    218.35116   -532.52689    50.008721    25.077167    23.003001           90           90           90 
  428000    265.39936   -18139.826   -16115.388   -18139.826            0    7502.5663    50.039541    24.937087    23.117765            0            0            0     28847.28    7925.8194    7120.0926     7461.787    -524.9179   -8.8879068   -235.88147    50.039541    24.937087    23.117765           90           90           90 
  428500    260.12104   -18107.633   -16123.458   -18107.633            0    7274.5301    50.012115    25.097448    23.010392            0            0            0    28882.102    7563.8276    6506.7658     7752.997   -313.47702   -280.09211   -548.24904    50.012115    25.097448    23.010392           90           90           90 
  429000     269.1671   -18132.475   -16079.297   -18132.475            0    6544.1068    50.122702    24.977479    23.102056            0            0            0    28922.358    6556.0544    6663.5687    6412.6972   -630.60217    180.80136   -348.83882    50.122702    24.977479    23.102056           90           90           90 
  429500    273.89752   -18104.202   -16014.941   -18104.202            0    7043.1737    50.014138    25.040983    23.076593            0            0            0    28901.199    7420.3411    7009.2592    6699.9207     63.04201   -671.67148   -545.19769    50.014138    25.040983    23.076593           90           90           90 
  430000    265.97635    -18135.87   -16107.031    -18135.87            0     8266.204    50.107683    24.986678    22.978863            0            0            0    28770.101    8248.6696    7650.6194    8899.3231   -455.32371       622.56   -157.62135    50.107683    24.986678    22.978863           90           90           90 
  430500    271.64062   -18121.865    -16049.82   -18121.865            0    8338.5579    49.827308    24.927759    23.173101            0            0            0    28782.918    8956.3286    7792.7734    8266.5718   -550.86326   -102.64454    280.22256    49.827308    24.927759    23.173101           90           90           90 
  431000    270.95114   -18167.069   -16100.282   -18167.069            0    7664.6563    50.094861     25.07903    22.905619            0            0            0    28777.028    6092.6614    7865.5917     9035.716   -22.428801    409.14857    142.53667    50.094861     25.07903    22.905619           90           90           90 
  431500    269.32745   -18076.789   -16022.388   -18076.789            0    8189.2684    49.973128     24.91621     23.14461            0            0            0    28818.301    8411.6629    8538.5105    7617.6318   -466.03847    38.642136   -311.50709    49.973128     24.91621     23.14461           90           90           90 
  432000    269.11484   -18078.321   -16025.541   -18078.321            0    8299.8745    50.027955    25.029072    23.005561            0            0            0    28806.489      8328.58    7971.2896     8599.754   -611.64364    561.27343    119.74331    50.027955    25.029072    23.005561           90           90           90 
  432500    262.97895   -18125.335    -16119.36   -18125.335            0    8038.1387    49.993945     24.96945    23.050973            0            0            0    28775.022    8086.9931    8011.6608    8015.7622   -34.900213   -268.15128   -641.76897    49.993945     24.96945    23.050973           90           90           90 
  433000    273.15132   -18133.238   -16049.669   -18133.238            0    8000.9864    49.988595     25.03417    23.002936            0            0            0    28786.403     7187.551    8660.6192    8154.7888    665.78365   -157.77702    868.28977    49.988595     25.03417    23.002936           90           90           90 
  433500     273.5823   -18171.905   -16085.049   -18171.905            0    8093.0802     50.01111    24.958523    23.030911            0            0            0    28747.262    7739.2415    8436.7739    8103.2251   -306.75041     83.73505   -698.87389     50.01111    24.958523    23.030911           90           90           90 
  434000     267.6837   -18103.797   -16061.935   -18103.797            0     8355.258    49.811753    25.038708    23.038058            0            0            0    28733.571    9049.2896    8716.5148    7299.9696    176.71657   -62.983425   -226.25814    49.811753    25.038708    23.038058           90           90           90 
  434500    275.51602   -18109.015   -16007.408   -18109.015            0    8719.4564    50.299562    24.930783    22.924821            0            0            0    28747.897     7200.091     9642.133    9316.1454    370.40498    679.79211   -677.80353    50.299562    24.930783    22.924821           90           90           90 
  435000    262.19268   -18156.574   -16156.597   -18156.574            0    8228.9653    49.631582    25.034461    23.128138            0            0            0     28736.71    9232.4679    7843.3587    7611.0692   -117.58491    94.580757     547.0639    49.631582    25.034461    23.128138           90           90           90 
  435500    259.32605    -18134.83   -16156.719    -18134.83            0    8194.0287    50.183704    24.936858    22.965766            0            0            0    28739.908    7733.1733    7210.1175    9638.7952    435.64385    -194.9581   -212.24986    50.183704    24.936858    22.965766           90           90           90 
  436000    273.61864   -18152.795   -16065.662   -18152.795            0    7865.2935    49.830199    25.046584    23.081019            0            0            0    28806.872    7806.1086    8023.7937    7765.9783   -70.470506    838.06557   -259.12853    49.830199    25.046584    23.081019           90           90           90 
  436500    271.11748   -18174.624   -16106.569   -18174.624            0    7902.4426    50.078106    24.951952    23.027741            0            0            0    28774.233    8139.5886    8096.2793      7471.46   -88.459023    28.023953    116.99711    50.078106    24.951952    23.027741           90           90           90 
  437000    268.06541   -18117.072   -16072.297   -18117.072            0    8287.0297    49.850255    25.065069    23.039285            0            0            0    28787.588    8781.4172    7496.7739    8582.8979    138.03204   -184.40482   -181.79419    49.850255    25.065069    23.039285           90           90           90 
  437500    270.25601   -18095.327   -16033.843   -18095.327            0    8537.4088    50.174883    24.911263    23.025993            0            0            0    28780.642    8352.8651    8539.2459    8720.1152   -32.389681   -133.22408    148.36352    50.174883    24.911263    23.025993           90           90           90 
  438000    269.14284   -18118.366   -16065.373   -18118.366            0    8755.3669    49.830771    25.048603    23.016502            0            0            0    28728.996    9456.1351    7740.7646    9069.2009     375.5587   -834.17257   -546.95156    49.830771    25.048603    23.016502           90           90           90 
  438500    268.36877   -18104.452   -16057.364   -18104.452            0    8928.8296    50.071439    24.889909    23.026592            0            0            0    28697.433    8493.2751    9020.3502    9272.8635   -393.52368   -192.31746   -734.74983    50.071439    24.889909    23.026592           90           90           90 
  439000    271.35467   -18107.951   -16038.086   -18107.951            0    8677.9418    49.854731    25.045062    23.035071            0            0            0    28761.932    8567.5558    8497.7192    8968.5502     201.4437   -357.70829   -900.48439    49.854731    25.045062    23.035071           90           90           90 
  439500    270.67547   -18105.868   -16041.184   -18105.868            0    8357.4933    50.226452    24.931817    22.958963            0            0            0    28750.056    7930.1219    9107.7348    8034.6231   -349.65362    -305.0042   -18.981678    50.226452    24.931817    22.958963           90           90           90 
  440000    272.35287   -18181.499    -16104.02   -18181.499            0    8710.6806    49.592358    25.026448    23.122769            0            0            0    28698.144    10470.635    8230.3233    7431.0836    32.198458   -161.98297   -266.93615    49.592358    25.026448    23.122769           90           90           90 
  440500    268.94592   -18160.152   -16108.661   -18160.152            0    8889.1778    50.277331    24.880655    22.929354            0            0            0    28683.084    7771.5958    9653.9952    9241.9424    207.89073   -451.31352   -102.22526    50.277331    24.880655    22.929354           90           90           90 
  441000    266.24709   -18147.027   -16116.123   -18147.027            0    8950.0782    49.783963    25.029801    23.038724            0            0            0    28708.155    9734.5823    7821.1672    9294.4851    130.57628    377.75877    267.10835    49.783963    25.029801    23.038724           90           90           90 
  441500     264.0632   -18080.932   -16066.686   -18080.932            0    8978.3401    50.106321    24.911139    23.022318            0            0            0    28736.585    8026.0203    9803.4658    9105.5342   -104.25669    72.756734   -505.78226    50.106321    24.911139    23.022318           90           90           90 
  442000    270.96823   -18138.976    -16072.06   -18138.976            0    9323.4346    49.742731    25.059514    23.010728            0            0            0    28683.532    10472.129    8353.6471    9144.5276   -220.92079   -91.387245    549.97229    49.742731    25.059514    23.010728           90           90           90 
  442500    275.78053   -18102.454    -15998.83   -18102.454            0    8629.1435     50.17104    24.879424    23.045439            0            0            0    28765.929    7522.9449    9996.8054    8367.6803   -171.21829   -1059.1538   -38.979237     50.17104    24.879424    23.045439           90           90           90 
  443000    273.37149   -18147.391   -16062.143   -18147.391            0     8453.064    49.834156    25.036957     23.04092            0            0            0    28748.055    8999.6533    8748.5681    7610.9706    256.14179    326.40606     428.0148    49.834156    25.036957     23.04092           90           90           90 
  443500    278.10565   -18156.911   -16035.551   -18156.911            0    8172.9246    50.123756    24.951566    23.002415            0            0            0    28768.343    7880.2105    8681.3697    7957.1938     144.6184    308.53212    664.10957    50.123756    24.951566    23.002415           90           90           90 
  444000    267.70568   -18125.015   -16082.985   -18125.015            0    9047.4114    49.852028    25.015569    23.039804            0            0            0    28732.405    9109.8615    8448.7423    9583.6305    527.47479    631.03785    131.05757    49.852028    25.015569    23.039804           90           90           90 
  444500     270.0106   -18148.782    -16089.17   -18148.782            0    9365.1438    50.117043    24.913537    22.967065            0            0            0    28676.513    8896.3772    9850.1222    9348.9321    -31.64624     156.5036      452.002    50.117043    24.913537    22.967065           90           90           90 
  445000    272.25167   -18149.255   -16072.548   -18149.255            0    9792.3735    49.708066    25.080887    22.953482            0            0            0     28616.62    11548.691    8057.9106    9770.5195    253.11119    332.30373   -365.92162    49.708066    25.080887    22.953482           90           90           90 
  445500    279.52558     -18128.7   -15996.509     -18128.7            0    8588.0221    50.070673    24.861331    23.059317            0            0            0    28704.782    8194.5077    9193.7186    8375.8399    554.93451   -206.56687    342.03454    50.070673    24.861331    23.059317           90           90           90 
  446000    274.20743   -18167.985    -16076.36   -18167.985            0    7483.0781     49.95443    25.096526    22.982598            0            0            0    28812.884    7866.8721    7149.5086    7432.8536    248.38702   -51.614046   -100.58213     49.95443    25.096526    22.982598           90           90           90 
  446500    267.52267   -18169.017   -16128.383   -18169.017            0    7472.1606    50.073459    24.892375     23.11937            0            0            0    28817.076    7332.2117    8456.9312     6627.339    387.99286    1018.0731   -608.95253    50.073459    24.892375     23.11937           90           90           90 
  447000    269.17799   -18066.448   -16013.187   -18066.448            0    7816.7279     49.97346    25.097667    22.999057            0            0            0    28845.815     8481.097    7514.9702    7454.1163   -263.98533     783.6154   -127.38146     49.97346    25.097667    22.999057           90           90           90 
  447500    276.03162   -18155.065   -16049.526   -18155.065            0    7776.3344    50.206386    24.916052    23.032507            0            0            0    28812.399    7800.4152    7767.3637    7761.2244    72.167632   -284.51733   -324.75609    50.206386    24.916052    23.032507           90           90           90 
  448000    269.16922   -18152.344    -16099.15   -18152.344            0    7939.2423    49.850467    25.034262    23.090683            0            0            0    28816.471    8522.8698    8125.8122     7169.045    204.62887    785.03134   -129.22148    49.850467    25.034262    23.090683           90           90           90 
  448500    271.39532   -18170.121   -16099.946   -18170.121            0    8261.6067    50.148838    24.988489    22.976538            0            0            0    28792.904    8088.6186    7958.8514    8737.3502   -357.01558   -406.44726    108.77978    50.148838    24.988489    22.976538           90           90           90 
  449000    262.19684   -18152.532   -16152.522   -18152.532            0    7975.8262    49.819576    24.972508    23.136449            0            0            0    28784.513    8024.9761    8496.5173    7405.9852    272.24773    190.60644   -146.79246    49.819576    24.972508    23.136449           90           90           90 
  449500    270.13216    -18201.35   -16140.811    -18201.35            0    7858.0502    50.082764    25.004533    22.983649            0            0            0    28782.335    7204.3489    8011.5717      8358.23   -170.37126   -397.90958   -365.31698    50.082764    25.004533    22.983649           90           90           90 
  450000    278.68289   -18186.908   -16061.145   -18186.908            0    7925.0183    50.000004    24.985969    23.064805            0            0            0    28814.828    8155.1748     7770.232    7849.6482     223.0373    26.495371    1065.4909    50.000004    24.985969    23.064805           90           90           90 
  450500    272.70423   -18136.827   -16056.669   -18136.827            0    7673.8862    50.046101    24.957442    23.088446            0            0            0    28837.992    6717.3571    7795.5849    8508.7165    -402.0761      -790.91   -486.50914    50.046101    24.957442    23.088446           90           90           90 
  451000    266.38384   -18219.665   -16187.718   -18219.665            0    8231.1573    49.946492    25.002552    23.014838            0            0            0    28740.694    7975.9718     8311.116    8406.3842    90.047356    346.00348    816.44468    49.946492    25.002552    23.014838           90           90           90 
  451500    271.45258   -18123.663   -16053.052   -18123.663            0    7875.3104    50.130508     24.94806    23.058424            0            0            0    28838.224    6846.1492    8673.1899    8106.5919     226.7235   -483.45006    119.57951    50.130508     24.94806    23.058424           90           90           90 
  452000    268.01531   -18136.911   -16092.519   -18136.911            0    7756.4187    49.984923    25.099951    22.973672            0            0            0    28823.208    7966.2061    7220.9601    8082.0899    115.96091    97.722993    -37.31891    49.984923    25.099951    22.973672           90           90           90 
  452500    273.52087   -18143.575   -16057.188   -18143.575            0    8183.1421     50.24041     24.82685    23.102859            0            0            0    28816.453    7144.5163    9776.4133    7628.4966    456.53657    515.95716   -83.840688     50.24041     24.82685    23.102859           90           90           90 
  453000    268.53188     -18190.8   -16142.468     -18190.8            0    7891.1479    49.716231     25.09636    23.066639            0            0            0    28780.162    8862.7073    6718.9568    8091.7796    325.00986    79.312611   -394.02646    49.716231     25.09636    23.066639           90           90           90 
  453500    271.79505   -18129.059   -16055.835   -18129.059            0    7986.6263    50.217893    24.931522    22.999298            0            0            0    28795.316    7220.4147    8701.4427    8038.0214    212.69921   -288.14269   -529.95008    50.217893    24.931522    22.999298           90           90           90 
  454000     279.8273   -18136.042   -16001.549   -18136.042            0    7442.4352    49.868887    25.046706    23.110695            0            0            0    28866.445    8227.4524    6792.7354    7307.1177   -278.43619    -242.2394    700.15245    49.868887    25.046706    23.110695           90           90           90 
  454500    273.41322   -18122.533   -16036.966   -18122.533            0    7770.5421     50.13785    24.982117    23.019296            0            0            0    28832.811    8276.9844    7374.3366    7660.3054    454.71506    739.98697    187.10643     50.13785    24.982117    23.019296           90           90           90 
  455000    275.99355   -18135.202   -16029.953   -18135.202            0     8013.162    49.933157    25.006884    23.069327            0            0            0    28806.038    8196.7565    7512.2173    8330.5122   -343.82226   -23.494866    -133.9133    49.933157    25.006884    23.069327           90           90           90 
  455500    271.24756    -18146.13   -16077.083    -18146.13            0    8249.0565    49.957044    24.912727    23.089061            0            0            0    28735.865    8009.9936    9318.7086    7418.4673    52.437161   -560.25646    378.05234    49.957044    24.912727    23.089061           90           90           90 
  456000    271.57087   -18103.094   -16031.581   -18103.094            0    7885.1917    50.067528    25.074821    22.926939            0            0            0    28783.266     7078.833    8066.9116    8509.8304   -763.02962   -127.62849   -730.45056    50.067528    25.074821    22.926939           90           90           90 
  456500    272.86713    -18184.86   -16103.459    -18184.86            0    8315.8644    49.931695    24.909013    23.136223            0            0            0     28775.66     8502.701    8667.7084    7777.1837    247.38101   -726.88798    39.417504    49.931695    24.909013    23.136223           90           90           90 
  457000    271.23662    -18214.25   -16145.286    -18214.25            0    8273.7339    49.972691     25.03048    22.930186            0            0            0    28682.004    8466.5122    8461.8909    7892.7987   -191.58258    137.95793   -737.43741    49.972691     25.03048    22.930186           90           90           90 
  457500    275.82471   -18126.748   -16022.787   -18126.748            0    8513.0744    50.029511     24.95917    23.034453            0            0            0    28763.008    8666.9993    8449.5879    8422.6362    238.42865    161.93663    430.44231    50.029511     24.95917    23.034453           90           90           90 
  458000    274.75791   -18165.052   -16069.228   -18165.052            0    8365.4874    49.948979    24.963409    23.050631            0            0            0    28741.757    8010.8269    8772.0919    8313.5435    56.291077    1032.1058     449.1228    49.948979    24.963409    23.050631           90           90           90 
  458500    269.16427   -18091.406   -16038.249   -18091.406            0    8725.8756    49.992569    24.986894    23.006354            0            0            0    28738.595    8547.1633     9040.502    8589.9614    -662.3008   -584.87519    8.0847906    49.992569    24.986894    23.006354           90           90           90 
  459000    264.27656   -18170.911   -16155.038   -18170.911            0     8732.228     49.95119    24.972256    22.992344            0            0            0    28680.509    9274.8237    7852.2664    9069.5939    447.37626    865.21284    409.03017     49.95119    24.972256    22.992344           90           90           90 
  459500    265.33653   -18167.949    -16143.99   -18167.949            0    9308.4709    49.909178    24.942403    23.009916            0            0            0    28644.006    8409.3086    10054.743    9461.3614    24.086442    758.81285   -903.33212    49.909178    24.942403    23.009916           90           90           90 
  460000    269.04825    -18104.81   -16052.539    -18104.81            0    8809.7782    50.021558    24.966185     23.00219            0            0            0    28726.227    9945.0741    7635.3683    8848.8923   -214.06153    178.39802   -1407.3972    50.021558    24.966185     23.00219           90           90           90 
  460500    274.01925    -18184.02    -16093.83    -18184.02            0    8069.0477    49.999544    24.968839    23.042354            0            0            0     28766.78    7592.5577    8389.0277    8225.5578    891.69972    171.45707    817.30582    49.999544    24.968839    23.042354           90           90           90 
  461000     268.1813   -18085.972   -16040.314   -18085.972            0    8684.3164    49.984677    25.010603    22.984236            0            0            0    28733.672    9356.8538    8331.2044    8364.8911    -384.9406    -872.9838    142.83477    49.984677    25.010603    22.984236           90           90           90 
  461500    269.99369   -18180.883     -16121.4   -18180.883            0    9241.3469    49.891123    24.948583    23.051617            0            0            0    28692.643    9781.8452    8483.1951    9459.0003     454.5039   -101.09676    457.47404    49.891123    24.948583    23.051617           90           90           90 
  462000    271.04772   -18087.394   -16019.871   -18087.394            0    9289.2344    49.964241    24.911949    23.048998            0            0            0     28689.24      9043.42    9130.6082    9693.6749    288.09508    56.503189    196.72447    49.964241    24.911949    23.048998           90           90           90 
  462500    278.70974   -18091.999   -15966.031   -18091.999            0    8628.4316    49.960161    25.062747    22.967632            0            0            0    28758.665    8602.6807    8491.3698    8791.2442   -498.98171     231.7614   -200.27376    49.960161    25.062747    22.967632           90           90           90 
  463000    273.11714   -18107.808     -16024.5   -18107.808            0    8093.0864    50.033912    24.962449    23.080646            0            0            0     28827.01    8622.1165    7977.3496    7679.7931   -203.36071   -633.69681     679.0032    50.033912    24.962449    23.080646           90           90           90 
  463500    274.42081   -18124.613    -16031.36   -18124.613            0    7938.3439    50.038152    24.993396    23.044482            0            0            0    28819.968     7618.147    7940.4649    8256.4198    592.14451   -199.52295   -381.60677    50.038152    24.993396    23.044482           90           90           90 
  464000    270.04258   -18121.136    -16061.28   -18121.136            0    7624.3304    50.010339    25.037646    23.062835            0            0            0    28877.926    7415.9454    7718.7117    7738.3342   -18.913479   -576.34438    92.156176    50.010339    25.037646    23.062835           90           90           90 
  464500    275.54683   -18181.422    -16079.58   -18181.422            0    7502.8461    50.035072    24.950653    23.113927            0            0            0    28855.605     7806.249    7778.2164    6924.0728    50.333769    14.017468     768.3128    50.035072    24.950653    23.113927           90           90           90 
  465000    269.36164   -18143.047   -16088.385   -18143.047            0    7540.3437    50.109777    25.031413    22.990302            0            0            0    28837.162    7360.1529    6792.9679    8467.9102    282.82243    15.619191    149.14459    50.109777    25.031413    22.990302           90           90           90 
  465500    271.14718   -18185.263   -16116.981   -18185.263            0    7283.8254    49.973276     24.95194    23.121132            0            0            0    28830.438    7493.8341    7660.8239    6696.8182   -68.125307    148.10154   -62.675882    49.973276     24.95194    23.121132           90           90           90 
  466000    265.28376   -18118.319   -16094.763   -18118.319            0    7467.2473     50.10105    25.053723    22.994555            0            0            0    28863.176    6721.9571    7022.9116    8656.8732   -396.27801    590.09122    260.16915     50.10105    25.053723    22.994555           90           90           90 
  466500    274.23594   -18185.373    -16093.53   -18185.373            0    7021.5357    50.004892    25.007413    23.118418            0            0            0     28909.42    7642.4413    6455.6632    6966.5028   -248.13913   -759.23851    70.379016    50.004892    25.007413    23.118418           90           90           90 
  467000    273.20725   -18046.171   -15962.175   -18046.171            0    7677.1476    50.105287     25.01183    23.085659            0            0            0    28931.523    7660.6003    7790.3601    7580.4823    297.27603   -673.30711   -281.09025    50.105287     25.01183    23.085659           90           90           90 
  467500    264.84331   -18153.115   -16132.919   -18153.115            0    8351.1721    49.944013    25.014622    22.993864            0            0            0    28726.939    7626.7854    8456.1902    8970.5406    -507.6119    456.14395    565.68383    49.944013    25.014622    22.993864           90           90           90 
  468000    270.15168   -18146.199   -16085.511   -18146.199            0    8184.3119    50.010298    24.895962    23.097497            0            0            0    28757.642    8168.1261     8098.468    8286.3416   -86.882284    188.35657   -1030.0759    50.010298    24.895962    23.097497           90           90           90 
  468500    265.84349   -18100.317   -16072.492   -18100.317            0    8439.5976    50.020662    25.079374    22.937733            0            0            0    28775.085    8121.4528    7946.4157    9250.9243    -199.9254    73.125653   -540.33779    50.020662    25.079374    22.937733           90           90           90 
  469000    275.01915   -18148.372   -16050.556   -18148.372            0    8260.6385    50.081137    24.861532    23.135054            0            0            0    28805.312    8229.1964    8371.4408    8181.2783     -345.687   -754.67787    130.00589    50.081137    24.861532    23.135054           90           90           90 
  469500     268.6438   -18153.342   -16104.156   -18153.342            0    8530.6315    49.857254    25.038503    23.022607            0            0            0    28740.294    9345.9438    8117.1502    8128.8007   -187.63538    764.59967     863.2657    49.857254    25.038503    23.022607           90           90           90 
  470000    270.45078   -18136.814   -16073.844   -18136.814            0    7559.6008     50.19938    24.965278    23.023293            0            0            0    28853.745    6747.7187    7914.9988    8016.0848     52.46445   -438.35882   -464.96344     50.19938    24.965278    23.023293           90           90           90 
  470500    271.59767    -18132.89   -16061.172    -18132.89            0    7669.0816    49.893027    25.055184    23.116143            0            0            0    28897.005     9181.182    6797.6557    7028.4071    -25.51429     188.9385   -407.92003    49.893027    25.055184    23.116143           90           90           90 
  471000    275.95233   -18143.099   -16038.165   -18143.099            0    7611.9908    50.189831    25.033782    22.971023            0            0            0    28861.741    6219.2154    8621.1261    7995.6308    443.44607   -119.13449   -693.05087    50.189831    25.033782    22.971023           90           90           90 
  471500    270.26338    -18119.48    -16057.94    -18119.48            0    7736.3312    49.875916    24.990519    23.159967            0            0            0    28867.163    8878.7743    7706.0384    6624.1809   -243.25196   -10.527805   -686.36593    49.875916    24.990519    23.159967           90           90           90 
  472000    267.38905    -18099.42   -16059.805    -18099.42            0    6975.0526    50.257082    25.003805    23.012359            0            0            0     28917.75    7022.5795    7077.5849    6824.9935    40.225728    686.77826   -188.00247    50.257082    25.003805    23.012359           90           90           90 
  472500    265.53954   -18133.958   -16108.451   -18133.958            0    7118.6995    49.909788    25.115167     23.06068            0            0            0    28906.392    8047.3445    6450.1417    6858.6123   -319.21569    946.61247   -698.68232    49.909788    25.115167     23.06068           90           90           90 
  473000    270.33661   -18144.869    -16082.77   -18144.869            0    6820.9197    50.126535    24.959855    23.130966            0            0            0    28940.332    5949.2915     7975.286    6538.1817   -418.72386   -228.84514    850.19481    50.126535    24.959855    23.130966           90           90           90 
  473500    268.50213    -18132.45   -16084.345    -18132.45            0    7250.4715     50.05649    25.113494    22.994291            0            0            0    28905.971    7271.8446    6875.4957    7604.0741    58.487588   -89.344951   -862.62075     50.05649    25.113494    22.994291           90           90           90 
  474000    271.47236   -18175.994   -16105.232   -18175.994            0    7455.8372    50.077624    24.956245    23.089581            0            0            0    28856.191    6937.4021    8244.9627    7185.1467   -200.91657    13.271823    98.242864    50.077624    24.956245    23.089581           90           90           90 
  474500    274.98685   -18136.395   -16038.825   -18136.395            0    7520.6931    50.074646    25.062522    23.009682            0            0            0     28877.08    8251.4308    7183.7983    7126.8503   -132.32462    -48.67273   -845.76116    50.074646    25.062522    23.009682           90           90           90 
  475000    271.20009   -18160.804   -16092.119   -18160.804            0    7589.8177    50.118112    24.923925    23.061196            0            0            0    28806.664    8364.8449      7962.84    6441.7682   -483.22169   -100.08128   -747.34127    50.118112    24.923925    23.061196           90           90           90 
  475500    265.97644   -18156.081   -16127.242   -18156.081            0    8272.3549    49.792893    25.063637    23.062189            0            0            0    28781.404    9053.1272    7557.4753    8206.4622   -71.523613   -680.41707    144.09941    49.792893    25.063637    23.062189           90           90           90 
  476000    270.85811   -18094.797    -16028.72   -18094.797            0    7226.8532    50.287476    24.998438    22.987126            0            0            0    28897.309    6336.5097    7073.2828     8270.767   -222.86297   -1118.9422   -119.08799    50.287476    24.998438    22.987126           90           90           90 
  476500    272.45342   -18180.975    -16102.73   -18180.975            0    7301.7757    49.815125    25.052917    23.151397            0            0            0    28893.272    8069.0492    6452.6059    7383.6719     19.75316    25.953282   -249.78726    49.815125    25.052917    23.151397           90           90           90 
  477000    273.54565   -18171.208   -16084.632   -18171.208            0    7418.2734    50.240275    24.975817    23.008759            0            0            0    28871.206    7460.7143     7147.952    7646.1539    234.76776    705.29559   -132.85593    50.240275    24.975817    23.008759           90           90           90 
  477500    277.70785   -18070.664   -15952.338   -18070.664            0    7209.2292    50.034146    25.039276    23.109773            0            0            0    28952.358    6962.6697    7198.3942    7466.6237   -253.96316    186.21596   0.58190287    50.034146    25.039276    23.109773           90           90           90 
  478000    266.60706   -18119.266   -16085.616   -18119.266            0    7240.4608    50.103229    24.975975    23.079102            0            0            0    28880.657    7090.4856    7601.9055    7028.9913    68.131795     89.21941   -70.961138    50.103229    24.975975    23.079102           90           90           90 
  478500    270.55151   -18181.851   -16118.113   -18181.851            0    7189.1317    49.994117    25.040216    23.050204            0            0            0    28855.709    7285.4505    7062.4497     7219.495   -536.69524   -209.45052    814.28737    49.994117    25.040216    23.050204           90           90           90 
  479000    272.21773   -18213.122   -16136.675   -18213.122            0    7641.7901    50.131316    24.922948    23.066315            0            0            0     28819.52    7227.0923    8183.3302     7514.948    424.14789   -217.08187    568.50981    50.131316    24.922948    23.066315           90           90           90 
  479500    260.78259   -18174.728   -16185.507   -18174.728            0    7304.4358    49.966712    25.059843    23.016953            0            0            0    28820.861    7464.7282    7574.0695    6874.5095    768.07882   -239.88292   -865.34555    49.966712    25.059843    23.016953           90           90           90 
  480000    275.00518   -18157.738   -16060.028   -18157.738            0    7117.5437    50.183127    24.933317    23.099322            0            0            0    28902.606    6599.2979    7308.8566    7444.4767   -674.30706    648.94698    479.48607    50.183127    24.933317    23.099322           90           90           90 
  480500    266.90542   -18072.854   -16036.928   -18072.854            0    6734.2372    49.863285    25.189543     23.02239            0            0            0    28916.889    8140.1506    5411.3921    6651.1689   -134.29128    5.2366771   -251.86475    49.863285    25.189543     23.02239           90           90           90 
  481000    266.53528   -18188.688   -16155.585   -18188.688            0    7053.0207    50.213721    24.920459    23.038629            0            0            0    28829.365    6378.2326    8160.0113     6620.818    322.21819    300.38724   -221.36635    50.213721    24.920459    23.038629           90           90           90 
  481500    269.29909   -18128.735    -16074.55   -18128.735            0     7795.813    49.911109    25.029738    23.083462            0            0            0    28837.292    8044.0069    7424.6965    7918.7356    83.178148    332.22775     801.2118    49.911109    25.029738    23.083462           90           90           90 
  482000    266.84139   -18172.283   -16136.846   -18172.283            0    8229.6824     50.13283    24.931561    23.017425            0            0            0    28769.243    7980.8726    8204.9775    8503.1971   -38.174428   -163.47334   -185.12027     50.13283    24.931561    23.017425           90           90           90 
  482500    273.19537   -18117.485    -16033.58   -18117.485            0    7653.5346    49.865739    25.101392    23.052489            0            0            0    28854.788    9225.6234     6380.074    7354.9064   -404.58188    50.322905     195.6937    49.865739    25.101392    23.052489           90           90           90 
  483000    266.74064   -18152.586   -16117.917   -18152.586            0    7688.8155     50.20864    24.907429    23.058199            0            0            0     28835.85    7233.7458    8288.0152    7544.6855    157.77697   -159.37076    360.79797     50.20864    24.907429    23.058199           90           90           90 
  483500    269.97477   -18090.041   -16030.702   -18090.041            0    7884.6506    49.846083    25.084989    23.071081            0            0            0    28847.813    8010.7681    7324.0843    8319.0993   -501.83786    268.61002    183.22211    49.846083    25.084989    23.071081           90           90           90 
  484000    270.09774   -18148.573   -16088.296   -18148.573            0    8191.6956     50.14501    24.862231     23.08736            0            0            0    28783.401    7905.3523    8260.2407    8409.4937    633.64152   -16.827835    612.43924     50.14501    24.862231     23.08736           90           90           90 
  484500    271.83866   -18142.598   -16069.042   -18142.598            0    7736.3608    49.830124    25.177115    22.958954            0            0            0    28803.816    8557.9423    7543.7505    7107.3897    94.477631    48.420668    -786.0662    49.830124    25.177115    22.958954           90           90           90 
  485000    270.34395   -18095.663   -16033.509   -18095.663            0    7417.0172    50.220666    24.875888    23.114809            0            0            0    28876.954    7223.1777    7872.0266    7155.8473    1.8882258    93.691176   -943.84692    50.220666    24.875888    23.114809           90           90           90 
  485500    265.28177   -18124.433   -16100.892   -18124.433            0     7574.092    49.993937    25.105714    22.995908            0            0            0    28862.934    7773.4061     6660.829    8288.0409   0.40237876    233.17058    336.97004    49.993937    25.105714    22.995908           90           90           90 
  486000    264.58538   -18198.851   -16180.622   -18198.851            0    7656.3473    50.156855    24.904137    23.079519            0            0            0    28828.931    8077.9477     7898.675    6992.4191    255.84692    103.84056    559.38089    50.156855    24.904137    23.079519           90           90           90 
  486500    264.06336   -18116.167    -16101.92   -18116.167            0    7929.8946    49.980332    25.053024    23.031712            0            0            0    28839.352    7936.0576    8419.3177    7434.3084    243.89747    209.88021   -583.02736    49.980332    25.053024    23.031712           90           90           90 
  487000    271.32732   -18188.028   -16118.372   -18188.028            0    8071.8483     50.07983    24.932817    23.065898            0            0            0    28800.801    7366.4453    8775.5901    8073.5094   -68.857144    450.92515   -174.28274     50.07983    24.932817    23.065898           90           90           90 
  487500    265.19836   -18166.195   -16143.291   -18166.195            0    7799.9604    49.883277    25.051684     23.02531            0            0            0     28773.81     8458.912     7858.487    7082.4821   -487.51895    185.68417    548.48716    49.883277    25.051684     23.02531           90           90           90 
  488000    278.00558   -18104.533   -15983.936   -18104.533            0    8106.8673    50.153794    24.924623    23.029648            0            0            0    28788.543    7797.5745    8455.9784    8067.0489   -158.85326    105.69005    51.408113    50.153794    24.924623    23.029648           90           90           90 
  488500    275.68804   -18158.234   -16055.315   -18158.234            0    7600.3631    49.873214    25.038026    23.110847            0            0            0    28859.135    7851.3404    7257.4779    7692.2711   -93.152649    124.11912   -448.82033    49.873214    25.038026    23.110847           90           90           90 
  489000    269.67696   -18130.006   -16072.939   -18130.006            0    8088.2649    50.153697    24.926653    23.023738            0            0            0    28783.444    8221.6027    8485.8345    7557.3575   -297.09533    632.58318   -494.23195    50.153697    24.926653    23.023738           90           90           90 
  489500    273.90757   -18114.819   -16025.482   -18114.819            0    7849.5953    49.897694    25.055361    23.047224            0            0            0    28813.748    8346.3354    7439.5436    7762.9071    473.18016   -571.03808    804.82155    49.897694    25.055361    23.047224           90           90           90 
  490000    279.42571   -18172.517   -16041.087   -18172.517            0    7909.3337    50.031364    24.972342    23.072403            0            0            0    28826.667    8123.0129    7450.4408    8154.5475   -62.593969   -94.709992    1074.1544    50.031364    24.972342    23.072403           90           90           90 
  490500     276.9606   -18091.406    -15978.78   -18091.406            0    7965.9749    50.046616    25.020738    23.025152            0            0            0     28832.17     8194.614    7879.9132    7823.3974   -164.85863   -555.88548    450.12612    50.046616    25.020738    23.025152           90           90           90 
  491000    276.36256   -18107.806   -15999.742   -18107.806            0    8135.4937     49.99781    24.984766    23.063408            0            0            0     28810.43    8133.4637    8127.8848    8145.1325    77.766567    622.38137    322.56105     49.99781    24.984766    23.063408           90           90           90 
  491500    269.87656   -18101.884   -16043.295   -18101.884            0      7553.02    50.057418    25.035813    23.010121            0            0            0    28836.931    7878.4484    6788.8625    7991.7491     200.2485   -350.22255   -393.15339    50.057418    25.035813    23.010121           90           90           90 
  492000    268.67463   -18149.499   -16100.078   -18149.499            0    6801.2199    49.957445    25.053726    23.120526            0            0            0    28938.116    6054.7968    7070.8295    7278.0333    275.58049     298.2694    344.20342    49.957445    25.053726    23.120526           90           90           90 
  492500    270.88605   -18167.457   -16101.167   -18167.457            0    6491.3384    50.112524    24.983215    23.120196            0            0            0    28945.836     6374.907    6887.2009    6211.9073    116.65068   -292.14916   -319.27111    50.112524    24.983215    23.120196           90           90           90 
  493000    271.36317   -18174.196   -16104.266   -18174.196            0    7785.6044    50.026252    25.070096    22.961876            0            0            0    28797.935    7577.6268    7594.8182    8184.3683   -167.18806   -488.58184    107.65346    50.026252    25.070096    22.961876           90           90           90 
  493500    276.80292   -18101.807   -15990.384   -18101.807            0    7729.1425    50.002402    24.934517    23.122079            0            0            0    28828.279     8122.439    8067.9353    6997.0533   -261.59575    284.28323    205.89422    50.002402    24.934517    23.122079           90           90           90 
  494000    268.46973   -18103.184   -16055.325   -18103.184            0    7437.0514    50.199784    25.066269    22.976802            0            0            0    28912.199    7111.2828     7170.159    8029.7124   -259.63387   -573.00422    575.72658    50.199784    25.066269    22.976802           90           90           90 
  494500    262.67294   -18116.337   -16112.696   -18116.337            0    7021.2808    49.993199    24.969973    23.170826            0            0            0     28924.81    7453.5564    7811.9362    5798.3499   -518.20622    47.626877   -328.07801    49.993199    24.969973    23.170826           90           90           90 
  495000    266.02669   -18137.011   -16107.788   -18137.011            0    7536.2868     50.12383    25.058488    22.968203            0            0            0    28848.692    6857.2708    7470.4057    8281.1838     40.19768    48.960012   -329.02653     50.12383    25.058488    22.968203           90           90           90 
  495500    278.13574   -18167.091   -16045.501   -18167.091            0    7294.8883    50.039355    24.987263    23.105234            0            0            0    28889.549    7932.0544    7774.9106    6177.6999   -319.57405     516.9253   -90.937545    50.039355    24.987263    23.105234           90           90           90 
  496000    269.01747   -18149.649   -16097.613   -18149.649            0    7317.9742    49.926088    25.014501    23.114513            0            0            0    28867.165    8171.0817    6776.0462    7006.7946   -210.32597    265.79957   -894.22533    49.926088    25.014501    23.114513           90           90           90 
  496500    271.06207   -18137.079   -16069.446   -18137.079            0    7049.4414    50.213461    25.035826     22.97608            0            0            0    28884.046    7007.0899    7216.2391    6924.9951     -862.767   -918.07402    -458.5143    50.213461    25.035826     22.97608           90           90           90 
  497000    263.08184   -18152.807   -16146.047   -18152.807            0    7469.5467    49.893276    24.985051    23.139172            0            0            0    28844.968    7710.5871    7238.8639     7459.189    126.14026   -184.69169     349.0103    49.893276    24.985051    23.139172           90           90           90 
  497500     259.4633   -18182.002   -16202.844   -18182.002            0    7351.3986    50.109398    24.987985    22.999845            0            0            0    28798.862    6488.3793    8105.4441    7460.3723    455.16572    81.915487   -718.73438    50.109398    24.987985    22.999845           90           90           90 
  498000    267.17681   -18110.408   -16072.411   -18110.408            0    7912.0131     49.90938     25.01075    23.058428            0            0            0    28783.167    8619.7279     7749.404    7366.9073   -81.617643   -568.01028    463.89612     49.90938     25.01075    23.058428           90           90           90 
  498500    274.59469   -18130.419    -16035.84   -18130.419            0    8279.4549    50.083795    24.968199    23.026571            0            0            0    28794.777    7992.8902    8692.2156     8153.259   -172.91554    360.41977    -230.9381    50.083795    24.968199    23.026571           90           90           90 
  499000    273.12312   -18105.553   -16022.199   -18105.553            0    7651.6139    49.961457    25.057446    23.051181            0            0            0    28857.923     7572.727    6774.6055    8607.5091    54.093555    -149.8431   -787.07903    49.961457    25.057446    23.051181           90           90           90 
  499500      266.602   -18143.903   -16110.291   -18143.903            0    8675.1222    50.150346    24.896319    23.021643            0            0            0    28743.881    7608.2006    9908.9461    8508.2197   -244.63098   -90.531258    449.63173    50.150346    24.896319    23.021643           90           90           90 
  500000    273.90141   -18106.829   -16017.538   -18106.829            0    8103.0941    49.881052    25.040334     23.06536            0            0            0    28809.516     8779.816     7452.409    8077.0573   -92.062985   -351.84715   -181.19103    49.881052    25.040334     23.06536           90           90           90 
Loop time of 1321.26 on 42 procs for 500000 steps with 3840 atoms

Performance: 32.696 ns/day, 0.734 hours/ns, 378.425 timesteps/s
99.8% CPU use with 42 MPI tasks x 1 OpenMP threads

MPI task timing breakdown:
Section |  min time  |  avg time  |  max time  |%varavg| %total
---------------------------------------------------------------
Pair    | 329.99     | 372.53     | 431.79     | 132.9 | 28.20
Bond    | 0.50627    | 0.54234    | 0.56807    |   1.7 |  0.04
Kspace  | 471.4      | 530.53     | 574.38     | 112.0 | 40.15
Neigh   | 13.03      | 13.465     | 13.818     |   5.5 |  1.02
Comm    | 159.6      | 166        | 170.72     |  18.8 | 12.56
Output  | 3.4884     | 3.4897     | 3.5015     |   0.1 |  0.26
Modify  | 202.52     | 220.49     | 235.45     |  74.7 | 16.69
Other   |            | 14.22      |            |       |  1.08

Nlocal:        91.4286 ave         104 max          82 min
Histogram: 5 5 4 4 8 4 7 2 1 2
Nghost:        3755.24 ave        3853 max        3677 min
Histogram: 4 4 5 5 3 9 7 2 0 3
Neighs:        32121.5 ave       36595 max       28465 min
Histogram: 4 6 4 6 7 2 2 8 1 2

Total # of neighbors = 1349103
Ave neighs/atom = 351.32891
Ave special neighs/atom = 2.0000000
Neighbor list builds = 16312
Dangerous builds = 0


write_restart   restart.equil
System init for write_restart ...
PPPM initialization ...
  extracting TIP4P info from pair style
  using 12-bit tables for long-range coulomb (../kspace.cpp:340)
  G vector (1/distance) = 0.37340239
  grid = 54 32 30
  stencil order = 5
  estimated absolute RMS force accuracy = 0.0034492009
  estimated relative force accuracy = 1.0387166e-05
  using double precision FFTW3
  3d grid and FFT values/proc = 7296 1350
Last active /omp style is kspace_style pppm/tip4p/omp
write_data   	water.equil.data nocoeff
System init for write_data ...
PPPM initialization ...
  extracting TIP4P info from pair style
  using 12-bit tables for long-range coulomb (../kspace.cpp:340)
  G vector (1/distance) = 0.37340239
  grid = 54 32 30
  stencil order = 5
  estimated absolute RMS force accuracy = 0.0034492009
  estimated relative force accuracy = 1.0387166e-05
  using double precision FFTW3
  3d grid and FFT values/proc = 7296 1350
Last active /omp style is kspace_style pppm/tip4p/omp
Total wall time: 0:22:02
