#include		in.partitions
include		in.temp
variable        temperature equal 237.60
variable	tempDamp equal 100.0
include		in.pressure
variable        pressure equal 2150.0
variable        pressureDamp equal 1000.0 # This is 1 ps
include		in.seed
variable        seed equal 745823

units		real
atom_style	full
#include		in.box
read_restart	restart.lmp.${pid}
read_restart	restart.lmp.1
Reading restart file ...
  restart file = 30 Jul 2021, LAMMPS = 30 Jul 2021
  restoring atom style full from restart
  orthogonal box = (0.049043350 0.080182833 0.15898328) to (18.158529 23.548995 22.054213)
  2 by 4 by 4 MPI processor grid
  restoring pair style lj/cut/tip4p/long/omp from restart
  restoring bond style harmonic/omp from restart
  restoring angle style harmonic/omp from restart
  864 atoms
  576 bonds
  288 angles
Finding 1-2 1-3 1-4 neighbors ...
  special bond factors lj:    0        0        0       
  special bond factors coul:  0        0        0       
     2 = max # of 1-2 neighbors
     1 = max # of 1-3 neighbors
     1 = max # of 1-4 neighbors
     2 = max # of special neighbors
  special bonds CPU = 0.007 seconds
  read_restart CPU = 0.011 seconds
include 	in.setup
variable	out_freq equal 1000
variable	out_freq2 equal 10000
variable	out_freq3 equal 1000

timestep	2.0

neigh_modify    delay 7 every 1

include		in.tip4p
# This is TIP4P/Ice

# create groups ###
group ox type 2
288 atoms in group ox
group hy type 1
576 atoms in group hy

# set charges - beside manually ###
set group ox charge -1.1794
Setting atom values ...
  288 settings made for charge
set group hy charge 0.5897
Setting atom values ...
  576 settings made for charge

# ### TIP3P Potential Parameters ###
pair_style lj/cut/tip4p/long/omp 2 1 1 1 0.1577 8.5
pair_coeff 1 1*2 0.000 0.000
pair_coeff 2 2 0.21084 3.1668
bond_style  harmonic
bond_coeff  1 450 0.9572
angle_style harmonic
angle_coeff 1 55 104.52
kspace_style pppm/tip4p/omp 1.0e-5
pair_modify tail yes

thermo          ${out_freq}
thermo          1000
thermo_style    custom step temp pe etotal epair emol press lx ly lz vol pxx pyy pzz pxy pxz pyz enthalpy

restart 	${out_freq3} restart.lmp.${pid} restart2.lmp.${pid}
restart 	1000 restart.lmp.${pid} restart2.lmp.${pid}
restart 	1000 restart.lmp.1 restart2.lmp.${pid}
restart 	1000 restart.lmp.1 restart2.lmp.1


include         in.dump
dump            myDump all atom ${out_freq2} dump.water.${pid}
dump            myDump all atom 10000 dump.water.${pid}
dump            myDump all atom 10000 dump.water.1
dump            myDump2 all dcd ${out_freq2} dump.dcd
dump            myDump2 all dcd 10000 dump.dcd
dump_modify     myDump append yes
dump_modify     myDump2 append yes


variable natoms 	equal  "count(all)"                        # NUMBER ATOMS
variable H      	equal  "enthalpy/v_natoms"                 # ENTHALPY-per-atom
variable Vol      	equal  "vol/v_natoms"                 # volume-per-atom
fix AVG all 		ave/time ${out_freq} 1 ${out_freq} v_Vol v_H file vol_enthalpy.dat
fix AVG all 		ave/time 1000 1 ${out_freq} v_Vol v_H file vol_enthalpy.dat
fix AVG all 		ave/time 1000 1 1000 v_Vol v_H file vol_enthalpy.dat


timer           timeout 23:50:00 every 1000
New timer settings: style=normal  mode=nosync  timeout=23:50:00

fix 		1 all shake 1e-6 200 0 b 1 a 1
       0 = # of size 2 clusters
       0 = # of size 3 clusters
       0 = # of size 4 clusters
     288 = # of frozen angles
  find clusters CPU = 0.000 seconds
fix             2 all nph aniso ${pressure} ${pressure} ${pressureDamp}
fix             2 all nph aniso 2150 ${pressure} ${pressureDamp}
fix             2 all nph aniso 2150 2150 ${pressureDamp}
fix             2 all nph aniso 2150 2150 1000
fix             3 all temp/csvr ${temperature} ${temperature} ${tempDamp} ${seed}
fix             3 all temp/csvr 237.6 ${temperature} ${tempDamp} ${seed}
fix             3 all temp/csvr 237.6 237.6 ${tempDamp} ${seed}
fix             3 all temp/csvr 237.6 237.6 100 ${seed}
fix             3 all temp/csvr 237.6 237.6 100 745823


run             250000
PPPM initialization ...
  extracting TIP4P info from pair style
  using 12-bit tables for long-range coulomb (../kspace.cpp:340)
  G vector (1/distance) = 0.37173125
  grid = 24 27 25
  stencil order = 5
  estimated absolute RMS force accuracy = 0.003148504
  estimated relative force accuracy = 9.4816262e-06
  using double precision FFTW3
  3d grid and FFT values/proc = 4410 672
Last active /omp style is kspace_style pppm/tip4p/omp
Neighbor list info ...
  update every 1 steps, delay 7 steps, check yes
  max neighbors/atom: 2000, page size: 100000
  master list distance cutoff = 10.8154
  ghost atom cutoff = 10.8154
  binsize = 5.4077, bins = 4 5 5
  1 neighbor lists, perpetual/occasional/extra = 1 0 0
  (1) pair lj/cut/tip4p/long/omp, perpetual
      attributes: half, newton on, omp
      pair build: half/bin/newton/omp
      stencil: half/bin/3d
      bin: standard
Per MPI rank memory allocation (min/avg/max) = 10.19 | 10.21 | 10.23 Mbytes
Step Temp PotEng TotEng E_pair E_mol Press Lx Ly Lz Volume Pxx Pyy Pzz Pxy Pxz Pyz Enthalpy 
  500000    248.47426   -4261.0473   -3835.1709   -4261.0473            0    2055.4902    18.109486    23.468812    21.895229    9305.6502    1730.2116    2128.3433    2307.9158   -259.13392   -192.13345   -392.28602   -3556.2135 
  501000     237.2817   -4279.7758   -3873.0831   -4279.7758            0    2211.8904    17.891918     23.25135    22.240939    9252.4811    2523.0359    2686.5228    1426.1123   -554.77118    409.53642   -165.96453   -3574.6151 
  502000    245.78084   -4300.7529    -3879.493   -4300.7529            0    1660.7453    18.033144    23.529969    21.972312    9323.2765    478.76167    3258.2349    1245.2393   -531.92437    492.23948   -553.55906   -3653.6807 
  503000    234.51349   -4283.4265   -3881.4784   -4283.4265            0    3471.3918    17.951754    23.533391    21.885065    9245.6878    3655.9861    2659.4335    4098.7558   -825.15409    180.06913    557.03397   -3413.3999 
  504000    229.84414    -4305.738    -3911.793    -4305.738            0     1885.627    18.163684    23.067291    22.191001    9297.7407    1434.5928    2255.6851    1966.6032    1395.3834   -242.77596    304.83501   -3656.1057 
  505000    237.93364    -4275.899   -3868.0889    -4275.899            0    1678.3658    18.211554     23.39523     21.90138     9331.378     746.0337    1081.3476     3207.716    280.52902   -978.26116    242.83628   -3639.6825 
  506000    231.83214   -4257.4931   -3860.1408   -4257.4931            0    2706.3953    17.967432    23.434128    22.011998    9268.1762    2620.5809    3701.3925    1797.2124   -1480.5517     23.86289   -502.26536   -3494.3258 
  507000    227.58527   -4257.8755   -3867.8022   -4257.8755            0    2984.9773    17.681243    23.518159    22.265066    9258.4887    4039.9935     3827.758    1087.1805   -743.67193    515.46737    236.43348   -3464.7539 
  508000    246.08612   -4286.5705   -3864.7873   -4286.5705            0    1837.5931    18.120275    23.485512    21.934562    9334.5584    1565.2615    1135.0308     2812.487   -318.23622    -373.9799   -680.12893   -3614.6266 
  509000    238.63364   -4252.0039    -3842.994   -4252.0039            0    3173.5771    18.137372    23.317168    21.956455    9285.6516    3023.3909     2568.519    3928.8215   -722.95294    960.90401    413.88388   -3413.2228 
  510000    243.03602   -4284.4032   -3867.8478   -4284.4032            0    1454.7942    18.038069    23.219242     22.24524    9316.9799    2317.5141    1360.3473    686.52139   -397.36793    629.08093    219.24022   -3670.1724 
  511000    236.28352   -4274.3052   -3869.3233   -4274.3052            0    2882.2252    17.994261    23.552202    21.812251    9244.1296     3591.571    2507.3436    2547.7609   -589.73894   -180.97653    44.525691   -3480.7528 
  512000     262.8388   -4290.2318    -3839.735   -4290.2318            0    1292.8927    17.941494    23.523027    22.169672    9356.4491    1136.2391    1905.7165    836.72267    678.40487    668.52099    8.3512431   -3663.3144 
  513000    240.69012   -4254.0189   -3841.4843   -4254.0189            0    2767.4613    18.052148    23.173783    22.040107    9220.1826    1649.0946    3321.5729    3331.7166   -264.45022    635.24754     248.6269   -3469.3523 
  514000    234.11565   -4302.1527   -3900.8865   -4302.1527            0     2538.236    18.154473    23.422877    21.853446    9292.7404    2070.6882    1939.4814    3604.5384   -477.39911   -200.50352   -135.06131   -3556.8918 
  515000    238.20841    -4276.435   -3868.1539    -4276.435            0    2937.9783     17.79394    23.384819     22.31578    9285.7762    3543.6877    3080.6348    2189.6124   -97.636214    -524.3188    1496.7809   -3470.2825 
  516000    253.78692   -4307.7586   -3872.7765   -4307.7586            0    1879.0917    18.007873    23.518749    22.033796    9331.8117    1307.4726    2487.8792    1841.9232   -328.50137   -359.72562   -243.00802   -3617.0417 
  517000     243.8406   -4286.3365    -3868.402   -4286.3365            0    3443.7003    18.118726    23.370282    21.884578    9266.8001    3421.3993    2908.4457    4001.2559   -1040.2923   -427.78865   -157.53809    -3402.997 
  518000    227.55711   -4297.9093   -3907.8842   -4297.9093            0    1687.7507     18.02946    23.322206    22.240927    9352.0156    1487.0103    3140.1195    436.12218    505.13929   -67.613409    87.768734   -3677.6926 
  519000    235.03163   -4277.3287   -3874.4925   -4277.3287            0    691.47019    18.157491    23.754901    21.765181    9387.9625    1671.0199    -628.1485    1031.5391   -106.62061      218.835    -522.5672   -3779.8207 
  520000    229.99418   -4287.3889   -3893.1867   -4287.3889            0    2692.5539    18.011574    23.384732    22.045365     9285.416    2442.7999    3013.4442    2621.4175    102.61513    724.84568    48.209578   -3528.5657 
  521000    238.68845   -4304.8672   -3895.7634   -4304.8672            0    2259.0266    18.035478     23.20744    22.054729    9231.1672    1963.3778    2357.7325    2455.9696   -555.33997    236.90571    374.04204   -3591.6372 
  522000    250.67862   -4282.6824   -3853.0278   -4282.6824            0    2959.3661    18.022393    23.460934    21.880988    9251.7671    3222.8547     1963.124    3692.1197   -756.66573    1138.9256   -491.84003   -3453.7278 
  523000    236.28719   -4305.8468   -3900.8586   -4305.8468            0    1627.7752    17.910553    23.396981    22.204493    9304.8565    2313.2152    1326.4292    1243.6812    415.23071   -182.96079   -326.46139   -3679.9666 
  524000    243.33518   -4239.0305   -3821.9623   -4239.0305            0    2933.5522    18.212198    23.289416    21.833459    9260.6932    3240.8502    1802.3324     3757.474   -612.12472    262.11571    -71.28357   -3425.7635 
  525000    238.68091   -4273.2965   -3864.2056   -4273.2965            0    2415.7513    17.927516    23.371665    22.084905    9253.4844    3543.2999    1832.7734    1871.1804    207.60755   -1246.6133   -135.58475   -3538.1937 
  526000    235.60658   -4242.5764   -3838.7548   -4242.5764            0    2683.1171    17.774032    23.547341    22.084152    9242.9069     2846.305    2948.5031    2254.5432   -80.734233   -314.84776   -899.69731   -3477.0751 
  527000    241.18576   -4265.0312    -3851.647   -4265.0312            0    2103.9059    18.078134    23.577711     21.82535    9302.8594    2682.4355    1189.3746    2439.9075   -218.95151   -740.72886   -478.68146   -3566.2045 
  528000    234.36053    -4283.915   -3882.2291    -4283.915            0    2012.0614    18.003241    23.053708    22.245681    9232.8797    2955.9026    2887.5653    192.71621    332.37851   -600.41568   -14.317045   -3611.3009 
  529000    221.19648   -4283.4129   -3904.2897   -4283.4129            0    2002.7807    18.064182    23.438051    21.941735    9289.8942    971.53779    2489.8436    2546.9606    668.08983   -72.778579   -950.11229   -3632.9458 
  530000    239.70715   -4261.0501   -3850.2003   -4261.0501            0    2371.3647     17.72763    23.781595    22.069413     9304.273    2314.9767     1900.483    2898.6344   -612.73614      271.454    246.83749    -3528.422 
  531000    244.12963   -4268.3558    -3849.926   -4268.3558            0    1897.2927    17.862775    23.492268    22.141277    9291.3011    1434.2811    882.52217    3375.0749    -312.7648     150.7055    503.15735   -3592.8351 
  532000    249.73415   -4287.3094   -3859.2736   -4287.3094            0    2651.1447    18.144885    23.391295    21.786639    9246.9548    2435.0446    2623.5296    2894.8599    -402.1098   -249.48639    173.76644   -3501.7473 
  533000    242.77545   -4284.7329   -3868.6241   -4284.7329            0    977.40963    18.263208    23.090215    22.303229    9405.3028     353.5431    2217.0639    361.62193      198.493    403.61393   -81.305075    -3734.556 
  534000    224.54818   -4286.4502   -3901.5823   -4286.4502            0    2020.8258    18.098017    23.404689    21.918102     9284.036    2377.8099    2149.8785    1534.7892   -249.13118    -143.1077   -116.86302   -3627.9662 
  535000     231.8605   -4307.5505   -3910.1495   -4307.5505            0    1271.2927    18.050222    23.370889    22.198927    9364.6113    1663.0978    1031.9193     1118.861   -156.32374   -7.3913714    510.25841   -3736.5249 
  536000    227.69568   -4285.9581   -3895.6955   -4285.9581            0    2502.8638    17.956487     23.26871    22.266623    9303.5362    1287.8459     3748.943    2471.8025   -360.64026   -800.18013    341.81111   -3556.1006 
  537000    238.77967   -4276.7016   -3867.4415   -4276.7016            0    3317.7606    18.000114    23.563921     21.85284    9268.9535    2650.9432    3758.0091    3544.3293    204.71331   -237.56846   -533.51513   -3418.9526 
  538000    240.39944   -4287.6101   -3875.5737   -4287.6101            0    1350.9927    17.962269    23.447738    22.151525    9329.6587    725.45426    1165.1487    2162.3751   -783.59768   -92.502567   -1012.9713   -3691.7529 
  539000    239.62684   -4280.1276   -3869.4154   -4280.1276            0    2715.1735     18.02551    23.297205    22.019314    9246.8785    4518.2724    2862.7771    764.47112   -316.01532   -76.657266   -55.138594   -3503.2573 
  540000    238.43552   -4292.2333   -3883.5629   -4292.2333            0    1705.7407    18.124589    23.476139    21.920508    9327.0747    1750.0128    1625.7907    1741.4186    234.82684   -177.28031   -90.743293   -3651.5382 
  541000     235.9526   -4279.6557    -3875.241   -4279.6557            0    1521.5873    17.886449    23.413326    22.187627    9291.7625     1111.958    1733.4535    1719.3505    552.92963   -501.66389    -319.6508   -3669.0495 
  542000    230.25238   -4276.0482   -3881.4035   -4276.0482            0    2727.5437    17.816019    23.873667     21.65489    9210.5547    2919.4887    2510.0935    2753.0489   -1125.3822   -37.041207    191.83656   -3515.0221 
  543000    247.85583    -4291.313   -3866.4965    -4291.313            0    1365.5285    18.058538    23.402101    21.954425    9278.1098   -252.06316    935.29935    3413.3494   -64.198971    367.30956     25.66655   -3681.7245 
  544000    237.91945   -4272.7739   -3864.9881   -4272.7739            0    3349.7266    17.966745    23.104372     22.07428    9163.2624     4598.406    2343.9729     3106.801   -462.66744   -195.78559    551.69169   -3417.3414 
  545000    225.34476   -4311.4309   -3925.1977   -4311.4309            0    2203.5213    18.092347    23.424825    21.902954    9282.6923    1212.9172    2388.5158    3009.1308    327.27026   -4.3171658    529.60916   -3626.8882 
  546000    254.57273   -4297.1217   -3860.7927   -4297.1217            0    2496.6262    17.864453    23.436016    22.220138     9302.941    2216.8291    2701.5875    2571.4618   -1145.3523     906.0083    1099.6531   -3522.0658 
  547000    236.32412   -4291.4087   -3886.3572   -4291.4087            0     2806.056    18.026891    23.555473    21.765723    9242.4212    2607.1466    1961.0525    3849.9688    -426.0344     113.7185   -281.06866   -3508.1255 
  548000    237.83666   -4281.8923   -3874.2484   -4281.8923            0    1371.5521     17.98676    23.362753    22.181696    9321.1972    2020.6289    1343.0138    751.01361    125.50613    142.13594   -153.87817   -3687.7995 
  549000    246.64707   -4279.6646     -3856.92   -4279.6646            0    2389.5942    17.989816    23.343957    22.011442    9243.7822    2136.3891     3642.072    1390.3214    546.51859    119.78374   -1006.0134   -3534.7762 
  550000    239.45413   -4291.7743   -3881.3581   -4291.7743            0    3264.6673    18.124234    23.348874    21.809664    9229.4241    2862.6091    3567.2742    3364.1187    1298.0199   -32.553857    46.218762   -3441.9284 
  551000    233.33874   -4252.6511   -3852.7165   -4252.6511            0     1051.642    17.985429    23.361373    22.297071    9368.4337    2153.5172    2088.6354   -1087.2265    36.385843    370.18355    106.76727   -3709.0317 
  552000    242.57956   -4300.1157   -3884.3427   -4300.1157            0    2831.8989    17.916591     23.49823    21.987801     9257.044    2409.4835    3616.9267    2469.2865   -1593.5786    381.09978   -84.933213   -3502.0236 
  553000    228.38168   -4281.2339   -3889.7956   -4281.2339            0    2331.8403    17.870178    23.546505    22.073762    9288.2029    1323.7387    2186.6987    3485.0835   -315.40917   -82.141013   -329.15835    -3573.927 
  554000    248.31236   -4279.1946   -3853.5957   -4279.1946            0    1922.5106    18.098145    23.216742    22.140109    9302.8303    1665.1491    1723.0015    2379.3813    45.516619     486.9887   -312.07547   -3592.7643 
  555000    251.23562   -4308.8006   -3878.1913   -4308.8006            0    1683.6341    18.051308    23.367957    21.974062    9269.1469    74.324617    2757.1069    2219.4708    -744.5721    283.43255    159.73276    -3650.596 
  556000    240.62705   -4254.1429   -3841.7164   -4254.1429            0    1890.9805    17.872698    23.648564    21.993687    9295.9317    1903.9202    2285.5763     1483.445   -808.50298   -390.84599       190.52   -3585.3531 
  557000    249.60496   -4303.9977   -3876.1833   -4303.9977            0    3101.7221    18.042529    23.508633    21.868858    9275.7894    1811.4217    3540.1289    3953.6158    134.16302    289.88348   -194.87113   -3456.5889 
  558000    243.03345   -4292.3147   -3875.7637   -4292.3147            0    2141.0435    17.953661    23.296709    22.238562    9301.5278    1687.5676    2930.2565    1805.3064   -737.53856    -83.36885   -127.90003   -3585.3242 
  559000     234.6568   -4271.9874   -3869.7936   -4271.9874            0    2647.5565    18.031114    23.337658    21.881793    9207.9451    2035.8734    2805.2815    3101.5146    884.56104    687.87247    959.12243   -3514.2574 
  560000    237.31517   -4319.4191    -3912.669   -4319.4191            0     1552.162    18.033492    23.457277    22.019901    9314.7838    1992.5362    2197.2396    466.71013    -695.5339   -97.794524     575.0691   -3701.8131 
  561000    238.86443   -4283.1736   -3873.7681   -4283.1736            0    3672.2931    17.809512     23.29645    22.155222    9192.1658    3738.9416    4251.3759    3026.5618   -420.79896    227.21559    82.611283   -3381.4667 
  562000    237.58243   -4264.4243   -3857.2162   -4264.4243            0     1400.297    18.080318    23.582059    21.809454    9298.9214    369.46482    2604.8198    1226.6064   -1356.6656   -209.62807    300.72482   -3667.3146 
  563000    246.70742   -4264.2156   -3841.3675   -4264.2156            0    1153.5638    18.042644     23.51734    22.046045    9354.4672    1391.7859    1838.8488    230.05673    1852.2581    572.62631    155.48005   -3683.9922 
  564000    230.24438   -4268.4457   -3873.8147   -4268.4457            0    2203.9811    17.785746    23.257926    22.480555    9299.2963     3480.245    1136.5342    1995.1641    -1484.589   -156.21733    231.93716   -3574.9092 
  565000    215.76134   -4276.1523   -3906.3447   -4276.1523            0    2365.6054    18.141826     23.38363    21.903484    9291.9343    3540.3832    1190.6459    2365.7871    160.44721   -110.82506   -110.40135   -3585.7737 
  566000    254.81942    -4285.836   -3849.0842    -4285.836            0    3731.0884    17.886708    23.128912    22.264191    9210.6983    4616.5395    4708.9859    1867.7397    1159.8786    975.77125    1104.3752   -3347.8924 
  567000    230.06064   -4304.0391    -3909.723   -4304.0391            0    2754.9781    17.916936    23.538982    21.818384    9201.8255    4570.7911    1346.3274    2347.8157   -60.330663  0.045396188    150.47113   -3540.0072 
  568000    239.46084   -4300.2442   -3889.8165   -4300.2442            0    565.80681    18.077793    23.493748    22.077713    9376.7383    411.20114    1630.8927   -344.67342   -330.94936    342.69075    112.40245   -3812.4424 
  569000    225.08577   -4299.1716   -3913.3823   -4299.1716            0    1452.4292    17.999219    23.439334    22.048339    9301.9674    2522.7538   -667.10103    2501.6347    221.47916    413.28131    795.82334   -3716.3462 
  570000    239.17434   -4283.5105   -3873.5738   -4283.5105            0    1077.6295    18.130829    23.415244    22.044295    9358.6361    908.57433    843.40513    1480.9091    1019.2975   -377.44774   -269.41607   -3726.4924 
  571000    236.19943   -4289.4164   -3884.5787   -4289.4164            0    1116.8014    18.077315    23.345308     22.20007    9368.8843    1663.3788    1788.6884   -101.66302     676.3935    -98.64889    39.111835   -3731.9839 
  572000    252.99085   -4250.5193   -3816.9017   -4250.5193            0    1576.0052    18.053111    23.442486    21.957679     9292.705    1922.6155    2226.1025    579.29763   -711.25503   -325.79873   -810.61769   -3603.3143 
  573000    233.14155   -4301.7119   -3902.1153   -4301.7119            0    1969.5328    17.877506    23.532266    21.939908    9230.0804    2545.7648    2848.5455    514.28814    271.84186    102.05914   -3.3088664    -3636.994 
  574000    234.30753   -4290.4154   -3888.8203   -4290.4154            0    1732.1883    18.055421    23.370772    22.037423    9299.1122    1403.8592    3018.6353    774.07047    1252.3947   -523.78814     465.9857   -3653.9044 
  575000    235.35898   -4287.3968   -3883.9995   -4287.3968            0    1749.5666    18.270069    23.234846    21.972791     9327.499    1714.6614    1126.4889    2407.5495    554.04514   -725.20969    92.542452   -3646.0025 
  576000    235.34704   -4290.7305   -3887.3537   -4290.7305            0    2411.3347    18.048971     23.38764    22.059954    9312.0101    2105.9083    3698.2802    1429.8156   -899.53438   -35.962656    104.24666   -3559.8797 
  577000    231.73675   -4294.9571   -3897.7683   -4294.9571            0    2733.3578    17.895255    23.570448    21.967674     9265.947    3281.0252    2490.3014    2428.7469   -141.22259    -569.5355   -589.35184   -3528.3978 
  578000    256.32722    -4274.811    -3835.475    -4274.811            0     2860.775    17.908795    23.734638    21.832335     9280.025    1213.6574    4660.8132    2707.8545   -332.91655   -360.23498   -36.603348   -3448.2987 
  579000    228.35419   -4278.3308   -3886.9395   -4278.3308            0    1283.8475    18.080613    23.355246    22.116854    9339.4425    1517.2574    2244.1214    90.163878    343.22753   -145.64534   -735.74702   -3712.0716 
  580000    243.07888   -4251.7728   -3835.1439   -4251.7728            0    3001.9091    18.175546    23.181703    21.929981    9239.9805    2995.9747    3100.4645    2909.2883    87.381038    31.226515   -57.066018   -3430.6197 
  581000    231.46236   -4270.8371   -3874.1185   -4270.8371            0    2143.6778    18.148846    23.321792    22.014895    9318.1039    1585.0477    1923.4467    2922.5389   -331.43214    468.24407    414.14563   -3582.8034 
  582000    237.51763   -4306.2896   -3899.1925   -4306.2896            0    360.69278    17.839978    23.715763    22.257556    9416.9205   -610.94282    130.39306    1562.6281    143.65217   -94.986373    1081.2181   -3849.6564 
  583000    222.06931   -4283.6231   -3903.0039   -4283.6231            0    1083.2451    17.892593    23.764465     22.08279    9389.7768    1831.8752   -67.549883    1485.4099    1275.6303   -400.44363   -140.68369   -3754.6641 
  584000    248.75765   -4261.7747   -3835.4126   -4261.7747            0    1869.4935    17.938111    23.558929     22.04175    9314.9029    1307.5016    2423.7856    1877.1933    -307.0875    485.27576    631.32232   -3581.4451 
  585000    237.61094   -4291.7501   -3884.4931   -4291.7501            0    2557.6057    18.171581    23.287429    22.014362    9315.8049    1604.9619    3420.9183     2646.937   -670.27175     100.7812   -308.21016   -3537.0131 
  586000    234.27541   -4284.6058   -3883.0657   -4284.6058            0    2106.1886     18.25603    23.071314    22.188183    9345.4545    1957.6726    3012.9896    1347.9036   -103.53982    184.57756    292.11004   -3596.0051 
  587000    246.57876   -4313.0759   -3890.4483   -4313.0759            0    3353.9152     17.92256     23.39031    22.039132    9239.1179    3296.5139    4627.9669    2137.2647     5.386761   -132.27056   -233.36937   -3438.5315 
  588000    246.34287   -4270.7405   -3848.5173   -4270.7405            0    2700.4449    17.818079    23.664912    22.012251    9281.7577     3052.599    539.02681     4509.709    328.06612   -396.09195   -3.3916458   -3482.9718 
  589000    228.16917   -4303.6456   -3912.5714   -4303.6456            0    1306.4552    18.005944    23.518414    22.068638    9345.4334    1529.1219   -43.632049    2433.8757    -719.0097   -729.29201    368.67873     -3734.51 
  590000    238.05026   -4280.0857   -3872.0758   -4280.0857            0    2624.2841    18.154352    23.305568    21.809463    9227.5291    1977.0067    2533.1167    3362.7288   -843.04314   -99.898382    433.81827   -3518.9152 
  591000    229.88687   -4305.9824   -3911.9642   -4305.9824            0    1208.2924    18.123427     23.30695    22.090683     9331.144    1894.4895     1895.677    -165.2894   -867.02621   -135.72384   -261.41488   -3747.5335 
  592000    233.96698   -4263.4879   -3862.4765   -4263.4879            0    265.52351    18.162189    23.498857    22.021241    9398.4604    127.80146    1410.9967    -742.2276    133.75786    259.42781    377.25081    -3826.082 
  593000    225.58409   -4288.2942   -3901.6508   -4288.2942            0    2556.6332     17.71051    23.671608    22.022029     9232.433    2107.5455     2419.272     3143.082    119.60749    -89.43009    320.79868   -3557.4115 
  594000    228.88777   -4276.4703   -3884.1645   -4276.4703            0    2324.3544    17.945244    23.536951    22.104879    9336.5775    1755.0105    833.43362    4384.6192   -389.86893    422.20919   -89.346229   -3567.6701 
  595000    233.40237   -4296.8205   -3896.7768   -4296.8205            0    2223.7797    18.219544    23.300203    21.890339    9292.8663    2103.1857    2531.7238    2036.4297     188.0341    180.35468    120.14371   -3595.3948 
  596000    242.18537   -4281.0737   -3865.9762   -4281.0737            0    1856.9275    18.240877    23.215363    22.008725    9320.0034    86.833876    3242.9427     2241.006   -1158.7705   -570.46346    723.69556   -3613.5777 
  597000     242.8708   -4285.4993   -3869.2271   -4285.4993            0    2888.3897    18.024416    23.348325    22.041734    9276.0419    2922.7435    2517.6694    3224.7562   -942.41982   -408.69277    190.84364   -3478.4812 
  598000    238.04152   -4316.8119   -3908.8169   -4316.8119            0    2767.1544     17.99835    23.484952    21.859344    9239.7342    3613.7305    1810.0251    2877.7076   -489.62258   -612.64937   -308.52824   -3535.9372 
  599000     245.5619   -4285.7187    -3864.834   -4285.7187            0    1923.9393    17.629249    23.599593    22.296164    9276.1654    3847.3624    342.10961    1582.3458   -812.60014     92.73776   -402.72522   -3604.5571 
  600000    222.33337   -4282.5774   -3901.5056   -4282.5774            0    1218.0667     18.08973    23.505288    22.021023    9363.4336   -316.06144    2234.9602    1735.3014    220.69637    189.55046   -375.80996   -3735.1711 
  601000    232.32757   -4303.1024   -3904.9009   -4303.1024            0    3034.0356    18.114892    23.265275    21.889282    9225.1927     2426.437    2894.1833    3781.4866    412.20131   -337.56058   -95.317639   -3496.7018 
  602000    254.63854   -4295.8498   -3859.4081   -4295.8498            0    3176.7735    17.987444    23.091607    22.210471    9225.3186    3931.6718    4525.8916    1072.7571   -270.30991   -582.24989    357.86181   -3431.9992 
  603000    233.08835    -4263.604   -3864.0985    -4263.604            0    1747.2199    18.129995    23.320634    21.954947    9282.6169    573.87262    2307.0706    2360.7166     317.4206    108.15735   -519.04429   -3627.5643 
  604000    232.82751   -4273.3892   -3874.3308   -4273.3892            0    1885.1874    18.016418    23.395728    22.033551    9287.3006    2012.7475    3096.2238    546.59101    -1106.882    143.43546    76.708942   -3618.9902 
  605000    247.86167   -4285.5784    -3860.752   -4285.5784            0    1195.7626    17.827641    23.679923    22.157585    9353.9831      2101.74      584.265    901.28285   -662.31269    552.95306    1045.6569   -3697.6282 
  606000    226.28726   -4299.0616   -3911.2129   -4299.0616            0    1227.1414     17.92589    23.731012    21.967257    9344.8603    353.52896    668.44964    2659.4455   -546.46257    497.78372   -486.26587   -3743.9717 
  607000    245.35701   -4318.2667   -3897.7332   -4318.2667            0    1558.9905    18.121239     23.19753    22.105863    9292.5974    1356.0549    3055.6905    265.22616   -40.005551    190.47904   -406.35558   -3686.4541 
  608000    242.69292   -4295.7728   -3879.8054   -4295.7728            0    3034.6252    18.153591    23.251186    21.996897    9284.7255    3830.3519    3236.8225    2036.7012   -303.68901     651.8794    171.25385   -3468.8923 
  609000    234.54795   -4290.3099   -3888.3028   -4290.3099            0    3035.4845    17.990513    23.493711    21.851558    9235.8651    2883.0379    2864.1897    3359.2258   -795.46463    493.69528    726.70186   -3479.4363 
  610000    236.18195   -4292.6741   -3887.8663   -4292.6741            0    1795.7321    17.684716    23.568734    22.362861    9320.9826    2054.7401    2394.6779    937.77831     65.82115    16.064033    355.70266   -3643.7599 
  611000    236.44005   -4279.3556   -3874.1054   -4279.3556            0    1289.2019    18.042665    23.626232    21.866429    9321.2253    634.08386    327.80352    2905.7182   -550.56113   -135.85057   -259.74057   -3698.8507 
  612000    242.91723   -4297.6884   -3881.3365   -4297.6884            0    1895.4608    18.093325     23.32809    22.059269    9310.8362    1462.4146    2788.0577    1435.9101    151.79922   -354.97701    59.332381   -3623.9538 
  613000    232.02695   -4276.0979   -3878.4117   -4276.0979            0    1602.4953    18.202438    23.070391    22.144818    9299.4365    215.03238    1460.9935      3131.46   -326.78158   -717.73301    65.772761   -3661.0769 
  614000    248.64773   -4266.1995   -3840.0258   -4266.1995            0    2387.6799    18.074871    23.495801    21.840996    9275.5124    2817.9814    2429.3847    1915.6735   -197.73519    269.49469    1086.0729   -3517.0352 
  615000    243.80105   -4272.1172   -3854.2505   -4272.1172            0    3310.8639    17.727785     23.45265    22.238946    9246.1426    4136.2878    3990.3921    1805.9118   -288.04081    602.15588    96.157403   -3407.7954 
  616000    236.60228   -4304.2196   -3898.6914   -4304.2196            0    1848.0633    17.940329    23.596668    21.958467    9295.7213    1917.1103    1595.5398    2031.5399   -651.43068    567.37907    1190.5221   -3648.1521 
  617000    237.75498   -4318.8643   -3911.3604   -4318.8643            0    2966.5877    18.008004    23.349515    21.984926    9244.1814    3100.7784    3487.6367     2311.348    724.90887    432.52851    1325.3541   -3511.4142 
  618000    237.42364   -4308.2283   -3901.2923   -4308.2283            0    2164.1178    17.930905    23.308645     22.27562    9309.9861    2951.2391    3868.1013   -326.98697   -331.23169   -401.01527   -761.03805   -3607.4557 
  619000    244.88508   -4278.7425   -3859.0178   -4278.7425            0      3038.08    18.059966    23.315308     21.89077     9217.627    2047.6693    2993.7768     4072.794    577.64638   -501.20379   -441.36904   -3450.6098 
  620000    235.51395   -4296.3174   -3892.6545   -4296.3174            0    2312.2813     17.98758    23.363357    21.983597     9238.612    2319.3071    1675.8594    2941.6774   -322.71419    29.787215      396.449   -3581.1077 
  621000    240.74896    -4303.825   -3891.1895    -4303.825            0    2870.3291    17.849435    23.509641    22.096631    9272.4933    3017.5534    2381.7517    3211.6821    833.83173    34.488062    92.006878   -3503.0355 
  622000    240.37772   -4262.5962    -3850.597   -4262.5962            0     1810.675    18.065208    23.524077     21.74491    9240.8763   -225.42465    3272.5856    2384.8639    1106.0295   -414.83384   -909.32521   -3606.5747 
  623000    226.39182   -4300.6103   -3912.5825   -4300.6103            0    387.72808    18.110291    23.303092    22.207925    9372.3166    -346.1969    996.35027    513.03086    674.10781    255.36019    125.39043   -3859.5856 
  624000    244.80064   -4274.9653   -3855.3854   -4274.9653            0    2733.4451    18.208692    23.227434    21.945308    9281.5744    3303.9573     2170.148      2726.23   -588.91251    379.64288    262.75673   -3485.3801 
  625000     246.0187   -4258.7999   -3837.1323   -4258.7999            0     1084.538    18.146438    23.583656    21.845358    9348.9253    955.54762    437.93784    1860.1284   -1177.5009    49.006479      35.5334   -3689.2615 
  626000    238.64502   -4283.3455   -3874.3161   -4283.3455            0    2872.0673    17.964457    23.405016    22.079344    9283.4458    4026.5653    2813.1355    1776.5012   -22.313123    293.93129   -58.152758   -3485.4682 
  627000    241.87694   -4285.1291   -3870.5602   -4285.1291            0    2888.4978    18.049565    23.456405    21.857786    9254.1038    2525.1902    3600.8098    2539.4934   -1022.8525    71.617562   -162.47711   -3480.7239 
  628000    240.05737   -4283.9675   -3872.5174   -4283.9675            0    2138.1382    18.038458    23.433248    21.983287    9292.3281    2936.9801    1989.9015     1487.533    384.52395   -254.69911    -689.8687   -3582.7589 
  629000    239.48075   -4267.3252   -3856.8634   -4267.3252            0    1481.6276    18.047353     23.40045    22.148384    9353.6212    533.69069    1332.1299    2579.0624   -490.26462   -32.557871    -12.01787   -3654.7502 
  630000    234.16604   -4301.6164   -3900.2638   -4301.6164            0    3284.8449    18.110511    23.367606    21.811754    9230.7189    1195.9001    3706.6775    4951.9571     607.1354    566.19922    207.76783   -3458.0562 
  631000    236.74046   -4310.9385   -3905.1734   -4310.9385            0    2980.5544    17.879784    23.187627    22.098545    9161.8307    3141.4007    3974.2234    1826.0393   -263.61724   -502.57819    1197.7947   -3506.9239 
  632000    258.84611   -4293.2269   -3849.5735   -4293.2269            0    3361.3178    17.977359    23.429735    21.848037    9202.4969    3695.5077    2748.6159    3639.8299    1363.2157     -338.965   -22.506609   -3398.4545 
  633000    234.30943   -4295.1898   -3893.5915   -4295.1898            0     1139.837    18.083751    23.509135    21.978773    9343.9092    612.95556    1053.7139    1752.8417    696.35053   -251.14927    639.17906   -3738.2644 
  634000    229.14468   -4295.9877   -3903.2416   -4295.9877            0    2094.9872    17.890987    23.364758    22.187526     9274.798     2235.962    2384.2812    1664.7186   -1130.3456   -417.71914    666.58349   -3619.8665 
  635000    232.31549   -4315.5753   -3917.3946   -4315.5753            0    2273.5574    18.116782    23.417135    21.914383    9297.0264    683.67406    2853.2653    3283.7328   -1000.7091    65.675353    -392.0002   -3609.1284 
  636000    234.38098   -4280.5974   -3878.8764   -4280.5974            0    1033.0558    18.179928    23.314649    22.117628    9374.7474    1105.7882    1751.5255    241.85375   -1171.0225   -38.593289   -1.0239091   -3737.6359 
  637000    228.06537   -4291.0166   -3900.1203   -4291.0166            0     3165.103    17.992344    23.376617    22.022595    9262.7067    2691.9223    3509.0814    3294.3053    488.99171    169.05509   -398.84992   -3472.5558 
  638000    233.01773   -4281.2226   -3881.8382   -4281.2226            0    1306.4005    17.891161    23.931723    21.821024    9343.0275    2905.9068   -256.08312    1269.3778   -99.958182   -45.409176    305.42707     -3703.83 
  639000     225.0547   -4313.4879   -3927.7519   -4313.4879            0    2080.0006    17.856092    23.370566      22.2234      9273.98     3405.636    1795.0114    1039.3544    -101.7128    113.03424   -108.99525   -3646.4287 
  640000    246.47565   -4310.5243   -3888.0735   -4310.5243            0    1512.0156    18.109432    23.462903    22.002515    9348.8651    2619.0271    1733.2156    183.80408    272.85945   -616.18495   -562.64287   -3681.9198 
  641000    237.87423   -4311.4011   -3903.6928   -4311.4011            0    1032.6172     18.19404    23.216892    22.034492    9307.5687    977.20432    1473.3688    647.27836    317.61106    325.86775    764.53786    -3763.524 
  642000    233.02851   -4296.6326   -3897.2297   -4296.6326            0    1609.5458    18.058922    23.248351    22.164997     9305.756    3977.3186    1645.3744   -794.05559   -207.68538    234.51882    244.48527   -3678.7903 
  643000    231.43425   -4286.7863   -3890.1159   -4286.7863            0    2969.8857     17.84928    23.521567    21.990522    9232.5671    4906.4157    882.12405    3121.1173   -247.20987   -18.890535   -384.65382   -3490.2281 
  644000    235.54628   -4299.9344   -3896.2161   -4299.9344            0    824.78912    17.946744    23.593688    22.108863    9361.5533    1274.6806   -237.92862    1437.6154   -265.76007   -683.48057     -195.453   -3783.6088 
  645000    247.48732   -4280.1319   -3855.9471   -4280.1319            0    3006.9819    18.012992    23.345491     21.96025    9234.7714    1673.8422    3012.6332    4334.4704   -861.03071    122.66901    -557.2841   -3450.9678 
  646000    234.73619   -4293.3919   -3891.0621   -4293.3919            0    2589.1856     18.19987    23.115158     21.98795    9250.1737    188.74645    6059.3615    1519.4488    67.251611   -122.55044    257.60656   -3541.7699 
  647000     230.4925   -4303.9476   -3908.8914   -4303.9476            0    1920.9484    18.351174     23.23861    21.880071    9330.8828   -176.33772    2225.3887    3713.7943   -490.09041    390.65316    68.859805   -3647.4861 
  648000    229.98341   -4307.1549   -3912.9712   -4307.1549            0    2475.3917    17.890669    23.538875    22.036077    9279.9697    3960.1714    2115.4752    1350.5283    410.23021   -230.10257   -208.31428   -3577.9546 
  649000    236.09504   -4251.2663   -3846.6075   -4251.2663            0    1709.2976    17.848377    23.682133    22.220845    9392.4765    2056.4521    2279.7199    791.72084    1188.4531    281.19848   -547.26587   -3612.4685 
  650000    229.94285   -4280.2933   -3886.1791   -4280.2933            0    2149.0136    18.174118    23.264725     21.98134    9294.0591    1394.4585    2292.0361    2760.5462   -355.32413   -154.84925    296.81816   -3594.8925 
  651000    231.61134   -4257.7688   -3860.7949   -4257.7688            0    80.636681    18.116529    23.432632    22.069715    9368.9906    171.88299   -83.315692    153.34275    -272.9975   -341.08917     6.584237   -3849.7769 
  652000    225.50585   -4295.3681   -3908.8588   -4295.3681            0    2678.6123    17.834003    23.557423    22.023653    9252.6462    3192.6978    3964.2646    878.87461    113.77618   -324.46509    293.70945   -3547.4059 
  653000    237.48248   -4281.9202   -3874.8833   -4281.9202            0    409.16768    17.995983    23.543857    22.138969    9380.1676    181.58408    848.63447    197.28449    628.16951    224.42893   -710.70267   -3818.9091 
  654000    229.97106   -4299.3103   -3905.1478   -4299.3103            0    909.37525    18.128511    23.361007    22.056542    9340.9514   -411.87476    1750.4564    1389.5441   -331.95563    -108.6017    -98.35444   -3781.2652 
  655000     224.4177   -4267.2258   -3882.5815   -4267.2258            0    2202.9892    18.122494    23.117199    22.072718    9247.1728    1468.5949    3196.6957     1943.677   -20.434953    1.6456208   -347.68358   -3585.4853 
  656000    229.14799   -4321.6829   -3928.9311   -4321.6829            0    2129.1116    18.080652    23.340556     21.97246    9272.6519    185.39532    3034.6261    3167.3133     86.47729   -929.71212    -841.9583   -3641.0068 
  657000    230.70197   -4296.0199   -3900.6047   -4296.0199            0    1617.3408    17.952623    23.681513    21.933446    9324.9014    2933.7554    1087.4411    830.82597    81.919995   -14.988897    11.770121   -3680.6558 
  658000    242.60433   -4312.4539   -3896.6384   -4312.4539            0    1516.3946    17.897995    23.541283    22.085309    9305.4627    316.42308    1765.2249    2467.5358    493.36647   -231.95653   -896.81288   -3690.8476 
  659000    236.05414   -4290.8565   -3886.2678   -4290.8565            0    2090.4095    18.408015    23.104256    21.854937    9294.9811    1095.8526    2542.4567    2632.9193   -326.83864   -278.08722    126.95845   -3602.8966 
  660000    253.81026   -4291.4821     -3856.46   -4291.4821            0    2222.6228    18.014957    23.353746    22.000479    9255.9697    3032.5083    972.33454    2663.0255   -285.47089   -91.805585    267.89146   -3556.4307 
  661000    224.34523   -4298.8321   -3914.3121   -4298.8321            0    1968.4788    17.842775    23.387035    22.159747    9247.0319    1375.3393    2075.5315    2454.5656    212.90902   -703.22734    32.937579    -3648.846 
  662000    231.88864   -4291.3789   -3893.9297   -4291.3789            0    2362.9708    18.076167    23.558846    21.869836    9313.3492    2301.4577    721.27542    4066.1794   -1019.8849    564.47076   -490.15312   -3572.9776 
  663000    239.64794   -4290.0268   -3879.2784   -4290.0268            0    1460.6686    17.942597    23.349742    22.290773    9338.8314    1750.0743    2748.4941   -116.56264    11.114851    143.16595   -838.59483   -3680.3393 
  664000    234.93155   -4295.1042   -3892.4396   -4295.1042            0    3388.3475    18.064706     23.35906    21.924836    9251.7231    3722.6949    3161.0225    3281.3251   -98.640954    122.97378    408.21912   -3435.2604 
  665000    233.35393   -4285.4855   -3885.5248   -4285.4855            0    1600.1069    18.292989     23.37822    21.792236    9319.6139    144.86179     1316.772     3338.687    73.743014   -266.13055    708.94676   -3668.0431 
  666000     235.1459   -4268.6731    -3865.641   -4268.6731            0    1504.8144    17.942318    23.377254    22.239848    9328.3287    1450.1213    2341.6734     722.6485    -709.9429    -84.06943    13.721227   -3660.9199 
  667000    230.95831   -4302.0089   -3906.1542   -4302.0089            0    1569.5934     17.99706    23.694171    21.854124     9319.154    1262.4076    1767.3163    1679.0562    -845.8328    378.87811    333.34109   -3692.8303 
  668000    245.03803   -4261.4813   -3841.4945   -4261.4813            0    3443.9294    17.973469    23.324609     21.96916    9210.0021    3940.2315    2436.8416    3954.7151     508.6788   -501.13151   -211.32835   -3378.9113 
  669000    242.89995   -4262.5991   -3846.2769   -4262.5991            0    2306.9654    18.118424    23.252227    22.229983    9365.3523     1309.377    3822.6587    1788.8604   -240.06553    -109.7239   -235.42105   -3531.1822 
  670000    242.82067   -4299.0686   -3882.8823   -4299.0686            0    2578.8124    18.146439    23.528034    21.780395    9299.1405    2081.1536    2666.9745    2988.3092    409.28461    140.55083   -60.172974   -3533.1478 
  671000    241.90636    -4296.709   -3882.0898    -4296.709            0    1779.8952    17.854227     23.55262    22.164349    9320.4149    1854.8365    28.535773    3456.3134    642.87554   -498.84962    338.17613    -3640.151 
  672000    240.45555   -4298.9028   -3886.7702   -4298.9028            0    1947.2172    17.958042    23.381559    22.074148    9268.6482    2230.6585     2905.758    705.23525    296.26581   -430.38423    428.97064   -3623.5576 
  673000    238.08109   -4302.1357   -3894.0729   -4302.1357            0    2546.5072    18.189461    23.246947    21.910718    9264.9349    1683.9794    3261.9553     2693.587    345.94751    611.53013    335.33696   -3549.9899 
  674000    225.67458   -4284.1476   -3897.3491   -4284.1476            0    2567.6835    17.981739    23.303967    22.068393    9247.6684    2357.7621    3765.3442    1579.9442   -84.981916    183.08187    488.27689   -3551.0514 
  675000    236.48433   -4274.1184   -3868.7924   -4274.1184            0    2869.3812    17.998676    23.469632    21.984213     9286.622    2635.8246    2854.8188    3117.5002    1361.4684    364.81181    157.08766   -3480.1753 
  676000    240.30058   -4309.2573   -3897.3903   -4309.2573            0    578.45374    18.297525    23.223061    21.968148    9334.8048   -345.33286     1374.565    706.12907   -376.42594   -691.77047    172.71184   -3818.6404 
  677000    241.35455   -4277.9747   -3864.3013   -4277.9747            0     1214.441    18.135304    23.293151    22.175835    9367.7018    760.66476    1789.6555    1093.0028    89.930037    -139.2511   -93.843995   -3698.3864 
  678000    244.94335   -4282.9514   -3863.1269   -4282.9514            0    2101.2939    17.973642    23.493429    22.048837    9310.3969    2814.9731     2476.292    1012.6167   -1038.0067   -170.76784    213.67559   -3577.8078 
  679000    233.73332    -4281.024   -3880.4131    -4281.024            0     2153.375    17.764274    23.656587    22.075789     9277.176    2543.8952    918.77965    2997.4503    750.34772   -279.62576    1162.6733   -3589.0656 
  680000     243.0663    -4306.884   -3890.2766    -4306.884            0    1730.3032    18.026027    23.573868    21.854459    9286.9032    2011.5015    1396.0444    1783.3637    348.21819    123.22071   -400.10525   -3655.9244 
  681000    249.52434   -4289.4143   -3861.7381   -4289.4143            0    3147.6802    18.272455    22.770642    22.097193    9194.1014    2681.7246    4885.8238    1875.4921   -771.25096    179.00958   -30.438215   -3439.6766 
  682000    259.21826   -4298.5647   -3854.2735   -4298.5647            0    1730.4398    18.145636    23.328391    21.957855    9294.9465    2192.6945    1393.7851    1604.8399   -430.60296    -312.7298   -86.943983   -3619.6998 
  683000     228.6241   -4293.2293   -3901.3754   -4293.2293            0    802.19663    17.990459    23.747563    21.899942    9356.3029    348.96356    838.75179    1218.8745    -1167.646    352.64262   -533.07225    -3791.914 
  684000    243.36084   -4322.4393   -3905.3272   -4322.4393            0    1272.6931    18.011336    23.514467    22.036601    9333.0948    370.86542    960.88664    2486.3274   -934.04099   -570.72167   -339.67048   -3732.0963 
  685000    244.92312    -4276.104   -3856.3141    -4276.104            0    2819.9172     17.89623    23.367138    22.138846    9258.1039    3224.3473    3333.1493    1902.2551   -746.42247   -366.89418    -272.3105    -3475.569 
  686000    236.62651   -4265.2897   -3859.7199   -4265.2897            0    1250.2092    18.224626    23.183317    22.109326    9341.3515    1212.7269    1961.6432    576.25743    169.36732    52.840782    609.74943   -3689.3989 
  687000    227.32248   -4280.3602   -3890.7373   -4280.3602            0    1302.6041    18.241985    23.275769    21.972015    9329.2349    1004.4729    1382.1847    1521.1545   -353.23398    753.02071   -126.18984   -3713.5085 
  688000    247.62877   -4272.6949   -3848.2677   -4272.6949            0    2117.8019    18.009194    23.361133    21.989472    9251.3049    3252.0016    1310.5952    1790.8089   -1117.8373    427.16399   -1176.1595   -3562.5322 
  689000    223.50532   -4290.5973   -3907.5168   -4290.5973            0    1101.7676    17.943606    23.627007    22.076862    9359.5672    1162.2173    1387.0552    756.03024    -1361.614   -508.27857    358.45294   -3757.1259 
  690000    246.84748   -4260.4652   -3837.3771   -4260.4652            0    3056.3177    17.821904    23.663232    21.890318    9231.6693    4248.1597    2866.5131    2054.2803   -1570.1624    199.77265      189.159   -3425.8915 
  691000    233.22501   -4274.3102   -3874.5705   -4274.3102            0     1541.666    17.996913    23.395513    22.264419    9374.3671     1435.481    3474.5033   -284.98648   -138.23524    3.9034476   -109.35454   -3663.8008 
  692000    236.37686   -4276.4335   -3871.2916   -4276.4335            0    2101.2176    18.059561    23.431899    21.874416    9256.5923    3414.4391    1073.6277     1815.586   -548.73689   -324.08439    64.387246   -3587.6317 
  693000    239.61381   -4282.9124   -3872.2225   -4282.9124            0    1321.6033    18.047242    23.522132    22.070467    9369.1253    1407.3592    1372.9795    1184.4712    395.19185   -334.35396    659.78779   -3691.6399 
  694000     247.7441   -4278.3365   -3853.7116   -4278.3365            0    1837.6826    17.930331    23.832789    21.739992    9290.1465     1079.373    2413.9104    2019.7644    -254.7942    98.357503   -789.67093    -3604.729 
  695000    241.96307   -4303.8326   -3889.1162   -4303.8326            0    2205.7438     18.04236    23.503495    21.810573    9248.9592    2296.2202    1463.7413    2857.2698    10.615171    318.33143    97.000196   -3591.5909 
  696000    244.54477   -4290.1269   -3870.9855   -4290.1269            0    1826.7289    17.988024    23.102933    22.332739    9280.9527    883.09496    1594.4263    3002.6656   -1332.8926    293.86718   -258.54829    -3623.732 
  697000    234.12189   -4273.7417   -3872.4648   -4273.7417            0    1785.5091    18.074988    23.297078    22.008068    9267.4742    1534.2408     2136.713    1685.5735    1148.5864   -875.41417     550.1404   -3631.1415 
  698000    233.15155   -4267.4307   -3867.8169   -4267.4307            0    1256.6133    18.097519    23.422453     21.98671    9319.9087    1702.5004    -121.6016    2188.9412    554.88387    438.17045    565.33379   -3697.0164 
  699000    239.50533   -4268.7021   -3858.1982   -4268.7021            0    2325.8294    17.899518    23.426596    22.223315    9318.7867    3820.4106    1059.5905    2097.4872    957.76948   -676.66834    607.90838   -3542.1065 
  700000    233.75242   -4288.1468   -3887.5031   -4288.1468            0    1716.9594    17.977106    23.626056    21.959869    9326.9741    535.56587    2373.1184    2242.1939    162.86392    49.032438    465.04676   -3653.9548 
  701000    234.50587   -4282.6849   -3880.7498   -4282.6849            0    1319.5814    18.077763    23.428099    22.133696    9374.2317    1541.6669     1190.041    1227.0363     950.0368    116.23071    434.49604   -3700.3451 
  702000    241.59287   -4277.8981   -3863.8162   -4277.8981            0      1773.42    18.187663    23.107367     22.03819    9261.9681    785.44944    4421.8654    112.94523   -517.03437    549.31536    859.02737   -3624.2692 
  703000    232.05415   -4305.7136   -3907.9807   -4305.7136            0    939.67486    18.191151    23.556196    21.944093    9403.3581    901.78232    268.45369    1648.7886    -66.35015    502.12766    834.36869   -3779.1153 
  704000    235.06202   -4303.3283     -3900.44   -4303.3283            0    2484.9651    17.949837    23.391573    22.160693    9304.7191    3649.6983    1808.3565    1996.8404   -1339.3832    736.20761   -509.89219   -3563.2308 
  705000    228.93525   -4297.0731    -3904.686   -4297.0731            0    2626.2429    17.842014    23.563613     21.97198     9237.511    4700.5221    1990.3269    1187.8798    23.111688    42.559535   -539.67151   -3550.8795 
  706000    236.15902   -4305.2612   -3900.4927   -4305.2612            0    1546.4521     18.14936    23.411862    21.901055    9305.9843    1869.7396    2703.9353    65.681548    787.99393   -172.18355   -674.14713    -3690.611 
  707000    240.34655   -4293.4913   -3881.5455   -4293.4913            0     2809.368    18.049727    23.225651    22.047717    9242.7705    3064.1275     3840.301    1523.6755    85.603617   -97.614875    132.72087    -3502.853 
  708000    236.49991   -4277.2091   -3871.8564   -4277.2091            0     2046.065    18.155636    23.384561    21.894891    9295.7298    2064.3299      1769.93     2303.935    385.21361    259.06078    145.46869    -3594.474 
  709000    233.26979    -4278.685   -3878.8685    -4278.685            0     2234.744    17.942695    23.509926    22.006945    9283.2212    2875.9914    2534.2401    1294.0004    357.30275   -502.41931   -1033.0247   -3576.3149 
  710000    247.34187   -4277.0664   -3853.1309   -4277.0664            0    2138.6436     17.91466    23.562835    22.076995    9319.1451    2370.6452    813.73098    3231.5548   -69.632281    868.46057    653.66344   -3562.4675 
  711000    237.72651   -4298.1295   -3890.6744   -4298.1295            0    2703.6493    18.242957    23.384368    21.769568    9286.8985     1998.213     2331.497    3781.2379   -817.01516   -101.73238   -77.758891   -3524.4924 
  712000    238.33827   -4284.2556    -3875.752   -4284.2556            0    4076.8887    18.026381    23.076011    22.040098    9168.1733    2794.1582    4739.9617    4696.5463    77.583608   -139.98038     36.75866   -3330.6377 
  713000    234.31773   -4266.5707   -3864.9581   -4266.5707            0    1539.5948    18.098977    23.470535    21.861364    9286.5471    1163.9543    1886.5859     1568.244   -411.69657    -377.3556    326.74246   -3656.4434 
  714000    228.27515   -4272.7807   -3881.5249   -4272.7807            0    2051.6976     17.74751    23.769047    21.896618    9236.9001    3309.5661    945.68731    1899.8394   -611.33985   -339.23696   -37.235494   -3605.1393 
  715000    226.27962   -4322.1464   -3934.3108   -4322.1464            0    1995.6844    17.888618    23.314668    22.141562     9234.519    1623.9153    1487.0012    2876.1368    144.71754   -481.38905    172.03271   -3665.5401 
  716000    238.40401   -4292.6443    -3884.028   -4292.6443            0       2882.3    18.168607    23.439641    21.681725    9233.5011    2990.4375    2394.5701    3261.8924   -140.82705    832.52488    248.00477   -3495.8942 
  717000    235.96559   -4312.6101   -3908.1731   -4312.6101            0    1249.9994    17.907685    23.343987    22.310263    9326.5101    1086.6329    1466.7821    1196.5832   -36.819501    -632.7039   -656.55662   -3738.1512 
  718000    235.81943   -4275.2701   -3871.0837   -4275.2701            0    2535.4736    18.065815    23.455131     21.89074    9275.8959     2581.185    2247.4672    2777.7686   -165.75366    233.92371    46.376936   -3528.0863 
  719000    246.97566   -4290.2142   -3866.9064   -4290.2142            0    3591.5915    18.075546    23.410036    21.817409     9232.019    3361.5667     3972.418    3440.7899   -750.51778   -53.343442    30.612338   -3383.3362 
  720000    235.42108   -4312.7173   -3909.2137   -4312.7173            0    2170.9427    17.976605    23.476974     22.11387    9332.8556    3413.9428    2436.5551    662.33015    274.79079     -910.847    252.16881   -3613.7264 
  721000    237.88503   -4290.1428    -3882.416   -4290.1428            0    2499.1528    18.005933    23.713208    21.786396    9302.3213    1775.2611    2425.7579    3296.4394   -1013.8428    -320.9878   -154.16214   -3543.3689 
  722000    239.84583   -4308.6864   -3897.5989   -4308.6864            0    1803.9551    17.968873    23.237381    22.153666    9250.2533     2358.199     1856.835    1196.8312   -310.84767   -927.12472    835.79655   -3654.2355 
  723000    228.55426   -4285.7391   -3894.0049   -4285.7391            0     2290.195    18.167435    23.275704    22.033075    9316.9026    1263.3122    1490.8444    4116.4284     373.3426    925.35469   -77.724096    -3582.819 
  724000    235.01335   -4290.9307   -3888.1258   -4290.9307            0    1736.5614    18.149162     23.39954    21.981569    9335.1776    111.65813     2371.474    2726.5522    371.70202    924.71494   -9.1889246   -3651.7034 
  725000    225.03972   -4290.8478   -3905.1374   -4290.8478            0    1621.2934    17.928409    23.504177    22.097718    9311.8126    1018.7605    964.26698    2880.8526   -516.11487    -175.0448    233.35182   -3684.9605 
  726000    234.26285   -4290.6688   -3889.1502   -4290.6688            0    621.34704    18.122956     23.82698      21.8235    9423.7211   -141.18245   -213.06022    2218.2838   -95.241745   -505.94792    532.70728   -3803.7552 
  727000    250.04215   -4254.9077    -3826.344   -4254.9077            0    2485.9705    18.038334    23.359485    22.104268    9313.9915    2098.9061    3257.5821    2101.4232   -883.46644   -409.42391    254.45878   -3488.6622 
  728000    228.59057   -4246.8703   -3855.0739   -4246.8703            0    3002.9435    18.155162    23.260655    22.000997    9291.0423    3169.1914    3648.9038    2190.7355    829.66065    402.93562    917.89059   -3448.1741 
  729000    232.30063   -4266.4117   -3868.2563   -4266.4117            0    2976.2702    18.238131    23.325632    21.810937    9278.7201    2078.2657    2904.0007    3946.5441   -206.44711   -157.59177    350.65482   -3465.5056 
  730000     239.6233   -4250.8095   -3840.1034   -4250.8095            0    2222.1414    17.780041    23.468321    22.184138    9256.7245    3220.1277    1351.6707    2094.6259    159.13515   -271.09688     59.77601   -3540.1147 
  731000    231.90033   -4254.1909   -3856.7216   -4254.1909            0    2761.5809    17.936227     23.52096    21.986927    9275.7848    2968.3995    3914.5302     1401.813    597.53307   -217.61666    210.43048    -3483.141 
  732000    232.13523    -4273.823   -3875.9511    -4273.823            0    391.20065    18.137712    23.569335    21.959223    9387.4322    796.96733    706.01198   -329.37736    594.75752   -53.087647    867.95944   -3822.3934 
  733000    244.34168   -4312.3077   -3893.5144   -4312.3077            0    3468.2495    18.012392    23.185375    22.091378    9225.8913    3014.3604    4756.7696    2633.6185   -990.93422    446.27397    84.367456   -3426.8609 
  734000    230.27212   -4252.2616    -3857.583   -4252.2616            0    2479.9582    18.005721    23.477148    21.952233    9279.7131    2641.4846    3617.7407    1180.6493   -467.00604   -264.89354   -3.5737548   -3521.9576 
  735000    235.22891   -4296.9444   -3893.7701   -4296.9444            0    2335.2032    17.846633    23.571562    21.931878    9226.1492    3224.9929    958.56634    2822.0505    115.41966     122.2286    305.41317   -3579.5593 
  736000    240.91227   -4303.7036   -3890.7882   -4303.7036            0     1272.278    17.908605    23.612867    22.160948    9371.2781    1889.2913    859.37745    1068.1652   -335.72377    564.91597   -366.53498   -3716.9053 
  737000      234.826   -4283.4313   -3880.9476   -4283.4313            0    2435.1827    18.110309    23.356582    21.949838    9284.6704     2700.492    2168.0335    2437.0225   -871.16686   -244.37233   -772.57957   -3551.2058 
  738000    247.32583   -4291.7524   -3867.8444   -4291.7524            0    874.30477    18.149544      23.4097     22.10175    9390.4897    2500.4062    443.44606     -320.938    113.28741    55.700068   -213.98076   -3748.1078 
  739000      228.637   -4273.7209   -3881.8449   -4273.7209            0    1019.0046    17.844507     23.71154    22.176522    9383.3462    1412.0235     1337.821    307.16933    1417.3356   -383.94939     -456.116   -3742.3977 
  740000    247.95939   -4301.2067   -3876.2128   -4301.2067            0    2079.0525    17.991141    23.631611    21.898501    9310.3587    217.52964    1929.4258    4090.2022   -343.30241    164.50697   -30.831686   -3593.9148 
  741000    237.74828   -4310.4558   -3902.9634   -4310.4558            0    2120.9833    18.133509    23.343588    22.061014     9338.453    2739.4454    2440.3433    1183.1612   -723.31033    285.19046   -507.22158   -3614.1029 
  742000     236.9574   -4284.0075   -3877.8707   -4284.0075            0    2657.9749    18.209556    23.206805    21.904644    9256.5872    2214.3642    3393.5008    2366.0597   -580.09493    81.767057    3.1561975   -3519.0498 
  743000    234.49004   -4255.1182   -3853.2103   -4255.1182            0    3397.1611    18.075867    23.259031    22.014067    9255.3114    3554.9453    1856.0603    4780.4776   -464.34506   -379.19168   -672.89825   -3394.6641 
  744000    237.42271   -4273.3028   -3866.3684   -4273.3028            0    1577.9136    17.784411    23.683906    22.118042    9316.2147    1027.2599    983.58897     2722.892    981.83179   -383.75413     402.9601   -3651.9813 
  745000    242.22654   -4267.6791   -3852.5111   -4267.6791            0    3205.7044    17.788672     23.72951    21.909358     9248.301    4023.2247    2598.9279    2994.9606    522.97272   -1157.3683    27.535013   -3420.1354 
  746000    242.35954   -4296.8543   -3881.4583   -4296.8543            0    1392.7559    18.044184    23.430029    22.006635    9303.8717    772.57073    1250.0292    2155.6679    631.69779    185.24258   -454.66616   -3692.4788 
  747000    232.86098   -4284.2193   -3885.1035   -4284.2193            0    2008.1203    18.025417    23.325757    22.178893    9325.2597    1611.2386    3855.3485    557.77392     -382.634    28.791859    546.46838   -3612.0005 
  748000    252.11551   -4289.6152   -3857.4978   -4289.6152            0    494.71631    18.358724    23.353516    21.897264    9388.2494    25.642553    200.82511    1257.6813    155.28385     620.7625    -248.5049   -3789.7623 
  749000    215.55597   -4272.7337   -3903.2781   -4272.7337            0    2726.2469    18.140332    23.337663    22.014601    9319.9462    1732.1971    3166.4941    3280.0495    1295.1151   -247.92281   -849.23211   -3532.7216 
  750000    249.60022   -4272.3208   -3844.5146   -4272.3208            0    2128.0148    17.707857    23.629707    22.168451    9275.9778    3482.1019    654.49156    2247.4508    -1358.626    1812.5017    1159.8447   -3556.6354 
Loop time of 381.997 on 64 procs for 250000 steps with 864 atoms

Performance: 113.090 ns/day, 0.212 hours/ns, 654.455 timesteps/s
194.5% CPU use with 32 MPI tasks x 2 OpenMP threads

MPI task timing breakdown:
Section |  min time  |  avg time  |  max time  |%varavg| %total
---------------------------------------------------------------
Pair    | 17.91      | 25.333     | 33.017     |  97.6 |  6.63
Bond    | 0.79709    | 1.0614     | 1.4957     |  14.2 |  0.28
Kspace  | 193.54     | 202.09     | 213.04     |  37.6 | 52.90
Neigh   | 1.5157     | 1.6252     | 1.8974     |   8.1 |  0.43
Comm    | 55.594     | 62.489     | 65.222     |  28.6 | 16.36
Output  | 1.1506     | 1.151      | 1.1527     |   0.0 |  0.30
Modify  | 67.779     | 70.411     | 75.202     |  19.7 | 18.43
Other   |            | 17.84      |            |       |  4.67

Nlocal:        27.0000 ave          40 max          18 min
Histogram: 7 3 6 0 3 3 3 4 1 2
Nghost:        2121.34 ave        2214 max        2024 min
Histogram: 4 10 2 0 0 0 0 1 5 10
Neighs:        6548.69 ave        9771 max        4597 min
Histogram: 7 4 5 1 4 2 3 4 1 1

Total # of neighbors = 209558
Ave neighs/atom = 242.54398
Ave special neighs/atom = 2.0000000
Neighbor list builds = 5424
Dangerous builds = 0

unfix		3
unfix		2
unfix		1

write_data	data.final.${pid} nocoeff
write_data	data.final.1 nocoeff
System init for write_data ...
PPPM initialization ...
  extracting TIP4P info from pair style
  using 12-bit tables for long-range coulomb (../kspace.cpp:340)
  G vector (1/distance) = 0.3713876
  grid = 24 27 25
  stencil order = 5
  estimated absolute RMS force accuracy = 0.0032126111
  estimated relative force accuracy = 9.6746829e-06
  using double precision FFTW3
  3d grid and FFT values/proc = 4410 672
Last active /omp style is kspace_style pppm/tip4p/omp

write_restart   restart.lmp.${pid}
write_restart   restart.lmp.1
System init for write_restart ...
PPPM initialization ...
  extracting TIP4P info from pair style
  using 12-bit tables for long-range coulomb (../kspace.cpp:340)
  G vector (1/distance) = 0.3713876
  grid = 24 27 25
  stencil order = 5
  estimated absolute RMS force accuracy = 0.0032126111
  estimated relative force accuracy = 9.6746829e-06
  using double precision FFTW3
  3d grid and FFT values/proc = 4410 672
Last active /omp style is kspace_style pppm/tip4p/omp
Total wall time: 0:06:22
