#include		in.partitions
include		in.temp
variable        temperature equal 108.97
variable	tempDamp equal 100.0
include		in.pressure
variable        pressure equal 6937.8
variable        pressureDamp equal 1000.0 # This is 1 ps
include		in.seed
variable        seed equal 745823

units		real
atom_style	full
read_restart    restart.lmp.${pid}
read_restart    restart.lmp.0
Reading restart file ...
  restart file = 30 Jul 2021, LAMMPS = 30 Jul 2021
  restoring atom style full from restart
  triclinic box = (-3.0540809 -0.11968769 0.050024325) to (14.664080 22.699687 19.179974) with tilt (-0.040191959 -6.8018236 0.22868569)
  2 by 4 by 4 MPI processor grid
  restoring pair style lj/cut/tip4p/long/omp from restart
  restoring bond style harmonic/omp from restart
  restoring angle style harmonic/omp from restart
  1008 atoms
  672 bonds
  336 angles
Finding 1-2 1-3 1-4 neighbors ...
  special bond factors lj:    0        0        0       
  special bond factors coul:  0        0        0       
     2 = max # of 1-2 neighbors
     1 = max # of 1-3 neighbors
     1 = max # of 1-4 neighbors
     2 = max # of special neighbors
  special bonds CPU = 0.002 seconds
  read_restart CPU = 0.008 seconds

include 	in.setup
variable	out_freq equal 1000
variable	out_freq2 equal 10000
variable	out_freq3 equal 1000

timestep	2.0

neigh_modify    delay 7 every 1

include		in.tip4p
# This is TIP4P/Ice

# create groups ###
group ox type 2
336 atoms in group ox
group hy type 1
672 atoms in group hy

# set charges - beside manually ###
set group ox charge -1.1794
Setting atom values ...
  336 settings made for charge
set group hy charge 0.5897
Setting atom values ...
  672 settings made for charge

# ### TIP3P Potential Parameters ###
pair_style lj/cut/tip4p/long/omp 2 1 1 1 0.1577 8.5
pair_coeff 1 1*2 0.000 0.000
pair_coeff 2 2 0.21084 3.1668
bond_style  harmonic
bond_coeff  1 450 0.9572
angle_style harmonic
angle_coeff 1 55 104.52
kspace_style pppm/tip4p/omp 1.0e-5
pair_modify tail yes

thermo          ${out_freq}
thermo          1000
thermo_style    custom step temp pe etotal epair emol press lx ly lz vol pxx pyy pzz pxy pxz pyz enthalpy

restart 	${out_freq3} restart.lmp.${pid} restart2.lmp.${pid}
restart 	1000 restart.lmp.${pid} restart2.lmp.${pid}
restart 	1000 restart.lmp.0 restart2.lmp.${pid}
restart 	1000 restart.lmp.0 restart2.lmp.0


include         in.dump
dump            myDump all atom ${out_freq2} dump.water.${pid}
dump            myDump all atom 10000 dump.water.${pid}
dump            myDump all atom 10000 dump.water.0
dump            myDump2 all dcd ${out_freq2} dump.dcd
dump            myDump2 all dcd 10000 dump.dcd
dump_modify     myDump append yes
dump_modify     myDump2 append yes


variable natoms 	equal  "count(all)"                        # NUMBER ATOMS
variable H      	equal  "enthalpy/v_natoms"                 # ENTHALPY-per-atom
variable Vol      	equal  "vol/v_natoms"                 # volume-per-atom
fix AVG all 		ave/time ${out_freq} 1 ${out_freq} v_Vol v_H file vol_enthalpy.dat
fix AVG all 		ave/time 1000 1 ${out_freq} v_Vol v_H file vol_enthalpy.dat
fix AVG all 		ave/time 1000 1 1000 v_Vol v_H file vol_enthalpy.dat



fix 		1 all shake 1e-6 200 0 b 1 a 1
       0 = # of size 2 clusters
       0 = # of size 3 clusters
       0 = # of size 4 clusters
     336 = # of frozen angles
  find clusters CPU = 0.000 seconds
fix             2 all nph tri ${pressure} ${pressure} ${pressureDamp}
fix             2 all nph tri 6937.8 ${pressure} ${pressureDamp}
fix             2 all nph tri 6937.8 6937.8 ${pressureDamp}
fix             2 all nph tri 6937.8 6937.8 1000
fix             3 all temp/csvr ${temperature} ${temperature} ${tempDamp} ${seed}
fix             3 all temp/csvr 108.97 ${temperature} ${tempDamp} ${seed}
fix             3 all temp/csvr 108.97 108.97 ${tempDamp} ${seed}
fix             3 all temp/csvr 108.97 108.97 100 ${seed}
fix             3 all temp/csvr 108.97 108.97 100 745823


run             250000
PPPM initialization ...
  extracting TIP4P info from pair style
  using 12-bit tables for long-range coulomb (../kspace.cpp:340)
  G vector (1/distance) = 0.37945819
  grid = 24 27 32
  stencil order = 5
  estimated absolute RMS force accuracy = 0.0024541963
  estimated relative force accuracy = 7.3907392e-06
  using double precision FFTW3
  3d grid and FFT values/proc = 5355 672
Last active /omp style is kspace_style pppm/tip4p/omp
Neighbor list info ...
  update every 1 steps, delay 7 steps, check yes
  max neighbors/atom: 2000, page size: 100000
  master list distance cutoff = 10.8154
  ghost atom cutoff = 10.8154
  binsize = 5.4077, bins = 5 5 4
  1 neighbor lists, perpetual/occasional/extra = 1 0 0
  (1) pair lj/cut/tip4p/long/omp, perpetual
      attributes: half, newton on, omp
      pair build: half/bin/newton/tri/omp
      stencil: half/bin/3d/tri
      bin: standard
Per MPI rank memory allocation (min/avg/max) = 10.31 | 10.32 | 10.33 Mbytes
Step Temp PotEng TotEng E_pair E_mol Press Lx Ly Lz Volume Pxx Pyy Pzz Pxy Pxz Pyz Enthalpy 
30500000    117.13473   -5151.5752   -4917.2912   -5151.5752            0    8306.1799    17.718161    22.819374    19.129949    7734.5703    8494.5223     7963.002    8461.0155   -1427.7773     855.3742   -2117.9395   -3980.3477 
30501000    106.38903   -5162.5695   -4949.7783   -5162.5695            0    6653.8311    17.872164    22.696315    19.176543    7778.6244     6275.425    6581.9296    7104.1388   -216.93009   -854.27376   -59.557477    -4194.946 
30502000    107.89631   -5158.8273   -4943.0214   -5158.8273            0    7716.0107    17.811535    22.737287    19.145933    7753.8346     8480.843    6864.8131     7802.376   -436.71861   -279.04118   -187.28761   -4070.4815 
30503000    108.53214   -5168.6953   -4951.6176   -5168.6953            0    6595.4767    17.905836     22.69923    19.151227     7783.991    6699.6822    6752.0859    6334.6621    364.89286   -274.75677   -665.69288   -4202.8891 
30504000    104.03279   -5172.0193   -4963.9409   -5172.0193            0    6377.0406    17.803905    22.814682    19.168663    7786.1276    6141.6327    7032.8354    5956.6536    171.84125    510.24951   -12.416585   -4239.8108 
30505000    106.13901   -5157.3585   -4945.0673   -5157.3585            0     7331.791    17.914858    22.613907    19.177743    7769.3818    6798.4649    7224.0599    7972.8482    649.68039    861.33734    -371.2895   -4114.3133 
30506000    107.53275   -5152.8626   -4937.7838   -5152.8626            0    7565.9091    17.849867    22.791893    19.108168    7773.8194    6998.4357    7523.5101    8175.7816   -1047.0895    173.77657    181.65718   -4080.0126 
30507000    106.36953   -5160.8703   -4948.1181   -5160.8703            0    8481.6068    17.833335     22.66063    19.156018    7741.2269    8119.7107     8690.864    8634.2458   -2.2090377   -246.99492    126.31183   -3990.5629 
30508000    108.84362   -5159.8692   -4942.1685   -5159.8692            0    7825.4001    17.813321    22.607026    19.262347    7757.0668    8731.6127     7704.288    7040.2995   -424.03385    819.44703   -1282.5931   -4056.8898 
30509000    109.01617   -5151.8565   -4933.8107   -5151.8565            0    6738.0685    17.844569    22.856062    19.096433    7788.6054    7408.4861    6301.4176    6504.3018   -75.220438   -225.85179   -1157.1506   -4168.4415 
30510000    111.28401   -5161.5703   -4938.9886   -5161.5703            0    7389.9784    17.953699    22.583896    19.184792    7778.7518    8055.0936    7634.8866    6479.9549    83.726811    529.57383   -189.04582   -4100.6316 
30511000    108.33428   -5167.6052   -4950.9232   -5167.6052            0    5739.3319    17.775792    22.954837    19.089351    7789.2266    6080.7634    5821.9404    5315.2918    150.86858    753.35551   -139.83931   -4298.9473 
30512000    112.71195   -5154.8017   -4929.3639   -5154.8017            0    6525.2062    18.024564    22.414291      19.2631    7782.4431    6286.4002    7346.3814    5942.8369   -298.42465    543.62067    790.68789   -4188.7598 
30513000    110.03162   -5143.7611   -4923.6842   -5143.7611            0    7772.5103    17.740879    22.841024    19.103279    7741.0277    7992.3673    6891.8822    8433.2814    676.54856    -112.1548    240.02553   -4046.2071 
30514000      110.495   -5169.2003   -4948.1967   -5169.2003            0    6749.7526    17.840093    22.532348    19.350265    7778.4039    6696.6033    7968.7472    5583.9073   -421.21177    563.04141   -1087.7319   -4182.5045 
30515000    108.17827   -5167.5974   -4951.2275   -5167.5974            0    5118.5868    17.938329    22.823714    19.109973    7823.9918    4904.6497    5408.2864    5042.8242    754.18992    394.01826    -5.393893   -4367.1717 
30516000     108.5928    -5161.798    -4944.599    -5161.798            0    6760.2688     17.85429    22.673064    19.219319    7780.2004    6944.4416    7439.4741    5896.8905    540.49641    661.19674   -451.20605   -4177.5367 
30517000     107.3311   -5158.7706   -4944.0952   -5158.7706            0    7477.0308    17.962605    22.606062    19.136977    7770.8326    7232.5121    7303.3765    7895.2039    -415.8193    -952.9019   -280.61139   -4096.7261 
30518000     106.6036    -5168.568   -4955.3477    -5168.568            0    6570.1388    17.857999    22.692202    19.165717    7766.6638    6455.6815    6793.0234    6461.7117    -539.3843   -444.47611   -2636.4839   -4211.1557 
30519000    106.09268   -5155.4057   -4943.2072   -5155.4057            0     7694.312    17.891941    22.688469    19.090349    7749.5503    7532.2234    6895.1267     8655.586    476.18325    -924.8746    1039.8491   -4073.6019 
30520000    109.69614   -5166.8885   -4947.4827   -5166.8885            0    7127.0056    17.921805    22.679567    19.097551    7762.3671    7888.4865    7366.9034     6125.627   -966.56352    342.06771   -788.51021   -4140.6617 
30521000    105.09481   -5162.8413   -4952.6387   -5162.8413            0    7420.3965    17.954985    22.620029    19.110304    7761.5028    6557.3799    7572.1399    8131.6697    149.74923   -52.418568    79.227125   -4112.6976 
30522000    110.13003   -5165.0734   -4944.7997   -5165.0734            0    6187.0903    17.812024    22.815987    19.145255    7780.6107    6418.0067    6071.4418    6071.8223     854.8642   -789.20668   -964.43302   -4242.7368 
30523000    108.63172   -5176.9339    -4959.657   -5176.9339            0     6544.403    17.916951    22.701572    19.130885    7781.3529    5447.9508    6902.7144    7282.5437   -185.46684    443.45337    1142.8002   -4216.9782 
30524000    115.05982   -5155.6007   -4925.4668   -5155.6007            0    6835.2515    17.826214    22.661502    19.274297    7786.2142    6846.9979    7322.5775    6336.1791    1038.5129    22.551493   -871.42557    -4149.297 
30525000    112.51917   -5159.3235   -4934.2712   -5159.3235            0    7366.4849    17.862299    22.763645     19.10607    7768.7389    7040.5743    7417.8886    7640.9919   -1596.3568   -43.274346   -272.65647   -4099.6552 
30526000    108.07333   -5159.9132   -4943.7532   -5159.9132            0    5420.5553    17.882031    22.737931    19.242355     7823.949    5818.7996    5259.2234    5183.6428   -26.984066   -364.33161   -975.42898   -4325.2447 
30527000    112.34287   -5152.8597   -4928.1601   -5152.8597            0     7117.899    17.805537    22.726762    19.170219     7757.463    7153.2811    6552.1068    7648.3093   -1502.1178   -561.26647    -746.9496   -4122.8791 
30528000    105.76944   -5163.9969   -4952.4449   -5163.9969            0    6953.2046    17.954131    22.636621    19.139274    7778.6003    6718.1419     7048.396    7093.0758   -98.237594    306.80584    999.09362   -4163.6532 
30529000     109.7908   -5159.3429   -4939.7477   -5159.3429            0    7219.4432    17.780424    22.724363    19.202919    7758.9167    8349.9722    6800.0673    6508.2902     144.0431    83.535234   -670.29324   -4122.8255 
30530000    109.74994   -5158.2367   -4938.7232   -5158.2367            0    5867.0043    17.995581    22.565771    19.240328    7813.1923     6417.067    6170.4132    5013.5329    657.90558   -305.69466    530.63042   -4270.1934 
30531000     116.2358   -5167.0346   -4934.5487   -5167.0346            0    6228.8874    17.792274     22.88259    19.165284    7802.8253    6591.0159    5718.9536    6376.6928   -478.30807   -34.976635    420.86062   -4225.7249 
30532000    108.33343   -5159.2548   -4942.5745   -5159.2548            0    5630.4482    17.959725    22.653903    19.209998    7815.7386    5954.4715    4981.4374    5955.4355    972.56713   -920.77561   -91.378655   -4300.7906 
30533000      110.431    -5168.402   -4947.5264    -5168.402            0     6215.861    17.900442    22.812355    19.093658    7796.9189    6347.2717    5806.4805    6493.8309     466.3747     417.5856   -506.94344   -4240.7204 
30534000    106.64693   -5169.5878   -4956.2808   -5169.5878            0    7703.1526    17.803953    22.724728    19.149968    7747.8852    7047.2124    7164.3259    8897.9195    910.22136   -426.45924    759.01711   -4085.8634 
30535000    106.17247   -5170.8693   -4958.5113   -5170.8693            0    7457.9434    17.846958    22.676139     19.17218    7758.9833    6840.6403    7299.7741    8233.4158   -1980.1211   -814.85876   -971.60694   -4114.5941 
30536000     111.8318   -5183.9843   -4960.3069   -5183.9843            0    6319.0787    17.824101    22.837715    19.130881    7787.4497    7034.9963    6184.0096    5738.2303    351.89765   -3.1462844   -1483.1224   -4242.6367 
30537000     108.6175   -5162.1291   -4944.8807   -5162.1291            0    6667.0153    17.918181    22.665686    19.192223    7794.4965    6626.3317    7283.0626    6091.6517    598.14466    1131.6439   -339.26957   -4187.0095 
30538000     109.2919   -5166.4049   -4947.8076   -5166.4049            0    7284.4324    17.876524    22.713793    19.127528    7766.6116    8065.0788    6970.6161    6817.6023   -1071.7449   -105.05976    233.21995    -4122.714 
30539000    112.54556   -5171.0104   -4945.9054   -5171.0104            0    7469.5316    17.811365    22.802636    19.085085    7751.3323    7233.3123    7572.7263    7602.5562    571.17696   -221.68553    997.11603   -4101.5104 
30540000    108.71471   -5163.7826   -4946.3397   -5163.7826            0    6738.9296    17.896016    22.671408    19.184394    7783.6439    6206.4647    6618.4389    7391.8854    11.885615   -496.00308    650.92119   -4181.3603 
30541000    109.15957   -5162.9807   -4944.6481   -5162.9807            0    6800.9631    17.926181    22.636213    19.180954    7783.2633    7478.3013    6498.5254    6426.0626   -1057.6808    310.17202   -474.79047   -4172.6646 
30542000    112.12585   -5168.3148   -4944.0492   -5168.3148            0    6901.7647    17.804482    22.774093    19.157266    7767.9057    5381.7252     7522.951    7800.6179    330.56526    417.13445    971.73135   -4162.1694 
30543000    111.97354   -5159.8626   -4935.9017   -5159.8626            0    7626.0262    17.840442    22.593582    19.276258    7769.8641    7506.3991    7871.5871    7500.0925    183.93091    445.19431   -632.88684   -4071.7548 
30544000    109.34528   -5177.5461    -4958.842   -5177.5461            0    6347.6716    17.892991    22.772608    19.102844    7783.8372    5768.7375    6552.7056    6721.5717   -422.41077    297.80763   -687.61838   -4238.2589 
30545000    108.39364   -5177.2768   -4960.4761   -5177.2768            0    7312.9101    17.798575    22.701807    19.212332    7762.9312    7120.8028    7566.1019    7251.8256   -530.86387   -124.26826   -314.92825   -4132.5495 
30546000    105.47251   -5166.6834   -4955.7253   -5166.6834            0    6427.8398    17.893381    22.764327     19.12341    7789.5534    7251.4224    5273.6456    6758.4513    412.43293   -843.12311   -609.83945   -4225.5057 
30547000    114.31335   -5176.3298   -4947.6889   -5176.3298            0    7039.8581     17.92226    22.518703    19.261534    7773.6865    6803.2333    7568.1166    6748.2245   -284.81371    495.39114   -161.37656   -4149.5715 
30548000    104.75133   -5164.6219   -4955.1063   -5164.6219            0    7254.5531    17.784687      22.8041    19.145232    7764.6127    8271.4447    6574.1016    6918.1132    688.85666   -723.11671   -351.47518   -4133.6086 
30549000    107.71566   -5154.7517    -4939.307   -5154.7517            0    6453.6173    17.728786    22.817751    19.246771    7785.9163     8290.595    5668.4054    5401.8515    128.95148   -836.56599    963.87898   -4206.5014 
30550000    109.00528   -5174.7903   -4956.7663   -5174.7903            0    7571.8642    17.862555     22.67309    19.171281    7764.3557    8074.7636    7391.9676    7248.8614   -246.49812    9.2120164    862.69307    -4099.365 
30551000    118.92147   -5156.9964   -4919.1387   -5156.9964            0    7444.0717    17.902408    22.617582    19.183906    7767.7398    7895.6115    7259.6778    7176.9257    10.560415    239.55789   -235.16516   -4075.8407 
30552000    107.51859   -5164.8956   -4949.8451   -5164.8956            0    8707.5284    17.776439    22.707457    19.133596    7723.4243     8516.053    8243.6114    9362.9208   -505.65164    563.11677    546.82445   -3969.0446 
30553000    108.93605   -5179.9056   -4962.0201   -5179.9056            0    7800.8709    17.879842    22.652499    19.152471    7757.1932    7856.5033    7947.9209    7598.1884    904.06036    35.655927   -1058.9514   -4079.5021 
30554000    111.36781   -5156.4758   -4933.7264   -5156.4758            0    7354.1325    17.797766    22.804177     19.13453    7766.0058    7085.0667    6727.4845    8249.8464   -1440.7406   -946.11361    1173.2622    -4100.803 
30555000    112.93369   -5166.5949   -4940.7136   -5166.5949            0    6680.6057    17.857942    22.647019    19.288267    7800.7374    6785.6412    7181.6116    6074.5643    251.06526    224.72491   -546.15676   -4180.6894 
30556000    119.96239   -5164.5396      -4924.6   -5164.5396            0    7454.0714    17.896799    22.699654    19.064373    7744.9234    7032.6088    7496.4256    7833.1797   -522.63482   -414.12978   -609.46959   -4082.6495 
30557000    104.74337    -5172.756   -4963.2563    -5172.756            0    6847.9105    17.840706    22.656185    19.255959    7783.3034    7811.7835     6803.926    5928.0221   -605.83971   -954.85497    202.33147   -4185.9397 
30558000    109.12344   -5164.3365   -4946.0761   -5164.3365            0    6753.5057    17.653571    22.864181    19.233401    7763.2634    9139.4063    5787.6901    5333.4206   -457.85906    -1272.139   -670.88964   -4181.4494 
30559000    105.89797   -5165.1833   -4953.3743   -5165.1833            0    5502.0212    17.929941    22.685082    19.227153    7820.4945     5735.232    6059.0576    4711.7739   -5.6165675    171.34676    511.60966   -4325.8474 
30560000    112.07573   -5174.2527   -4950.0874   -5174.2527            0    7013.0897    17.886254    22.639557    19.247571     7794.051    6852.5785    7394.8663    6791.8243   -650.69206    504.53908    289.96003   -4152.9218 
30561000     114.6111   -5164.2173   -4934.9809   -5164.2173            0    7609.2528    17.831511    22.829941    19.053587    7756.5693    8009.6416    7315.7134    7502.4034    78.557561   -303.30485    17.590234     -4074.21 
30562000    114.86671    -5157.494   -4927.7464    -5157.494            0    6455.7792    17.872681    22.693476    19.245135    7805.6967    6895.8582    6356.0546    6115.4247   -595.96585   -229.35433    437.50181   -4192.8329 
30563000    111.68553   -5158.5571   -4935.1722   -5158.5571            0    6943.2659    17.842558    22.813816    19.116574    7781.5324    7425.8316    5876.9153    7527.0508    492.32567   -526.27386   -464.68932   -4147.2111 
30564000    109.93772   -5174.3077   -4954.4187   -5174.3077            0     5111.232    18.016748    22.600433    19.218574    7825.5401    4956.4275    4872.7116    5504.5571    -542.7426   -129.89598    537.10523   -4371.0867 
30565000     104.8061   -5163.1528   -4953.5276   -5163.1528            0    7220.1033    17.680994    23.007578    19.084378    7763.4646    7353.8121    7037.4698    7269.0279    523.64443    103.07691    296.43466   -4136.0519 
30566000    112.58762   -5161.5068   -4936.3176   -5161.5068            0    5444.7679    17.964164    22.607963    19.254204    7819.7709    5357.9006    5173.7348    5802.6684   -1154.3716   -488.34123    918.67076   -4315.3781 
30567000    109.39869   -5168.8363   -4950.0254   -5168.8363            0     7182.442    17.885323    22.767118    19.080045    7769.3417    6311.5405    7511.3474    7724.4381   -102.35984    615.71086   -509.82762   -4136.1982 
30568000    108.43495   -5168.1254   -4951.2421   -5168.1254            0    6422.0389    17.929664    22.710257    19.165872    7804.0989    6171.4748    6746.7129    6347.9289   -379.56522    182.63949   -1370.4353   -4220.3192 
30569000    107.90254   -5178.0459   -4962.2275   -5178.0459            0    6790.3064    17.953147    22.637024    19.157573    7785.7491    6053.7285    6963.1394    7354.0512    1225.5575    23.498552    36.804872   -4191.2074 
30570000    108.59171   -5153.2602   -4936.0633   -5153.2602            0    7646.7645    17.728795    22.897714    19.113971    7759.2955    7108.2646     7455.703    8376.3258    1438.5263    96.368435   -407.59408    -4070.745 
30571000    110.02601   -5163.5069   -4943.4413   -5163.5069            0    7116.3687    18.003697    22.457831    19.240011    7779.1982    6242.0922    7928.9516    7178.0623   -710.56658    355.95894   -776.16895   -4136.0777 
30572000    113.05439   -5155.9909   -4929.8682   -5155.9909            0    5760.2887    17.797267    22.850372    19.247637    7827.5171    7125.7384    5052.1223    5103.0053   -439.55034    258.81135    367.19326   -4272.2949 
30573000    104.45128   -5178.3027   -4969.3873   -5178.3027            0    5742.5802    17.911058    22.608841    19.292961    7812.6511    5216.1492    5876.3564    6135.2351    381.10553    76.132663    540.73754   -4315.0805 
30574000    107.49588    -5176.027    -4961.022    -5176.027            0    5933.0345     17.83983    22.882784    19.082065    7789.7757    5671.0171    6068.0299    6060.0564   -383.02753   -708.12448   -112.27126   -4286.9943 
30575000    108.23595   -5167.8334   -4951.3481   -5167.8334            0    6308.4768    17.892665    22.538095    19.315015    7789.1003    7268.0956    6174.7329    5482.6021    748.71987   -279.53474    -284.3071   -4234.7301 
30576000    112.49438    -5168.098   -4943.0953    -5168.098            0    6869.3963    17.874795    22.840264    19.055792    7779.8137    7279.5506    6808.0409    6520.5973    -451.5366    201.07622   -941.40906   -4163.6895 
30577000    101.76862   -5168.0742   -4964.5244   -5168.0742            0    6826.7552    17.839713    22.735506    19.159066    7770.8194     8701.963    5698.2164    6080.0862   -417.63455   -6.9294801    533.93904   -4190.8521 
30578000    111.13827   -5150.8269   -4928.5366   -5150.8269            0    6239.5788    17.893934    22.704174    19.194695    7798.1713    6371.4972    6278.1856    6069.0537   -561.01674   -72.786933    -623.0878   -4218.9198 
30579000    105.49751    -5162.972   -4951.9639    -5162.972            0    7018.1255    17.753188     22.84912    19.150352    7768.2393    7993.1579     6736.139    6325.0796   -395.66954    70.207144   -346.19111   -4156.8678 
30580000    115.61321    -5164.317   -4933.0763    -5164.317            0    6819.8692    17.949285    22.559724    19.189459    7770.4053    5954.1051    7005.5039    7499.9985   -562.67455   -747.22899    620.19246   -4160.2256 
30581000    111.60673   -5168.6939   -4945.4666   -5168.6939            0    6700.5874    17.791596    22.841557     19.16862    7789.8923    7909.5224    6193.5818     5998.658   -3.4768913   -175.76437    11.584028   -4184.2291 
30582000    105.85245   -5170.4985   -4958.7805   -5170.4985            0    6348.0672    18.019297      22.4609    19.237949    7786.1681    4265.6604    7581.6722    7196.8691    1406.1313    357.91624   -668.44913   -4237.9367 
30583000    110.95776   -5160.6175   -4938.6883   -5160.6175            0    6626.6457    17.749888    22.844626    19.164335    7770.9373    6481.4438    6368.8566    7029.6369   -281.27468    460.61942     264.9299   -4187.6829 
30584000    113.09296   -5156.3756   -4930.1757   -5156.3756            0     6853.622    17.900413    22.670106    19.176476    7781.8957    6136.0893    7114.4401    7310.3365     302.9622   -1065.7163    283.34062   -4152.3515 
30585000    106.88096   -5169.7229   -4955.9478   -5169.7229            0    6233.4617      17.7662    22.776158    19.273828    7799.0732    6313.7076    6427.6527    5959.0249    281.28822    1022.1815    339.63687   -4246.9446 
30586000    107.88281   -5171.9932   -4956.2143   -5171.9932            0     6016.727    17.906233    22.713978    19.180406    7801.0889    6251.3755    5213.9438    6584.8618    304.12115   -457.71742   -1698.8872    -4271.686 
30587000    108.95678   -5173.9383   -4956.0113   -5173.9383            0    6344.8703    17.868715    22.711056    19.195899    7790.0294    7606.1468    6504.4106    4924.0535   -1402.8237    636.11659   -856.13005   -4235.1732 
30588000    112.06227   -5171.8103   -4947.6719   -5171.8103            0    6050.5969    17.926946    22.681991    19.194891    7805.0041    7423.8745    5525.9659    5201.9503    1084.3044   -697.43382   -486.44872   -4258.9447 
30589000    103.61397    -5169.996   -4962.7552    -5169.996            0      7239.77    17.762534    22.819385    19.127613    7752.9977    8601.8137    6545.2826    6572.2137   -381.46304   -728.79329    250.27121   -4144.1579 
30590000    111.41005   -5175.7911   -4952.9572   -5175.7911            0    5792.2713    18.064698    22.479713     19.25833    7820.6003    4827.7973    6371.8977     6177.119   -414.81465   -573.79535   -769.19448   -4292.3172 
30591000    105.38581   -5163.7839   -4952.9992   -5163.7839            0    6629.1921    17.783962     22.92723     19.07728    7778.5127    6889.4182    5854.0262    7144.1319   -989.89684   -76.449484   -144.26369   -4200.9729 
30592000    106.32848   -5160.6573   -4947.9872   -5160.6573            0    7736.4921     17.89682    22.511997    19.286412    7770.3638    8198.5715    7874.5652    7136.3395   -343.42548   -615.45571    -1355.725   -4071.2663 
30593000    111.42656    -5162.002   -4939.1351    -5162.002            0    6778.3742    17.896378    22.807489    19.107492    7799.1326    7094.1844     5992.819    7248.1192   -524.83749    416.79752    613.23221   -4168.1469 
30594000    109.57751    -5171.743   -4952.5745    -5171.743            0    6468.0566    17.920974    22.572769    19.280841    7799.6019    6006.5841    7135.6329    6261.9528   -64.538943    484.94421   -102.78209   -4216.8382 
30595000    104.15061   -5176.4194   -4968.1054   -5176.4194            0    6965.1933    17.888248    22.895687    18.980337    7773.6574    6219.6175    6562.1984     8113.764   -621.93808   -434.75658     -495.986   -4178.4557 
30596000    107.03827   -5157.1207   -4943.0309   -5157.1207            0    6983.0695    17.856968    22.658831    19.273732    7798.4994    7435.1919    6440.5645     7073.452     -254.358   -139.20362   -951.21151   -4148.8247 
30597000    109.32282   -5170.1759   -4951.5168   -5170.1759            0    6578.5073    17.928175    22.692003    19.188921    7806.5557    5971.8558    6473.1852    7290.4808    1220.8404   -41.025973    422.55621   -4202.5497 
30598000    105.80893   -5155.7218   -4944.0908   -5155.7218            0     7447.773    17.807636    22.830611    19.092477    7762.2227    7527.3058    7671.8899    7144.1232   -1227.9973    462.76274    148.18507   -4100.9727 
30599000     108.8075   -5166.1729   -4948.5445   -5166.1729            0    7615.7604    17.776631    22.735767    19.190931    7756.3091    7934.3358    7560.9802    7351.9651   -422.58275   -85.282135   -856.19112   -4087.0663 
30600000    109.32293   -5167.9747   -4949.3153   -5167.9747            0    7579.6593    17.867812    22.630549    19.188103    7758.8708    7958.8653    7549.1901    7230.9224   -904.20979   -236.89757    136.42196   -4091.6377 
30601000    102.21573   -5169.1816   -4964.7375   -5169.1816            0     6222.922    17.830736    23.012247    19.001902    7796.9608    5889.5953    6178.2536    6600.9173   -440.59728    285.72286   -1796.1736   -4257.1248 
30602000    108.50218   -5165.7486   -4948.7308   -5165.7486            0    5467.5802    17.906697    22.679141    19.203729    7798.7977    5920.9317     5190.975    5290.8339   -248.72625   -875.75215    699.75175   -4326.8621 
30603000    108.89094   -5158.3145   -4940.5191   -5158.3145            0    6497.0858    17.888197    22.763038    19.137871     7792.744    6036.7151    7104.2093    6350.3329    689.45374   -183.20518   -16.877424   -4202.1307 
30604000     110.8207   -5161.6972   -4940.0421   -5161.6972            0    6589.1613    18.030014    22.544639    19.135344    7778.1376    6162.9475    6626.7885     6977.748   -556.97128    340.07555   -149.01984   -4192.5929 
30605000    115.32883   -5159.4964   -4928.8244   -5159.4964            0    6947.4822    17.817453    22.865915    19.127061    7792.6014      6457.87    6495.2454    7889.3311    804.59612    96.817392     675.8217   -4139.2633 
30606000    106.60048   -5171.5888   -4958.3747   -5171.5888            0     7305.242     17.91085    22.723204    19.059475     7757.052    6571.8946    7540.6403     7803.191   -1022.2831    298.58333    306.81024   -4131.9426 
30607000    109.48707   -5162.3571   -4943.3695   -5162.3571            0    6871.2214    17.817026    22.604487    19.279682    7764.7902    6427.2094    7080.9202    7105.5345  -0.22765598   -232.33429   -236.28728    -4165.262 
30608000    107.88741   -5157.1248   -4941.3367   -5157.1248            0    6413.8767    17.910555    22.808081    19.054901      7784.03    5254.6269    6382.6925    7604.3106    259.64894    172.11678    1447.2582     -4213.22 
30609000    106.46688    -5164.346   -4951.3991    -5164.346            0    7107.6607       17.865    22.630305    19.236941    7777.3105    8524.8402    7320.7775    5477.3643    465.59377   -422.19861   -316.21958   -4145.2191 
30610000    106.62172   -5149.9194   -4936.6628   -5149.9194            0    7306.7794    17.988691    22.754413    19.021536    7785.9352    7610.4813    6157.9464    8151.9105    664.45587   -962.76326   -54.662633   -4106.9788 
30611000    117.68075   -5164.8471    -4929.471   -5164.8471            0    6560.0103     17.85162    22.772736    19.130564    7777.1525     6329.453    6563.4108    6787.1671    406.78954    1510.2093    390.11006   -4185.4229 
30612000    109.33505   -5165.5249   -4946.8413   -5165.5249            0    6599.7757    17.887543    22.668189    19.216823    7792.0028    7060.1328    6319.1943    6419.9999   -781.63968   -551.98779   -861.35978   -4196.8536 
30613000    109.12001    -5167.171   -4948.9175    -5167.171            0    7227.7709    17.740843    22.775279    19.198709    7757.2893    6925.1117     7073.778    7684.4229    412.32708   -370.71598   -274.22436   -4131.2245 
30614000    110.38402   -5158.8675   -4938.0859   -5158.8675            0    7220.2456    17.867228     22.58703     19.24726     7767.571    8226.4197    7861.3592     5572.958    -2.871791    326.20728    1097.9641   -4120.1616 
30615000    107.89103   -5162.3155   -4946.5201   -5162.3155            0    7513.0978    17.879344    22.846495    19.014193    7766.9239    6679.3143    7606.7764    8253.2028    1224.3488    926.55725   -474.28734   -4095.4918 
30616000    105.24165   -5171.2112   -4960.7149   -5171.2112            0    6250.0315    17.954166    22.541835    19.245923    7789.2066    5559.4251     6407.498    6783.1713    488.88497   -938.37715   -7.3828337   -4250.7264 
30617000    103.25158    -5172.272   -4965.7561    -5172.272            0    6434.9389    17.793443    22.871578    19.146851    7792.0815    6624.6479    5755.5189    6924.6498    195.16531   -56.291102   -764.00483   -4234.4928 
30618000    106.58699   -5167.7293   -4954.5421   -5167.7293            0    7720.3637    17.968698    22.736986     18.98575    7756.7048    5793.4603    7512.5453    9855.0856   -52.871601    546.39419   -478.67361   -4081.1869 
30619000    110.27109   -5173.6017   -4953.0459   -5173.6017            0    8054.4177    17.849263    22.554501      19.2503    7749.8092     7644.775    8637.7541     7880.724    95.338705     293.0841    123.06059   -4042.7113 
30620000    106.42679   -5165.4617    -4952.595   -5165.4617            0    6027.9558    17.782364    22.969014    19.151618    7822.3512    7133.8231    4920.6595    6029.3846    1001.6584    63.529653    -239.8945   -4264.9199 
30621000    109.06398   -5172.8604    -4954.719   -5172.8604            0    6362.4062    18.005238    22.414483    19.260352    7773.0565     4733.844    7666.4718    6686.9029   -233.55961     -239.188   -743.87449   -4233.4636 
30622000    110.28462   -5158.8694   -4938.2865   -5158.8694            0    7581.7291     17.75192    22.812709    19.157545    7758.2191    8865.0373    7338.0498    6542.1003   -793.54386    -5.865671    395.65597   -4080.4467 
30623000    109.15418   -5167.1546   -4948.8328   -5167.1546            0    6259.7698    17.950831    22.597813    19.205432    7790.6742    6507.4885    6151.6912    6120.1295    1007.9904   -268.03534    765.89638    -4237.604 
30624000    114.81225   -5168.8654   -4939.2267   -5168.8654            0    7675.9017    17.758312    22.796075      19.1843    7766.1847    7490.6439     7516.603    8020.4582    -848.6348   -208.36226   -1521.1812   -4069.8399 
30625000    107.14745   -5154.7576   -4940.4495   -5154.7576            0    5587.6319    17.828283    22.946512    19.112328    7818.7941    5876.3599    5662.8153    5223.7204   -872.94927    465.43442    188.63626   -4303.2969 
30626000    104.83962   -5165.7603   -4956.0681   -5165.7603            0    6425.9124    17.878829    22.530195    19.329647    7786.2427    6649.1384    6782.8618    5845.7368   -294.52203   -236.69057    244.49788   -4226.3778 
30627000    105.90866   -5166.0183   -4954.1879   -5166.0183            0    7094.8498    17.711534    22.945407    19.127354    7773.3251    7051.1975    6843.1851     7390.167     153.4555    156.01047   -1010.3961   -4149.8733 
30628000    104.99092   -5167.4552   -4957.4604   -5167.4552            0    6000.7202    17.984346    22.488758    19.258497    7789.0143    6344.5937    6196.0078    5461.5592   -430.30098    185.46283   -61.580033   -4275.8099 
30629000    113.23235   -5152.7366    -4926.258   -5152.7366            0    7180.6982    17.753899    22.918657    19.078802    7763.0795    6896.3613    7384.9275    7260.8057     624.5657    127.15045   -34.307156   -4113.2841 
30630000      105.165   -5172.7593   -4962.4163   -5172.7593            0    6793.3706    17.992061    22.526762    19.191288    7778.2841     5703.852    6764.0602    7912.1995    32.230878   -350.23395   -152.55235    -4191.788 
30631000    103.80894   -5168.9499   -4961.3192   -5168.9499            0    8258.0086    17.786157    22.851911    19.047994    7742.0128    8541.4017    7234.9751     8997.649    64.905584   -586.21074   -740.21071   -4028.9131 
30632000    112.02754   -5158.8107   -4934.7418   -5158.8107            0     6752.599    17.965712    22.594253    19.174884    7783.5042    6356.3813    7735.1563    6166.2594    546.49767   -27.475772    936.69639   -4168.2244 
30633000    112.64552   -5160.8543   -4935.5494   -5160.8543            0    7939.6991    17.803278    22.667417    19.215077    7754.3277    8940.2342    6934.4519    7944.4113     608.6214    239.76703    971.04503   -4037.6574 
30634000    103.38444    -5165.206   -4958.4243    -5165.206            0    7266.5778    17.754704    22.737114     19.23522    7765.0797    8482.8194    6977.1935    6339.7206    345.81418   -173.14858   -576.27577   -4135.5154 
30635000    106.48524    -5164.936   -4951.9524    -5164.936            0    7897.5332     17.93351      22.5866     19.12998    7748.7327    6884.4776    8543.8855    8264.2364   -1107.9612   -96.462763   -65.097207   -4059.4733 
30636000    110.60411   -5160.9625   -4939.7406   -5160.9625            0    6822.6968    17.738045    22.779342    19.230863    7770.4415    7071.4358    6260.9636     7135.691    1314.5509   -572.06455    1917.5847   -4166.5659 
30637000    108.54389    -5170.975   -4953.8738    -5170.975            0    6976.8798    17.918652     22.66773    19.123283    7767.4024    6202.0293    7141.6307    7586.9794   -156.65542    540.88202    542.31793   -4163.5357 
30638000    108.15972   -5162.2879   -4945.9551   -5162.2879            0    7160.4973    17.820247    22.682306    19.198303    7760.0367     7104.565     7146.444    7230.4828     413.2243    412.51699     213.5332    -4135.586 
30639000    103.71957   -5165.5844   -4958.1324   -5165.5844            0    6693.4457    17.892661    22.777938     19.06449    7769.8839      7318.04    5991.9384    6770.3588   -285.16594   -938.29152     594.3377   -4199.6594 
30640000    112.22549   -5166.9275   -4942.4626   -5166.9275            0    6380.5955    17.859869    22.736037    19.194795    7794.2893     6498.605    5555.0471    7088.1344   -892.04097   -729.55938   -1364.3684   -4217.1694 
30641000    104.22532   -5156.8606   -4948.3971   -5156.8606            0    7680.7841    17.882992    22.681982    19.130006    7759.5456    7481.1654    7073.2594    8487.9274    221.60124   -478.45466      1535.75    -4079.201 
30642000    110.82664   -5169.6386   -4947.9716   -5169.6386            0    6447.0675     17.93477    22.730917    19.082733    7779.5294    4719.1506    6281.3025    8340.7493    205.09784   -313.38425    -353.3048   -4216.5102 
30643000    109.13523   -5171.6873   -4953.4034   -5171.6873            0    6643.4964    17.835642    22.812872    19.121685    7780.2735    6402.1959    6564.4908    6963.8026   -172.20606   -84.145491    -397.6603   -4199.5837 
30644000    112.97534   -5173.2607   -4947.2961   -5173.2607            0    6838.9127    17.856624    22.651032    19.217934    7773.0963    7070.4325    7263.4926     6182.813    46.028286     -612.992    1577.1869   -4172.0189 
30645000    109.66974   -5164.0365   -4944.6835   -5164.0365            0    8731.4953    17.790782    22.785418    19.086044    7736.9173    7870.4419    9005.7052    9318.3387    -468.5645    236.71595   -978.55248   -3959.4652 
30646000    105.63043   -5164.2052   -4952.9313   -5164.2052            0    7011.0073     17.91429    22.564904    19.280117     7793.683    6825.8987    7405.4218    6801.7013   -395.50024    618.42688    874.15911   -4156.0401 
30647000    106.60477   -5175.2758   -4962.0531   -5175.2758            0    6583.6981    17.860464    22.802868    19.090508    7774.9872    6425.0534    7142.5752    6183.4659   -308.69269     332.7717   -478.56013   -4215.5261 
30648000    108.94389   -5165.2676   -4947.3664   -5165.2676            0    8777.6411    17.860765    22.585075    19.159968    7728.8762    9304.5381    8526.8701    8501.5151   -1471.2056   -516.41603    403.29049   -3957.9706 
30649000     114.7433   -5160.7184   -4931.2177   -5160.7184            0    7908.4673      17.7849    22.804233     19.10416    7748.0936    9565.1922    7017.3345    7142.8752   -365.25875   -733.73303   -1121.1493   -4037.5767 
30650000    106.43948   -5166.0983   -4953.2062   -5166.0983            0    7028.6265    18.011253    22.615959     19.08429     7773.828    6057.3237    7484.1212    7544.4347    -134.4804    415.64687    112.29711   -4156.3476 
30651000    110.81788   -5148.9685    -4927.319   -5148.9685            0    7749.6943    17.885276    22.682289    19.144351    7766.4614    8607.4792    6864.2336    7777.3703   -273.33529   -82.866763    -444.8266   -4049.5431 
30652000     109.3545   -5161.1681   -4942.4456   -5161.1681            0    7995.8338    17.841704    22.732039    19.113294    7751.9377    6960.3895    8433.8224    8593.2897     593.3729    8.1840594    1659.3696   -4038.4841 
30653000    106.72979   -5156.4594   -4942.9866   -5156.4594            0    5708.5766    17.830825    22.878268    19.162696    7817.1997    6039.6727    5640.2912    5445.7658   -437.66786   -65.942081   -190.88447   -4292.1755 
30654000    110.19661   -5170.4836   -4950.0768   -5170.4836            0    7165.5443    17.960129    22.599285    19.164897    7778.7647     7801.744    6713.4157    6981.4731    -406.4775    414.74965   -417.60266   -4137.1794 
30655000    103.85744   -5164.3238    -4956.596   -5164.3238            0    6402.0382    17.837445    22.762837    19.196965      7794.56    7921.7312    5692.9567    5591.4267   -993.89785    219.06221    1520.9072   -4228.8401 
30656000    104.59488   -5171.4359   -4962.2332   -5171.4359            0    6703.6014    17.857883    22.631035    19.228472      7771.04    6489.5089    7079.9577    6541.3378    946.71658   -439.27221   -846.58934   -4202.4963 
30657000    112.31394   -5175.7485   -4951.1068   -5175.7485            0    7285.7694    17.736307     22.79076    19.215818    7767.4934    7520.3136    7149.1479    7187.8467   -257.76407   -193.25834   -359.61995   -4125.7681 
30658000     104.8343   -5173.2548   -4963.5733   -5173.2548            0     6389.387     17.91483    22.773882    19.100942    7792.9976    6075.9489    6417.7362     6674.476    17.911077   -203.59779   -364.56786   -4237.4011 
30659000    108.60913   -5175.3246   -4958.0929   -5175.3246            0    6906.5373    17.819172     22.69222    19.217224    7770.6108    7242.5586    6282.5108    7194.5424   -798.11616   -53.211923    798.79482      -4175.4 
30660000    108.08101    -5161.591   -4945.4156    -5161.591            0    6081.1242     17.89478    22.801561    19.108919    7796.9914    6003.7149    5911.5053    6328.1526    810.04501   -625.14706    1418.8181   -4253.9241 
30661000     103.9589   -5169.3472   -4961.4166   -5169.3472            0    6822.7382    17.859289    22.750988    19.165096    7787.0944    6165.6764    6929.6113     7372.927   -55.949839    47.029081    591.16989   -4186.5801 
30662000    110.29127   -5163.9386   -4943.3424   -5163.9386            0     7564.027    17.798551    22.792269    19.123017    7757.6224    6627.6134    7182.6622    8881.8053     85.67484    334.45221   -416.79335   -4087.5713 
30663000    106.67683   -5162.4282   -4949.0614   -5162.4282            0    7607.6655    17.908843    22.740704    19.042118    7755.0873    6864.5454    7616.7081    8341.7429    511.56294    234.16516   -271.54293   -4088.6345 
30664000    108.08183   -5166.8388   -4950.6618   -5166.8388            0    8030.3444    17.689832    22.635358    19.357348    7750.9859    9415.4262    8003.4609    6672.1461    473.85558   -962.90785   -188.92194   -4042.9102 
30665000    104.93883   -5159.0071   -4949.1164   -5159.0071            0     7987.994    17.849469    22.756276     19.04974    7737.7652    7478.7707    7666.5177    8818.6935    647.23311    323.51582    723.68178   -4047.6923 
30666000    115.38555   -5161.0173   -4930.2319   -5161.0173            0     7338.367    17.847742    22.575183    19.299427    7776.0486    7291.9956    8344.9377    6378.1678   -492.29193    1152.2821   -215.47626   -4098.0193 
30667000    109.99472   -5171.4593   -4951.4563   -5171.4593            0    7152.7243    17.873169    22.763453    19.105413    7773.1336    6681.0103    7522.7585     7254.404   -136.95302    317.71157   -576.77724   -4140.6007 
30668000    109.01515    -5156.646   -4938.6022    -5156.646            0      6786.93     17.84965    22.741456    19.153648    7774.9832    6269.7441    7164.4076    6926.6383   -1078.6212   -176.71553   -2202.0898   -4169.0312 
30669000    116.03607   -5161.9675    -4929.881   -5161.9675            0    6452.3905    17.895115    22.536867    19.282421    7776.5973    6961.7609    7271.9987     5123.412   -502.27709    405.55732   -694.11964   -4198.0916 
30670000    107.16784   -5160.5542   -4946.2052   -5160.5542            0    7020.9022    17.867207    22.793557    19.075131    7768.4844     6373.084    7226.7673    7462.8554   -25.115758    193.01557   -983.64034   -4150.7695 
30671000    110.45427   -5160.8211   -4939.8989   -5160.8211            0    7165.3453    17.902159    22.564036    19.250972    7776.3329    7241.4924    7744.6326    6509.9109   -7.4255841     1260.881    770.94035   -4127.2783 
30672000     107.3706   -5168.2927   -4953.5383   -5168.2927            0     7105.096    17.770961    22.878976     19.10007    7765.7331    7617.4738    6941.6003    6756.2138     1450.532    688.59641    561.91096   -4148.8488 
30673000    105.94837    -5175.091   -4963.1812    -5175.091            0    5395.7403    17.985919    22.615775    19.213903     7815.553    5868.4388    5174.1071     5144.675   -544.93214   -560.14364    600.71002   -4348.1648 
30674000    105.00458   -5162.3281    -4952.306   -5162.3281            0    6550.6166    17.912861    22.795298    19.058314     7782.062    7307.9193     5634.052    6709.8786    286.26025   -726.27352     276.9844   -4208.8543 
30675000    107.83842   -5169.3636   -4953.6735   -5169.3636            0    6845.4357    17.808998    22.702773    19.220441    7771.0865    6492.9011    7906.9092    6136.4968    128.89322    303.54748   -463.31586   -4177.8575 
30676000    106.87989   -5164.3375   -4950.5645   -5164.3375            0    7707.1463    17.816934    22.698693    19.187336    7759.7635    7621.3887    7711.3278    7788.7225    253.95726    235.00271   -516.71092   -4078.3607 
30677000    112.95705   -5163.7243   -4937.7963   -5163.7243            0    7466.0195    17.930841    22.586579     19.17322    7765.0843    7380.0263    7755.7554    7262.2769   -114.24865    524.56386   -1152.7179    -4092.301 
30678000    109.04884   -5162.6649   -4944.5538   -5162.6649            0    5358.4736    17.879225     22.82689    19.146073    7814.0311     5606.746    4363.0316    6105.6432   -147.44524   -1802.5579    556.40112   -4333.9041 
30679000    111.42379   -5161.5537   -4938.6924   -5161.5537            0    7068.7723    17.829003    22.705928    19.173317    7761.8202    7323.0236    7259.6992     6623.594    869.14812   -748.61171    352.71078   -4138.5202 
30680000    108.43515   -5158.7337     -4941.85   -5158.7337            0    8229.8766    17.905023    22.691732    19.087254    7755.0749    8536.7101    7116.8097      9036.11    472.08002    271.27976   -584.47563   -4011.0525 
30681000     109.4446    -5176.683   -4957.7802    -5176.683            0    5753.8144    17.913276    22.741495    19.129515    7792.8799    6328.6757    5453.0499    5479.7176   -566.65043    -492.6948   -1387.0099   -4303.8526 
30682000    106.99246   -5158.2123   -4944.2142   -5158.2123            0    7001.2031    17.713985     22.85556    19.229717    7785.4018    9134.0845    6283.6989    5585.8258   -121.89547   -512.06413   -798.73434   -4149.2829 
30683000    103.18692   -5162.1346   -4955.7481   -5162.1346            0    7343.4897    17.943076    22.599416    19.144653     7763.215    7693.5357    7479.9363    6856.9971   -1049.2635   -569.28637   -582.84599    -4124.329 
30684000    108.90242   -5177.5946   -4959.7763   -5177.5946            0    7474.2331    17.820896    22.802416    19.097087    7760.2826    7834.8502    6532.4077    8055.4414     604.5183   -158.18223    616.68492   -4113.8743 
30685000    113.30512   -5162.6399   -4936.0156   -5162.6399            0    7591.0178    17.890174    22.651118    19.174493    7770.1265    8842.6433    7143.6644    6786.7456    40.182169    96.267148    329.51008   -4075.8066 
30686000    110.52917   -5161.4939   -4940.4219   -5161.4939            0     6895.851    17.860839    22.767425    19.125195    7777.1713    7166.2762    6664.0345    6857.2423    912.21593   -1219.0414    311.57753   -4158.2802 
30687000    109.15947    -5169.851   -4951.5186    -5169.851            0    8050.2819    17.811496     22.64916    19.203848    7747.1283    9432.8613    7786.6165     6931.368    506.12953   -493.20134    -379.2568   -4041.9662 
30688000    107.81222   -5154.2238    -4938.586   -5154.2238            0     7639.834    17.845446    22.797737    19.099233    7770.2513    7067.8474     7748.474    8103.1806   -105.05701    763.93099   -705.08257   -4072.8313 
30689000    102.12024   -5166.8857   -4962.6326   -5166.8857            0    6520.9233    17.898553    22.637447    19.221167    7787.9853     6281.117    6342.1387    6939.5141    100.60527   -411.21357    258.29824   -4221.9876 
30690000    110.75006   -5152.8253   -4931.3115   -5152.8253            0    6885.6544     17.79757    22.776639    19.172834    7772.0693    6365.8105    6193.9917    8097.1611   -344.91084   -566.17647   -617.63394   -4150.8387 
30691000    107.98538   -5162.9851    -4947.001   -5162.9851            0    6619.4433    17.934024    22.658725    19.200733    7802.4508    6650.5913    6330.4595    6877.2791   -463.35149   -369.54334    1271.8129   -4193.7697 
30692000    111.04981   -5168.3289   -4946.2156   -5168.3289            0    6158.1438    17.849972    22.878522      19.0987    7799.5456    5831.0521    5587.7203    7055.6588    368.20124    692.75565   -30.217208   -4245.7367 
30693000    111.46744   -5176.6662   -4953.7175   -5176.6662            0    6729.0727    17.942574    22.670509    19.097791    7768.3567    7072.8493    6341.5454    6772.8233   -303.13973   -464.93114    355.51788   -4191.3572 
30694000    110.45922   -5162.9882   -4942.0561   -5162.9882            0    7510.3147    17.849879    22.601723    19.233905    7759.6888    7482.8287    7267.7798    7780.3356    507.96708   -615.64188   -238.54255   -4092.1356 
30695000    103.34627    -5151.439   -4944.7337    -5151.439            0    7389.4655    17.783991    22.873851    19.091388    7766.1546    7860.8778    6656.8167    7650.7019   -484.03813    300.79357    854.44475   -4107.7925 
30696000    108.66764   -5167.2259   -4949.8772   -5167.2259            0     7415.285    17.927291    22.394195    19.303149    7749.5824     7334.826    8261.3167    6649.7122    -200.4043       494.81   -659.68347   -4111.8039 
30697000    105.91143   -5160.7701   -4948.9342   -5160.7701            0    6609.7752    17.725988    22.954776    19.139188    7787.6607     6636.179     5570.478    7622.6687   -1790.9662    -13.76365   -544.36633   -4198.2287 
30698000    104.77427    -5158.925   -4949.3636    -5158.925            0    6711.5039    17.880786    22.648907    19.186939    7770.3315    6453.6001    7131.1516    6549.7601    -361.2094   -754.68368    -1568.277   -4188.8004 
30699000    111.96018   -5163.6324   -4939.6982   -5163.6324            0    7147.4174    17.700384    22.895941    19.156963    7763.6837    7449.5157    7143.7195    6849.0171   -934.75319    61.139611   -787.96378   -4130.4293 
30700000    106.20488   -5167.0684   -4954.6455   -5167.0684            0    5717.0794    18.011701    22.464504    19.287769    7804.2928    5659.4051    6201.4125    5290.4206    1161.0446    270.42736    636.89795   -4303.9412 
30701000    111.22177   -5172.7257   -4950.2685   -5172.7257            0    6452.2535    17.817399    22.874864    19.086544    7779.1137    5494.7093    6366.6053    7495.4461   -620.83664   -79.194741    -405.6459   -4218.2577 
30702000    111.22572   -5172.5574   -4950.0922   -5172.5574            0    7192.6069    17.727956    22.779546    19.234046    7767.3767    8234.2126    6641.9514    6701.6567   -103.69912    157.83743    89.869934   -4135.3193 
30703000    102.96917   -5167.0652   -4961.1141   -5167.0652            0    6079.9569    17.856628    22.696258    19.273398    7811.0965    7131.5018    5727.3683    5381.0004   -1664.6518    512.91615   -657.88162   -4268.5047 
30704000     103.0202   -5172.3527   -4966.2996   -5172.3527            0    6756.2503    17.812335    22.946521    19.028498    7777.5391    6925.5342    5650.0094    7693.2072    -14.09748   -909.01795    -434.4091   -4199.9555 
30705000    104.40553   -5169.2917   -4960.4677   -5169.2917            0    7612.0535    17.918514    22.581832     19.21153    7773.6163    8096.5945    8189.7365    6549.8295    462.68291    1234.6982    406.19024   -4097.4875 
30706000    104.46055   -5167.2094   -4958.2754   -5167.2094            0    6447.2769    17.822109    22.868914    19.114609    7790.5847    7483.1227    5747.8653    6110.8427    103.82333   -4.2093428     151.4616   -4225.7507 
30707000    107.47098   -5162.2853   -4947.3301   -5162.2853            0    7403.2328    17.873279    22.512671    19.316671    7772.5506    6720.7488    8427.1966    7061.7529   -207.89149    222.19924    1626.0456    -4108.139 
30708000    107.05612   -5154.2615    -4940.136   -5154.2615            0    6513.4715     17.89098    22.755571    19.136802    7790.9648    6450.7523    6780.8506    6308.8117    596.82274    1096.2335    -305.4121   -4200.0544 
30709000    109.47919   -5165.7738   -4946.8019   -5165.7738            0    6481.8251    17.844726    22.710052    19.204687    7782.7889    5313.5485    6424.1948     7707.732   -248.16593    150.21468   -563.15192   -4211.0889 
30710000    113.61237   -5164.5025   -4937.2637   -5164.5025            0    7982.1434    17.686434    22.757174    19.226711    7738.6215    7947.8534    7745.5015    8253.0751    320.32543    351.67273    54.507304   -4036.4002 
30711000    107.19043   -5161.6464   -4947.2523   -5161.6464            0    6826.1475    17.874701     22.74709    19.132328    7779.1551    5576.4448    7385.8034    7516.1943   -38.988591   -533.97121    110.25014    -4172.819 
30712000    108.68602     -5169.24   -4951.8545     -5169.24            0    6852.2264    17.911726    22.689676    19.177769    7794.0615     7236.523    6811.1924    6508.9639    399.82288    373.87757    736.30737    -4172.973 
30713000     107.6944   -5164.4728   -4949.0707   -5164.4728            0     6676.959    17.941415    22.751346    19.062234    7781.0389    6642.0363    6130.8309    7258.0099    -454.8811    395.63134   -1330.1512   -4191.3796 
30714000    109.15027    -5168.962    -4950.648    -5168.962            0     6569.563    17.864435    22.785753    19.107742    7777.8946    6033.0592    6683.7058     6991.924     999.9085   -106.74165    377.68432   -4205.4453 
30715000    111.32794   -5190.7128   -4968.0431   -5190.7128            0    6469.5349    17.870235    22.702853    19.169727    7777.2604     7055.176    6252.7739    6100.6549   -337.02609    329.52566   -684.67476   -4234.2467 
30716000    105.19516   -5159.7125   -4949.3092   -5159.7125            0    7349.3148    17.896525    22.721957    19.106731    7769.6388     7752.926    7171.3097    7123.7087    154.68172   -430.30759   -266.70005   -4116.5421 
30717000    104.00135   -5170.5925    -4962.577   -5170.5925            0    7725.1179    17.821775    22.531291    19.325491    7760.1047     8136.764    8417.8093    6620.7804   -771.60462    64.937379    284.49046   -4088.3009 
30718000    109.79013   -5157.9488    -4938.355   -5157.9488            0    6700.5873    17.757423    22.946043    19.124211    7792.4008    9021.3965    5333.7191    5746.6463    30.501102   -1122.4339    998.97687   -4176.8723 
30719000    108.80053    -5171.775   -4954.1605    -5171.775            0     6978.126    17.910053    22.591196    19.297832    7808.0869    8533.1402    6870.0015    5531.2364    145.00699    643.53182   -597.93703   -4159.5408 
30720000    104.16723   -5171.5497   -4963.2024   -5171.5497            0    7009.1482    17.923307    22.770648    19.030126    7766.6763    6640.2606    7452.0176    6935.1665    1539.0067    1570.5411    795.84372   -4169.2831 
30721000    106.06222   -5166.7013   -4954.5638   -5166.7013            0    6623.6938    17.800429    22.742121    19.208432    7775.9479     6509.448    6600.7735    6760.8599    359.97825    370.68383   -431.06036   -4203.4089 
30722000    104.73998   -5176.9933   -4967.5004   -5176.9933            0    5921.5914    17.881004    22.709252    19.181508    7788.9243     5780.946    5682.6647    6301.1636     66.30671    31.044756    4.3933263   -4294.8462 
30723000    109.91416   -5185.3847   -4965.5428   -5185.3847            0    6220.3314    17.739537     22.89249     19.19699    7795.9395    6976.6469    5397.3209    6287.0264   -108.62006    411.70031   -93.367412   -4258.3173 
30724000    110.44286   -5169.2366   -4948.3372   -5169.2366            0    6940.5943    17.982683    22.617114    19.124067    7778.0712    6439.3201    7062.0436    7320.4194    468.71951    453.42323    574.66232   -4161.0296 
30725000    106.83059   -5169.2492   -4955.5748   -5169.2492            0     6971.269    17.751067    22.771507    19.223981    7770.6893    7111.1212    7216.8764    6585.8094   -640.95695    145.62006   -709.00897   -4165.5381 
30726000    106.04905   -5156.0065   -4943.8953   -5156.0065            0    8672.9616    17.801576    22.508286     19.27091    7721.5254    9764.5019    9102.3934    7151.9894    245.16696   -785.24987    103.00716   -3967.2285 
30727000     112.0573    -5148.657   -4924.5285    -5148.657            0    6512.3732    17.934408    22.776028    19.120909     7810.405    6111.9909    6790.3128    6634.8158   -184.00002    257.56099   -598.05425   -4182.7253 
30728000    112.62481   -5162.8644   -4937.6008   -5162.8644            0    6808.1061    17.892451    22.477566    19.351353     7782.703    6211.4336    7707.0633    6505.8214   -605.98101     652.0736   -1334.0594   -4164.8621 
30729000    114.41536   -5166.2952   -4937.4503   -5166.2952            0     8290.514    17.762503     22.77081    19.165439    7751.7793    9859.4108    7319.2098    7692.9212   -483.21051   -1287.9211   -222.29093   -4000.1932 
30730000    116.88164   -5167.5066   -4933.7289   -5167.5066            0    5912.5906    17.966541    22.651042    19.175693    7803.7567    3977.8424    7120.8294    6639.0999    841.42527    198.65658    1171.4748   -4260.8182 
30731000    111.81017   -5161.8301    -4938.196   -5161.8301            0    7039.4956    17.878846      22.7641    19.123289     7783.099    7273.6329    7021.2158     6823.638   -104.12181     248.9173    557.05084   -4139.1533 
30732000    109.19295   -5163.3919   -4944.9926   -5163.3919            0    6436.9658    17.995303    22.503642    19.194859    7773.1476     6800.408    6001.9704    6508.5191    -312.3023   -1077.9075   -314.00812   -4215.2763 
30733000    105.15699   -5163.3897   -4953.0628   -5163.3897            0    6629.0906    17.623485    23.005029    19.162086    7768.8612    8336.3959    5906.9927    5643.8834   -38.159293   -1398.0675   -45.197127    -4201.981 
30734000    112.83775   -5161.7957   -4936.1063   -5161.7957            0    7513.8748    17.893684    22.459256    19.318389    7763.6517    8301.2975     8475.993    5764.3339   -202.38239   -135.37796    431.33002   -4085.3486 
30735000    103.31466   -5164.9445   -4958.3025   -5164.9445            0    7717.2907    17.795802    22.889972    19.054921    7761.9345    7465.2155    7036.4064    8650.2501    578.75552    251.91015   -181.62146   -4084.7063 
30736000    107.70559   -5170.6604    -4955.236   -5170.6604            0    6387.8338     17.91788     22.56795    19.252225    7785.0189    7188.4401    6527.2945    5447.7668    1.8577479    316.01391   -416.47911   -4229.9836 
30737000    108.81837   -5167.8248   -4950.1747   -5167.8248            0    6445.9815     17.81314    22.746851    19.173709    7769.0494    7020.0904    6827.1403    5490.7136    334.10667   -237.71425    335.17666   -4219.8217 
30738000    112.04605   -5165.0937   -4940.9878   -5165.0937            0    6276.2968    17.869502    22.785211    19.116622    7783.5313    7053.4081    5666.5096    6108.9726     598.6156   -417.11279    1570.1498   -4228.5351 
30739000    108.65723   -5164.4963   -4947.1684   -5164.4963            0    7096.6869     17.88883    22.578423    19.245809    7773.4126    7187.4576    7342.0502    6760.5529   -174.36814    407.06069    -392.7115   -4142.6366 
30740000    111.49067    -5160.988   -4937.9929    -5160.988            0    7331.8118    17.818864    22.816067    19.064087    7750.6263    8414.4304    7273.0836    6307.9214   -422.06927   -60.083637     555.5274    -4109.242 
30741000    106.46696   -5168.3408   -4955.3938   -5168.3408            0    6508.3959    17.882609    22.712812    19.151038    7778.4687    5190.4449    6664.5558    7670.1871   -355.55841   -478.72818   -622.99978   -4217.0749 
30742000    109.39069   -5174.5387   -4955.7438   -5174.5387            0    6588.1933    17.830517    22.743482    19.193067    7783.3268    7181.0569    6475.8891    6107.6338   -637.13825    461.70225   -1432.8338   -4207.9059 
30743000    109.19382   -5156.3499   -4937.9488   -5156.3499            0    7163.7288    17.807728    22.746775    19.198142    7776.5601    6871.7414    6972.4382    7647.0069   -161.03396   -220.28413    1473.4549   -4125.4877 
30744000    107.57913    -5152.882   -4937.7105    -5152.882            0    7160.0358    17.832663    22.772613    19.153675    7778.2372    6582.9052    6074.3033    8822.8988    18.753155   -798.90295    1692.2309   -4125.4931 
30745000    110.03076   -5152.3357   -4932.2606   -5152.3357            0    7576.4039    17.888008    22.519872    19.279307    7766.3923     8726.753     7094.479    6907.9798    481.49161   -1594.3782    1018.7226   -4074.1202 
30746000    107.28186   -5161.9003   -4947.3234   -5161.9003            0    7601.7376    17.794732    22.841292    19.049091    7742.5917    8217.4613    6886.4185     7701.333   -929.68128   -661.16483    -1053.886   -4088.9522 
30747000    105.70561   -5161.9332   -4950.5089   -5161.9332            0    5828.6752    18.078354    22.536907    19.172411    7811.4191    4942.0004    6123.9134     6420.112    1844.0722   -805.36614    2136.1912   -4286.4973 
30748000    110.13434   -5161.6905   -4941.4082   -5161.6905            0    5722.9952    17.810406    22.842517    19.214607    7817.1651     3689.128    6836.4469    6643.4106   -716.61138    1030.1506   -255.57542   -4288.9562 
30749000    106.77089    -5166.119    -4952.564    -5166.119            0    7324.6955    17.948092    22.575967    19.171113    7768.0497    7708.0757    7875.6935    6390.3173    18.826126   -647.99918    354.86742   -4122.7563 
30750000    111.92691   -5159.2883   -4935.4206   -5159.2883            0    5978.8789    17.744997    22.869337    19.251617    7812.6201    8143.0652    5223.0296    4570.5418   -323.84439    203.05124    467.04104   -4254.1929 
Loop time of 443.001 on 64 procs for 250000 steps with 1008 atoms

Performance: 97.517 ns/day, 0.246 hours/ns, 564.333 timesteps/s
195.7% CPU use with 32 MPI tasks x 2 OpenMP threads

MPI task timing breakdown:
Section |  min time  |  avg time  |  max time  |%varavg| %total
---------------------------------------------------------------
Pair    | 36.153     | 41.272     | 49.087     |  39.3 |  9.32
Bond    | 1.0474     | 1.2935     | 2.0103     |  16.3 |  0.29
Kspace  | 210.78     | 222.62     | 234.23     |  34.9 | 50.25
Neigh   | 1.1223     | 1.2607     | 1.4586     |   9.0 |  0.28
Comm    | 67.073     | 76.012     | 82.535     |  43.4 | 17.16
Output  | 0.52998    | 0.53031    | 0.53198    |   0.0 |  0.12
Modify  | 84.694     | 87.591     | 90.718     |  15.0 | 19.77
Other   |            | 12.42      |            |       |  2.80

Nlocal:        31.5000 ave          38 max          26 min
Histogram: 1 2 4 2 6 12 2 2 0 1
Nghost:        2948.47 ave        2969 max        2935 min
Histogram: 3 4 5 5 6 2 3 2 1 1
Neighs:        10687.4 ave       12896 max        8841 min
Histogram: 1 2 4 2 11 6 3 2 0 1

Total # of neighbors = 341997
Ave neighs/atom = 339.28274
Ave special neighs/atom = 2.0000000
Neighbor list builds = 2913
Dangerous builds = 0

unfix		3
unfix		2
unfix		1

write_data	data.final.${pid}
write_data	data.final.0
System init for write_data ...
PPPM initialization ...
  extracting TIP4P info from pair style
  using 12-bit tables for long-range coulomb (../kspace.cpp:340)
  G vector (1/distance) = 0.37930214
  grid = 24 27 32
  stencil order = 5
  estimated absolute RMS force accuracy = 0.0024628782
  estimated relative force accuracy = 7.4168845e-06
  using double precision FFTW3
  3d grid and FFT values/proc = 5355 672
Last active /omp style is kspace_style pppm/tip4p/omp
WARNING: Not all mixed pair coeffs generated from mixing. Use write_data with 'pair ij' option to store all pair coeffs. (../write_data.cpp:312)

write_restart   restart.lmp.${pid}
write_restart   restart.lmp.0
System init for write_restart ...
PPPM initialization ...
  extracting TIP4P info from pair style
  using 12-bit tables for long-range coulomb (../kspace.cpp:340)
  G vector (1/distance) = 0.37930214
  grid = 24 27 32
  stencil order = 5
  estimated absolute RMS force accuracy = 0.0024628782
  estimated relative force accuracy = 7.4168845e-06
  using double precision FFTW3
  3d grid and FFT values/proc = 5355 672
Last active /omp style is kspace_style pppm/tip4p/omp
Total wall time: 0:07:23
