LAMMPS (30 Jul 2021)
  using 1 OpenMP thread(s) per MPI task
package omp 0
using multi-threaded neighbor list subroutines
echo both

include		in.partitions
variable        pid world 0
include		in.temp
variable        temperature equal 249.58
variable	tempDamp equal 100.0
include		in.pressure
variable        pressure equal 5250.0
variable        pressureDamp equal 1000.0 # This is 1 ps
include		in.seed
variable        seed world 745823

units		real
atom_style	full
read_restart	restart.lmp.${pid}
read_restart	restart.lmp.0
Reading restart file ...
  restart file = 30 Jul 2021, LAMMPS = 30 Jul 2021
  restoring atom style full from restart
  orthogonal box = (0.43216798 1.6005681 0.52724392) to (17.775404 22.028610 21.685952)
  4 by 4 by 4 MPI processor grid
  restoring pair style lj/cut/tip4p/long/omp from restart
  restoring bond style harmonic/omp from restart
  restoring angle style harmonic/omp from restart
  864 atoms
  576 bonds
  288 angles
Finding 1-2 1-3 1-4 neighbors ...
  special bond factors lj:    0        0        0       
  special bond factors coul:  0        0        0       
     2 = max # of 1-2 neighbors
     1 = max # of 1-3 neighbors
     1 = max # of 1-4 neighbors
     2 = max # of special neighbors
  special bonds CPU = 0.132 seconds
  read_restart CPU = 0.338 seconds
include 	in.setup
variable	out_freq equal 1000
variable	out_freq2 equal 10000
variable	out_freq3 equal 1000

timestep	2.0

neigh_modify    delay 7 every 1

include		in.tip4p
# This is TIP4P/Ice

# create groups ###
group ox type 2
288 atoms in group ox
group hy type 1
576 atoms in group hy

# set charges - beside manually ###
set group ox charge -1.1794
Setting atom values ...
  288 settings made for charge
set group hy charge 0.5897
Setting atom values ...
  576 settings made for charge

# ### TIP3P Potential Parameters ###
pair_style lj/cut/tip4p/long/omp 2 1 1 1 0.1577 8.5
pair_coeff 1 1*2 0.000 0.000
pair_coeff 2 2 0.21084 3.1668
bond_style  harmonic
bond_coeff  1 450 0.9572
angle_style harmonic
angle_coeff 1 55 104.52
kspace_style pppm/tip4p/omp 1.0e-5
pair_modify tail yes

thermo          ${out_freq}
thermo          1000
thermo_style    custom step temp pe etotal epair emol press lx ly lz vol pxx pyy pzz pxy pxz pyz enthalpy

restart 	${out_freq3} restart.lmp.${pid} restart2.lmp.${pid}
restart 	1000 restart.lmp.${pid} restart2.lmp.${pid}
restart 	1000 restart.lmp.0 restart2.lmp.${pid}
restart 	1000 restart.lmp.0 restart2.lmp.0


include         in.dump
dump            myDump all atom ${out_freq2} dump.water.${pid}
dump            myDump all atom 10000 dump.water.${pid}
dump            myDump all atom 10000 dump.water.0
dump            myDump2 all dcd ${out_freq2} dump.dcd
dump            myDump2 all dcd 10000 dump.dcd
dump_modify     myDump append yes
dump_modify     myDump2 append yes


variable natoms 	equal  "count(all)"                        # NUMBER ATOMS
variable H      	equal  "enthalpy/v_natoms"                 # ENTHALPY-per-atom
variable Vol      	equal  "vol/v_natoms"                 # volume-per-atom
fix AVG all 		ave/time ${out_freq} 1 ${out_freq} v_Vol v_H file vol_enthalpy.dat
fix AVG all 		ave/time 1000 1 ${out_freq} v_Vol v_H file vol_enthalpy.dat
fix AVG all 		ave/time 1000 1 1000 v_Vol v_H file vol_enthalpy.dat


timer           timeout 23:50:00 every 1000
New timer settings: style=normal  mode=nosync  timeout=23:50:00

fix 		1 all shake 1e-6 200 0 b 1 a 1
       0 = # of size 2 clusters
       0 = # of size 3 clusters
       0 = # of size 4 clusters
     288 = # of frozen angles
  find clusters CPU = 0.090 seconds
fix             2 all nph iso ${pressure} ${pressure} ${pressureDamp}
fix             2 all nph iso 5250 ${pressure} ${pressureDamp}
fix             2 all nph iso 5250 5250 ${pressureDamp}
fix             2 all nph iso 5250 5250 1000
fix             3 all temp/csvr ${temperature} ${temperature} ${tempDamp} ${seed}
fix             3 all temp/csvr 249.58 ${temperature} ${tempDamp} ${seed}
fix             3 all temp/csvr 249.58 249.58 ${tempDamp} ${seed}
fix             3 all temp/csvr 249.58 249.58 100 ${seed}
fix             3 all temp/csvr 249.58 249.58 100 745823

run             250000
PPPM initialization ...
  extracting TIP4P info from pair style
  using 12-bit tables for long-range coulomb (../kspace.cpp:340)
  G vector (1/distance) = 0.37405412
  grid = 24 24 25
  stencil order = 5
  estimated absolute RMS force accuracy = 0.00309497
  estimated relative force accuracy = 9.3204101e-06
  using double precision FFTW3
  3d grid and FFT values/proc = 2730 288
Last active /omp style is kspace_style pppm/tip4p/omp
Neighbor list info ...
  update every 1 steps, delay 7 steps, check yes
  max neighbors/atom: 2000, page size: 100000
  master list distance cutoff = 10.8154
  ghost atom cutoff = 10.8154
  binsize = 5.4077, bins = 4 4 4
  1 neighbor lists, perpetual/occasional/extra = 1 0 0
  (1) pair lj/cut/tip4p/long/omp, perpetual
      attributes: half, newton on, omp
      pair build: half/bin/newton/omp
      stencil: half/bin/3d
      bin: standard
Per MPI rank memory allocation (min/avg/max) = 9.240 | 9.243 | 9.251 Mbytes
Step Temp PotEng TotEng E_pair E_mol Press Lx Ly Lz Volume Pxx Pyy Pzz Pxy Pxz Pyz Enthalpy 
17000000    261.08985   -3911.2551    -3463.756   -3911.2551            0    4067.8284    17.343236    20.428042    21.158708    7496.2839    4964.0138    3115.6253     4123.846    324.96645    166.80663    -2176.351   -3019.0382 
17001000    257.00356   -3901.3944   -3460.8991   -3901.3944            0    4993.3157    17.266182    20.337282    21.064702    7396.8112    5660.4074    4982.0789    4337.4609   -1528.2167    1073.8643   -430.53606   -2922.2456 
17002000    250.10479   -3902.3889   -3473.7178   -3902.3889            0    4531.7906    17.242085    20.308898    21.035303    7365.8846    5146.4561    3227.8302    5221.0855    1221.7436    1354.5248   -157.19276   -2986.8953 
17003000     247.4487   -3905.3157   -3481.1971   -3905.3157            0    5524.1653    17.205946    20.266332    20.991214    7319.6658    6907.0559    4887.6408    4777.7993   -10.586066     879.4758   -146.58913   -2891.4935 
17004000    251.11082   -3961.6291   -3531.2338   -3961.6291            0    4892.2666    17.290975    20.366484    21.094949    7428.7203    5305.9817    5774.5844    3596.2336    2759.3983    1194.9852   -343.19323   -3001.2043 
17005000    244.47073   -3902.5307   -3483.5162   -3902.5307            0    5221.4239    17.209174    20.270134    20.995153     7323.787    5502.5052    6408.0056     3753.761   -356.11763     584.9045    313.64586   -2925.8163 
17006000    249.02734   -3893.0055   -3466.1811   -3893.0055            0    5116.7321    17.247909    20.315758    21.042408    7373.3511    5099.5147    5524.6743    4726.0074   -996.07415    1169.5626   -960.04645   -2915.9648 
17007000    248.74377    -3893.677   -3467.3387    -3893.677            0    5710.4787    17.237788    20.303838    21.030061    7360.3796     4319.103    6617.8243    6194.5086    2092.4126    1648.6933   -501.13976   -2854.3554 
17008000    267.46383   -3904.8079   -3446.3841   -3904.8079            0    6512.0918     17.27207    20.344217    21.071885    7404.3809     7041.745    5615.2136    6879.3169    135.74908   -627.65667   -326.17184   -2743.1739 
17009000    258.12116   -3893.0624   -3450.6516   -3893.0624            0    4331.8095    17.288006    20.362988    21.091328    7424.8954    5444.7058    3903.8468    3646.8759   -1508.8721    1192.2546    531.50633   -2981.5839 
17010000    248.20522   -3912.7088   -3487.2935   -3912.7088            0    5547.4969    17.312626    20.391986    21.121363    7456.6614    5831.7544    6684.6901    4126.0462   -815.05909    857.49622   -1033.3306   -2884.0157 
17011000    242.54548   -3888.0262   -3472.3115   -3888.0262            0    4249.1709    17.371958    20.461872    21.193748     7533.589    4451.4273    3605.8607    4690.2246    1138.8926    29.368279   -311.02996   -3005.4566 
17012000    266.60924   -3885.5775   -3428.6183   -3885.5775            0    4332.4157    17.345244    20.430406    21.161157    7498.8872    4495.9984    2554.2373    5947.0113   -351.95446   -1524.4438   -974.89332   -2954.8099 
17013000    261.82518    -3898.154   -3449.3946    -3898.154            0    5345.1707    17.294639      20.3708    21.099419     7433.444    6089.1674    6051.7334    3894.6113   -462.77999    236.15999    1367.9372   -2869.9292 
17014000    240.13273   -3920.5918   -3509.0125   -3920.5918            0    4892.9207    17.297091    20.373688     21.10241    7436.6059    5385.1564    5637.8234    3655.7821    501.65598    796.12976    550.00523   -2978.3495 
17015000    254.44909    -3922.908    -3486.791    -3922.908            0    5946.3653    17.208347     20.26916    20.994143    7322.7305    7188.7138    4421.7208    6228.6612   -1241.0544   -1030.0199    912.45683   -2851.7518 
17016000    254.83465   -3897.5205   -3460.7426   -3897.5205            0    5756.2049    17.205605    20.265931    20.990799    7319.2313    6973.4528    5035.4676    5259.6941    217.58102    -753.0852    644.04334   -2846.3053 
17017000     254.6336   -3922.2679   -3485.8346   -3922.2679            0    5538.8615    17.290747    20.366216    21.094671    7428.4274    5459.4456    5421.2654    5735.8735   -189.58227   -599.91215    1618.0633   -2885.7766 
17018000    235.28694   -3922.9739   -3519.7001   -3922.9739            0    5660.2351    17.234441    20.299894    21.025977    7356.0922     6154.749     5220.216    5605.7405    94.843863    18.977597    626.34859   -2912.4641 
17019000    252.72195   -3915.6457   -3482.4889   -3915.6457            0    5650.2181    17.164296    20.217273    20.940401    7266.6384    6115.2019     4849.849    5985.6035    1374.7511     145.2669    85.456714   -2883.6988 
17020000    244.49556   -3943.2247   -3524.1677   -3943.2247            0    4691.9919    17.222744    20.286117    21.011707    7341.1247    5113.9463    3680.1886    5281.8409   -852.91759    209.51902    74.245129     -3021.83 
17021000    244.40396   -3909.3115   -3490.4115   -3909.3115            0    6240.0188    17.199819    20.259115    20.983739    7311.8495    8845.7556    5776.8813    4097.4194   -1349.6283   -389.65266   -6.1563205   -2825.0019 
17022000    272.41048   -3925.8693    -3458.967   -3925.8693            0    4678.3969    17.238386    20.304541     21.03079    7361.1447    5072.3968    5065.6639      3897.13   -48.658178    75.656335   -1901.0609   -2956.7189 
17023000    236.31099   -3898.9095   -3493.8805   -3898.9095            0    4620.2522    17.238817    20.305049    21.031316    7361.6973    3716.9826    5438.3033    4705.4706    88.854054   -1258.7402    1121.3803   -2997.8373 
17024000    252.02574   -3841.1694   -3409.2059   -3841.1694            0    3239.3694    17.330866     20.41347    21.143616    7480.2542     2836.572    3858.7554    3022.7809    -496.6996   -284.10208    469.53079   -3055.8171 
17025000    253.38257   -3895.4369   -3461.1479   -3895.4369            0    5833.1941    17.303231    20.380921    21.109902    7444.5289    5596.1247    5858.5079    6044.9496    -495.5688   -679.29332    620.96155   -2827.8332 
17026000    256.71237    -3868.139   -3428.1428    -3868.139            0    5545.7398    17.191784     20.24965    20.973936     7301.606    5747.7609    6102.5867    4786.8719    917.77482    1790.1383   -1981.5824   -2837.5967 
17027000    266.00604   -3913.3648   -3457.4396   -3913.3648            0    4369.6446    17.233985    20.299358    21.025422    7355.5092    3630.4668    5069.4104    4409.0564    -226.5072   -326.52001    649.54604   -2988.6966 
17028000    251.64437   -3915.4636   -3484.1537   -3915.4636            0    4633.8242    17.235321    20.300931    21.027051    7357.2193    4964.1092      2481.66    6455.7033    143.16175    1429.2706    1961.9896    -2986.956 
17029000    247.42194   -3929.1789   -3505.1062   -3929.1789            0    4306.7017    17.230472     20.29522    21.021136    7351.0119    7164.6611    3615.4124    2140.0316   -894.47429    389.17318    828.90014   -3043.3977 
17030000    257.81068   -3892.5158   -3450.6372   -3892.5158            0    3898.6019    17.281217    20.354991    21.083045    7416.1515    4618.3631    3736.2214    3341.2211   -2074.8137   -174.66039   -1694.3393   -3028.9762 
17031000    252.74842   -3901.5925   -3468.3903   -3901.5925            0    5860.6673    17.233471    20.298753    21.024795    7354.8512     6296.246    6659.0907    4626.6651    252.66614    217.07027     917.5019   -2839.7578 
17032000    249.62379   -3906.9699   -3479.1232   -3906.9699            0      4350.67    17.223377    20.286863     21.01248    7341.9347    5130.4479    4380.5497    3541.0125    679.50565    380.26486   -929.25734    -3013.277 
17033000    251.78243   -3901.1909   -3469.6444   -3901.1909            0    5110.0185    17.165665    20.218886    20.942071    7268.3776     6540.056    3697.9223    5092.0771   -57.864637   -625.38407    216.51859   -2927.9731 
17034000    241.32704   -3940.0506   -3526.4243   -3940.0506            0    3696.6356    17.188589    20.245887    20.970038    7297.5364    4903.9629    1901.9938    4283.9501   -1341.0649   -959.87263   -374.38737   -3133.0022 
17035000    242.04564   -3938.2767   -3523.4187   -3938.2767            0    6362.3983    17.213728    20.275498    21.000708    7329.6018    7581.8499     5502.349    6002.9959    789.27609    275.44964   -698.71784   -2843.3119 
17036000    242.92566   -3912.4078   -3496.0415   -3912.4078            0    5449.1048    17.147657    20.197675    20.920101    7245.5263    4366.8858    5530.5037    6449.9248    1429.2331     -685.115   -1557.8497   -2920.2424 
17037000    253.83219   -3904.3982   -3469.3385   -3904.3982            0    4182.3828    17.227525    20.291749     21.01754    7347.2403    3691.0399    4825.8519    4030.2565    461.52052   -111.75879    524.83894    -3021.188 
17038000    253.14281    -3913.745   -3479.8669    -3913.745            0    5068.6859    17.209991    20.271096    20.996149    7324.8298    4991.7548    5540.9013    4673.4015   -1889.7294    124.44161     1095.237   -2938.4039 
17039000    243.34031   -3919.0269   -3501.9499   -3919.0269            0    3566.8402    17.316195     20.39619    21.125717    7461.2736     4941.276    4231.5211    1527.7234    672.79113   -728.64991    212.67212   -3113.8242 
17040000    251.50584   -3939.9423   -3508.8699   -3939.9423            0     5434.844    17.216235    20.278451    21.003767    7332.8055     5732.037    4500.9398     6071.555   -10.550924    193.08689    148.95062   -2927.6598 
17041000    242.12348   -3924.7053    -3509.714   -3924.7053            0    4134.2262    17.305052    20.383066    21.112124    7446.8799    4598.7107    2812.0454    4991.9226   -637.11653   -432.76457    1583.3572   -3060.7159 
17042000    243.80741    -3920.673   -3502.7955    -3920.673            0    4394.9973    17.356701    20.443901    21.175134    7513.7563    4973.4648    5365.5865    2845.9405    586.04013    586.81871   -605.19467   -3021.1898 
17043000    243.49846   -3892.8771    -3475.529   -3892.8771            0    6633.4866    17.280818    20.354522    21.082558    7415.6378    5901.0509    6753.1589      7246.25    913.99259    1722.3991    15.836722    -2758.121 
17044000    260.00535   -3929.8968   -3484.2565   -3929.8968            0    5682.1372     17.22377    20.287326     21.01296    7342.4376    7277.1598     6375.199    3394.0529    460.32095   -1769.8486    10.103571   -2875.8023 
17045000    239.14736   -3942.2334   -3532.3431   -3942.2334            0    7107.7682    17.141583     20.19052    20.912691    7237.8296    6839.4574     7932.534    6551.3132   -23.864866    12.409643   -1096.0093   -2782.0732 
17046000    267.09995   -3943.2279   -3485.4278   -3943.2279            0    6022.1776    17.174527    20.229324    20.952883    7279.6406    7219.4584     6379.178    4467.8964    522.39728    2135.7565    478.41849   -2846.0767 
17047000    241.62806   -3920.4122     -3506.27   -3920.4122            0    5494.7283    17.171405    20.225647    20.949074    7275.6714    6311.9775    5016.9981    5155.2093   -281.14595    182.72408    6.8652051   -2923.2342 
17048000    259.99869   -3910.7233   -3465.0945   -3910.7233            0    7261.1681    17.100302    20.141897    20.862329    7185.6648    6748.7121    6370.5733     8664.219   -700.46129    1528.2083    1181.8334   -2704.1564 
17049000     254.8102   -3910.7104   -3473.9744   -3910.7104            0    5546.1402    17.270432    20.342288    21.069887    7402.2749    6321.1836    4074.0803    6243.1566   -21.514994   -1228.0171    1426.8955   -2875.2432 
17050000    254.77204   -3919.9182   -3483.2476   -3919.9182            0    6478.4088    17.146265    20.196035    20.918403    7243.7622    6402.9493     6905.406     6126.871   -264.53672    423.48225   -115.87806   -2798.8501 
17051000     257.4008   -3895.3844   -3454.2082   -3895.3844            0     5978.813    17.155248    20.206616    20.929363    7255.1533    5905.1142    6075.5775    5955.7475    1676.2354   -591.78734   -968.77149   -2821.5962 
17052000    252.49863   -3921.8435   -3489.0695   -3921.8435            0    6053.2423    17.163526    20.216367    20.939462    7265.6611    5226.2321     7321.604    5611.8909   -726.23865    963.08891   -1201.0585   -2847.6545 
17053000    244.86621   -3916.2441   -3496.5518   -3916.2441            0    5438.3163    17.217958    20.280481    21.005869    7335.0074    5949.2957    5693.1629    4672.4902   -109.95931   -1706.4358    272.76483   -2914.7957 
17054000    252.84473   -3890.1295   -3456.7623   -3890.1295            0    3456.9182    17.282621    20.356644    21.084757    7417.9581    3483.5252    2609.6023    4277.6272    52.655173     2015.706   -162.11996   -3082.7814 
17055000    242.66039   -3893.3123   -3477.4007   -3893.3123            0    5759.8648    17.299984    20.377096     21.10594    7440.3384    6002.0228    5335.7261    5941.8455   -442.76981   -264.82617   -893.22197   -2852.3994 
17056000    257.69668   -3877.1827   -3435.4995   -3877.1827            0      5381.05    17.286532    20.361251    21.089529    7422.9958    5196.5235    6803.5977    4143.0289    1159.1153    1190.5077   -2116.4684   -2852.9643 
17057000    253.13379   -3901.0026     -3467.14   -3901.0026            0    6536.8279    17.262528    20.332977    21.060243    7392.1155    7440.1635    5639.0498    6531.2704    899.08458    836.78242   -188.39078   -2762.4279 
17058000    245.07362   -3891.0062   -3470.9584   -3891.0062            0    5679.3602    17.277063    20.350098    21.077977    7410.8044     5826.065    4724.7631    6487.2526    1128.5251    474.00856    -1156.535   -2857.1389 
17059000    248.35647   -3880.3719   -3454.6974   -3880.3719            0    4037.2232    17.257427    20.326969     21.05402    7385.5648    3001.6351    4124.6325    4985.4021    276.30612   -815.46467   -485.86177   -3019.8445 
17060000    240.98136   -3941.2767   -3528.2429   -3941.2767            0    3224.3338    17.287956    20.362928    21.091266    7424.8302    5436.4916    3894.9251    341.58479   -637.13122   -350.59437    758.12549   -3179.1006 
17061000    245.62891   -3914.5223   -3493.5228   -3914.5223            0    5883.8765    17.249219    20.317302    21.044007    7375.0319    5706.0738    6918.5568    5026.9989   -170.79638   -251.52528   -427.24672    -2860.669 
17062000    261.12479   -3925.1482   -3477.5892   -3925.1482            0    4948.3722    17.272273    20.344456    21.072132    7404.6418    4919.1271    4613.8481    5312.1413     172.9514     564.8384   -420.87663   -2943.2189 
17063000    256.52499   -3902.5264   -3462.8513   -3902.5264            0    5725.8023    17.278585    20.351891    21.079834    7412.7633    7418.6134    2816.5567    6942.2368   -283.22448    1270.9996    778.39274   -2843.8489 
17064000    252.07231   -3903.6946   -3471.6513   -3903.6946            0    6595.4143    17.296553    20.373054    21.101754    7435.9122    7914.3591    5318.0778    6553.8058   -442.11146   -1252.5998     -435.798   -2756.4106 
17065000    241.73126   -3938.3745   -3524.0554   -3938.3745            0    4964.4716     17.29651    20.373004    21.101702     7435.857    5036.4885    5441.3376    4415.5887    914.10499    76.030807   -677.91364   -2985.6865 
17066000    264.07192    -3886.201   -3433.5907    -3886.201            0    4390.4569    17.237715    20.303751    21.029972    7360.2859    3887.2292    4858.0076     4426.134    462.75736   -1001.7521   -814.74185   -2962.3093 
17067000    241.53801   -3929.8092   -3515.8214   -3929.8092            0    5319.1216    17.200513    20.259932    20.984585     7312.734    5682.5052     4090.089    6184.7707   -310.13342    406.69371   -1088.0914   -2948.5438 
17068000    242.61552   -3900.3561   -3484.5214   -3900.3561            0    5104.5845    17.164761    20.217822    20.940969    7267.2298    6217.6835    5569.5833    3526.4866   -77.843034   -307.51114   -102.42001   -2943.5116 
17069000    238.16905   -3929.5591   -3521.3455   -3929.5591            0    6125.4592    17.194738    20.253131    20.977541    7305.3716    5452.1767    6876.5765    6047.6243   -731.81252    763.53113    1054.1406   -2868.7308 
17070000    245.15304    -3909.669   -3489.4851    -3909.669            0    1779.1871    17.329434    20.411784    21.141869    7478.4009    1301.8906    1888.0695    2147.6011   -1081.0647    101.11965     -104.583   -3295.4384 
17071000    242.44752    -3905.742   -3490.1953    -3905.742            0    5807.3686    17.298876    20.375791    21.104589    7438.9094     5326.456    5501.6668     6593.983     813.5826   -1179.5873    -942.8052   -2860.1605 
17072000    251.19849   -3842.7586    -3412.213   -3842.7586            0     5299.329    17.330623    20.413185     21.14332    7479.9403    6152.0269    3537.4125    6208.5476   -108.45885    285.77844    -2029.478   -2834.1237 
17073000    234.55182   -3895.7886   -3493.7748   -3895.7886            0    7364.8883    17.195359    20.253862    20.978298    7306.1631    8603.2012    7357.5067    6133.9571    604.68404   -1915.4048    423.03609   -2709.0247 
17074000    246.24715   -3888.5412    -3466.482   -3888.5412            0    5162.4175    17.322173    20.403232    21.133011    7469.0042    6705.5981    3024.1037    5757.5506    385.33595   -55.525459    100.18899   -2904.1514 
17075000    249.81667   -3886.0727   -3457.8954   -3886.0727            0    5456.3294    17.332171    20.415007    21.145208    7481.9439    3651.5067     4580.063    8137.4185   -284.13469    1116.8013   -303.92308     -2862.52 
17076000    247.37497   -3921.8331   -3497.8409   -3921.8331            0    4924.8918    17.295791    20.372158    21.100825    7434.9303     5769.344    4608.7888    4396.5425    269.12795     118.3724    466.10506   -2963.8307 
17077000    246.49742   -3946.8435   -3524.3553   -3946.8435            0    5619.4392    17.157287    20.209017    20.931849    7257.7399    6049.0322    5290.6385     5518.647   -115.16224   -1057.3289   -989.80865   -2929.5563 
17078000    251.91222   -3885.9111   -3454.1422   -3885.9111            0    4435.8983    17.184846    20.241479    20.965472    7292.7706    4486.5146    5417.0624     3404.118    161.49852    1017.8108   -428.71072   -2982.3508 
17079000    250.46697   -3931.9169    -3502.625   -3931.9169            0     4847.391    17.211949    20.273402    20.998537    7327.3293    6042.8526    3167.3825    5331.9379   -855.27494    620.40928    929.76563   -2984.6252 
17080000    259.79302   -3896.5562   -3451.2799   -3896.5562            0    6270.3956     17.26763    20.338987    21.066468    7398.6722    6157.7976    4595.8766    8057.5126   -951.34861    -581.7447   -1122.6964   -2774.6914 
17081000    243.85024   -3905.7322   -3487.7813   -3905.7322            0    5918.1438    17.202165    20.261878    20.986601    7314.8417    4918.3567    5513.2927     7322.782   -633.04708   -734.75707   -1235.7871   -2856.4369 
17082000    247.19093   -3930.4337   -3506.7569   -3930.4337            0    4941.6403    17.169579    20.223496    20.946846    7273.3502    5625.2766    3702.8829    5496.7614     357.5195   -1609.3027    1044.1031   -2982.5757 
17083000    232.60806   -3896.5022     -3497.82   -3896.5022            0    5605.9825     17.21393    20.275736    21.000955    7329.8603    4102.2045    6295.8663    6419.8766    1443.5397    97.992115    -948.2666   -2898.5489 
17084000    254.56248   -3847.4501   -3411.1387   -3847.4501            0    7341.6304    17.208964    20.269887    20.994896    7323.5188    7489.3055    7500.6586    7034.9273   -205.70364   -20.010337   -916.78455   -2627.0085 
17085000    249.73753   -3884.8943   -3456.8527   -3884.8943            0    7141.3183    17.148626    20.198816    20.921284    7246.7549    7938.5673    5553.5118    7931.8759   -384.89212   -3077.1991   -616.13483   -2702.1119 
17086000    260.47348   -3926.8537    -3480.411   -3926.8537            0    5579.8756     17.21098    20.272261    20.997355    7326.0923    6344.8508    4830.3094    5564.4666   -81.638805   -730.96187   -270.72748   -2884.2374 
17087000    246.70412   -3926.1683   -3503.3259   -3926.1683            0    5052.6847    17.223567    20.287087    21.012712    7342.1779    7518.7559    3977.2052     3662.093    581.73392    780.82904    281.62867   -2962.2939 
17088000    251.45462   -3899.9641   -3468.9795   -3899.9641            0    4251.4934    17.322297    20.403378    21.133162    7469.1647    4322.0581    2838.5955    5593.8265   -261.34613   -283.63133    1399.0144   -3005.8639 
17089000    242.25348   -3927.6368   -3512.4226   -3927.6368            0    7534.6606    17.144059    20.193437    20.915712    7240.9668    6998.9377    8120.8566    7484.1876    403.47542   -1602.4824    1355.3425   -2716.7468 
17090000    249.48883   -3911.5832   -3483.9679   -3911.5832            0    4928.5923    17.247443     20.31521    21.041841    7372.7544    5526.0784    5553.5827    3706.1158    514.11212    78.740677     802.8274   -2954.0256 
17091000    252.50508   -3958.8474   -3526.0623   -3958.8474            0    4386.2303    17.128038    20.174566    20.896166    7220.6853    5935.9101     3698.447    3524.3337     178.5669    398.93553    300.57615   -3064.1647 
17092000    268.02277   -3939.7644   -3480.3826   -3939.7644            0    6339.8933    17.201684    20.261312    20.986015    7314.2281    5978.4868    7481.8501    5559.3428    875.63885    -1196.938   -1642.7725   -2804.1029 
17093000    239.25081   -3918.7981   -3508.7304   -3918.7981            0    4240.8081    17.245523    20.312948    21.039498    7370.2918     4445.237    5148.4933    3128.6939    28.273395    36.456696     455.4538   -3052.8938 
17094000      244.842   -3926.6106   -3506.9598   -3926.6106            0    5483.3158    17.155834    20.207306    20.930077    7255.8963     4232.483    6067.1212    6150.3433   -1067.3015   -29.945379   -46.600242   -2926.7164 
17095000    246.41981   -3942.9867   -3520.6316   -3942.9867            0    4190.0726    17.300188    20.377336    21.106189    7440.6018    4106.1931    5489.9457    2974.0789   -689.89701    160.36871    545.27661   -3065.9519 
17096000    252.70668   -3915.1528   -3482.0222   -3915.1528            0    3769.6982    17.274958    20.347619    21.075408    7408.0958    3351.8118    3892.7436    4064.5393   -806.53669   -1213.3001    726.23399   -3074.7459 
17097000    253.85073   -3927.2862   -3492.1947   -3927.2862            0     6477.376     17.22329     20.28676    21.012373     7341.823    5863.8637    7920.6989    5647.5655   -416.22671   -318.35415    629.17349   -2798.6429 
17098000    237.75948    -3942.566   -3535.0544    -3942.566            0    4440.9339    17.201395    20.260971    20.985662    7313.8593    4059.4615    4454.3018    4809.0385   -385.01001   -583.87927    -618.3691   -3061.3616 
17099000    244.01747   -3906.3094   -3488.0718   -3906.3094            0    4998.3049    17.225634    20.289521    21.015233     7344.821    6997.1134    4857.6248    3140.1766    377.04088   -664.33763   -83.189815     -2952.67 
17100000    242.84632   -3925.0529   -3508.8226   -3925.0529            0     7024.578    17.161205    20.213633    20.936631    7262.7143    7304.3335    5732.5623    8036.8384   -59.083383    399.01282   -532.15618   -2764.7847 
17101000    237.90578   -3919.9087   -3512.1464   -3919.9087            0    7453.7758    17.123263    20.168942     20.89034     7214.648    7547.2113    7444.1965    7369.9196   -636.75484   -495.75906   -175.43021   -2727.8732 
17102000    242.84029   -3894.8735   -3478.6535   -3894.8735            0    4296.6499    17.250748    20.319102    21.045872    7376.9928    4402.4441    3010.7147    5476.7911   -284.46254    2968.8968   -638.24021   -3016.3947 
17103000    245.51608   -3893.0278   -3472.2217   -3893.0278            0    4106.1575    17.256208    20.325533    21.052533    7383.9994    4986.3209    3037.3139    4294.8378    126.88645    1428.0267    534.40966   -3030.0375 
17104000     252.1264   -3911.4481   -3479.3121   -3911.4481            0    5977.4548    17.158988    20.211021    20.933925    7259.8993    4713.0282    7106.0031    6113.3331   -2351.6795    262.43053    1607.3672   -2846.4301 
17105000    244.96664    -3872.701   -3452.8366    -3872.701            0    6381.2609    17.197614    20.256518    20.981049    7309.0373    5218.0139     7764.337    6161.4319    1623.8577   -322.58341    306.86252   -2772.6272 
17106000     238.9642   -3936.7516   -3527.1752   -3936.7516            0    5429.6732    17.248755    20.316755    21.043441    7374.4364    5934.8476    4504.3828    5849.7892    1219.2911   -1131.3124     1123.293   -2943.2215 
17107000    250.88309   -3942.7986   -3512.7936   -3942.7986            0    5923.8396    17.226776    20.290866    21.016626    7346.2819    6312.2016    5570.2452    5889.0719    309.45935   -1976.5082   -579.18487   -2878.1254 
17108000       240.04   -3894.7758   -3483.3554   -3894.7758            0    5247.3057      17.2799     20.35344    21.081438    7414.4555    5339.7517     4539.023    5863.1424    1052.8355    1685.4268   -167.08438   -2915.9526 
17109000    241.50715   -3906.1809   -3492.2459   -3906.1809            0    2696.0433    17.266599    20.337773     21.06521    7397.3469    512.06538    4377.8148    3198.2498    2080.2848    -729.8328    311.26519   -3201.3894 
17110000    249.99935    -3914.247   -3485.7567    -3914.247            0    6357.4717    17.172642    20.227104    20.950583    7277.2438    5930.4925    7720.3057     5421.617    181.17081    1760.8648   -1033.8714    -2811.031 
17111000    263.06041    -3930.006   -3479.1295    -3930.006            0    5071.0953    17.266464    20.337614    21.065046    7397.1741    5670.2392    3731.8422    5811.2047   -348.79321     586.9342   -576.26758   -2932.0587 
17112000    247.42726   -3917.0984   -3493.0166   -3917.0984            0    3604.6449    17.314921    20.394689    21.124163    7459.6267    3577.8165    4922.2342    2313.8841   -291.26169    375.82098   -380.37355   -3100.8636 
17113000    245.03169   -3914.6549   -3494.6789   -3914.6549            0    6396.1078    17.227662    20.291911    21.017708    7347.4163    7073.0465    6469.1499    5646.1271   -508.71553    316.69084   -441.56158    -2809.307 
17114000    257.35708   -3889.2211   -3448.1199   -3889.2211            0    4965.9963    17.277544    20.350665    21.078564    7411.4235    4123.9705    5744.4483    5029.5701    526.16697    1238.2906    486.33604   -2911.3553 
17115000    244.67455   -3871.1745   -3451.8107   -3871.1745            0    4715.8075    17.274272     20.34681    21.074571    7407.2128    5874.9735    3933.3993    4339.0498   -413.38382    73.604772    719.71744    -2942.378 
17116000    245.56179   -3926.4188   -3505.5343   -3926.4188            0    6049.6622    17.225692    20.289589    21.015303     7344.895    6176.9869    7182.8303    4789.1694    561.45998    2119.7892    167.20559   -2857.5081 
17117000    240.57492    -3950.533   -3538.1958    -3950.533            0    5832.6797     17.22581    20.289729    21.015448    7345.0461      5891.35    4866.4071    6740.2821     1487.937   -858.71879   -616.39719   -2913.3993 
17118000    243.10461   -3934.6092   -3517.9363   -3934.6092            0    4586.9392    17.231611    20.296562    21.022525    7352.4699    5113.4798    3817.6554    4829.6824   -1117.3543    774.20555     -131.812   -3026.0869 
17119000    252.71299   -3920.4081   -3487.2667   -3920.4081            0    4139.9329    17.314633    20.394351    21.123812    7459.2556    5538.3918    4796.0996    2085.3073   -744.29516     212.5183    962.39099   -3036.9017 
17120000    238.92039   -3921.1938   -3511.6924   -3921.1938            0    4123.9395    17.303541    20.381286     21.11028    7444.9287    2831.6748    4923.7166    4616.4271   -249.59177    552.43341    605.98614   -3063.9289 
17121000    233.45607   -3911.9972   -3511.8615   -3911.9972            0    4462.2683    17.268603    20.340134    21.067656    7399.9236    5417.8516    3469.9403    4499.0129   -314.60821    173.40983   -415.34775   -3030.2921 
17122000    250.17572   -3895.1794   -3466.3867   -3895.1794            0    5056.8345    17.326792    20.408672    21.138645    7474.9804    6641.3276     4075.377    4453.7991   -928.10373    1336.8178   -415.94365   -2915.1163 
17123000    246.98848   -3962.1711   -3538.8413   -3962.1711            0    5867.7587    17.209638     20.27068    20.995718    7324.3786    6581.1569     3877.194    7144.9252    521.54451   -1582.9105    703.70005   -2912.0559 
17124000    261.18497    -3924.511   -3476.8489    -3924.511            0    4375.5563    17.301165    20.378487    21.107381    7441.8627    6287.5391    4606.8729    2232.2569    325.99541    202.36108   -171.51734   -3001.9613 
17125000    256.00245   -3910.1454    -3471.366   -3910.1454            0    5762.5986    17.230496    20.295249    21.021165    7351.0428    6960.4791    6151.7019    4175.6149   -284.62812    687.46423   -1497.0205   -2853.5727 
17126000    252.84279   -3934.8368   -3501.4729   -3934.8368            0    7357.8122    17.183996    20.240477    20.964435    7291.6879    7368.7811    6581.8604    8122.7951    558.95999    82.212425   -1789.7537     -2719.03 
17127000    242.69446   -3912.9561   -3496.9861   -3912.9561            0    5189.0307    17.252518    20.321187    21.048032    7379.2641     4710.811    6388.5932    4467.6879    326.80598    137.87175   -888.61765   -2938.5479 
17128000    251.94486   -3908.2203   -3476.3954   -3908.2203            0     6002.584    17.162696    20.215389    20.938449    7264.6071    6656.2919    6231.1555    5120.3047   -161.42491    2390.4301   -471.02947   -2840.4406 
17129000    260.79839   -3889.0538   -3442.0543   -3889.0538            0    4666.3278    17.216561    20.278835    21.004164    7333.2218     4354.677     5278.101    4366.2055    21.439583   -178.85798   -1439.2848   -2943.0021 
17130000    243.65811   -3937.4243   -3519.8026   -3937.4243            0    3936.9139    17.232303    20.297377     21.02337    7353.3559    3086.1377    5812.1935    2912.4105    703.76333    477.33613    748.01577   -3097.6034 
17131000    236.72085   -3924.2839   -3518.5524   -3924.2839            0    5076.3132    17.191728    20.249584    20.973868    7301.5349    5830.0033    5063.3818    4335.5546   -1220.3955    -287.7277   -564.26599   -2977.9992 
17132000    250.82138   -3874.5298   -3444.6305   -3874.5298            0    5949.9694    17.204023    20.264067    20.988868    7317.2119    5789.6675    4933.8533    7126.3875   -362.19794    1580.2248   -1264.0474   -2809.6853 
17133000    247.53289   -3923.6615   -3499.3986   -3923.6615            0    5410.0615    17.185656    20.242433    20.966461    7293.8019    4529.5599    5844.5683    5856.0563    383.88997    209.20735    -471.8244   -2923.9162 
17134000    234.21905    -3924.962   -3523.5186    -3924.962            0     5077.517    17.135072    20.182851    20.904747    7229.5848    4405.6799    7552.5453    3274.3257    318.79985   -671.48555   -1019.6746   -2988.1651 
17135000    233.49635   -3939.5195   -3539.3147   -3939.5195            0    6465.9894    17.169256    20.223116    20.946452    7272.9402    6427.5255    5812.7744    7157.6684   -86.857594    295.16632   -477.26807   -2853.4778 
17136000    253.52603   -3939.2122   -3504.6772   -3939.2122            0    5611.9474    17.109118    20.152281    20.873084    7196.7834    6133.8944    5305.5178    5396.4301    1032.9052    269.83748    1084.9263   -2915.6601 
17137000    236.30667   -3927.5092   -3522.4877   -3927.5092            0    5013.8732    17.187431    20.244523    20.968625    7296.0611    4005.5436     6668.261    4367.8149     627.1737   -1023.3197    648.54525   -2988.9837 
17138000    255.67725      -3932.5   -3494.2779      -3932.5            0    5724.3324    17.124558    20.170468    20.891921    7216.2858    5517.6411    5631.5791    6023.7769   -514.31267   -548.72339    1110.3189    -2891.837 
17139000    241.40291   -3972.9814   -3559.2251   -3972.9814            0    4586.5322    17.169107    20.222941    20.946271    7272.7512    5084.8229    3577.5989    5097.1748   -341.58144   -55.583841    1607.3655   -3072.7517 
17140000    249.66311   -3941.9187   -3514.0047   -3941.9187            0    5773.7057    17.192199     20.25014    20.974443    7302.1359    6553.0727    5186.5208    5581.5236    362.20614   -918.52102     265.7251   -2899.1388 
17141000    239.96345   -3949.5258   -3538.2367   -3949.5258            0     5768.978    17.157695    20.209498    20.932347    7258.2577    4178.9288    7967.4905    5160.5147    1007.9521   -344.15991    636.35841   -2927.5659 
17142000    233.18932   -3916.0363   -3516.3577   -3916.0363            0    5676.9527     17.21494    20.276926    21.002187    7331.1508    7245.5609    4108.2484    5677.0487   -367.43422   -1148.5475    -64.66539   -2909.3932 
17143000    239.63504   -3924.9008   -3514.1746   -3924.9008            0    3663.1355    17.185116    20.241796    20.965801    7293.1134    3036.3918    3959.2836    3993.7311   -1535.4246    -185.9259    247.86473    -3124.554 
17144000    252.05446   -3943.2314   -3511.2187   -3943.2314            0    3700.2913    17.178488     20.23399    20.957715    7284.6787    1542.5112    4153.8823    5404.4806    1190.7209    842.36529    1536.6963   -3118.1013 
17145000    263.09328   -3915.5566   -3464.6237   -3915.5566            0     7411.578    17.090471    20.130317    20.850335    7173.2782    6888.8171    7528.7065    7817.2106   -425.06169    292.23791   -821.11093   -2689.2622 
17146000    246.22776   -3951.8813   -3529.8554   -3951.8813            0    5465.1453    17.154775    20.206059    20.928786    7254.5535    5926.3099    5373.9045    5095.2214    2022.8817    849.35451   -3306.6137   -2951.6418 
17147000    242.91511   -3961.0275   -3544.6793   -3961.0275            0    2783.1088    17.226693    20.290769    21.016525    7346.1762    281.80692    4117.8462    3949.6733    661.55932    1919.0192   -285.53775   -3246.5069 
17148000    233.39872    -3942.925   -3542.8875    -3942.925            0    5934.0132    17.216262    20.278482    21.003799     7332.839    7166.6823    6163.0117    4472.3457    321.76022    425.95402   -308.16315   -2908.2927 
17149000    262.13765   -3913.5882   -3464.2932   -3913.5882            0    4713.4856      17.2297    20.294311    21.020194    7350.0238    5082.7755    5056.5542    4001.1272    829.74552   -464.55321   -178.14833   -2959.0426 
17150000    235.33797   -3903.2999   -3499.9386   -3903.2999            0    3730.6035    17.220254    20.283185     21.00867    7337.9417    2685.9904    3863.6632    4642.1568    1050.4333    749.63157    649.15083    -3100.703 
17151000    257.30532   -3929.1112   -3488.0987   -3929.1112            0    4813.2571    17.261346    20.331586    21.058802    7390.5983    5242.8302    3536.5444    5660.3968   -215.11397   -203.87636   -85.110703   -2969.3052 
17152000    234.64588   -3926.2783   -3524.1033   -3926.2783            0    5751.8075    17.139523    20.188095    20.910179    7235.2212    7266.2588    3282.5036    6706.6603    297.77013   -477.66598    260.83803   -2917.1824 
17153000     252.1888   -3938.7157   -3506.4727   -3938.7157            0    5621.9884     17.20084    20.260318    20.984985    7313.1517    5331.3255    5019.4524    6515.1873    627.98645    216.60386    517.84497   -2906.8606 
17154000    241.27812   -3961.0685    -3547.526   -3961.0685            0    4485.6855    17.260122    20.330144    21.057309    7389.0259    3336.2197    5622.0074    4498.8295   -846.04826    1234.3842    774.59076   -3064.1424 
17155000    242.72995   -3937.2445   -3521.2137   -3937.2445            0    4092.3935    17.299957    20.377065    21.105908    7440.3042    4562.8177    4241.7337    3472.6292   -38.781743    582.65432    1956.7035   -3077.1513 
17156000    229.54554   -3963.7008   -3570.2676   -3963.7008            0    6432.0978    17.221509    20.284663    21.010201    7339.5466    6285.3929    6870.0271    6140.8735   -835.91397    999.87269    775.15939   -2881.7774 
17157000    248.60039   -3964.6223   -3538.5297   -3964.6223            0    3513.5751    17.244236    20.311433    21.037928    7368.6426    3354.5165    3442.9986    3743.2102    619.44925    805.67161    448.04588   -3160.9466 
17158000    242.80724   -3951.1459   -3534.9826   -3951.1459            0    6359.0731    17.168443    20.222158     20.94546    7271.9071    7525.0924    6982.8694    4569.2576     282.8754   -1045.0675   -307.61248   -2860.5819 
17159000    250.58138   -3940.7078   -3511.2199   -3940.7078            0     6385.609    17.202622    20.262416    20.987158     7315.424    7619.7239    5683.6769    5853.4262   -261.05269    3.0157859   -1023.1595   -2829.9523 
17160000    259.15019   -3919.9785   -3475.8039   -3919.9785            0    8250.3723     17.12806    20.174592    20.896193    7220.7133    7238.6178     9274.267     8238.232   -82.324205    886.66677   -1345.5625   -2606.9845 
17161000    256.98726   -3984.1711   -3543.7037   -3984.1711            0    5060.1133    17.169022     20.22284    20.946166    7272.6424     5865.309    2793.7357    6521.2952   -677.95216     989.3445   -1156.5354   -3007.0077 
17162000    248.90946   -3955.6225   -3529.0002   -3955.6225            0    4761.4257    17.255379    20.324557    21.051522    7382.9361    4419.4492    4895.0561    4969.7718    -820.9648    1205.0063   -421.83899   -3016.3254 
17163000     262.4475    -3938.575   -3488.7489    -3938.575            0    5840.2378    17.193706    20.251915    20.976281    7304.0559    4452.9091    6483.9114    6583.8928    345.08396    848.32354     513.4541   -2866.6342 
17164000     245.6056   -3930.0224   -3509.0628   -3930.0224            0    5012.3948    17.248952    20.316987    21.043681    7374.6889    4028.8201    5513.6502    5494.7141    311.77321     1044.193   -676.91093   -2969.9683 
17165000    251.39932   -3945.3666   -3514.4767   -3945.3666            0    3898.1439    17.231748    20.296723    21.022692    7352.6445    4295.2736    2803.0058    4596.1523    798.70163    1084.0603   -1194.2854   -3096.4757 
17166000    250.66333   -3916.0502   -3486.4218   -3916.0502            0    5605.3022    17.248814    20.316824    21.043513    7374.5122    6203.5049    5157.5807    5454.8209   -1793.2949   -543.69626    70.426312   -2883.5733 
17167000     241.0962    -3939.205   -3525.9744    -3939.205            0     5292.725    17.225634    20.289521    21.015233    7344.8209    5806.6576    5334.5342    4736.9834   -789.14399   -1348.3324   -1278.0741   -2959.0353 
17168000    261.02499   -3907.4459    -3460.058   -3907.4459            0    4781.4302    17.197001    20.255795    20.980301    7308.2555    4362.1052    3776.4122    6205.7731   -718.33492    1216.8406    210.44751   -2950.4369 
17169000    258.94052   -3901.8548   -3458.0397   -3901.8548            0    4554.3195    17.215569    20.277666    21.002954    7331.9539    4858.6344    4641.6845    4162.6397    761.09499    -868.2215   -866.96983   -2971.0507 
17170000     251.7638   -3916.1096   -3484.5951   -3916.1096            0    6144.1026    17.201839    20.261494    20.986203    7314.4256    6120.5201    5808.9497     6502.838   -465.96966   -784.73523    753.11617   -2829.1828 
17171000    240.22852   -3900.4361   -3488.6926   -3900.4361            0    5311.7728    17.232788    20.297948    21.023961    7353.9758    4286.7682    5917.8075    5730.7426    464.20458   -1112.1404    870.61092    -2919.004 
17172000    250.90048   -3927.5686   -3497.5338   -3927.5686            0    6470.5464     17.20447    20.264593    20.989413    7317.7825    6260.9976    6075.3915    7075.2502    1405.4934   -348.61943   -586.20303   -2806.9818 
17173000    243.65112   -3920.3376   -3502.7279   -3920.3376            0    5985.9889    17.219166    20.281903    21.007342    7336.5506    4580.2274    6619.0343    6758.7049   -56.998783   -923.77346    797.45246   -2862.2507 
17174000    237.72657   -3934.7784   -3527.3232   -3934.7784            0    4894.6418    17.235243    20.300839    21.026956    7357.1195    5363.2363    4935.7989    4384.8904    84.184871   -24.097616   -315.61035   -3002.1475 
17175000    238.49444   -3878.5081   -3469.7368   -3878.5081            0    5712.9459    17.170794    20.224928    20.948329    7274.8954    5987.5496    4831.5764    6319.7115    346.90747    655.24403   -916.84728    -2863.611 
17176000    245.28547    -3923.707   -3503.2961    -3923.707            0    5567.6762     17.13592     20.18385    20.905782    7230.6585    5853.1829    4732.3598    6117.4861   -770.97399   -727.25247     89.49451    -2916.175 
17177000    264.19238   -3925.5476   -3472.7309   -3925.5476            0     4991.743    17.135951    20.183887     20.90582    7230.6977     5245.693    4317.1413    5412.3946    1625.1688   -659.36233   -2014.4247   -2946.3401 
17178000    254.99109   -3916.0535   -3479.0075   -3916.0535            0    6255.4737    17.185739    20.242531    20.966562    7293.9072    5239.4372      5443.21     8083.774    195.95817   -291.19809   -259.95445   -2813.5868 
17179000    251.66091   -3905.0788   -3473.7406   -3905.0788            0    5497.4971    17.210278    20.271434    20.996499     7325.196    7730.9092    4252.7296    4508.8526    461.96283    762.75326   -249.04789   -2886.4404 
17180000    242.56212   -3908.9711    -3493.228   -3908.9711            0    4376.7144    17.198656    20.257745     20.98232    7310.3658    3272.0345    3935.1442    5922.9646   -562.09478    862.05374    848.73383   -3026.6081 
17181000    265.25381   -3902.2365   -3447.6005   -3902.2365            0    7318.8122    17.102981    20.145053    20.865597    7189.0422    7251.2558    7735.4547    6969.7262   -334.86318    47.070206   -925.61803   -2680.2611 
17182000    255.96968   -3871.9636   -3433.2403   -3871.9636            0    5301.1398    17.250304     20.31858    21.045331    7376.4239    5177.3507    4872.3651    5853.7038   -198.70204    1059.8773    1098.5271   -2862.9565 
17183000    251.06003   -3934.0395   -3503.7312   -3934.0395            0    6806.7561    17.139131    20.187633      20.9097    7234.7246    5425.7723    7795.1076    7199.3883    -334.0818    238.55797    1138.2989   -2785.5433 
17184000    245.29441   -3917.8625   -3497.4363   -3917.8625            0    4766.5057     17.15918    20.211247    20.934159    7260.1427    3820.5836    6457.8493    4021.0842    203.77864   -2128.7455   -135.68734   -2992.7504 
17185000    251.92294   -3900.7602   -3468.9729   -3900.7602            0    3291.7939    17.245313    20.312701    21.039242    7370.0228    3695.1335      2880.22    3300.0281   -1610.5965   -287.27301    813.82657    -3115.157 
17186000     250.1618   -3877.9098    -3449.141   -3877.9098            0    5001.5586    17.249213    20.317295       21.044    7375.0244    5227.6686    2754.9832    7022.0241     127.7182    1422.5785   -49.237616   -2911.1875 
17187000    242.24665   -3906.5976   -3491.3951   -3906.5976            0     3615.016    17.208405    20.269228    20.994213    7322.8042    3607.0556    3140.2876    4097.7048    609.42527    1455.1404    672.60195   -3105.3274 
17188000    259.69451   -3876.6567   -3431.5492   -3876.6567            0    5674.4737    17.215985    20.278156    21.003461     7332.485    5168.1002    6173.4904    5681.8305    1320.3378    684.82007    718.38161   -2824.7393 
17189000      243.182   -3900.6941   -3483.8884   -3900.6941            0       4146.8    17.196042    20.254667    20.979132    7307.0337    5545.7473    3866.5165     3028.136   -1014.0837    529.84633    276.50705   -3041.9823 
17190000     261.0211   -3881.6149   -3434.2336   -3881.6149            0     7042.945    17.122858    20.168465    20.889847    7214.1363    7632.0078    8143.8137    5353.0134    696.11419    956.36452   -447.06775   -2693.2399 
17191000     252.0634   -3917.0936   -3485.0656   -3917.0936            0    5688.4945    17.165916    20.219182    20.942378    7268.6972    6202.7518    5177.4978     5685.234      1715.88   -375.89127   -129.09553   -2882.0482 
17192000    254.70546    -3919.101   -3482.5445    -3919.101            0    5082.7341    17.196767     20.25552    20.980016    7307.9578    3432.0125    5254.6439     6561.546   -429.97495    1030.2173   -12.103556   -2940.8314 
17193000    237.50557    -3895.218   -3488.1416    -3895.218            0    2901.9695      17.2676    20.338952    21.066432    7398.6337    4126.0272    3060.1622    1519.7192   -453.58914   -714.98679     692.7166   -3175.0148 
17194000    255.37289   -3920.4292   -3482.7288   -3920.4292            0    6574.5863    17.185529    20.242283    20.966305    7293.6398    5183.3908    8071.7044    6468.6637   -705.00422   -109.56185   -474.36928   -2783.3884 
17195000    244.94826   -3935.8189   -3515.9859   -3935.8189            0    5256.8501    17.238678    20.304886    21.031147    7361.5194    4740.0984    4410.6794    6619.7726   -480.60292    2024.6221     1286.584   -2951.6094 
17196000    261.93961   -3966.1977   -3517.2422   -3966.1977            0    4389.0472    17.293613    20.369592    21.098168    7432.1217    3356.2916    4905.9588    4904.8913    126.37374     1029.885   -585.14907   -3041.5139 
17197000    240.62049   -3892.5995   -3480.1842   -3892.5995            0    4846.1753    17.261102    20.331298    21.058504     7390.284    6441.7536    2019.2247    6077.5475    715.90386    58.420481   -385.88809   -2957.8648 
17198000     255.3211   -3896.0249   -3458.4133   -3896.0249            0    5264.8702    17.250355     20.31864    21.045393    7376.4895    4683.3292    5461.0173    5650.2642   -836.42908    605.15494    974.99726   -2892.0262 
17199000    265.16805   -3908.3191   -3453.8302   -3908.3191            0    5659.7605    17.257329    20.326854    21.053901     7385.439    7557.7356    4914.9376    4506.6083   -759.07903    274.71399   -999.47776   -2844.2227 
17200000    240.63043   -3891.8699   -3479.4376   -3891.8699            0    2948.2798      17.2898      20.3651    21.093515    7427.2062    1521.3728    2397.6678    4925.7987    995.89547    1086.3406   -376.92913   -3160.0853 
17201000    247.29306   -3888.8778   -3465.0259   -3888.8778            0    5022.3218    17.264825    20.335684    21.063047    7395.0679    6213.3102    5548.0264    3305.6288   -49.924989     845.7923   -488.21484   -2923.3711 
17202000    240.15165   -3876.2959   -3464.6842   -3876.2959            0    5193.4445    17.269567    20.341268    21.068831    7401.1619    7592.7059    4096.7785    3890.8492    690.10895    448.36793    1576.1197   -2904.1123 
17203000    244.41125   -3929.9035    -3510.991   -3929.9035            0    4287.3295    17.232269    20.297336    21.023328    7353.3114    5018.3465    2977.2614    4866.3806   -306.22724   -826.96696    578.54254   -3051.2156 
17204000      239.642   -3909.6043   -3498.8661   -3909.6043            0    5024.4682    17.232054    20.297084    21.023066    7353.0372    3571.8686    4423.1182    7078.4178   -2608.9539   -2173.8392    -595.9761   -2960.0597 
17205000    251.19488   -3934.4563   -3503.9169   -3934.4563            0    5673.1475    17.154601    20.205855    20.928574     7254.333    6149.6769    4680.8085    6188.9572   -122.52846    369.52661   -1563.4584   -2903.7149 
17206000    255.24146   -3931.6795   -3494.2043   -3931.6795            0     6537.771     17.22408    20.287691    21.013338    7342.8339    5620.9922     6011.246    7981.0749    -818.9139    365.10533    198.76458   -2794.0895 
17207000    253.32947   -3906.6258   -3472.4277   -3906.6258            0    4923.3711    17.228852    20.293311    21.019159     7348.938    3556.8659    4391.7631    6821.4842   -1112.7553   -448.26372   -549.82282    -2944.757 
17208000    252.67345   -3902.3935   -3469.3199   -3902.3935            0    6535.5657    17.236671    20.302522    21.028699    7358.9487    4749.0559    7312.4256    7545.2158   -17.944535   -1626.6107   -500.61344   -2767.9052 
17209000    238.00434   -3893.0341   -3485.1028   -3893.0341            0    6340.2861    17.128166    20.174717    20.896322    7220.8474    6154.5809    6036.3052    6829.9722    746.10838    167.42187   -733.19436   -2817.4159 
17210000    243.14418   -3870.3806   -3453.6398   -3870.3806            0    4958.6006    17.182799    20.239067    20.962974    7290.1638    5181.2846    5713.1997    3981.3176    872.25291   -441.83697   -36.807654   -2926.4435 
17211000    240.86778   -3907.0044   -3494.1652   -3907.0044            0    3372.9709     17.15366    20.204746    20.927426    7253.1391    2913.6494    4700.5515    2504.7118     108.1536    825.48892    287.61719   -3137.3737 
17212000    250.81235      -3930.3   -3500.4162      -3930.3            0    4056.1239    17.229755    20.294375    21.020261    7350.0938    2044.6568    4087.0361    6036.6788    77.344371   -371.49819    1165.7774   -3065.6258 
17213000    264.94839   -3933.9672   -3479.8547   -3933.9672            0    5407.5344    17.173242    20.227811    20.951316    7278.0073    5325.5696    5427.4977    5469.5358   -264.07509    531.96138   -1235.3459   -2905.8867 
17214000     242.1826   -3913.2763   -3498.1836   -3913.2763            0    4119.4377    17.255031    20.324147    21.051097     7382.489    3156.6949    3564.2382      5637.38   -20.063112   -1371.1736    604.98952   -3054.6601 
17215000    236.00887   -3951.0305   -3546.5194   -3951.0305            0      4478.61    17.230788    20.295592    21.021521    7351.4156    3806.1236    4143.4255    5486.2809   -819.43457   -644.35876   -2056.4466   -3066.3548 
17216000    243.27293    -3917.336   -3500.3746    -3917.336            0    4714.4263    17.291379    20.366961    21.095442    7429.2416    2359.7162    4702.7652    7080.7976    601.33911    1442.4287    -253.9896   -2989.5765 
17217000    246.20907   -3913.7146   -3491.7207   -3913.7146            0    3672.8889    17.276509    20.349446    21.077301    7410.0916    2554.9979    3581.3744    4882.2944    740.49083    1499.9681   -785.67094   -3094.7968 
17218000    248.59447   -3893.8121   -3467.7297   -3893.8121            0    5829.9687    17.252144    20.320746    21.047575    7378.7839    7264.6871    3837.8596    6387.3594    1667.4707   -1560.4005   -63.679466   -2840.3552 
17219000    259.98743   -3900.9528   -3455.3433   -3900.9528            0    4951.7016     17.31139    20.390531    21.119856    7455.0648    3354.6526    5719.5493    5780.9029   -76.985128   -1115.1843    709.19663   -2916.9721 
17220000    254.42599   -3936.7995   -3500.7221   -3936.7995            0    5536.1575    17.267446     20.33877    21.066243    7398.4352    5826.2454    5251.1453    5531.0818    769.76933    1434.3115   -569.52629   -2903.3785 
17221000    240.88105   -3907.4289    -3494.567   -3907.4289            0    3806.1838    17.344385    20.429394    21.160109    7497.7732    3337.8011    3468.1955    4612.5548    185.80096   -317.14413   -58.797057   -3078.3709 
17222000    240.99918   -3911.7629   -3498.6986   -3911.7629            0    7247.6697    17.237061     20.30298    21.029174    7359.4475    6800.5247    8211.1208    6731.3635   -228.94398   -1055.4818    664.13999   -2720.8063 
17223000    229.17442   -3912.1029   -3519.3057   -3912.1029            0    4839.1403    17.252072    20.320662    21.047488    7378.6919    2915.9708    4580.2253    7021.2247    407.90578   -509.59556     360.8914   -2998.5627 
17224000    243.73898   -3898.9142   -3481.1539   -3898.9142            0    6017.1624    17.198654    20.257742    20.982317     7310.363    4500.4644    6657.8477     6893.175   -455.04409   -83.605896   -798.33363   -2839.6393 
17225000    242.23763   -3917.0739   -3501.8869   -3917.0739            0    5964.8013    17.242855    20.309805    21.036243    7366.8716     5925.739    5705.0123    6263.6525   -1910.2551    1675.5551   -215.93125    -2861.039 
17226000    252.37943   -3894.9536   -3462.3839   -3894.9536            0    3324.2009    17.272165    20.344329    21.072001    7404.5031    1869.4613    5628.0829    2475.0585   -552.57464    430.34356    1255.2905   -3103.4131 
17227000    263.52649   -3852.7897   -3401.1143   -3852.7897            0    5559.6706    17.251476     20.31996    21.046761    7377.9276    6174.7885    7289.1141    3215.1092   -1343.4418    611.69165    260.70013   -2802.8965 
17228000    261.26966   -3912.5368   -3464.7295   -3912.5368            0    6654.9811    17.178856    20.234423    20.958164     7285.147     4411.534    8410.8201    7142.5893   -337.63949    990.48001    142.99425   -2757.6618 
17229000      255.349   -3936.9114    -3499.252   -3936.9114            0    4796.3302    17.234748    20.300257    21.026353    7356.4864    4940.3237    6416.8861    3031.7807   -242.03808    74.249744    220.88986    -2984.669 
17230000    251.55318   -3910.7823   -3479.6288   -3910.7823            0    5502.4662     17.28321    20.357338    21.085476    7418.7171    8583.1573     4441.128    3483.1132    440.49205    376.25112   -39.790505   -2884.2929 
17231000    260.65569   -3947.2498   -3500.4949   -3947.2498            0    4977.8505    17.287621    20.362534    21.090857    7424.3983    5924.7728    4464.4144    4544.3643   -665.60156    264.95057   -732.81337    -2961.507 
17232000    259.45866    -3952.483   -3507.7797    -3952.483            0    5415.6846     17.29544    20.371743    21.100396    7434.4767    4690.4057    6073.3394    5483.3087     -410.832   -2252.7987   -537.33623   -2920.5884 
17233000    248.94098   -3952.6769   -3526.0006   -3952.6769            0    5568.9519     17.24291     20.30987     21.03631    7366.9422       6517.9     5248.718    4940.2377    516.66556   -294.42364   -173.61984   -2927.6763 
17234000    254.75523   -3920.6316   -3483.9899   -3920.6316            0    5583.3777     17.24368    20.310778     21.03725    7367.9298    4929.2937    5460.8691    6359.9703   -529.51537   -465.58786   -900.71532   -2884.0353 
17235000    247.99382   -3970.3642   -3545.3113   -3970.3642            0    5132.1771    17.237368    20.303343    21.029549    7359.8414    5792.2651    3133.8011    6470.4652   -1740.4555   -1007.1559    1629.3126   -2994.4453 
17236000    244.23768   -3926.4866   -3507.8715   -3926.4866            0    5390.6039    17.242143    20.308967    21.035374    7365.9594    3948.2855    6587.2236    5636.3026    549.63792   -542.14471    267.22842   -2928.7861 
17237000    244.78112   -3947.3451   -3527.7987   -3947.3451            0    6350.3489     17.20664    20.267149     20.99206     7320.551    6895.2624    5018.4418    7137.3424   -618.87237    549.21073    1049.9185   -2849.8181 
17238000    259.10518   -3957.9564    -3513.859   -3957.9564            0    5245.2818    17.259411    20.329307    21.056441    7388.1127    5859.0044     5660.583    4216.2581   -702.43373   -1032.7415   -541.59602   -2948.6901 
17239000    241.23958   -3922.6196   -3509.1432   -3922.6196            0    5415.5533    17.155321    20.206702    20.929451    7255.2454    4910.8174    7012.3743    4323.4682   -593.71294     179.8414   -507.31707   -2936.1218 
17240000    248.32911   -3933.3718   -3507.7442   -3933.3718            0    7744.3689    17.154048    20.205203    20.927899    7253.6314    7247.3994    9068.8106    6916.8968   -88.631929   -874.68551    135.26564   -2688.4924 
17241000    243.62277   -3953.2619   -3535.7008   -3953.2619            0    7709.5549    17.121043    20.166328    20.887633    7211.8431    7514.1502    7928.1085     7686.406    -1221.614    867.01382   -343.29653   -2724.8304 
17242000    243.25961   -3940.6654   -3523.7268   -3940.6654            0    4421.2322     17.25569    20.324923    21.051901    7383.3349    5036.4464    3984.3514    4242.8988   -984.18549     593.1591    374.92782   -3047.6557 
17243000    248.97825   -3895.8526   -3469.1124   -3895.8526            0    6275.1306    17.184902    20.241545    20.965541    7292.8418    5782.7357    6400.2533    6642.4027   -460.09843   -1182.0741    414.34351   -2801.6982 
17244000    263.87002   -3930.1896   -3477.9254   -3930.1896            0    6924.8412    17.239407    20.305744    21.032036    7362.4535    8526.3372    5848.6372    6399.5492   -656.43321   -12.875457    2010.1643   -2734.3787 
17245000    256.93859   -3893.7843   -3453.4003   -3893.7843            0    4390.5119    17.225439    20.289292    21.014995    7344.5719    3199.4721    5072.8019    4899.2617   -287.93811    526.16769    1663.7605   -2983.1192 
17246000    247.54802   -3914.1889   -3489.9001   -3914.1889            0    6914.6315    17.166299    20.219633    20.942844    7269.1828    4999.4566    8236.4287    7508.0093   -1640.2878    216.41388     222.1286   -2756.8553 
17247000     255.0227   -3929.3606   -3492.2605   -3929.3606            0    5287.4143     17.21324    20.274923    21.000112    7328.9783    4861.8092    6066.4591    4933.9746    335.91029   -162.67401    561.28589   -2927.1118 
17248000    261.92692   -3918.3196   -3469.3858   -3918.3196            0    2839.3346    17.258431    20.328152    21.055246    7386.8542    2345.4709     4122.247    2050.2858    79.908026    115.80741   -629.94741   -3163.5052 
17249000    235.23011   -3896.3854    -3493.209   -3896.3854            0     4842.698    17.174129    20.228855    20.952397    7279.1346    5535.9355    6234.4856    2757.6728     823.3602   -216.27743   -171.63759   -2979.1145 
17250000    264.19112   -3893.1719   -3440.3573   -3893.1719            0    5312.5992    17.190452    20.248082    20.972311    7299.9094    3827.5812     7689.684    4420.5322   -1991.8914   -535.05459    672.05622    -2874.769 
Loop time of 419.936 on 64 procs for 250000 steps with 864 atoms

Performance: 102.873 ns/day, 0.233 hours/ns, 595.329 timesteps/s
99.1% CPU use with 64 MPI tasks x 1 OpenMP threads

MPI task timing breakdown:
Section |  min time  |  avg time  |  max time  |%varavg| %total
---------------------------------------------------------------
Pair    | 20.409     | 25.506     | 30.996     |  49.2 |  6.07
Bond    | 0.26179    | 0.27961    | 0.30033    |   1.3 |  0.07
Kspace  | 180.95     | 190.72     | 201.73     |  30.6 | 45.42
Neigh   | 4.4423     | 5.137      | 6.2962     |  24.3 |  1.22
Comm    | 85.415     | 96.052     | 104.25     |  47.7 | 22.87
Output  | 0.77368    | 0.77464    | 0.77592    |   0.0 |  0.18
Modify  | 91.89      | 95.196     | 99.128     |  16.3 | 22.67
Other   |            | 6.27       |            |       |  1.49

Nlocal:        13.5000 ave          19 max           8 min
Histogram: 2 3 12 8 6 9 9 9 3 3
Nghost:        2191.02 ave        2236 max        2155 min
Histogram: 3 3 8 16 10 11 5 4 3 1
Neighs:        4227.23 ave        6089 max        2338 min
Histogram: 2 5 8 7 10 8 12 3 6 3

Total # of neighbors = 270543
Ave neighs/atom = 313.12847
Ave special neighs/atom = 2.0000000
Neighbor list builds = 12750
Dangerous builds = 0

unfix		3
unfix		2
unfix		1

write_data	data.final.${pid}
write_data	data.final.0
System init for write_data ...
PPPM initialization ...
  extracting TIP4P info from pair style
  using 12-bit tables for long-range coulomb (../kspace.cpp:340)
  G vector (1/distance) = 0.37478151
  grid = 24 24 25
  stencil order = 5
  estimated absolute RMS force accuracy = 0.0030147172
  estimated relative force accuracy = 9.0787312e-06
  using double precision FFTW3
  3d grid and FFT values/proc = 2730 288
Last active /omp style is kspace_style pppm/tip4p/omp
WARNING: Not all mixed pair coeffs generated from mixing. Use write_data with 'pair ij' option to store all pair coeffs. (../write_data.cpp:312)

write_restart   restart.lmp.${pid}
write_restart   restart.lmp.0
System init for write_restart ...
PPPM initialization ...
  extracting TIP4P info from pair style
  using 12-bit tables for long-range coulomb (../kspace.cpp:340)
  G vector (1/distance) = 0.37478151
  grid = 24 24 25
  stencil order = 5
  estimated absolute RMS force accuracy = 0.0030147172
  estimated relative force accuracy = 9.0787312e-06
  using double precision FFTW3
  3d grid and FFT values/proc = 2730 288
Last active /omp style is kspace_style pppm/tip4p/omp
Total wall time: 0:07:00
