LAMMPS (30 Jul 2021)
Processor partition = 0
  using 2 OpenMP thread(s) per MPI task
using multi-threaded neighbor list subroutines
variable        pid world 0 1
variable        phase world IceIh IceIII

shell cd ${phase}
shell cd IceIh
include Restart.lmp
echo both
log log.lammps
#include		in.partitions
include		in.temp
variable        temperature equal 25.22
variable	tempDamp equal 100.0
include		in.pressure
variable        pressure equal 2182.9
variable        pressureDamp equal 1000.0 # This is 1 ps
include		in.seed
variable        seed equal 745823

units		real
atom_style	full
#include		in.box
read_restart	restart.lmp.${pid}
read_restart	restart.lmp.0
Reading restart file ...
  restart file = 30 Jul 2021, LAMMPS = 30 Jul 2021
  restoring atom style full from restart
  orthogonal box = (0.19233042 0.17416307 0.16552702) to (18.015242 23.455015 22.047669)
  2 by 4 by 4 MPI processor grid
  restoring pair style lj/cut/tip4p/long/omp from restart
  restoring bond style harmonic/omp from restart
  restoring angle style harmonic/omp from restart
  864 atoms
  576 bonds
  288 angles
Finding 1-2 1-3 1-4 neighbors ...
  special bond factors lj:    0        0        0       
  special bond factors coul:  0        0        0       
     2 = max # of 1-2 neighbors
     1 = max # of 1-3 neighbors
     1 = max # of 1-4 neighbors
     2 = max # of special neighbors
  special bonds CPU = 0.002 seconds
  read_restart CPU = 0.005 seconds
include 	in.setup
variable	out_freq equal 1000
variable	out_freq2 equal 10000
variable	out_freq3 equal 1000

timestep	2.0

neigh_modify    delay 7 every 1

include		in.tip4p
# This is TIP4P/Ice

# create groups ###
group ox type 2
288 atoms in group ox
group hy type 1
576 atoms in group hy

# set charges - beside manually ###
set group ox charge -1.1794
Setting atom values ...
  288 settings made for charge
set group hy charge 0.5897
Setting atom values ...
  576 settings made for charge

# ### TIP3P Potential Parameters ###
pair_style lj/cut/tip4p/long/omp 2 1 1 1 0.1577 8.5
pair_coeff 1 1*2 0.000 0.000
pair_coeff 2 2 0.21084 3.1668
bond_style  harmonic
bond_coeff  1 450 0.9572
angle_style harmonic
angle_coeff 1 55 104.52
kspace_style pppm/tip4p/omp 1.0e-5
pair_modify tail yes

thermo          ${out_freq}
thermo          1000
thermo_style    custom step temp pe etotal epair emol press lx ly lz vol pxx pyy pzz pxy pxz pyz enthalpy

restart 	${out_freq3} restart.lmp.${pid} restart2.lmp.${pid}
restart 	1000 restart.lmp.${pid} restart2.lmp.${pid}
restart 	1000 restart.lmp.0 restart2.lmp.${pid}
restart 	1000 restart.lmp.0 restart2.lmp.0


include         in.dump
dump            myDump all atom ${out_freq2} dump.water.${pid}
dump            myDump all atom 10000 dump.water.${pid}
dump            myDump all atom 10000 dump.water.0
dump            myDump2 all dcd ${out_freq2} dump.dcd
dump            myDump2 all dcd 10000 dump.dcd
dump_modify     myDump append yes
dump_modify     myDump2 append yes


variable natoms 	equal  "count(all)"                        # NUMBER ATOMS
variable H      	equal  "enthalpy/v_natoms"                 # ENTHALPY-per-atom
variable Vol      	equal  "vol/v_natoms"                 # volume-per-atom
fix AVG all 		ave/time ${out_freq} 1 ${out_freq} v_Vol v_H file vol_enthalpy.dat
fix AVG all 		ave/time 1000 1 ${out_freq} v_Vol v_H file vol_enthalpy.dat
fix AVG all 		ave/time 1000 1 1000 v_Vol v_H file vol_enthalpy.dat


timer           timeout 23:50:00 every 1000
New timer settings: style=normal  mode=nosync  timeout=23:50:00

fix 		1 all shake 1e-6 200 0 b 1 a 1
Finding SHAKE clusters ...
       0 = # of size 2 clusters
       0 = # of size 3 clusters
       0 = # of size 4 clusters
     288 = # of frozen angles
  find clusters CPU = 0.001 seconds
fix             2 all nph aniso ${pressure} ${pressure} ${pressureDamp}
fix             2 all nph aniso 2182.9 ${pressure} ${pressureDamp}
fix             2 all nph aniso 2182.9 2182.9 ${pressureDamp}
fix             2 all nph aniso 2182.9 2182.9 1000
fix             3 all temp/csvr ${temperature} ${temperature} ${tempDamp} ${seed}
fix             3 all temp/csvr 25.22 ${temperature} ${tempDamp} ${seed}
fix             3 all temp/csvr 25.22 25.22 ${tempDamp} ${seed}
fix             3 all temp/csvr 25.22 25.22 100 ${seed}
fix             3 all temp/csvr 25.22 25.22 100 745823


run             250000
PPPM initialization ...
  extracting TIP4P info from pair style
  using 12-bit tables for long-range coulomb (../kspace.cpp:340)
  G vector (1/distance) = 0.37223793
  grid = 24 27 25
  stencil order = 5
  estimated absolute RMS force accuracy = 0.0031015331
  estimated relative force accuracy = 9.3401748e-06
  using double precision FFTW3
  3d grid and FFT values/proc = 4410 672
Last active /omp style is kspace_style pppm/tip4p/omp
Neighbor list info ...
  update every 1 steps, delay 7 steps, check yes
  max neighbors/atom: 2000, page size: 100000
  master list distance cutoff = 10.8154
  ghost atom cutoff = 10.8154
  binsize = 5.4077, bins = 4 5 5
  1 neighbor lists, perpetual/occasional/extra = 1 0 0
  (1) pair lj/cut/tip4p/long/omp, perpetual
      attributes: half, newton on, omp
      pair build: half/bin/newton/omp
      stencil: half/bin/3d
      bin: standard
Setting up Verlet run ...
  Unit style    : real
  Current step  : 45500000
  Time step     : 2
  Walltime left : 23:49:59.92
Per MPI rank memory allocation (min/avg/max) = 10.21 | 10.22 | 10.23 Mbytes
Step Temp PotEng TotEng E_pair E_mol Press Lx Ly Lz Volume Pxx Pyy Pzz Pxy Pxz Pyz Enthalpy 
45500000    28.707238   -4689.1831   -4639.9799   -4689.1831            0    2590.5216    17.822912    23.280852    21.882142    9079.6131    2254.3992    2700.4407    2816.7248   -30.681543   -184.79589    196.78818   -4296.9512 
45501000    24.941718   -4695.1889   -4652.4396   -4695.1889            0    2444.7211    17.848378    23.243236    21.910361    9089.6024     2288.166    2467.7587    2578.2386     390.9188   -47.417453    224.95843   -4328.3612 
45502000     25.08228   -4696.1919   -4653.2018   -4696.1919            0       2209.8    17.880232    23.245374    21.880192    9094.1225    2243.2898     2636.376    1749.7343    195.28053   -97.598968    36.373701   -4360.1194 
45503000    25.326378   -4696.3949   -4652.9864   -4696.3949            0    2200.1435    17.904998    23.228501    21.886815    9102.8632    2179.9324    1993.2719    2427.2263   -71.960916   -17.829137    269.59444   -4360.9043 
45504000    23.618896   -4696.3079   -4655.8259   -4696.3079            0    2571.6024    17.815765    23.275533    21.890822    9077.4983    2833.5951    2407.9141    2473.2981    105.66777   -5.3791307    151.36052   -4315.3817 
45505000    24.959069   -4694.9022   -4652.1232   -4694.9022            0    2019.4213    17.855197    23.326186    21.853442    9101.8194    2441.4057    1842.9603     1773.898    54.930026     186.8912    80.753705   -4384.0638 
45506000    25.164371   -4694.3165   -4651.1857   -4694.3165            0    2100.1808    17.915846    23.326881    21.781069    9102.7619    2025.6825    1926.7978    2348.0622    132.85571   -157.22719    339.08826   -4372.3773 
45507000    24.956803   -4695.1168   -4652.3417   -4695.1168            0    2234.8111    17.950023    23.185409    21.863834    9099.2602    2116.8557     2485.534    2102.0436   -371.64303   -207.04549   -71.610033   -4355.7748 
45508000    25.317943   -4694.6114   -4651.2173   -4694.6114            0    2155.7165    17.909895    23.246652    21.860182    9101.3796    2392.3964    1934.5562    2140.1971   -4.1456868   -128.07907    88.434107   -4365.0798 
45509000    26.346374   -4695.3672   -4650.2104   -4695.3672            0    2214.4965    17.902115    23.256733     21.88113    9110.0926    2267.0491    1936.0853    2440.3551   -272.66031   -115.26151    148.98874   -4355.9894 
45510000    24.375868    -4694.284   -4652.5046    -4694.284            0    2091.2855    17.939456     23.20837     21.85753     9100.285    2065.4191    2048.2744     2160.163    23.038274     47.03174   -142.77212   -4374.9527 
45511000    25.660721    -4696.426   -4652.4444    -4696.426            0     1993.159    17.921478    23.261549    21.842791     9105.852    2286.4964    2066.4358    1626.5447    41.124847   -78.147623    396.39492   -4387.7539 
45512000    26.195665   -4692.1582   -4647.2597   -4692.1582            0    2385.9172    17.919253    23.221571    21.858423    9095.5787    1984.0804    2833.1579    2340.5132   -5.6787671    101.64167   -233.58779   -4330.7686 
45513000    25.419787   -4693.1944   -4649.6258   -4693.1944            0    2198.5675    17.858757    23.311049    21.862194    9101.3703    1970.4847    2575.1633    2050.0544    205.44872   -59.822884     -8.98127   -4357.8008 
45514000    23.547764   -4694.2261    -4653.866   -4694.2261            0    2178.1137    17.873512    23.303241     21.85766    9103.9507    2184.0625    2264.2295    2086.0491   -199.00024    263.38271    253.12032    -4364.674 
45515000    26.490458   -4696.1543   -4650.7506   -4696.1543            0    2359.8098    17.816715    23.206546    21.982305     9088.901    2561.8683    2585.6273    1931.9338     23.77506   -61.877907    29.201561   -4337.9524 
45516000    25.725697    -4695.615    -4651.522    -4695.615            0    2467.3118    17.887062    23.209621    21.889079    9087.2932    2554.2257    2716.2993    2131.4105   -221.17058    66.623419    64.747453    -4324.532 
45517000    25.362608   -4694.2348   -4650.7641   -4694.2348            0    2697.5662    17.903109    23.224158    21.838899    9080.2788    2290.6866    2821.2864    2980.7257   -87.762945    -138.2249    207.62227   -4293.5348 
45518000    25.438051   -4698.4505   -4654.8506   -4698.4505            0    2345.8337     17.88704    23.211552    21.889786    9088.3317    2290.2153    2657.4262    2089.8595   -190.58508    160.98637    99.166458   -4343.9244 
45519000    25.696205    -4696.161   -4652.1186    -4696.161            0    2137.6526    17.965791    23.192973    21.862538    9109.6846    1759.7951    2671.3648     1981.798   -72.051831   -96.492754    42.894148   -4368.1199 
45520000    24.630081   -4695.6067   -4653.3916   -4695.6067            0    2470.9852    17.887352    23.311897    21.801682    9091.0422    2193.6991    2611.5903    2607.6662   -150.20732    -111.8624   -53.848931   -4325.7796 
45521000    24.938012   -4697.7231   -4654.9802   -4697.7231            0    2362.9244    17.931428     23.27445    21.787263     9092.786    2326.0328    2204.2492    2558.4911   -180.09604    7.0891548    151.64397   -4341.6353 
45522000    25.134891   -4693.4621   -4650.3817   -4693.4621            0    2332.1023    17.905587     23.25622    21.845256    9096.7199    2257.6532    2473.5978    2265.0559    49.511684    17.315505   -41.222029   -4340.9903 
45523000    24.602258   -4697.7031   -4655.5357   -4697.7031            0     2140.935     17.88367    23.281985    21.856219    9100.2157    1774.2876    2129.9806    2518.5367     110.2271   -33.425507    27.070991   -4371.3965 
45524000    25.806945   -4691.6499   -4647.4177   -4691.6499            0    2318.0363    17.791333     23.25379    21.973426     9090.756     2886.572    2152.7795    1914.7573    16.598838   -208.54697    55.387953   -4340.0939 
45525000    24.983181   -4694.8805   -4652.0602   -4694.8805            0     1992.473    17.853731    23.309859    21.880082    9105.7888    2328.4571     1908.832    1740.1299   -277.07671    139.46692    160.37191   -4387.4626 
45526000    26.157195   -4694.3392   -4649.5067   -4694.3392            0    2045.2453    17.894535    23.234229    21.897674     9104.302    1981.3804    2002.4329    2151.9227   -119.88799   -129.36388     1.425214   -4377.9454 
45527000    25.738717   -4694.3565   -4650.2413   -4694.3565            0     2334.539    17.875221    23.301167     21.82774    9091.5484     2277.935    2311.4275    2414.2544   -172.79181    174.17148    175.57641   -4340.7026 
45528000    24.140114   -4694.4879   -4653.1126   -4694.4879            0    2348.0253    17.831574    23.298218     21.87823    9089.1774    2061.8426     2552.395    2429.8382    133.50446   -270.82225    73.813138    -4341.867 
45529000     24.49154    -4697.575   -4655.5973    -4697.575            0    2019.1046    17.917283    23.316777     21.80316    9108.7783    1795.0078    2184.7517    2077.5542   -515.99878   -58.568035    250.93097    -4387.375 
45530000    25.210009    -4692.764   -4649.5549    -4692.764            0    2374.1783    17.874728    23.220079    21.900014    9089.6577    2284.0206    2326.9947    2511.5196    -25.22059   -144.85939   -57.649877   -4334.8259 
45531000    25.139475   -4692.0139   -4648.9257   -4692.0139            0    2408.1736     17.97493      23.1165    21.886342    9094.1572    2250.8456    3006.1374    1967.5378    271.07814   -26.346857    188.25533   -4329.5322 
45532000    25.181803    -4694.324   -4651.1633    -4694.324            0    2350.7487    17.866694    23.288057    21.864011    9097.1909    2295.6935    2297.3142    2459.2385   -346.76686    94.261805    68.133969   -4339.2819 
45533000    26.374041   -4697.9243   -4652.7201   -4697.9243            0    2221.0138    17.849766    23.285595     21.88595    9096.7295    2970.1039    1959.1698    1733.7679   -187.84094   -37.860135    59.299257    -4358.066 
45534000    24.445078   -4697.1793   -4655.2813   -4697.1793            0    2221.3088    17.783958    23.367858    21.890309    9097.0217     2751.621     1734.111    2178.1943    38.943822   -128.72884    76.887805   -4360.5786 
45535000    23.927938   -4696.8244   -4655.8127   -4696.8244            0    2181.6306    17.866763    23.247837    21.896977    9095.2069    2089.7757    2194.0365    2261.0796    320.48367    -56.47119   -143.59564    -4366.432 
45536000    24.856081   -4698.1153   -4655.5129   -4698.1153            0    1767.6593    17.967121    23.231498    21.828599    9111.3256    1633.2572    2192.9508    1476.7701   -361.76973    29.219647    170.67273   -4420.6275 
45537000    25.753433   -4695.7412   -4651.6007   -4695.7412            0    2192.5549    17.890999    23.294538    21.825098    9095.8838    2115.2875    2250.0253    2212.3519    450.84458    3.2022185    26.531496   -4360.7492 
45538000    23.956508   -4693.8327   -4652.7721   -4693.8327            0    2352.3594    17.910016    23.225496    21.850481     9089.123    1855.7363    2648.2882    2553.0536   -290.06939    8.0883278     271.2874   -4340.9538 
45539000    24.790387   -4694.9774   -4652.4875   -4694.9774            0    1992.9956    17.871515    23.271941    21.894869    9106.1819    1860.1282    2088.1525    2030.7059    62.473773   -116.79379    84.530293   -4387.8091 
45540000    24.789608    -4695.732   -4653.2435    -4695.732            0    1786.4085    17.877323    23.284908    21.899432    9116.1168    1766.9738    1812.6988    1779.5529    69.395849   -47.146568   -47.803888   -4415.7419 
45541000    26.430512   -4697.9284   -4652.6274   -4697.9284            0    2249.7688    17.940632    23.139786    21.931802    9104.8205    1592.8675    2534.0682    2622.3709   -664.93172    36.938755      19.5953    -4353.893 
45542000    25.168646   -4696.1542    -4653.016   -4696.1542            0    2067.9574    17.876512    23.202248    21.944285    9101.9463    2196.9096    2355.1359    1651.8265    85.020501   -35.652279    42.795991   -4378.5101 
45543000    24.993697    -4694.207   -4651.3687    -4694.207            0    1993.6909    17.858424    23.318864    21.865002    9105.4215    2086.3319    2038.5816    1856.1593   -468.43825   -53.488043   0.24390115     -4386.62 
45544000    25.347711    -4694.443   -4650.9979    -4694.443            0    2373.1989    17.908514    23.254657    21.832188    9092.1533     2102.233    2612.0196    2405.3442    157.48492    -283.1179    63.200453   -4336.3123 
45545000    26.135297   -4702.0178   -4657.2228   -4702.0178            0    2114.1546    17.876122    23.316942    21.841694    9103.9785     2430.021    2100.8192    1811.6237    -218.0203   -102.83279    48.323735   -4376.5219 
45546000    26.249293   -4695.9894    -4650.999   -4695.9894            0    2303.0347    17.808383    23.274575    21.958957     9101.604    2491.6155    2200.5906    2216.8981    230.73885    -153.1572    178.78786   -4345.2998 
45547000     24.30726   -4695.3717   -4653.7099   -4695.3717            0    2442.0712    17.850228    23.224683    21.921457    9087.8882    2843.1804     2033.111    2449.9221   -415.64784   -82.360456    109.62362   -4330.0438 
45548000    25.879521   -4696.4108   -4652.0542   -4696.4108            0    2233.7716    17.919941    23.245812    21.848017     9101.088    2538.1629    2054.7302    2108.4218   -608.12021    -38.84592   -139.06762   -4355.5656 
45549000    24.917894   -4694.2662   -4651.5577   -4694.2662            0    2152.5365    17.920933    23.262056    21.833211    9101.7793    2350.9715    2074.5936    2032.0442     361.1235    164.87474    271.54422   -4365.8298 
45550000    25.047537   -4696.3784   -4653.4478   -4696.3784            0     2319.132    17.877306    23.235171    21.888028    9091.8985    2337.8425    2283.1838    2336.3695   -191.52398    52.293234    87.813825   -4345.9402 
45551000    27.608987    -4696.646   -4649.3251    -4696.646            0    2590.5216    17.906776    23.216416    21.864224    9089.6391    2460.0911    2678.3911    2633.0825   -138.32721    59.309125   -37.946349   -4305.9176 
45552000    26.434724    -4698.642   -4653.3338    -4698.642            0     2388.462    17.824137    23.314665    21.877525    9091.5069    2503.7672     2454.232     2207.387   -66.009715    -408.8552    38.954278   -4336.6469 
45553000    24.071502   -4695.9723   -4654.7146   -4695.9723            0    2253.3624    17.887227    23.288788    21.843037    9099.1938    2210.8023    2163.7237    2385.5612   -134.74075    111.48237    117.12253    -4355.688 
45554000    25.988944   -4695.5626   -4651.0185   -4695.5626            0     2227.924    17.906613    23.179665    21.928223    9101.7318    2190.6893    2411.1117    2081.9709    201.29733   -272.72993    205.92932   -4355.2851 
45555000    25.419272   -4695.6938    -4652.126   -4695.6938            0    2175.9037    17.908984     23.19723    21.895321    9096.1662    1980.2907    2108.6337    2438.7866    22.253368    103.86888   -251.03588   -4363.4744 
45556000    25.838828   -4693.2435   -4648.9566   -4693.2435            0    2337.5981    17.861191    23.259976    21.876232       9088.5    2575.0863    2438.4486    1999.2593   -23.117661   -93.975495    372.08665   -4339.1163 
45557000    26.752993   -4699.2555   -4653.4018   -4699.2555            0    2061.2373    17.898678    23.221498     21.92149    9111.3191    2003.8018      2362.63    1817.2803   -209.09725   -63.914249   -212.30263   -4379.5061 
45558000    25.286266   -4695.8057   -4652.4659   -4695.8057            0    2123.3074    17.940018    23.247669     21.82821    9103.7517    1958.3069    2146.4472     2265.168    -657.0922  -0.13506129    347.64964   -4370.5568 
45559000    25.242215   -4695.2031   -4651.9388   -4695.2031            0    2144.8509    17.867549    23.307449    21.852001    9100.1999    2088.0402     2389.427    1957.0855   -87.369453    199.39911    181.22667   -4367.2805 
45560000    24.145931   -4698.0883    -4656.703   -4698.0883            0    2151.7116    17.945769    23.207559    21.853274    9101.3968    2072.9212     2014.869    2367.3447    113.99104   -259.02577    44.036047   -4371.0966 
45561000    25.673323   -4696.6588   -4652.6556   -4696.6588            0    2225.2559    17.805266    23.346036    21.868755    9090.4564    2731.0304    1813.4796    2131.2576     35.65039    304.58834    -106.9938   -4357.6424 
45562000    24.197866   -4692.7794   -4651.3051   -4692.7794            0    2190.9823    17.905613    23.262285    21.852376    9102.0711    2082.9773    2285.2468     2204.723    89.486976   -3.0464999    344.70267   -4360.4645 
45563000    26.466124   -4694.3331   -4648.9711   -4694.3331            0    2162.2088     17.86804    23.228861    21.917852    9097.0969    2137.4481    2377.6455    1971.5329    51.447311    148.12718    -181.6031   -4362.1069 
45564000    24.948453   -4694.7752   -4652.0144   -4694.7752            0    2344.7069    17.910465    23.296521    21.778997    9087.3199       2199.8    2376.3135    2458.0072    161.29888   -42.137587   -3.3500902   -4341.2722 
45565000    23.614716   -4696.0257   -4655.5508   -4696.0257            0    2395.4314    17.871661    23.259167    21.866687    9089.5433    2380.5376    2016.8128    2788.9438    4.7070484     83.79614    379.11232   -4338.0085 
45566000    27.222792   -4696.3722   -4649.7132   -4696.3722            0    2275.2249    17.949201    23.133312    21.890227    9089.3578     2236.312    2462.5456    2126.8171    16.805039    103.47188   -75.995013   -4348.1118 
45567000    23.567086   -4696.8811   -4656.4879   -4696.8811            0    2190.5293    17.869288    23.334331     21.81039    9094.2323    2377.3795    1908.2259    2285.9825   -523.89128    93.650389    101.29126   -4365.9579 
45568000    25.589038   -4697.3161   -4653.4574   -4697.3161            0    2261.2583    17.947207    23.226721    21.815157    9093.7526    2024.9775    2178.7497    2580.0476    12.422653   -166.23469     61.14615   -4353.5624 
45569000    23.666319   -4697.3493   -4656.7861   -4697.3493            0    2344.3446    17.909259    23.234555    21.864082    9097.9435    2450.1735    2207.2217    2375.6385   -298.64304    118.42131    172.63095   -4345.7287 
45570000    25.206701   -4696.8548   -4653.6513   -4696.8548            0    1935.5977    17.864325    23.245065    21.939032    9110.3452    2273.0811    2207.5676    1326.1444    68.524555   -412.80872   -211.60163   -4396.4781 
45571000    25.139326   -4696.2387   -4653.1508   -4696.2387            0    2074.0817    17.861215    23.176961    21.995489    9105.4436    2069.1412    2340.0033    1813.1005   -278.89539    137.43225    195.22179   -4377.7261 
45572000    27.701635   -4694.4369   -4646.9573   -4694.4369            0    2181.0968    17.846247    23.247278    21.930688    9098.5304    2596.4731    1933.2244    2013.5928   -246.22569     -45.9945   -67.296049   -4357.5416 
45573000    24.605349   -4698.3854   -4656.2127   -4698.3854            0    2199.7074     17.86525    23.266641    21.887494    9097.8509    2312.0805    1964.5721    2322.4696    57.448889    194.42938    408.87887   -4364.3493 
45574000    25.528102   -4697.6081   -4653.8539   -4697.6081            0    2032.7958    17.915154    23.246772    21.874189    9109.9322    2030.5663     1969.327     2098.494    91.488214   -162.19907    79.563625   -4383.7786 
45575000    25.435184   -4696.9663   -4653.3713   -4696.9663            0    2129.8923    17.803889    23.364611    21.878968    9101.2336    2452.7467    2084.0065    1852.9236    107.38744    108.97306   -19.386109   -4370.6661 
45576000    24.440172   -4696.4048   -4654.5152   -4696.4048            0    1645.5185    17.906557       23.372    21.804558    9125.4701    1771.6464    1667.7113    1497.1979   -82.876638   -111.76273    9.1873197   -4435.5204 
45577000     25.49973   -4698.2917    -4654.586   -4698.2917            0    1946.0516    17.884424     23.29817    21.846908    9103.0462    1629.3697    1909.0513    2299.7338   -107.54005    263.66655   -151.45817   -4396.2309 
45578000    25.610905   -4691.4741   -4647.5779   -4691.4741            0    2110.7909    17.911344    23.249284    21.838606    9094.1614    2109.3836    2451.5943    1771.3949    161.89558   -329.00679    230.15556   -4367.6258 
45579000    26.227814   -4698.4929   -4653.5393   -4698.4929            0    2187.0968    17.845785     23.25121    21.930257    9099.6551     2293.764    2361.6687    1905.8579   -200.20244    97.519746   -203.77431   -4363.2916 
45580000    26.190193   -4693.7897   -4648.9006   -4693.7897            0    2256.2314    17.871726    23.273251    21.870897    9096.8312    2361.8643     1941.958    2464.8719    81.134224   -538.51419    205.68671    -4349.571 
45581000    24.478567   -4695.3087   -4653.3533   -4695.3087            0    2213.7469    17.807204    23.330483    21.885835    9092.4851    2452.9811    2138.2232    2050.0364   -87.191859    219.45106   -111.20328   -4359.8004 
45582000    25.230032   -4697.3441   -4654.1007   -4697.3441            0    2088.7976    17.956952    23.188258    21.841171     9094.455    1696.5326    2212.2657    2357.5946    273.91248   -180.30933   -91.616158   -4377.0566 
45583000    25.035194   -4698.2216   -4655.3121   -4698.2216            0    1807.6983    17.907012    23.278085    21.863542    9113.6192    1462.8367    2202.1506    1758.1075   -202.02921   -32.665773     99.47258   -4415.0459 
45584000    25.684146   -4692.1248   -4648.1031   -4692.1248            0    2304.5398    17.872987    23.219539    21.905214    9090.7187    2045.0905    2751.4185    2117.1102   -197.01186    -246.9136    286.13888   -4342.5699 
45585000     25.40063   -4696.1876   -4652.6518   -4696.1876            0    2195.8963    17.855053    23.248979    21.911018    9095.5212     2188.962    2249.0623    2149.6647   -49.712535    43.949616    6.3553214   -4361.3687 
45586000    25.201423   -4697.0832   -4653.8888   -4697.0832            0    1761.1967    17.990088    23.181851    21.859574    9116.3943    1463.6983    1797.3148    2022.5771    100.70654   -252.28738    58.598794    -4419.732 
45587000    24.680653    -4696.348   -4654.0462    -4696.348            0    2209.4278     17.89238    23.294008    21.813929    9091.7238    2040.2113    2239.9502    2348.1218   -445.07836    250.50595    10.953924   -4361.0905 
45588000    26.671238   -4694.6756    -4648.962   -4694.6756            0    2221.0706    17.890937    23.216209    21.898847     9095.899    2029.0401    2530.4682    2103.7034   -82.601229    399.61242   -112.75872   -4354.3273 
45589000    23.957852   -4696.8038   -4655.7409   -4696.8038            0    2268.2499    17.841313     23.30079    21.880101    9095.9229    2316.9896    2382.2171     2105.543   -40.067641   -101.24648    30.134892   -4354.8469 
45590000    24.170211   -4693.5728   -4652.1459   -4693.5728            0    2289.6627    17.839628    23.342352    21.847105    9097.5471    2477.3574    2332.4686    2059.1622    23.540284    303.59031    36.080986   -4348.3571 
45591000    25.230642   -4699.5943   -4656.3499   -4699.5943            0    1793.0558    17.944159    23.259809    21.841485     9116.149    1365.4324    1897.9528    2115.7822   -49.392391   -51.178204    82.641605   -4417.9637 
45592000    25.855725   -4696.1777   -4651.8619   -4696.1777            0    1905.0311    17.882561    23.332773    21.839727    9112.6203      1907.77    1894.1385    1913.1846   -506.49578    234.91834    120.86955   -4398.6866 
45593000    23.918686   -4695.7475   -4654.7517   -4695.7475            0    2001.9345    17.986549    23.216031    21.799994    9103.1607    1725.9101    2223.6601    2056.2335   -65.384142   -67.662995    -24.94463   -4388.9744 
45594000    25.669337   -4696.8633   -4652.8669   -4696.8633            0    1996.4854     17.89405    23.256065     21.85694    9095.6603    1683.5673    2118.4868     2187.402   -225.35981   -208.97352    387.08026   -4388.0314 
45595000    25.133729   -4697.3908   -4654.3125   -4697.3908            0    2144.0328    17.930262    23.238551    21.832425    9096.9888    1813.2745       2363.4    2255.4239    231.53028   -77.075322   -25.071781   -4369.8631 
45596000    26.058637   -4694.0659   -4649.4023   -4694.0659            0    2775.6729    17.823784    23.283371    21.850693    9067.9887    2938.4637    2515.6244    2872.9305    98.542134   -205.07171   -151.85866    -4282.327 
45597000    25.234165    -4694.518   -4651.2675    -4694.518            0    2242.0539    17.916418    23.158483    21.912525    9091.8809    2398.9491    2439.9668    1887.2458   -357.39498    221.41617    167.32682   -4353.9806 
45598000    24.823003   -4696.3954   -4653.8496   -4696.3954            0    2772.6711    17.874602    23.236011    21.837652    9069.9291    2537.8802    2616.3725    3163.7605   -26.829159   -49.214184    174.84366   -4287.0928 
45599000    26.097645   -4696.0614   -4651.3309   -4696.0614            0    2652.3587    17.835845    23.196523    21.932635    9074.1804    2667.6675    2702.2955     2587.113   -91.035207    109.34535    134.98832   -4300.3241 
45600000    25.190599   -4697.9353   -4654.7595   -4697.9353            0    2443.9826    17.914615    23.206326    21.851832    9084.5144    2422.0494    2591.3464     2318.552   -41.436349   -28.210934    304.49551   -4330.9603 
45601000    24.009721   -4697.1145   -4655.9626   -4697.1145            0    2416.8328    17.848027    23.323145    21.821154     9083.538    2408.5812    2267.9817    2573.9356   -168.69322   -83.693961      47.8997   -4335.7949 
45602000     26.63336   -4697.0644   -4651.4158   -4697.0644            0    2317.3597    17.922267    23.204619    21.856208    9089.5464    2123.0643    2508.6088    2320.4061    25.500367    34.890992    53.067477   -4344.2226 
45603000    26.056434   -4695.9609   -4651.3011   -4695.9609            0    2298.2303    17.818203    23.348806     21.85337    9091.7399    2386.0952    2298.7821    2209.8134   -84.032136    259.90658    44.935206   -4346.5702 
45604000    25.332049   -4696.0725   -4652.6543   -4696.0725            0      2466.82    17.805074    23.320592    21.881619    9085.7925    2458.2172    2682.3889    2259.8539   -540.36947   -134.90792    31.343335   -4325.7834 
45605000     25.75176    -4695.304   -4651.1664    -4695.304            0    2153.4211    17.903226    23.302591    21.819771    9103.0239    1603.1234    2529.4666    2327.6732    -83.46941    186.81456   -84.854043   -4365.2819 
45606000    24.136209   -4696.6659   -4655.2973   -4696.6659            0    2443.7674    17.877475    23.247344    21.850368    9081.0959    2311.3562    2727.8259    2292.1202    18.128464   -412.69989    25.638342   -4331.6485 
45607000    25.470244   -4699.6542    -4655.999   -4699.6542            0    2150.4739    17.882503    23.262167    21.867332    9096.4989    2307.2227    1994.5405    2149.6585     287.2942    210.56187     156.0779   -4370.7105 
45608000    25.023106   -4696.2656   -4653.3768   -4696.2656            0    2030.1706    17.861641    23.307285    21.871895    9105.4089    1786.2353    1900.1416    2404.1348   -333.39894   -364.63651    201.86841   -4383.7843 
45609000    24.359073   -4695.1991   -4653.4485   -4695.1991            0    2110.3345    17.886177    23.209645    21.902206    9092.3027    2144.4417    2592.3508    1594.2111    151.88809     80.70916    -151.5939   -4373.6141 
45610000    24.429152   -4695.5903   -4653.7195   -4695.5903            0    2252.4973    17.852638    23.293467     21.87266     9095.742    2027.7878    2490.7242      2238.98    11.181266   -239.77505    155.37205   -4354.9211 
45611000    24.808159   -4694.6142   -4652.0938   -4694.6142            0    2356.2691    17.930782    23.292129    21.751589    9084.4658    1674.6305    2322.1191    3072.0578   -145.49502     37.61086    135.53971   -4339.9174 
45612000    24.329026   -4694.5515   -4652.8524   -4694.5515            0    2425.3992     17.84464    23.196741    21.955756    9088.3109    2486.1312    2732.3385    2057.7279   -327.44228   -153.22236    222.16729   -4331.3811 
45613000     24.93259   -4695.8582   -4653.1246   -4695.8582            0    2254.1307    17.848137    23.229166    21.933053    9093.3855    2310.1428     2521.232    1931.0173   -4.2606417   -345.74228    149.62317   -4354.1869 
45614000    25.259585   -4693.1997   -4649.9056   -4693.1997            0    2030.3171    17.878309    23.264693    21.892241    9105.7136    1769.2175    2327.0408    1994.6931   -21.026279    131.69715    167.18046   -4380.2846 
45615000    25.561115   -4694.1525   -4650.3416   -4694.1525            0    2032.0002    17.867124    23.245038    21.916103    9102.2392    1609.1434     2097.013    2389.8442    330.09839   -314.12872   -118.43356   -4380.6001 
45616000    25.220146   -4697.2705   -4654.0441   -4697.2705            0      2169.17    17.881143    23.256781    21.884037    9100.6477    1846.2239    2391.8406    2269.4456   -639.35224     171.9839    173.62722    -4366.144 
45617000    24.410773   -4696.9167   -4655.0775   -4696.9167            0    2395.0418    17.827138    23.299327    21.873727    9085.4784    2498.5783    2400.3663    2286.1807    63.033261   -59.552175    157.20364   -4337.7288 
45618000    24.913591   -4697.5116   -4654.8105   -4697.5116            0    2370.2874    17.897893    23.179949    21.912234    9090.7781    2115.8618       2633.5    2361.5004   -263.04666    68.193712   -107.06937   -4340.5586 
45619000    25.754198   -4695.3839   -4651.2421   -4695.3839            0    2313.7166    17.968401    23.225947    21.798861    9097.3869    2321.5272    2570.0362    2049.5863    218.09731   -10.549331   -217.15618   -4344.2673 
45620000    25.476273   -4698.3152   -4654.6497   -4698.3152            0    2255.2987    17.819749    23.247575    21.956822    9095.9632    2407.6439    2215.6263    2142.6259    56.336378    92.050934    272.53444   -4355.4724 
45621000    25.022184   -4697.9602    -4655.073   -4697.9602            0    2070.1349    17.863797     23.29021    21.887742    9106.4295       2102.6    2019.1452    2088.6594   -191.65615    122.67902   -157.47223   -4380.1427 
45622000    26.376636   -4696.8509   -4651.6422   -4696.8509            0    1943.3878    17.847522    23.323559    21.859005    9099.1983    2073.4502    1622.6043    2134.1089   -46.347517   -18.456551    321.94571   -4393.7498 
45623000     24.46853   -4698.8935   -4656.9553   -4698.8935            0    1906.2577     17.90496    23.225976    21.903773    9108.9066     1997.728    2034.3841     1686.661    -145.8924    37.631008    66.579377   -4403.7203 
45624000    25.672584   -4694.6915   -4650.6895   -4694.6915            0    2151.0066    17.894684    23.260044    21.857287    9097.6831    2131.7771    2110.8262    2210.4163    75.647936    80.592277    235.23971   -4365.2932 
45625000    25.643823   -4693.4899   -4649.5373   -4693.4899            0    1908.8162    17.935812    23.227113    21.842708    9099.6097    1838.5976    2188.5381    1699.3131      -50.419    81.818872   -294.72532   -4396.2212 
45626000     24.39092   -4694.9065   -4653.1013   -4694.9065            0    2084.7287    17.886228    23.212906    21.920356    9101.1417    2023.3996    2163.5254    2067.2611    138.42347   -136.45891   -45.046174   -4376.3936 
45627000    26.084171   -4696.7934    -4652.086   -4696.7934            0     2189.069    17.901535    23.213482    21.871748    9088.9572    1608.6554    2181.2204    2777.3311   -197.02583   -63.016276    141.09701   -4361.9181 
45628000    25.318199   -4695.9497   -4652.5552   -4695.9497            0    2280.3906     17.86426    23.287784    21.870556    9098.5674    2355.5019    2285.5788     2200.091   -127.66177   -82.460293    61.063639   -4349.9627 
45629000    26.191828   -4695.1802   -4650.2883   -4695.1802            0    2170.0204     17.91145    23.217022    21.883387     9100.218    1868.6463    2318.1434    2323.2714    26.581612   -52.582647    366.25123    -4362.289 
45630000    24.346352   -4697.4321   -4655.7033   -4697.4321            0    2288.8391     17.90326    23.200163    21.890077    9092.2307    2053.9623    2541.8568    2270.6983   -264.30655    111.04444   -73.390774   -4352.2012 
45631000    24.877122   -4698.6968   -4656.0582   -4698.6968            0    2173.8359    17.820027    23.354419    21.851618    9094.1271    2584.6447    1898.7297    2038.1333   -153.97847     -162.521    13.685554   -4367.7456 
45632000    24.533689   -4691.6591   -4649.6092   -4691.6591            0    2122.1833    17.800338    23.350956    21.913371    9108.4006    2119.8875    2196.7572    2049.9053   -103.04727    276.18014   -133.37225   -4367.7054 
45633000    24.160135    -4695.515   -4654.1053    -4695.515            0    2211.6744    17.899839    23.258517    21.871317    9105.5478     2036.538    2288.5537    2309.9314    397.78411    72.578074    140.26039   -4360.4059 
45634000    25.536819   -4698.2971   -4654.5279   -4698.2971            0    2245.7352    17.923636    23.191018    21.871612    9091.3153    2043.1884    2300.2672    2393.7501   -4.4733304    265.01142   -65.731972   -4356.7715 
45635000    24.219432   -4697.2714   -4655.7601   -4697.2714            0    2459.8886     17.92915    23.168585    21.878188    9088.0468    2424.8785    2576.0428    2378.7446    26.294907   -77.629818   -1.8521514   -4329.7268 
45636000     25.26937   -4696.1057   -4652.7949   -4696.1057            0    2445.1675    17.887853    23.331274    21.781983    9090.6325    2525.4286    2340.8618    2469.2121   -353.49633    4.1056679    358.30096   -4328.6206 
45637000    24.241078   -4696.4346   -4654.8863   -4696.4346            0    2295.4713    17.821939    23.247669    21.950976    9094.6961    2437.2809    2422.1858    2026.9473   -329.88733    53.742003   -53.720952   -4350.4223 
45638000    25.929782   -4697.4084   -4652.9656   -4697.4084            0    2242.2531    17.908096    23.211253    21.883509     9096.304    2382.2638    2010.0375    2334.4579   -241.68434   -128.29458    11.532583   -4355.5077 
45639000     24.48074   -4699.5988   -4657.6396   -4699.5988            0    1904.7591     17.85334    23.360922    21.819987    9100.4727    2340.0381    1580.0944    1794.1448   -158.03344    29.837914    118.79184    -4404.838 
45640000     24.69874   -4694.6596   -4652.3268   -4694.6596            0    2055.2488    17.864259    23.240308      21.9043    9094.0277    1997.7687    2390.8198     1777.158    104.59654    204.12354   -4.1097269   -4379.7452 
45641000    25.136284   -4697.8372   -4654.7545   -4697.8372            0    1983.5062    17.811634    23.258271    21.985361    9107.8275    2246.4263    2424.8493     1279.243   -189.38176    77.283498    175.31051   -4391.2887 
45642000    25.114769    -4698.001   -4654.9551    -4698.001            0    2007.7006     17.94673     23.14103    21.924397    9105.3297    1851.9284    2573.0215    1598.1517   -343.81803   -321.14821   -17.174653   -4388.3488 
45643000    24.772524   -4697.0662    -4654.607   -4697.0662            0    2240.7092    17.880372    23.195788     21.92761    9094.4615    1902.7849    2337.1183    2482.2243   -124.88794    128.82817    24.219944   -4357.4141 
45644000    24.386242   -4695.0292   -4653.2321   -4695.0292            0    2282.9995    17.826722    23.280293    21.907976    9092.0576    2516.0493      2075.71    2257.2393    164.13825   -243.50183    112.55048   -4350.5101 
45645000     26.02352   -4694.5104   -4649.9069   -4694.5104            0    2208.1513    17.764247    23.405933    21.880728    9097.7611    2317.3858    1745.6032    2561.4649    69.047176    224.11041     155.7706   -4356.9261 
45646000    25.086239    -4697.048   -4654.0511    -4697.048            0    2212.5703    17.895119    23.302311    21.802043       9091.4    2096.8353    1885.8947    2654.9808    141.09396   -227.95992    75.208466   -4360.6892 
45647000     23.53403   -4696.2044   -4655.8679   -4696.2044            0     2236.343    17.897851    23.235594    21.877027    9097.9376    2237.7143    1922.0899    2549.2248   -86.261098    -47.86296    167.08339   -4359.1407 
45648000    23.864499   -4697.4914   -4656.5885   -4697.4914            0    2280.4797    17.896068    23.257792     21.85285    9095.6592    2391.6592    2098.2369    2351.5431       219.88   -18.712883    157.63796   -4354.0809 
45649000    26.078748    -4694.758   -4650.0599    -4694.758            0    2031.6828    17.864329    23.274542    21.904849    9107.6877    2195.3854    2209.7611    1689.9019   -44.820721   -18.769924    4.6747557    -4380.199 
45650000    25.244314   -4697.1297   -4653.8618   -4697.1297            0    2104.8239    17.935496    23.180843    21.888989    9100.5646     1790.202    2193.7848     2330.485   -10.315678    71.280902     19.42049   -4374.5046 
45651000    24.846527   -4693.4487   -4650.8626   -4693.4487            0    2384.1282    17.849746    23.319033     21.84484      9092.67    2494.9945    2265.3392    2392.0508    165.24847   -202.27569   -207.00153   -4334.7099 
45652000    23.295856   -4696.5431   -4656.6148   -4696.5431            0    2089.3275    17.937694     23.13822    21.922204      9098.73    2138.0372    2452.3002     1677.645   -84.406551    170.67853    125.78408   -4379.3701 
45653000    25.049957   -4694.6458    -4651.711   -4694.6458            0    1980.5183    17.918803    23.129763    21.969873    9105.5823    1914.9742    1725.9769    2300.6037    13.376391   -125.91124   -80.084035   -4388.7069 
45654000    24.079499   -4696.1681   -4654.8966   -4696.1681            0    2146.6695    17.838731    23.255494    21.935595    9099.9489    2481.0514    2114.1836    1844.7735    240.75817    26.961815   -61.186324   -4370.0048 
45655000    25.022283   -4696.7457   -4653.8584   -4696.7457            0    2135.6047    17.875912    23.356904    21.802388    9103.0629    2236.4362    1928.0665    2242.3113   -169.99932     -71.3318    92.203731    -4370.338 
45656000    24.166159   -4699.1719   -4657.7519   -4699.1719            0    2317.2794    17.859492     23.30455    21.838801    9089.4709    2346.1076    2146.3943    2459.3363    531.31626   -46.520241   -96.597398    -4350.572 
45657000    25.500717   -4697.7027   -4653.9953   -4697.7027            0    2279.2896     17.88861    23.176858    21.940049    9096.3832    2605.9584    2632.0707    1599.8398    242.74164      66.0573    263.35601   -4351.6215 
45658000    24.744404   -4696.7772   -4654.3661   -4696.7772            0    2291.7016    17.884585    23.318714    21.794257    9089.1977    2274.3851    2238.3361    2362.3834     233.6555    109.43271   -173.43992   -4350.5859 
45659000     24.79892   -4694.3847   -4651.8802   -4694.3847            0    2611.2377    17.883274    23.222421    21.865917    9080.7605    2384.1596    2609.9625    2839.5909     118.7249   -108.75159    336.18148   -4306.0647 
45660000    25.073147   -4692.9406   -4649.9661   -4692.9406            0    2360.8257    17.832388    23.294133    21.895768    9095.2837    2498.8987     2710.493    1873.0853    317.73052    -335.5635     -346.503   -4336.8134 
45661000    24.805914   -4699.1406   -4656.6241   -4699.1406            0    2193.4593    17.854026    23.289643    21.873029     9095.109     1922.215    2129.5295    2528.6334    160.53095    56.424743     198.9079   -4365.6774 
45662000    24.876055   -4696.7635   -4654.1268   -4696.7635            0     2185.049    17.848536    23.260663    21.912227    9097.2726    2523.3256    2348.0168    1683.8047   -113.51147   -77.665607   -103.26449   -4364.2267 
45663000    25.832151   -4696.9989   -4652.7235   -4696.9989            0    2231.6875    17.949614    23.190482    21.858646    9098.8843    2424.1247     2069.936    2201.0018    509.25536    47.143241    -52.29024   -4356.5833 
45664000    25.063466   -4697.6853   -4654.7274   -4697.6853            0    1986.8247    17.850012     23.28033    21.909554    9104.6068     2012.327    2071.2474    1876.8997   -198.39141    -19.75088    378.82932   -4390.9141 
45665000    25.160498   -4696.3224   -4653.1981   -4696.3224            0    2086.9977    17.897338    23.290073    21.830024    9099.4156    1768.6436    1645.9082    2846.4412    137.06876    172.40295   -127.13343   -4376.2418 
45666000    25.839541   -4695.6536   -4651.3655   -4695.6536            0    2109.9611     17.89695    23.200484    21.895503     9091.405    2580.0756    2213.5585    1536.2491    123.87108   -190.35877    270.23094   -4371.6082 
45667000    24.603056   -4698.6339   -4656.4651   -4698.6339            0    2038.8689    17.870265    23.350366    21.826925    9107.8785    1997.8187     1693.643    2425.1451    66.137778   -144.80647   -104.24397   -4385.6441 
45668000    26.384578   -4694.6652   -4649.4429   -4694.6652            0    2042.9404    17.833093    23.262616     21.96081    9110.3192    2418.3728     2005.666    1704.7825    223.29585   -88.247751    372.51943   -4378.0083 
45669000    26.524394   -4696.0972   -4650.6353   -4696.0972            0    2096.8041    17.911753    23.353814    21.761608    9103.0495    1969.3208    1998.3272    2322.7643   -112.81324   -44.622101    47.627149   -4372.2664 
45670000    25.572032   -4697.1367   -4653.3071   -4697.1367            0     1916.298    17.938196    23.236448    21.851326    9108.0686    1648.7046     2143.993    1956.1964   -135.91955   -143.78503   -195.48825   -4398.7617 
45671000    24.561908   -4695.2825   -4653.1843   -4695.2825            0     2008.091    17.917103    23.151633    21.963426     9110.653    1661.0154    2410.4429    1952.8147   -174.89174    92.425307    271.59709   -4386.3701 
45672000    24.350475   -4694.6534   -4652.9175   -4694.6534            0    2264.0579    17.903175     23.19845    21.908034    9098.9741    2169.5636    2476.9184    2145.6917    209.26054   -240.32217   -58.586939   -4352.4788 
45673000    24.366821   -4695.5451   -4653.7812   -4695.5451            0    2254.8189    17.891731    23.246626    21.880516    9100.5963    2299.9094    2257.6836    2206.8638    18.094679    211.10032    111.95752   -4354.5152 
45674000    25.069917   -4697.3532   -4654.3842   -4697.3532            0    2420.4506    17.793202    23.238716    21.973185    9085.7184    3045.9454    2139.6585    2075.7481   -168.59427   -48.498906    73.751402   -4333.6602 
45675000    25.798084   -4697.0986   -4652.8816   -4697.0986            0    2043.5416    17.921442     23.28606    21.821126    9106.3879    2292.7981     1656.368    2181.4586   -198.70232    166.47557    210.88265   -4381.4843 
45676000    24.465605   -4696.9412    -4655.008   -4696.9412            0    1992.1544    17.855967    23.325278    21.864366    9106.4077    2174.1632    1538.7701    2263.5297   -180.78723    -176.9114    87.811608   -4390.4347 
45677000     25.80021   -4694.9316   -4650.7109   -4694.9316            0     2097.212    17.938686    23.220887    21.864845    9107.8491    2174.6098    2189.1736    1927.8527    21.754843   -23.200069    179.01528   -4372.1411 
45678000    25.687407   -4695.6445   -4651.6172   -4695.6445            0    2248.0991    17.891484    23.305512    21.801796    9090.6991    2119.7777    2000.3474    2624.1721   -230.13516   -292.77234    88.730777   -4353.5676 
45679000    24.961593   -4698.1594    -4655.376   -4698.1594            0    1746.4638    17.880509    23.322542    21.867145    9119.0133    2218.8277    1536.9747    1483.5889   -258.82208   -146.68893    179.81404   -4423.1113 
45680000    25.108056   -4696.8533    -4653.819   -4696.8533            0    1918.2165    17.852029    23.260834    21.922874    9103.5411    2160.2862    1576.9137    2017.4496   -83.885415    120.93794    271.90653   -4399.1454 
45681000    25.640231   -4696.7265     -4652.78   -4696.7265            0    1967.8748    17.907662    23.255343    21.865601    9105.9039    2499.1805    1772.0911    1632.3528   -224.69844   -87.163427   -53.833886   -4391.4457 
45682000    26.276778   -4694.2418   -4649.2043   -4694.2418            0    2263.2259    17.861741    23.183321    21.957747    9092.5818    2506.8906     2090.559     2192.228   -181.67402   -35.417631    162.04215    -4349.087 
45683000    24.156648    -4696.231   -4654.8274    -4696.231            0    2324.4872    17.846019    23.261012    21.915264    9097.3868    2620.4246     1921.865    2431.1721    74.084741    -299.5469   -202.35075   -4346.4236 
45684000    24.779626   -4698.0701   -4655.5987   -4698.0701            0    2078.1614    17.872945    23.368415    21.801545    9105.6855    1910.5315    1943.2214    2380.7313   -598.35866   -45.525028    235.34072   -4379.6249 
45685000    24.980996    -4695.222   -4652.4054    -4695.222            0    1966.2849    17.874678     23.33389     21.83323    9106.3298     1741.457    2033.8008    2123.5969   -270.09358    -1.512212   -218.79055   -4391.2701 
45686000    25.938073   -4696.1096   -4651.6526   -4696.1096            0    1703.6266    17.855291    23.319029     21.88186    9110.9076    1734.2109    1764.7166    1611.9521    -61.06772   -61.252077   -149.13177   -4425.2862 
45687000    24.396534   -4695.4197   -4653.6049   -4695.4197            0    2426.4805    17.871618    23.276223    21.846932    9087.9688    2350.9936    2287.1988    2641.2491    88.333626    19.950227     131.2823   -4332.0023 
45688000     25.38197   -4692.5351   -4649.0313   -4692.5351            0    2191.4162    17.891051    23.149048    21.961499    9095.5921    1987.4226     2667.674    1919.1518   -167.86014   -97.375935    167.68382   -4358.3402 
45689000    24.796529   -4698.2087   -4655.7083   -4698.2087            0    2043.7507    17.913918    23.272545    21.827794    9100.0613    1760.6262    2200.0022    2170.6239   -324.71872   -23.382383   -40.277726   -4384.4718 
45690000    26.392988    -4693.164   -4647.9273    -4693.164            0    2388.6821    17.855126     23.24077    21.901302    9088.3148    2518.2387    2731.6732    1916.1346   -55.946861    -114.6235    141.94815   -4331.3224 
45691000     25.32762   -4694.7776    -4651.367   -4694.7776            0    2575.5356    17.857366    23.213672    21.904409    9080.1447    2640.5016    2660.8153    2425.2898   -73.529307    62.506849    -45.20876   -4310.3027 
45692000    24.866886   -4694.7612   -4652.1403   -4694.7612            0    2645.7556    17.897827     23.24412    21.828424    9081.0441    2541.8297    2600.6169    2794.8201   -474.11083   -82.905572   -153.91105   -4301.7424 
45693000    25.605602   -4695.3957   -4651.5085   -4695.3957            0    2556.4106     17.90216    23.126787    21.918291    9074.5988    2420.0022     3200.762    2048.4677   -42.032475    287.36125   -88.442798   -4313.1836 
45694000    25.371422   -4694.0912   -4650.6055   -4694.0912            0    2562.3283    17.889741    23.273511    21.804608    9078.5032    2520.6204    2423.3237    2743.0407    62.467859   -331.72113   -65.206471   -4311.3515 
45695000    25.036651   -4696.7923   -4653.8803   -4696.7923            0    2195.3317    17.893534    23.241893    21.894577    9105.5085    2178.0941    2656.3502    1751.5509   -229.25967   -11.841901    384.01275   -4362.3523 
45696000    25.133219    -4696.142   -4653.0645    -4696.142            0    1965.0299    17.936856     23.21008    21.876891    9107.6971    1921.7789    2127.7336    1845.5772   -318.60018   -23.377239   -129.37909   -4392.0566 
45697000     25.83443   -4695.7093     -4651.43   -4695.7093            0     2356.896    17.902602    23.206213    21.875562    9088.2372     2547.752    2415.3653    2107.5706   -115.01315    27.751948    474.01636   -4339.0408 
45698000    25.109336    -4695.591   -4652.5544    -4695.591            0    2028.0228    17.859991    23.258548    21.927233    9108.5169    2212.8615    1951.4222    1919.7847    -175.4474    7.7314552   -487.55767   -4383.1552 
45699000    25.710317   -4694.7276    -4650.661   -4694.7276            0    2066.7668     17.87356    23.355005    21.821209    9108.9816    1894.5186    1802.8084    2502.9734     79.63425   -171.06421    510.35769    -4376.101 
45700000    25.697828   -4696.6384   -4652.5932   -4696.6384            0    2117.3796    17.803414    23.357952      21.8904    9103.1512    2350.3879    1870.6601    2131.0907   -523.43196   -53.309772   -41.928915   -4371.4896 
45701000    24.166888   -4693.4209   -4651.9997   -4693.4209            0    2220.8215    17.891794    23.235317    21.887906    9099.2733    2189.7818    2560.2922    1912.3905    120.00519   -12.298061    45.399915   -4357.2887 
45702000     24.87022   -4694.6645   -4652.0378   -4694.6645            0    2192.9617    17.928304    23.183324     21.91342    9108.0432    2041.1743    2415.9048     2121.806   -469.44123    13.662523   -119.50742   -4360.7435 
45703000    23.762515   -4694.6153   -4653.8872   -4694.6153            0    2271.3244    17.883068    23.186108    21.932542    9094.0816    2404.3462    2534.9291    1874.6979     81.72041   -24.591607   -51.433975   -4352.6463 
45704000    25.787151   -4698.6478   -4654.4495   -4698.6478            0    2242.5319    17.905942    23.206313    21.909413    9104.0381     2409.655    2194.9643    2122.9763   -140.73312   -150.47639    481.60992   -4356.7017 
45705000    23.857474   -4696.2443   -4655.3534   -4696.2443            0    2571.2507    17.863182    23.238174    21.878152      9081.79    2828.2831    2375.9081    2509.5608    236.81078   -192.82919    71.786873   -4314.7949 
45706000    25.585864    -4699.077   -4655.2237    -4699.077            0    2374.5014    17.924302    23.235668    21.814518    9085.3784    2188.0945    2561.5668    2373.8428   -572.80086    40.257846    188.54076   -4340.6001 
45707000    24.449604   -4695.8009   -4653.8952   -4695.8009            0    2125.0564    17.878486    23.240335    21.908189    9102.8964    2387.1552    2088.0733    1899.9406   -302.10568   -176.79852   -17.833726   -4371.7803 
45708000    26.056764   -4697.1508   -4652.4904   -4697.1508            0    2256.4532    17.926453    23.294745    21.792376    9100.3252    2307.8667    1969.6652    2491.8276    1.7988879    162.14218    105.17289   -4353.0164 
45709000    25.121196   -4696.8827   -4653.8258   -4696.8827            0     2042.711    17.930525    23.231597    21.863492    9107.3413    2267.2845    1913.1575     1947.691    43.663337   -178.76404   -51.979215   -4382.5105 
45710000    26.150563   -4695.1742    -4650.353   -4695.1742            0    2212.0447    17.867666    23.195065    21.960519    9101.3547    2554.9001    2118.6664    1962.5677    149.92842     193.5121    327.75731   -4356.7396 
45711000    24.801148   -4695.5872   -4653.0789   -4695.5872            0    2368.4455    17.888668    23.207757    21.888304    9087.0576     2222.294    2526.0403    2357.0022     134.1085    -29.98347    -106.2157   -4339.1996 
45712000    25.317202    -4695.288   -4651.8952    -4695.288            0     2387.194    17.899033     23.16092    21.923748    9088.6667    2395.1921     2765.325     2001.065   -146.73784    -221.0746    58.432917   -4335.4753 
45713000    25.421847    -4694.426   -4650.8538    -4694.426            0    2315.6838    17.892813    23.247253    21.874235    9098.7796    2312.5484    2167.8037    2466.6992    435.57096    113.97566    78.411576    -4343.571 
45714000    25.161111    -4697.154   -4654.0288    -4697.154            0    2371.9106     17.90748    23.243554    21.834843    9088.3926    2172.3208    2384.8727    2558.5384    140.16103   -33.568172   -16.055369   -4339.6441 
45715000    24.207383   -4699.2714   -4657.7807   -4699.2714            0    2148.9178    17.895763    23.238751    21.880911     9099.728    2183.8622    2290.2953     1972.596    12.430895   -154.84698    176.94535   -4372.5974 
45716000    25.140557    -4697.116    -4654.026    -4697.116            0    2383.9178     17.86845    23.286775    21.835536    9085.7356    2276.3797    2290.3031    2585.0707   -240.71889   -51.261276   -262.02748   -4338.1423 
45717000    24.800413   -4699.8084   -4657.3014   -4699.8084            0    1999.3468    17.887369    23.303399    21.851039    9108.3111    2254.5258    1844.7748    1898.7397    167.13844    92.143041    94.036213   -4391.7174 
45718000    25.325226   -4696.3664   -4652.9598   -4696.3664            0    2134.8735    17.904253    23.292252     21.84011     9107.989    2111.5977    1610.2613    2682.7614     67.45889   -4.5597759    195.36384   -4369.3831 
45719000    24.862886   -4694.4673   -4651.8532   -4694.4673            0    1964.4455     17.90746    23.271674    21.880146    9118.2571    2402.8811    1949.8495     1540.606    97.685485   -54.261048    69.654258   -4390.6204 
45720000    23.859181   -4694.8929   -4653.9991   -4694.8929            0    2253.4685    17.831509    23.276118    21.901189    9090.0512    2567.2953    2113.1312    2079.9788    -5.941073    1.9208425   -150.15613   -4355.2588 
45721000    24.706638   -4694.8521   -4652.5058   -4694.8521            0    2555.4059    17.894239    23.199839    21.892456    9088.5101    2826.5427    2426.6346    2413.0403    292.65521    146.01877   -14.429952   -4313.7954 
45722000    25.690726   -4698.4141   -4654.3811   -4698.4141            0    2485.0929    17.879964    23.220485    21.882627    9085.2604    2367.5992    2369.3383    2718.3411    22.093179    116.34172    296.21849   -4325.1083 
45723000    24.775006   -4697.1582   -4654.6947   -4697.1582            0    2405.0931    17.887346    23.155814    21.926908    9082.0386    2288.4927    2628.1216     2298.665   -158.59556    -155.5462   -345.51495   -4336.1347 
45724000    25.240362   -4696.9922   -4653.7311   -4696.9922            0     2355.095    17.910989    23.293225    21.786741    9089.5307    2166.7772    2194.4037    2704.1042   -280.33123   -118.54116    154.02172   -4341.5362 
45725000    24.512395   -4696.8339   -4654.8205   -4696.8339            0      2187.74    17.872152    23.194177    21.944654    9096.7138    2213.9131    2323.8045    2025.5022    183.01597    45.056735    4.2145944   -4364.5813 
45726000    25.122499    -4697.064   -4654.0048    -4697.064            0    1955.4104    17.906412    23.259829    21.864742    9106.6666    1922.1137    2175.8757    1768.2417    201.66341    168.15636    -3.945885   -4394.3041 
45727000    26.961686   -4694.0441   -4647.8327   -4694.0441            0    1948.1716    17.875328    23.371968    21.784266    9101.0652    1909.6988    1559.0352    2375.7806    22.929694    67.328645   -45.799584   -4389.2524 
45728000    25.904742   -4695.8841   -4651.4842   -4695.8841            0    1863.2532    17.869955    23.255547    21.928703    9113.0333    2362.9207    1637.4146    1589.4244   -213.77454   -237.84103   -28.429876     -4403.85 
45729000    26.137046   -4696.8786   -4652.0806   -4696.8786            0    1773.7092    17.849495    23.325792    21.885643    9112.1661    2110.9867    1643.3886    1566.7523    115.17207    30.258921    63.558033   -4416.3696 
45730000    25.772248   -4693.8926   -4649.7199   -4693.8926            0    2222.3816    17.844339    23.358323    21.818363    9094.1955    1839.3771    2272.2431    2555.5247   -111.26447   -128.10501   -68.358527   -4354.9665 
45731000      26.0801   -4695.6209   -4650.9205   -4695.6209            0    2311.0351     17.90578    23.187077     21.89862    9091.9282    1771.7782    2700.2686    2461.0585   -43.384415    56.366657   -51.554762   -4344.4855 
45732000    25.512478   -4695.6422   -4651.9147   -4695.6422            0    2170.1494    17.855949    23.270813    21.894352    9097.5949    2161.8507    2485.1373    1863.4601    99.062547   -25.291457    283.56432   -4363.9813 
45733000    24.128669   -4695.0125   -4653.6567   -4695.0125            0    2442.0385    17.926207    23.242778    21.831001    9095.9926    2134.2181     2669.268    2522.6295    -338.5999    27.802301   -195.64037   -4329.7064 
45734000    25.521019   -4694.3141   -4650.5719   -4694.3141            0    2186.7153    17.902195    23.259761    21.855387    9100.6002    2111.4956    2013.4079    2435.2422    54.137136    14.477825    290.19719   -4360.3447 
45735000    24.901231   -4697.9275   -4655.2476   -4697.9275            0     2155.746    17.981819    23.231429    21.792748    9103.7755    1647.8632    2390.4427    2428.9319   -59.691696   -32.080815    58.862537   -4369.0309 
45736000    24.286797   -4694.5117    -4652.885   -4694.5117            0    2066.0436    17.866491    23.195291    21.957956    9099.7822    1734.0672    2473.3849    1990.6786   -265.54222   -145.80224    196.61214   -4378.6983 
45737000    24.169713   -4695.2417   -4653.8156   -4695.2417            0    2237.1545    17.942105    23.196965    21.864791    9100.1779    1824.9368     2725.417    2161.1097    222.69598    68.186979    102.76113   -4356.9077 
45738000    25.567768   -4695.5016   -4651.6793   -4695.5016            0     2195.517    17.895216    23.254645    21.859311    9096.6844    2366.4931    2610.7747    1609.2831    144.04612    18.180126    170.45559   -4360.4093 
45739000      25.5522   -4697.2706    -4653.475   -4697.2706            0    2089.1756    17.935205    23.251065     21.82713    9102.1886    2070.6064    1953.9166    2243.0039    31.113018   -11.827384   -68.841887   -4376.1451 
45740000    24.049375   -4693.7856   -4652.5658   -4693.7856            0    2262.1285    17.774926    23.347251    21.923298    9098.0736    2694.1051     2175.507    1916.7735    186.51483   -405.61788     178.9711   -4352.4129 
45741000    24.453909   -4697.2339   -4655.3208   -4697.2339            0    1879.3279    17.880837    23.284854    21.856449    9099.9911    1957.0445    1499.0919    2181.8474   -153.83607   -55.222031   -27.380095   -4405.9076 
45742000    25.061702   -4694.3515   -4651.3966   -4694.3515            0    2217.3989    17.865334    23.293936    21.848427    9092.3088    2562.7445    1530.7678    2558.6844    45.630361   -146.69299     88.60603   -4357.3651 
45743000    25.673951   -4693.9536   -4649.9493   -4693.9536            0    2535.9068    17.897626    23.139507    21.923567    9079.4748    2816.5637    2706.7067    2084.4501    173.96943    274.85211    180.62057   -4314.1576 
45744000    26.089681   -4695.4893   -4650.7725   -4695.4893            0    2162.9409    17.859466     23.23258    21.916952    9093.8145    2259.1952    2364.3302    1865.2973    144.44873   -83.787643    242.17354   -4363.9147 
45745000    26.285984   -4696.0764   -4651.0231   -4696.0764            0    1993.6389    17.866483    23.260344    21.904721     9103.176    2144.8572    2174.2196      1661.84    -192.4861     387.1736     36.38219   -4386.3466 
45746000     25.35105   -4696.6607   -4653.2099   -4696.6607            0     2086.701     17.86173    23.223358    21.946718    9103.7043    2115.2943    2392.3116     1752.497    54.930575   -437.54424   -40.488937   -4376.1624 
45747000    23.856251   -4694.9281   -4654.0393   -4694.9281            0    2020.6687    17.899831    23.285123    21.844856    9104.9306     1737.125    1857.2236    2467.6574    80.737655    153.23677    202.45687   -4385.7227 
45748000    26.300337   -4694.7545   -4649.6766   -4694.7545            0    2446.0234    17.842222    23.240128    21.921986    9090.0725    2406.8756    2649.4478    2281.7468   -98.929621    -183.3892    23.059376   -4325.4088 
45749000    24.036263   -4696.4661   -4655.2688   -4696.4661            0    2449.2463    17.933552    23.262648     21.77662     9084.812    2411.7587    2535.7529    2400.2274   -75.389958   -32.196501    46.324744   -4330.7616 
45750000    27.975644     -4697.54   -4649.5907     -4697.54            0    2220.8001    17.813197    23.283779    21.939546    9099.6141    2716.2492    2004.0926    1942.0586    238.18088    272.32839    31.271978   -4354.8716 
Loop time of 384.793 on 64 procs for 250000 steps with 864 atoms

Performance: 112.268 ns/day, 0.214 hours/ns, 649.700 timesteps/s
191.9% CPU use with 32 MPI tasks x 2 OpenMP threads

MPI task timing breakdown:
Section |  min time  |  avg time  |  max time  |%varavg| %total
---------------------------------------------------------------
Pair    | 17.903     | 24.657     | 33.151     | 108.2 |  6.41
Bond    | 1.0097     | 1.1875     | 1.5241     |  10.2 |  0.31
Kspace  | 190.96     | 201.88     | 210.64     |  43.0 | 52.46
Neigh   | 0.082767   | 0.088882   | 0.096085   |   1.1 |  0.02
Comm    | 58.389     | 61.23      | 65.123     |  22.0 | 15.91
Output  | 0.45234    | 0.45266    | 0.4541     |   0.0 |  0.12
Modify  | 69.801     | 72.185     | 76.177     |  19.0 | 18.76
Other   |            | 23.11      |            |       |  6.01

Nlocal:        27.0000 ave          38 max          19 min
Histogram: 7 7 2 0 3 4 1 1 3 4
Nghost:        2168.88 ave        2275 max        2065 min
Histogram: 8 8 0 0 0 0 0 1 7 8
Neighs:        6677.06 ave        9337 max        4717 min
Histogram: 6 9 1 0 2 4 2 1 1 6

Total # of neighbors = 213666
Ave neighs/atom = 247.29861
Ave special neighs/atom = 2.0000000
Neighbor list builds = 250
Dangerous builds = 0

unfix		3
unfix		2
unfix		1

write_data	data.final.${pid} nocoeff
write_data	data.final.0 nocoeff
System init for write_data ...
PPPM initialization ...
  extracting TIP4P info from pair style
  using 12-bit tables for long-range coulomb (../kspace.cpp:340)
  G vector (1/distance) = 0.3721406
  grid = 24 27 25
  stencil order = 5
  estimated absolute RMS force accuracy = 0.0031144653
  estimated relative force accuracy = 9.3791197e-06
  using double precision FFTW3
  3d grid and FFT values/proc = 4410 672
Last active /omp style is kspace_style pppm/tip4p/omp

write_restart   restart.lmp.${pid}
write_restart   restart.lmp.0
System init for write_restart ...
PPPM initialization ...
  extracting TIP4P info from pair style
  using 12-bit tables for long-range coulomb (../kspace.cpp:340)
  G vector (1/distance) = 0.3721406
  grid = 24 27 25
  stencil order = 5
  estimated absolute RMS force accuracy = 0.0031144653
  estimated relative force accuracy = 9.3791197e-06
  using double precision FFTW3
  3d grid and FFT values/proc = 4410 672
Last active /omp style is kspace_style pppm/tip4p/omp
Total wall time: 0:06:24
