#include		in.partitions
include		in.temp
variable        temperature equal 155.10
variable	tempDamp equal 100.0
include		in.pressure
variable        pressure equal 2071.9
variable        pressureDamp equal 1000.0 # This is 1 ps
include		in.seed
variable        seed equal 745823

units		real
atom_style	full
#include		in.box
read_restart	restart.lmp.${pid}
read_restart	restart.lmp.1
Reading restart file ...
  restart file = 30 Jul 2021, LAMMPS = 30 Jul 2021
  restoring atom style full from restart
  orthogonal box = (0.084886098 0.23813686 0.12772738) to (18.122686 23.391041 22.085468)
  2 by 4 by 4 MPI processor grid
  restoring pair style lj/cut/tip4p/long/omp from restart
  restoring bond style harmonic/omp from restart
  restoring angle style harmonic/omp from restart
  864 atoms
  576 bonds
  288 angles
Finding 1-2 1-3 1-4 neighbors ...
  special bond factors lj:    0        0        0       
  special bond factors coul:  0        0        0       
     2 = max # of 1-2 neighbors
     1 = max # of 1-3 neighbors
     1 = max # of 1-4 neighbors
     2 = max # of special neighbors
  special bonds CPU = 0.002 seconds
  read_restart CPU = 0.008 seconds
include 	in.setup
variable	out_freq equal 1000
variable	out_freq2 equal 10000
variable	out_freq3 equal 1000

timestep	2.0

neigh_modify    delay 7 every 1

include		in.tip4p
# This is TIP4P/Ice

# create groups ###
group ox type 2
288 atoms in group ox
group hy type 1
576 atoms in group hy

# set charges - beside manually ###
set group ox charge -1.1794
Setting atom values ...
  288 settings made for charge
set group hy charge 0.5897
Setting atom values ...
  576 settings made for charge

# ### TIP3P Potential Parameters ###
pair_style lj/cut/tip4p/long/omp 2 1 1 1 0.1577 8.5
pair_coeff 1 1*2 0.000 0.000
pair_coeff 2 2 0.21084 3.1668
bond_style  harmonic
bond_coeff  1 450 0.9572
angle_style harmonic
angle_coeff 1 55 104.52
kspace_style pppm/tip4p/omp 1.0e-5
pair_modify tail yes

thermo          ${out_freq}
thermo          1000
thermo_style    custom step temp pe etotal epair emol press lx ly lz vol pxx pyy pzz pxy pxz pyz enthalpy

restart 	${out_freq3} restart.lmp.${pid} restart2.lmp.${pid}
restart 	1000 restart.lmp.${pid} restart2.lmp.${pid}
restart 	1000 restart.lmp.1 restart2.lmp.${pid}
restart 	1000 restart.lmp.1 restart2.lmp.1


include         in.dump
dump            myDump all atom ${out_freq2} dump.water.${pid}
dump            myDump all atom 10000 dump.water.${pid}
dump            myDump all atom 10000 dump.water.1
dump            myDump2 all dcd ${out_freq2} dump.dcd
dump            myDump2 all dcd 10000 dump.dcd
dump_modify     myDump append yes
dump_modify     myDump2 append yes


variable natoms 	equal  "count(all)"                        # NUMBER ATOMS
variable H      	equal  "enthalpy/v_natoms"                 # ENTHALPY-per-atom
variable Vol      	equal  "vol/v_natoms"                 # volume-per-atom
fix AVG all 		ave/time ${out_freq} 1 ${out_freq} v_Vol v_H file vol_enthalpy.dat
fix AVG all 		ave/time 1000 1 ${out_freq} v_Vol v_H file vol_enthalpy.dat
fix AVG all 		ave/time 1000 1 1000 v_Vol v_H file vol_enthalpy.dat


timer           timeout 23:50:00 every 1000
New timer settings: style=normal  mode=nosync  timeout=23:50:00

fix 		1 all shake 1e-6 200 0 b 1 a 1
       0 = # of size 2 clusters
       0 = # of size 3 clusters
       0 = # of size 4 clusters
     288 = # of frozen angles
  find clusters CPU = 0.001 seconds
fix             2 all nph aniso ${pressure} ${pressure} ${pressureDamp}
fix             2 all nph aniso 2071.9 ${pressure} ${pressureDamp}
fix             2 all nph aniso 2071.9 2071.9 ${pressureDamp}
fix             2 all nph aniso 2071.9 2071.9 1000
fix             3 all temp/csvr ${temperature} ${temperature} ${tempDamp} ${seed}
fix             3 all temp/csvr 155.1 ${temperature} ${tempDamp} ${seed}
fix             3 all temp/csvr 155.1 155.1 ${tempDamp} ${seed}
fix             3 all temp/csvr 155.1 155.1 100 ${seed}
fix             3 all temp/csvr 155.1 155.1 100 745823


run             250000
PPPM initialization ...
  extracting TIP4P info from pair style
  using 12-bit tables for long-range coulomb (../kspace.cpp:340)
  G vector (1/distance) = 0.37207227
  grid = 24 27 25
  stencil order = 5
  estimated absolute RMS force accuracy = 0.003113877
  estimated relative force accuracy = 9.3773481e-06
  using double precision FFTW3
  3d grid and FFT values/proc = 4410 672
Last active /omp style is kspace_style pppm/tip4p/omp
Neighbor list info ...
  update every 1 steps, delay 7 steps, check yes
  max neighbors/atom: 2000, page size: 100000
  master list distance cutoff = 10.8154
  ghost atom cutoff = 10.8154
  binsize = 5.4077, bins = 4 5 5
  1 neighbor lists, perpetual/occasional/extra = 1 0 0
  (1) pair lj/cut/tip4p/long/omp, perpetual
      attributes: half, newton on, omp
      pair build: half/bin/newton/omp
      stencil: half/bin/3d
      bin: standard
Per MPI rank memory allocation (min/avg/max) = 10.19 | 10.22 | 10.23 Mbytes
Step Temp PotEng TotEng E_pair E_mol Press Lx Ly Lz Volume Pxx Pyy Pzz Pxy Pxz Pyz Enthalpy 
17000000    164.08366   -4437.2931   -4156.0594   -4437.2931            0    2401.3029      18.0378    23.152904    21.957741    9170.1556    2059.9637    2573.2296    2570.7155    927.60443   -477.00713    458.86345   -3834.9156 
17001000    152.56939   -4445.2988   -4183.8001   -4445.2988            0    2255.0605     17.84465    23.315115    22.008036    9156.4446    1531.7872    3147.9661    2085.4281   -183.35499   -206.83898     288.7042   -3882.6653 
17002000    157.86047   -4456.6318   -4186.0644   -4456.6318            0    3125.9504    18.040243    23.218475    21.841757    9148.7895    3532.6906    2550.6639    3294.4969    105.81251   -457.62521    829.27152   -3768.9822 
17003000    159.10352   -4467.1183   -4194.4203   -4467.1183            0    1735.7378    17.959527    23.458886    21.905991    9229.2237    858.92014    938.21728     3410.076    429.41315   -171.54239    518.67277   -3960.7921 
17004000    146.99367   -4467.0214   -4215.0793   -4467.0214            0    1744.4991    18.063725    23.370817     21.82082    9211.9649    1559.9625    1850.7386    1822.7961    620.52946   -415.45905   -149.16887    -3980.711 
17005000    158.60423   -4455.6745   -4183.8322   -4455.6745            0    1709.9613    18.016988    23.293827    21.903432    9192.5332    1863.4301    666.17043    2600.2834    189.65403   -248.43317    699.39328   -3954.5886 
17006000    161.83573   -4456.5717   -4179.1908   -4456.5717            0    1621.9061    17.929745    23.325892    22.122353     9252.172    2016.1366    2171.8117    677.77002    947.77629   -631.87277   -327.04376   -3960.3414 
17007000    158.06597   -4459.6689   -4188.7492   -4459.6689            0    1936.6106     18.02196    23.307691    21.970286    9228.6243    996.81661    2384.6166    2428.3987   -455.31419      -249.81   -508.55292   -3928.1008 
17008000    157.27569   -4446.9426   -4177.3775   -4446.9426            0    1777.5889    17.985211    23.526026    21.820338     9232.633    2068.2046    835.15975    2429.4024    288.35837   -24.961828   -280.18618   -3938.0278 
17009000    158.41009   -4442.5254   -4171.0159   -4442.5254            0    1629.8812    18.022952    23.182862    22.130088    9246.4734    1187.1011    1747.8702    1954.6722    63.149169   -11.352013    439.66213   -3951.2259 
17010000    150.68408   -4439.9811   -4181.7137   -4439.9811            0    1532.1682    17.901371    23.382977    22.075359    9240.4662    744.53144    1794.4612    2057.5119   -311.37732    24.857418    538.22316   -3975.2346 
17011000    160.14652   -4467.9889   -4193.5032   -4467.9889            0      1627.13    18.217902    23.210524    21.825957    9229.0416    522.14681    1675.4827    2683.7604     306.6577    -470.7511    787.56077   -3974.4979 
17012000    170.48157   -4454.9382   -4162.7386   -4454.9382            0    2072.2839    17.837622     23.51594    22.008908    9232.0426    2194.8211    1185.6635    2836.3672   -1041.0448   -588.74541   -548.07785   -3883.7266 
17013000     160.6896   -4444.9015   -4169.4851   -4444.9015            0    1694.0653    18.202118    23.011616    22.079038    9248.0292     402.0613    2036.9633    2643.1714      596.915    454.10829   -20.777771   -3941.0014 
17014000    153.17073   -4464.8593   -4202.3299   -4464.8593            0    2051.8091    17.886146    23.577023    21.943316    9253.5419    1894.3308     1029.534    3231.5623    797.80953   -117.48206   -691.45159   -3925.4313 
17015000    154.04027   -4450.6845   -4186.6648   -4450.6845            0    2916.5333    18.108039    23.037563    22.051782    9199.2338    2354.6603    3173.5003    3221.4392    179.42174    162.30876   -60.332061   -3795.3786 
17016000    160.70322   -4460.5001   -4185.0603   -4460.5001            0    1759.9537    17.909334    23.503769    22.022269    9269.9845    1687.6193    905.84841    2686.3935   -130.25898   -12.520291   -27.604296   -3947.1265 
17017000    155.48697   -4453.0739   -4186.5746   -4453.0739            0    2141.2366     18.05903    23.382793    21.870618    9235.3183    2209.8677    2739.6426    1474.1996   -367.59425   -454.83453   -140.51278   -3898.1765 
17018000    151.61518   -4468.2466   -4208.3834   -4468.2466            0    1332.9273     17.92569    23.686383    21.808186    9259.6415    2111.2189    533.29811    1354.2648    379.18094    76.446842    513.64845   -4028.3817 
17019000    154.61261   -4457.1412   -4192.1405   -4457.1412            0    1079.8995    18.031693     23.16164     22.20815    9275.0911    170.29665    1499.5399    1569.8619   -738.98031     599.1078   -722.54489    -4046.065 
17020000    148.91454   -4457.4182   -4202.1837   -4457.4182            0    2274.0001    17.898628    23.375361    22.076938    9236.7011    2631.1291    3186.1706    1004.7007     415.2307    82.151574   -616.07225   -3895.8582 
17021000    156.35494   -4467.0498   -4199.0628   -4467.0498            0    2154.8852    18.123058    23.287313    21.783057    9193.2627    1612.0214    1619.8998    3232.7346   -36.480745   -206.68376    122.75091   -3910.1481 
17022000     164.2084   -4458.2335   -4176.7859   -4458.2335            0     1940.994    17.958317    23.406623    21.988385    9242.6758    2151.9694    2282.2458    1388.7667   -849.66927    281.57892   -181.03697   -3915.1498 
17023000    151.70845   -4462.4975   -4202.4744   -4462.4975            0    2324.1101    18.052825    23.225898    21.912489    9187.7551    3938.9294     1489.332    1544.0689    639.73623    615.76188    26.164393   -3891.0576 
17024000    164.56873   -4439.3761    -4157.311   -4439.3761            0    1387.0395    17.939063    23.428942    22.023201    9256.2029    1895.3758    807.12509    1458.6177    521.65679    322.24512    74.511986   -3970.0714 
17025000    160.41276   -4454.8244   -4179.8824   -4454.8244            0    4046.1753     18.01707    23.095867    21.953925    9135.4636     3114.651    5162.1135    3861.7614   -464.15304    328.19593    599.49712    -3640.805 
17026000    152.83705   -4429.0027   -4167.0452   -4429.0027            0    2616.1519    17.903941    23.631402    21.707547    9184.3594    2288.1257    1711.7857    3848.5442   -1527.4498     269.3953    563.31973   -3816.6262 
17027000    161.65796    -4453.806   -4176.7298    -4453.806            0    3086.6932    17.970975    23.283731    21.948254    9183.8376    1558.1401    3886.5324     3815.407   -372.39215     67.62662   -299.43549   -3763.3078 
17028000    150.23459   -4455.9793   -4198.4824   -4455.9793            0    2095.3844    17.858939     23.44761    22.022501    9221.9102    3141.3902    1955.3016    1189.4614   -52.200056    478.77493    -880.7764   -3916.6697 
17029000    151.11649   -4468.9173   -4209.9088   -4468.9173            0     2527.012    18.049792    23.266736    21.895123    9195.0705    1537.6147    3945.0865    2098.3347   -160.94915   -231.37437    285.85011   -3871.0348 
17030000    154.61721   -4441.7257    -4176.717   -4441.7257            0    1731.2772    18.052417    23.341629    21.970275    9257.6766    510.41817    1801.8478    2881.5657   -459.30519    160.14858    118.87676   -3942.9709 
17031000    161.01775    -4445.541   -4169.5621    -4445.541            0    2150.9332    17.917422    23.495036    21.892158    9215.9519     2042.401    1704.9001    2705.4984    423.59142    138.30288   -32.406136   -3880.4655 
17032000    155.25325   -4446.8548   -4180.7561   -4446.8548            0     2518.387    17.985942    23.309833    21.947322    9201.3996    2604.3865     1287.541    3663.2336   -593.03691    213.87987   -159.82267   -3842.8062 
17033000    156.75277   -4453.0792   -4184.4104   -4453.0792            0    2194.4029    17.951496    23.431038    21.953055    9233.9425    3127.0143    2531.1156    925.07866   -790.58804   -359.88776    -333.4048   -3888.8954 
17034000    151.61217   -4462.7544   -4202.8964   -4462.7544            0    2311.3959    17.996804    23.241917     22.03166    9215.4075    2292.3309    1054.1182    3587.7385   -152.36279    -12.42743    39.361213   -3892.2511 
17035000    145.14711   -4457.2579   -4208.4807   -4457.2579            0     2346.214    17.867119     23.31001    22.102652    9205.3727    3699.2686    2447.4496     891.9237    -480.9941   -135.61482    1304.3597   -3893.4994 
17036000    156.59179   -4467.9476   -4199.5547   -4467.9476            0    2665.5325    18.046966    23.121606    21.994557    9177.7752    2558.7635    2992.5292    2445.3048   -104.63276   -74.097469   -384.07347   -3842.7773 
17037000    150.61198   -4440.5095   -4182.3657   -4440.5095            0     2846.975    17.898377    23.533519    21.845913    9201.7562     3034.464    2488.9202    3017.5408    471.90449    195.10751     67.89041   -3800.3068 
17038000     150.9344   -4446.6668   -4187.9704   -4446.6668            0    2228.5701    18.135165    23.199193    21.946464    9233.3424     1141.313    1719.1738    3825.2236   -214.59569   -532.14733    267.99044   -3887.8737 
17039000    154.23412   -4448.0769   -4183.7249   -4448.0769            0    2740.9319    17.689655    23.454488    22.111401      9174.06    3804.6577    2069.1463    2348.9917    673.71912    214.41657   -404.72108   -3817.0039 
17040000    149.42469   -4449.1973   -4193.0885   -4449.1973            0    1655.6458    18.100601    23.295541     21.91504    9240.7683    2789.8291    620.26083    1556.8475   -122.23649    419.69401    237.12612   -3969.9618 
17041000    153.34157   -4457.1736   -4194.3514   -4457.1736            0    2064.0783    17.853767     23.70865    21.763684    9212.3219     2645.701     2280.413     1266.121   -1058.7971   -344.14237   -116.31467   -3917.0378 
17042000    156.50393   -4464.0021   -4195.7597   -4464.0021            0    2476.6458    17.986124    23.254794    22.038404    9217.8624    2579.9276     2724.867    2125.1427   -489.28214    180.19724    203.62141   -3862.8166 
17043000    164.40903   -4463.4501   -4181.6586   -4463.4501            0    1313.2904    17.861909    23.686043    21.913129    9270.9621    1557.4848    29.292965    2353.0935    78.576987    83.798231   -520.02975    -4004.092 
17044000    158.62561   -4456.1201   -4184.2413   -4456.1201            0    2554.6261    18.052456    23.217812    21.929779     9191.615    2532.7676    3370.5214    1760.5894    142.15636    710.23464    8.6104031   -3841.7929 
17045000    150.47972   -4474.8018   -4216.8848   -4474.8018            0    1144.8062    17.774613    23.445985    22.152114    9231.7451    1234.8346    1268.9265    930.65755   -178.70114      476.068    396.30392   -4062.7532 
17046000    159.40943   -4451.7476   -4178.5253   -4451.7476            0    2512.0145    18.107676    23.151158    21.845009     9157.726    1514.5127    1896.3736    4125.1573    395.52774   -269.19615   -266.68218   -3843.0306 
17047000    152.49185   -4462.6731   -4201.3073   -4462.6731            0    2197.4584    17.926241    23.497359    21.811112    9187.2617    1308.3704    1718.2347    3565.7701   -649.78524    241.80737    324.87199   -3906.8769 
17048000    151.90406    -4440.575   -4180.2166    -4440.575            0    2889.4858    17.941344    23.290373     21.96239    9177.2176    2989.7734    2773.4073    2905.2767   -1400.2044   -580.88024    207.11093    -3793.487 
17049000    157.83049   -4449.8182   -4179.3022   -4449.8182            0    1240.4327    18.034258    23.557207    21.818474    9269.2892    1647.8398   -99.232829    2172.6911   -191.43573   -502.66332   -91.814579   -4011.6167 
17050000    155.04224    -4461.581    -4195.844    -4461.581            0    2051.7476    17.922387    23.192018    22.129014    9198.0643    2444.3457    3154.6685    556.22847     979.0335    233.80625   -117.71374   -3920.6136 
17051000    162.83017   -4452.3323   -4173.2469   -4452.3323            0    2252.3066      17.9232    23.241536    21.998413    9163.7188    1573.4383    2313.0354    2870.4459   -224.03904   -140.20264    299.23384   -3872.2409 
17052000    153.30147   -4450.0647   -4187.3112   -4450.0647            0    2815.7775    17.944317      23.3752    21.864864    9171.2613    3608.4568    2214.9703    2623.9055   -319.48483    122.19241    178.80089   -3810.6913 
17053000    147.63583   -4451.0493   -4198.0066   -4451.0493            0    2485.2776    17.871847    23.338862     21.99481    9174.2241     2960.266    1414.8975    3080.6692   -625.59027   -496.11523     222.0743   -3865.4848 
17054000    159.99045   -4449.8712    -4175.653   -4449.8712            0    2282.0192    17.906094    23.376726    21.933149    9180.9057    1665.6282    2031.2874    3149.1419   -197.42156     42.73854   -337.71533   -3870.1041 
17055000    152.50878   -4450.4695   -4189.0746   -4450.4695            0    2530.8623    18.000083    23.288835    21.884611      9174.05    3325.3523    2191.2918    2075.9428    73.476207    337.01156    41.240427   -3850.4602 
17056000    157.46958   -4435.9456   -4166.0481   -4435.9456            0    2657.6132    17.860706      23.3329    22.075847     9199.934    1152.6854    3719.0622    3101.0921    470.14749   -79.150062   -890.41339   -3809.4719 
17057000    161.17953   -4466.7159   -4190.4596   -4466.7159            0    2789.7915     17.98911    23.261233    21.950848    9185.3078    2081.7852    2802.0684    3485.5208    190.44082   -250.22014    603.15043   -3816.7439 
17058000    156.75247   -4454.8463   -4186.1779   -4454.8463            0    2797.6037    17.863664    23.439773    21.954238    9192.6836     2736.253    3943.5975    1712.9606   -125.90692   -526.77129   -246.87654   -3811.1148 
17059000    157.27084   -4461.4226   -4191.8657   -4461.4226            0    1101.0326    18.032166    23.248463    22.060312    9248.1271   -557.41987    1621.3225    2239.1951   -240.12134   -315.67908    63.924681   -4043.3645 
17060000    151.58524   -4468.4349    -4208.623   -4468.4349            0    1178.3499    17.979939    23.528466    21.934756    9279.2875    1836.6812    1058.2117    640.15688    167.40267   -754.82993   -588.06036   -4049.1582 
17061000    156.15644   -4456.4812   -4188.8344   -4456.4812            0    2379.5502    18.017829    23.218063      22.0419    9220.9881    1764.6766    2618.6448    2755.3292    434.59207    -702.2641    16.633477   -3868.8357 
17062000    155.09791   -4444.7767   -4178.9442   -4444.7767            0    1221.4219    17.957685    23.354344    22.108672    9272.1545    2161.7951    869.98082    632.48977     817.1891    -352.1301    23.664903   -4013.7776 
17063000    165.99121   -4448.1876   -4163.6844   -4448.1876            0    2090.2936    18.010768    23.332184    21.918165    9210.6826    1951.1989    2335.0898    1984.5922    133.78608    330.08308    105.85755   -3882.8987 
17064000     151.3252   -4450.4993   -4191.1331   -4450.4993            0    612.46695    17.911016    23.592088    22.009059    9300.1099    706.50706    -356.9876    1487.8814    163.57093   -264.84976    1120.3245   -4108.0627 
17065000    149.68483   -4457.4686    -4200.914   -4457.4686            0    3801.3624    17.942501    23.045008    22.124485    9148.1448    3170.5436    3924.1344    4309.4093   -109.81056    -5.268136   -453.45716   -3693.7502 
17066000    159.17039   -4446.0997   -4173.2871   -4446.0997            0    1694.0487    17.936436    23.530198    21.910824    9247.4167    2319.2793    1483.2478     1279.619    369.77945    315.54375    -515.7399   -3944.8208 
17067000    153.12144   -4474.5006   -4212.0557   -4474.5006            0    2568.8192    18.049833    23.233604    21.978121    9216.8035    2348.2772    2357.7099    3000.4706   -376.21859    884.85275   -484.38428   -3866.7612 
17068000    153.20207   -4452.9257   -4190.3426   -4452.9257            0    1905.5099     17.69145    23.667622     22.04806    9231.8433    2587.4663    163.74343    2965.3201   -256.49516   -146.78891    10.978574   -3933.7905 
17069000    148.40021   -4466.8874   -4212.5345   -4466.8874            0    1866.3645    18.107428    23.336294    21.823343    9221.6776    1545.2855    1423.9953    2629.8126   -258.74529   -69.360813   -159.34024   -3961.5296 
17070000    152.17803   -4448.7977   -4187.9698   -4448.7977            0    2193.0746    17.880048    23.554808      21.8858    9217.4475    2533.8922    2907.2971    1138.0345   -804.56819   -405.38474    123.92127   -3893.1613 
17071000    155.89516   -4459.7004   -4192.5014   -4459.7004            0    1980.7123    17.975105    23.114956    22.178507    9215.0313    2183.1859    2806.1532    952.79773   -462.58903   -371.08969   -40.197837   -3926.3099 
17072000    168.99741   -4442.1409   -4152.4851   -4442.1409            0    3459.1971     17.84007     23.46954    21.918002    9177.0287     4074.224    3151.2572    3152.1102    221.78733   -356.74488   -712.18114   -3689.5147 
17073000    154.76742   -4474.4217   -4209.1556   -4474.4217            0    1926.1717    18.093355    23.237349    21.896382    9206.1502    1233.7291    2857.3078    1687.4781    342.62874   -384.09685    16.335415   -3950.5435 
17074000    153.28376   -4460.7482    -4198.025   -4460.7482            0    2001.2159    17.885395    23.558642    21.957745    9252.0191    3216.1378    1271.4889    1516.0208   -232.33652    91.742778    533.86757   -3927.9986 
17075000    149.42241   -4450.9209    -4194.816   -4450.9209            0      1522.49    18.059741     23.17641    22.132585    9263.8141    2210.6744    2236.0218     120.7737   -140.85177    639.19202    198.16133   -3989.1227 
17076000    156.48132   -4460.5097   -4192.3061   -4460.5097            0    1524.3139    17.904433    23.575993    21.928329     9256.272    1621.4528    2185.3265    766.16232   -250.36137   -472.87539    -84.06616   -3986.5341 
17077000    151.21781   -4461.9948   -4202.8127   -4461.9948            0     2175.547    18.088973    23.164686    22.027241     9229.973     1922.485    1861.0636    2743.0924   -324.03079    -55.84983    946.32039    -3909.963 
17078000    161.36015   -4436.3692   -4159.8034   -4436.3692            0    3170.6598    17.756213    23.570863    21.964274    9192.6914    2759.0915    2719.9594    4032.9285     4.139674   -272.08896    756.22163   -3734.7258 
17079000    147.44709    -4442.556   -4189.8368    -4442.556            0    2816.9008    17.987139    23.249854    21.923726    9168.4663     2549.399    3907.8198    1993.4834    691.81822    82.626133    130.13826   -3813.1814 
17080000    168.17338   -4457.2199   -4168.9765   -4457.2199            0    2092.1433    17.832203    23.445461    22.072665    9228.2329    2098.4304    2796.7768    1381.2226   -92.794387   -318.02845   -241.87055   -3887.4068 
17081000    146.77666   -4441.5945   -4190.0243   -4441.5945            0     2155.548    18.144157      23.2401     21.89351    9231.8805    2290.8641    1614.7764    2561.0035    337.55449   -236.27224      533.888   -3899.8067 
17082000    146.32899   -4451.1052   -4200.3024   -4451.1052            0    3075.9581    17.944388    23.379393    21.833028     9159.586    3862.0723     1669.845    3695.9569    434.02185    509.37281    305.97576   -3789.4061 
17083000    149.82594   -4459.3501   -4202.5535   -4459.3501            0      1214.64    18.088399     23.35984     21.83146    9224.7113   -7.8939386     1436.637    2215.1768   -553.69085    -68.55729    159.21479   -4039.1444 
17084000    158.25388    -4439.064   -4167.8222    -4439.064            0    990.55692    17.892572    23.498543    22.107406    9295.0452    1959.6064    1013.0016   -0.9372748   -943.77352    249.92659     -646.262   -4033.5436 
17085000    151.97777   -4453.6148   -4193.1301   -4453.6148            0    2542.1141     18.04838    23.239074    21.936095    9200.6044    2589.4355    3294.1983    1742.7086    980.20124   -546.31465    677.37806   -3852.0257 
17086000    161.45815   -4467.8217    -4191.088   -4467.8217            0    2140.4933    17.962709    23.351185    21.920403    9194.5248    2371.8739    1682.5812    2367.0248   -1177.3689    9.5771224   -108.58748   -3904.0634 
17087000    148.43607   -4452.0392   -4197.6248   -4452.0392            0    1500.0829     17.86287    23.270293    22.251944    9249.5596    1063.6433    1711.6864     1724.919     581.5551    283.68326   -66.224767   -3995.2706 
17088000    163.70275   -4454.3946   -4173.8137   -4454.3946            0    1528.6183    18.001498    23.350122    21.987718    9242.2552    1746.2515    819.53562    2020.0679   -332.30205   -459.05961    255.77042   -3967.7731 
17089000    154.08158   -4475.3189   -4211.2283   -4475.3189            0    1610.9538    17.993061    23.458729    21.830374    9214.4775    864.61584    1267.5911    2700.6545    958.82419    389.11591    130.84855   -3994.7424 
17090000    151.86175   -4445.2672   -4184.9814   -4445.2672            0    2474.9605    17.974262    23.332628    21.934746    9199.1425    2457.4495    2622.3924    2345.0396   -78.588609     47.10288    809.12724   -3852.9406 
17091000    154.24358    -4474.338   -4209.9698    -4474.338            0     1523.236    17.889021    23.283104    22.150498    9225.9466    1827.1915    1697.3961    1045.1204    485.69326   -269.09322   -3.0697453   -4005.0169 
17092000    159.16612   -4450.5295   -4177.7242   -4450.5295            0    3016.0853    17.991066    23.373721    21.800195    9167.3778    2473.2578      2351.92     4223.078   -149.73805    313.42002   -119.66957   -3774.4832 
17093000     154.3971   -4469.0936   -4204.4623   -4469.0936            0    2079.4411    18.020271    23.292799    21.953411    9214.7807    1903.2439    2794.3238    1540.7558    204.39281    492.09659    150.24999   -3925.0101 
17094000    154.20138   -4457.2364   -4192.9405   -4457.2364            0    951.87473    17.919049    23.479864    21.942396    9231.9743    1569.6969    1233.5268    52.400503     1097.966    199.57743    280.01042   -4064.7811 
17095000    154.19695   -4468.6676   -4204.3793   -4468.6676            0    1539.8001    18.081026    23.355389    21.854299    9228.8385    1354.5604    2046.9616    1217.8783   -402.69906    -98.87949   -437.10565   -3997.1328 
17096000    161.53086   -4456.9198   -4180.0614   -4456.9198            0    1759.8073    17.926972    23.416765    21.991021    9231.6477    2209.9755    2618.7443      450.702   -57.005929    746.62519   -517.47932   -3943.1313 
17097000    155.34653   -4451.8495   -4185.5909   -4451.8495            0     2128.421     18.05447    23.174486    22.044101    9223.3194    1922.1949    2906.9618    1556.1063    19.062852   -67.844681   -54.444038   -3899.2914 
17098000    146.14876   -4458.2645   -4207.7706   -4458.2645            0    2448.5839     17.88914    23.438209    21.937029    9197.9636    1152.1004    3201.9103    2991.7411   -1253.6204    5.8426373    -21.93472   -3879.3105 
17099000     159.5027   -4456.7711   -4183.3889   -4456.7711            0    3095.9715    18.030071    23.137666    21.963127    9162.4403     1140.497    5433.8649    2713.5526   -13.452045   -501.63825    1138.4358   -3769.6904 
17100000    153.52463   -4464.0602   -4200.9242   -4464.0602            0    2620.0125    17.904774    23.461145    21.889394    9195.0009    2096.6422    1792.5419    3970.8532   -940.44842    320.47006   -109.16458   -3849.5815 
17101000    148.47992   -4465.3952   -4210.9057   -4465.3952            0    1743.9728    18.105912    23.294678     21.91277    9242.1796     1883.332    1247.6299    2100.9565   -378.98794    425.39328    441.33887   -3975.8396 
17102000    157.67328   -4451.8385   -4181.5919   -4451.8385            0    1854.2295     17.76417    23.559145    22.025736    9217.9611    1576.4711    2266.3373    1719.8801    476.57719   -414.63661    406.29783   -3932.3195 
17103000    158.15477   -4450.8018   -4179.7299   -4450.8018            0    2157.5136    17.994816    23.241164    21.963468     9185.572    1993.0696    723.11956    3756.3516   -144.58077    328.11658    152.33607   -3890.7048 
17104000    153.77001    -4458.575   -4195.0184    -4458.575            0    1770.2459    17.862569    23.599794    21.893977    9229.4704    2201.2015    980.45539    2129.0808    4.2981034   -381.50598   -243.27441   -3956.7392 
17105000    156.68089   -4446.3082   -4177.7625   -4446.3082            0    1898.4811    18.149961    23.204231    21.899812    9223.2346    1359.4468    2003.4502    2332.5462   -478.32349   -34.486348   -75.826873   -3922.3952 
17106000    147.04861    -4456.121   -4204.0847    -4456.121            0     2130.737    17.789848    23.453163    22.068646     9207.662    3050.7225    1433.4399    1908.0485   -397.48591   -43.392088     65.18514   -3917.9601 
17107000    155.10757   -4472.5145   -4206.6654   -4472.5145            0    951.39184    18.031666    23.381635    22.054731    9298.4911    554.31056    1635.2179     664.6471   -92.299435   -643.42967    448.87806   -4077.6482 
17108000    147.00928   -4438.7895   -4186.8206   -4438.7895            0    2960.1232    17.967249    23.326346    21.914025    9184.3932     2770.726    2703.4149    3406.2288   -1001.0621    163.02079   -98.664961   -3790.3271 
17109000    155.27818   -4466.8971   -4200.7556   -4466.8971            0    1131.9969     18.00074    23.339685    22.035848    9257.9559    1388.0963    2472.8608   -464.96647     552.9645   -854.78002    4.8536379   -4047.9159 
17110000    148.30689   -4452.7418   -4198.5489   -4452.7418            0    2080.2842    17.911783    23.389543    22.056329    9240.4639    2233.1096    3028.7055    979.03735   -498.91713    81.451591   -93.256121   -3918.2042 
17111000    158.39715   -4456.6854   -4185.1981   -4456.6854            0    1779.6094    18.054719    23.219918    22.011198    9227.7345    2044.2147     1513.136    1781.4775   -1176.7341    -84.03047    48.275805   -3945.7035 
17112000    156.43009   -4458.4318    -4190.316   -4458.4318            0    1822.3616    17.867497    23.565905    21.890778     9217.413     2410.026    1403.2506    1653.8081   -305.74933   -2.5788327    14.049091   -3945.3422 
17113000    153.55855     -4456.99   -4193.7959     -4456.99            0    1241.7983    18.109215    23.199337    21.991293    9239.0212    966.70537     836.3186    1922.3711   -153.54567    1149.8967   -50.046727    -4026.474 
17114000    163.09809   -4445.1399   -4165.5953   -4445.1399            0    1859.0624    17.830978    23.418392    22.026937    9197.8503    1356.4954    1875.9077    2344.7842   -237.35341   -96.226233   -487.43017   -3916.2185 
17115000    160.58697   -4451.1079   -4175.8673   -4451.1079            0    2124.8695    18.041257    23.313115    21.892381    9207.8896    2345.5702    1593.4311    2435.6073   -390.87357   -565.68395    736.76848   -3890.5237 
17116000    151.56121   -4460.1444   -4200.3737   -4460.1444            0    1620.5402     17.87475    23.275591    22.194256     9233.817    2682.6512    1436.6509    742.31858   -385.63186   -952.26901     147.7388   -3982.1424 
17117000    148.31584   -4467.5762   -4213.3679   -4467.5762            0    2261.4803    17.914095    23.330715    22.070955    9224.5256    3588.8294    3470.9369   -275.32553    373.21806    116.27401   -23.291078   -3909.1304 
17118000    153.78068   -4468.4201   -4204.8453   -4468.4201            0    2218.5664    17.996545    23.453665    21.831382    9214.6976    2947.0923    1449.9273    2258.6796    529.62375   -142.70644    209.80501    -3906.699 
17119000    162.20359   -4462.7621   -4184.7507   -4462.7621            0    658.94821    17.980375    23.528414    22.010181    9311.4002   -546.11989    1414.4755     1108.489   -173.46095   -187.84864   -192.34094   -4095.2673 
17120000    155.17622   -4464.5102   -4198.5434   -4464.5102            0    2083.7902    17.997555    23.233011    22.075151     9230.446    1648.5996    3370.6799    1232.0911    226.68443    708.79975   -419.63174   -3918.0307 
17121000    152.87764   -4460.4391    -4198.412   -4460.4391            0    2209.3116    17.936527    23.556284     21.85993    9236.2123     2924.257    2260.5535    1443.1242   -905.31492    449.88151   -121.53227   -3900.8163 
17122000    154.47318   -4438.7676   -4174.0059   -4438.7676            0    1926.5497      18.0231    23.304694    22.004832    9242.5322    1895.7448    1571.3013    2312.6031   -180.58382    63.868861    498.41744   -3914.3208 
17123000    153.41867   -4476.9184   -4213.9641   -4476.9184            0    2354.4979    17.783785    23.456494    22.051682    9198.7546    3569.6346    1714.4581     1779.401   -202.49923     113.7558    528.04519   -3898.0978 
17124000    152.75501   -4437.3887   -4175.5719   -4437.3887            0    2504.7599    18.056684    23.311937     21.87892     9209.631    2619.9772    2237.4455    2656.8572   -660.59741   -844.23824    148.15823     -3839.15 
17125000    167.95353   -4458.7879   -4170.9213   -4458.7879            0    1481.4644    17.941579    23.543842    21.986186    9287.2661    2141.0262    851.39359    1451.9734   -843.34107    338.09416    -44.43247    -3970.264 
17126000    153.96957   -4453.0943   -4189.1957   -4453.0943            0    1947.5412    18.105778    23.199321    21.914431    9204.9757    2520.2485    1299.5154    2022.8598    104.99092   -17.998469   -16.141782   -3927.7478 
17127000    159.22692   -4455.4361   -4182.5266   -4455.4361            0     3245.731    17.749571    23.435339    22.036705    9166.5463    4667.1031    3327.0288    1743.0611   -874.30817    306.21685   -805.76209   -3748.6221 
17128000    153.71271   -4455.0501   -4191.5917   -4455.0501            0    1944.1681    18.116523    23.184075    21.972566    9228.8031    1937.2097    1801.4441    2093.8504    565.31924    177.06301    -1.728929   -3929.9211 
17129000    160.19655   -4446.9172   -4172.3458   -4446.9172            0    2835.7553    17.787647    23.621595    21.898514    9201.1552    4840.6426    1029.8487    2636.7745   -617.03119    38.986758   -217.38705   -3791.8175 
17130000    150.14012   -4460.8083   -4203.4732   -4460.8083            0    2624.3458     18.10331    23.310739    21.857179    9223.7632    2588.5976    2140.3313    3144.1085   -148.28738    322.40074    760.60298   -3850.4485 
17131000     151.9673   -4468.0419   -4207.5752   -4468.0419            0    1858.1654    17.782172    23.684477    21.923559    9233.3578    2874.5906    891.99496    1807.9106   -392.22882   -695.88939    689.08446   -3957.3564 
17132000    158.32557   -4444.9417   -4173.5771   -4444.9417            0    2256.8062     18.03293    23.212564     22.02787    9220.6582     3061.583    1547.4039    2161.4316    602.96661    413.19153    143.35254   -3870.0957 
17133000    154.49276   -4463.4822   -4198.6869   -4463.4822            0    3248.4652    17.764562    23.515453    21.935398    9163.3307     4567.483     3137.801    2040.1116   -542.76967   -235.72145     407.0803   -3764.5692 
17134000    148.61734   -4459.7905   -4205.0655   -4459.7905            0    2812.3995    18.026962     23.23156    21.992537    9210.3522    2670.4604    3593.9124    2172.8258    142.64677   -179.66273    245.77298    -3827.294 
17135000    150.77217   -4468.5724   -4210.1541   -4468.5724            0    1685.8801     17.92619    23.370026    21.932547    9188.3229    1768.6741     1642.472    1646.4942   -131.13034   -413.72411   -635.08369   -3984.2423 
17136000    147.94439   -4442.7723   -4189.2007   -4442.7723            0    1521.7934    18.011005    23.502982    21.837906    9244.2549    743.39606    2011.0022     1810.982   -835.40889   -242.14547    243.48601   -3984.0356 
17137000    149.71659   -4460.0357   -4203.4266   -4460.0357            0    1364.5502    17.929405    23.223995    22.188324    9239.0498    2298.5768    1004.7369    790.33679    262.66142    71.621661   -201.33901   -4019.5643 
17138000    155.47449   -4458.6927   -4192.2148   -4458.6927            0    2055.8087    17.967603    23.261586    22.060127    9220.1391    1802.8253    2784.9789    1579.6219   -4.0231147   -213.11701   -102.67169   -3915.7778 
17139000    145.54568   -4473.2262   -4223.7659   -4473.2262            0    514.40086    18.069549    23.297342    22.066922    9289.5665    89.128234    1104.4873    349.58706   -131.71656    279.16206    112.30834   -4154.0755 
17140000    150.87353    -4450.389   -4191.7969    -4450.389            0    2799.1186    17.816243    23.373255     22.04737    9181.0452    2613.4658    4140.8128    1643.0771    482.65446   -333.82609   -22.227562   -3817.0058 
17141000    154.14101   -4471.7858   -4207.5934   -4471.7858            0    2543.9693    18.114893    23.283427    21.804913    9196.8063    1894.0723     2325.936    3411.8997    227.63473   -121.08598    77.329636    -3866.381 
17142000    152.79046   -4466.9607   -4205.0831   -4466.9607            0    1521.4002    17.936313    23.477118    21.892067    9218.5952    1039.9384     1860.605    1663.6573    222.36643   -463.80934   -455.23412   -4000.5403 
17143000    146.54767   -4451.6925   -4200.5148   -4451.6925            0    2400.9778    18.068967    23.087287    22.047537    9197.4263     2397.485    3272.3998    1533.0487    282.89077   -207.31902    566.81906   -3878.4595 
17144000    146.12845   -4445.5926   -4195.1335   -4445.5926            0    2030.2381    17.683636    23.681704    22.001542    9213.7756    3219.6539    1584.4149    1286.6453    435.47857   -505.46654   -697.66602   -3922.3233 
17145000    162.06779   -4450.9057   -4173.1271   -4450.9057            0    2256.2435     18.07625    23.216222    21.960892    9216.1571    2410.8116    2255.8962    2102.0226   -266.57885    271.86753   -443.59385   -3869.8695 
17146000    153.89812   -4460.6698   -4196.8937   -4460.6698            0    2150.3543    17.759843    23.570342    21.938039    9183.3851    2288.4679    2275.5331     1887.062   -871.73734   -72.056829   -349.95103   -3908.8962 
17147000     150.6212   -4472.6205   -4214.4609   -4472.6205            0    1725.2262    18.059825    23.201193    22.002446     9219.234    1823.2774    2190.6127    1161.7886    88.085883     51.95578   -222.34159   -3982.4989 
17148000    146.50647   -4457.2988   -4206.1918   -4457.2988            0    2677.0517    17.764608    23.602203    21.860593    9165.7944    2626.1124    2688.4105    2716.6321   -565.00293    23.912195   -63.104036   -3848.3403 
17149000    164.45618   -4448.5907   -4166.7184   -4448.5907            0    1808.2355    17.989979    23.226875     22.07987    9226.0955    1965.8766    859.48274    2599.3472   -16.333516    -34.31393      409.199   -3923.4147 
17150000    158.11876   -4470.4569   -4199.4467   -4470.4569            0    2589.1635    17.982615    23.477033    21.844431    9222.2479    2699.8491    2422.6526    2644.9887   -723.53618   -512.04982   -192.34794   -3851.2119 
17151000    160.65671   -4455.7181    -4180.358   -4455.7181            0    870.17913    18.093796    23.353303    21.928568    9265.9141    638.69758    1233.7953    738.04448    174.87917    189.81072    141.03125   -4062.7673 
17152000    149.70013   -4462.6239    -4206.043   -4462.6239            0    2755.8149    17.864624    23.269047    22.029288    9157.4161    2705.0765    2720.2096    2842.1585   -16.115691   -796.79633    -312.1418   -3837.9998 
17153000    147.84449   -4442.0119   -4188.6115   -4442.0119            0    886.41686    17.978824    23.367176    22.070738    9272.2334    521.29195    1197.5005    940.45814   -221.65535   -297.12714   -68.809941   -4068.7449 
17154000    145.38523   -4454.6719   -4205.4865   -4454.6719            0    2400.1323    18.046787    23.295512    21.931384    9220.1542    2685.5287    2486.0742    2028.7938   -925.44171    308.02046     -135.039   -3882.7492 
17155000    156.61934   -4466.0373   -4197.5972   -4466.0373            0    1250.2542    17.824037    23.531785    22.058507    9252.0306    930.51837    752.29104    2067.9533    478.44613   -223.98527   -600.12501   -4028.8986 
17156000    137.72069   -4456.1129   -4220.0643   -4456.1129            0    2030.9302    18.129272    23.186882    21.912113    9211.0038    2708.6925    889.10715     2494.991   -114.13157    240.71567    641.08062   -3947.2433 
17157000    151.97039   -4459.7001   -4199.2281   -4459.7001            0    2192.0051    17.829893    23.597301    21.942676    9232.1029    1921.1128     1698.471    2956.4314    797.70045    205.87147    725.19032   -3904.0949 
17158000    154.36326   -4465.8114   -4201.2381   -4465.8114            0     2755.971     18.01176    23.169971    22.040384    9198.1569    2257.4427     3862.542    2147.9282    -458.5537   -821.56422   -209.15517   -3831.5365 
17159000    155.19519   -4457.9424   -4191.9432   -4457.9424            0    2154.7394    17.814779    23.614448    21.966047    9240.8122     3019.187    2022.1227    1422.9086    38.408433   -528.42021   -48.589126   -3901.5538 
17160000    160.97829    -4450.927   -4175.0157    -4450.927            0    1672.5535    18.073538    23.250884    22.002643    9246.0768    1267.7757    2558.5769    1191.3079    926.51839   -97.504221    -528.2959    -3949.481 
17161000    150.36408   -4469.4193   -4211.7004   -4469.4193            0    2496.8833    17.915096    23.336041    21.958556    9180.1565     1982.632    2338.9325    3169.0854    703.59447   -189.05754   -293.65876   -3877.4098 
17162000    144.88155   -4445.7333   -4197.4113   -4445.7333            0    2195.1378     17.90273     23.31479    21.977607    9173.4179    3510.2499    2314.3352    760.82823   -18.069128    284.31571    317.74956   -3903.7351 
17163000    153.28738   -4454.3311   -4191.6018   -4454.3311            0    690.79315    18.077874    23.331177    22.004874    9281.1735    637.48421    1612.8511   -177.95581    196.40697   -474.24306    61.776616   -4098.0985 
17164000    152.90976   -4462.4487   -4200.3666   -4462.4487            0    2756.9251    17.919476    23.458549    21.846351    9183.4394     3134.623    3258.5116    1877.6406    1147.7733    -104.6121    598.07172   -3831.1288 
17165000    150.87223   -4451.6644   -4193.0746   -4451.6644            0    2420.4946    17.938424    23.361399     21.99746    9218.4027     3144.326    1677.3509    2439.8069    -320.6683   -32.469516   -81.929429    -3867.661 
17166000    161.57008   -4463.4472   -4186.5216   -4463.4472            0    1309.3368    17.910191    23.538671    21.977221    9265.2029     2355.754    392.14976    1180.1067    -323.6592   -94.528392    199.17649   -4009.5995 
17167000    143.75066   -4455.5491   -4209.1654   -4455.5491            0    1460.1201    18.046527    23.237809    21.993113    9223.0701    1542.1289    1789.9362    1048.2951    -466.0538    684.12874    14.145244   -4012.7661 
17168000    158.25588   -4437.7678   -4166.5226   -4437.7678            0    1678.3914    18.020634    23.693058    21.640085    9239.5356    1067.5655    910.34809    3057.2607   -947.63651    212.20461    395.89537   -3940.3608 
17169000    159.46587   -4445.9812   -4172.6622   -4445.9812            0    1508.5528    18.005163    23.219193    22.174683    9270.4666    1120.1584      2036.01    1369.4901    21.694609   -320.47698    -67.38894   -3968.7055 
17170000    153.69924   -4456.8231   -4193.3878   -4456.8231            0    1663.1539     18.01631    23.315152    22.044023    9259.6582    1614.2186    1824.9426    1550.3006   -564.86533   -571.13462   -415.00888   -3968.7912 
17171000    152.90213   -4453.1166   -4191.0475   -4453.1166            0    2248.7663    17.916996    23.469762    21.856145    9190.6762    3158.7719    1820.0255    1767.5014    272.04045   -278.53963    38.047038   -3889.6306 
17172000    156.34312   -4463.4217   -4195.4549   -4463.4217            0     2949.136    17.998719    23.216399    22.012635    9198.3193    3988.4221    3134.6746    1724.3114   -539.79109    617.05497    266.83768   -3799.8341 
17173000    152.70913   -4464.2998   -4202.5615   -4464.2998            0    1976.5992    17.942876    23.419956    21.972867    9233.4684    2014.3085    2013.5247    1901.9645   -475.24446   -318.32325   -506.96542   -3936.3914 
17174000    147.48296   -4452.2483   -4199.4676   -4452.2483            0    1231.6338     18.17928     23.17763    22.043629    9288.1412   -776.98075    2736.3337    1735.5484   -426.01385   -214.55955   -126.61774   -4032.6329 
17175000    162.77739   -4461.9546   -4182.9597   -4461.9546            0    1943.6213    17.922131    23.430169    21.979813    9229.7313    2362.0017    1808.5271    1660.3351   -315.40141    746.88163    197.46842   -3921.3363 
17176000    161.37438   -4475.0992    -4198.509   -4475.0992            0    2712.8121     18.01911    23.228683    21.924065     9176.541    3212.7135    2756.3522    2169.3706   -285.64984   -166.28154    8.5594957   -3835.4522 
17177000    156.57677   -4443.3329   -4174.9657   -4443.3329            0    2053.6009    17.846129    23.681106    21.855949    9236.6752    2405.7168    1576.4598    2178.6262   -468.37959    384.43373   -239.77351   -3898.3304 
17178000    151.25107   -4440.6655   -4181.4263   -4440.6655            0    1838.9546    18.085646    23.240868    22.062822    9273.5799    2614.8117    2242.7123    659.33972   -830.66815   -132.37056   -433.44444   -3932.7157 
17179000    153.72809   -4456.1834   -4192.6987   -4456.1834            0    1614.7454    17.778835    23.631832    22.000599    9243.4731    2440.9097    366.11836     2037.208    71.368917   -44.710765    787.72964   -3975.0204 
17180000    149.80842   -4452.9361   -4196.1696   -4452.9361            0     1892.617    18.151442    23.148381    22.003879    9245.5124     1009.588    2748.9391     1919.324   -65.887052     378.2319    236.76574   -3940.9761 
17181000    155.37523   -4454.4168    -4188.109   -4454.4168            0    2589.6069    17.748883    23.495093    22.042545    9191.9984    4010.1983    2063.7573    1694.8653    20.009064    166.19804    279.35822    -3840.957 
17182000    160.08394   -4447.1831   -4172.8047   -4447.1831            0    2137.7948    18.108414    23.278662    21.881665    9223.9896     2159.217    2080.4634    2173.7039   -352.09912   -257.04654     106.6134   -3885.2234 
17183000     148.8562   -4457.8387   -4202.7043   -4457.8387            0    1618.7053    17.828469    23.746662    21.856698    9253.3966    2146.0393     551.8618    2158.2149   -574.26992    472.68692    77.218502   -3984.2579 
17184000    159.38047   -4481.3329   -4208.1603   -4481.3329            0    1724.4769    18.070567    23.112069    22.089953    9225.8288    1403.7554    1758.5832    2011.0922    44.907797     567.2936    209.76005   -3976.1332 
17185000    156.43545   -4448.3418   -4180.2168   -4448.3418            0     1877.747    17.914448    23.522858    21.941193    9245.9969    2158.9733    464.90146    3009.3662    126.79391    187.05912    145.78171   -3927.0151 
17186000    164.75056   -4461.3042   -4178.9274   -4461.3042            0    2084.8262    18.048996    23.128792    22.048658    9204.2451    2677.6276    2537.2239    1039.6272    1139.3682   -357.49667    265.74857   -3899.0718 
17187000    152.81992   -4461.3764   -4199.4483   -4461.3764            0    2022.1873    17.890691    23.441672    21.976649    9216.7362     1521.159    2507.9759     2037.427    775.55147    -149.7775   -684.37117   -3927.6327 
17188000    156.43058    -4439.203   -4171.0864    -4439.203            0    1575.8362    18.119167    23.239487    21.971473    9251.7513    1776.5814    656.18371    2294.7437    480.06883   -353.86265   -710.27652    -3958.463 
17189000    147.98377   -4459.8375   -4206.1984   -4459.8375            0     2634.987    17.856781    23.592129     21.82544    9194.6098    2540.1186    3141.8328    2223.0097   -95.235179    284.94867    192.16822   -3852.8625 
17190000    165.93994   -4448.8987   -4164.4833   -4448.8987            0    1779.7903     18.24441    23.009709    22.021882    9244.7544    1115.4807    2793.7946    1430.0956    421.37255     402.6269    236.46001   -3924.5226 
17191000    158.58328   -4457.7168   -4185.9105   -4457.7168            0    1571.0727    17.894142    23.578538    21.926484    9251.1718     1790.763     842.0432    2080.4118    748.94002    777.17243    377.02574   -3973.9431 
17192000    152.45758   -4443.9453   -4182.6382   -4443.9453            0    2867.1254    18.114746    23.106487     21.95378    9189.1532     1658.711    4284.4287    2658.2365   -1296.0534   -617.60118    189.49409   -3798.4022 
17193000    152.36399   -4451.8515   -4190.7048   -4451.8515            0    1691.3653    17.892507    23.479982    22.064335    9269.5742    1577.1652    1528.2594    1968.6712    725.65452    4.5273038    388.49063   -3962.0538 
17194000    158.22917   -4444.6873   -4173.4879   -4444.6873            0    1911.2661    18.010001    23.168068    22.142255    9239.0093    1234.5321    2512.7993     1986.467   -358.41897   -340.10249    128.21326   -3915.9611 
17195000    152.31839   -4457.3536   -4196.2851   -4457.3536            0    1021.4132    17.931879    23.560308    21.914121     9258.291    1054.0331    610.26961    1399.9368    144.89624   -316.35849    37.136968   -4058.3711 
17196000    151.34218   -4449.8245   -4190.4292   -4449.8245            0    1265.3584    18.122994    23.444832    21.777886    9253.2183    843.09298    553.76631     2399.216    827.71125    194.97827    11.445913   -4019.6707 
17197000     151.9191   -4453.0106   -4192.6265   -4453.0106            0    768.63156    18.068549    23.464567    22.009629    9331.4373    700.98114    706.40041    898.51313   -186.16385    198.15886   -1068.7437   -4088.0238 
17198000    162.05222   -4463.4755   -4185.7235   -4463.4755            0    1864.8734    18.020131    23.265233    22.049439    9244.0629    1622.5457    2477.3155    1494.7591   -1032.1831    222.78167    447.89982   -3934.3103 
17199000    169.40947   -4461.1273   -4170.7653   -4461.1273            0    3643.3738    17.876396     23.34846    21.847738    9118.9469    3546.3255    4281.4351    3102.3608   -750.69923    -619.0071    600.34071   -3686.2312 
17200000    152.88556   -4458.9846    -4196.944   -4458.9846            0     507.8021    18.075215    23.463964    21.924112    9298.3709    485.77086   -67.735292    1105.3707    172.83365    98.403826    57.881611   -4128.0823 
17201000    159.56122   -4461.2649   -4187.7824   -4461.2649            0    1967.9697    18.060038    23.270013     21.98571    9239.6557    2458.8813    2274.5927     1170.435    186.13208   -231.78295    142.79297   -3922.5968 
17202000    160.96015   -4464.0379   -4188.1577   -4464.0379            0    2096.6023    17.770342    23.513878    22.103225     9235.825    3078.1559    1009.6047    2202.0463   -1000.4663    144.60129   -62.498294   -3905.7558 
17203000    159.47092   -4475.8599   -4202.5322   -4475.8599            0    2190.6208    17.984383     23.25209    21.979544    9191.2848    2480.7845     2780.098    1310.9799   -172.39654    341.49962   -688.23739   -3908.8894 
17204000    141.53865   -4444.3503   -4201.7579   -4444.3503            0    3117.1801    17.948079    23.422074    21.798342    9163.6138    3594.9081    2697.2581    3059.3742    22.851707    -207.1708     585.5656    -3785.172 
17205000    150.42297   -4466.9373   -4209.1175   -4466.9373            0    1626.6049    18.126175    23.265671    21.903825     9237.229    941.62169    2589.7612    1348.4318   -30.709791   -322.79825     782.3961   -3989.9886 
17206000    155.73513   -4467.4009   -4200.4762   -4467.4009            0     3090.591    17.785565    23.319611    22.121336    9174.8785    4028.4609    3058.4674    2184.8446   -650.17258    282.59853    -476.7208    -3786.936 
17207000    143.31123   -4443.4024   -4197.7719   -4443.4024            0    1466.9084    18.017676    23.298417    22.057914    9259.5443    1392.6015     1586.628    1421.4955    333.68006   -219.87068    293.78838   -3999.6792 
17208000    153.36715   -4443.4175   -4180.5514   -4443.4175            0    2028.2524    17.957991    23.532988    21.861613    9238.8312    2170.5065    1198.1656    2716.0851    711.31519    70.561405    215.63043    -3907.267 
17209000    152.28386   -4450.7241   -4189.7147   -4450.7241            0    2103.6778    17.928758    23.312567    22.056221    9218.7367    2808.2522    1795.3854    1707.3959     367.0822   -270.64291   -76.403472   -3906.8841 
17210000    158.63759   -4452.4234    -4180.524   -4452.4234            0    1569.7984     18.01565    23.426312    21.919079    9250.7335    732.20721    1424.9889     2552.199   -370.03442   -270.57871    603.43081   -3968.7387 
17211000    156.53769   -4466.3587   -4198.0585   -4466.3587            0    2232.2768    18.054366    23.366645    21.803164    9198.1002    3108.6885    2043.7009     1544.441    694.38219    605.17952    -183.0156     -3898.61 
17212000    156.91735   -4460.8201   -4191.8692   -4460.8201            0     1949.743    17.972563    23.374168    22.037783    9257.9343    2038.9012    2080.6225    1729.7054   -104.97118    808.02817    43.632922   -3928.6198 
17213000    163.22173   -4457.5263   -4177.7699   -4457.5263            0    2183.2828    17.963912     23.20427    22.156429    9235.6743    2937.2673    2106.0973    1506.4838   -349.11528    465.07748   -192.75945   -3883.6973 
17214000    154.55007   -4460.1671   -4195.2735   -4460.1671            0    3418.1651    17.982764    23.288817    21.880931    9163.6748    3420.6211    3564.7034    3269.1708    503.91851    157.79244   -200.15574   -3738.4604 
17215000    148.40319   -4476.7863   -4222.4283   -4476.7863            0    2536.7869    17.935241    23.215949    22.124916    9212.4527     3679.655    3244.8793    685.82631    941.38079     317.2339    188.64487   -3881.6004 
17216000    154.15558   -4464.6354    -4200.418   -4464.6354            0    1830.3577    17.931074    23.419604    21.997422    9237.5683    2622.2703    1135.5646    1733.2381    629.93711    -238.7994   -465.34625   -3953.8314 
17217000    153.66788   -4471.4102   -4208.0287   -4471.4102            0      2986.78    18.051168    23.341095    21.801897    9185.8812    2579.5369    3535.2084    2845.5949    -251.0131    185.16295   -341.24218   -3807.8998 
17218000    154.13224   -4451.2327   -4187.0553   -4451.2327            0    2868.7699    17.877825     23.37418    22.027246    9204.7342    3609.3247    2588.1745    2408.8104    -149.9627    -403.3714   -374.85032    -3801.947 
17219000    157.79841   -4453.8279   -4183.3669   -4453.8279            0    2240.3567     18.06524    23.282729    21.937212    9226.9689    1052.7018    3741.4073     1926.961    -211.3126   -35.263833    225.71335   -3881.8913 
17220000     145.0311   -4458.8558   -4210.2775   -4458.8558            0       1336.3      18.0448     23.50383    21.826476    9257.0873   -211.84377    1547.3473    2673.3964    -517.2908    823.66443   -345.50379   -4029.8701 
17221000    155.10623   -4458.7229   -4192.8762   -4458.7229            0    2284.6252    17.983827    23.187157    22.053446    9196.1509     2597.295    2859.2579    1397.3227   -751.08728    -729.2588    340.80797   -3886.4704 
17222000    155.79983   -4469.8353   -4202.7997   -4469.8353            0    2241.5522    17.895468    23.404691    21.953468    9194.9441     1909.145    3539.3673    1276.1443    908.12624   -251.55889    298.04341   -3902.2102 
17223000     153.4791    -4457.333   -4194.2751    -4457.333            0    2114.3217    18.090502    23.209817     21.86308    9179.8093    1166.0673     2316.786    2860.1116    252.81383   -92.869805    450.13314   -3911.2137 
17224000    156.01314   -4463.3108   -4195.9096   -4463.3108            0    2301.2935    17.851753     23.33453    22.122196    9215.2724    2232.9624    2294.2318    2376.6863    416.08235    340.93027    113.05539   -3886.6266 
17225000    156.31241   -4471.1898   -4203.2757   -4471.1898            0    2629.7587     17.89297    23.337526      21.9907    9182.8246    2336.6463    2653.4266    2899.2032   -960.57401   -416.06083   -318.89076   -3851.0929 
17226000    152.88317   -4452.3349   -4190.2983   -4452.3349            0    2837.5457    17.952092    23.461314    21.772214    9170.0139    3153.5203    2441.6633    2917.4536   -23.314647    130.21112    108.40614   -3810.8185 
17227000     162.1963   -4435.3542   -4157.3553   -4435.3542            0    1003.8655    18.090762    23.340621     22.02001    9297.9411    715.17634    1510.0233    786.39686   -183.27561   -225.52986    42.424887   -4021.2302 
17228000    161.32681   -4453.7825   -4177.2739   -4453.7825            0    2674.1824    17.845905     23.47759    21.922968    9185.2597     3807.301    1780.9232     2434.323    266.20122   -803.78259   -697.43457   -3819.0468 
17229000    156.08415   -4447.3178    -4179.795   -4447.3178            0    3374.5452    17.986559    23.213132    21.897913    9142.9122     3049.178    4078.2312    2996.2263   -674.03612   -350.23062   -176.98981   -3729.8331 
17230000    159.12948    -4446.187   -4173.4446    -4446.187            0    1460.2944    18.051417    23.356337    22.012732    9280.8976    1420.2417    1177.2307    1783.4108   -927.87495    27.213084     321.8095   -3975.7902 
17231000    156.30685    -4449.252   -4181.3474    -4449.252            0    2010.5491    17.888831    23.483756    21.996641    9240.7219    1694.9755    1686.2922    2650.3796  -0.76867934    115.94085    161.42286   -3910.3928 
17232000    157.08012   -4455.4279   -4186.1979   -4455.4279            0    1385.1441    18.118651    23.252623    21.924977    9237.1282    1242.8511    761.13487    2151.4464    276.00195   -346.59783    99.804306   -3999.5996 
17233000    149.45579   -4452.8588   -4196.6967   -4452.8588            0    2145.0985    17.911219    23.530592    21.807337     9190.955     2662.264    1646.1724     2126.859    89.464562    403.73389   -403.11771   -3909.1663 
17234000    152.96346   -4440.5336   -4178.3595   -4440.5336            0    2747.9123    17.951997    23.230144    21.940259     9149.691    2641.0209      2644.25    2958.4661   -479.42779   -308.68306   -447.35729   -3811.6812 
17235000    146.48919    -4455.171   -4204.0936    -4455.171            0    2368.1243    17.862521     23.29973    22.042003    9173.7036    3540.0787    2075.9524    1488.3419    1272.6053   -177.14598   -15.880237   -3887.2645 
17236000    153.84736   -4456.1094   -4192.4203   -4456.1094            0    2510.4231    17.892045    23.234008    22.026589     9156.539    2857.7712    3535.5478    1137.9502    570.45563   -483.73527   -540.88642   -3857.1816 
17237000      155.524   -4460.7853   -4194.2225   -4460.7853            0    1705.1088    18.028175    23.346188    21.888669    9212.7037    2390.6484    1291.1541    1433.5241   -538.62776   -766.42722   -212.20806   -3965.1278 
17238000    151.45369   -4443.0956   -4183.5092   -4443.0956            0    1137.0218    17.992944     23.21716    22.124887    9242.5622    1817.2961     1388.614    205.15537   -304.23373    214.80201    285.67886   -4030.2463 
17239000    156.98716   -4454.8296   -4185.7589   -4454.8296            0    1880.5901    17.830964    23.331152    22.009627    9156.3778    2537.4072    1748.0607    1356.3025    436.11477   -100.06421    299.20369   -3934.6317 
17240000    155.64821   -4456.4347    -4189.659   -4456.4347            0    1629.7024    18.067927    23.402926    21.831085    9231.1076    1097.3341    2082.6247    1709.1484   -60.844521   -193.10632    509.75297   -3970.2583 
17241000    151.24677   -4465.1184   -4205.8866   -4465.1184            0     2261.275    17.968241    23.407738    21.862493    9195.2743     3273.381    303.16056    3207.2835   -317.92412    569.38452   -213.03178   -3902.6414 
17242000    150.99653   -4448.0597   -4189.2569   -4448.0597            0    3346.0532    18.062578    23.100955    21.998395     9179.112    3214.8365    2893.9424    3929.3808    427.27138    541.62297    -720.3523   -3741.3276 
17243000    148.79052    -4434.402   -4179.3801    -4434.402            0    2280.5157    17.978382    23.495986    21.867892    9237.4308    1598.6056     1363.607    3879.3345    194.97483   -322.59647   -220.37845   -3872.1525 
17244000    160.03015   -4460.3589   -4186.0727   -4460.3589            0    2266.7187    17.917288    23.228076    22.176483    9229.5002    3858.7382    3390.8222   -449.40432    -1128.795    48.288023   -64.701769   -3880.9661 
17245000    160.11337   -4451.1224   -4176.6935   -4451.1224            0    2207.6979    17.884653    23.388903    22.086981    9239.0375    2746.0174    2928.4844    948.59195    120.18041   -28.180004   -46.212223   -3879.2242 
17246000     150.5876   -4451.7163   -4193.6143   -4451.7163            0    1589.7222    18.026423    23.391733    21.916019    9241.3122    2383.0212    1935.0118    451.13373   -391.64468    89.444534    74.105858   -3979.3594 
17247000     152.7179   -4459.7251   -4197.9718   -4459.7251            0    3324.4922    17.966553    23.330821    21.830588    9150.8248    3046.6408    4131.2374    2795.5984   -490.23811    494.51553     50.83289   -3754.3004 
17248000    163.75323   -4455.4277   -4174.7603   -4455.4277            0    1775.0801    17.859865    23.353523    22.136899    9233.0964    2611.4468    1895.0841    818.70942    152.29094    -2.921233   -124.12452   -3935.7364 
17249000    149.01834   -4458.9154   -4203.5031   -4458.9154            0    478.61829    18.131467    23.322905    21.975659    9293.0335   -301.87913   -196.59378    1934.3278   -110.36852    161.15727   -559.60851   -4138.6362 
17250000    169.69308   -4451.4929   -4160.6448   -4451.4929            0    2471.7587    17.877578    23.501232    21.785013    9152.8669    3491.6883    1120.3307    2803.2571   -62.880294    228.69772   -269.73554   -3830.7016 
Loop time of 356.767 on 64 procs for 250000 steps with 864 atoms

Performance: 121.087 ns/day, 0.198 hours/ns, 700.738 timesteps/s
194.8% CPU use with 32 MPI tasks x 2 OpenMP threads

MPI task timing breakdown:
Section |  min time  |  avg time  |  max time  |%varavg| %total
---------------------------------------------------------------
Pair    | 17.711     | 24.812     | 32.49      |  98.0 |  6.95
Bond    | 0.8185     | 1.0107     | 1.3474     |  12.3 |  0.28
Kspace  | 177.58     | 187.08     | 196.78     |  39.0 | 52.44
Neigh   | 0.83455    | 0.92133    | 1.101      |   7.6 |  0.26
Comm    | 51.711     | 58.6       | 62.619     |  31.2 | 16.43
Output  | 0.66924    | 0.66961    | 0.67153    |   0.0 |  0.19
Modify  | 65.018     | 67.854     | 71.728     |  17.2 | 19.02
Other   |            | 15.82      |            |       |  4.43

Nlocal:        27.0000 ave          39 max          18 min
Histogram: 7 3 4 3 2 4 1 1 3 4
Nghost:        2145.88 ave        2243 max        2045 min
Histogram: 10 6 0 0 0 0 0 0 2 14
Neighs:        6643.88 ave        9509 max        4308 min
Histogram: 5 3 4 5 1 5 1 1 3 4

Total # of neighbors = 212604
Ave neighs/atom = 246.06944
Ave special neighs/atom = 2.0000000
Neighbor list builds = 3336
Dangerous builds = 0

unfix		3
unfix		2
unfix		1

write_data	data.final.${pid} nocoeff
write_data	data.final.1 nocoeff
System init for write_data ...
PPPM initialization ...
  extracting TIP4P info from pair style
  using 12-bit tables for long-range coulomb (../kspace.cpp:340)
  G vector (1/distance) = 0.3720793
  grid = 24 27 25
  stencil order = 5
  estimated absolute RMS force accuracy = 0.0031156501
  estimated relative force accuracy = 9.3826877e-06
  using double precision FFTW3
  3d grid and FFT values/proc = 4410 672
Last active /omp style is kspace_style pppm/tip4p/omp

write_restart   restart.lmp.${pid}
write_restart   restart.lmp.1
System init for write_restart ...
PPPM initialization ...
  extracting TIP4P info from pair style
  using 12-bit tables for long-range coulomb (../kspace.cpp:340)
  G vector (1/distance) = 0.3720793
  grid = 24 27 25
  stencil order = 5
  estimated absolute RMS force accuracy = 0.0031156501
  estimated relative force accuracy = 9.3826877e-06
  using double precision FFTW3
  3d grid and FFT values/proc = 4410 672
Last active /omp style is kspace_style pppm/tip4p/omp
Total wall time: 0:05:56
