#include		in.partitions
include		in.temp
variable        temperature equal 53.75
variable	tempDamp equal 100.0
include		in.pressure
variable        pressure equal 8858.3
variable        pressureDamp equal 1000.0 # This is 1 ps
include		in.seed
variable        seed equal 745823

units		real
atom_style	full
box tilt large
read_restart	restart.lmp.${pid}
read_restart	restart.lmp.0
Reading restart file ...
  restart file = 30 Jul 2021, LAMMPS = 30 Jul 2021
  restoring atom style full from restart
  triclinic box = (-10.531398 -9.0688578 0.25253383) to (12.511398 12.058856 21.607465) with tilt (-9.3011830 1.7468843 2.8989261)
  2 by 4 by 4 MPI processor grid
  restoring pair style lj/cut/tip4p/long/omp from restart
  restoring bond style harmonic/omp from restart
  restoring angle style harmonic/omp from restart
  1296 atoms
  864 bonds
  432 angles
Finding 1-2 1-3 1-4 neighbors ...
  special bond factors lj:    0        0        0       
  special bond factors coul:  0        0        0       
     2 = max # of 1-2 neighbors
     1 = max # of 1-3 neighbors
     1 = max # of 1-4 neighbors
     2 = max # of special neighbors
  special bonds CPU = 0.002 seconds
  read_restart CPU = 0.007 seconds
include 	in.setup
variable	out_freq equal 1000
variable	out_freq2 equal 10000
variable	out_freq3 equal 1000

timestep	2.0

neigh_modify    delay 7 every 1

include		in.tip4p
# This is TIP4P/Ice

# create groups ###
group ox type 2
432 atoms in group ox
group hy type 1
864 atoms in group hy

# set charges - beside manually ###
set group ox charge -1.1794
Setting atom values ...
  432 settings made for charge
set group hy charge 0.5897
Setting atom values ...
  864 settings made for charge

# ### TIP3P Potential Parameters ###
pair_style lj/cut/tip4p/long/omp 2 1 1 1 0.1577 8.5
pair_coeff 1 1*2 0.000 0.000
pair_coeff 2 2 0.21084 3.1668
bond_style  harmonic
bond_coeff  1 450 0.9572
angle_style harmonic
angle_coeff 1 55 104.52
kspace_style pppm/tip4p/omp 1.0e-5
pair_modify tail yes

thermo          ${out_freq}
thermo          1000
thermo_style    custom step temp pe etotal epair emol press lx ly lz vol pxx pyy pzz pxy pxz pyz enthalpy

restart 	${out_freq3} restart.lmp.${pid} restart2.lmp.${pid}
restart 	1000 restart.lmp.${pid} restart2.lmp.${pid}
restart 	1000 restart.lmp.0 restart2.lmp.${pid}
restart 	1000 restart.lmp.0 restart2.lmp.0


include         in.dump
dump            myDump all atom ${out_freq2} dump.water.${pid}
dump            myDump all atom 10000 dump.water.${pid}
dump            myDump all atom 10000 dump.water.0
dump            myDump2 all dcd ${out_freq2} dump.dcd
dump            myDump2 all dcd 10000 dump.dcd
dump_modify     myDump append yes
dump_modify     myDump2 append yes


variable natoms 	equal  "count(all)"                        # NUMBER ATOMS
variable H      	equal  "enthalpy/v_natoms"                 # ENTHALPY-per-atom
variable Vol      	equal  "vol/v_natoms"                 # volume-per-atom
fix AVG all 		ave/time ${out_freq} 1 ${out_freq} v_Vol v_H file vol_enthalpy.dat
fix AVG all 		ave/time 1000 1 ${out_freq} v_Vol v_H file vol_enthalpy.dat
fix AVG all 		ave/time 1000 1 1000 v_Vol v_H file vol_enthalpy.dat


timer           timeout 10:00:00 every 1000
New timer settings: style=normal  mode=nosync  timeout=10:00:00

fix 		1 all shake 1e-6 200 0 b 1 a 1
       0 = # of size 2 clusters
       0 = # of size 3 clusters
       0 = # of size 4 clusters
     432 = # of frozen angles
  find clusters CPU = 0.001 seconds
fix             2 all nph tri ${pressure} ${pressure} ${pressureDamp}
fix             2 all nph tri 8858.3 ${pressure} ${pressureDamp}
fix             2 all nph tri 8858.3 8858.3 ${pressureDamp}
fix             2 all nph tri 8858.3 8858.3 1000
fix             3 all temp/csvr ${temperature} ${temperature} ${tempDamp} ${seed}
fix             3 all temp/csvr 53.75 ${temperature} ${tempDamp} ${seed}
fix             3 all temp/csvr 53.75 53.75 ${tempDamp} ${seed}
fix             3 all temp/csvr 53.75 53.75 100 ${seed}
fix             3 all temp/csvr 53.75 53.75 100 745823


run             250000
PPPM initialization ...
  extracting TIP4P info from pair style
  using 12-bit tables for long-range coulomb (../kspace.cpp:340)
  G vector (1/distance) = 0.37040758
  grid = 30 36 32
  stencil order = 5
  estimated absolute RMS force accuracy = 0.0039187348
  estimated relative force accuracy = 1.1801154e-05
  using double precision FFTW3
  3d grid and FFT values/proc = 7344 1080
Last active /omp style is kspace_style pppm/tip4p/omp
Neighbor list info ...
  update every 1 steps, delay 7 steps, check yes
  max neighbors/atom: 2000, page size: 100000
  master list distance cutoff = 10.8154
  ghost atom cutoff = 10.8154
  binsize = 5.4077, bins = 7 5 4
  1 neighbor lists, perpetual/occasional/extra = 1 0 0
  (1) pair lj/cut/tip4p/long/omp, perpetual
      attributes: half, newton on, omp
      pair build: half/bin/newton/tri/omp
      stencil: half/bin/3d/tri
      bin: standard
Per MPI rank memory allocation (min/avg/max) = 10.63 | 10.63 | 10.63 Mbytes
Step Temp PotEng TotEng E_pair E_mol Press Lx Ly Lz Volume Pxx Pyy Pzz Pxy Pxz Pyz Enthalpy 
 7000000     63.66001   -6855.3803   -6691.6188   -6855.3803            0    8444.1911    23.042796    21.127714    21.354931    10396.469    8064.2473    8603.2864    8665.0394    713.31371    123.61869   -111.24676   -5411.2951 
 7001000    53.679865   -6868.9516   -6730.8635   -6868.9516            0     9123.652    23.087641    21.001928    21.370885    10362.421    8553.3111    9744.1795    9073.4653    358.96785    665.82383    326.41595   -5352.0489 
 7002000    54.285654   -6871.4267   -6731.7802   -6871.4267            0    8978.0305    23.062166     21.11886    21.284799     10366.69    8921.5024    9162.7199    8849.8693    328.74726   -390.74976   -306.84718   -5374.4138 
 7003000    52.032925   -6868.0908   -6734.2393   -6868.0908            0     8687.934    23.000477    21.160996    21.355575    10394.036    8540.8829    9117.6027    8405.3164     436.0377   -155.18213   -529.39388   -5417.2671 
 7004000    51.473006   -6876.1656   -6743.7544   -6876.1656            0    8259.8708    23.049146    21.074129    21.419991    10404.561    8323.1472    8145.6889    8310.7762   -141.22095    147.61453    1213.9451   -5490.4029 
 7005000    53.445462   -6874.7514   -6737.2662   -6874.7514            0    8447.1558    23.079852    21.193917    21.283427    10410.841    7542.4675    8287.8591    9511.1408    100.52737    108.62707   -142.60805   -5454.7224 
 7006000    53.254142   -6863.8385   -6726.8454   -6863.8385            0    9264.1316    22.968091    21.117434    21.372608    10366.295    8924.0796    9534.2137    9334.1016    432.57651    474.06473    475.42091   -5326.2775 
 7007000    53.854155   -6879.9551   -6741.4186   -6879.9551            0    7845.1102    23.120194     21.14934    21.294764    10412.647    6997.3522    7975.4956    8562.4827    260.29718    198.92536     166.4834   -5550.0776 
 7008000    53.931368   -6869.5074   -6730.7723   -6869.5074            0    8981.4582    23.066955     21.12729    21.291675    10376.332    8655.7368    9707.3583    8581.2794   -13.765794   -89.362294   -209.13104   -5371.6247 
 7009000     55.81364    -6867.165   -6723.5878    -6867.165            0    9084.8415    22.945818     21.14245    21.370341    10367.411    9043.9389    9668.9274    8541.6583   -321.49096    369.55698    623.59209   -5349.9774 
 7010000    54.930103   -6870.0715   -6728.7671   -6870.0715            0    9345.9914     23.07808    21.190671    21.192865    10364.159    8461.5496     9492.874    10083.551    485.70068   -533.75081    -435.6435   -5316.1147 
 7011000    52.866517   -6866.0971   -6730.1012   -6866.0971            0    9231.7676     23.02384    21.033357    21.401806    10364.224    9536.0271    9517.5042    8641.7716   -190.19292   -134.02863   -52.832967    -5334.705 
 7012000    53.638509    -6862.051   -6724.0692    -6862.051            0    9072.3705     22.98924    21.168304    21.328564    10379.401    9204.6925     9803.857    8208.5619   -355.50899    69.119003   -796.77635   -5350.7579 
 7013000    54.497238   -6868.3213   -6728.1305   -6868.3213            0    8459.0071    23.020897    21.258059    21.221999    10385.613    8201.2203    8522.5292    8653.2717    189.82582   -347.32388   -717.52329   -5446.8995 
 7014000    53.329081   -6873.9713   -6736.7855   -6873.9713            0    9486.0656    23.046811    21.048428    21.353233    10358.435    9451.6666    10108.885    8897.6452    107.12482    323.21027    197.31416   -5303.7526 
 7015000    54.846973   -6875.4789   -6734.3884   -6875.4789            0    8755.4608    23.065986    21.151342    21.313903    10398.554    8054.9703    9446.2877    8765.1243    450.00663   -519.04322   -17.534027   -5406.6032 
 7016000    55.328483   -6875.5377   -6733.2085   -6875.5377            0    8886.5254    22.915062    21.244174    21.316503     10377.12    9381.3373     8427.988    8850.2509    441.07463    90.239772    1034.9643   -5388.3249 
 7017000    54.444858   -6874.8716   -6734.8155   -6874.8716            0    8859.2595    23.003845    21.159474    21.338329    10386.416    8546.7148    9385.3895     8645.674   -202.31858    487.05408   -328.37489   -5392.8572 
 7018000    53.231963   -6877.6363   -6740.7003   -6877.6363            0    8582.2422    23.137045    21.064435    21.313376    10387.474     7850.286    9139.6563    8756.7844   -19.641909    324.77851   -228.21536   -5440.5708 
 7019000    54.475108   -6872.2363   -6732.1024   -6872.2363            0    9323.9068    22.937017    21.138557    21.356841    10354.981    9995.0119    9177.0429    8799.6656   -198.46815    293.75523    119.45328   -5324.0361 
 7020000    53.169678   -6870.0027   -6733.2269   -6870.0027            0    9364.1742    22.959382    21.198263    21.283027    10358.429    9460.8931    9502.2411    9129.3882   -124.90747   -121.66996   -1149.5205   -5318.6087 
 7021000    53.792629   -6875.0332   -6736.6549   -6875.0332            0    9233.1336    23.060807    21.042607    21.329738    10350.458    8589.5491    10310.878    8798.9737   -173.42236    359.87316   -293.41516   -5342.9059 
 7022000    53.906926   -6872.3348   -6733.6625   -6872.3348            0    8678.4186    23.047718    21.111233     21.36741     10396.65    8338.2831    8953.3135    8743.6593   0.76020511   -74.149966   -343.24106   -5417.8019 
 7023000    54.390312   -6877.1153   -6737.1995   -6877.1153            0     8834.282     23.02496    21.220623    21.262239    10388.815    8066.4909    8146.3338    10290.021     96.40987     527.8715    401.13343   -5398.7156 
 7024000    58.065237   -6869.6438   -6720.2745   -6869.6438            0    8560.0863     22.97758    21.125062    21.407696    10391.356    9237.2288     8385.952    8057.0781    90.991531   -646.35965    603.33877   -5423.0168 
 7025000    57.281637   -6874.8397   -6727.4862   -6874.8397            0     8674.137    23.060622    21.180194    21.300586    10403.812      8113.51    8675.4007    9233.5005    591.82691   -339.48018   -240.94046   -5411.3686 
 7026000    54.461828   -6866.6413   -6726.5416   -6866.6413            0    8848.3285    23.000552     21.19139    21.303276    10383.508    8728.9735    9159.5477    8656.4644   -424.80173    650.28097   -360.21326   -5386.6143 
 7027000    54.630459   -6872.0547   -6731.5211   -6872.0547            0    8474.5307    22.967815    21.168883    21.385987    10397.931     8955.942     8359.165    8108.4849   -505.83902    235.66771   -11.055166   -5446.4166 
 7028000    51.696335    -6875.537   -6742.5513    -6875.537            0    8596.1745    23.085098    21.139913    21.288128    10388.967     8380.434    8904.4638    8503.6257   -61.912687   -430.35172   -452.64735    -5440.124 
 7029000    52.481163    -6872.486   -6737.4814    -6872.486            0    8772.0983    22.979429    21.137451    21.352983    10371.711    8956.8838    9424.9864    7934.4245    213.59368   -728.12872   -109.66197   -5410.6071 
 7030000    55.077459   -6864.4665   -6722.7831   -6864.4665            0    9283.7285    22.883716      21.2798    21.295455    10370.054    10049.568     8861.798    8939.8196   -210.77315   -743.08579   -374.65996   -5318.7436 
 7031000    55.496174    -6870.261   -6727.5004    -6870.261            0    8624.4413    23.015531    21.150189    21.330969     10383.55    9133.1567    8291.9531     8448.214   -190.86515   -29.808226     736.9749   -5421.4718 
 7032000    53.529507   -6865.9088   -6728.2074   -6865.9088            0     9205.872    23.099233    21.049873    21.332379    10372.569    8415.3406    9412.1102    9790.1652   -230.25797    388.05302    423.33806    -5335.605 
 7033000    54.374725   -6871.4401   -6731.5645   -6871.4401            0    8993.1004    22.939322    21.192375    21.331466    10370.052    9525.7716    8755.7478     8697.782    368.65856    66.223994   -520.19443   -5371.4788 
 7034000    53.636993   -6873.6035   -6735.6256   -6873.6035            0    8944.2676    22.915564    21.245994    21.303136    10371.728    9350.5285    8469.7142    9012.5599    173.21568    371.72884   -64.341355   -5382.7066 
 7035000     52.42509   -6873.0716   -6738.2113   -6873.0716            0    8829.0413    23.053265    21.106148    21.321746    10374.429    8461.2206    8874.0056    9151.8977    152.78243   -576.63296    219.36591   -5402.3738 
 7036000    51.763307   -6867.1391   -6733.9812   -6867.1391            0    9276.5761    23.091334    21.026855    21.328946    10356.016    9469.1808    9332.9696    9027.5779   -200.87583   -790.05336    604.57786   -5332.9225 
 7037000    53.248654   -6865.8381   -6728.8591   -6865.8381            0    9286.5883    22.966495    21.214615    21.277437    10366.906    9119.7499    9044.7587    9695.2564    367.52353     262.1819   -53.864295   -5324.8134 
 7038000    53.550169    -6869.728   -6731.9734    -6869.728            0     9221.671    22.974495    21.156139    21.328816    10366.905    9292.7156    9365.8184    9006.4789    111.75627    268.76983    -198.4808   -5337.7428 
 7039000    53.304545   -6871.1709   -6734.0482   -6871.1709            0    8733.3788    23.136661    21.046781    21.325461    10384.481    8071.1724    9680.4907    8448.4733     265.6799    521.20053   -293.64628   -5411.4042 
 7040000    51.927681    -6870.773   -6737.1922    -6870.773            0     8666.075     23.05218    21.110946      21.3473    10388.735    8377.5271    9125.9927    8494.7052    53.313772    219.24364   -410.63933   -5424.2035 
 7041000    52.559902   -6872.5677   -6737.3606   -6872.5677            0    9201.0993    22.968469    21.209078    21.269658    10361.302    9089.9268    9386.8917    9126.4794     1214.834   -349.59909    26.381671    -5346.992 
 7042000    55.013938   -6878.4532   -6736.9332   -6878.4532            0    8506.9216      22.9579    21.171831    21.390853    10397.255    8521.8941    8755.4728    8243.3979    500.33348   -289.31524   -269.98692   -5447.0007 
 7043000    55.129872   -6872.3588   -6730.5406   -6872.3588            0    8597.6557    23.116875    21.041541    21.347709    10383.839     8496.024    8669.0615    8627.8815   -286.07175    328.27553    248.93262   -5428.5319 
 7044000    54.598583   -6868.8231   -6728.3715   -6868.8231            0     9468.982    23.095612    21.109744    21.235362     10353.14    9110.0895    9280.9798    10015.877   -176.70862    -303.2263    118.05042   -5298.6506 
 7045000     50.30198   -6878.1447   -6748.7459   -6878.1447            0     8324.192    22.921361    21.172972    21.397432    10384.459    9060.2292    8536.0581    7376.2885    395.50247   -85.262932    106.18283   -5488.0747 
 7046000    55.811534    -6868.606   -6725.0342    -6868.606            0    10053.265    22.997827    21.091605    21.319104    10341.068    10503.561    10278.682    9377.5529   -307.05497    235.29758   -700.75244   -5208.8624 
 7047000    54.779417   -6881.2285   -6740.3118   -6881.2285            0    8217.2907    23.120478    21.108958    21.300545    10395.714    7855.9335    8358.4842    8437.4543    586.04345   -429.01836   -70.449457   -5494.4816 
 7048000    58.010326   -6880.1406   -6730.9125   -6880.1406            0    8362.2621    23.002312    21.076631    21.465315    10406.626    8849.3205    8768.3389    7469.1268    335.58613    3.2816762    450.35289   -5461.7723 
 7049000    54.806658   -6871.1157   -6730.1289   -6871.1157            0    8726.9594    23.028972     21.22755    21.256729    10391.323    9278.2294    8085.6036    8817.0453   -655.34155   -275.38012   -334.09998   -5407.5862 
 7050000    54.151237   -6870.9049   -6731.6042   -6870.9049            0    8840.7842     23.03832     21.13484    21.314405    10378.223     8348.296     8685.518    9488.5386    268.67787    482.52541   -0.5922543   -5393.5007 
 7051000     54.38022    -6868.303   -6728.4132    -6868.303            0    9046.4535    23.039499    21.095622    21.377175    10390.003    8615.6322    9785.2511    8738.4773    105.70012    199.75895    -285.0907   -5357.6264 
 7052000     53.00449    -6873.624   -6737.2732    -6873.624            0    9324.0416     23.06375    21.092204     21.30753    10365.374    8938.3465    9327.4784    9706.2998    438.87433    78.295082    125.34542   -5327.7732 
 7053000    53.081697   -6873.5488   -6736.9994   -6873.5488            0    8631.0381    22.978153    21.159907    21.346129     10378.82    8591.6156    8465.4942    8836.0044   -435.05636    274.21138    56.382888    -5430.567 
 7054000    55.328434   -6876.4155   -6734.0865   -6876.4155            0      8310.86    23.040472    21.156131    21.344871    10404.499    8335.6115    8670.9879    7925.9807   -87.800652    219.86132   -314.45986   -5473.0054 
 7055000    52.630688   -6862.1969   -6726.8076   -6862.1969            0     9601.638    22.977455    21.089601    21.352673    10347.193    9772.4068    10142.217    8890.2904   -134.11154    120.94855     121.8313   -5277.8898 
 7056000    55.793205   -6871.7211   -6728.1965   -6871.7211            0     8489.831    23.012204    21.180207    21.311411    10387.251    8869.5873    7809.7959    8790.1099   -836.80132    340.83563   -107.21109    -5442.094 
 7057000    54.876161   -6872.7275   -6731.5619   -6872.7275            0    8786.1012    23.059994    21.097733     21.32538    10375.088     8816.923    8924.0479    8617.3327    454.63761    14.373606   -365.36557   -5402.1368 
 7058000    54.279453   -6874.5906     -6734.96   -6874.5906            0    8727.2822    22.962149    21.149311    21.370443    10378.206    9601.0731    8495.8612    8084.9124   -201.53014   -415.78277    39.895429   -5414.0379 
 7059000    52.324873   -6870.1544   -6735.5519   -6870.1544            0     8462.571    22.996636    21.239069    21.287104    10397.199    8887.2714    8139.2331    8361.2085   -6.7134735   -54.263131    -78.14521   -5452.3512 
 7060000    52.874429   -6873.2442   -6737.2279   -6873.2442            0    9284.3623    23.039552    21.107483    21.318715    10367.439    8663.5907     9463.381    9726.1154    224.06648   -106.00132     856.6776   -5333.4466 
 7061000    52.546239    -6870.444    -6735.272    -6870.444            0    8994.7458    23.049725    21.081344    21.373363    10385.727    8909.5807    9328.8605    8745.7964    56.260535   -333.56546    39.956613   -5372.8813 
 7062000     53.70677    -6870.913   -6732.7556    -6870.913            0     8416.038    23.024332    21.187863    21.321639    10401.471    8579.3911    8228.9558    8439.7671   -34.112303    778.97096    41.700487   -5456.0865 
 7063000    55.208344   -6863.2594   -6721.2393   -6863.2594            0    9502.5401    22.983012    21.161199    21.299845    10359.139    10396.811     8762.942    9347.8667    104.99262    26.609976   -446.65396   -5285.6201 
 7064000    52.756015   -6872.4453   -6736.7337   -6872.4453            0    9020.7891    23.054932    21.082127    21.342786    10373.598    9593.7139    8114.0678    9354.5857    2.6594044    22.374112    317.15979    -5371.994 
 7065000    51.667751   -6874.8735   -6741.9614   -6874.8735            0     8726.186    23.107528    21.040883    21.340227    10375.678    8213.4884    8998.6449    8966.4246    778.86591    269.04016   -182.49236   -5421.5269 
 7066000    55.287836   -6869.0842   -6726.8596   -6869.0842            0    9168.3635    23.027615    21.165957    21.282318    10373.034    8686.7117    9688.8339    9129.5448    482.51786    590.27039   -157.59774   -5339.8691 
 7067000    53.558883   -6881.3768   -6743.5999   -6881.3768            0    8427.3867     22.97049    21.211363    21.328138    10391.824    8468.1969    8164.5287    8649.4344    410.88342     617.1691   -141.25401    -5466.395 
 7068000     52.72577   -6874.8596   -6739.2258   -6874.8596            0    8916.1086     23.05747    21.077063    21.368876    10384.926    8863.3669    9467.4086    8417.5502   -371.89529    802.74717    358.27313     -5388.85 
 7069000    52.502951   -6879.2008   -6744.1401   -6879.2008            0     9177.407    23.100858    21.050292    21.317796    10366.413    8668.0225    9595.8093    9268.3893    401.16306    48.566629    416.52985   -5356.6676 
 7070000    54.299092    -6874.928   -6735.2469    -6874.928            0     8630.741    22.949354    21.242406    21.303163    10385.281    9251.9476    7968.3144     8671.961      248.891    243.22128   -45.632985   -5428.0463 
 7071000     54.21025   -6869.8018   -6730.3492   -6869.8018            0    9034.9609    22.971253    21.157725    21.323854    10363.808    9211.6112    9069.1957    8824.0756    418.08764    489.81244   -253.30274   -5364.7555 
 7072000    57.054227   -6870.0739   -6723.3054   -6870.0739            0     8756.674    23.087589    21.089175    21.327395    10384.271    8775.9374    8927.0399    8567.0446   -410.44241   -642.07565   -225.71198   -5397.1602 
 7073000    52.772614   -6875.7084    -6739.954   -6875.7084            0    8796.3186    23.075563    21.090194     21.33048    10380.864    8507.7557    9417.6371    8463.5631    364.66706    110.56298   -488.60906   -5408.2419 
 7074000    54.124095   -6871.4118   -6732.1808   -6871.4118            0    9252.1422    22.936188    21.161276     21.34017    10357.644    9538.7976    9035.8101    9181.8188   -112.01383    522.43067    301.34938   -5334.5929 
 7075000    52.485025    -6868.892   -6733.8775    -6868.892            0    8665.2801    22.970616    21.251919    21.277904    10387.228    8209.9579    8375.5745    9410.3078    11.452595   -237.71408   -502.82941   -5421.1996 
 7076000      54.2738   -6874.4321    -6734.816   -6874.4321            0    9029.0985    23.080208    21.065166    21.353286     10381.72    8328.0127    9765.9977    8993.2852   -1.7288701    186.89342   -312.94799   -5367.7497 
 7077000    55.027319   -6883.3923   -6741.8379   -6883.3923            0    7883.6752    23.108036    21.047661    21.401412    10409.007    8102.1156     8299.482    7249.4282    41.987109   -59.352296     515.7443    -5545.059 
 7078000    56.578581   -6873.4905   -6727.9455   -6873.4905            0    8488.8968    22.969616    21.255403     21.29743    10398.011    8555.6582    8005.2668    8905.7654   -312.44516    156.94673   -202.29658   -5440.6525 
 7079000    52.466648   -6872.5049   -6737.5376   -6872.5049            0    8995.4651    23.005323    21.179615    21.275464     10366.34    8621.1613    8775.7877    9589.4462   -383.06454    88.718153     96.48786   -5377.5813 
 7080000      55.7297   -6870.9042   -6727.5429   -6870.9042            0    8666.4716     23.13158    20.991518    21.399604    10390.941    7827.2483    9740.5462    8431.6204    858.66305   -161.66418   -27.156938   -5414.2153 
 7081000    53.597342   -6874.4086   -6736.5327   -6874.4086            0    8982.5011     23.00712    21.132186    21.318182    10364.702    9304.0433    9075.9919    8567.4681    -52.19217    181.33866   -643.54071   -5378.7508 
 7082000    53.087014   -6870.8172    -6734.254   -6870.8172            0    9276.5337    22.986229     21.19695    21.253183    10355.357    8950.6062    9110.4562    9768.5388    80.500931    98.916114    -106.3567   -5333.2909 
 7083000    53.923322   -6875.1121   -6736.3976   -6875.1121            0     8566.767      23.0353    21.060543    21.412919    10388.176    8544.4897    9026.2673    8129.5439   -647.83798    523.29914   -307.42386   -5438.5248 
 7084000    56.255827   -6862.5824   -6717.8677   -6862.5824            0    10115.977    23.088308    21.015723    21.319402    10344.547    9624.0985    10625.226    10098.607    439.45924    233.82426    376.54259   -5191.7248 
 7085000    51.472677   -6868.0373    -6735.627   -6868.0373            0    8831.1002    22.949248    21.220805    21.306587     10376.34     9219.843    8500.9398    8772.5179    333.24914    311.65377   -192.10991   -5399.2319 
 7086000    54.593435   -6876.6701   -6736.2318   -6876.6701            0    8994.9438    23.023583    21.161782    21.286928    10371.418    8678.8259    9011.3072    9294.6983   -530.73292    332.17916    -105.4578   -5375.6882 
 7087000    52.886139   -6873.0939   -6737.0475   -6873.0939            0    9331.7663    23.120978    20.977791     21.36285     10361.56    8772.4423     10697.58    8525.2767    110.67621    150.55834   -461.71333   -5326.8989 
 7088000    53.205572   -6870.9758   -6734.1078   -6870.9758            0    8591.8049    23.042106    21.154616    21.319148    10391.953    8640.0055    8184.5667    8950.8424     637.1249    -110.6107    7.9230123   -5431.9684 
 7089000    51.165596   -6874.3197   -6742.6993   -6874.3197            0    8667.1364    22.895636     21.26472    21.320116    10380.109    9521.6703    8317.4446    8162.2943   -266.02018    129.69971   -800.88694     -5430.64 
 7090000    53.302194   -6877.5733   -6740.4567   -6877.5733            0    8640.0595    23.069465    21.108825    21.337163    10390.544    8132.6626    9038.3292    8749.1866    561.54142    196.56087    63.740825   -5431.1816 
 7091000    53.903615   -6879.6616   -6740.9979   -6879.6616            0    8620.6023    23.089415    21.077448    21.348324    10389.502    8046.0772    9142.9951    8672.7345   -172.78283    99.669086    285.42612   -5434.8022 
 7092000    53.266152   -6871.5336   -6734.5097   -6871.5336            0    8556.0122     22.94831    21.217922    21.343981    10392.715     8654.111    8342.4431    8671.4825   -698.28099    443.85724   -89.749075   -5437.6999 
 7093000    53.720267   -6870.1645   -6731.9724   -6870.1645            0    9311.9833    22.971931    21.239615    21.245911    10366.198    9642.6542    8507.7349    9785.5608   -446.57365   -12.157159   -334.04652   -5324.1834 
 7094000     52.81608   -6870.3846   -6734.5185   -6870.3846            0    8053.0856    23.092954    21.094473    21.365912    10408.055    7803.3379     8547.405    7808.5139    82.514566    163.87914    108.76577   -5512.1341 
 7095000     53.70756    -6881.594   -6743.4346    -6881.594            0    8784.1045    23.021021     21.12197    21.374263    10393.221    8690.1354    9149.0645    8513.1135    -99.38655    68.360657   -472.64714   -5411.9887 
 7096000    55.450075   -6871.6213   -6728.9793   -6871.6213            0    8790.7033     23.02475    21.209685    21.263868    10384.161    8899.1485    8473.7787    8999.1827   -81.534966    328.20744   -171.38381   -5397.6947 
 7097000    52.941859   -6871.9765   -6735.7868   -6871.9765            0    8508.1234    22.967952    21.201312    21.350018    10396.407    8684.3587     8145.487    8694.5245    84.758761    101.19204     632.7911   -5445.7772 
 7098000    53.738218   -6878.6162   -6740.3779   -6878.6162            0    9358.3361    23.066399    21.048076    21.340858    10361.057     9236.584    9819.5793    9018.8449   -418.18617    114.07578   -274.86162   -5326.2828 
 7099000    53.307695   -6869.0868    -6731.956   -6869.0868            0     8925.392    23.106639    21.090274    21.287102    10373.745    8506.8311    9236.6714    9032.6734   -444.03768   -566.07718     163.4288   -5381.6297 
 7100000    51.269509   -6872.8211   -6740.9334   -6872.8211            0    8308.5106    22.940954    21.270395    21.307093    10397.076    8680.0175    7728.6714    8516.8427    200.68027   -277.05495    234.70475   -5481.1082 
 7101000    52.637522   -6873.9254   -6738.5186   -6873.9254            0     9096.667    22.924499    21.213794    21.331219    10373.705    9590.6788    8533.1589    9166.1635    13.725053   -63.047089    235.96097   -5362.2853 
 7102000    53.048077   -6872.8414   -6736.3785   -6872.8414            0     8803.966    23.119353    21.081153    21.314599    10388.365    8179.4119    8737.6112    9494.8748   -55.534336   -204.06914    647.00627   -5402.5454 
 7103000    54.503823    -6869.852   -6729.6443    -6869.852            0    8742.8356    23.035342    21.173303    21.302465    10389.942    8001.7652    8996.0282    9230.7134   -993.76905    491.15579    -35.02805   -5404.8717 
 7104000    54.175208   -6870.9379   -6731.5755   -6870.9379            0    8644.2216    22.901334    21.289926    21.288597    10379.632    8631.5844    8711.7346    8589.3457    74.119037    712.30601    192.58501   -5423.0453 
 7105000    55.213674   -6874.3221   -6732.2883   -6874.3221            0    8818.2687    22.971666    21.195505    21.319498     10380.38    8717.0795    8507.5757    9230.1508   -191.54193    -95.18434   -112.08351   -5397.3154 
 7106000    53.450147   -6875.0732    -6737.576   -6875.0732            0    8634.5162    23.077138    21.018465     21.39607    10378.079    9126.5556     8697.307    8079.6861   -207.95155   -748.15925   -67.166969   -5430.7106 
 7107000    51.738389   -6864.4908   -6731.3969   -6864.4908            0    9361.5575    23.077653    21.174304    21.177317    10348.364    8501.1091    8931.1434     10652.42   -258.61631    103.23612    1.4495376   -5318.5481 
 7108000    52.178986    -6869.904   -6735.6768    -6869.904            0     8863.515    22.905523    21.224564    21.333704    10371.588     9437.583    8139.1343    9013.8277    106.19022   -123.85488   -16.246822   -5394.9906 
 7109000    52.575012   -6874.2924   -6739.0463   -6874.2924            0    8821.5076    23.032291    21.075852    21.391778    10384.107    8878.5461     8993.875    8592.1017    202.62744    250.47052    246.71201   -5403.1036 
 7110000    54.256265   -6875.4812   -6735.9103   -6875.4812            0    8468.6875    23.169125    21.116249    21.212862    10378.287    7570.0272    8133.5177    9702.5177   -50.512994    201.69229    392.39992   -5454.1179 
 7111000    52.526706   -6868.7027   -6733.5809   -6868.7027            0    8905.8909    22.941602    21.171062    21.367631    10378.217    9059.1513    9093.8867    8564.6347    264.36655     84.08723   -370.67724    -5385.624 
 7112000    54.602366   -6873.1471   -6732.6859   -6873.1471            0    8992.5132    22.978911    21.199301    21.297939    10375.011    9379.3179    8829.6805    8768.5413   -113.35645    514.61419    34.503207   -5372.0387 
 7113000    54.736182   -6874.5773   -6733.7718   -6874.5773            0    8803.4993    23.114901    21.061083    21.323848    10380.979    8950.1839    9203.8906    8256.4235   -629.52141    103.30785   -767.46487   -5400.9579 
 7114000    54.785843    -6871.133   -6730.1998    -6871.133            0    8853.1304    23.050112    21.051638     21.39978    10384.086    8910.5873    9191.1596    8457.6443   -761.51599    616.75816    189.17064   -5389.4708 
 7115000    53.432809   -6868.8642   -6731.4116   -6868.8642            0    9075.2554    23.023837    21.223858    21.238441    10378.263    9676.4365    8528.2063    9021.1235    302.67575    163.42033   -248.00677   -5357.8143 
 7116000    51.013663   -6876.4088   -6745.1792   -6876.4088            0     8941.818    22.984594    21.133107    21.378707    10384.405    8738.7877    8968.5115    9118.1548    174.13962    333.83357   -94.023266   -5390.9776 
 7117000    50.203011   -6878.2685   -6749.1243   -6878.2685            0    8461.5512    23.163697       21.062     21.30153    10392.458    7912.8625    8696.2296    8775.5614    -532.1576     220.7018   -565.34765   -5466.6634 
 7118000    53.170913    -6876.016   -6739.2371    -6876.016            0    9092.1199    22.987264    21.142631    21.335407    10369.247    8715.6139    9787.0259    8773.7199    737.08351    560.00308   -342.02046   -5364.2827 
 7119000    53.048032   -6872.9334   -6736.4706   -6872.9334            0    8819.7146    22.928173    21.162499    21.406003    10386.566    8545.6325    8816.2699    9097.2412   -11.278394     967.5238    568.69387    -5400.483 
 7120000    54.281596    -6873.274   -6733.6379    -6873.274            0    9119.3484    23.146922    21.107285    21.208492    10361.805     8238.348    9183.1068    9936.5904     42.70808    250.86127   -211.01243   -5355.5557 
 7121000     53.53864   -6877.6045   -6739.8796   -6877.6045            0    8292.0781    23.070761    21.034082     21.43273     10400.71    7878.4169    8662.6984     8335.119   -91.187809    63.474831    695.57248   -5482.1066 
 7122000    56.244416   -6871.7915   -6727.1062   -6871.7915            0    8656.0125    22.985108    21.193706    21.331018    10391.184    8897.6556    8243.9833    8826.3985    -569.7158    219.89398   -179.39116   -5415.3328 
 7123000    52.182461    -6871.847   -6737.6108    -6871.847            0    8304.3187    22.992846    21.239986    21.286356     10395.57    8784.9156    7512.4275    8615.6131   -29.295096    473.97327    384.09912   -5478.6037 
 7124000    53.591962   -6873.0613   -6735.1992   -6873.0613            0    8610.0633    23.061647    21.090521    21.385674     10401.61    8477.3236     9093.581    8259.2853   -375.78401   -140.53746   -223.43057   -5429.0801 
 7125000     53.44465   -6866.9032   -6729.4201   -6866.9032            0    8959.2547    23.122299    21.084452    21.295198    10381.856    8054.1865    9570.8819    9252.6957   -44.543988    21.804599    209.59968   -5372.9108 
 7126000    54.015268   -6877.1304   -6738.1794   -6877.1304            0    8747.4323    22.999301    21.157129    21.332096    10380.181    8617.7797    8527.5254    9096.9919    613.74389    278.39065   -205.26259   -5413.9556 
 7127000    54.755548   -6878.8034   -6737.9481   -6878.8034            0    8648.7437    22.996059     21.17275    21.346885    10393.581    8800.9059    8315.5016    8829.8237    524.08258    406.77726     200.4275   -5426.9739 
 7128000    53.357199   -6870.3718   -6733.1137   -6870.3718            0    8935.7469    23.156106    21.018843    21.302377    10368.177    8340.5443    9405.3728    9061.3236   -20.357485    88.493421    64.077234   -5381.9463 
 7129000    54.411392   -6863.1258   -6723.1558   -6863.1258            0    9302.4472    23.018611    21.075987    21.354253    10359.801    9674.4278    9142.1838      9090.73    140.73413   -408.26808   -1095.7791   -5317.6763 
 7130000    51.506495   -6875.9729   -6743.4755   -6875.9729            0    8965.4021    22.944614    21.173471    21.344598    10369.571    9645.3606    8368.8882    8881.9576    465.08096    147.34585    16.515279   -5387.6417 
 7131000     52.31393    -6876.269   -6741.6946    -6876.269            0    9019.6803     23.07342    21.090741    21.295609      10363.2    9038.6558    8864.9583     9155.427    25.158293    35.218896   -213.02245   -5378.4904 
 7132000    53.517257   -6864.2882   -6726.6184   -6864.2882            0     8772.552    23.106883    21.024546    21.382549    10387.893     8124.242    8887.2784    9306.1357   -102.09385   -65.564062    377.63368   -5397.6051 
 7133000    53.415933   -6867.1147   -6729.7055   -6867.1147            0    8695.7701    23.058404    21.129302    21.285204    10370.321     8364.794    8977.9641    8744.5523   -32.089619   -201.23335    322.19873   -5414.5528 
 7134000    50.988485   -6872.1854   -6741.0207   -6872.1854            0    8685.5531    22.940134    21.213821    21.334967    10382.617    9007.4968    8671.8855    8377.2769    771.32536   -200.78541   -327.70973   -5425.8558 
 7135000    51.942175   -6875.7286   -6742.1105   -6875.7286            0     8781.104    23.024138    21.083178    21.380559    10378.594    8389.8876    9088.5716    8864.8528    235.14731    231.07834    534.34362   -5412.9925 
 7136000    55.931492   -6874.1187   -6730.2384   -6874.1187            0    8683.1878     23.16536    21.073725    21.274153    10385.625    7971.3878     9085.477    8992.6984    294.65871   -289.88352   -102.58309   -5415.0508 
 7137000    55.468281   -6877.0338    -6734.345   -6877.0338            0    9271.8756    22.998686    21.132396    21.324498    10364.076    9870.7698    8850.2944    9094.5627    571.24583   -731.02218   -308.27334   -5332.9064 
 7138000     52.56514    -6877.453   -6742.2324    -6877.453            0    8510.2803    23.002823    21.140878    21.357339    10386.071    8833.6001    8266.3702    8430.8706    896.71689   -510.17113    757.22089   -5453.1786 
 7139000    53.424703   -6873.6218     -6736.19   -6873.6218            0    9129.4915    23.061856    21.169496    21.256082    10377.387    9546.5827    8335.1223    9506.7695   -348.40237    -450.0167   -122.16577   -5354.5004 
 7140000    52.717537   -6873.3451   -6737.7325   -6873.3451            0    8515.2381    23.023202    21.092242    21.407746    10395.836    8849.0951    7951.4123    8745.2068    61.028529    78.798315    791.73336   -5446.7151 
 7141000    52.448026   -6872.7267   -6737.8074   -6872.7267            0     9165.929    23.013324    21.144191    21.308541    10368.696    9416.3569    9370.8917    8710.5384    32.645324     -256.888   -715.00819    -5351.765 
 7142000     55.52597   -6879.4866   -6736.6495   -6879.4866            0    8372.7487    23.032442    21.187711    21.289442    10389.349    8254.0495    8815.9635    8048.2331    203.19144   -381.23743   -764.77527   -5468.0274 
 7143000     51.57774   -6865.0075   -6732.3269   -6865.0075            0     9074.455    23.003241    21.103945    21.372432    10375.442    9065.7455    9402.7501    8754.8694   -307.49063   -247.10562    110.82099    -5359.224 
 7144000     53.46253   -6875.0258   -6737.4967   -6875.0258            0     8817.273    23.079001    21.140123     21.28218    10383.425    8664.0088     8857.156    8930.6543   -21.630785   -472.05401   -180.38543   -5402.2829 
 7145000    54.833626   -6866.0553   -6724.9992   -6866.0553            0    8881.6872    22.947738    21.127727    21.402166    10376.488    9334.4694    8602.4208    8708.1715    132.22568    598.67224    284.12809   -5380.9296 
 7146000    54.401475   -6876.2701   -6736.3256   -6876.2701            0     9004.261    23.013289    21.154534    21.316123    10377.443    9881.3417      8158.99    8972.4512   -188.87696   -214.55875   -317.68782   -5373.5814 
 7147000     53.02118   -6877.0333   -6740.6396   -6877.0333            0    8897.0005    23.076809    21.112355    21.293545    10374.338    8782.2997    8385.3692    9523.3326   -380.28477    337.19001    196.98154   -5394.5316 
 7148000    53.183505   -6874.7085   -6737.8972   -6874.7085            0    9035.1434    23.019275    21.098752    21.336527    10362.681     8782.542    9447.0936    8875.7946    237.39263     675.0776    195.27527   -5372.4244 
 7149000    56.010197   -6872.4537   -6728.3709   -6872.4537            0     9118.498     22.96247    21.128767    21.386816    10376.213    9251.8652    9741.2563    8362.3724    133.80766   -164.90469   -284.20915   -5348.5012 
 7150000     52.66191   -6872.4894   -6737.0199   -6872.4894            0     8674.085    23.090232    21.088492    21.311529    10377.397    8438.9874    8969.3481    8613.9195    570.00379   -642.39701    20.607405   -5424.2519 
 7151000    56.135904   -6871.3333   -6726.9271   -6871.3333            0     9402.767    23.063918    21.111295    21.269893    10356.507    9371.1998    8768.6264    10068.475   0.70154827   -92.383574    436.85546   -5306.7424 
 7152000    52.492294   -6878.2208   -6743.1875   -6878.2208            0    8398.9369     23.00547    21.169003    21.346324    10395.721    8424.6528    8431.3093    8340.8487    409.60308    147.96554   -467.75167   -5469.8169 
 7153000     55.91714   -6871.2661   -6727.4227   -6871.2661            0    8802.9648    22.980856    21.141489    21.356101    10375.852    9257.2749    8432.3736    8719.2459   -181.77707    548.58142   -52.981601   -5395.3479 
 7154000    52.729561   -6870.3312   -6734.6876   -6870.3312            0    8637.3335    23.088585    21.060186    21.365023     10388.74    8822.6638    8998.1426    8091.1942   -233.97363     525.3255   -447.86449   -5426.0528 
 7155000    51.798085   -6873.6243   -6740.3769   -6873.6243            0    8908.6575    23.076927    21.112971    21.295964    10375.873    8206.5111     9258.975    9260.4864    172.11737   -150.48155   -264.41787   -5392.3058 
 7156000    51.219692   -6873.4771   -6741.7175   -6873.4771            0    9634.8775     23.00964    21.073569    21.334112    10344.809    9463.8708    10143.919    9296.8429    450.09616    509.50428   -314.85198   -5288.1187 
 7157000    53.069753   -6876.5483   -6740.0296   -6876.5483            0    8788.7998    23.005351    21.126523    21.371756    10387.166    8453.3122    9188.4885    8724.5986    308.48657    211.99518   -464.56212    -5408.648 
 7158000    53.229966   -6873.0259   -6736.0951   -6873.0259            0     8819.908    23.102648    21.081608    21.288093    10368.173    8394.5395    9023.4063    9041.7781   -355.79836    790.48465   -619.10041   -5402.4441 
 7159000    54.654558   -6875.7822   -6735.1867   -6875.7822            0    8662.1796     23.00658    21.085727    21.409759    10386.098    9016.2697    8550.8427    8419.4265   -689.18212    670.95803   -271.46767   -5423.1212 
 7160000     54.01301   -6877.1977   -6738.2526   -6877.1977            0    8755.9162    23.068055    21.147843    21.280003    10381.228    8549.1927    8579.6805    9138.8753    648.77214    402.41238   -404.23875   -5412.6107 
 7161000    51.687137   -6873.5069   -6740.5449   -6873.5069            0    8551.8057    23.071876     21.04392    21.377302    10379.166    8587.7068    8186.7508    8880.9596    923.39925   -85.305955     210.4473   -5446.0624 
 7162000    53.617254   -6870.4436   -6732.5164   -6870.4436            0    9287.0321     22.96465    21.123415    21.360083    10361.602    10189.108    8518.2926    9153.6956    491.15889   -440.01959   -195.79979   -5329.1221 
 7163000    53.829356   -6874.7336   -6736.2608   -6874.7336            0    8618.9019    23.063493    21.176429    21.265429    10386.087    8703.3798    8104.4204    9048.9055    381.79817   -242.19067    58.682043   -5430.7521 
 7164000    53.458171   -6878.9725   -6741.4546   -6878.9725            0    8401.4196    23.048065    21.041213    21.421356    10388.485    8689.7867    8393.2136    8121.2585   -18.593738   -97.690671    188.26133   -5468.5942 
 7165000    50.966956   -6866.0984    -6734.989   -6866.0984            0    9043.3761    23.067748    21.110045    21.312911    10378.561    9239.0801    8763.7673    9127.2809   -548.97626    27.778057   -20.997438   -5366.1776 
 7166000    54.899566    -6868.752   -6727.5262    -6868.752            0    8903.0521    22.980087    21.158294    21.328452    10370.308     9440.253    8350.8033    8918.1001    386.67533   -18.730952    442.96565   -5381.0259 
 7167000    53.634549   -6873.3787   -6735.4071   -6873.3787            0    9022.1344    23.009435    21.121335    21.349071    10375.435    8997.4382    9117.9345    8951.0305   -112.51653    305.09296   -364.11186   -5370.2222 
 7168000     54.54357   -6869.6837   -6729.3737   -6869.6837            0     8724.258    23.123621    21.102091    21.282235    10384.811    7949.3355    9092.2497    9131.1889    186.44156    185.36179   -243.21633    -5408.069 
 7169000    57.814683   -6874.6965   -6725.9718   -6874.6965            0    8439.6643    23.009251    21.067155    21.451436    10398.357    8062.1831    9083.8087    8173.0011    103.30317    471.89241   -181.04146    -5446.102 
 7170000    53.725663     -6872.85    -6734.644     -6872.85            0    8822.3412    23.063569    21.165007    21.240734    10368.465    9052.5263    8422.0444    8992.4531   -202.72051    391.70911   -505.22181   -5400.5877 
 7171000    54.333834   -6873.9272   -6734.1567   -6873.9272            0    9010.9591    22.986731    21.129048    21.355984     10372.34    8831.7336    8951.6117     9249.532     344.7457    30.443407   -29.303352   -5371.0695 
 7172000    56.039125   -6879.7034   -6735.5461   -6879.7034            0    8995.9856    23.081077    21.050346    21.373766    10384.757    8804.1299    9642.1123    8541.7146   -448.75911    176.12059   -749.94804   -5373.0948 
 7173000    52.134814   -6871.8122   -6737.6986   -6871.8122            0    8793.0298    23.078146     21.09337    21.312662    10374.916    8232.0845    9173.1435    8973.8613    52.275423    563.81674    281.03301   -5407.2471 
 7174000     53.69798   -6876.9594   -6738.8246   -6876.9594            0    9130.1224    22.968577    21.205925    21.295475    10372.385    9409.4337    8860.0696     9120.864   -49.355528   -230.74073   -502.11216   -5357.7055 
 7175000    54.856717   -6871.4245   -6730.3089   -6871.4245            0    9233.6998    22.992188     21.12747    21.321017    10357.041    9606.4373     9161.061    8933.6009   0.46009332   -273.83138   -1023.3218   -5335.5879 
 7176000    53.185785   -6874.9516   -6738.1345   -6874.9516            0    8865.3106    23.069177     21.08306    21.316089    10367.481    8224.5061    9099.4843    9271.9414   -163.22923    158.46638    594.55834   -5397.7076 
 7177000    56.407767   -6870.6798   -6725.5742   -6870.6798            0    9042.8319    23.076106    21.106865    21.323389    10385.861    8154.5552    9524.8705    9449.0701   -124.74658   -463.38255   -930.05227   -5355.8825 
 7178000    55.621341   -6873.3721   -6730.2896   -6873.3721            0    8717.7714     23.01357    21.152421    21.311814    10374.436    8159.9573    8774.6935    9218.6635    400.49386    288.84153    389.73644   -5411.2863 
 7179000    52.364118   -6867.8692   -6733.1657   -6867.8692            0    9042.5829    22.947996    21.219799    21.307152    10375.557    9780.9729    8973.3861    8373.3896   -165.27398   -155.00079   -440.96257   -5364.8704 
 7180000    55.752513   -6876.2759    -6732.856   -6876.2759            0    8866.2534    23.052524    21.145554    21.293095    10379.498    8772.1837    8740.9398    9085.6369   -313.27159    146.70517    160.62363   -5390.7328 
 7181000    52.938823   -6871.6662   -6735.4843   -6871.6662            0    8848.4223    23.038548    21.102583    21.341756    10375.783    8906.7765    9416.7596    8221.7307    73.348061    332.40984   -28.742775   -5396.5397 
 7182000    52.712394   -6866.7042   -6731.1048   -6866.7042            0    8894.5804    22.923616     21.28907    21.286166    10388.127    9166.2869    8586.0854    8931.3688   -306.39203   -199.85827   -365.23203   -5383.5743 
 7183000    54.341175   -6879.6026   -6739.8132   -6879.6026            0    8781.2237    22.972043     21.18924    21.320353    10377.898    9274.9506    8675.4572    8393.2632   -551.13223   -9.1723127    224.50836   -5410.7663 
 7184000    53.197571   -6877.2597   -6740.4121   -6877.2597            0    8682.8614    23.048247     21.13426    21.324566    10387.359    8244.4341    8820.8643    8983.2858    103.76432   -250.59873    231.14884   -5425.0543 
 7185000    52.946529   -6867.4673   -6731.2656   -6867.4673            0    8716.1252    23.024453    21.147129    21.319713    10380.591     7968.719    9487.2675     8692.389   -5.3211747    238.67844   -51.688132    -5411.729 
 7186000    56.742747    -6872.692   -6726.7248    -6872.692            0    9042.9914    22.900818    21.196931    21.353206    10365.424    9942.6291    8969.4553    8216.8899   -411.47184   -305.51544   -193.62637   -5359.7041 
 7187000    51.765783   -6874.7817   -6741.6173   -6874.7817            0    9223.8546    23.000114    21.196757    21.257508    10363.626    9787.0378    8217.0096    9667.5163   -253.86721   -509.99777    284.87616   -5347.4976 
 7188000    54.637812   -6867.1118   -6726.5594   -6867.1118            0    8999.0965     23.06513    21.043395    21.367371    10371.052      9330.72     9081.131    8585.4384   -422.47521   -1033.6261     451.1001   -5365.4357 
 7189000     50.88183   -6876.5652   -6745.6748   -6876.5652            0    8522.9959    23.007624    21.206488     21.31698    10400.787    8587.7609    8709.3242    8271.9026   -363.49659   -343.70779    -517.2803   -5452.8658 
 7190000    58.668191   -6874.1452   -6723.2249   -6874.1452            0    8597.2923    22.928008    21.251324    21.322354    10389.328    8724.9741    8180.1825    8886.7203   -379.77811    111.98402    983.98151   -5420.5829 
 7191000    52.209411   -6864.3257   -6730.0202   -6864.3257            0    9223.1923    22.973716     21.20824    21.313102    10384.427    8948.7345    8400.1259    10320.716   -5.8363764   -153.23017    654.25308   -5333.2026 
 7192000    54.037087   -6870.6264   -6731.6193   -6870.6264            0    9223.5786    23.050156    21.105165    21.321638    10372.494    9217.5537    9221.3766    9231.8055   -431.61925  -0.33404491   -496.21759   -5336.3484 
 7193000    51.715301   -6873.1213   -6740.0868   -6873.1213            0    8386.4668      23.0269    21.115373    21.377713    10394.305    8188.3508    8981.6916    7989.3581   -23.546112    -245.7229    570.08861   -5468.7799 
 7194000    53.339419   -6869.4535   -6732.2411   -6869.4535            0    9017.7999    22.977549    21.217273    21.283214    10376.012    9435.8416    8713.1553    8904.4028   -312.55322   -410.78625   -410.09726   -5367.6361 
 7195000    56.239994   -6873.2477   -6728.5737   -6873.2477            0    9207.5173    22.955138    21.160442    21.332469    10362.052    9931.6408     8556.147    9134.7642    -454.9183    539.09804    514.88559   -5337.1346 
 7196000    54.833506   -6880.9061   -6739.8502   -6880.9061            0    8079.3112    23.156418    21.108813    21.284127    10403.777    7585.1824    8007.2681     8645.483    280.19745   -1036.1307    38.271778   -5513.9891 
 7197000    53.740648   -6871.2229   -6732.9783   -6871.2229            0     9140.393    22.983731    21.162907    21.329299    10374.626    9704.5226    9168.8917    8547.7647    111.10465   -452.91988    151.68197   -5350.0069 
 7198000     54.72638   -6871.6781   -6730.8979   -6871.6781            0    8685.1072    22.873767    21.250659    21.365915      10385.6    10005.266     7749.643     8300.413   -288.20936    290.83395    337.20025   -5415.4227 
 7199000     56.45862   -6872.3601   -6727.1238   -6872.3601            0    9159.6325    23.083478    21.149401    21.213627     10356.53    9340.9152    8797.6331    9340.3493    104.39993   -394.87111   -122.88304   -5343.6587 
 7200000    52.865695   -6874.4692   -6738.4754   -6874.4692            0    9023.2582    23.019253    21.076658    21.383091    10374.411    8977.7851    9716.4308    8375.5585   -154.25317   -42.940829    195.65289   -5373.2551 
 7201000    55.421003    -6876.541   -6733.9739    -6876.541            0    8563.2178     22.95157    21.281306    21.276334    10392.199    8800.2654    8293.0618    8596.3263    493.23374    105.31312   -203.43284   -5436.1363 
 7202000     54.36478   -6875.7363   -6735.8862   -6875.7363            0    8781.5301    23.000748    21.223931    21.260575    10378.696    8983.6478    8524.5296     8836.413   -177.46278   -169.23672    147.91379   -5406.6907 
 7203000    52.167301   -6883.8416   -6749.6444   -6883.8416            0    8233.2124    23.014034    21.078872    21.440709    10401.099    8231.0399    8526.2878    7942.3095    193.62638   -346.55507    226.55041   -5500.7537 
 7204000    53.370764   -6871.5677   -6734.2747   -6871.5677            0    9377.3763     23.10588     21.06226     21.27883    10355.599    8819.5735    9892.5988    9419.9566   -171.56884   -280.87269   -752.31312    -5318.049 
 7205000    53.586227   -6874.8537   -6737.0064   -6874.8537            0    8911.6862    22.975611    21.163764    21.308492    10361.263    9589.6579    8031.4216    9113.9791    203.94744   -2.0982998   -152.64302   -5390.3758 
 7206000    52.249748    -6878.591   -6744.1817    -6878.591            0    8362.2419    22.934741    21.221293    21.364386    10398.151    8974.6605     7705.859    8406.2062    73.199453   -170.38696   -358.17458   -5476.0781 
 7207000    52.781214   -6875.3811   -6739.6046   -6875.3811            0    9040.3829    23.102056    21.079627     21.28454    10365.203    8200.4332    9838.0024    9082.7132    7.0657184   -203.55813   -194.02342   -5373.0074 
 7208000    53.494445   -6872.5215   -6734.9103   -6872.5215            0    8799.0386    23.081019     21.07413    21.349808    10384.811    8564.9842    9087.0659    8745.0658    305.85083   -96.337768   -62.748388     -5402.28 
 7209000    52.485836   -6865.4873   -6730.4707   -6865.4873            0    8987.2842    22.986399    21.241831    21.271911    10386.504    9132.8317    8689.5471    9139.4738    70.373294   -17.709371   -14.098348   -5369.1083 
 7210000     53.46685   -6872.6971   -6735.1569   -6872.6971            0    8786.3279    22.984657    21.141626    21.352918    10376.088     8374.125    9137.5298    8847.3289    252.53258    421.19117    286.92447   -5405.5694 
 7211000    54.619807    -6872.228   -6731.7219    -6872.228            0    8988.6094    23.089081    21.077278    21.344589    10387.451    8748.3693      9189.34    9028.1189   -94.975523   -297.64951   -172.36764   -5370.0346 
 7212000    50.741722   -6869.1486   -6738.6186   -6869.1486            0    8470.5225    23.099958    21.094339    21.321278    10389.397    8276.8944     8512.511     8622.162   -156.19668    166.58158    64.846392    -5455.176 
 7213000    54.032502   -6875.6884   -6736.6931   -6875.6884            0    8982.5318    22.935541    21.232525    21.296657    10371.034    9814.2871    8258.1559    8875.1525    -87.29187    -86.61522    294.26604   -5378.0771 
 7214000    53.827929   -6872.6189   -6734.1498   -6872.6189            0    9149.3602    22.977989    21.169964    21.327749    10374.738    9331.8806    8698.5058    9417.6941   -144.37741    49.151392    27.474876   -5349.8066 
 7215000    53.256666   -6882.1027   -6745.1032   -6882.1027            0    8358.1071    23.111731    21.065899    21.341373    10390.461     8009.169    8722.8019    8342.3505    -126.1085    66.253968   -49.111401    -5478.564 
 7216000    51.243278   -6866.6149   -6734.7947   -6866.6149            0    9465.9204    23.072967     21.11556    21.283303    10369.196    9083.1214    9387.2909    9927.3489   -473.53388    15.998935   -487.65074   -5303.3196 
 7217000    52.232714   -6870.9525    -6736.587   -6870.9525            0     8474.223    22.967088    21.226653    21.318997    10393.318    8955.0394    7832.5412    8635.0882    44.551456    248.99163    148.72146   -5452.0992 
 7218000    56.034033    -6872.393   -6728.2489    -6872.393            0    9282.0705    22.980374    21.131001    21.322469    10354.155    10235.591    9087.8718    8522.7491    11.484437   -24.340781   -241.07494   -5326.6123 
 7219000    55.143759    -6878.969    -6737.115    -6878.969            0    8679.3555    23.125421    21.042632    21.332173    10380.656     7952.446    9000.8822    9084.7383   -170.73437   -264.74794   -475.40682   -5423.1368 
 7220000    50.144811   -6871.2456   -6742.2512   -6871.2456            0     9005.297    23.063667    21.104412    21.297304    10366.359    8932.5151    8671.6651    9411.7107    340.39028    188.93146    362.18578   -5380.8059 
 7221000    52.808445    -6874.612   -6738.7655    -6874.612            0    8554.0781    22.891786    21.237958    21.364652    10386.955    8607.5601    8546.5356    8508.1387    491.54444    390.08301    257.42719   -5442.9673 
 7222000    55.205744   -6882.2107   -6740.1973   -6882.2107            0    8513.4366    23.008299    21.164667    21.350181    10396.748    8009.3267    8652.1107    8878.8724    504.87505    116.63933     219.4125   -5449.3397 
 7223000     53.57804   -6877.0178   -6739.1916   -6877.0178            0    8808.5572    23.079184    21.074243    21.329406    10374.119    8656.1887    8817.9286    8951.5544   -284.77925   -111.55568    19.313657   -5406.4932 
 7224000    54.131029   -6870.0274   -6730.7786   -6870.0274            0    8723.0684    23.028661    21.162101    21.315574    10387.822    8884.2773    8519.6186    8765.3094   -389.90491    420.32734   -161.82084   -5409.2711 
 7225000    53.357112   -6874.5635   -6737.3055   -6874.5635            0    8915.9473    22.931416      21.2721    21.263717    10372.427    9076.1972    8303.8256    9367.8192   -87.066552    661.57883    555.63594   -5388.5794 
 7226000    53.578291   -6874.0985   -6736.2716   -6874.0985            0    8819.9123     23.02508    21.140594    21.314252    10375.008    9171.0238    8300.2321    8988.4809   -694.67385   -254.32729    101.46439   -5401.7408 
 7227000    57.072919   -6867.7828   -6720.9662   -6867.7828            0    9604.6018     23.07151    21.079403    21.320816     10369.03    9527.2476    10229.048      9057.51   -955.32203   -548.77381   -314.03993   -5268.5423 
 7228000    56.125633   -6870.9151   -6726.5353   -6870.9151            0    8398.7285    22.948123    21.219158    21.324262    10383.633    8744.4421    8285.7236    8166.0198   -232.20027   -162.58132   -210.90485   -5454.6769 
 7229000    53.085747   -6867.0653   -6730.5054   -6867.0653            0    8767.8636    22.931675    21.215656    21.326756    10375.692    9179.9047    8538.2759    8585.4102    -449.1168   -17.714696   -650.30967   -5403.7626 
 7230000      54.1499   -6866.9037   -6727.6063   -6866.9037            0    8838.7092    23.093677    21.101451    21.297415    10378.445    8184.3191    9223.8387    9107.9697   -669.49835   -170.52842    26.174764   -5389.7884 
 7231000    54.667638   -6867.8262    -6727.197   -6867.8262            0    8557.4712    23.078723    21.108765     21.30909    10381.008    8961.3158    8568.4536    8142.6441   -842.49106     -161.749     484.8966   -5431.6271 
 7232000     56.00385   -6872.5581   -6728.4916   -6872.5581            0    9669.5587    22.857887    21.223659    21.347761    10356.397    10202.427    8987.8616    9818.3878   -281.57568   -160.08037   -229.83599   -5268.0264 
 7233000    51.537913   -6873.0349   -6740.4568   -6873.0349            0    8461.9642    23.001601    21.209571    21.289946    10386.387    8324.2655    8536.2016    8525.4254   -540.66327     175.4273   -499.78015   -5458.6824 
 7234000    51.428284   -6867.4587   -6735.1625   -6867.4587            0    8722.4881    23.125237    21.066706    21.324882    10388.897    8746.8237     8825.692    8594.9486   -224.66582   -366.81082   -296.75137   -5413.6061 
 7235000    51.828809   -6870.7376   -6737.4111   -6870.7376            0    9091.6523    23.028541    21.069252    21.395492    10380.967    9517.0483    9286.1251    8471.7836    182.55809   -655.15591   -569.21698   -5360.9735 
 7236000    52.817733   -6872.2339   -6736.3635   -6872.2339            0    8747.0291    23.012039    21.218664    21.257995    10379.954    8005.4352    8791.4665    9444.1855    290.77763    953.26198    228.91026   -5412.2296 
 7237000    52.592467   -6875.9844   -6740.6935   -6875.9844            0    8808.7305    22.984515    21.151668     21.36541    10387.025    8787.3841    9063.9436    8574.8636   -325.74852     161.1842   -444.22483   -5406.3108 
 7238000    53.719436   -6865.6516   -6727.4616   -6865.6516            0    9130.6881    23.121974    21.021107    21.347412    10375.899    8424.1241    9035.7647    9932.1756    263.17948     281.0784    377.10592   -5345.7891 
 7239000    52.239018   -6871.1329   -6736.7512   -6871.1329            0    8708.4902    23.064668    21.136276    21.293502    10380.608    8748.5174    8808.5343     8568.419    93.030107    94.248297    18.494078   -5418.3684 
 7240000    54.696879   -6873.1986   -6732.4943   -6873.1986            0    8975.6006    22.860352    21.307459    21.327286    10388.436    9594.6031     8647.525    8684.6737     967.0228   -332.79708   -1182.5618   -5372.6487 
 7241000    53.236821   -6875.5641   -6738.6156   -6875.5641            0    8677.6216    23.068444    21.102805    21.329183    10383.236    8654.7073    8704.9841    8673.1733    413.67636    344.85948    209.36728   -5424.5734 
 7242000    51.906785   -6872.3381   -6738.8111   -6872.3381            0    8754.9627    23.134211    21.058133    21.315509    10384.134    8703.4829     8422.298    9139.1073   -122.14011   -209.72894    48.825528   -5412.9426 
 7243000     54.10018   -6869.5026   -6730.3332   -6869.5026            0    9367.8006    22.968024    21.147372    21.334127     10362.27    9767.7457      8754.53    9581.1259   -173.13695   -30.249421    191.90677   -5314.6423 
 7244000    53.819869   -6873.0966   -6734.6482   -6873.0966            0    8558.3781    22.984155    21.237755    21.265289    10380.265    9203.8693    7906.6961    8564.5691   -166.30126   -14.058821   -208.54894   -5439.0338 
 7245000    58.001108   -6874.1305   -6724.9262   -6874.1305            0    9236.7393    23.016314    21.095543    21.369407    10375.737     9968.094    8742.4563    8999.6675   -182.90307   -173.86582   -243.00352   -5327.2276 
 7246000    53.292959   -6874.6584   -6737.5655   -6874.6584            0    8541.7868    23.125628    21.006695    21.359145    10376.123    8183.4048    8894.2291    8547.7265   -245.03839    119.28041    455.68045   -5444.9786 
 7247000    51.950202   -6867.5349   -6733.8962   -6867.5349            0    8999.7507    22.981241    21.192756    21.299728    10373.731    9042.3015    8748.4971    9208.4534   -73.050728    165.03887   -267.66108   -5372.3219 
 7248000      54.8269   -6875.2863   -6734.2474   -6875.2863            0    8585.3926     22.96253    21.249872     21.28715    10387.082    8541.2973    7939.2177    9275.6628    275.41518    220.26606    178.10162   -5433.6897 
 7249000    54.478713   -6876.9417   -6736.7986   -6876.9417            0    9081.8763    23.061791     21.05115    21.360123    10369.853    8997.2241    9093.3905    9155.0142   -438.84544    35.903336    612.50468    -5363.313 
 7250000    55.115467   -6865.4902    -6723.709   -6865.4902            0    8901.8564    23.020809    21.097091    21.380751    10384.035    8749.8908    9164.5443     8791.134   -242.86784   -318.54156    109.61834   -5375.6075 
Loop time of 637.419 on 64 procs for 250000 steps with 1296 atoms

Performance: 67.773 ns/day, 0.354 hours/ns, 392.206 timesteps/s
192.1% CPU use with 32 MPI tasks x 2 OpenMP threads

MPI task timing breakdown:
Section |  min time  |  avg time  |  max time  |%varavg| %total
---------------------------------------------------------------
Pair    | 38.083     | 49.145     | 61.092     |  89.8 |  7.71
Bond    | 0.80564    | 1.0648     | 1.3359     |  12.0 |  0.17
Kspace  | 323.15     | 336.13     | 353.26     |  36.2 | 52.73
Neigh   | 0.3846     | 0.40735    | 0.42589    |   1.6 |  0.06
Comm    | 92.434     | 98.593     | 104.65     |  29.3 | 15.47
Output  | 1.1092     | 1.1095     | 1.1112     |   0.0 |  0.17
Modify  | 117.17     | 121.54     | 124.18     |  15.0 | 19.07
Other   |            | 29.43      |            |       |  4.62

Nlocal:        40.5000 ave          51 max          29 min
Histogram: 1 2 2 2 8 7 3 3 0 4
Nghost:        3196.78 ave        3227 max        3176 min
Histogram: 4 5 7 3 4 1 0 3 3 2
Neighs:        13456.8 ave       16997 max        9658 min
Histogram: 1 2 2 4 8 5 3 3 2 2

Total # of neighbors = 430617
Ave neighs/atom = 332.26620
Ave special neighs/atom = 2.0000000
Neighbor list builds = 721
Dangerous builds = 0

unfix		3
unfix		2
unfix		1

write_data	data.final.${pid}
write_data	data.final.0
System init for write_data ...
PPPM initialization ...
  extracting TIP4P info from pair style
  using 12-bit tables for long-range coulomb (../kspace.cpp:340)
  G vector (1/distance) = 0.37167157
  grid = 30 36 32
  stencil order = 5
  estimated absolute RMS force accuracy = 0.0036639684
  estimated relative force accuracy = 1.1033932e-05
  using double precision FFTW3
  3d grid and FFT values/proc = 7344 1080
Last active /omp style is kspace_style pppm/tip4p/omp
WARNING: Not all mixed pair coeffs generated from mixing. Use write_data with 'pair ij' option to store all pair coeffs. (../write_data.cpp:312)

write_restart   restart.lmp.${pid}
write_restart   restart.lmp.0
System init for write_restart ...
PPPM initialization ...
  extracting TIP4P info from pair style
  using 12-bit tables for long-range coulomb (../kspace.cpp:340)
  G vector (1/distance) = 0.37167157
  grid = 30 36 32
  stencil order = 5
  estimated absolute RMS force accuracy = 0.0036639684
  estimated relative force accuracy = 1.1033932e-05
  using double precision FFTW3
  3d grid and FFT values/proc = 7344 1080
Last active /omp style is kspace_style pppm/tip4p/omp
Total wall time: 0:10:37
