#include		in.partitions
include		in.temp
variable        temperature equal 249.50
variable	tempDamp equal 100.0
include		in.pressure
variable        pressure equal 1622.3
variable        pressureDamp equal 1000.0 # This is 1 ps
include		in.seed
variable        seed equal 745823

units		real
atom_style	full
#include		in.box
read_restart	restart.lmp.${pid}
read_restart	restart.lmp.0
Reading restart file ...
  restart file = 30 Jul 2021, LAMMPS = 30 Jul 2021
  restoring atom style full from restart
  orthogonal box = (0.077109988 0.050624240 0.10026765) to (18.130462 23.578554 22.112928)
  2 by 4 by 4 MPI processor grid
  restoring pair style lj/cut/tip4p/long/omp from restart
  restoring bond style harmonic/omp from restart
  restoring angle style harmonic/omp from restart
  864 atoms
  576 bonds
  288 angles
Finding 1-2 1-3 1-4 neighbors ...
  special bond factors lj:    0        0        0       
  special bond factors coul:  0        0        0       
     2 = max # of 1-2 neighbors
     1 = max # of 1-3 neighbors
     1 = max # of 1-4 neighbors
     2 = max # of special neighbors
  special bonds CPU = 0.003 seconds
  read_restart CPU = 0.007 seconds
include 	in.setup
variable	out_freq equal 1000
variable	out_freq2 equal 10000
variable	out_freq3 equal 1000

timestep	2.0

neigh_modify    delay 7 every 1

include		in.tip4p
# This is TIP4P/Ice

# create groups ###
group ox type 2
288 atoms in group ox
group hy type 1
576 atoms in group hy

# set charges - beside manually ###
set group ox charge -1.1794
Setting atom values ...
  288 settings made for charge
set group hy charge 0.5897
Setting atom values ...
  576 settings made for charge

# ### TIP3P Potential Parameters ###
pair_style lj/cut/tip4p/long/omp 2 1 1 1 0.1577 8.5
pair_coeff 1 1*2 0.000 0.000
pair_coeff 2 2 0.21084 3.1668
bond_style  harmonic
bond_coeff  1 450 0.9572
angle_style harmonic
angle_coeff 1 55 104.52
kspace_style pppm/tip4p/omp 1.0e-5
pair_modify tail yes

thermo          ${out_freq}
thermo          1000
thermo_style    custom step temp pe etotal epair emol press lx ly lz vol pxx pyy pzz pxy pxz pyz enthalpy

restart 	${out_freq3} restart.lmp.${pid} restart2.lmp.${pid}
restart 	1000 restart.lmp.${pid} restart2.lmp.${pid}
restart 	1000 restart.lmp.0 restart2.lmp.${pid}
restart 	1000 restart.lmp.0 restart2.lmp.0


include         in.dump
dump            myDump all atom ${out_freq2} dump.water.${pid}
dump            myDump all atom 10000 dump.water.${pid}
dump            myDump all atom 10000 dump.water.0
dump            myDump2 all dcd ${out_freq2} dump.dcd
dump            myDump2 all dcd 10000 dump.dcd
dump_modify     myDump append yes
dump_modify     myDump2 append yes


variable natoms 	equal  "count(all)"                        # NUMBER ATOMS
variable H      	equal  "enthalpy/v_natoms"                 # ENTHALPY-per-atom
variable Vol      	equal  "vol/v_natoms"                 # volume-per-atom
fix AVG all 		ave/time ${out_freq} 1 ${out_freq} v_Vol v_H file vol_enthalpy.dat
fix AVG all 		ave/time 1000 1 ${out_freq} v_Vol v_H file vol_enthalpy.dat
fix AVG all 		ave/time 1000 1 1000 v_Vol v_H file vol_enthalpy.dat


timer           timeout 23:50:00 every 1000
New timer settings: style=normal  mode=nosync  timeout=23:50:00

fix 		1 all shake 1e-6 200 0 b 1 a 1
       0 = # of size 2 clusters
       0 = # of size 3 clusters
       0 = # of size 4 clusters
     288 = # of frozen angles
  find clusters CPU = 0.001 seconds
fix             2 all nph aniso ${pressure} ${pressure} ${pressureDamp}
fix             2 all nph aniso 1622.3 ${pressure} ${pressureDamp}
fix             2 all nph aniso 1622.3 1622.3 ${pressureDamp}
fix             2 all nph aniso 1622.3 1622.3 1000
fix             3 all temp/csvr ${temperature} ${temperature} ${tempDamp} ${seed}
fix             3 all temp/csvr 249.5 ${temperature} ${tempDamp} ${seed}
fix             3 all temp/csvr 249.5 249.5 ${tempDamp} ${seed}
fix             3 all temp/csvr 249.5 249.5 100 ${seed}
fix             3 all temp/csvr 249.5 249.5 100 745823


run             250000
PPPM initialization ...
  extracting TIP4P info from pair style
  using 12-bit tables for long-range coulomb (../kspace.cpp:340)
  G vector (1/distance) = 0.37150386
  grid = 24 27 25
  stencil order = 5
  estimated absolute RMS force accuracy = 0.003179783
  estimated relative force accuracy = 9.575822e-06
  using double precision FFTW3
  3d grid and FFT values/proc = 4410 672
Last active /omp style is kspace_style pppm/tip4p/omp
Neighbor list info ...
  update every 1 steps, delay 7 steps, check yes
  max neighbors/atom: 2000, page size: 100000
  master list distance cutoff = 10.8154
  ghost atom cutoff = 10.8154
  binsize = 5.4077, bins = 4 5 5
  1 neighbor lists, perpetual/occasional/extra = 1 0 0
  (1) pair lj/cut/tip4p/long/omp, perpetual
      attributes: half, newton on, omp
      pair build: half/bin/newton/omp
      stencil: half/bin/3d
      bin: standard
Per MPI rank memory allocation (min/avg/max) = 10.19 | 10.20 | 10.23 Mbytes
Step Temp PotEng TotEng E_pair E_mol Press Lx Ly Lz Volume Pxx Pyy Pzz Pxy Pxz Pyz Enthalpy 
 4250000    255.15505   -4232.4027   -3795.0757   -4232.4027            0    1430.1442    18.053352    23.527929    22.012661    9350.0536    1680.4108    658.42514    1951.5968   -305.37453   -1133.2992   -302.46042   -3600.0599 
 4251000    242.99016   -4240.0182   -3823.5414   -4240.0182            0    3582.7396    17.961949    23.579573     21.85133     9254.805    4479.7277    1928.6541    4339.8369   -960.97793    232.87535    77.890661   -3339.9724 
 4252000     252.9179   -4255.6977    -3822.205   -4255.6977            0    1581.6684    18.133179    23.248152    22.228744    9370.8139    560.73965    3491.8552    692.41035   -1109.2646   -315.33626   -360.68201   -3606.0484 
 4253000    248.57955   -4255.4852   -3829.4284   -4255.4852            0    1828.7178    18.157268    23.185908    22.079193      9295.18    1863.0129    2378.3347    1244.8056    858.00601    306.45278    940.45026   -3581.5262 
 4254000    235.25106   -4273.1203   -3869.9081   -4273.1203            0    1369.4926    18.109032    23.449944    22.061491    9368.5397     1869.847    662.51775    1576.1129    537.09868   -374.55473   -536.79926   -3682.7936 
 4255000    258.83286   -4262.6615   -3819.0308   -4262.6615            0    2286.7157    18.013827    23.515684    21.839084    9251.1985    1070.4522    3855.9606    1933.7344   -1183.4588   -761.12536    189.70817   -3510.5089 
 4256000    250.97469    -4237.848   -3807.6859    -4237.848            0    1656.6294    18.002971      23.5982    22.000263    9346.5417     2154.652     3203.043   -387.80664    309.52612    115.58983    192.64669   -3581.8712 
 4257000    249.40917   -4255.3678    -3827.889   -4255.3678            0   -67.820265    17.928556    23.527423    22.260924    9389.9409    1305.7959     -936.307   -572.94967    283.74221    129.93311   -753.75855   -3837.1765 
 4258000    254.76681   -4251.6489   -3814.9873   -4251.6489            0    2070.4417    18.174879    23.237931    22.156704    9357.8079    1972.2513    2882.3211    1356.7528    971.92508     1426.391   -332.32406   -3532.4258 
 4259000    277.59806   -4271.5936   -3795.8001   -4271.5936            0    2007.6832    18.148261    23.331275    21.991225    9311.5698    1844.4527    2195.9718    1982.6252     -844.403    637.20452    161.90968   -3523.1573 
 4260000    258.82457   -4263.6803   -3820.0639   -4263.6803            0     512.1233    17.948657    23.704656    22.226572    9456.6672   -195.66514    298.66247    1433.3726    906.05055    435.44169    204.62855    -3749.434 
 4261000    244.74535    -4249.237   -3829.7518    -4249.237            0    1268.4812    17.906449    23.829013    21.986228    9381.3699    1240.6752   -115.69157    2680.4601   -333.93463    201.20545    729.53656   -3656.2012 
 4262000    270.27514   -4248.7225   -3785.4801   -4248.7225            0    498.55704    18.140871    23.637174     21.99088     9429.666     553.6245    100.77106    841.27557    641.43096    1207.8602    321.20329   -3716.9176 
 4263000    250.77032   -4227.6243   -3797.8125   -4227.6243            0     1847.683    18.042861    23.320883    22.202483    9342.2595    2336.7286    1188.7127    2017.6076    1131.1753    782.40356     1097.598   -3546.0707 
 4264000    246.96105   -4268.3206   -3845.0378   -4268.3206            0    3687.1529    17.913789    23.492535    21.994415    9256.1369    3288.6727    3312.5354    4460.2506   -194.66791   -552.90436   -637.26046   -3347.3044 
 4265000    251.67852   -4259.3368   -3827.9684   -4259.3368            0    953.81812    18.017451    23.642864    22.031705    9385.1574    2364.1983    3.8935385    493.36247   -67.515052   -610.68177    1717.9767   -3697.4166 
 4266000     245.7405   -4241.6841   -3820.4933   -4241.6841            0     2766.876    17.882639     23.35021    22.107578    9231.3148    2495.2644    2663.5671    3141.7966   -817.82373    1489.8274    455.62957   -3447.9909 
 4267000    261.59312   -4275.5153   -3827.1537   -4275.5153            0    536.02096    18.252274    23.463693    21.970536    9409.2282    844.95881    175.68056    587.42353    629.87569    444.60934   -593.67758   -3753.5988 
 4268000    239.74554   -4268.9201   -3858.0045   -4268.9201            0    2290.2212    18.151896    23.160633    22.190357    9329.0348    3875.9605    2749.0151    245.68799    47.477742   -689.33836   -409.35276   -3546.4098 
 4269000    253.60219   -4259.2181   -3824.5526   -4259.2181            0    3040.7187    18.070708     23.26731    22.030166    9262.7323    2573.7118    3144.4416    3404.0026    166.08284   -535.27311   -632.44059   -3413.7897 
 4270000    247.71908   -4274.7072   -3850.1252   -4274.7072            0    1587.4927    18.048566    23.555863    22.017332    9360.6589    1565.8354    1713.7132    1482.9296    586.10051    33.566162    204.61374   -3633.4076 
 4271000    246.49765   -4274.1143   -3851.6257   -4274.1143            0    2012.1832    17.821601    23.637378    22.121412    9318.7753    3116.9321    1664.8183    1254.7991   -860.21058   -287.01864     317.6444   -3578.1604 
 4272000    259.50531    -4254.596   -3809.8128    -4254.596            0    829.79819    18.142363    23.506279    22.066602     9410.511    907.32119    1566.3211    15.752323    764.64345   -56.511906    188.84427   -3695.9291 
 4273000    232.33744   -4242.0934   -3843.8749   -4242.0934            0    705.10955    18.361693    23.269749    22.023214     9409.902    52.494327     836.9129    1225.9214    455.36257   -444.54628    438.13676   -3747.1101 
 4274000    266.56203   -4229.4131   -3772.5349   -4229.4131            0    1851.7113    18.082833    23.322865    22.169212    9349.7208     1181.715    2607.2365    1766.1824    375.49292   -8.5476197     82.96804   -3520.0428 
 4275000    263.83121   -4267.9447    -3815.747   -4267.9447            0    1665.4908     17.97083    23.838782    21.785203    9332.8396    1031.4023    823.74192     3141.328   -794.69641     -924.669    70.528294   -3589.0573 
 4276000    259.73689   -4245.0846   -3799.9045   -4245.0846            0    1848.3631    17.886312    23.643518    22.037876    9319.7152    2259.5079    2362.2495    923.33195    -1107.156   -200.27606   -832.44367   -3548.6778 
 4277000    265.49692   -4262.8563   -3807.8036   -4262.8563            0    1013.3676    18.052254    23.460382    22.090671    9355.6811    1109.2019    1210.2183     720.6827    274.10582    1125.4204   -1042.5291   -3669.5367 
 4278000    249.45642   -4273.2256   -3845.6658   -4273.2256            0    1916.9298    18.228987    23.393776    21.866684    9324.9343    870.54519    996.69568    3883.5485    245.37421   -433.76338     -37.4505   -3584.9737 
 4279000    239.14519   -4272.1476    -3862.261   -4272.1476            0     1898.166    18.256541    23.056432    22.277166    9377.1434     1017.102      2406.91     2270.486   -245.94076   -133.40323   -710.68708   -3602.6753 
 4280000    253.86499   -4245.6076   -3810.4917   -4245.6076            0    691.60123    18.024216    23.630636    22.141383    9430.5394    2342.8803    843.97939    -1112.056    13.926686   -287.03016    371.85251   -3715.3725 
 4281000     246.7033   -4217.8271   -3794.9861   -4217.8271            0    1201.8098    17.836099    23.836651    22.032423    9367.1473    954.78582     1052.132    1598.5115    181.06089    711.89503   -781.62384   -3630.8066 
 4282000    244.60597   -4228.5483    -3809.302   -4228.5483            0    2358.3277    18.063019    23.487076    22.090964    9372.0363    1992.4941     2196.606     2885.883    149.72838    1275.0916    905.33055   -3486.9622 
 4283000    259.49437   -4258.1175    -3813.353   -4258.1175            0    2129.5515    18.432184    23.148929    21.850733    9323.3869    1343.9237    2098.1865    2946.5442    -512.7541   -610.77821     244.5077   -3523.7936 
 4284000    227.28128    -4239.916   -3850.3636    -4239.916            0    2480.2904     18.04537    23.338822    22.138664    9323.8682    2094.8744    2341.6276    3004.3692   -418.52092   -120.70157   -303.32721   -3513.0961 
 4285000    243.59319   -4280.9195   -3863.4091   -4280.9195            0    2142.9916    17.759831    23.914844    21.970847    9331.5375    1558.3996    3334.3763    1536.1988    315.88321   -264.79811   -553.15959   -3571.7675 
 4286000    251.85902   -4287.3954   -3855.7177   -4287.3954            0    712.51776    18.004445    23.593498    22.147924    9408.1687    996.44975   -467.06459    1608.1681    129.35572   -39.429126    6.6671693   -3757.9542 
 4287000    253.18325   -4251.8239   -3817.8764   -4251.8239            0    4305.3477    17.982223    23.227685    21.998909    9188.6236    3644.2267    5285.1173    3986.6992    183.51581    370.75544    67.605286   -3240.9312 
 4288000     255.0399   -4257.2736   -3820.1439   -4257.2736            0     2973.183    18.197226    23.274891    21.743573    9209.2393    3478.9432    3422.6929    2017.9128   -1658.8598    -316.4742    363.77478   -3420.8237 
 4289000    250.77321   -4252.5066   -3822.6899   -4252.5066            0     751.5627    18.102677    23.337155    22.199279    9378.4177    9.9265293    991.19954     1253.562    297.77471   -365.54802    655.52755   -3719.8952 
 4290000    245.93678   -4263.5231   -3841.9959   -4263.5231            0    948.26277    18.070624    23.499725    22.055186    9365.8382    2546.5775   -271.25349    569.46436    900.88378    418.79881    27.366382   -3712.4716 
 4291000    245.62291   -4258.1036   -3837.1144   -4258.1036            0    2622.7571    18.043448    23.572949     21.99432    9355.0044    2672.3263    3442.0648    1753.8802    215.90811   -288.62206    380.44431   -3479.2834 
 4292000    259.83638   -4284.9845   -3839.6338   -4284.9845            0    1633.1359    18.010387    23.301274    22.263121    9343.0518    2543.1797    966.28622    1389.9419    -158.8388    -240.8217    567.70733   -3617.1046 
 4293000    243.58721   -4237.5605   -3820.0604   -4237.5605            0    1511.8909    18.238259    23.622173    21.838398    9408.5784    1552.6648    396.28783    2586.7201   -393.05379   -225.33842    237.42023   -3612.6071 
 4294000    266.56954   -4273.7396   -3816.8486   -4273.7396            0     1941.117    17.990013    23.372926    22.158642     9317.249    1709.9944    2277.5357     1835.821   -675.61434    523.18816    673.10612   -3553.0847 
 4295000    243.43009    -4290.386   -3873.1552    -4290.386            0   -329.60201     18.16689    23.507037    22.025868    9406.1416    -950.8276   -265.29591    227.31749    670.08231   -283.51647    578.70606   -3918.3696 
 4296000    259.20126   -4257.1747   -3812.9126   -4257.1747            0    1452.7377    18.075632    23.489187     22.02654    9352.0702   -459.32694    2105.7843    2711.7558   -15.527863   -527.61328   -156.05261   -3614.7732 
 4297000    236.07163   -4241.4615   -3836.8428   -4241.4615            0    1671.6769    17.829845    23.359314    22.312307    9292.9184    4539.8211   -627.92626    1103.1357    1058.8161   -260.57959   -101.88816   -3610.2843 
 4298000     259.1484   -4261.0122   -3816.8407   -4261.0122            0    825.52579    18.084493    23.464902     22.00373    9337.3015    651.19017    490.42219     1334.965    41.635043    475.65657   -63.478498   -3704.4248 
 4299000    253.96329   -4236.0951   -3800.8107   -4236.0951            0      2021.22    18.126055    23.387746    21.869786    9271.2054     1240.005    2479.9338    2343.7212   -154.01015   -662.44269    111.44158   -3527.5195 
 4300000    240.94041   -4243.2838   -3830.3202   -4243.2838            0    757.90288    18.180853    23.343616    22.190792    9417.9242    1038.8856    163.61587    1071.2072    294.37593   -152.95338    -234.9331   -3726.2217 
 4301000    254.22858    -4228.917    -3793.178    -4228.917            0    1066.2577    18.450763     23.10733    21.962751    9363.7724   -145.89723    2049.2867    1295.3836    663.57822   -276.05746    75.128747   -3647.5687 
 4302000    248.19993   -4250.6798   -3825.2736   -4250.6798            0    2713.4266    18.009573    23.169471    22.103884    9223.3383    1881.7852    3021.6642    3236.8304   -731.35631   -751.11749    52.983517   -3460.2826 
 4303000    253.24643   -4276.6144   -3842.5587   -4276.6144            0    2528.7577    17.988245    23.549661    21.861776    9261.0215    3100.1851    1471.2121     3014.876   -1243.0326     113.6996    204.05217   -3501.0184 
 4304000    260.41225   -4251.7058   -3805.3681   -4251.7058            0    687.60658    18.097408    23.394547    22.146541    9376.4169    1259.4006    1196.2492   -392.83008   -1436.8805    20.268376    -136.9437    -3711.341 
 4305000     248.8191   -4246.7307   -3820.2632   -4246.7307            0    2229.9941    18.069153    23.269999    22.057217    9274.3796    936.53994    2022.8816    3730.5607    1323.4939    360.13111   -290.58195   -3518.6402 
 4306000    267.18686   -4241.9804   -3784.0312   -4241.9804            0   -68.732908    18.175136    23.585368    22.019468    9439.0255    11.345185   -121.56977   -95.974138    373.98189   -173.06793     16.88062   -3793.4929 
 4307000    259.41751   -4264.1308    -3819.498   -4264.1308            0    3078.3526    18.030762    23.365014    22.152035    9332.4093    3611.1004    4089.9139    1534.0436   -1005.9762    807.38742    174.16291   -3400.5231 
 4308000    245.96801   -4244.6729   -3823.0922   -4244.6729            0    1702.2746    18.116076    23.342613    22.063404    9330.0963    1380.8142    1149.0726    2576.9368    -1224.597    771.29145    333.74626   -3591.4639 
 4309000    258.78062   -4260.7622   -3817.2211   -4260.7622            0    2842.4054    18.087702    23.189257    22.029774    9240.1768    1602.7619    2719.0391    4205.4151   -462.84639   -352.24694   -275.54112   -3434.1828 
 4310000    235.25876   -4265.9363   -3862.7108   -4265.9363            0   -293.24422    18.153188    23.439492    22.092912    9400.5675   -169.22293   -150.69758   -559.81215   -547.73671    66.632299    204.80601   -3902.9139 
 4311000    245.43724   -4242.3012   -3821.6302   -4242.3012            0   -340.88783    17.951514     23.74171    22.188998    9456.9429    -482.3122   -361.81809   -178.53321    536.69743    76.588226   -233.11665   -3868.6453 
 4312000     250.1743    -4238.962   -3810.1719    -4238.962            0    3113.3953    17.969792    23.515524    21.953582    9276.9049    3366.5858    2384.3673    3589.2328    636.04696   -662.49409   -172.13397   -3388.9477 
 4313000    258.20443    -4232.994   -3790.4405    -4232.994            0    2227.8743    18.017775     23.29494    22.016898    9240.9986    2198.8456    1591.1356    2893.6416    864.91543    1219.3389    343.05693   -3490.1888 
 4314000    247.31527    -4248.946   -3825.0561    -4248.946            0    1923.5002    18.124571    23.276227    22.115848     9330.049    1851.7021    2783.3722    1135.4263   -909.69475    751.00856    461.51083    -3563.327 
 4315000    237.82309   -4266.0629   -3858.4423   -4266.0629            0    2083.5952    18.163146    23.482475    21.813969    9303.9987     575.3621    1976.8206     3698.603    138.99043    -214.7646    1257.8566   -3575.7207 
 4316000    255.43704   -4231.4176   -3793.6073   -4231.4176            0    1502.1815    17.864819     23.45153    22.236363    9316.0875    1651.6531     1339.976    1514.9152    920.04248   -130.41376   -415.06974   -3589.5125 
 4317000     245.3761   -4289.2307   -3868.6645   -4289.2307            0    1414.8934    18.039236    23.805841    21.702927    9320.0873    2015.9304    800.66084    1428.0889   -76.038796    215.44815    507.45614   -3676.3466 
 4318000    253.74361   -4270.0374   -3835.1295   -4270.0374            0    900.92784    18.035168    23.301874    22.205953    9332.1231    957.69526    684.05355    1061.0347   -749.76839    -398.2513    9.6094348   -3712.5137 
 4319000    238.14937   -4278.3759    -3870.196   -4278.3759            0    1907.5413    18.036473    23.274873    22.033486    9249.5833    2007.8972    2229.3574    1485.3693    250.56032   -312.48323    169.19918   -3612.8769 
 4320000    252.68888   -4256.1396   -3823.0396   -4256.1396            0    1900.7117    18.021751    23.476766    22.031213    9321.2395    1522.6019    1033.0666    3146.4668   -24.386465     178.7851    17.796445   -3564.6554 
 4321000    239.14588   -4243.0585   -3833.1706   -4243.0585            0   -28.551881    18.222914     23.40312    22.202185    9468.6333   -294.13627     -70.4335    278.91413     294.9774    645.70942    141.50881   -3837.1134 
 4322000    275.11064   -4233.1329   -3761.6027   -4233.1329            0    2422.3077    18.142592    23.352834    21.899446    9278.3777    2877.4419    883.28508    3506.1961    191.96229    190.57902    -598.3544   -3433.8266 
 4323000    242.96439   -4287.4757   -3871.0431   -4287.4757            0     2266.341    18.021367    23.388409    22.173744    9346.0355    2601.6413    3092.9463    1104.4354    584.56294     144.6899    431.99896   -3562.1355 
 4324000    250.00475    -4263.921   -3835.4214    -4263.921            0    2907.2671    17.903958    23.537516    21.985621    9265.0638     2300.396    3535.5651    2885.8401    177.06325    352.34085    727.74163   -3442.5873 
 4325000    244.60391   -4255.0732   -3835.8305   -4255.0732            0    495.80428    18.012026    23.667559     22.03684    9394.3202    921.14819   -675.14439    1241.4091   -462.49333   -279.27126    -99.49503    -3767.902 
 4326000    245.71774   -4259.7753   -3838.6235   -4259.7753            0    1329.9027    18.125457     23.33929    22.179189    9382.5802    1823.6091    1818.2604    347.83861    549.44893    1316.7745    894.07952   -3656.6458 
 4327000    254.48956    -4283.508   -3847.3216    -4283.508            0    2574.7074    18.192817    23.336239    21.896082    9296.0239    1855.2262    3585.0835    2283.8127   -416.45903    90.848684    -428.5802   -3498.2608 
 4328000    255.51773   -4230.6116   -3792.6629   -4230.6116            0    1334.9864    17.876168     23.64729    22.194129    9381.9674    872.95848    1507.4766     1624.524    764.50648    -836.9142    299.09848   -3610.0016 
 4329000    249.69972   -4272.8762   -3844.8994   -4272.8762            0    1350.8257    17.924276    23.709312    22.039999    9366.3883    1760.8791    588.14121    1703.4568   -428.18512   -846.32251    362.69403   -3660.3778 
 4330000    267.51136   -4250.4304   -3791.9251   -4250.4304            0     1919.148    18.003883    23.340391    22.191616    9325.3094    3003.1377    1934.7659    819.54051   -252.26175   -44.716555   -549.05211   -3530.9208 
 4331000    244.62687   -4245.4708   -3826.1887   -4245.4708            0    2390.2691    18.267301    23.262272    21.974175    9337.6823    2267.5182    1837.1541     3066.135   -1029.9325   -273.80567    82.319599   -3500.6807 
 4332000    244.51095   -4266.5364    -3847.453   -4266.5364            0    2131.2025    18.108114    23.460599    21.924298    9314.0384    2516.5696    2166.7176    1710.3204   -26.241404    885.05672    562.83385   -3557.9596 
 4333000    239.73098   -4260.3828   -3849.4921   -4260.3828            0    663.52483    17.826679    23.576593     22.27176    9360.6505    795.17821    1227.5967   -32.200422    209.78765   -612.83243   -447.78421   -3758.9107 
 4334000    259.04311   -4240.5174   -3796.5264   -4240.5174            0    698.65828    17.984904    23.721122    21.976601    9375.7037    812.68189    277.07799     1006.215   -450.75066   -533.32684    282.44271   -3700.9953 
 4335000    246.46743   -4259.8451   -3837.4084   -4259.8451            0    1885.5256     18.08587    23.454382    21.962205    9316.2114   -61.394708     3132.627    2585.3445    53.968439   -161.74671   -552.69369    -3581.227 
 4336000    266.37441   -4283.8089   -3827.2523   -4283.8089            0     2493.756    18.054458    23.086712    22.304637    9296.9758    2694.9888    3608.8095    1177.4696   -101.43718    714.74306    498.46496   -3489.1317 
 4337000    243.33517   -4266.7154   -3849.6473   -4266.7154            0    1547.2968    18.170092    23.408108    22.056298    9381.1494    1948.5573    951.65789    1741.6753    235.57984    -430.9716   -46.253034   -3637.9547 
 4338000    251.50893   -4227.0455   -3795.9678   -4227.0455            0    1514.4297    18.034441    23.406167    22.148162    9349.1191    1947.0079    155.04875    2441.2324   -514.14073    565.04237   -885.04958   -3589.4794 
 4339000    241.81383   -4279.4647   -3865.0041   -4279.4647            0    2016.7718    17.895155    23.699593    22.074517    9361.9771    1697.4088    2587.9975    1764.9091    1055.1024    -1058.994    578.22121   -3589.6445 
 4340000    254.12008   -4260.3852   -3824.8321   -4260.3852            0    2899.9419    18.053055    23.531548    21.961962    9329.8002    1787.9019    1500.8319    5411.0919    -346.1096    317.18735   -9.9131709   -3430.2498 
 4341000    243.47959   -4275.8356   -3858.5199   -4275.8356            0    1884.8611    17.800102    23.363922    22.391003    9311.9744    2477.0363    2410.5859    766.96104   -606.20659   -293.86795    442.86561   -3602.5452 
 4342000    251.20936   -4239.8737   -3809.3095   -4239.8737            0     2438.674    18.217692    23.502804    21.864609    9361.7011    2621.3955    1801.9569    2892.6697    -666.6116     -804.514   -29.365826   -3476.3553 
 4343000    250.46951   -4281.9568   -3852.6607   -4281.9568            0    3033.2577    18.052221     23.33229    22.064463     9293.544    3286.4324    3594.8353    2218.5054   -332.20498   -213.09349    332.64562   -3441.5426 
 4344000    245.16476   -4255.5905   -3835.3865   -4255.5905            0    1596.8623    18.031465    23.372024    22.332895    9411.7927    2863.5811    1574.1042    352.90149   -954.34124    29.580716   -472.42053    -3616.199 
 4345000    250.74753   -4277.8285   -3848.0559   -4277.8285            0     2356.195    18.088144    23.646372     21.78267    9316.8612    3162.5492    2345.2425    1560.7934    184.94077    529.29903    -31.25256   -3527.9035 
 4346000    259.13153    -4254.355   -3810.2124    -4254.355            0    1603.0458    18.023801    23.462734     22.17016    9375.4874    1956.6604    1223.9539    1628.5232   -1318.2865    513.02797   -235.64357   -3591.0249 
 4347000       251.99   -4258.2349   -3826.3327   -4258.2349            0    1002.6708    18.026915    23.424307    22.136427    9347.5046    1635.6209    1080.4816    291.90997   -43.896822   -57.130049    26.285169   -3689.6448 
 4348000    243.90373   -4285.4529   -3867.4102   -4285.4529            0    1509.0317     18.14316    23.588216    21.782292    9322.0541    703.76565    133.11545    3690.2141    34.664345    409.06419    88.706503   -3662.2534 
 4349000    242.36822   -4238.0881   -3822.6773   -4238.0881            0    1577.3264    18.125616    23.216158    22.137088    9315.4453     2344.358    1032.4458    1355.1756   -227.66902   -87.666685    1236.7206   -3608.3877 
 4350000    246.31104   -4275.7019   -3853.5332   -4275.7019            0    3001.3861    17.957879    23.396406    22.136347    9300.5824     3378.228    3089.2608    2536.6694    355.95907    565.22515      869.546   -3446.4268 
 4351000    250.30912   -4293.7044   -3864.6832   -4293.7044            0     1917.683    18.148745    23.645273     21.68512    9305.7796    1496.0901    1343.9533    2913.0057     108.7214   -394.49578    165.34702   -3604.4243 
 4352000    262.39053   -4268.5537   -3818.8253   -4268.5537            0    816.62887    18.062015    23.448482    22.166508     9388.111    430.41328    1321.2994    698.17395     250.4859   -214.24144   -146.15921   -3707.0158 
 4353000    270.90508   -4279.6961   -3815.3741   -4279.6961            0    1222.4406     17.88174    23.720609    21.974905    9321.0025     1532.017    1635.0657    500.23924    -1356.021    64.267341    48.138769   -3649.1989 
 4354000    243.91924    -4249.558   -3831.4888    -4249.558            0    179.54562    18.014534    23.707311    22.145141    9457.6615    378.21266    189.67155   -29.247359   -506.70482     96.55922    318.70616    -3806.724 
 4355000    257.26518      -4240.7   -3799.7563      -4240.7            0    2103.3581    18.101377    23.103399    22.143462    9260.4698    1464.0539    2674.4838    2171.5365   -18.013798    -362.3104    1061.0782   -3515.6884 
 4356000    233.52136   -4253.0375   -3852.7899   -4253.0375            0    2608.4254    18.147963    23.250282    22.020302    9291.3622    1829.2469    4814.8998    1181.1294    250.49619   -232.33434   -69.113953   -3499.3352 
 4357000    245.78838    -4272.565   -3851.2921    -4272.565            0    532.59603    18.153532    23.185313    22.220487    9352.4988    574.36453    1445.1089   -421.68537   -1396.3702    602.43365   -722.06514   -3778.6479 
 4358000     255.5111   -4267.1585   -3829.2213   -4267.1585            0    1595.3839    17.864548    23.517452    22.191448     9323.263    3219.4678    317.13885    1249.5452   -23.106037    -475.2328   -1456.1774   -3612.2966 
 4359000    241.30371   -4253.7003    -3840.114   -4253.7003            0    2018.1609    17.920498     23.71016    21.967764    9334.0562    3178.8876    1418.1735    1457.4216    579.51285   -183.22521   -499.75608   -3565.3865 
 4360000    239.73178   -4248.7779   -3837.8858   -4248.7779            0    1.0392008    18.004163    23.461407    22.268699    9406.3655    315.44537    543.06562   -855.39339    30.783459   -86.370437   -54.604485   -3837.7433 
 4361000    256.52967   -4269.1124   -3829.4293   -4269.1124            0    958.63847    18.228547    23.376845    21.938996    9348.7748     1738.851     391.6381     745.4263    392.50178   -402.91911    413.07272   -3698.7263 
 4362000    241.55433   -4247.3978    -3833.382   -4247.3978            0    467.26016    18.223015    23.379954    22.172979    9446.8698   -986.27489    1358.5769    1029.4785    446.75502    288.67894    411.30695   -3769.0062 
 4363000    240.40373   -4247.9563   -3835.9126   -4247.9563            0    1360.6265    18.041755    23.406756    22.181143    9367.0738    2072.2303    1872.2898    137.35949    651.75559    182.07758    192.56406   -3650.0385 
 4364000    250.84734   -4223.0863   -3793.1426   -4223.0863            0    2819.1741    17.909044    23.670969    22.077593    9359.2309    2494.5415    3810.4114    2152.5694   -210.11718   -221.33202   -1196.8462     -3408.34 
 4365000    262.65895   -4260.5374   -3810.3489   -4260.5374            0    2102.1564    18.115953    23.518834     22.00446     9375.354     1768.329    1303.5709    3234.5692   -62.048034    580.93912    -396.3312   -3522.9213 
 4366000    245.07957   -4272.6923   -3852.6343   -4272.6923            0    1257.5962    18.232881    23.219857    22.186953    9393.1771    1095.5465    1529.3167    1147.9253     105.6466   -733.93127    406.83505   -3680.3564 
 4367000    247.65553   -4287.2774   -3862.8043   -4287.2774            0    1588.3065    18.234799    23.307955    22.040408    9367.5233    1514.3325    231.35435    3019.2326    796.73861   -78.576395   -432.83931   -3645.8167 
 4368000    239.75823   -4264.4026   -3853.4652   -4264.4026            0    1438.2301    17.988973    23.390943     22.21996    9349.6933     555.9973      2381.69    1377.0031   -933.58595   -328.32797    443.25412   -3657.3544 
 4369000    253.59573   -4255.3117   -3820.6573   -4255.3117            0    2861.8167    17.955444    23.546786    21.950085    9280.3425    1336.5324    3831.3862    3417.5316    1559.1597    59.203595   -19.021528   -3433.3268 
 4370000    259.01241   -4287.8473   -3843.9089   -4287.8473            0   -41.632115     17.99509    23.551681    22.207092      9411.69   -174.95842   -435.73126    485.79334   -145.66803    492.48377   -811.61107   -3849.6233 
 4371000    252.34503   -4278.1696   -3845.6589   -4278.1696            0    1052.6185    18.153496     23.20119    22.253009    9372.5821    1000.7928    2351.3955   -194.33285    797.34738    227.72649    429.52519    -3701.777 
 4372000     253.8105    -4240.865   -3805.8425    -4240.865            0    2352.1885    18.217577    23.355159    21.955664    9341.5733    1219.2516     3496.839    2340.4749    1017.6592    828.66041     382.3193   -3485.3868 
 4373000    240.61712   -4276.8506   -3864.4411   -4276.8506            0    2003.4105    18.028581     23.57864    22.066037    9380.0389    2531.7447    778.58143    2699.9054   -1059.4816   -783.49504    907.04505   -3590.3781 
 4374000      246.426     -4229.48   -3807.1143     -4229.48            0    2223.3894    17.936951     23.50745    22.065828    9304.0997    1766.0703    3670.0567    1234.0412   -132.01944    -684.5784    868.32752   -3505.4209 
 4375000    272.04451   -4252.5256   -3786.2506   -4252.5256            0    2147.1897    18.042049    23.428985    22.025361    9310.2722    2085.1663     2855.648     1500.755    212.66698    424.85406    171.55976   -3494.7035 
 4376000    252.60112   -4265.8136   -3832.8639   -4265.8136            0    1515.9107    18.329899    23.132229    22.052191    9350.3808   -263.35964    3401.1926    1409.8991    1108.2124   -101.78265    89.342839   -3626.1456 
 4377000    260.87963   -4267.3136   -3820.1748   -4267.3136            0    1570.9318    18.179501    23.253498    22.011502    9305.0761    488.71407    1185.0354    3039.0459   -113.34993   -841.82297   -148.46291   -3606.9916 
 4378000    255.22767   -4266.6952   -3829.2437   -4266.6952            0    320.15184    17.986712    23.617445    22.008275    9349.1194    479.40231   -816.93615    1297.9894     230.9746    202.22318   -294.63999   -3785.5919 
 4379000    258.35918   -4244.7911   -3801.9723   -4244.7911            0    3245.2143    17.886042    23.524425    21.960272    9239.9789    4319.4147    4476.0511    940.17719     449.6627    473.69673   -142.73534   -3364.6615 
 4380000    250.66013   -4287.7657   -3858.1428   -4287.7657            0    99.779021    17.942714    23.532826    22.269209     9403.013    544.22612    185.43437   -430.32343    -306.4692    632.14184    393.47818   -3844.4598 
 4381000    254.67838   -4301.6933   -3865.1833   -4301.6933            0   -74.572373    18.189483    23.609734    21.821243    9371.1078   -955.28413    314.62635    416.94066    226.37499    94.946559    499.71219    -3875.375 
 4382000    251.37886   -4221.5451   -3790.6903   -4221.5451            0    2792.4893    18.231791    23.165226    22.051642    9313.3689    8.1856832    3531.4387    4837.8435    9.8549764   -543.95045    691.04834   -3411.3978 
 4383000    239.31608   -4253.5513   -3843.3717   -4253.5513            0     1662.604    18.071967    23.519023    22.031203    9364.0325    2078.0656     1571.679    1338.0673   -730.00509   -413.52286   -146.03824   -3616.3185 
 4384000    243.32806   -4272.0067   -3854.9507   -4272.0067            0    1698.2186    17.801184    23.729876    22.121438    9344.5351    2919.3702    53.334329    2121.9511   -603.62618   -111.89954    112.94449   -3623.5167 
 4385000    226.42031   -4254.5407    -3866.464   -4254.5407            0    748.14807    17.942142      23.6417    22.109217     9378.348    1617.0711    1157.4643    -530.0912    -557.2636    542.20532    236.48536   -3764.1371 
 4386000    240.82597   -4234.4264   -3821.6589   -4234.4264            0    1723.8889    18.272755    23.277369    22.022242     9366.977    566.02618    2536.4859    2069.1547    109.45605     235.0313    307.27133   -3586.1623 
 4387000    240.44006   -4273.9987   -3861.8927   -4273.9987            0    1195.6194    18.197957    23.296907    22.155019    9392.7557   -545.25083    1476.4667    2655.6422   -559.09837   -794.49974    844.72225   -3698.1123 
 4388000    242.37475   -4249.2205   -3833.7985   -4249.2205            0   -116.70339    18.134931    23.618207    22.091531     9462.124    1417.1238   -961.94165   -805.29233   -324.92524   -310.18317   -33.981458    -3849.903 
 4389000    240.38302   -4295.7179   -3883.7096   -4295.7179            0    788.17534     18.05291    23.510926    22.002543    9338.7733    152.24054    421.09701    1791.1885    525.83456     -413.783   -783.76318    -3776.363 
 4390000    244.32763      -4249.3   -3830.5308      -4249.3            0     1265.839    17.912878    23.498685    22.242182    9362.3816    3160.5427    711.84322   -74.868815   -524.98296   -788.11903   -34.797683   -3657.6923 
 4391000    256.21824   -4298.8903    -3859.741   -4298.8903            0    860.35427    18.069415    23.642129    21.825105    9323.6729    424.88474    1742.2541    413.92395    286.50562    167.35673   -547.30865   -3742.7533 
 4392000    236.31172   -4253.5573   -3848.5271   -4253.5573            0    2058.0734    18.001762    23.111888    22.410276    9323.9003    2241.4177    3227.8916    704.91085    520.91217    457.22884    76.439606   -3568.6713 
 4393000    233.50196   -4246.1067   -3845.8924   -4246.1067            0     2043.517     18.16184    23.315357    22.076491    9348.2852    761.85355    2123.0518    3245.6456    -506.5437   -725.13702    18.404128   -3567.2892 
 4394000    242.75925   -4255.4035   -3839.3224   -4255.4035            0    1462.3238    18.197037    23.552747    21.861887    9369.7903    1591.1372    28.881525    2766.9528    590.48392    545.36005   -318.37952   -3639.4977 
 4395000    259.07823   -4252.7717   -3808.7205   -4252.7717            0    2091.9495    17.794632    23.615653    22.181739    9321.4734    3252.1717    2746.5874    277.08955     1152.085   -340.12561    93.636735   -3524.3322 
 4396000     239.0894   -4259.4012   -3849.6101   -4259.4012            0    894.39731    17.992812    23.619043    22.111844    9396.9366    1035.2183    48.025483    1599.9482   -371.98877   -930.33564    87.714974   -3727.0377 
 4397000    238.76116   -4274.5333   -3865.3049   -4274.5333            0    1784.5108    18.189947    23.535506    21.812884    9338.3047    540.97881    3095.3584    1717.1953    339.63388   -44.470472   -1111.1059   -3622.2731 
 4398000    235.20733   -4270.1018   -3866.9644   -4270.1018            0    1392.7078    18.129174    23.210821    22.211988    9346.6492    254.34914    3045.6128     878.1614   -213.97616    489.55155    131.90098   -3677.1227 
 4399000    252.92998   -4226.0018   -3792.4884   -4226.0018            0    1892.1786     18.13116    23.343717    22.067565    9340.0678    899.47256    1772.1115    3004.9516    -73.07139     568.2663    381.22185   -3534.7447 
 4400000     244.1729   -4258.1291   -3839.6251   -4258.1291            0    1799.7934    17.996044    23.594866    22.047125    9361.5231    3077.6272    1506.1607    815.59242   -239.89731   -73.184702    401.76319   -3593.9025 
 4401000    249.34427   -4237.7133   -3810.3458   -4237.7133            0    3206.4823    17.973987    23.493978    21.969945    9277.4785    2175.2663    3381.4054    4062.7753   -199.70183    787.52374   -156.76373   -3376.5007 
 4402000    233.15163   -4266.8921   -3867.2781   -4266.8921            0    978.87341    18.188628    23.202568    22.205625     9371.282    66.831669    1351.3855     1518.403    397.81455    353.00846     331.7859    -3733.495 
 4403000    249.80759   -4256.9886   -3828.8269   -4256.9886            0    737.95229    18.096601    23.448501    22.032851    9349.3798    1872.7114   -756.95046     1098.096    778.86673    864.71131   -508.30842   -3728.2063 
 4404000    233.96678   -4253.6569   -3852.6459   -4253.6569            0    1672.8074    17.734921    23.638001    22.272584    9337.0699    2473.0985    1593.7231     951.6005   -626.97821    585.28411   -99.401537    -3624.857 
 4405000    242.94945    -4263.123    -3846.716    -4263.123            0    1196.0224    18.028611    23.628185    21.950943    9350.7362    1734.6297    944.93159    908.50584   -1438.1855    166.45291    92.733718   -3683.6134 
 4406000    241.27182   -4294.8004   -3881.2687   -4294.8004            0    2341.6566    18.054633    23.375272     21.93987    9259.3262    1239.8075    2452.6873    3332.4749   -262.34385    376.28573   -154.74197   -3565.0566 
 4407000    230.62409   -4238.8319   -3843.5501   -4238.8319            0    3042.3439    18.019811    23.251131    22.005818    9220.0194     3986.045    3756.8841    1384.1025    378.77819   -1271.1653   -151.58822   -3434.4628 
 4408000    242.29795   -4273.2887   -3857.9983   -4273.2887            0     913.6744    18.272698    23.372374    22.110548    9442.8916    1472.1232    1303.9517   -35.051704   -835.30331    32.236696    19.894542   -3732.1717 
 4409000    256.30033   -4270.8889   -3831.5989   -4270.8889            0    3446.1939    18.030415    23.212833    22.062882    9234.1326    4002.9676     3529.558    2806.0563    447.06759    1.8302178    573.06128   -3367.4988 
 4410000    258.65977   -4249.7012   -3806.3672   -4249.7012            0    2035.1825     17.96671    23.576288    22.101287     9361.847    3756.6456    1527.2205    821.68141    2420.2187    781.90647    816.41593   -3528.4978 
 4411000     233.2026   -4264.3257   -3864.6245   -4264.3257            0    2153.6334     17.95313    23.609075    21.905727    9284.8908    3757.2541    3092.9978   -389.35153    91.758055   -821.35599   -344.74427   -3572.9996 
 4412000    241.38091   -4255.6267   -3841.9081   -4255.6267            0    582.15071     18.17526    23.214179     22.23764    9382.5885    691.18629    1346.3883   -291.12245   -1576.0075    356.83478   -50.804253   -3762.2493 
 4413000    247.50176   -4258.0312   -3833.8217   -4258.0312            0    2242.2076    18.208681    23.297491    22.031762    9346.2388    2754.2745    1539.1298    2433.2185    451.75244    -843.4637    112.58312   -3528.1969 
 4414000    252.85525   -4284.7158   -3851.3306   -4284.7158            0    2411.5727    18.144452    23.466282    22.070264    9397.1396     2632.169    2063.6722     2538.877   -436.18807    974.46913   -436.92228   -3520.8302 
 4415000     241.7114   -4250.7191    -3836.434   -4250.7191            0    2000.3893    17.903292    23.696859    22.055155    9356.9389    3607.1213   -272.79646    2666.8431    1202.3564     447.5618   -1195.8522   -3563.4582 
 4416000    245.23573   -4236.5839   -3816.2583   -4236.5839            0    1440.6399    17.952414    23.695404    22.057229     9382.918    1099.1173    708.26094    2514.5414   -138.33839   -492.42198    2.6358914   -3619.1208 
 4417000    245.36963   -4281.6901    -3861.135   -4281.6901            0     2295.135    17.988096    23.480262    21.906924    9252.7223    3334.1066    1413.2128    2138.0857   -204.48279    71.574115    -531.4022   -3551.4261 
 4418000    260.86194   -4240.1644    -3793.056   -4240.1644            0    1956.0657    18.227827    23.079429    22.054455     9278.041    490.69453    2912.7437    2464.7589    81.351058     186.5845    751.09917   -3528.3793 
 4419000    251.37383   -4236.2415   -3805.3953   -4236.2415            0    1002.1457    18.265688    23.392959    22.066639    9428.8208   -59.077353    1075.3784     1990.136    235.61522    368.49881    1044.5072   -3667.5906 
 4420000    248.59404   -4256.8639   -3830.7823   -4256.8639            0    2112.0272     18.00646    23.507471    21.967584    9298.5781    3045.9162    969.14368    2321.0218   -409.64061    172.34995    169.10171   -3544.3698 
 4421000    247.84924   -4261.4238   -3836.6187   -4261.4238            0    595.47036    17.724281     23.95015    22.123063    9391.2223    1987.0362    644.48186   -845.10702    1726.4678   -584.62801   -5.4461961   -3755.0623 
 4422000     258.9088   -4292.2734   -3848.5126   -4292.2734            0    875.82313    18.120185    23.396916    22.089928    9365.1673    1277.7988      1919.98   -570.30939    558.43802   -463.34845   -256.78662   -3728.8914 
 4423000    248.32231   -4271.3464   -3845.7304   -4271.3464            0    1253.8683    18.210451     23.07452    22.231812      9341.75    2934.8552    1789.5605   -962.81063     -610.385    -507.1001    571.67548   -3674.9036 
 4424000    247.77304    -4284.818   -3860.1435    -4284.818            0      924.301    18.172672    23.454443    22.115428    9426.2566    1174.7171    1405.6611    192.52485    -49.83479    290.76522   -503.68506   -3733.0778 
 4425000    253.22359   -4251.5263   -3817.5098   -4251.5263            0    1048.5588    18.161261    23.508454    22.024764    9403.3226     1854.393    1486.1937   -194.91013   -451.02878    907.19783     282.7727   -3673.7127 
 4426000    244.62197   -4265.2859   -3846.0122   -4265.2859            0    1707.1178    18.024666    23.402982    22.134069    9336.8352    1566.9096    2926.3766    628.06705   -617.87604   -104.02162   -893.50855   -3613.5571 
 4427000    250.72701   -4234.4256   -3804.6881   -4234.4256            0     911.2275    18.076943    23.681598    21.950312    9396.7288    670.94138    257.80512     1804.936   -252.29875   -825.71333    247.82552    -3679.812 
 4428000    246.26218    -4234.236    -3812.151    -4234.236            0    2179.3093    17.787765     23.63617    22.135703    9306.6163    2904.7346    1680.2248    1952.9684   -887.46073   -742.74443   -737.97909   -3516.3589 
 4429000    239.92258   -4255.8781    -3844.659   -4255.8781            0    786.71085     17.97882    23.557444    22.186854    9396.9106    1518.8945    358.42364     482.8144    288.24542   -447.64698   -863.95636   -3736.8448 
 4430000     249.8323   -4266.5879   -3838.3839   -4266.5879            0    1153.3085     18.22091    23.466883    21.876158    9353.9822    869.67329    568.73376    2021.5183    436.32403   -434.26464    451.15283   -3681.0516 
 4431000    265.93171   -4276.5614   -3820.7636   -4276.5614            0    2625.1328    18.159079    23.273242    21.950504    9276.7358    2014.0675    2376.5238    3484.8071    150.23589   -108.73484   -324.27036   -3465.6049 
 4432000    244.65873   -4216.1229   -3796.7862   -4216.1229            0    2531.3899    18.112029     23.21409    22.172314     9322.444    1880.0012    3612.7142    2101.4544   -334.68427    244.55892   -122.62369   -3452.6228 
 4433000    246.99338   -4273.1607   -3849.8225   -4273.1607            0    3062.7021    17.904662     23.72833    21.933295    9318.3104    2030.9369    2233.1498    4924.0197    373.41289   -113.05603    365.96339   -3433.6074 
 4434000    243.81077   -4272.8436   -3854.9603   -4272.8436            0    2222.6387    17.840555    23.627975    22.047015    9293.6146    2157.1815    1598.1117    2912.6229   -538.38563   -517.71685    60.684385   -3553.7087 
 4435000    245.06968   -4235.5553   -3815.5143   -4235.5553            0    1036.3165    18.109719    23.394619    22.143368    9381.4802    697.31933    1926.1002    485.53016    -597.5151   -638.66151    16.398283   -3673.7262 
 4436000    252.10351    -4234.726   -3802.6292    -4234.726            0    1249.2845    18.244309    23.316446    21.936486    9331.6151    1024.9789    2853.8251   -130.95047   -299.27668   -458.49519   -207.79154   -3632.6116 
 4437000    231.96753   -4247.4712   -3849.8868   -4247.4712            0    1669.7047    18.085947    23.494262    22.018773    9356.1282    85.762213    3126.7838    1796.5682   -795.98296    196.97989    668.27406   -3622.0564 
 4438000    253.55637   -4238.5088   -3803.9219   -4238.5088            0    2167.5872    17.981436    23.558863    22.077082     9352.342    2027.0596    975.89628    3499.8057   -205.61898   -198.88933    821.43425   -3508.2753 
 4439000    243.69279   -4276.9669   -3859.2858   -4276.9669            0    1319.5331    18.175094    23.324144    22.139401     9385.302    972.18175    2285.9647    700.45273    -134.8162    232.05254   -212.80753   -3678.6747 
 4440000    254.43596   -4227.2689   -3791.1743   -4227.2689            0    817.66848    18.292646    23.046313    22.178597    9350.0099    382.80996    1493.9111    576.28439   -609.62054    391.94585   -159.99674   -3679.6768 
 4441000    244.88912   -4245.3714   -3825.6398   -4245.3714            0    2256.4019    18.069862    23.461002    21.915548    9290.8129    2393.8157    1698.7025    2676.6875    74.748136    303.49116   -157.07368   -3519.9041 
 4442000    253.30123   -4251.9198   -3817.7701   -4251.9198            0    314.26951    17.726362    23.774048    22.235076    9370.4698    615.65012   -729.26446    1056.4229     229.9637    102.43837   -871.67736   -3774.8225 
 4443000     246.5978   -4246.9159   -3824.2557   -4246.9159            0    1445.7012    18.018596    23.583167    21.930343    9318.9826    2133.9792    918.70967    1284.4147    137.35453    -406.4596   -289.82338   -3627.7737 
 4444000    249.10226   -4239.4229   -3812.4702   -4239.4229            0      2866.33    18.118555    23.226531    22.108467    9303.9325    2416.7489     3560.221    2622.0202    744.02236   -384.48563    352.63718   -3423.5427 
 4445000    249.29733   -4266.3965   -3839.1094   -4266.3965            0    1552.8673    18.168906    23.131308    22.188067    9324.9914    2304.3353    1928.3195    425.94726    1027.2087   -348.58238   -122.25511   -3627.9266 
 4446000    263.35187   -4276.4905   -3825.1144   -4276.4905            0    753.23165    18.045854    23.622167    21.963457    9362.6302    1265.3426    1235.2987   -240.94639   -520.99227   -53.661316    555.64213   -3722.2649 
 4447000    249.61143   -4257.1006   -3829.2752   -4257.1006            0    1576.1421    17.860453    23.751619    22.028472    9344.8012    1539.4255    832.28215    2356.7187   -638.03806    83.545132    -147.8807   -3614.4717 
 4448000    252.28911   -4257.4369    -3825.022   -4257.4369            0     1259.275    18.036692     23.40209    22.170682    9358.1628    1951.8517    923.07132    902.90206    511.85229    120.47039   -164.68303   -3653.1572 
 4449000    272.10909   -4272.9043   -3806.5186   -4272.9043            0    2245.5205    18.114961    23.433865    21.859452     9279.415    1324.0309    2122.0161    3290.5144    876.22656    1048.9908   -313.14362   -3502.6307 
 4450000     250.4567    -4260.874   -3831.5998    -4260.874            0    526.22008    18.090287    23.273928    22.277029    9379.3431    778.93572    1175.9146   -376.19011     12.78196    449.89916    92.212957   -3759.6192 
 4451000      249.686    -4257.174   -3829.2207    -4257.174            0    1455.7722    18.143678    23.302186    22.167837    9372.2812    1563.7933    1845.5644    957.95888   -42.113989    581.99781    228.42088   -3630.2383 
 4452000    248.19589   -4249.0487   -3823.6494   -4249.0487            0    785.07231    18.082856    23.769378     21.89245    9409.7743    647.71356   -56.714821    1764.2182   -39.156943   -266.38328    410.44391   -3715.9125 
 4453000    247.56512   -4282.9129   -3858.5947   -4282.9129            0    647.86966    17.834194    23.679094    22.235605    9390.0421    1215.0504   -1042.0429    1770.6015    372.44547    -617.7338   -324.13274   -3769.8728 
 4454000    243.57858    -4268.656   -3851.1707    -4268.656            0    1918.0341    18.162091    23.328147    22.019664     9329.466    1019.8215    3027.2748    1707.0061    88.098589     398.5153    356.50133   -3590.2016 
 4455000    246.64822    -4283.354   -3860.6073    -4283.354            0    1719.9057    18.255992    23.251619    21.982802    9331.2899    167.98767    3077.8847    1913.8448    167.04425    63.239639   -178.81997     -3626.55 
 4456000    244.23927   -4271.8461   -3853.2284   -4271.8461            0    1738.1466    18.051718    23.396228    22.056267    9315.2899    787.85678    2633.7455    1792.8376    1114.9097   -458.93159   -44.512132   -3617.0943 
 4457000    247.75574   -4266.4201   -3841.7753   -4266.4201            0    366.70879    18.032786    23.560989    22.057914     9371.752    116.56726   -391.99975    1375.5589   -115.24735    -220.3883    198.90566   -3791.6545 
 4458000    248.95306   -4241.8062   -3815.1092   -4241.8062            0    1499.4659     18.07744    23.245388    22.319001    9378.8261    823.83541    3221.2916    453.27072    324.56034    5.3476792   -1100.2491   -3610.0114 
 4459000    244.91616   -4253.1226   -3833.3446   -4253.1226            0    2283.6044    18.151509    23.380239    21.854423    9274.7248    1095.5195    3717.3293    2037.9643   -716.85895    146.84453   -231.25582   -3524.4589 
 4460000    266.71853   -4267.9998   -3810.8533   -4267.9998            0    2074.9423    17.876033    23.493045    22.167687    9309.5964    1733.8105    3614.2961    876.72043    95.310202   -566.12771   -302.83288   -3529.1365 
 4461000    247.88588   -4273.7014   -3848.8335   -4273.7014            0    1267.1163    17.974264    23.428166    22.200851    9348.8684    2370.7899    1187.3341     243.2249    218.56148   -27.326162   -278.53944   -3676.0703 
 4462000    255.26918   -4269.4157    -3831.893   -4269.4157            0    1287.4413    18.182752    23.510454    21.903265    9363.3115    2012.9482    1286.2728    563.10291    18.967559    -173.5066    396.66708   -3656.0874 
 4463000    251.33875   -4244.6029   -3813.8169   -4244.6029            0     2459.148    17.844947    23.256678    22.462947    9322.4414    2962.2736    2769.4376    1645.7329   -533.76188   -276.21623    219.29324   -3479.4754 
 4464000    248.25904   -4262.1914   -3836.6839   -4262.1914            0    960.93683    18.196204    23.490245    21.903924    9362.4664    1105.2818    1188.6695    588.85922    474.35063   -1088.4888   -74.013456   -3705.4757 
 4465000    237.74725   -4296.1925   -3888.7018   -4296.1925            0    1824.7724    18.090115    23.353425    22.114108    9342.4622     2361.193    2511.3645    601.75968   -1144.5376    -776.8287   -91.476224   -3640.0762 
 4466000    244.31881   -4264.0935   -3845.3394   -4264.0935            0    548.42114    17.992616    23.367176    22.351766    9397.5012    2162.7504    572.54642   -1090.0334   -209.92903    782.64065    572.59585   -3770.1767 
 4467000    239.64207    -4276.884   -3866.1457    -4276.884            0    2691.4835    18.001752     23.44543    22.100297    9327.6252    2986.6547    2945.5213    2142.2746   -391.58813   -439.75327     24.99529   -3500.0128 
 4468000    254.17337   -4263.4762   -3827.8317   -4263.4762            0    1551.5911    17.922788    23.615792      22.1691    9383.3117     2835.937    696.47638      1122.36    877.06102   -203.97474   -538.96726   -3615.5027 
 4469000    251.99372   -4243.6742   -3811.7656   -4243.6742            0     2844.199    18.195259     23.30684    21.869459    9274.2688    2747.4662    2779.2111    3005.9197    526.87885     639.8885    839.72615   -3427.0715 
 4470000    245.90096   -4277.8948    -3856.429   -4277.8948            0    1535.0024    18.049364     23.29926    22.181477    9328.1282    2217.2116     1798.101    589.69471    33.865239     194.5238    190.08194   -3647.6054 
 4471000    236.37328   -4239.3803   -3834.2446   -4239.3803            0    1819.2418    18.120299    23.595042    21.872418     9351.535    2401.4246    600.39796    2455.9028   -361.00339    476.08331    88.512199   -3586.1317 
 4472000    248.46303   -4276.5285   -3850.6714   -4276.5285            0    2031.6623    17.890141     23.58111    22.037855    9297.0963    2612.1449    1802.4074    1680.4346   -876.70653    213.45467   -926.50291   -3575.2011 
 4473000    244.70182   -4263.0906   -3843.6801   -4263.0906            0    1073.9631    17.965376    23.534683    22.164747     9371.464    1717.1284    114.73904    1390.0219   -279.06506    -464.5309   -696.69844   -3696.8981 
 4474000    253.02854   -4270.0798   -3836.3976   -4270.0798            0    177.73744      18.1322    23.641893    21.997073     9429.695     1039.385   -186.02097   -320.15168   -651.73453   -343.33145    20.819504   -3811.9547 
 4475000    249.62028   -4279.2755   -3851.4349   -4279.2755            0    2742.2379    17.944462    23.177655    22.154491    9214.2868    2246.0553    3102.2424     2878.416   -808.19505   -7.1260397    323.22241   -3482.9304 
 4476000    246.69214   -4250.8264   -3828.0045   -4250.8264            0    1388.6562      18.2696    23.277389    21.972825    9344.3526   -2.3497591    2680.7516    1487.5669   -1055.7884      439.699   -408.88046   -3638.7615 
 4477000    260.32147   -4217.6962   -3771.5141   -4217.6962            0    1191.0067    18.027291    23.450761    22.164604    9370.1681    1279.3512    1033.3026    1260.3664    27.851829   -671.46385   -13.092971   -3608.7579 
 4478000    249.90766    -4235.831   -3807.4978    -4235.831            0    897.35004    17.901154    23.699723    22.147864    9396.2838    307.24971    995.94108    1388.8593    643.46829     216.9323   -832.63974   -3684.5293 
 4479000    258.49024   -4260.1447   -3817.1013   -4260.1447            0    1564.0097    18.064205    23.711785    21.875363    9369.9737    2670.4422    1306.7712    714.81581   -687.34892   -209.75298   -90.320778   -3603.3771 
 4480000    254.73305   -4238.2891   -3801.6854   -4238.2891            0    101.32026    18.228316     23.43304    22.172764    9470.9818    527.07103    338.46571   -561.57596    -88.93873    1033.7593   -924.24339   -3787.6906 
 4481000    250.56689   -4245.9889   -3816.5258   -4245.9889            0    2231.6763    18.250272    23.340572    21.979194    9362.5164    2478.4892    2678.2471    1538.2927   -197.95493    169.15658   -150.23692   -3511.8067 
 4482000    245.40921   -4248.5594   -3827.9364   -4248.5594            0    922.58394    17.895002    23.497659    22.171653    9322.9732    1062.2538    155.06893    1550.4291    77.752636   -26.124853     24.93069   -3702.4964 
 4483000    245.89611   -4275.7141   -3854.2566   -4275.7141            0    598.64234    17.995674    23.508015    22.135362    9364.2009    414.93245    756.04162    624.95294    461.21165   -70.414929   -560.68446   -3772.5017 
 4484000    252.15026   -4240.1486   -3807.9717   -4240.1486            0    864.57635    17.992162    23.614776    21.940595    9322.1392    1161.4918    -17.58685    1449.8241   -676.72952   -481.75998    543.02554   -3690.4292 
 4485000    246.51962   -4275.4506   -3852.9244   -4275.4506            0    731.60781    18.107974    23.270047    22.286072    9390.7583    1921.7851    357.70134   -84.662979   -365.50735    411.67708    359.15282   -3752.7274 
 4486000    249.87997   -4269.8462   -3841.5605   -4269.8462            0    1776.7291    18.311341    23.322687     21.94037    9370.0669   -447.36609      2190.43    3587.1233    494.37926   -918.99508    659.38129   -3598.7655 
 4487000    246.96917   -4259.2174   -3835.9207   -4259.2174            0    2287.4179    18.005142    23.388922    22.049839     9285.647    1990.3568    2047.0832    2824.8137   -625.56776   -77.894914    857.83883   -3526.1548 
 4488000    244.34674   -4236.0634   -3817.2614   -4236.0634            0    2007.8929    17.812161    23.692615    22.032984    9298.2868    2627.9257    1033.1657    2362.5873   -489.00653    68.877642   -417.45421   -3544.9792 
 4489000     246.7935   -4247.0991   -3824.1035   -4247.0991            0    889.94743    17.909913    23.614419     22.10596    9349.3223    539.56911    1495.2006    635.07261    535.79702    192.31495    317.30244   -3702.7589 
 4490000    250.51728   -4261.4355   -3832.0575   -4261.4355            0    1849.2733    18.168612    23.297562    22.061915    9338.4635    2478.9932    2549.4003     519.4264    798.59012    408.69945    660.75971   -3580.2014 
 4491000    235.65912   -4260.0358   -3856.1241   -4260.0358            0    956.12118    18.202418    23.220571    22.132995    9354.9649    1763.4784    1199.2371   -94.352009    304.57921    470.22588   -312.41762   -3725.6781 
 4492000    253.11228   -4251.1862   -3817.3604   -4251.1862            0    2055.7289    17.892198    23.626267    22.029271    9312.3424    2510.0852    710.02283    2947.0788   -119.31037    292.99024   -801.27254   -3538.1699 
 4493000    264.86596   -4252.8071   -3798.8359   -4252.8071            0    2820.3726    17.902099    23.721473    21.881703    9292.3748    4498.7555    2318.4893     1643.873    1226.9197   -295.11833    570.58412   -3416.6197 
 4494000    248.29554   -4247.9699   -3822.3999   -4247.9699            0    2675.6346    17.748529    23.732898    22.157832    9333.4116     2027.306     2838.078    3161.5198   -111.93755   -181.29408   -747.58567   -3458.1972 
 4495000    258.87759   -4247.8395   -3804.1321   -4247.8395            0    767.92215    18.081279    23.390927    22.275342    9421.0862    1581.1107     1572.616   -849.96019   -201.45716   -439.23841    863.76548    -3698.622 
 4496000    252.44024   -4271.1396   -3838.4656   -4271.1396            0    1613.2811    18.134374    23.307069    21.994351    9296.1126    522.22552     1935.885    2381.7327    436.33816   -13.770467    618.62677   -3619.7462 
 4497000    248.73252   -4264.7782   -3838.4591   -4264.7782            0   -139.40334    18.258232     23.46102     22.09917    9466.3285   -807.13429   -558.33455    947.25882    388.82485   -123.34329      822.186   -3857.7047 
 4498000    244.18278   -4222.1383   -3803.6174   -4222.1383            0    698.32868    18.048092    23.538558    22.167847    9417.4791    510.21662    1198.8759    385.89351   -163.15874   -1055.4088    829.94059    -3707.706 
 4499000    231.77267   -4252.2055   -3854.9551   -4252.2055            0    1688.5304    17.980148    23.775252    21.971599    9392.4753    2134.4312    292.07458    2639.0855   -71.153168    290.42222    628.96883   -3623.6609 
 4500000    258.26741    -4235.386   -3792.7245    -4235.386            0    1226.2329    17.966762    23.494804    22.147066    9348.8423    394.65922    787.15247    2496.8871    21.484504   -794.16026   -165.27539   -3625.5358 
Loop time of 427.18 on 64 procs for 250000 steps with 864 atoms

Performance: 101.128 ns/day, 0.237 hours/ns, 585.233 timesteps/s
191.5% CPU use with 32 MPI tasks x 2 OpenMP threads

MPI task timing breakdown:
Section |  min time  |  avg time  |  max time  |%varavg| %total
---------------------------------------------------------------
Pair    | 16.705     | 25.031     | 35.837     |  99.5 |  5.86
Bond    | 0.67484    | 1.0696     | 1.5838     |  17.9 |  0.25
Kspace  | 212.02     | 222.58     | 235.5      |  41.6 | 52.10
Neigh   | 1.6767     | 1.8463     | 2.1962     |  10.4 |  0.43
Comm    | 64.274     | 73.157     | 78.223     |  35.9 | 17.13
Output  | 0.5501     | 0.55108    | 0.5532     |   0.1 |  0.13
Modify  | 74.388     | 77.9       | 84.814     |  24.1 | 18.24
Other   |            | 25.05      |            |       |  5.86

Nlocal:        27.0000 ave          37 max          19 min
Histogram: 7 3 6 1 0 3 2 2 4 4
Nghost:        2105.12 ave        2197 max        2009 min
Histogram: 5 9 2 0 0 0 0 2 5 9
Neighs:        6507.09 ave        8796 max        4314 min
Histogram: 3 4 4 6 0 1 4 1 3 6

Total # of neighbors = 208227
Ave neighs/atom = 241.00347
Ave special neighs/atom = 2.0000000
Neighbor list builds = 5957
Dangerous builds = 1

unfix		3
unfix		2
unfix		1

write_data	data.final.${pid} nocoeff
write_data	data.final.0 nocoeff
System init for write_data ...
PPPM initialization ...
  extracting TIP4P info from pair style
  using 12-bit tables for long-range coulomb (../kspace.cpp:340)
  G vector (1/distance) = 0.37138251
  grid = 24 27 25
  stencil order = 5
  estimated absolute RMS force accuracy = 0.0032008806
  estimated relative force accuracy = 9.6393567e-06
  using double precision FFTW3
  3d grid and FFT values/proc = 4410 672
Last active /omp style is kspace_style pppm/tip4p/omp

write_restart   restart.lmp.${pid}
write_restart   restart.lmp.0
System init for write_restart ...
PPPM initialization ...
  extracting TIP4P info from pair style
  using 12-bit tables for long-range coulomb (../kspace.cpp:340)
  G vector (1/distance) = 0.37138251
  grid = 24 27 25
  stencil order = 5
  estimated absolute RMS force accuracy = 0.0032008806
  estimated relative force accuracy = 9.6393567e-06
  using double precision FFTW3
  3d grid and FFT values/proc = 4410 672
Last active /omp style is kspace_style pppm/tip4p/omp
Total wall time: 0:07:07
