#include		in.partitions
include		in.temp
variable        temperature equal 105.75
variable	tempDamp equal 100.0
include		in.pressure
variable        pressure equal 2793.8
variable        pressureDamp equal 1000.0 # This is 1 ps
include		in.seed
variable        seed equal 745823

units		real
atom_style	full

read_restart	restart.lmp.${pid}
read_restart	restart.lmp.1
Reading restart file ...
  restart file = 30 Jul 2021, LAMMPS = 30 Jul 2021
  restoring atom style full from restart
  orthogonal box = (0.054890525 0.016057256 0.036487654) to (19.945110 19.983944 20.663510)
  4 by 4 by 4 MPI processor grid
  restoring pair style lj/cut/tip4p/long/omp from restart
  restoring bond style harmonic/omp from restart
  restoring angle style harmonic/omp from restart
  972 atoms
  648 bonds
  324 angles
Finding 1-2 1-3 1-4 neighbors ...
  special bond factors lj:    0        0        0       
  special bond factors coul:  0        0        0       
     2 = max # of 1-2 neighbors
     1 = max # of 1-3 neighbors
     1 = max # of 1-4 neighbors
     2 = max # of special neighbors
  special bonds CPU = 0.008 seconds
  read_restart CPU = 0.021 seconds
include 	in.setup
variable	out_freq equal 1000
variable	out_freq2 equal 10000
variable	out_freq3 equal 1000

timestep	2.0

neigh_modify    delay 7 every 1

include		in.tip4p
# This is TIP4P/Ice

# create groups ###
group ox type 2
324 atoms in group ox
group hy type 1
648 atoms in group hy

# set charges - beside manually ###
set group ox charge -1.1794
Setting atom values ...
  324 settings made for charge
set group hy charge 0.5897
Setting atom values ...
  648 settings made for charge

# ### TIP3P Potential Parameters ###
pair_style lj/cut/tip4p/long/omp 2 1 1 1 0.1577 8.5
pair_coeff 1 1*2 0.000 0.000
pair_coeff 2 2 0.21084 3.1668
bond_style  harmonic
bond_coeff  1 450 0.9572
angle_style harmonic
angle_coeff 1 55 104.52
kspace_style pppm/tip4p/omp 1.0e-5
pair_modify tail yes

thermo          ${out_freq}
thermo          1000
thermo_style    custom step temp pe etotal epair emol press lx ly lz vol pxx pyy pzz pxy pxz pyz enthalpy

restart 	${out_freq3} restart.lmp.${pid} restart2.lmp.${pid}
restart 	1000 restart.lmp.${pid} restart2.lmp.${pid}
restart 	1000 restart.lmp.1 restart2.lmp.${pid}
restart 	1000 restart.lmp.1 restart2.lmp.1


include         in.dump
dump            myDump all atom ${out_freq2} dump.water.${pid}
dump            myDump all atom 10000 dump.water.${pid}
dump            myDump all atom 10000 dump.water.1
dump            myDump2 all dcd ${out_freq2} dump.dcd
dump            myDump2 all dcd 10000 dump.dcd
dump_modify     myDump append yes
dump_modify     myDump2 append yes


variable natoms 	equal  "count(all)"                        # NUMBER ATOMS
variable H      	equal  "enthalpy/v_natoms"                 # ENTHALPY-per-atom
variable Vol      	equal  "vol/v_natoms"                 # volume-per-atom
fix AVG all 		ave/time ${out_freq} 1 ${out_freq} v_Vol v_H file vol_enthalpy.dat
fix AVG all 		ave/time 1000 1 ${out_freq} v_Vol v_H file vol_enthalpy.dat
fix AVG all 		ave/time 1000 1 1000 v_Vol v_H file vol_enthalpy.dat


timer           timeout 02:55:00 every 1000
New timer settings: style=normal  mode=nosync  timeout=02:55:00

fix 		1 all shake 1e-6 200 0 b 1 a 1
       0 = # of size 2 clusters
       0 = # of size 3 clusters
       0 = # of size 4 clusters
     324 = # of frozen angles
  find clusters CPU = 0.001 seconds
fix             2 all nph aniso ${pressure} ${pressure} ${pressureDamp}
fix             2 all nph aniso 2793.8 ${pressure} ${pressureDamp}
fix             2 all nph aniso 2793.8 2793.8 ${pressureDamp}
fix             2 all nph aniso 2793.8 2793.8 1000
fix             3 all temp/csvr ${temperature} ${temperature} ${tempDamp} ${seed}
fix             3 all temp/csvr 105.75 ${temperature} ${tempDamp} ${seed}
fix             3 all temp/csvr 105.75 105.75 ${tempDamp} ${seed}
fix             3 all temp/csvr 105.75 105.75 100 ${seed}
fix             3 all temp/csvr 105.75 105.75 100 745823


run             250000
PPPM initialization ...
  extracting TIP4P info from pair style
  using 12-bit tables for long-range coulomb (../kspace.cpp:340)
  G vector (1/distance) = 0.371631
  grid = 24 24 24
  stencil order = 5
  estimated absolute RMS force accuracy = 0.0035800615
  estimated relative force accuracy = 1.0781249e-05
  using double precision FFTW3
  3d grid and FFT values/proc = 2197 216
Last active /omp style is kspace_style pppm/tip4p/omp
Neighbor list info ...
  update every 1 steps, delay 7 steps, check yes
  max neighbors/atom: 2000, page size: 100000
  master list distance cutoff = 10.8154
  ghost atom cutoff = 10.8154
  binsize = 5.4077, bins = 4 4 4
  1 neighbor lists, perpetual/occasional/extra = 1 0 0
  (1) pair lj/cut/tip4p/long/omp, perpetual
      attributes: half, newton on, omp
      pair build: half/bin/newton/omp
      stencil: half/bin/3d
      bin: standard
Per MPI rank memory allocation (min/avg/max) = 9.224 | 9.226 | 9.228 Mbytes
Step Temp PotEng TotEng E_pair E_mol Press Lx Ly Lz Volume Pxx Pyy Pzz Pxy Pxz Pyz Enthalpy 
 3250000    108.15671   -5028.8774   -4820.2881   -5028.8774            0    3413.9455     19.89022    19.967886    20.627023     8192.345    3009.5939    3301.7354    3930.5073   -329.62705   -3.8107039    393.27357   -4412.4003 
 3251000    102.42933   -5037.4359   -4839.8923   -5037.4359            0     2692.548    20.002508    19.912517    20.682415    8237.8117     3582.739    2371.4005    2123.5044    -199.6015    197.91314   -595.70778   -4516.4095 
 3252000    103.56395   -5034.6408    -4834.909   -5034.6408            0     2885.189    19.980095    19.947964    20.710434    8254.3964    3218.7726    1898.3847    3538.4098   -203.86297   -28.160276   -426.37437   -4487.5845 
 3253000    104.18908   -5039.9551   -4839.0177   -5039.9551            0      3205.88     19.74444    19.861943    20.920573    8204.2734     3675.975    4309.1239     1632.541   -221.19287    808.38961    959.96151   -4455.4312 
 3254000    104.46087   -5049.4116   -4847.9501   -5049.4116            0     2565.534    19.951057    19.895783    20.677647    8207.8243    1794.4165     3429.682    2472.5035    45.033734    268.75021    5.0813413   -4540.8487 
 3255000    99.520852   -5028.7379   -4836.8036   -5028.7379            0    2643.5542    19.959182    19.841148    20.781627    8229.7964    2768.2227    3501.5508    1660.8893   -627.64969   -752.80228   -466.73702   -4519.5159 
 3256000    110.53814   -5044.3008   -4831.1187   -5044.3008            0    2690.5653    20.008528    19.934493    20.802314     8297.208    3224.3245     2401.152    2446.2195    -27.71344   -423.19126    818.85495   -4505.5434 
 3257000    104.01509   -5038.3697   -4837.7678   -5038.3697            0    1744.1997    19.971399    19.960602    20.722614    8260.8867    162.28632    3228.8146    1841.4982    472.24287    478.65273    835.55986   -4627.6327 
 3258000    108.00237   -5043.1072   -4834.8156   -5043.1072            0    3704.2401    19.951006    19.866307    20.706284    8206.9936     3479.384    3129.5138    4503.8224   -49.352642    701.55502    -343.6015   -4391.4529 
 3259000    110.54304    -5033.997   -4820.8055    -5033.997            0    2894.2526    19.928324     19.80976    20.770298    8199.6007    3257.8266    2733.8521    2691.0793    151.70799    1067.9718    -769.1591   -4474.7027 
 3260000    104.08642   -5030.6412   -4829.9018   -5030.6412            0     2845.765    20.041933    19.812022    20.738067    8234.4894    3156.6469    1957.9218    3422.7262    151.89546   -16.888443   -539.45271   -4488.1494 
 3261000    104.65565   -5042.8448   -4841.0076   -5042.8448            0    2947.6106    19.882769    19.865666    20.866972    8242.1291    4000.3454    3059.6518    1782.8347    447.40152     164.6036   -891.42539   -4486.6959 
 3262000    110.28911   -5026.3953   -4813.6935   -5026.3953            0    2511.1249     19.95545    19.960316    20.630309    8217.4046    2802.3091    1970.2159    2760.8498   -278.96274   -532.71422    482.71164   -4512.7542 
 3263000    111.57866   -5032.9523   -4817.7635   -5032.9523            0     2947.366    19.907597    19.952281    20.590421    8178.5559    2361.3157    2941.3548    3539.4275   -174.87059    15.897671   -434.97148   -4466.2139 
 3264000    104.90261   -5043.8297   -4841.5162   -5043.8297            0    2416.3822    20.048052    19.950786    20.585385    8233.6266    2867.4414    1706.6599    2675.0455    -165.5619    279.40286    560.25481   -4551.3594 
 3265000     104.9997   -5042.9378   -4840.4371   -5042.9378            0      3329.72     19.94206    19.900771    20.806824    8257.4452    1979.7516     4190.186    3819.2224    284.73216    900.34347   -437.16681    -4439.451 
 3266000    106.60345   -5043.7829   -4838.1892   -5043.7829            0     2004.419    19.986523    19.982521    20.688805     8262.718    2691.0546    1309.3745     2012.828   -99.694967    994.75091   -536.20388   -4596.6502 
 3267000    106.84967   -5040.2417   -4834.1731   -5040.2417            0    3361.5168    20.058522    19.929043    20.512243    8199.7103    2988.7233    2931.7659    4164.0611   -364.33382    470.75613   -579.59298   -4432.1883 
 3268000    101.84246   -5042.3918   -4845.9801   -5042.3918            0    2273.4398    19.948068    20.055208    20.574408    8231.0524    1523.1084     2973.386     2323.825    335.03868   -18.226511    -457.4744   -4573.0731 
 3269000    105.20076   -5040.9463   -4838.0577   -5040.9463            0    2993.2087     19.97289    20.068085    20.546166    8235.2662    3252.6919    1866.1084    3860.8259   -222.88787    63.341674    579.44513   -4478.5647 
 3270000    104.37151   -5040.6988   -4839.4096   -5040.6988            0    2073.7889    19.923008    20.071215    20.617516     8244.511    2103.3815    1051.3091     3066.676    122.68458     169.1544   -559.38465   -4590.0619 
 3271000    98.286518   -5036.0213   -4846.4675   -5036.0213            0    2849.2143    19.980177     19.93786    20.593589    8203.7028    1547.7209    3474.3594    3525.5628   -184.14043    952.24165   -224.78387   -4505.5801 
 3272000    109.60401   -5046.4611   -4835.0805   -5046.4611            0    3186.5903    19.895291    20.059752    20.590734    8217.6506    3725.7136    2172.6882    3661.3692   -630.35735    1228.8235    580.43168   -4453.1804 
 3273000    104.54261   -5047.9223   -4846.3031   -5047.9223            0     2359.783    20.031271    19.927718    20.680361    8255.1355    1612.1685    2429.3723    3037.8081    -435.0677   -40.025726    565.74488   -4562.2025 
 3274000    108.05635   -5026.5565   -4818.1607   -5026.5565            0    3209.8119    19.774406    20.020158     20.84534    8252.3933    3995.1715     2561.004    3073.2602    13.382748    300.21507   -97.143365   -4431.8512 
 3275000    111.16122   -5038.2654   -4823.8816   -5038.2654            0     2679.717    19.982134     19.92876    20.795939    8281.3411    2304.5154    2374.9963    3359.6394   -343.96106    20.807649    770.92047   -4500.2392 
 3276000    111.00673   -5035.3151   -4821.2293   -5035.3151            0    4097.7952    19.895486    19.921645    20.711369    8208.9679    5142.9545    3615.4778    3534.9534    208.55518    1222.1211    431.17728   -4330.6438 
 3277000    113.78736    -5040.362   -4820.9135    -5040.362            0    2349.4647    19.837521    19.955677    20.737438    8209.3534     3226.277    1851.0366    1971.0803   -207.29068    224.64598    208.49308   -4539.6238 
 3278000    105.14919   -5043.9545   -4841.1654   -5043.9545            0    2811.2962    20.028251    19.907199    20.546543     8192.038    876.24703    4133.3737    3424.2679    112.30851    15.028734    50.540689   -4505.2929 
 3279000    109.56474   -5045.6556   -4834.3507   -5045.6556            0    3242.0188    19.983445    19.953044    20.619832    8221.7572    2531.9272    3740.6859    3453.4433    5.4678699   -882.56837    254.89585   -4445.6136 
 3280000    108.98435   -5037.6195    -4827.434   -5037.6195            0    3358.7136     20.04068    19.924907     20.63915    8241.3918    3469.0062     3231.061    3376.0736   -125.78189   -126.34414    166.28988   -4423.7427 
 3281000    111.37966   -5037.3145   -4822.5094   -5037.3145            0     3466.282    20.039074    19.945624     20.54294    8210.8453    3000.3701    2639.9468     4758.529    196.76165    360.49224    346.70994   -4407.4334 
 3282000    111.21353   -5043.2185   -4828.7339   -5043.2185            0     3247.618    19.866227    19.954944    20.707357    8209.0059     2934.155    3083.8144    3724.8845   -119.35814    332.15329    119.44366   -4439.9293 
 3283000    107.31795   -5039.4223   -4832.4506   -5039.4223            0    2015.4368    19.884649    20.066199    20.737939    8274.6308    2365.4506    373.82334    3307.0363    141.30777   -534.64053     391.8053   -4589.2337 
 3284000    106.15208   -5049.9368   -4845.2135   -5049.9368            0    2141.2684    19.951978    19.825796    20.916493    8273.8081    2857.4244    1992.4245    1573.9564   -304.18237   -134.74679    78.162454   -4586.8374 
 3285000    103.01576   -5051.0705    -4852.396   -5051.0705            0    2439.2896    19.843823    19.898189    20.828005    8224.0654    3824.5404    2115.1545    1378.1741   -80.296351    556.28678    83.157768   -4559.8287 
 3286000    99.653142   -5038.4893   -4846.2998   -5038.4893            0    2228.5786     20.00186    19.866967    20.759702    8249.4138    1912.4731    2996.1181    1777.1445   -577.82811   -345.25158   -252.31931   -4578.1812 
 3287000    108.21963    -5043.249   -4834.5384    -5043.249            0    3792.0231    19.971391    19.931056    20.552992    8181.1375    4757.2262    2452.1223    4166.7208    70.646627   -206.50841     56.93709   -4382.0988 
 3288000      105.981   -5032.2359   -4827.8426   -5032.2359            0     2535.963    20.064247    19.884127    20.683519    8251.8977    2283.6796    2276.7257    3047.4837    318.01416    194.15315   -967.59706    -4522.651 
 3289000    99.834684   -5036.7075   -4844.1679   -5036.7075            0    3768.2597    19.915198    19.994396    20.603805    8204.2776    2636.7076     4743.682    3924.3895    222.99397     243.1419   -317.82556    -4393.292 
 3290000    105.41969    -5040.526   -4837.2152    -5040.526            0    2527.7381    19.964994    20.035655    20.597037    8239.0565    1456.0877    3129.4028     2997.724   -326.75801    227.11921    639.53916   -4533.4868 
 3291000    105.60469   -5036.5685    -4832.901   -5036.5685            0    3320.3618    19.955234    19.981829    20.611507    8218.6748    3667.9813    2119.4432    4173.6609   -398.39128    131.66103    759.31548   -4434.9193 
 3292000    107.08965   -5048.3232   -4841.7918   -5048.3232            0    1736.5813    19.998095    20.009101    20.599999    8242.9639    1218.4251    2504.9733    1486.3455   -250.98704     878.4732   -99.080321   -4633.0283 
 3293000    107.92389   -5038.5853    -4830.445   -5038.5853            0    2113.9047    19.973932    19.993372    20.674895    8256.4419    2736.7676    1131.7459    2473.2006   -142.17408   -362.20806    955.22793   -4575.9061 
 3294000     103.6004   -5049.0566   -4849.2546   -5049.0566            0    2772.2584    20.083063    19.789906    20.676724    8217.7971     2998.772    3299.3491     2018.654   -121.52984    57.834842    249.26767   -4517.0045 
 3295000    103.38476   -5053.0694   -4853.6832   -5053.0694            0    3045.0879    19.989587    19.866725    20.807344    8263.1715     4704.243    1788.6703    2642.3504   -189.32514    763.60695   -636.65021     -4486.72 
 3296000    103.33885   -5043.1405   -4843.8429   -5043.1405            0    2578.7318    19.837847    19.983382     20.85201    8266.3053    3130.5255    2321.9044    2283.7656    -359.5973   -274.96813    435.89504   -4532.9623 
 3297000    106.62746   -5043.4843   -4837.8443   -5043.4843            0    3132.5739     19.90083    19.813715    20.875148    8231.2665    3021.9471    3162.8671    3212.9074   -13.717182   -423.25264   -255.04607   -4461.7958 
 3298000    108.73147   -5059.0846   -4849.3869   -5059.0846            0    2806.7823    19.850494    19.993293    20.687424    8210.3573    3505.1299    1852.1587    3063.0582    197.61426    834.17916    343.29639   -4513.3038 
 3299000    108.00884   -5040.0554   -4831.7512   -5040.0554            0    3635.1536    19.919707    19.863095    20.787387    8224.8841    3716.7841    3525.9737    3662.7031   -132.62548     181.8581   -328.46644   -4395.7091 
 3300000    102.84484   -5042.4152   -4844.0703   -5042.4152            0    3117.2457    19.802107    19.945087    20.732704    8188.4797    4086.7493    2170.9822    3094.0056   -343.89021    1324.1947    -524.4744    -4471.807 
 3301000    110.68294   -5023.0972   -4809.6358   -5023.0972            0     3204.235    19.995207    19.845386    20.748867    8233.4119    2642.7345    4123.8399    2846.1306   -78.877263   -138.71323   -2035.0879   -4424.8845 
 3302000    101.06445   -5038.1869   -4843.2756   -5038.1869            0     2534.111    19.909056    20.027933    20.658384    8237.2674    3148.9872    1200.0218    3253.3241   -346.65535   -306.97483    472.12793   -4538.8475 
 3303000    102.58381   -5045.9307   -4848.0892   -5045.9307            0     3832.013    20.098047    19.781355    20.602439    8190.8416    2982.9057    4319.3942    4193.7392    113.40139   -524.06998    840.72597    -4390.336 
 3304000    107.52719   -5029.3838   -4822.0086   -5029.3838            0    4606.3114     19.86021    19.943097    20.566362    8145.8031    4322.4013    4236.4069     5260.126   -275.43284   -70.413616    226.78109   -4274.7872 
 3305000    108.15486   -5041.4419   -4832.8562   -5041.4419            0    2102.5977    19.985654    19.939294    20.752984    8270.0605    1396.7465    3049.1876    1861.8588   -536.10081    45.259112   -1042.7945   -4579.2612 
 3306000    109.80093   -5029.6174    -4817.857   -5029.6174            0    3484.4312    19.826289    19.998608    20.717921    8214.6182    4934.6799    2606.2186     2912.395    231.78039    949.60052   -599.37179    -4400.416 
 3307000    102.21788   -5045.0615   -4847.9257   -5045.0615            0    3228.2979    19.843575    20.021094    20.637552    8199.0946    4387.6132    2159.2579    3138.0226    258.02473     738.2931    33.780669   -4461.9008 
 3308000     106.1178   -5038.6335   -4833.9764   -5038.6335            0    3176.2056    19.956117    19.907801    20.630717     8196.221    3228.0632    2714.4154    3586.1383    24.190502    432.77034   -227.81265   -4454.3135 
 3309000    105.92807   -5044.9754   -4840.6842   -5044.9754            0    2382.5104    19.927516    20.034867    20.698933    8263.9484    2484.2453    1777.9142    2885.3718   -312.81098   -820.84091   -395.73769   -4553.5411 
 3310000    103.79226   -5035.4977   -4835.3256   -5035.4977            0    2959.7956    19.905612    20.030631     20.58987    8209.6331    2694.8194    2314.8778    3869.6896   -372.32067   -1143.1616   -650.72621    -4480.952 
 3311000    108.10257   -5039.2824   -4830.7976   -5039.2824            0    3788.6433    19.955613    19.898085    20.676022    8210.0039    4710.6971    3063.3673    3591.8654    480.52719    825.43668    -185.1975   -4377.1663 
 3312000    114.64496   -5039.8622   -4818.7597   -5039.8622            0    3030.9373    20.038706    19.945744    20.660421    8257.6995    3244.4578    2649.8863    3198.4678   -271.25747    1161.6215    553.21099   -4453.7437 
 3313000    112.18515   -5040.4613   -4824.1028   -5040.4613            0    2494.7729    20.031622    19.913502    20.655668    8239.5407    1836.9887    3337.8004    2309.5296     406.9516   -588.47567   -343.92465   -4524.3178 
 3314000    107.69044    -5042.995   -4835.3049    -5042.995            0    2424.4473    20.046367    19.827734    20.704326     8229.432    1810.8984    3342.4308    2120.0128    352.32286    885.94633   -1492.7364    -4544.328 
 3315000    109.47148   -5048.9875   -4837.8626   -5048.9875            0    3595.3477    20.171604    19.613142      20.7429    8206.4827    1958.5925    5329.5242    3497.9264    322.77477      194.389   -816.93552   -4407.5601 
 3316000    112.91778   -5037.1382   -4819.3668   -5037.1382            0    2787.4838    19.894735    20.004043    20.709863    8242.0106    3308.3161    2202.7524    2851.3829   -563.06129    75.906817    870.23324   -4484.3077 
 3317000    101.83962   -5039.0687   -4842.6624   -5039.0687            0    2933.5589    19.978763    19.762192    20.892214     8248.751    2634.7142    3314.2662    2851.6964    166.40561    155.75157   -310.82005   -4489.7566 
 3318000    105.14536   -5039.9532   -4837.1715   -5039.9532            0    2490.3905    19.948716     19.91533    20.777438    8254.5697    1610.7811    3208.4992    2651.8912   -60.000921    340.86495   -111.18919   -4537.3672 
 3319000    98.905975   -5041.4682   -4850.7197   -5041.4682            0    3340.2587    19.966689    19.971344    20.624809     8224.382    3089.8056    4171.4222    2759.5481   -431.17151   -167.25829    317.18113   -4450.0751 
 3320000     110.2282    -5040.728   -4828.1437    -5040.728            0    3474.8925    19.861302    19.939517    20.699408    8197.4782    4604.3963    1813.4549    4006.8262   -345.43244   -45.522204   -341.94236    -4412.714 
 3321000    107.17823   -5037.8204   -4831.1181   -5037.8204            0    2768.4126    20.010022    19.820238    20.743862    8227.0858    2443.0299    4045.7741    1816.4337    134.20794    385.12034    278.02534    -4498.954 
 3322000    109.18023   -5023.7169   -4813.1537   -5023.7169            0    2558.2217    19.913867    19.937211    20.800952    8258.5389    2718.8811    2570.0094    2385.7746   -165.58942    15.875466    1352.3178   -4505.0355 
 3323000    102.88685   -5045.5323   -4847.1063   -5045.5323            0    3354.7096    20.045547      19.6974    20.746011    8191.4621    3422.0656    3747.1125    2894.9506      4.58797   -708.33375   -361.58637   -4446.3391 
 3324000    101.27075   -5041.2802    -4845.971   -5041.2802            0    3359.3395    19.966967    19.841389    20.731034    8213.0626    3881.2377    2757.1558    3439.6251    419.53796    669.40449    176.90761   -4443.5924 
 3325000    104.45022    -5039.766    -4838.325    -5039.766            0    2958.1093    19.806675    19.913603    20.814503    8209.7032    3057.0765    3751.4916    2065.7597    151.27986    219.70233    758.88122   -4484.1502 
 3326000    105.15075   -5038.2137   -4835.4217   -5038.2137            0    2784.7433    19.925053    19.901711    20.767142    8235.0575    3617.6846    1676.2593    3060.2861    114.29972    749.99282    709.09187   -4500.9744 
 3327000    102.85914   -5054.9444   -4856.5719   -5054.9444            0    3319.3864    19.875533     19.88661    20.806136    8223.7706    4070.9014     2715.504    3171.7539    130.15057   -874.94361    790.74372   -4458.4605 
 3328000    108.00046   -5032.6473   -4824.3593   -5032.6473            0    2326.1112    19.959117    19.992444    20.737175    8274.7868    1635.2518    2810.4622    2532.6196    82.472795   -1178.6976   -483.09026   -4543.6459 
 3329000    110.35294   -5056.0481   -4843.2232   -5056.0481            0    2707.6695    19.970278    19.913635    20.626644    8202.8208    1958.4533    2562.9038    3601.6513   -125.04963    647.13988    494.97893   -4519.3054 
 3330000    107.88228   -5034.4722   -4826.4121   -5034.4722            0    1562.5834    19.905874    20.007054    20.662142     8228.861    -305.0773    3458.9718    1533.8556    169.73807   -343.43285    925.44233   -4638.8873 
 3331000    107.79733   -5038.4887   -4830.5925   -5038.4887            0    2991.8173    19.920912    20.054495    20.590577    8226.0146    3086.3696    2248.5087    3640.5735   -587.24035     84.87786    878.79762   -4471.6702 
 3332000    104.65825   -5046.4795   -4844.6373   -5046.4795            0    3201.9509    19.990624    19.985541    20.572759    8219.2997    3035.8872    3145.4369    3424.5285   -511.02892    919.60232   -524.11576   -4460.8193 
 3333000    106.62718   -5034.5147   -4828.8752   -5034.5147            0    1755.7325    20.057716    19.942142    20.616502    8246.4735    1362.7317    2154.8802    1749.5856    280.27967   -56.584322   -306.37287   -4617.7197 
 3334000    114.19947   -5038.5486   -4818.3053   -5038.5486            0    3232.2715    19.946315    19.960668    20.666396    8228.1558    4013.8169    2062.3222    3620.6756   -280.59108    72.746222   -703.80272   -4430.4353 
 3335000    101.53629   -5044.9841   -4849.1628   -5044.9841            0    1824.7626    19.983777    19.865708     20.87689    8287.9557     1789.536    2193.4618    1491.2899   -593.07644   -275.95288   -828.22003   -4628.6013 
 3336000    106.74109   -5051.2679   -4845.4087   -5051.2679            0      1746.24    19.954156    19.866183    20.933356    8298.2527    1109.4776    3101.9195     1027.323    110.52186   -451.79294     857.3383   -4634.0761 
 3337000    103.13368   -5042.1561   -4843.2542   -5042.1561            0    2072.2476    19.982512    19.850498    20.780293    8242.7692    1862.3189    2697.4936    1656.9304   -159.64103    696.22522   -579.40319   -4594.1444 
 3338000    106.23612   -5042.0065   -4837.1212   -5042.0065            0    2873.1319    19.910252    19.917154    20.825273    8258.3778    3696.8712    1892.4527    3030.0717    455.55423   -31.776253   -902.48693   -4491.0813 
 3339000    103.71851   -5058.0368   -4858.0069   -5058.0368            0    2288.6182    19.934138     19.85081    20.819974    8238.6465    3630.3544    1949.7249    1285.7753   -437.93614   -8.9781769   -267.75651   -4583.0243 
 3340000    110.15882   -5049.4113   -4836.9607   -5049.4113            0    3879.3622    19.819035    19.931947    20.695452    8175.3649    3149.8393    4787.9667    3700.2805   -114.44823    -194.9871   -351.09533    -4374.427 
 3341000     107.0456   -5047.7995   -4841.3531   -5047.7995            0     3609.451    19.927813    19.851247    20.797249    8227.2243    2859.1481    4758.3035    3210.9014   -227.27603    28.588835   -843.14754   -4408.2708 
 3342000    105.52388   -5045.3073   -4841.7956   -5045.3073            0    2181.8424    19.923303    19.981188    20.779489    8272.1332    1681.8418    2412.2691    2451.4162     325.9576    754.44267   -1087.5978   -4578.5769 
 3343000    109.18471   -5040.1943   -4829.6224   -5040.1943            0    2904.7026    20.048622    19.858489    20.749166    8260.9764    2657.0812    2085.5385    3971.4881   -90.945974   -42.337298   -509.07771     -4479.67 
 3344000    100.85628   -5032.3463   -4837.8365   -5032.3463            0    2524.6521    19.884637    19.934835    20.850768    8265.1809    1542.5069    3708.5395    2322.9099   -200.39506   -331.08573   -471.32844    -4533.517 
 3345000    103.61522   -5049.5976   -4849.7669   -5049.5976            0    3791.3975    19.875187     19.78269    20.780636    8170.6275    4226.3111     3932.229    3215.6525   -78.550915   -88.558404    71.576842   -4397.9832 
 3346000    108.37875   -5039.1339   -4830.1163   -5039.1339            0    2400.5356    19.953845    19.888597    20.809296    8258.2522    3198.1515    1378.6635    2624.7918   -336.02396   -73.708893   -731.83336   -4541.0003 
 3347000    105.21226   -5036.3128   -4833.4022   -5036.3128            0     2649.102    19.888834    20.043837     20.64469    8229.9755    2543.5965    2139.1298    3264.5796   -364.36413   -178.29404   -734.84903   -4515.4417 
 3348000     107.1664   -5045.0089   -4838.3295   -5045.0089            0    3061.6415    20.068929    19.916202    20.665554     8259.957     3066.271    2422.3804    3696.2731   -292.67961    497.69995    768.49369   -4469.5149 
 3349000    104.32819   -5040.9012   -4839.6955   -5040.9012            0    2255.6018    19.944491    20.034856    20.683765    8264.9222    2959.0811     979.6689    2828.0555   -343.22318    857.73532    477.31278   -4567.8156 
 3350000    107.45402   -5045.7775   -4838.5434   -5045.7775            0    3274.1334    19.910121    19.936874    20.656746    8199.6038    2636.3869    4434.6144     2751.399    187.49104    42.394616    802.83993   -4447.0133 
 3351000    104.96529   -5055.3137   -4852.8793   -5055.3137            0    2844.9424    20.083729    19.774983    20.676842    8211.9192    2396.3951    3565.1931     2573.239   -612.85644    489.67685   -308.90247   -4512.1621 
 3352000     107.0139   -5041.7951   -4835.4098   -5041.7951            0    2081.0809    19.906084    20.006549    20.642476     8220.908    2548.1204    1555.5465    2139.5758   -311.53246    -161.7284    342.95705   -4585.9017 
 3353000    105.79421   -5034.1746   -4830.1415   -5034.1746            0    2437.3185    20.025408    19.893458    20.658282    8229.7352    3525.1678    1319.6743    2467.1135   -606.13242   -1191.8305   -1.0481021   -4537.6091 
 3354000    111.78063   -5044.6297   -4829.0513   -5044.6297            0    3848.8827    19.914571    19.898059    20.661849    8187.4913    3328.3684    4230.4695    3987.8102   -678.25137    494.26192   -139.90184    -4369.471 
 3355000    111.50565   -5034.3931   -4819.3451   -5034.3931            0    2579.3985    19.970569    19.963929    20.744095    8270.4841    2306.6013     2978.277    2453.3173   -134.66362    602.37887   -960.69559    -4508.227 
 3356000    101.22981    -5042.079   -4846.8488    -5042.079            0    2176.9939    19.951536    19.952011    20.679251     8231.857    3455.4742    448.31403    2627.1933   -328.13848    650.17594     194.3366   -4585.4937 
 3357000     103.9374   -5032.6986   -4832.2466   -5032.6986            0    2188.0577    19.966754    19.901811    20.714241    8231.3123     1523.296    2411.7387    2629.1385    -153.5952    60.160656   -1201.9875   -4569.5807 
 3358000    104.04944   -5029.9824   -4829.3143   -5029.9824            0    2281.4411    19.902373    19.902696    20.868011    8266.0463    2437.6952    2532.9092     1873.719    -210.4259    366.02249   -603.70873   -4554.2825 
 3359000    107.29536   -5042.2989   -4835.3708   -5042.2989            0    3356.2295    19.900397    19.867705    20.829995    8235.6638    3133.7009     3814.941    3120.0467    257.90313   -806.20201   -185.92163   -4432.2584 
 3360000      110.799   -5038.9637   -4825.2785   -5038.9637            0    2747.8445    19.873499    19.920667    20.864885    8260.2692    3091.6835     2597.576    2554.2741   -4.3445945    201.60428   -224.23411   -4494.2524 
 3361000     110.4769   -5039.5177   -4826.4537   -5039.5177            0    2663.5712    19.857072    19.912919    20.873569    8253.6649    2186.5775    3862.0698    1942.0663    -193.2398   -236.12077   -29.137464   -4505.8363 
 3362000    103.35399   -5031.3331   -4832.0062   -5031.3331            0    2731.6616    20.096594    19.860941    20.696768    8260.8514    2257.6023    3864.2881    2073.0943   -454.16526    720.22362   -155.78566   -4502.9065 
 3363000     103.5327   -5048.1546    -4848.483   -5048.1546            0    2023.7957    19.941113    20.001757    20.722314    8265.2464    2976.6906    1649.4909    1445.2056   -142.95813   -93.066947    86.555413   -4604.5344 
 3364000     104.3692   -5032.4549   -4831.1702   -5032.4549            0    2202.5477    19.987026    19.955349    20.698666    8255.6232     2730.789    1411.7116    2465.1426    34.886465    150.32337    -832.6725   -4565.9839 
 3365000     106.9742   -5040.1057    -4833.797   -5040.1057            0    2128.4806     20.01507    19.920276    20.688562     8248.648    3378.6878    1619.2195    1387.5346   -184.33132    944.58653    425.78575   -4577.7448 
 3366000    100.22141   -5039.1469   -4845.8615   -5039.1469            0    3601.8047    19.879532    19.884144    20.730886    8194.6601    2720.3201    5039.2485    3045.8457   -203.59022    54.939991   -268.44363   -4415.4072 
 3367000    99.237843   -5036.9192   -4845.5307   -5036.9192            0    3445.7033    19.841963    19.928522    20.682166    8178.1625    3865.4975    3238.8004    3232.8121    118.14674   -1151.8602   -30.189203   -4434.5613 
 3368000    105.05208   -5048.7895   -4846.1877   -5048.7895            0    2891.0475    19.948895    19.872522    20.785693    8240.1731    2532.7104    2688.0642    3452.3679    110.64355    125.52396    476.66797   -4498.7576 
 3369000    103.79583   -5047.3524   -4847.1734   -5047.3524            0    2768.6935    19.912561    19.976732    20.751745     8254.793    2445.1664    2859.0067    3001.9074   -72.583099    156.80244    25.731048   -4513.8568 
 3370000    109.35934   -5048.1086   -4837.1999   -5048.1086            0    2838.4725    19.972726    19.908582    20.738966    8246.4072    3167.3617     3059.319    2288.7367  0.096441821    190.48332    228.85815   -4495.8299 
 3371000      99.7119   -5042.6083   -4850.3055   -5042.6083            0    2951.2113    19.947413    19.915813    20.706987    8226.2431    2600.3405    2890.6001    3362.6932   -717.26275    27.337386   -153.68026   -4496.2448 
 3372000    110.24124   -5037.9782   -4825.3686   -5037.9782            0     3278.435    20.000654    19.966166    20.581036     8218.756    4912.7538    1898.1397    3024.4115    480.59139    752.58283    166.09318   -4432.4085 
 3373000    107.12832    -5040.609    -4834.003    -5040.609            0    2859.5427     19.87181    20.094848    20.568662    8213.4987    4634.2018    987.47222     2956.954   -617.02957   -96.050794   -370.20632   -4491.4714 
 3374000    106.68303   -5037.8878   -4832.1406   -5037.8878            0    2712.1169    20.025619    19.976396    20.529682    8212.6879    2155.1964    2767.6987    3213.4556   -14.547587   -718.31989    762.39323   -4507.3006 
 3375000     108.6888   -5034.1109   -4824.4954   -5034.1109            0      2197.16    20.091347    19.935891    20.632948    8264.2985    2288.8474    1994.6425      2307.99   -403.24351    1085.6206   -343.59122   -4559.6798 
 3376000    101.90717   -5045.0306   -4848.4941   -5045.0306            0    4033.7058    19.787272    20.034163    20.634191    8179.8358     4694.963    3401.0889    4005.0654    265.89107    880.44753   -307.03317   -4367.2951 
 3377000    105.59529    -5044.848   -4841.1986    -5044.848            0    2395.2857    19.954335    19.952969    20.695733    8239.9694     1204.817    2973.1481     3007.892   -89.896314    723.46027    755.17279   -4553.3535 
 3378000    103.22286   -5041.3226   -4842.2486   -5041.3226            0    1994.1436    19.803217    20.030921    20.786369    8245.4675    1536.3859    1603.2551    2842.7898   -159.29747   -197.44292    187.07887   -4602.4495 
 3379000    108.84358   -5029.4094   -4819.4954   -5029.4094            0     1932.974    19.926342    19.960099    20.741275    8249.4638    2603.8194    1438.3418    1756.7607    307.76684    -140.2376   -604.10834   -4586.9394 
 3380000    99.907936   -5048.3981   -4855.7173   -5048.3981            0    2798.3394    19.827352    19.944732    20.801982    8226.1694    2824.1968    2879.1156     2691.706    -548.9282    354.95858    31.701328   -4519.9998 
 3381000    103.40571   -5049.5685   -4850.1419   -5049.5685            0    3526.9997    19.909592    19.850439    20.701821    8181.6522    2458.0141    4511.5901    3611.3949   -394.80358    571.08745   -96.587608   -4429.2968 
 3382000    108.69292   -5031.9648   -4822.3414   -5031.9648            0    2784.3623    19.918788    19.970664    20.687575    8229.3398    3092.6137    2927.4201    2333.0531   -446.29974    2010.8099   -920.87031    -4488.172 
 3383000    107.41427   -5029.1001   -4821.9427   -5029.1001            0     2642.485    19.999981    19.860254    20.794652    8259.7338    1998.7984    3568.2076    2360.4489   -32.499791    642.13628   -546.48526   -4503.6296 
 3384000    98.631294   -5033.8552   -4843.6364   -5033.8552            0    3143.5272    19.908297    19.850334    20.727508    8191.2284    3472.5747    3758.3621    2199.6449    141.32437   -516.96657    355.85382   -4468.1086 
 3385000    105.35189   -5043.1791   -4839.9991   -5043.1791            0    1946.6605    20.094546    19.889789    20.641636    8249.9723    1905.3372    2094.9484    1839.6958   -529.56796   -430.82946    50.559107    -4605.782 
 3386000    108.73312   -5039.8947   -4830.1938   -5039.8947            0     3375.815    19.849262    19.908462      20.7209    8188.2419    4384.4234     2710.481    3032.5405   -315.43858   0.35520463   -549.30473   -4427.0637 
 3387000     103.0639   -5042.5035   -4843.7362   -5042.5035            0    3368.4144    19.932366    19.915226    20.696045    8215.4518    4378.8084    2422.1796    3304.2553    148.48099   -559.41568    314.24247   -4440.1532 
 3388000    102.23729   -5038.5746   -4841.4013   -5038.5746            0    2353.3645     19.94945    20.049095    20.609779     8243.261    2978.0499    1917.2361    2164.8074   -83.077117    271.52335   -986.32563    -4558.481 
 3389000    100.65334   -5045.9345   -4851.8161   -5045.9345            0    3347.7383     19.87425    20.000819    20.613399    8193.8523    3687.3167    2541.6339    3814.2642   -161.73965   -379.50588   -141.13466   -4451.7649 
 3390000     108.8331   -5044.9946   -4835.1008   -5044.9946            0    2138.5665    19.964318     20.00983    20.636026    8243.7334    2440.3548    1701.2539    2274.0909   -132.80314   -240.01038    1166.4614   -4577.9887 
 3391000     101.7742   -5033.0924   -4836.8122   -5033.0924            0    2086.9845    20.083258     19.85861    20.628936    8227.3477    1901.0519    1860.6317    2499.2698   -121.13539     376.5363    422.04067   -4586.4003 
 3392000     103.2389   -5037.2456   -4838.1407   -5037.2456            0    3785.7625    20.016621    19.862724     20.65021    8210.2057    4006.4729    3864.9829    3485.8318    -707.8643   -55.492427    1055.1369   -4384.8432 
 3393000    103.39105   -5042.8696   -4843.4713   -5042.8696            0     2294.381    19.916733    20.049324     20.69256    8262.8917    2235.8098    1746.2404    2901.0928   -341.70259   -638.32652   -272.82082    -4566.985 
 3394000     106.4598   -5043.3305   -4838.0138   -5043.3305            0    2643.8122    19.933406    19.876436     20.79041     8237.266    2505.4045    2885.3611    2540.6709   -163.48285   -37.038773   -726.42719   -4520.4072 
 3395000    105.77098   -5040.0226   -4836.0344   -5040.0226            0    2548.0867    19.790605    19.897457     20.86162    8214.9451    3206.9779    2643.6948    1793.5874    176.13811   -682.32697    214.75729   -4530.7569 
 3396000    105.35223   -5047.1154   -4843.9348   -5047.1154            0    2301.2636    19.872244    19.933974    20.752075    8220.5777    2875.8126    1271.7359    2756.2422    236.00865    292.08358   -747.22373   -4568.0393 
 3397000    107.98282   -5060.5922   -4852.3382   -5060.5922            0    1017.9159    20.026839    20.002627    20.719252    8299.9126    1468.9639    188.45752    1396.3263   -123.52292    303.28119    791.77355   -4729.1239 
 3398000    103.43264   -5042.0154   -4842.5368   -5042.0154            0    3032.8449    19.899255    19.927217     20.73567    8222.4553    3647.0409    2626.8693    2824.6245     80.81212    607.11061   -220.81336     -4478.85 
 3399000    109.43473    -5042.148   -4831.0939    -5042.148            0    3046.0791    20.000099    19.947372     20.68168    8250.9439    3751.7752    2351.9558    3034.5062   -452.22589   -377.27815    244.46303   -4464.5545 
 3400000    105.53136   -5042.5238   -4838.9977   -5042.5238            0    3283.9151    19.893943    19.894853    20.785467    8226.6189    3451.3625    3202.8925    3197.4905   -445.96356    60.588588   -526.19474   -4445.0041 
 3401000    109.20711    -5029.493   -4818.8779    -5029.493            0    2277.5992    19.936014    19.827898    20.861346    8246.2662    2801.1181    1777.0741    2254.6054     182.9771    666.54316   -693.54514   -4544.9662 
 3402000     113.6604   -5050.1913   -4830.9876   -5050.1913            0     2707.394    19.931976     19.83887    20.879007    8256.1416    1931.7054     4229.215    1961.2614   -45.767846    62.451165   -199.88431   -4504.9975 
 3403000    103.62764   -5038.9028   -4839.0482   -5038.9028            0    2386.1188    20.007491    19.811512    20.843795    8262.0352    2809.6751    2790.4453    1558.2361   -480.51095    523.60749    68.136288   -4551.5368 
 3404000    105.00539   -5041.3848   -4838.8731   -5041.3848            0    3139.1663    19.910669    19.927799    20.719705    8221.0781    3330.1422    2941.3929    3145.9637   -201.80553   -235.68077    559.40491   -4462.4997 
 3405000    108.44508   -5049.6922   -4840.5468   -5049.6922            0    3023.5848    19.935449    19.823225    20.826208    8230.2031    2933.8825    3890.0343    2246.8375    320.03431    702.72608   -335.59984   -4477.6287 
 3406000    105.36759    -5051.626   -4848.4157    -5051.626            0     2211.387    19.976388    19.929477    20.818127    8288.0915     1101.665    3776.3506    1756.1454   -272.67308    472.60547   -676.34342   -4581.1181 
 3407000    105.84805   -5039.3441   -4835.2072   -5039.3441            0    2623.2799    19.814978    20.141284    20.710416    8265.5084    4021.1616    1237.3531    2611.3251   -127.49003    33.043942    497.49031   -4518.9867 
 3408000    102.29571   -5047.7987   -4850.5128   -5047.7987            0    2606.9872    19.948583    19.984873    20.649368    8232.2816    3087.7294    2646.9816    2086.2505   -18.844331   -690.28218    344.26247   -4537.5196 
 3409000    103.15986   -5044.7293   -4845.7769   -5044.7293            0    2902.2463    19.880965    20.026061    20.612261    8206.5122    3456.4288    2490.5249    2759.7852   -19.498961    870.97564    338.20891   -4498.4257 
 3410000     100.0322   -5025.1547   -4832.2342   -5025.1547            0    3519.6542    19.926927    19.970305    20.604131    8199.3482    2970.9172    3654.7088    3933.3366   -353.32471    323.27739   -776.26738   -4411.3571 
 3411000    101.73275   -5042.0307   -4845.8305   -5042.0307            0    1275.0507     19.84815    20.056977    20.780647    8272.6483    2189.4909     380.9523    1254.7089    406.60747    476.82368    498.36576   -4691.9981 
 3412000    106.36399   -5038.3346   -4833.2027   -5038.3346            0    2510.4174    19.987556    19.900349    20.698743    8233.1181    2565.6274     1952.111    3013.5138   -84.864636    280.41843   -1060.7586   -4531.7729 
 3413000    105.31443   -5035.4222   -4832.3145   -5035.4222            0    3275.0376    19.762061    20.005763    20.752929    8204.7769    3807.8194     3358.707    2658.5865   -276.78165    408.30438    347.23802   -4440.4292 
 3414000    102.88643    -5041.922   -4843.4969    -5041.922            0    2757.7148    19.964563    19.944402    20.677604    8233.4345    3278.9332    1952.6487    3041.5625   -619.36234    1117.2879    960.77579    -4512.361 
 3415000    109.73286   -5047.3361    -4835.707   -5047.3361            0    3250.4844    19.987098    19.858017    20.620332    8184.2948    3329.7931    3952.6199    2469.0402   -167.25546   -521.08917    352.36129   -4447.7307 
 3416000    106.47475   -5035.2291   -4829.8836   -5035.2291            0    4343.9915    19.958915    19.931091    20.640262    8210.7573    3643.9558     4938.981    4449.0378    280.12829   -147.00304   -769.21248   -4309.7103 
 3417000    105.61946   -5035.8401   -4832.1441   -5035.8401            0    3863.2586    20.097446    19.801447    20.558259    8181.3343    3026.9351    3514.2844    5048.5563    362.49738   -503.39111   -103.50551   -4371.1941 
 3418000    106.43583    -5026.532   -4821.2616    -5026.532            0    3501.8046    19.968645    19.905366    20.639902    8204.0138    2998.4124    4312.2256    3194.7759   -165.18198   -35.942937    1205.7812   -4402.2807 
 3419000    111.37144   -5037.0995   -4822.3104   -5037.0995            0    2646.6535    20.031495    19.946216    20.621787     8239.487    2477.9128    1731.0634    3730.9845    418.84572    583.44624    404.47588   -4504.2766 
 3420000    103.11181   -5032.1743   -4833.3145   -5032.1743            0    2494.4418    19.949698    19.907547    20.710626    8225.2158    1612.1493    3283.4463    2587.7297    -123.9052    555.53145    45.043743   -4534.0904 
 3421000    108.54595   -5041.0382   -4831.6982   -5041.0382            0    2177.6325    19.997618    19.957422    20.683706    8254.8859    1436.4903    2461.8256    2634.5817   -164.11286    120.55667   -303.56327   -4569.5351 
 3422000    105.01879   -5043.2827   -4840.7451   -5043.2827            0    3608.2695    19.837436    20.028187    20.667758    8211.4631    4728.9073    2585.2461    3510.6551   -282.48229    418.69991    709.76152   -4408.6341 
 3423000    105.05344   -5051.2191   -4848.6147   -5051.2191            0    4429.8611    19.951724    19.819461    20.829426    8236.6304    4210.2188    5349.9438    3729.4208   -236.84861    8.9037488   -45.573038   -4316.4874 
 3424000    104.12482   -5036.6777   -4835.8643   -5036.6777            0    3071.1832    19.912439     19.94297    20.659285    8204.0744    3667.9794    3197.6813     2347.889   -9.8005707   -117.22484   -574.40731   -4468.4033 
 3425000    105.65072   -5044.3543    -4840.598   -5044.3543            0    3524.7796    19.933521    19.917541    20.617483    8185.6921    4025.0524    3814.1634    2735.1231    455.64892    776.64777    810.64013   -4419.8101 
 3426000    101.01028   -5041.5091   -4846.7023   -5041.5091            0    3914.6931    19.843674    19.863843    20.743797    8176.6159    2778.3109    5291.7425    3674.0259   -247.11666    763.22819    32.428263   -4379.8847 
 3427000    102.44597   -5033.0114   -4835.4358   -5033.0114            0    1651.6229    19.877637    19.903956     20.86646    8255.6817    3324.3382    489.15602    1141.3743   -176.77608    1301.4297    376.28222   -4636.5793 
 3428000    108.42549   -5044.9808   -4835.8731   -5044.9808            0    2499.5306    20.041241    19.814547    20.714606    8225.9378    1078.9377    4398.1499    2021.5042   -19.576967    608.64063   -508.72868   -4536.0123 
 3429000    106.05236   -5031.1501   -4826.6192   -5031.1501            0    2467.5336    19.990602    19.903072    20.789074    8271.4397    2017.6162    2907.8113    2477.1733    539.35977    107.17753   -730.32328   -4528.9595 
 3430000     109.7304   -5041.9754   -4830.3511   -5041.9754            0    2373.0401    19.989139    19.817667    20.879185    8271.0407    2377.2003    2519.8387    2222.0814   -201.28881    1238.5911    218.97411    -4544.104 
 3431000    97.665015   -5028.3591   -4840.0039   -5028.3591            0    3242.4076     20.01908    19.957497    20.581082    8222.7746    2616.7076    3305.7019    3804.8133    -95.30624    761.66742    1051.6354    -4451.172 
 3432000    109.76323   -5050.6912   -4839.0036   -5050.6912            0    2892.7644    19.880291    19.984104    20.731522    8236.4227    2580.8214    3117.9732    2979.4987    -366.9615    380.78753   -215.64279   -4491.5254 
 3433000    102.78351   -5044.9189   -4846.6922   -5044.9189            0    2887.6175    19.946557    19.906331    20.674778    8209.1846    3222.4396    2692.8699    2747.5431   -340.75887    496.54754     82.82617   -4500.9793 
 3434000    102.98187   -5048.3458   -4849.7366   -5048.3458            0    2189.7376    19.997629     19.81188    20.886382    8274.9887    1900.3184    2194.8314    2474.0631   -103.56891   -378.23996    266.67392   -4585.4742 
 3435000    108.89419    -5036.535   -4826.5234    -5036.535            0    2435.4882     19.90274    19.937413     20.73981    8229.7464    3553.2251    1369.9927    2383.2467   -233.67266    169.69336    582.79057   -4534.2102 
 3436000    106.12314   -5031.9935   -4827.3261   -5031.9935            0    2330.7269    19.980878      19.9214    20.784114    8273.0555    3346.1749    1491.2935    2154.7125     192.9004    1866.5648   -834.48211   -4546.1145 
 3437000    105.32366   -5047.4526   -4844.3271   -5047.4526            0    2426.1882    19.972906    19.900129    20.827073    8277.9995     1858.878    3140.8702    2278.8163   -509.18363    304.19489    500.98701   -4551.4228 
 3438000    107.00453   -5035.7944   -4829.4272   -5035.7944            0    3736.3647    19.936954    19.780064    20.842291    8219.2452     3661.445    4680.5894    2867.0596   -166.70484    468.57909     69.33768   -4381.5519 
 3439000    100.90816   -5044.0469    -4849.437   -5044.0469            0    2892.3409     19.83379    19.957355       20.807    8236.0344    3906.7577    2123.8517    2646.4132    118.51917   -390.89596    73.147914    -4502.026 
 3440000    104.82353   -5024.9304   -4822.7694   -5024.9304            0    3207.7703    19.913968    19.830209    20.844177    8231.3269    3838.1576     3517.156    2267.9972   -120.66515   -662.96386    279.95272   -4437.6912 
 3441000    103.97635   -5038.7113   -4838.1842   -5038.7113            0    2532.4333    20.020064    19.911231    20.762154    8276.2952    2040.8517    2690.0452    2866.4031   -123.91605    -403.6909   -728.88971   -4532.5162 
 3442000    105.09233   -5036.7004    -4834.021   -5036.7004            0    2561.8852    19.907697    19.938793    20.709347    8220.2744    2157.0441    3048.4343    2480.1771   -143.08372    528.25177     -752.273   -4526.8913 
 3443000    103.98535   -5036.7134   -4836.1689   -5036.7134            0    3062.1585    19.962127    19.959745    20.761828    8272.3214     2533.462    3198.9303    3454.0833    96.664755    168.00901   -367.42936   -4466.7399 
 3444000    109.50561   -5039.5695   -4828.3787   -5039.5695            0    1595.3518    20.115594     19.81789    20.662358    8237.0207    736.90836    3006.8849    1042.2621   -415.28791   -456.58763    -103.4691   -4636.7315 
 3445000    104.19413   -5036.6263   -4835.6792   -5036.6263            0    2387.2449    19.928701    19.931637    20.723883    8231.7674    2760.4213    2389.6577    2011.6556    340.22125    1312.3557     206.1413    -4549.086 
 3446000    109.50028   -5049.9104   -4838.7299   -5049.9104            0    3393.3772    19.888736    19.890688    20.815179    8234.4983    3542.4764    4132.0402    2505.6149   -474.98553    1719.9986    377.52427   -4431.2135 
 3447000    104.87526    -5041.773   -4839.5123    -5041.773            0    2166.0553    20.103099    19.827237    20.743743     8268.226    1541.9738    2968.9856    1987.2066    180.54527    192.53194   -415.45183   -4578.3215 
 3448000    102.67683   -5034.2992   -4836.2783   -5034.2992            0    2838.8804    20.058623    19.888021    20.649294    8237.5466    1859.1434    3274.3406    3383.1571   -209.90023    895.63048   -213.09749   -4495.2261 
 3449000    105.49325   -5029.4666   -4826.0139   -5029.4666            0    3412.0206    20.005725    19.894391    20.629989    8210.7707    2211.5632    3488.3294    4536.1694   -323.45841     829.1343    470.10484   -4417.4393 
 3450000    101.72123   -5038.2531   -4842.0751   -5038.2531            0    3440.6204    19.923248    19.962014    20.574603    8182.6874    4386.6669    2262.0354    3673.1589    130.61625   -474.99228    433.20853   -4431.4849 
 3451000    105.16139   -5044.7123   -4841.8997   -5044.7123            0    1856.5833    20.080019    19.978204    20.617934     8271.146    323.50989    2468.0611    2778.1788   -148.52764    392.31541   -105.73427   -4617.9472 
 3452000    105.98464   -5038.0401   -4833.6398   -5038.0401            0    3653.9819    19.984765    19.904129    20.526967    8165.2034    3859.7544    3676.3605    3425.8309    271.68422    7.8828979   -199.92617   -4398.5196 
 3453000    103.53558   -5048.5024   -4848.8253   -5048.5024            0    3122.7929     20.06662    19.867328    20.596396    8211.1677    2307.2079    4459.5849    2601.5861   -688.71396    457.70911    872.33261   -4474.8663 
 3454000    101.66526   -5040.6048   -4844.5348   -5040.6048            0     4691.968    19.917879    19.900934    20.651644    8185.9894     5893.063      3633.66     4549.181   -99.974896      336.526   -956.00121   -4284.3877 
 3455000     100.5794   -5045.7066   -4851.7307   -5045.7066            0    2857.9715    19.940657    19.959608    20.693048    8235.9923    2118.8071    4055.3631    2399.7442   -102.19787   -411.04802    552.64715   -4508.4498 
 3456000    99.302254   -5037.6559   -4846.1431   -5037.6559            0    3157.3717    19.959217    19.977327    20.601101    8214.3143    3146.3019    2300.6853    4025.1281   -250.40592   -572.83577   -17.128925   -4467.8984 
 3457000    104.50543    -5040.846   -4839.2985    -5040.846            0    571.71181    20.089817    20.017013    20.650522     8304.362    580.89083   -505.68682    1639.9314    293.03333    1129.7179   -204.64269   -4770.0581 
 3458000    108.37272   -5040.9145   -4831.9086   -5040.9145            0    2501.6239    20.079207    19.838102    20.710114    8249.5293    3174.9166    2236.2736    2093.6814    227.93226    240.34404    858.60852   -4530.9359 
 3459000    103.72375   -5039.4298   -4839.3898   -5039.4298            0    3277.1947    20.004792    19.861643    20.694049    8222.3259    3767.0994    3087.1208     2977.364   -213.39715    364.05928   -179.05243   -4446.4077 
 3460000    108.12885   -5029.0546   -4820.5191   -5029.0546            0     3897.033     20.01764    19.902924    20.487787    8162.5303    4051.4314    3568.0162    4071.6513    114.91032    770.68398    31.077006    -4356.608 
 3461000     103.8787   -5034.1019   -4833.7631   -5034.1019            0    3233.5537    19.782454     20.03599    20.655455    8187.0178    5338.1441    1073.7974    3288.7196   -9.2127337   -282.52362   -400.19997   -4447.6792 
 3462000    103.15204   -5034.0367   -4835.0993   -5034.0367            0    2842.7987    20.090383    19.862894    20.613383    8225.8359    2306.3851    3652.2743    2569.7366    260.18422    194.08744    367.43118   -4494.0619 
 3463000     106.4185   -5034.0433   -4828.8062   -5034.0433            0    2829.2637    19.953295    20.023866    20.666839    8257.2722    2297.9303    2873.6685    3316.1923   -438.54566    24.189511   -763.01444   -4488.0954 
 3464000    105.81456    -5037.937   -4833.8647    -5037.937            0    3530.8748    19.992947    19.884746    20.613376    8194.9439    4220.9444    2602.8749     3768.805    114.84844    93.278901    483.73104   -4411.8727 
 3465000    102.49633    -5051.594   -4853.9213    -5051.594            0    3302.2331    19.882459    20.016997    20.627548    8209.4985     4158.641    2728.3354    3019.7228   -121.21266    393.74085   -520.31358   -4458.5544 
 3466000    100.93449   -5037.7248   -4843.0642   -5037.7248            0     3100.099    19.927413    19.906396    20.648662     8190.973     3747.224    1852.0169    3701.0562    312.43255    86.439697    461.45568   -4472.7358 
 3467000    103.43558   -5053.4202    -4853.936   -5053.4202            0    1963.6605    19.916045    19.964032    20.841555    8286.6974    1380.9005    2626.0548    1884.0263   -245.88835    54.068751    221.60513   -4616.6217 
 3468000    110.20953   -5039.5534   -4827.0051   -5039.5534            0    3694.5587    20.034075    19.732947    20.815946    8229.1959    1588.6183     5235.797    4259.2609    286.31524    1309.3288    -1107.542   -4383.6049 
 3469000    105.13866   -5034.3356   -4831.5668   -5034.3356            0     3483.809    19.994342    19.921054    20.743388    8262.2654    3381.7452    4032.6936    3036.9882   -342.27369    623.87604   -26.209277   -4411.7794 
 3470000    100.27219    -5043.295   -4849.9116    -5043.295            0    3532.4947    19.981667    19.763529    20.856507    8236.4067    3825.4386    4072.3986    2699.6467    227.06163    691.49616    708.92138     -4425.59 
 3471000     102.8768   -5038.7696    -4840.363   -5038.7696            0    2730.6406    20.024935    19.897895    20.747147    8266.7846    1735.9039    3087.3329    3368.6849     11.38687    249.88509   -310.83355     -4511.15 
 3472000    100.83886   -5043.9828   -4849.5066   -5043.9828            0    3144.9356    19.846921    19.844258    20.895375    8229.5895    4122.4186    2974.9003    2337.4877   -375.17938   -140.74845   -139.87837   -4472.0511 
 3473000    100.20063   -5033.1979   -4839.9526   -5033.1979            0    4499.1825    19.886137    19.768822    20.855871    8198.9746    4356.2225    5499.0255    3642.2995    84.059011    409.73993    52.521783   -4301.9689 
 3474000    108.57456    -5046.885   -4837.4898    -5046.885            0    2132.3409    19.940092    19.875303    20.754914    8225.4916    2083.7027    2789.6397    1523.6803   -329.48754     451.1615    1382.7115   -4581.6934 
 3475000    103.72521   -5045.8835   -4845.8407   -5045.8835            0    2816.3096    19.937894     19.83092     20.78073    8216.4259    3121.3487    2477.2106    2850.3694   -166.03424    806.59583   -233.96106   -4508.3675 
 3476000    100.84517   -5031.4028   -4836.9144   -5031.4028            0    3374.0127    19.972421    19.850994    20.684631    8200.8859    3280.4603    3448.0576    3393.5201    226.58327    162.44255    58.632226   -4433.3774 
 3477000    110.87028   -5021.9739   -4808.1513   -5021.9739            0    3115.5673    20.094977    19.938735    20.477897    8204.8469    3024.4696    2425.3727    3896.8597   -109.28881   -63.635442    654.33999   -4435.3448 
 3478000    112.05346   -5042.5545     -4826.45   -5042.5545            0    2185.4222    20.078451    19.958132    20.609302    8258.7321    1886.2384    1620.6148    3049.4136    465.40859   -134.20554    691.06628   -4563.2265 
 3479000     109.6938   -5042.7793   -4831.2256   -5042.7793            0    2837.1221    20.078467     19.93096     20.55742    8226.7326    1776.1626    2459.6091    4275.5946   -99.115383    774.05007    253.70288    -4490.832 
 3480000    114.43289   -5039.5053   -4818.8118   -5039.5053            0    3240.9948    19.976902    19.917645    20.590295    8192.7311    2924.0351    2862.4112     3936.538   -58.702432    38.749316   -73.286187   -4431.5694 
 3481000    106.76766   -5037.0416   -4831.1312   -5037.0416            0    1901.9942    19.986519    19.982318     20.71527    8273.2018    2420.1245    1893.7457    1392.1123   -69.917085    88.740575   -603.22795   -4601.6438 
 3482000    105.97015   -5040.1258   -4835.7535   -5040.1258            0    2879.7305    19.997776    19.885833    20.638409    8207.3262    2555.4881    2563.4642    3520.2391    273.96835    247.97371    200.79976   -4491.0629 
 3483000    102.96817   -5042.6638    -4844.081   -5042.6638            0    1933.5104    20.010525    19.872955    20.775306      8261.68    1459.2338    2924.4321    1416.8654    -104.3789   -222.92272   -199.71507    -4611.116 
 3484000    107.94168    -5040.786   -4832.6114    -5040.786            0    2618.9876    19.973432     19.91425    20.839405    8288.9965    2678.6435    3043.1952    2135.1242   -548.63046    574.59717   -58.312183   -4516.0111 
 3485000     100.1168   -5043.2011   -4850.1175   -5043.2011            0    1822.6925    20.081646    19.945906    20.727055    8302.1517    1220.5594    1250.9365    2996.5815   -162.63417    668.32509    547.61567   -4629.4288 
 3486000    101.80259    -5044.058   -4847.7231    -5044.058            0    1584.3728    19.993895    19.932719    20.811677    8294.1335    1075.3044    1736.6029    1941.2111    219.36271   -837.37182   -211.18844   -4656.0751 
 3487000    99.905412   -5032.5427   -4839.8667   -5032.5427            0    2585.0095    20.040686    19.882269    20.657133    8230.9237    2508.0447    2276.2453    2970.7385   -339.40821   -547.25202   -491.44635   -4529.5632 
 3488000    105.69159   -5032.9904   -4829.1553   -5032.9904            0    2165.5766    20.052829    19.908379    20.651134    8244.3314    1606.3823    2741.5778    2148.7696    312.67647    912.61623    459.68609    -4568.777 
 3489000    104.17182   -5038.4551    -4837.551   -5038.4551            0    2552.4557    20.069135    19.947323    20.545955      8225.07    1874.0125    2570.7852    3212.5694   -98.193674    506.69334    342.46303   -4531.3732 
 3490000    109.63922   -5042.0146   -4830.5662   -5042.0146            0    3755.1089    19.867659    19.906166    20.780812    8218.5808    4196.6931    4191.6917    2876.9418    17.142905   -124.06923    84.243987   -4380.4804 
 3491000    103.42836   -5046.5524   -4847.0821   -5046.5524            0    1758.0926     19.89431    19.896462    20.896293    8271.3039     2758.175     1104.467    1411.6358   -127.42758    292.86431    1118.7476    -4635.006 
 3492000    104.57235        -5040   -4838.3235        -5040            0    2922.7699    19.902096    19.872539    20.802054      8227.32    3729.8062    2936.6074    2101.8962    176.15504    900.06922    160.96095    -4487.629 
 3493000    102.79371   -5028.1067   -4829.8604   -5028.1067            0    2303.3032    19.868698    20.003526    20.723046    8236.2509    2107.1897    2207.2081    2595.5118   -56.405566   -435.11801    324.62373   -4553.1939 
 3494000    108.37221   -5041.2585   -4832.2536   -5041.2585            0    3194.6872    19.911449    19.813979    20.747738    8185.5018    3275.4735    3502.7123    2805.8758   -111.02526   -961.43688    42.363082   -4450.8809 
 3495000    111.82591   -5034.4459   -4818.7802   -5034.4459            0    3226.2132    19.946053    20.067583    20.584543    8239.3558    3651.9643    2102.0431    3924.6322    36.054667    -351.2172   -1250.6022   -4431.1102 
 3496000    108.68124   -5042.3617   -4832.7608   -5042.3617            0    2234.1855    19.923938     20.02892    20.747085    8279.2272    3140.8547    1921.1257    1640.5763    -130.2499    180.10558    522.78122   -4562.9962 
 3497000    106.29464   -5041.6681     -4836.67   -5041.6681            0    2514.1684    19.973537    19.791669    20.697576    8181.9515     1234.607    4290.2338    2017.6644   -376.26597    12.347323   -508.89759   -4536.6659 
 3498000    104.95486   -5028.1738   -4825.7595   -5028.1738            0    3216.6064    19.848435    20.014431    20.681815    8215.9568     3055.943    3854.5805    2739.2958    11.669151    338.92398   -1130.3842   -4440.3415 
 3499000    106.97912   -5053.7881   -4847.4699   -5053.7881            0    2073.2522    20.071732    19.950692    20.590931    8245.5341    843.66573    1804.6886    3571.4022   -413.20919   -199.41964   -226.83581   -4598.1558 
 3500000    110.45968   -5032.8044   -4819.7736   -5032.8044            0    2475.8111    19.989443    19.883229    20.732549    8240.2483    2804.4327     2192.893    2430.1077      94.6711    418.73103    266.89755   -4522.2416 
Loop time of 350.757 on 64 procs for 250000 steps with 972 atoms

Performance: 123.162 ns/day, 0.195 hours/ns, 712.745 timesteps/s
99.0% CPU use with 64 MPI tasks x 1 OpenMP threads

MPI task timing breakdown:
Section |  min time  |  avg time  |  max time  |%varavg| %total
---------------------------------------------------------------
Pair    | 18.633     | 27.69      | 37.712     |  87.4 |  7.89
Bond    | 0.25876    | 0.27621    | 0.29358    |   1.2 |  0.08
Kspace  | 138.06     | 147.97     | 157.12     |  38.4 | 42.19
Neigh   | 0.69615    | 0.71353    | 0.7339     |   1.0 |  0.20
Comm    | 81.894     | 82.843     | 83.779     |   6.7 | 23.62
Output  | 0.6067     | 0.60765    | 0.60915    |   0.0 |  0.17
Modify  | 84.226     | 85.114     | 86.041     |   5.2 | 24.27
Other   |            | 5.544      |            |       |  1.58

Nlocal:        15.1875 ave          19 max          11 min
Histogram: 1 8 7 7 0 14 5 12 8 2
Nghost:        2253.61 ave        2300 max        2222 min
Histogram: 7 5 13 8 12 6 5 4 3 1
Neighs:        4780.25 ave        6477 max        3267 min
Histogram: 2 10 6 8 8 11 4 7 7 1

Total # of neighbors = 305936
Ave neighs/atom = 314.74897
Ave special neighs/atom = 2.0000000
Neighbor list builds = 1923
Dangerous builds = 0

unfix		3
unfix		2
unfix		1

write_data	data.final.${pid}
write_data	data.final.1
System init for write_data ...
PPPM initialization ...
  extracting TIP4P info from pair style
  using 12-bit tables for long-range coulomb (../kspace.cpp:340)
  G vector (1/distance) = 0.3726577
  grid = 24 24 25
  stencil order = 5
  estimated absolute RMS force accuracy = 0.0033774251
  estimated relative force accuracy = 1.0171015e-05
  using double precision FFTW3
  3d grid and FFT values/proc = 2366 288
Last active /omp style is kspace_style pppm/tip4p/omp
WARNING: Not all mixed pair coeffs generated from mixing. Use write_data with 'pair ij' option to store all pair coeffs. (../write_data.cpp:312)

write_restart   restart.lmp.${pid}
write_restart   restart.lmp.1
System init for write_restart ...
PPPM initialization ...
  extracting TIP4P info from pair style
  using 12-bit tables for long-range coulomb (../kspace.cpp:340)
  G vector (1/distance) = 0.3726577
  grid = 24 24 25
  stencil order = 5
  estimated absolute RMS force accuracy = 0.0033774251
  estimated relative force accuracy = 1.0171015e-05
  using double precision FFTW3
  3d grid and FFT values/proc = 2366 288
Last active /omp style is kspace_style pppm/tip4p/omp
Total wall time: 0:05:50
