LAMMPS (30 Jul 2021)
  using 1 OpenMP thread(s) per MPI task
package omp 0
using multi-threaded neighbor list subroutines
echo both

include		in.partitions
variable        pid world 0
include		in.temp
variable        temperature equal 261.95
variable	tempDamp equal 100.0
include		in.pressure
variable        pressure equal 3500.0
variable        pressureDamp equal 1000.0 # This is 1 ps
include		in.seed
variable        seed world 745823

units		real
atom_style	full
read_restart	restart.lmp.${pid}
read_restart	restart.lmp.0
Reading restart file ...
  restart file = 30 Jul 2021, LAMMPS = 30 Jul 2021
  restoring atom style full from restart
  orthogonal box = (0.38393563 1.5437567 0.46840057) to (17.823637 22.085421 21.744795)
  4 by 4 by 4 MPI processor grid
  restoring pair style lj/cut/tip4p/long/omp from restart
  restoring bond style harmonic/omp from restart
  restoring angle style harmonic/omp from restart
  864 atoms
  576 bonds
  288 angles
Finding 1-2 1-3 1-4 neighbors ...
  special bond factors lj:    0        0        0       
  special bond factors coul:  0        0        0       
     2 = max # of 1-2 neighbors
     1 = max # of 1-3 neighbors
     1 = max # of 1-4 neighbors
     2 = max # of special neighbors
  special bonds CPU = 1.520 seconds
  read_restart CPU = 1.862 seconds
include 	in.setup
variable	out_freq equal 1000
variable	out_freq2 equal 10000
variable	out_freq3 equal 1000

timestep	2.0

neigh_modify    delay 7 every 1

include		in.tip4p
# This is TIP4P/Ice

# create groups ###
group ox type 2
288 atoms in group ox
group hy type 1
576 atoms in group hy

# set charges - beside manually ###
set group ox charge -1.1794
Setting atom values ...
  288 settings made for charge
set group hy charge 0.5897
Setting atom values ...
  576 settings made for charge

# ### TIP3P Potential Parameters ###
pair_style lj/cut/tip4p/long/omp 2 1 1 1 0.1577 8.5
pair_coeff 1 1*2 0.000 0.000
pair_coeff 2 2 0.21084 3.1668
bond_style  harmonic
bond_coeff  1 450 0.9572
angle_style harmonic
angle_coeff 1 55 104.52
kspace_style pppm/tip4p/omp 1.0e-5
pair_modify tail yes

thermo          ${out_freq}
thermo          1000
thermo_style    custom step temp pe etotal epair emol press lx ly lz vol pxx pyy pzz pxy pxz pyz enthalpy

restart 	${out_freq3} restart.lmp.${pid} restart2.lmp.${pid}
restart 	1000 restart.lmp.${pid} restart2.lmp.${pid}
restart 	1000 restart.lmp.0 restart2.lmp.${pid}
restart 	1000 restart.lmp.0 restart2.lmp.0


include         in.dump
dump            myDump all atom ${out_freq2} dump.water.${pid}
dump            myDump all atom 10000 dump.water.${pid}
dump            myDump all atom 10000 dump.water.0
dump            myDump2 all dcd ${out_freq2} dump.dcd
dump            myDump2 all dcd 10000 dump.dcd
dump_modify     myDump append yes
dump_modify     myDump2 append yes


variable natoms 	equal  "count(all)"                        # NUMBER ATOMS
variable H      	equal  "enthalpy/v_natoms"                 # ENTHALPY-per-atom
variable Vol      	equal  "vol/v_natoms"                 # volume-per-atom
fix AVG all 		ave/time ${out_freq} 1 ${out_freq} v_Vol v_H file vol_enthalpy.dat
fix AVG all 		ave/time 1000 1 ${out_freq} v_Vol v_H file vol_enthalpy.dat
fix AVG all 		ave/time 1000 1 1000 v_Vol v_H file vol_enthalpy.dat


timer           timeout 23:50:00 every 1000
New timer settings: style=normal  mode=nosync  timeout=23:50:00

fix 		1 all shake 1e-6 200 0 b 1 a 1
       0 = # of size 2 clusters
       0 = # of size 3 clusters
       0 = # of size 4 clusters
     288 = # of frozen angles
  find clusters CPU = 0.062 seconds
fix             2 all nph iso ${pressure} ${pressure} ${pressureDamp}
fix             2 all nph iso 3500 ${pressure} ${pressureDamp}
fix             2 all nph iso 3500 3500 ${pressureDamp}
fix             2 all nph iso 3500 3500 1000
fix             3 all temp/csvr ${temperature} ${temperature} ${tempDamp} ${seed}
fix             3 all temp/csvr 261.95 ${temperature} ${tempDamp} ${seed}
fix             3 all temp/csvr 261.95 261.95 ${tempDamp} ${seed}
fix             3 all temp/csvr 261.95 261.95 100 ${seed}
fix             3 all temp/csvr 261.95 261.95 100 745823

run             250000
PPPM initialization ...
  extracting TIP4P info from pair style
  using 12-bit tables for long-range coulomb (../kspace.cpp:340)
  G vector (1/distance) = 0.37359679
  grid = 24 24 25
  stencil order = 5
  estimated absolute RMS force accuracy = 0.0031464168
  estimated relative force accuracy = 9.4753407e-06
  using double precision FFTW3
  3d grid and FFT values/proc = 2730 288
Last active /omp style is kspace_style pppm/tip4p/omp
Neighbor list info ...
  update every 1 steps, delay 7 steps, check yes
  max neighbors/atom: 2000, page size: 100000
  master list distance cutoff = 10.8154
  ghost atom cutoff = 10.8154
  binsize = 5.4077, bins = 4 4 4
  1 neighbor lists, perpetual/occasional/extra = 1 0 0
  (1) pair lj/cut/tip4p/long/omp, perpetual
      attributes: half, newton on, omp
      pair build: half/bin/newton/omp
      stencil: half/bin/3d
      bin: standard
Per MPI rank memory allocation (min/avg/max) = 9.237 | 9.241 | 9.249 Mbytes
Step Temp PotEng TotEng E_pair E_mol Press Lx Ly Lz Volume Pxx Pyy Pzz Pxy Pxz Pyz Enthalpy 
 2000000    273.16655   -3863.4691    -3395.271   -3863.4691            0    5446.2152    17.439701    20.541664    21.276395     7622.066     5927.509    5211.1445     5199.992   -838.41518    211.97827   -329.58275   -2789.8696 
 2001000     271.8681   -3880.7164   -3414.7438   -3880.7164            0    2515.9809    17.533425    20.652059    21.390738    7745.6149    3286.4591    2343.6113    1917.8724    1052.9535    -1234.163    877.29458   -3130.5339 
 2002000    261.89803    -3887.736   -3438.8518    -3887.736            0    4179.7745    17.387382    20.480039    21.212565    7553.6729    4554.7886    3983.8902    4000.6446   -869.78618    452.78599    1187.8565   -2978.3971 
 2003000     255.5857   -3857.6397   -3419.5746   -3857.6397            0    2427.0161     17.47938    20.588401    21.324803    7674.2096    1780.1866    2004.8592    3496.0025   -217.86007    371.74086    367.05333   -3147.9418 
 2004000     256.4607   -3885.6013   -3446.0364   -3885.6013            0     2990.795    17.491627    20.602826    21.339743    7690.3512    1338.7785    5346.0097    2287.5967   -158.52682   -1918.4108   -2040.8884   -3110.6012 
 2005000    260.37359   -3848.9342   -3402.6628   -3848.9342            0    3454.4068    17.516526    20.632154     21.37012    7723.2395     4022.663    2163.7566    4176.8009   -1027.7677     703.2884    619.10342   -3013.5738 
 2006000    259.35975   -3822.0375   -3377.5038   -3822.0375            0    4936.2312    17.406852    20.502973    21.236319    7579.0772    4864.6128    4287.5768    5656.5039    511.74973   -636.58085   -274.57808    -2831.887 
 2007000    266.81637   -3854.5979   -3397.2838   -3854.5979            0    3580.6566    17.476156    20.584604     21.32087    7669.9643    3462.5166    4524.8017    2754.6514   -67.147658   -135.71918    430.03406   -2996.7567 
 2008000    272.05643   -3878.4559   -3412.1605   -3878.4559            0    4406.9128    17.513456    20.628538    21.366375    7719.1797    2768.1659    5341.8453    5110.7273    1261.3775    613.73431   -1344.3545   -2916.0465 
 2009000    267.45664   -3833.3667   -3374.9551   -3833.3667            0    4273.9731    17.595828    20.725561    21.466869    7828.6111     4403.839    5173.0694    3245.0107   -668.33461    1917.5882    259.15269    -2886.986 
 2010000    260.57049   -3853.6558   -3407.0469   -3853.6558            0    2532.7072    17.554293    20.676639    21.416197    7773.3039    2676.9737    3069.0625    1852.0854   -1154.6442    34.810713   -1593.5855   -3119.9249 
 2011000    261.81535   -3859.1661   -3410.4236   -3859.1661            0    5099.7494    17.442116    20.544509    21.279341    7625.2328    5604.2457    4475.6118    5219.3906   -376.20242   -697.14511    1859.5217   -2843.2999 
 2012000    260.58787   -3821.8598   -3375.2211   -3821.8598            0    3954.7058    17.525209    20.642381    21.380714    7734.7304    2608.2282    6667.8425    2588.0466   -1630.4014    1020.0235   -750.05868    -2929.118 
 2013000    262.40832    -3822.331   -3372.5721    -3822.331            0     3534.883    17.492726    20.604121    21.341085    7691.8019    2919.3129    3748.3398    3936.9963   -32.608223    303.78283    1182.5829   -2976.0394 
 2014000    245.84018    -3848.795   -3427.4334    -3848.795            0    4032.0458    17.449776    20.553532    21.288686    7635.2838    3804.5665    4026.3763    4265.1945    430.76091    10.834161    1001.5112   -2978.4539 
 2015000    260.98377   -3863.6713   -3416.3541   -3863.6713            0    1470.8746    17.547951    20.669169    21.408459    7764.8817    2489.9097    1382.8439    539.87031    365.86763    246.73112   -475.16038    -3249.788 
 2016000     265.7414   -3871.2304   -3415.7587   -3871.2304            0    3569.9058    17.462216    20.568184    21.303863    7651.6249    3885.9089    3258.8468    3564.9617   -50.615951    1382.1739   -1214.9805    -3017.389 
 2017000    256.14355   -3842.5667   -3403.5455   -3842.5667            0    3500.0521    17.533097    20.651673    21.390338    7745.1802    2194.1811    5534.7764    2771.1989   -904.37456    695.22879    523.87063   -3008.1953 
 2018000     250.7417   -3875.3889   -3445.6262   -3875.3889            0    3559.6532    17.418376    20.516546    21.250378    7594.1399    2723.5141    3984.9963    3970.4491    115.94854   -475.83256    2735.0724   -3051.3849 
 2019000    266.84553   -3874.6456   -3417.2815   -3874.6456            0    3493.9162    17.431582    20.532101    21.266489    7611.4249    3767.9771    3673.6956    3040.0758    215.69529   -789.74969    958.89016   -3029.4399 
 2020000    256.52815   -3876.9199   -3437.2394   -3876.9199            0    4078.2836    17.374073    20.464363    21.196329    7536.3407    5189.8349    3002.4421    4042.5739    49.870426    458.17503    594.68939   -2988.9961 
 2021000    263.22103   -3879.4666   -3428.3148   -3879.4666            0     5010.897    17.373921    20.464184    21.196143    7536.1429     6512.102    4183.7946    4336.7943    352.98295    206.16157    648.79845   -2877.5826 
 2022000    263.20911   -3845.3738   -3394.2424   -3845.3738            0    4738.4351    17.424782    20.524091    21.258193    7602.5208    2778.0431    6605.7943    4831.4679   -423.72663    577.80669    2.3228478   -2868.8686 
 2023000    261.38083   -3895.6901   -3447.6923   -3895.6901            0    2217.8893    17.558637    20.681755    21.421496    7779.0758    3669.1458    753.26148    2231.2605   -916.66634   -1204.1671    1130.8661   -3196.0731 
 2024000    274.67269   -3837.9116    -3367.132   -3837.9116            0    1434.9775    17.578376    20.705006    21.445578    7805.3409    2288.1079    276.80955    1740.0149    -40.46203    760.67987    1106.0572   -3203.7844 
 2025000    260.04381   -3831.5673   -3385.8611   -3831.5673            0    4424.1279    17.474688    20.582874    21.319079    7668.0316    5926.9388     2628.796     4716.649   -1410.8209   -999.32385    220.70657   -2891.1092 
 2026000    275.25514   -3828.0956   -3356.3177   -3828.0956            0    6327.5569    17.420368    20.518892    21.252808    7596.7452    5220.3204    6963.2621    6799.0883    -773.8576    880.38097    540.28174    -2655.283 
 2027000    271.80769   -3863.4233   -3397.5542   -3863.4233            0    2058.4992    17.479877    20.588986    21.325409     7674.864    2314.0293    2535.6918    1325.7764    68.905892    367.73914    1459.3425   -3167.1463 
 2028000    255.51314    -3864.527   -3426.5862    -3864.527            0    3642.9204    17.392181    20.485692     21.21842    7559.9293    603.76788    5277.2508    5047.7425   -170.64502    479.32042    -645.4407   -3024.9403 
 2029000    261.92215   -3893.5417   -3444.6161   -3893.5417            0    3191.0185    17.407875    20.504178    21.237567    7580.4136    1787.8577    4907.7304    2877.4674    171.86529    -156.9304    1936.4677   -3091.8409 
 2030000    263.36655   -3834.9215   -3383.5203   -3834.9215            0    3740.4904    17.541189    20.661203    21.400209    7755.9078    3025.2703     3775.532    4420.6688    1346.5098    462.52834    929.50562   -2960.4261 
 2031000     258.0235   -3797.7563   -3355.5129   -3797.7563            0    2969.4612    17.492755    20.604154     21.34112    7691.8394    3318.8593    2147.0069    3442.5174     230.5654    788.87388   -804.06632   -3022.4059 
 2032000    251.56199   -3822.8758   -3391.7072   -3822.8758            0    2817.9396    17.483564    20.593329    21.329907    7679.7217    2280.6415    3916.8593    2256.3181   -1047.4046    11.079766   -328.05114   -3076.0955 
 2033000     272.2555   -3875.4714   -3408.8347   -3875.4714            0    2500.0745    17.489333    20.600124    21.336945     7687.326    1776.8872     2417.704    3305.6323    401.03329    931.99374   -1847.5199    -3128.547 
 2034000    252.37777   -3863.1312   -3430.5643   -3863.1312            0    3611.2357    17.460444    20.566097    21.301701    7649.2958    4097.5233    4685.5484    2050.6352    1315.1843    1456.1795    263.74545   -3027.7052 
 2035000    255.95758   -3878.8677   -3440.1651   -3878.8677            0    2346.8744     17.44565    20.548672    21.283653     7629.869    2768.7699    3143.2548    1128.5984    447.55837   -110.84093    357.07538   -3179.0195 
 2036000    257.45735   -3874.0651    -3432.792   -3874.0651            0     3682.253    17.430996    20.531411    21.265774    7610.6577    2571.6839    3431.8897    5043.1854   -578.46828    666.50843    1139.5507   -3024.0854 
 2037000    262.93352   -3837.2377   -3386.5787   -3837.2377            0    6081.4468    17.418755    20.516993    21.250841    7594.6354    5958.3627    7308.1116    4977.8662   -916.31001   -403.45484    577.20874   -2712.9978 
 2038000    266.52783   -3852.6053   -3395.7857   -3852.6053            0    3273.4343    17.461467    20.567301    21.302949    7650.6398    2269.9707    3635.5754    3914.7569    277.44424    405.61851    622.68832   -3030.5466 
 2039000    258.65703   -3818.3908   -3375.0615   -3818.3908            0    4618.3112     17.39143    20.484807    21.217504    7558.9496    6548.3766    2743.6553    4562.9017    1002.5027   -369.99314   -172.36227   -2865.9411 
 2040000    258.59934   -3849.5957   -3406.3653   -3849.5957            0    1157.2307    17.560735    20.684226    21.424055    7781.8637    1084.6284     898.6663    1488.3973    946.90357   -428.39543    1292.3754   -3275.0306 
 2041000     268.2602   -3860.6178    -3400.829   -3860.6178            0    5448.7023     17.41685    20.514749    21.248517    7592.1441    4947.3442    3942.9859    7455.7768    529.49314   -183.09896   -2065.4566   -2797.5289 
 2042000    251.20002   -3851.3302    -3420.782   -3851.3302            0    3000.8321    17.572793    20.698428    21.438766    7797.9049    3144.3536     2032.892    3825.2507    -1288.108    223.55201   -820.50274    -3079.514 
 2043000    268.11233   -3824.5337   -3364.9983   -3824.5337            0    1925.8848    17.502213    20.615295    21.352658    7704.3225    1674.4734    1393.1504    2710.0308   -249.34705    1225.5303    384.07112   -3148.6066 
 2044000    263.28861   -3842.3478   -3391.0801   -3842.3478            0    5666.4781    17.344488    20.429515    21.160234    7497.9063    5299.4854    6486.5738    5213.3752    1258.2337   -428.33021   -482.58219   -2771.4549 
 2045000     260.5485   -3914.7634   -3468.1922   -3914.7634            0    3235.5621    17.391907    20.485369    21.218086    7559.5716    4446.3376    2895.2262    2365.1227    286.40424   -919.67691    427.28764    -3111.476 
 2046000    274.87116   -3874.2144   -3403.0946   -3874.2144            0    2495.9722    17.406118    20.502108    21.235424    7578.1182     2517.761     1666.296    3303.8596   -1143.1433   -1087.4174    135.90856   -3127.2421 
 2047000    246.12086   -3851.7967   -3429.9539   -3851.7967            0    4216.4975    17.362926    20.451233    21.182729    7521.8441    5041.1039    4651.3042    2957.0843   -679.15985    342.35534    1259.1162    -2967.411 
 2048000    264.90151   -3827.4837   -3373.4516   -3827.4837            0    3961.2253    17.339954    20.424176    21.154704    7492.0287    4792.9193    5244.9881    1845.7686    1041.8908    900.90955   -652.79659    -2940.634 
 2049000    277.20316   -3836.0421   -3360.9254   -3836.0421            0    2934.3966    17.438867    20.540682    21.275377    7620.9729    805.63982    4184.9565    3812.5935    497.10951    155.84682    1765.4259   -3034.7846 
 2050000    261.16881   -3834.0909   -3386.4565   -3834.0909            0    4731.0196    17.321015    20.401868    21.131598    7467.5068    5087.5342    6313.3392    2792.1854    674.20088    934.91374   -701.92484   -2871.2205 
 2051000    258.01521    -3803.914   -3361.6848    -3803.914            0    2167.2967    17.531597    20.649906    21.388507    7743.1921    1663.9778    3186.5344     1651.378    756.39354    295.12608    1076.0402   -3116.9395 
 2052000    258.36937   -3858.0226   -3415.1864   -3858.0226            0    5313.8072    17.394563    20.488497    21.221326    7563.0353    5857.2002    6868.6432    3215.5781    1181.4367     1433.913    -338.1516   -2829.0781 
 2053000    262.20712   -3864.6882   -3415.2741   -3864.6882            0    2176.8217    17.496938    20.609082    21.346223     7697.359    1193.5172    2791.1612    2545.7867   -349.84212    -243.0292   -1504.1828   -3170.9083 
 2054000    263.81746   -3818.8287   -3366.6546   -3818.8287            0    2145.1533    17.512551    20.627472    21.365271    7717.9829    2075.0356    662.76157    3697.6627   -2226.8451   -1757.4849    1289.8544   -3125.1986 
 2055000    255.24523   -3854.4393   -3416.9577   -3854.4393            0    5640.7408    17.401852    20.497083    21.230219    7572.5475    6149.9574    6731.2729    4040.9921    1774.0906   -14.224779   -245.02968   -2794.0065 
 2056000    260.05925   -3810.3409   -3364.6082   -3810.3409            0    5858.5942     17.38697    20.479554    21.212063    7553.1359    6348.8306    7071.7126    4155.2394   -400.13791   -47.238097    645.30999   -2719.2563 
 2057000    272.26821   -3873.9512   -3407.2928   -3873.9512            0    5633.4081    17.427065     20.52678    21.260978    7605.5096    5002.1674    4962.3805    6935.6766   -1113.0503    207.14918    871.38662   -2782.4433 
 2058000    259.98843   -3851.3045   -3405.6932   -3851.3045            0    2512.8857    17.488844    20.599548    21.336348    7686.6811    3141.2262    2418.0787    1979.3522    191.79964    1304.2847   -1350.8843   -3123.9928 
 2059000    266.73553    -3865.568   -3408.3924    -3865.568            0    3544.5857    17.545641    20.666448    21.405641    7761.8157    4431.1885    2258.1888    3944.3798   -1543.5097    363.43576    623.91122    -3007.152 
 2060000    267.18712     -3899.23   -3441.2805     -3899.23            0    2900.0169    17.484338    20.594241    21.330852    7680.7423    2607.0075    2272.2214    3820.8218     623.5943    -1470.985   -282.66669   -3116.4329 
 2061000      258.751   -3858.5825   -3415.0921   -3858.5825            0    4069.4138    17.385901    20.478294    21.210758    7551.7423    4010.4516    5083.8238    3113.9659    849.26041   -854.14678   -167.27088   -2966.9096 
 2062000      252.687   -3827.7668   -3394.6699   -3827.7668            0    4014.2944    17.464096    20.570398    21.306156    7654.0956    4590.5108    3196.8357    4255.5368   -350.66607    1490.3321    975.77159   -2946.5657 
 2063000    271.35695   -3845.7301   -3380.6335   -3845.7301            0    3428.9749    17.508989    20.623276    21.360925    7713.2742    4308.0242    1416.7057    4562.1947   -230.44606   -680.92918   -1001.8644   -2994.9075 
 2064000    263.97931   -3856.4937   -3404.0422   -3856.4937            0    3752.8014     17.49762    20.609886    21.347056    7698.2598    3337.8806    3426.6118    4493.9119   -968.90026   -625.44343     1107.531   -2982.7106 
 2065000    238.40229   -3854.9413   -3446.3279   -3854.9413            0    3378.8506    17.491444    20.602611    21.339521    7690.1109    3366.0704    3557.0097    3213.4717    320.70903   -404.96956    252.72778   -3067.3818 
 2066000     268.4008   -3831.9485   -3371.9187   -3831.9485            0    3082.3198    17.478562    20.587437    21.323805    7673.1322    1659.3106    3572.2352    4015.4136   -797.33508   -470.09304   -1027.7485   -3026.9924 
 2067000    256.83127   -3891.2487   -3451.0487   -3891.2487            0    1513.7969    17.543522    20.663952    21.403056     7759.004    3462.6038    835.94671    242.84012     195.1092   -766.85136    666.94489   -3279.7518 
 2068000    260.89761   -3862.6175    -3415.448   -3862.6175            0    3187.7027    17.464415    20.570774    21.306546    7654.5159    4496.1254    2325.8059     2741.177    2.5879474    329.22991    990.46937   -3059.5943 
 2069000    255.86585   -3915.0057   -3476.4604   -3915.0057            0    5806.4886    17.362739    20.451013    21.182501    7521.6009     7073.356    5261.7479    5084.3618   -703.61838   -520.44611   -649.03292   -2839.5186 
 2070000    258.34035   -3869.3074   -3426.5209   -3869.3074            0    4400.6505    17.442139    20.544535    21.279368    7625.2625    4319.1128    3256.3751    5626.4634    1058.4901    491.57757   -1089.5501   -2937.1394 
 2071000    261.89092   -3877.3628   -3428.4907   -3877.3628            0    3266.4222    17.441701     20.54402    21.278834    7624.6883    3207.8836    3996.6533    2594.7296    860.22625   -650.28717   -856.94113   -3065.2702 
 2072000     269.5552   -3812.9156   -3350.9072   -3812.9156            0    1187.9181    17.470674    20.578146    21.314181    7662.7479    2641.3226   -450.55768    1372.9893    517.04587    817.55977    241.41617   -3218.1534 
 2073000    262.01094   -3881.2699   -3432.1921   -3881.2699            0    2414.6305    17.399188    20.493945    21.226969      7569.07    4213.5978    2262.5817    767.71188     469.5422    1382.6029    -452.0239    -3165.648 
 2074000    252.48326   -3868.5678   -3435.8201   -3868.5678            0    2157.0861    17.461404    20.567227    21.302872    7650.5573   -1024.4869    2539.8696    4955.8754   -241.20741   -450.83467   -550.05335   -3195.1421 
 2075000    266.69273   -3890.4884   -3433.3862   -3890.4884            0    5945.0546    17.336829    20.420495    21.150891    7487.9791    6302.6638    5318.9384    6213.5615    -85.06312    883.93107   -276.22847   -2784.1595 
 2076000     259.6238   -3864.5229   -3419.5366   -3864.5229            0    2639.4025    17.370603    20.460276    21.192095    7531.8263    3608.6273    2579.5471    1730.0332    176.41099   -2698.5627   -2190.6836   -3129.6142 
 2077000    251.88552   -3877.2386   -3445.5155   -3877.2386            0    4511.5863    17.371261     20.46105    21.192897    7532.6814    3775.6388    3951.5172    5807.6029    489.55055   -1258.0886   -1149.5606   -2949.8887 
 2078000    287.83313   -3867.9659   -3374.6298   -3867.9659            0    3036.5022    17.467125    20.573966    21.309851     7658.079    5147.3744    1626.5661    2335.5661   -219.02527     293.9245    680.99675   -3035.4974 
 2079000    264.85845   -3868.2241   -3414.2658   -3868.2241            0    5147.5522    17.362309    20.450507    21.181977    7521.0426      3786.89    6403.4924    5252.2742    332.37198    -843.2532   -1352.9278   -2849.6478 
 2080000    282.11323   -3865.9816   -3382.4492   -3865.9816            0    3699.5407    17.488404    20.599029    21.335812     7686.101     2308.434    4059.1398    4731.0482   -157.08268    27.928619    1129.1677   -2967.7533 
 2081000    273.78432   -3870.6245   -3401.3676   -3870.6245            0    3636.7795    17.426852    20.526529    21.260718    7605.2305    3314.2889    3127.3745    4468.6751    203.82516    351.06755    349.78598    -2997.996 
 2082000    269.77219   -3905.4974   -3443.1171   -3905.4974            0    3928.4011    17.454645    20.559266    21.294626    7641.6767     4539.745    3924.1837    3321.2746   -937.08152   -444.90096    1294.4865   -3005.3124 
 2083000    254.28371   -3883.8479   -3448.0143   -3883.8479            0    3827.3762    17.516648    20.632297    21.370269    7723.4008    3229.7009    4738.4382    3513.9894     15.35419    654.65908   -1003.5443   -3016.9068 
 2084000    274.18477   -3831.4592   -3361.5159   -3831.4592            0    4931.5772    17.487598    20.598081    21.334829    7685.0394    3847.6693    5996.2263    4950.8359   -752.81262   -1168.1617     528.5343   -2808.7925 
 2085000    255.94432   -3859.2399   -3420.5601   -3859.2399            0    5159.0221    17.411117    20.507997    21.241523    7584.6497    4572.0864    6154.9055    4750.0743   -280.69474   -499.22848    361.64139   -2849.8983 
 2086000    252.52719   -3861.8162   -3428.9933   -3861.8162            0    3853.8846    17.501334     20.61426    21.351587    7703.1626    2817.8447    6040.4832     2703.326   -77.716059    392.32547    802.48319   -2996.0374 
 2087000    262.26338   -3884.3217   -3434.8112   -3884.3217            0    5366.5264    17.473132    20.581041     21.31718    7665.9825    5181.5705    5933.9611    4984.0477   -298.36609    338.69249   -1081.3515   -2834.8309 
 2088000    263.01409   -3811.2047   -3360.4075   -3811.2047            0    4838.8407    17.518185    20.634109    21.372145    7725.4351    4656.0755    5318.0111    4542.4357   -1357.0528   -320.70861   -1027.2271   -2815.2272 
 2089000    249.63869   -3876.5587   -3448.6865   -3876.5587            0    4276.5737    17.443008    20.545559    21.280429    7626.4027    4730.6134    2873.7498    5225.3579   -894.82902    23.440235    -1250.874   -2973.0321 
 2090000    248.32343   -3865.3316   -3439.7138   -3865.3316            0     3299.992     17.57328    20.699003    21.439361    7798.5545    3231.4634    2959.6847    3708.8278   -171.06258    490.69419   -641.15971   -3064.3927 
 2091000    250.43847   -3890.5001   -3461.2572   -3890.5001            0    6058.1702       17.418    20.516103    21.249919    7593.6474    6531.3305    5289.0817    6354.0985   -361.51429   -1032.1471    258.97135   -2790.3417 
 2092000    275.40989   -3885.4453   -3413.4021   -3885.4453            0    2688.1188    17.518426    20.634392    21.372439    7725.7536    2162.3609    2941.4842    2960.5112    56.791787   -1000.4122    1148.5818   -3110.5259 
 2093000    251.57755   -3878.3069   -3447.1116   -3878.3069            0    2929.3254    17.540467    20.660353    21.399329    7754.9506    3872.3437    3548.6873    1366.9451   -1491.8372   -298.35536    126.25758   -3115.8108 
 2094000    264.60614   -3872.1681   -3418.6422   -3872.1681            0    2954.6614    17.439414    20.541326    21.276045    7621.6898    4424.7553    1732.0926    2707.1362    1183.9729     123.6269    114.57822   -3090.2182 
 2095000     247.8458    -3884.625   -3459.8258    -3884.625            0    3131.4109    17.521096    20.637537    21.375696    7729.2865    4197.1933    2915.0468    2281.9925   -232.78534   -536.50381   -18.817861   -3106.8415 
 2096000    269.56001   -3863.3742   -3401.3576   -3863.3742            0    4222.8258    17.507729    20.621792    21.359388    7711.6093    6075.8924    3205.8319     3386.753    35.461343   -954.77894   -103.81339   -2926.4336 
 2097000    260.75973   -3869.7509   -3422.8177   -3869.7509            0    4464.6679    17.522885    20.639644    21.377879    7731.6539    2991.0161    4992.7465     5410.241   -936.31363    79.514277    523.36453   -2919.3896 
 2098000    247.69063    -3856.854   -3432.3208    -3856.854            0     2717.223    17.436532    20.537931    21.272528    7617.9109    3471.5573    674.79615    4005.3156    -1486.369    446.00552   -127.60037   -3130.4389 
 2099000    268.78647   -3882.8952   -3422.2044   -3882.8952            0    3938.1264    17.380689    20.472155      21.2044    7544.9528    3220.0555    3911.7834    4682.5402   -2477.3561   -430.11336   -245.04173   -2988.8711 
 2100000    257.09759   -3881.1169   -3440.4605   -3881.1169            0    2328.5696    17.409885    20.506545    21.240019    7583.0389    2191.2408    2931.1346    1863.3335    21.074019   -220.49193    -1075.008    -3182.942 
 2101000    256.85856   -3869.8218    -3429.575   -3869.8218            0     1766.207    17.456676    20.561658    21.297104    7644.3443    791.43476    1612.5371    2894.6492    861.02663    753.77821   -2333.3534   -3232.6695 
 2102000    255.76966   -3830.3718   -3391.9914   -3830.3718            0     1773.095    17.500065    20.612765    21.350039    7701.4871    1497.4211    1233.3032    2588.5608     395.6234    250.22616     640.5967   -3192.8404 
 2103000    274.04301    -3872.837   -3403.1366    -3872.837            0    2570.9401    17.424646    20.523931    21.258027    7602.3431    2030.1781    2093.2303     3589.412    1058.5824   -873.82438    1801.8326   -3118.0904 
 2104000    260.20829   -3877.7515   -3431.7634   -3877.7515            0    2769.8106    17.392427    20.485982     21.21872    7560.2498    3554.7553    3924.2272    830.44912   -62.541945   -1634.5617   -1020.2078   -3126.3683 
 2105000    264.03168   -3840.5123    -3387.971   -3840.5123            0    1595.9736    17.577363    20.703811    21.444341    7803.9904     2734.829   -408.20178    2461.2934   -8.3674339   -142.85366   -458.25964   -3206.3282 
 2106000    257.06485   -3889.9655   -3449.3652   -3889.9655            0    3388.4646    17.437855     20.53949    21.274143    7619.6459    2693.9248    2446.4252    5025.0436    333.61584   -471.54639   -658.41102    -3072.823 
 2107000    257.17405   -3891.3231   -3450.5356   -3891.3231            0    3711.4134     17.44752    20.550874    21.285934    7632.3222    4046.0569    4201.5463    2886.6371   -509.23447    308.02791   -332.40806   -3037.4196 
 2108000    267.60033   -3867.0574   -3408.3996   -3867.0574            0    2296.0664    17.439407    20.541318    21.276036    7621.6805    1950.6138    1138.0069    3799.5784   -827.51718   -1218.6624    1275.6335   -3153.1818 
 2109000     251.2819   -3833.7226    -3403.034   -3833.7226            0    1904.2138    17.488611    20.599274    21.336064    7686.3744   -425.45554    3750.5921     2387.505    -431.5063   -251.22502   -1776.1494   -3189.5756 
 2110000    262.25588   -3845.1967   -3395.6991   -3845.1967            0    2379.2879     17.53474    20.653608    21.392342    7747.3579    2104.1095    1675.3011    3358.4531    69.861193   -340.41714    1851.4557   -3126.8699 
 2111000    259.02856   -3852.3403   -3408.3742   -3852.3403            0    2506.0674     17.46258    20.568613    21.304307    7652.1034    2010.0546    2272.3801    3235.7674    352.19701   -400.67435   -678.75062   -3128.7019 
 2112000    260.48985   -3871.1601   -3424.6894   -3871.1601            0    2179.1288    17.516085    20.631635    21.369583    7722.6571    2283.6925    1694.1551     2559.539   -873.97492   -824.08491   -243.01361   -3179.2606 
 2113000    259.54151   -3877.8887   -3433.0434   -3877.8887            0    3911.1846    17.501962    20.614999    21.352352    7703.9912    3346.3655    3768.0181    4619.1703   -758.30037   -835.90222    698.87584    -2993.603 
 2114000     277.8637   -3857.9013   -3381.6524   -3857.9013            0    3383.6655     17.58742    20.715658    21.456611    7817.3938     3791.699    2938.2963    3421.0013    1519.8313    589.67605   -1255.4852   -2995.8852 
 2115000    264.15268   -3848.3193   -3395.5707   -3848.3193            0    4434.2922    17.536926    20.656182    21.395009    7750.2551    4290.3107    5403.3316    3609.2342   -450.89866    -650.7352   -1448.3027   -2894.3648 
 2116000     270.5188   -3920.4186   -3456.7587   -3920.4186            0    2715.8479    17.434333    20.535342    21.269846    7615.0303    2882.2878    3147.9309    2117.3251   -1165.0555    808.57725    1000.4157   -3155.1436 
 2117000    265.56318   -3916.6111   -3461.4449   -3916.6111            0    4955.9915    17.429313    20.529428    21.263721    7608.4536    3768.1163    5067.3964    6032.4617    653.19529    -1102.158   -680.02574   -2911.5207 
 2118000    265.51119   -3916.7522   -3461.6751   -3916.7522            0    3069.6189    17.473152    20.581065    21.317205    7666.0094    3953.4722    2840.9842    2414.4002   -496.40901   -371.68201    147.52281    -3118.489 
 2119000    271.63984   -3906.8184    -3441.237   -3906.8184            0     2904.061    17.587614    20.715886    21.456848    7817.6521    3633.7488    3072.9384    2005.4957   -1130.6216   -687.99019      396.934   -3110.1379 
 2120000    257.70219   -3892.6194   -3450.9266   -3892.6194            0    3962.9646    17.455947      20.5608    21.296214    7643.3864    3171.1762    4277.7132    4440.0045    142.61278    1126.7318   -900.51744   -3009.1712 
 2121000    254.65998   -3882.3938   -3445.9153   -3882.3938            0    2949.9548    17.531568    20.649871    21.388471    7743.1529    4128.1047    4038.0266    683.73312   -1188.4969    81.156473   -1089.6731   -3112.7889 
 2122000     277.1485   -3863.1904   -3388.1673   -3863.1904            0    3991.4439    17.507852    20.621938    21.359539    7711.7727      2666.14    5080.3728    4227.8189    363.41612   -485.00309    179.39606   -2939.2565 
 2123000    253.23062    -3895.868   -3461.8393    -3895.868            0    3804.9417    17.395934    20.490112    21.222999    7564.8241    3166.6558    4012.1497    4236.0196     923.7295   -14.270564   -422.54006   -3042.0584 
 2124000     264.6372   -3867.2943   -3413.7152   -3867.2943            0     3408.632    17.419717    20.518126    21.252015    7595.8943    4824.0204    2252.4945    3149.3812   -641.98979    1382.5492   -130.37314   -3036.1126 
 2125000    258.76813   -3845.6253   -3402.1056   -3845.6253            0    4037.3994    17.495779    20.607717     21.34481      7695.83     3506.178    5518.4922    3087.5281   -2835.1919   -305.39302    246.61364   -2948.9649 
 2126000    250.65921   -3892.5967   -3462.9754   -3892.5967            0    3502.6274    17.468966    20.576134    21.312098     7660.501    3994.6299    3832.6096    2680.6426   -937.41342    421.34378   -595.28605   -3071.6599 
 2127000    258.75719   -3884.1374   -3440.6365   -3884.1374            0    3206.5732    17.575937    20.702132    21.442602     7802.092    3541.1929    2623.0052    3455.5214   -613.75546    33.716208   -1758.4491   -3075.7749 
 2128000    263.71311    -3889.523   -3437.5278    -3889.523            0    3227.8866    17.441741    20.544067    21.278883    7624.7404    3067.7042    3188.1042    3427.8514   -581.32018     372.1507    811.44468     -3078.59 
 2129000    266.99195   -3865.2102   -3407.5951   -3865.2102            0    2173.4505    17.552506    20.674534    21.414017    7770.9301    1996.7462    2725.0902     1798.515   -809.70278   -222.97082    323.79941   -3161.2757 
 2130000    249.96435   -3886.4841   -3458.0538   -3886.4841            0    5088.1666    17.369592    20.459085    21.190862    7530.5108    4664.2064    3885.8786    6714.4147   -560.82927    216.93805   -2401.8345    -2899.247 
 2131000    250.01742     -3892.07   -3463.5487     -3892.07            0    3518.2784    17.395738    20.489881    21.222759     7564.568    2991.5241    3256.0562    4307.2548    1165.3695    957.75572   -356.78623   -3075.4071 
 2132000    255.61961   -3838.4219   -3400.2987   -3838.4219            0    3242.6272    17.456704    20.561692    21.297138    7644.3814     2951.719    3547.9894     3228.173    418.16092    -487.0975   -61.003776   -3038.7929 
 2133000    245.82516    -3828.361   -3407.0251    -3828.361            0    4035.6565    17.377769    20.468717    21.200838    7541.1513    4326.1495    3437.4799    4343.3399   -134.15495   -56.439887   -1730.7185   -2963.1838 
 2134000    248.89439   -3870.3222   -3443.7257   -3870.3222            0    3625.9221    17.440554    20.542669    21.277435     7623.184    4099.8725    3381.7818    3396.1122    534.84849   -438.77258   -84.319269    -3040.609 
 2135000     243.9712    -3864.774   -3446.6157    -3864.774            0    3337.0265    17.451451    20.555504     21.29073    7637.4827     3005.878    2998.9842    4006.2173    2348.7935    54.373289    599.35525   -3074.9215 
 2136000    250.65462   -3825.3955   -3395.7821   -3825.3955            0      4107.32    17.450269    20.554111    21.289287    7635.9299    5190.2375    4409.6021    2722.1204    609.78141    620.26872   -1172.6172   -2938.3819 
 2137000    243.99888    -3845.492   -3427.2863    -3845.492            0    3758.9039    17.390985    20.484283    21.216961    7558.3697    4905.0617    3978.0864    2393.5635   -93.150711   -427.22119   -556.00831   -3012.9383 
 2138000    267.86865   -3855.1702   -3396.0525   -3855.1702            0    2450.2415    17.449371    20.553054    21.288192    7634.7515    1991.9072     745.6182     4613.199   -959.90317   -1776.9139    62.380753   -3123.2303 
 2139000     247.7822   -3879.8843   -3455.1941   -3879.8843            0    4502.1964    17.334664    20.417944    21.148249    7485.1733    2845.4013    4098.2927    6562.8953   -759.47201    284.97279   -1589.1317   -2963.7183 
 2140000      264.281   -3891.5368   -3438.5682   -3891.5368            0    2471.9116    17.469456    20.576711    21.312695    7661.1457    1283.3089    3299.7173    2832.7085    869.35354    90.216858    -242.0263   -3162.3816 
 2141000    251.44377   -3907.2164   -3476.2504   -3907.2164            0    3438.2379    17.438297     20.54001    21.274681    7620.2249    4400.6719    3792.4077    2121.6341   -246.00618    533.61156    660.17439   -3094.1481 
 2142000    247.51647   -3875.5092   -3451.2744   -3875.5092            0    4511.0707    17.336564    20.420183    21.150568    7487.6355    4040.7533    2525.4857    6966.9733    257.28906    52.027039    626.70906   -2958.6678 
 2143000    266.02858   -3919.1313   -3463.1674   -3919.1313            0    2540.8353     17.46216    20.568118    21.303795    7651.5516    1781.6562    2453.7002    3387.1494   -466.85006    1384.6156    103.26084   -3179.6356 
 2144000    261.43409   -3917.0659   -3468.9768   -3917.0659            0     2571.016    17.426549    20.526173    21.260349    7604.8349    3128.9296    2211.2916    2372.8267    487.61163    801.91714   -72.003662   -3183.8288 
 2145000    263.45013   -3885.8453   -3434.3008   -3885.8453            0    4692.4149    17.507592     20.62163    21.359221     7711.428    6230.9074    3207.3333     4639.004   -691.58534   -470.21747    109.79372   -2906.5765 
 2146000    266.49213   -3902.1331   -3445.3747   -3902.1331            0    3536.9733    17.494156    20.605805     21.34283    7693.6885    3798.4123    4091.6065    2720.9012   -1440.3449   -1416.2958    181.71378   -3048.5102 
 2147000    249.95778   -3896.4177   -3467.9987   -3896.4177            0    2828.1082    17.451021    20.554998    21.290205     7636.918    2475.0213    3263.0786    2746.2248    344.51577    436.93629    308.13505   -3153.0135 
 2148000    251.20801   -3870.1903   -3439.6284   -3870.1903            0    5234.8213      17.4038    20.499377    21.232595    7575.0907    4577.7862    5913.7289    5212.9487   -236.22199    150.78799    1378.5555   -2861.3119 
 2149000    281.51299   -3855.8952   -3373.3916   -3855.8952            0    4370.8803    17.450817    20.554758    21.289956    7636.6504    5002.1463    3076.4583    5034.0365   -18.159171   -700.11003   -1748.3524   -2886.5948 
 2150000    256.83245    -3890.736    -3450.534    -3890.736            0    3822.6385    17.469224    20.576439    21.312413    7660.8409    2989.2039    4999.9972    3478.7144   -278.21922    477.67023   -771.09409   -3023.4478 
 2151000    267.67372   -3863.7678   -3404.9842   -3863.7678            0    2360.3031    17.560414    20.683848    21.423664    7781.4379    2460.4841    2701.6291     1918.796   -940.40176    952.26073    -1944.701   -3137.1269 
 2152000    252.36869   -3900.6807   -3468.1294   -3900.6807            0    876.21233    17.594967    20.724547    21.465818    7827.4615    932.77173    499.48486    1196.3804   -331.62932    84.971777   -432.72824    -3368.105 
 2153000    259.64485   -3849.1975   -3404.1751   -3849.1975            0     4654.245    17.427761      20.5276    21.261828    7606.4213     4246.792     5618.346    4097.5971    198.18955   -361.80132   -207.13023   -2887.8711 
 2154000    258.66693   -3867.7258   -3424.3796   -3867.7258            0    4588.1845    17.390793    20.484057    21.216727    7558.1194    4680.0831    3930.3321    5154.1382    -712.3262    619.89803    668.75174   -2918.6358 
 2155000    263.69661   -3889.7606   -3437.7936   -3889.7606            0     3579.851    17.383316     20.47525    21.207605    7548.3752    4733.7685     3020.316    2985.4687    154.71806    184.74876   -136.64087   -3043.7046 
 2156000    251.55787   -3909.4736    -3478.312   -3909.4736            0    3047.4159    17.532299    20.650732    21.389364    7744.1222    3688.8873    3040.5056    2412.8549    753.14042    1697.4942   -616.75795   -3134.1366 
 2157000    265.28549   -3906.3152   -3451.6249   -3906.3152            0    1611.9157    17.415755    20.513459    21.247181    7590.7124    988.27488    1608.7013    2238.7708   -201.25722   -821.46501    585.41531   -3273.1814 
 2158000    258.32326    -3888.904   -3446.1467    -3888.904            0    3137.6905    17.523643    20.640536    21.378803    7732.6571    3771.5287    3881.9691    1759.5738   -1664.7491   -509.61548    123.94611   -3092.3004 
 2159000    255.12065   -3846.8674   -3409.5994   -3846.8674            0    3398.9918    17.447696    20.551081    21.286148    7632.5534    1084.3122    4552.6102     4560.053    -602.5973    -982.6964   -2943.8202   -3031.2475 
 2160000    273.11555   -3862.4162   -3394.3055   -3862.4162            0     5247.179    17.462948    20.569046    21.304756    7652.5868    6645.2289    4504.3537    4591.9544   -621.68848   -3.8696437    486.93345   -2808.6935 
 2161000    260.20312   -3900.5209   -3454.5417   -3900.5209            0    5339.0404    17.401692    20.496894    21.230023    7572.3379    4325.9565    4822.3182    6868.8466    846.33629   -11.483003    1369.0833   -2864.9259 
 2162000     249.9548    -3888.894     -3460.48    -3888.894            0    1700.7163    17.478193    20.587002    21.323354    7672.6461    2350.8422    2433.3363    317.97054   -895.34849    -472.1838    738.25781   -3270.1738 
 2163000    262.16089   -3896.6974   -3447.3626   -3896.6974            0    2668.1257    17.499776    20.612424    21.349686     7701.105    2549.6769    2415.4702    3039.2301   -886.68734    87.674964    775.33865   -3147.6981 
 2164000    258.24881   -3905.6322   -3463.0026   -3905.6322            0    2377.7909    17.523227    20.640047    21.378296    7732.1073    1513.7888    3082.8573    2536.7265    130.76548    -1467.072   -140.80828   -3194.8714 
 2165000    261.08291   -3882.3248   -3434.8376   -3882.3248            0    3978.9195    17.389492    20.482525     21.21514    7556.4235    4563.6984    3659.0707    3713.9895   -2361.0702   -687.34942   -820.37396     -2996.35 
 2166000    259.90846   -3841.4606   -3395.9864   -3841.4606            0    5239.5405    17.401725    20.496933    21.230064    7572.3816    6186.5871      5429.76    4102.2745   -60.721917     -1355.74   -420.49713   -2817.3555 
 2167000    250.22572   -3879.5845   -3450.7062   -3879.5845            0    4491.4706    17.425182    20.524563    21.258682    7603.0456    5220.8491    3814.3355    4439.2271    1816.6891    668.48888   -1089.1802   -2952.6801 
 2168000     278.4478   -3835.9219   -3358.6719   -3835.9219            0    3151.4169    17.437766    20.539385    21.274034    7619.5291    4404.3941    2170.8264      2879.03    -1476.131    437.62127   -785.48593   -3008.4769 
 2169000    258.48611   -3812.4456   -3369.4093   -3812.4456            0    4080.2333    17.526603    20.644023    21.382415    7736.5768    2040.9211    5385.6925    4814.0861   -1005.7564   -1805.3208   -2247.8752   -2909.0364 
 2170000    266.37746   -3852.6799   -3396.1181   -3852.6799            0    2532.3193    17.491011    20.602101    21.338993    7689.5395    1952.8369    2631.4967    3012.6244   -1028.7289   -856.15811   -482.72572   -3112.1335 
 2171000    247.77645   -3858.6031   -3433.9228   -3858.6031            0    2555.9316    17.502646    20.615806    21.353188    7704.8954    2020.9543    3065.2068    2581.6338    353.85079   -338.16668    163.61761   -3146.7179 
 2172000    269.59947   -3886.1238   -3424.0396   -3886.1238            0    3656.4432    17.517136    20.632872    21.370864    7724.0462    4191.2722    2808.6667    3969.3906    876.38027   -254.29767    18.310822   -3012.1512 
 2173000    259.23967   -3878.4597   -3434.1318   -3878.4597            0    2260.1883    17.513847    20.628998    21.366852    7719.6963    1817.2443    2957.6808    2005.6399   -1171.9101   -437.99882    460.28909   -3179.6711 
 2174000    258.13049   -3876.9902   -3434.5633   -3876.9902            0    3651.8365    17.395024    20.489041    21.221889    7563.6377    2980.1928    3267.8499     4707.467    1131.5384   -1318.6231    355.90029   -3031.7369 
 2175000    264.25793   -3862.3204   -3409.3914   -3862.3204            0    2830.4927    17.507853    20.621939     21.35954    7711.7739    3517.8554    1980.8425    2992.7803    2259.2426    633.17639    1374.6247   -3091.0506 
 2176000    269.97481   -3900.3256    -3437.598   -3900.3256            0    4315.1136    17.439026     20.54087    21.275571    7621.1813    2631.7525    4939.4999    5374.0885   -124.88356    832.21779   -524.84446   -2957.9856 
 2177000    269.11681   -3843.0467   -3381.7897   -3843.0467            0    3710.5125    17.485228    20.595289    21.331938    7681.9152    2837.6238    4609.6189    3684.2947   -851.39334    392.63114    446.67371   -2966.0904 
 2178000    267.73636   -3855.9502   -3397.0592   -3855.9502            0    3840.5675    17.412433    20.509545    21.243127    7586.3684    2850.2279    6453.5951    2217.8794   -260.76276   -16.028983    1080.9408   -2972.1411 
 2179000    251.75703   -3849.5213   -3418.0184   -3849.5213            0    4323.4156    17.501119    20.614007    21.351325    7702.8788    2397.6226    3765.5665    6807.0575   -1104.7984    788.67032   -188.93647    -2932.332 
 2180000    246.68512   -3842.3151   -3419.5053   -3842.3151            0    2344.3478    17.475707    20.584074    21.320321    7669.3724    2863.2759    1849.5441    2320.2232   -1031.4812    44.907922    151.51675   -3157.2901 
 2181000    263.38985   -3863.5671   -3412.1259   -3863.5671            0    3788.5991      17.5117    20.626469    21.364233    7716.8575    2564.6864    2221.0787    6580.0322   -1209.8326   -1751.5399    549.93574   -2985.7476 
 2182000    271.28875   -3860.8518   -3395.8721   -3860.8518            0    3179.1101     17.50174    20.614738    21.352082    7703.6989    4223.3232    2988.0401     2325.967    377.29295    265.94344    470.64537   -3038.6974 
 2183000    243.30175   -3866.4815   -3449.4707   -3866.4815            0    3868.8404    17.565983    20.690407    21.430458     7788.843    2942.8997    4534.1173    4129.5042   -1059.0893   -1978.1298    603.96139   -3010.0002 
 2184000    255.35981   -3862.4797   -3424.8017   -3862.4797            0    4632.4323    17.432233    20.532868    21.267283    7612.2781    3910.4575      5153.17    4833.6694   -1247.0598    1622.7658    526.99614   -2910.5217 
 2185000    266.20846   -3851.7595   -3395.4873   -3851.7595            0    2410.3759    17.574042      20.6999     21.44029    7799.5684    2058.2132      3226.86    1946.0545   -187.36985     646.8437    2040.3445   -3121.3102 
 2186000    262.88806   -3839.3342    -3388.753   -3839.3342            0    5564.7031    17.482716     20.59233    21.328872    7678.6041    6137.1022    3815.3984    6741.6087   -883.80501   -1590.0408    2591.8117   -2765.5922 
 2187000    261.49492   -3869.0365   -3420.8432   -3869.0365            0    3026.6893    17.538547    20.658091    21.396986    7752.4038    3027.0564     2855.508    3197.5035    274.96277    723.13959    -704.8269   -3078.6431 
 2188000    281.50785   -3875.2654   -3392.7706   -3875.2654            0    4815.1604    17.495497    20.607385    21.344466     7695.458     4526.916    5369.3198    4549.2453    1386.4017   -205.81727    714.21972   -2852.3634 
 2189000    256.38926   -3916.0282   -3476.5858   -3916.0282            0    2920.2831    17.493509    20.605043    21.342041     7692.835    3136.5232     3677.764     1946.562    374.51753    863.32636    115.26266    -3148.953 
 2190000    280.99984   -3862.6092   -3380.9851   -3862.6092            0    3920.5522      17.4133    20.510568    21.244186    7587.5027    3751.9231    3443.3205    4566.4128    443.75366   -695.73634    91.095625   -2947.1527 
 2191000    270.49946   -3874.6759    -3411.049   -3874.6759            0    3795.9847    17.406162     20.50216    21.235477    7578.1759    4492.6771    1436.1458     5459.131   -1310.7129   -1600.7426    1220.5807   -2991.5171 
 2192000    256.89104   -3861.7276   -3421.4252   -3861.7276            0    2552.2256    17.542628    20.662899    21.401965    7757.8176    2552.7591    2473.9785    2629.9393    1125.9094    765.86491   -1475.3739   -3132.6668 
 2193000    254.16299   -3875.3446    -3439.718   -3875.3446            0    1681.1468    17.543351     20.66375    21.402847    7758.7766    2108.6235    1940.5359    994.28102   -453.39964   -640.24317    753.79562   -3249.4898 
 2194000     273.9341   -3869.2583   -3399.7447   -3869.2583            0    5087.7088    17.518569    20.634561    21.372614    7725.9429    7523.3994    3738.3377    4001.3892   -750.20223    392.08747    581.08987   -2826.4873 
 2195000    266.09613    -3905.867   -3449.7873    -3905.867            0    4346.3862    17.429074    20.529147     21.26343    7608.1407    3844.7472    4088.3555     5106.056   -651.72506    1116.7038   -579.69921   -2967.5257 
 2196000    262.17085   -3890.6334   -3441.2815   -3890.6334            0    3184.0971    17.443502    20.546142    21.281032    7627.0512      3169.13    3128.9749    3254.1864    207.62565   -71.749649   -103.36856   -3087.1057 
 2197000    251.29829   -3866.0174   -3435.3007   -3866.0174            0    3778.0465    17.444337    20.547125    21.282051    7628.1462    4075.8313     3837.303    3421.0052    -911.7228   -248.53701   -1305.7779    -3014.998 
 2198000    265.40553     -3879.34    -3424.444     -3879.34            0    3174.7286    17.439513    20.541442    21.276165    7621.8188    3217.6886    2649.8985    3656.5988    406.31311    361.40973    733.00993   -3071.5526 
 2199000     263.7613   -3848.1919    -3396.114   -3848.1919            0    4178.5758    17.381324    20.472904    21.205175    7545.7804    3554.3974    5187.9617    3793.3685    120.41114    176.74117    235.41978   -2936.2724 
 2200000     243.9196   -3846.4165   -3428.3466   -3846.4165            0    2421.8515    17.403152    20.498614    21.231804    7574.2441    2884.6235    9.9134786    4371.0175    422.70097   -163.40795   -87.306858   -3160.8227 
 2201000    257.66378    -3858.186   -3416.5591    -3858.186            0    3834.4281    17.402565    20.497922    21.231088    7573.4778    4606.0325    4775.5562    2121.6957     482.5766    890.86849   -1064.7549   -2993.0411 
 2202000    260.62281   -3853.2885   -3406.5899   -3853.2885            0     2283.437    17.404949    20.500731    21.233998    7576.5917    2774.1992    1681.1332    2394.9784    292.26864   -71.673242    694.12879   -3154.2774 
 2203000    259.33927   -3883.5582   -3439.0596   -3883.5582            0    4602.5405    17.289924    20.365246    21.093667     7427.366    5496.1346    4872.8608    3438.6261   -246.20286    1159.8885    66.751427     -2940.51 
 2204000      258.412   -3870.9552   -3428.0459   -3870.9552            0    3815.9459    17.433139    20.533935    21.268389    7613.4657    3791.5808    3112.7928     4543.464    715.35123   -1337.0581   -502.62658   -3004.3439 
 2205000    240.12228   -3847.9237   -3436.3624   -3847.9237            0    2697.3768     17.50629    20.620097    21.357633     7709.708    3098.1275    2540.6329    2453.3701   -1016.7771    1977.3727   -955.16922   -3133.0742 
 2206000    259.97395   -3885.5891   -3440.0027   -3885.5891            0    3219.5572    17.573372    20.699112    21.439473     7798.677    2866.2301    4012.6124     2779.829    163.73794   -69.218663   -566.72341   -3073.8241 
 2207000    268.34316   -3922.9875   -3463.0565   -3922.9875            0    5261.0801    17.546162    20.667061    21.406277    7762.5069    4720.6277     5185.734    5876.8786   -167.84749    -1016.667   -278.41418   -2867.4591 
 2208000    266.54383   -3882.3428   -3425.4958   -3882.3428            0    3203.0287    17.549711    20.671242    21.410607    7767.2182    4699.3042     3774.334     1135.448   -307.26536   -1069.7513    -278.8618   -3062.6666 
 2209000    246.45199   -3884.0754   -3461.6651   -3884.0754            0     4242.992    17.580784    20.707842    21.448516    7808.5489    5237.6706    3675.3075    3815.9978    209.34221    405.20086    1414.3067   -2978.4745 
 2210000    270.13992   -3898.4862   -3435.4756   -3898.4862            0    5475.5817    17.604007    20.735195    21.476847    7839.5329    5225.7101    5557.5472    5643.4877    110.40979   -427.43079    245.15676   -2809.4439 
 2211000    259.30057   -3905.1113    -3460.679   -3905.1113            0    3884.7088    17.582273    20.709595    21.450332    7810.5329    3333.9642    4619.5065    3700.6556   -33.293091   -482.40789   -49.333783   -3018.1772 
 2212000    252.75999   -3843.6196   -3410.3976   -3843.6196            0    3962.6071    17.526694     20.64413    21.382526    7736.6972    4027.4437    4428.1386    3432.2389    -1001.632    630.78686    235.17259   -2963.2896 
 2213000    264.92322   -3827.7562   -3373.6869   -3827.7562            0    4289.2775    17.395906     20.49008    21.222965     7564.788    4825.7593     3874.749    4167.3241    1771.7095    1297.5673   -258.33528   -2900.4738 
 2214000    263.61027    -3857.354    -3405.535    -3857.354            0    4020.7416     17.36983    20.459366    21.191153     7530.821    3902.7068    3383.3048    4776.2133    402.13087   -39.353889   -334.11233   -2963.9398 
 2215000    243.73792   -3921.1159   -3503.3575   -3921.1159            0    2731.9942    17.470455    20.577889    21.313915    7662.4606    2005.6416     2897.334     3293.007    915.27841    94.205554   -107.00031   -3198.0595 
 2216000    254.62249   -3852.0946   -3415.6804   -3852.0946            0    2452.7028    17.474482    20.582631    21.318827    7667.7596    1992.4214    3033.1502    2332.5367   -1262.7741    476.71842   -193.58147   -3141.4035 
 2217000    256.43529   -3878.1582   -3438.6369   -3878.1582            0    6387.3589    17.459382    20.564846    21.300405    7647.8997    6297.1909    6829.7569    6035.1289    430.44686   -1046.9683    546.69938   -2726.2114 
 2218000    261.61655   -3879.4356   -3431.0338   -3879.4356            0    2399.0399    17.518977     20.63504    21.373111     7726.482    1257.8965    3343.3392    2595.8839    295.36124     1157.163    48.087879   -3160.7032 
 2219000    251.14171   -3851.6728   -3421.2245   -3851.6728            0    3302.8899    17.557428    20.680331    21.420021    7777.4684    2781.4527     4077.023    3050.1941    2213.6608   -969.55487    170.06975   -3046.5896 
 2220000     265.2015   -3923.5641   -3469.0178   -3923.5641            0    2753.0706    17.484259    20.594148    21.330755    7680.6379    2515.0502    2671.3553    3072.8062   -532.45337    541.99336   -606.31233   -3160.6348 
 2221000    266.32838   -3870.8392   -3414.3614   -3870.8392            0     3412.155    17.489987    20.600894    21.337743    7688.1884    2900.5142    4182.7964    3153.1545     701.4729     1633.566    1912.0192   -3031.7758 
 2222000    252.43512   -3882.5034   -3449.8383   -3882.5034            0    2595.9447    17.397075    20.491457    21.224391    7566.3134    2349.9794     2425.531    3012.3238    676.24694   -828.73969    -248.7905   -3163.3838 
 2223000    253.34549   -3915.9095    -3481.684   -3915.9095            0    1556.7143    17.467789    20.574748    21.310662    7658.9533    1518.9989    1763.9325    1387.2114    1595.4876    56.852728   -870.36318   -3307.8022 
 2224000    254.76193   -3869.6725   -3433.0192   -3869.6725            0    3810.5459    17.428902    20.528944    21.263219     7607.915    3329.8675    2989.0246    5112.7455   -210.95971   -151.78273   -618.04498   -3010.2253 
 2225000    260.97211   -3869.5044   -3422.2071   -3869.5044            0    4538.3683    17.374569    20.464947    21.196933    7536.9855    4501.7208    5233.7716    3879.6124    651.56842   -1485.4634    1524.4818   -2923.3533 
 2226000     258.0591   -3855.9607   -3413.6562   -3855.9607            0    2719.1878    17.392395    20.485944    21.218681    7560.2078    3174.0903    1877.9696    3105.5036    269.67397    1797.0829    257.61992   -3113.8443 
 2227000    274.91375   -3824.5186   -3353.3259   -3824.5186            0    4020.9791    17.389207    20.482188    21.214791    7556.0511    4451.4518    4776.5095    2834.9762   -335.00551    1006.3325   -375.51189    -2910.225 
 2228000    272.47578   -3839.6925   -3372.6784   -3839.6925            0      4649.84    17.378859        20.47    21.202167    7542.5699    3120.2998    6621.6179    4207.6023   -339.07311   -993.66916   -93.786914    -2861.193 
 2229000    270.31019    -3855.725   -3392.4226    -3855.725            0    3088.2836    17.488371     20.59899    21.335771    7686.0575    3981.3721    3195.4969    2087.9817    125.67003    545.34228    -947.3605   -3046.2468 
 2230000    259.20294   -3830.5945   -3386.3296   -3830.5945            0     4050.826    17.468259    20.575302    21.311235    7659.5712    7507.6431    1134.7353    3510.0996    835.16614    906.46837    1511.3377    -2933.824 
 2231000     277.1213   -3879.2447   -3404.2683   -3879.2447            0    4422.8163    17.340571    20.424902    21.155456    7492.8276    4901.9805    4841.1388    3525.3297    152.04876   -207.24379   -238.82452   -2920.9642 
 2232000    262.37676   -3867.1424   -3417.4376   -3867.1424            0    4085.2332    17.432862    20.533609    21.268051    7613.1022    3866.4143    4594.3691    3794.9162    1442.1303   -14.532858   -1.4918474   -2963.8571 
 2233000    258.94995   -3867.8265   -3423.9952   -3867.8265            0    2375.4747    17.439753    20.541726    21.276458    7622.1341    142.55722    4743.0637    2240.8032    75.711683    594.38601   -793.62567    -3159.935 
 2234000    265.66777   -3851.0027   -3395.6572   -3851.0027            0     3322.583    17.456301    20.561217    21.296646    7643.8518    2483.2439    4282.1105    3202.3946   -1286.1357   -199.19969   -247.59642   -3025.2632 
 2235000     256.2495   -3883.7435   -3444.5406   -3883.7435            0    2319.6174     17.55284    20.674927    21.414424    7771.3734    587.12175     5159.599    1212.1316    929.31286    1097.3461    -2009.766    -3181.641 
 2236000    248.87401   -3864.3507   -3437.7891   -3864.3507            0    4302.4983    17.483115      20.5928    21.329359    7679.1297    3292.1847    4731.4519    4883.8582    203.59094   -429.73473   -11.571081   -2955.9427 
 2237000    263.67841   -3880.8724   -3428.9366   -3880.8724            0    3768.8871    17.471305     20.57889    21.314951    7663.5789    892.38831    4509.4746    5904.7985    563.79916   -1061.9207   -1592.1744   -3007.7053 
 2238000    267.98966   -3873.5418   -3414.2167   -3873.5418            0    4607.6632    17.460119    20.565714    21.301305    7648.8689    5391.0707     3883.141    4548.7779   -830.21355   -560.50337   -788.12646   -2900.2277 
 2239000    259.46933   -3860.9246   -3416.2031   -3860.9246            0    4651.7281    17.444543    20.547367    21.282302    7628.4162     4338.482    6251.5958    3365.1064   -73.744147   -1388.6734   -1483.3743   -2898.6861 
 2240000    262.25079   -3859.0723   -3409.5835   -3859.0723            0    3249.8339    17.543492    20.663917     21.40302     7758.964    4808.0348    2210.7388    2730.7283    1175.9858    456.38201    166.48371   -3041.8435 
 2241000    252.98399   -3862.1085   -3428.5027   -3862.1085            0    3803.1849    17.446838    20.550071    21.285102    7631.4277    4277.5686    2380.7991    4751.1871    676.07519    735.79915    1133.5894   -3005.2213 
 2242000    260.21327   -3831.8292   -3385.8326   -3831.8292            0    3309.6702    17.536898     20.65615    21.394975    7750.2185    5236.5513    2421.6704     2270.789     286.2322    2161.5247    1251.1345   -3011.7439 
 2243000     269.0841   -3828.6739    -3367.473   -3828.6739            0    3171.7807    17.493613    20.605166    21.342167    7692.9722    3773.0295    2087.1731    3655.1395    1459.0474   -394.99557    -1187.581   -3011.6178 
 2244000    264.10983   -3862.8147   -3410.1395   -3862.8147            0    4557.3974    17.467666    20.574603    21.310512    7658.7914    6108.7276    5134.7551    2428.7094   -573.84373    1162.2883   -1525.7767   -2901.0982 
 2245000    259.98789   -3814.0941   -3368.4838   -3814.0941            0    4030.4551    17.441765    20.544096    21.278913    7624.7728     3953.921    6691.9271    1445.5173    437.92353     661.2216   -517.87417   -2920.2992 
 2246000    257.35326   -3844.8781   -3403.7834   -3844.8781            0    2500.0022    17.484127    20.593992    21.330594    7680.4636    2116.4705      2799.69    2583.8461    1285.5499   -1118.7052    1176.2906   -3123.7539 
 2247000    260.19265   -3893.8517   -3447.8904   -3893.8517            0    3388.3584    17.618146    20.751849    21.494097    7858.4372    3222.6592    4235.0158    2707.4004    466.35805   -20.752966   -306.28572     -3059.56 
 2248000    263.45491   -3835.9204   -3384.3678   -3835.9204            0     3586.762    17.598787    20.729047    21.470479    7832.5615    2748.8722     4824.544    3186.8698   -345.38184   -284.98533   -520.90061   -2974.6524 
 2249000    255.43847   -3889.8851   -3452.0723   -3889.8851            0    1863.8916    17.651996     20.79172    21.535394    7903.8207    1433.3587    2131.9323    2026.3837    -149.1278     545.8045    1308.4212   -3237.2232 
 2250000    281.85714    -3888.384   -3405.2905    -3888.384            0    3121.2231    17.560438    20.683876    21.423693    7781.4695    4186.2732    4154.0922    1023.3039   -841.69056    -636.4577   -226.32759   -3051.0793 
Loop time of 452.873 on 64 procs for 250000 steps with 864 atoms

Performance: 95.391 ns/day, 0.252 hours/ns, 552.031 timesteps/s
99.1% CPU use with 64 MPI tasks x 1 OpenMP threads

MPI task timing breakdown:
Section |  min time  |  avg time  |  max time  |%varavg| %total
---------------------------------------------------------------
Pair    | 18.548     | 24.136     | 28.615     |  45.8 |  5.33
Bond    | 0.26557    | 0.27279    | 0.28357    |   0.7 |  0.06
Kspace  | 197.56     | 205.4      | 215.75     |  31.9 | 45.35
Neigh   | 4.6799     | 5.5776     | 6.746      |  25.8 |  1.23
Comm    | 97.008     | 107.85     | 116.39     |  48.1 | 23.81
Output  | 0.99028    | 0.9921     | 0.99873    |   0.1 |  0.22
Modify  | 100.7      | 102.77     | 106.63     |  13.2 | 22.69
Other   |            | 5.883      |            |       |  1.30

Nlocal:        13.5000 ave          18 max          10 min
Histogram: 9 7 5 12 0 4 11 13 2 1
Nghost:        2068.19 ave        2089 max        2033 min
Histogram: 1 1 0 7 8 4 19 8 14 2
Neighs:        3970.66 ave        5524 max        2463 min
Histogram: 2 7 6 7 11 9 6 10 4 2

Total # of neighbors = 254122
Ave neighs/atom = 294.12269
Ave special neighs/atom = 2.0000000
Neighbor list builds = 14098
Dangerous builds = 0

unfix		3
unfix		2
unfix		1

write_data	data.final.${pid}
write_data	data.final.0
System init for write_data ...
PPPM initialization ...
  extracting TIP4P info from pair style
  using 12-bit tables for long-range coulomb (../kspace.cpp:340)
  G vector (1/distance) = 0.37302651
  grid = 24 24 25
  stencil order = 5
  estimated absolute RMS force accuracy = 0.0032116604
  estimated relative force accuracy = 9.6718198e-06
  using double precision FFTW3
  3d grid and FFT values/proc = 2730 288
Last active /omp style is kspace_style pppm/tip4p/omp
WARNING: Not all mixed pair coeffs generated from mixing. Use write_data with 'pair ij' option to store all pair coeffs. (../write_data.cpp:312)

write_restart   restart.lmp.${pid}
write_restart   restart.lmp.0
System init for write_restart ...
PPPM initialization ...
  extracting TIP4P info from pair style
  using 12-bit tables for long-range coulomb (../kspace.cpp:340)
  G vector (1/distance) = 0.37302651
  grid = 24 24 25
  stencil order = 5
  estimated absolute RMS force accuracy = 0.0032116604
  estimated relative force accuracy = 9.6718198e-06
  using double precision FFTW3
  3d grid and FFT values/proc = 2730 288
Last active /omp style is kspace_style pppm/tip4p/omp
Total wall time: 0:07:36
