LAMMPS (30 Jul 2021)
  using 1 OpenMP thread(s) per MPI task
package omp 0
using multi-threaded neighbor list subroutines
echo both

include		in.partitions
variable        pid world 0
include		in.temp
variable        temperature equal 291.92
variable	tempDamp equal 100.0
include		in.pressure
variable        pressure equal 13250.0
variable        pressureDamp equal 1000.0 # This is 1 ps
include		in.seed
variable        seed world 745823

units		real
atom_style	full
read_restart	restart.lmp.${pid}
read_restart	restart.lmp.0
Reading restart file ...
  restart file = 30 Jul 2021, LAMMPS = 30 Jul 2021
  restoring atom style full from restart
  orthogonal box = (0.74898402 1.9737355 0.91375875) to (17.458588 21.655442 21.299437)
  4 by 4 by 4 MPI processor grid
  restoring pair style lj/cut/tip4p/long/omp from restart
  restoring bond style harmonic/omp from restart
  restoring angle style harmonic/omp from restart
  864 atoms
  576 bonds
  288 angles
Finding 1-2 1-3 1-4 neighbors ...
  special bond factors lj:    0        0        0       
  special bond factors coul:  0        0        0       
     2 = max # of 1-2 neighbors
     1 = max # of 1-3 neighbors
     1 = max # of 1-4 neighbors
     2 = max # of special neighbors
  special bonds CPU = 1.740 seconds
  read_restart CPU = 2.058 seconds
include 	in.setup
variable	out_freq equal 1000
variable	out_freq2 equal 10000
variable	out_freq3 equal 1000

timestep	2.0

neigh_modify    delay 7 every 1

include		in.tip4p
# This is TIP4P/Ice

# create groups ###
group ox type 2
288 atoms in group ox
group hy type 1
576 atoms in group hy

# set charges - beside manually ###
set group ox charge -1.1794
Setting atom values ...
  288 settings made for charge
set group hy charge 0.5897
Setting atom values ...
  576 settings made for charge

# ### TIP3P Potential Parameters ###
pair_style lj/cut/tip4p/long/omp 2 1 1 1 0.1577 8.5
pair_coeff 1 1*2 0.000 0.000
pair_coeff 2 2 0.21084 3.1668
bond_style  harmonic
bond_coeff  1 450 0.9572
angle_style harmonic
angle_coeff 1 55 104.52
kspace_style pppm/tip4p/omp 1.0e-5
pair_modify tail yes

thermo          ${out_freq}
thermo          1000
thermo_style    custom step temp pe etotal epair emol press lx ly lz vol pxx pyy pzz pxy pxz pyz enthalpy

restart 	${out_freq3} restart.lmp.${pid} restart2.lmp.${pid}
restart 	1000 restart.lmp.${pid} restart2.lmp.${pid}
restart 	1000 restart.lmp.0 restart2.lmp.${pid}
restart 	1000 restart.lmp.0 restart2.lmp.0


include         in.dump
dump            myDump all atom ${out_freq2} dump.water.${pid}
dump            myDump all atom 10000 dump.water.${pid}
dump            myDump all atom 10000 dump.water.0
dump            myDump2 all dcd ${out_freq2} dump.dcd
dump            myDump2 all dcd 10000 dump.dcd
dump_modify     myDump append yes
dump_modify     myDump2 append yes


variable natoms 	equal  "count(all)"                        # NUMBER ATOMS
variable H      	equal  "enthalpy/v_natoms"                 # ENTHALPY-per-atom
variable Vol      	equal  "vol/v_natoms"                 # volume-per-atom
fix AVG all 		ave/time ${out_freq} 1 ${out_freq} v_Vol v_H file vol_enthalpy.dat
fix AVG all 		ave/time 1000 1 ${out_freq} v_Vol v_H file vol_enthalpy.dat
fix AVG all 		ave/time 1000 1 1000 v_Vol v_H file vol_enthalpy.dat


timer           timeout 23:50:00 every 1000
New timer settings: style=normal  mode=nosync  timeout=23:50:00

fix 		1 all shake 1e-6 200 0 b 1 a 1
       0 = # of size 2 clusters
       0 = # of size 3 clusters
       0 = # of size 4 clusters
     288 = # of frozen angles
  find clusters CPU = 0.421 seconds
fix             2 all nph iso ${pressure} ${pressure} ${pressureDamp}
fix             2 all nph iso 13250 ${pressure} ${pressureDamp}
fix             2 all nph iso 13250 13250 ${pressureDamp}
fix             2 all nph iso 13250 13250 1000
fix             3 all temp/csvr ${temperature} ${temperature} ${tempDamp} ${seed}
fix             3 all temp/csvr 291.92 ${temperature} ${tempDamp} ${seed}
fix             3 all temp/csvr 291.92 291.92 ${tempDamp} ${seed}
fix             3 all temp/csvr 291.92 291.92 100 ${seed}
fix             3 all temp/csvr 291.92 291.92 100 745823

run             250000
PPPM initialization ...
  extracting TIP4P info from pair style
  using 12-bit tables for long-range coulomb (../kspace.cpp:340)
  G vector (1/distance) = 0.37555696
  grid = 24 24 24
  stencil order = 5
  estimated absolute RMS force accuracy = 0.0030163122
  estimated relative force accuracy = 9.0835346e-06
  using double precision FFTW3
  3d grid and FFT values/proc = 2535 216
Last active /omp style is kspace_style pppm/tip4p/omp
Neighbor list info ...
  update every 1 steps, delay 7 steps, check yes
  max neighbors/atom: 2000, page size: 100000
  master list distance cutoff = 10.8154
  ghost atom cutoff = 10.8154
  binsize = 5.4077, bins = 4 4 4
  1 neighbor lists, perpetual/occasional/extra = 1 0 0
  (1) pair lj/cut/tip4p/long/omp, perpetual
      attributes: half, newton on, omp
      pair build: half/bin/newton/omp
      stencil: half/bin/3d
      bin: standard
Per MPI rank memory allocation (min/avg/max) = 9.238 | 9.242 | 9.244 Mbytes
Step Temp PotEng TotEng E_pair E_mol Press Lx Ly Lz Volume Pxx Pyy Pzz Pxy Pxz Pyz Enthalpy 
13000000    308.32057   -3740.6338   -3212.1829   -3740.6338            0    15129.383    16.709604    19.681707    20.385678      6704.31    14313.189    15633.667    15441.294   -1539.5402   -352.06933   -246.09191   -1732.9001 
13001000    294.58664   -3753.6959   -3248.7845   -3753.6959            0    13090.903    16.734324    19.710823    20.415836    6734.1082    12196.679    13953.404    13122.627   -527.05144   -356.79277   -509.49903    -1963.126 
13002000     282.1061   -3745.3768   -3261.8566   -3745.3768            0    12420.891    16.771206    19.754265    20.460832     6778.732    11351.015    12237.465    13674.194    1890.9979    66.287748      113.439   -2033.9167 
13003000    295.38162   -3736.1705   -3229.8965   -3736.1705            0    11270.399    16.786006    19.771697    20.478888    6796.6935    10270.429    12631.883    10908.884    -49.73756    498.54135    1188.6675    -2112.743 
13004000    284.98968   -3776.4494   -3287.9868   -3776.4494            0    12507.104    16.736187    19.713018     20.41811    6736.3583    11544.403    12038.857    13938.052     553.7193     1407.225   -676.78576   -2059.2529 
13005000      300.677   -3748.2447   -3232.8946   -3748.2447            0    12356.343    16.777862    19.762105    20.468952    6786.8057    10474.255    15531.246    11063.528    699.95661    1047.5601    1467.0527    -2009.881 
13006000    293.68009   -3724.3447   -3220.9871   -3724.3447            0    13723.063    16.720805      19.6949    20.399343    6717.8014    13033.625     14426.81    13708.753   -571.61928    834.34935    1355.3989   -1876.5078 
13007000    302.84805   -3724.5393   -3205.4681   -3724.5393            0    13689.251    16.665646    19.629929    20.332049    6651.5371    14814.208     15070.31    11183.235   -2050.8622   -982.69646   -1886.1771   -1877.5308 
13008000    289.13422   -3705.2758   -3209.7096   -3705.2758            0    13450.614    16.725419    19.700335    20.404973    6723.3642    13539.783    15747.226    11064.834    456.85432    1664.2111    -1938.697   -1890.8316 
13009000    308.75124   -3742.7318   -3213.5427   -3742.7318            0    15065.922    16.763307    19.744962    20.451196    6769.1589    16668.019    14391.854    14137.894   -357.79888    1603.1707   -1909.5631   -1726.2162 
13010000    295.93878   -3741.3093   -3234.0804   -3741.3093            0     12753.73    16.799146    19.787175    20.494919    6812.6677     13881.82    11158.801    13220.567   -214.65998    1640.1584    -136.4567   -1966.9238 
13011000    293.40556    -3752.001   -3249.1139    -3752.001            0    11780.186    16.769676    19.752463    20.458965    6776.8765    13806.318    10490.227    11044.013     442.5794     2746.737   -289.23246   -2084.8334 
13012000    307.69815   -3735.1683   -3207.7842   -3735.1683            0    15554.645      16.7518    19.731408    20.437157    6755.2282    17306.368    13904.645    15452.924    2100.1469   -1684.0442   -1035.6244   -1675.3705 
13013000    302.27591   -3727.7483   -3209.6577   -3727.7483            0    14721.686    16.694748    19.664208    20.367554    6686.4441    13465.622    16125.894     14573.54   -1094.9574    394.94753     1073.062   -1774.0736 
13014000    279.03616   -3772.4744    -3294.216   -3772.4744            0    12098.337    16.740481    19.718076    20.423348    6741.5446    12632.528    10397.681    13264.803   -1257.8585    1109.3723   -1527.2135   -2104.7255 
13015000    292.77502   -3737.0398   -3235.2334   -3737.0398            0    15016.058     16.71207    19.684611    20.388687    6707.2785    14312.682    14564.644    16170.848     214.1933    1339.1107    37.628719    -1766.381 
13016000    299.17418   -3740.8308   -3228.0565   -3740.8308            0    12147.089       16.754    19.733999     20.43984    6757.8896    12521.906    13357.792    10561.569    2771.2023     681.4053    778.15518   -2030.8772 
13017000     302.5485   -3749.5494   -3230.9917   -3749.5494            0    10562.643    16.825995    19.818799    20.527674    6845.3845    7928.4398    11744.275    12015.213   -791.68277   -765.20467   -1550.9447   -2176.4923 
13018000    284.51508   -3775.2739   -3287.6248   -3775.2739            0    11796.469    16.765253    19.747253    20.453569    6771.5159    11875.414    12353.332     11160.66    407.15371   -500.64753     624.9138   -2122.6573 
13019000    286.82211   -3732.8352   -3241.2319   -3732.8352            0    13393.648    16.766426    19.748635       20.455    6772.9372    10675.236    13467.022    16038.687    380.70274    675.16096    360.13128   -1918.2563 
13020000    288.57294   -3763.1543   -3268.5502   -3763.1543            0    14345.728     16.80336    19.792139     20.50006    6817.7963     13703.55    12555.232    16778.401    -1591.215   -3172.9885   -87.540158   -1842.1464 
13021000    294.20458   -3731.8838   -3227.6272   -3731.8838            0    15540.914    16.727566    19.702863    20.407591    6725.9528    14230.686    16058.244    16333.811   -1450.5902   -1252.5551   -1619.4039   -1703.2015 
13022000    300.70441   -3721.2439   -3205.8469   -3721.2439            0     14121.46    16.724515     19.69927     20.40387    6722.2739    13930.762    15271.313    13162.306    94.369438    741.11783    412.42925   -1821.4146 
13023000     290.5831   -3788.3883   -3290.3388   -3788.3883            0    12498.201    16.761657    19.743017    20.449182    6767.1594    13434.051    14304.312    9756.2391   -1180.0742    -1065.532    1381.6145   -2056.8654 
13024000    301.45014   -3703.9981   -3187.3228   -3703.9981            0    11438.487    16.799971    19.788147    20.495926    6813.6716    10603.871    12601.362    11110.228   -1126.3292    1048.6722    452.63175   -2050.6757 
13025000    296.52291   -3733.7142   -3225.4841   -3733.7142            0    11883.902    16.743564    19.721707    20.427109    6745.2699    12390.861    10211.726     13049.12   -1315.1825   -652.65764    2446.4257   -2056.4308 
13026000    296.05817   -3727.0715   -3219.6379   -3727.0715            0    12589.763    16.805918    19.795151     20.50318    6820.9096     12937.16    13500.037    11332.093   -194.75414   -733.19601   -80.888193    -1967.259 
13027000    288.15987    -3738.498   -3244.6018    -3738.498            0    12118.764    16.828533    19.821789    20.530771    6848.4826    12037.588    12869.552    11449.151    568.19613   -2245.4041   -108.28478   -2034.2028 
13028000    312.35078   -3790.3234   -3254.9649   -3790.3234            0    11866.464     16.75313    19.732974     20.43878    6756.8374    13272.738     13017.87    9308.7851   -684.38862   -467.22153   -512.55164   -2085.6252 
13029000    268.54316   -3765.3855   -3305.1117   -3765.3855            0    13377.523    16.796033    19.783509    20.491121    6808.8814     14650.24    14019.466    11462.861   -248.58434   -786.73562   -2423.3427   -1976.7164 
13030000    289.92552   -3754.8583   -3257.9359   -3754.8583            0    12818.224    16.808015    19.797622    20.505739    6823.4637    11428.817    11560.659    15465.197    201.27437    1803.7762    264.22614   -1982.3531 
13031000    316.20762   -3773.1566   -3231.1876   -3773.1566            0    11965.966    16.769502    19.752258    20.458753     6776.666    11368.049    14320.004    10209.843   -1486.1146   -1843.5127   -161.73533   -2048.5826 
13032000    297.83871   -3776.2936   -3265.8083   -3776.2936            0    14809.589    16.734653    19.711211    20.416238    6734.5063    13837.006    15382.508    15209.253   -1608.0832    -470.1123   -364.88744   -1811.2717 
13033000    289.26432   -3787.3664   -3291.5773   -3787.3664            0    13589.883    16.787768    19.773773    20.481038    6798.8344    13945.323     12331.63    14492.695   -744.76262   -3413.3552   -450.86075   -1944.0857 
13034000    291.25828   -3789.7069   -3290.5001   -3789.7069            0    13324.121    16.679724    19.646512    20.349225    6668.4083    12787.824     13081.04    14103.499    333.86847    623.01959   -353.11502   -1994.7041 
13035000    280.85956   -3813.1741   -3331.7904   -3813.1741            0    13127.012    16.734704    19.711271      20.4163     6734.567    14457.457    13323.616    11599.964   -1187.3986   -1067.4126    363.82635   -2042.4979 
13036000    283.78337   -3779.6939   -3293.2989   -3779.6939            0    14362.434    16.715146    19.688235     20.39244    6710.9832     16554.55    13150.646    13382.105    269.46575     260.5465   -454.40217   -1887.6072 
13037000    283.23283   -3747.3174    -3261.866   -3747.3174            0    14000.009    16.739823      19.7173    20.422544    6740.7488     14429.89    14574.933    12995.202    628.39466    790.77286   -295.65859   -1885.5685 
13038000    297.79425   -3771.0879   -3260.6787   -3771.0879            0    12787.725    16.751539      19.7311    20.436838    6754.9124    12889.814    11925.498    13547.863    739.55969    79.600951    652.49459   -2000.9156 
13039000    306.67399   -3785.6069   -3259.9782   -3785.6069            0    14423.942    16.707037    19.678683    20.382546    6701.2202    13251.473    12395.082    17625.272    496.11216   -1688.9409   -1352.7795   -1850.3203 
13040000    292.70936   -3759.7452   -3258.0514   -3759.7452            0    15569.909     16.76508     19.74705    20.453358    6771.3065    16368.921    16361.797    13979.009    1702.5733    -878.9974   -626.95149    -1720.483 
13041000    280.69835   -3733.6604    -3252.553   -3733.6604            0    11623.899    16.813715    19.804335    20.512693    6830.4073     11165.98    10426.935    13278.782    1204.0087    -408.5939    1061.1141   -2094.6443 
13042000     286.0943   -3755.8283   -3265.4725   -3755.8283            0    14794.145    16.742936    19.720967    20.426343    6744.5106     14868.83    14273.858    15239.747   -260.87777    -424.7934   -667.40729   -1810.2943 
13043000    298.81639   -3749.8151    -3237.654   -3749.8151            0    13091.006    16.774513    19.758161    20.464867    6782.7434     12365.84    14511.821    12395.358   -341.02527   -893.39104    46.069232   -1942.7001 
13044000    295.22081   -3758.2667   -3252.2683   -3758.2667            0      14363.9    16.762968    19.744562    20.450782     6768.748    12199.307     14339.54    16552.853    -2159.454    198.32663   -1282.8896   -1834.3324 
13045000    286.91761   -3806.4387   -3314.6718   -3806.4387            0    12036.683    16.715159    19.688249    20.392454    6710.9977    11620.496    12791.884     11697.67   -24.870854   -257.35908    534.06149   -2136.6053 
13046000    292.34757   -3741.2719   -3240.1981   -3741.2719            0    12500.755    16.708833    19.680798    20.384737    6703.3813    12976.219    13222.596     11303.45   -493.59122    734.44843    853.09137   -2018.1001 
13047000    282.02754   -3761.3017   -3277.9162   -3761.3017            0    13522.694    16.681928    19.649108    20.351914    6671.0522    11899.402    14370.567    14298.115    1329.1651    1137.8714    289.85057   -1962.2871 
13048000    284.58631   -3738.3449   -3250.5737   -3738.3449            0    13114.231    16.710492    19.682752    20.386761    6705.3787    14038.764    13351.564    11952.364   -280.19141    1176.8115   -1026.3562    -1968.119 
13049000    303.07856   -3761.8562   -3242.3899   -3761.8562            0    11208.409     16.78933    19.775613    20.482943    6800.7322    11343.778     11518.53    10762.919   -79.880338    353.02389   -276.04369   -2130.7208 
13050000    290.74789   -3759.6291   -3261.2971   -3759.6291            0    13035.758    16.779276     19.76377    20.470677    6788.5219    12221.675    13786.344    13099.255    825.56816   -1001.4132    1765.6236   -1970.7098 
13051000    297.71369   -3737.5133   -3227.2422   -3737.5133            0    11308.488    16.849125    19.846044    20.555893    6873.6539    10076.742    12245.142    11603.582   -944.07997   -361.21703    108.33824   -2093.6206 
13052000    289.16272   -3759.1953   -3263.5802   -3759.1953            0    15252.316    16.748189    19.727154    20.432751    6750.8602    16609.309    14705.464    14442.177   -515.92707    403.59488    2311.8724    -1761.923 
13053000    284.22086   -3747.7753   -3260.6305   -3747.7753            0    13890.091    16.710261     19.68248     20.38648    6705.1006    13464.532    14702.746    13502.995    -422.8006    1939.3331    1061.8967     -1902.36 
13054000    312.85284   -3754.3151    -3218.096   -3754.3151            0    15123.808     16.72163    19.695871    20.400349    6718.7954    14957.417    16317.994    14096.012    56.095815   -555.60044   -948.14671   -1736.1634 
13055000    287.06012   -3731.8556   -3239.8444   -3731.8556            0     13745.98     16.76114    19.742409    20.448552    6766.5339    12306.643    14126.508    14804.788   -1364.8205    -1860.563    2516.7089   -1883.3504 
13056000    305.00379   -3726.8616   -3204.0956   -3726.8616            0     14395.73    16.737209    19.714222    20.419356    6737.5925     14635.62    13657.227    14894.343    737.56045     2518.225     557.3073   -1789.5585 
13057000    301.59615    -3771.848   -3254.9225    -3771.848            0    12079.399    16.799168    19.787201    20.494946    6812.6947    11582.364    11490.034    13165.798    1715.4984     435.8948    1993.6266   -2054.7598 
13058000    292.44615   -3768.0052   -3266.7625   -3768.0052            0    11697.289    16.811677    19.801935    20.510207    6827.9247    11831.583    11121.845    12138.439   -965.38443     1871.641    858.07975   -2101.9666 
13059000    301.55132   -3778.8108   -3261.9622   -3778.8108            0    12546.029    16.846401    19.842835     20.55257    6870.3207     12584.74    13604.101    11449.245   -202.06949    783.87371    45.727361    -2004.893 
13060000    284.44339   -3801.8613   -3314.3351   -3801.8613            0    10613.428    16.811202    19.801375    20.509627    6827.3454    11526.527    9096.7838    11216.974    49.208033    1152.8138    -700.4274   -2257.5578 
13061000    284.10552   -3731.8845   -3244.9374   -3731.8845            0    12186.307    16.811429    19.801643    20.509905    6827.6226    10224.401    13013.247    13321.273    11.335548   -1015.6119   -891.90459   -2031.4996 
13062000     303.4452   -3766.4285   -3246.3338   -3766.4285            0    10526.348    16.819436    19.811074    20.519673    6837.3826    10371.411    10026.363     11181.27   -1024.6969   -1095.5981    -76.50837   -2196.6862 
13063000    294.38685   -3701.0866   -3196.5176   -3701.0866            0    13035.453    16.770191     19.75307    20.459594    6777.5015    14229.338    13067.801    11809.219   -371.37286    1196.0102    1214.7628   -1908.0556 
13064000    311.13015    -3806.126   -3272.8596    -3806.126            0     13433.41    16.704017    19.675125    20.378861    6697.5865    11328.716    15311.138    13660.375    -66.71257   -150.32857   -1649.6075   -1960.7186 
13065000    289.33532   -3794.9124   -3299.0015   -3794.9124            0    15493.404    16.636624    19.595746    20.296642    6616.8486    13039.794     15981.36    17459.059   -155.15954   -70.809622    361.02539   -1803.8888 
13066000    308.73978   -3771.6017   -3242.4322   -3771.6017            0    13601.795    16.716992    19.690408    20.394691    6713.2061    12996.891    12933.875    14874.619   -2726.0647   -1009.8046   -364.67042   -1910.7454 
13067000     291.5583   -3809.9063   -3310.1853   -3809.9063            0    11752.083    16.697314     19.66723    20.370684    6689.5274    10831.343    10858.567    13566.338   -1271.6109   -773.67956   -220.91888   -2163.6534 
13068000    303.75112   -3823.5902   -3302.9712   -3823.5902            0    11661.268    16.753281    19.733152    20.438963    6757.0198     11992.04    12193.616     10798.15    1824.6885   -1684.5888   -949.26942   -2153.8208 
13069000    272.76468   -3774.3279   -3306.8186   -3774.3279            0     13568.91    16.640792    19.600654    20.301727    6621.8224    13212.128    15438.362    12056.241   -729.89677   -2377.7864   -1160.2332   -1996.4352 
13070000    282.22184   -3751.6491   -3267.9305   -3751.6491            0    11343.505     16.75921    19.740136    20.446197    6764.1964    13615.112    8843.1566    11572.247   -73.817447    1143.8324    -462.1436   -2148.9066 
13071000     290.6412   -3753.5763   -3255.4272   -3753.5763            0    12459.357     16.76182     19.74321    20.449381    6767.3571    13074.343    11326.945    12976.784   -37.875763   -843.44025   -935.55541   -2025.7515 
13072000    309.87373   -3709.7129      -3178.6   -3709.7129            0    11643.323    16.808009    19.797614    20.505731    6823.4559    12348.297    12402.643     10179.03    989.36388    301.29508     1414.493   -2019.9367 
13073000    274.10585   -3747.1083   -3277.3002   -3747.1083            0    12889.728    16.707016    19.678658     20.38252    6701.1947    13825.313    14281.278    10562.594     1390.863   -174.27331    1457.8652   -2017.5864 
13074000    288.50732   -3748.9616   -3254.4699   -3748.9616            0    13868.809    16.718122    19.691739     20.39607    6714.5678    13659.744    13981.406    13965.277    1423.4646   -2199.9215    1567.4411   -1896.3656 
13075000    278.20435   -3732.7926   -3255.9599   -3732.7926            0    14351.331    16.762287    19.743759     20.44995    6767.9224    15462.256    13282.512    14309.226   -36.292951    1254.8674    -1471.172   -1839.4375 
13076000    292.94548   -3767.2477   -3265.1492   -3767.2477            0    13607.101    16.752633    19.732389    20.438174    6756.2365    16140.408    12226.551    12454.344    472.07424   -267.98936   -149.48582   -1924.4037 
13077000    277.50496   -3749.0642   -3273.4302   -3749.0642            0    15641.079    16.676978    19.643277    20.345874    6665.1149    16021.326     16459.77    14442.141    169.41244     1394.161    1408.3613   -1753.0568 
13078000    307.58695   -3717.7084   -3190.5149   -3717.7084            0    12705.475    16.715246    19.688352    20.392561    6711.1034    11769.766    14866.495    11480.164    -645.3839    1404.5716    1850.4668   -1946.9721 
13079000    291.70813   -3762.2809   -3262.3031   -3762.2809            0    15088.309    16.666176    19.630554    20.332696    6652.1723    14616.113     14343.08    16305.734   -1560.3187    1757.8955    239.37957   -1798.5092 
13080000    306.02642   -3742.4473   -3217.9285   -3742.4473            0    11544.927    16.744561    19.722881    20.428325    6746.4747    13682.535     11546.42    9405.8244    1182.3627    935.37985   -248.99094   -2082.0184 
13081000    290.00045   -3771.1736   -3274.1227   -3771.1736            0    14076.954    16.749484     19.72868    20.434331    6752.4266    11886.549    14597.001    15747.313    1679.4474    1632.1853   -406.79667   -1887.8635 
13082000    304.05963   -3800.8817   -3279.7339   -3800.8817            0    15548.743    16.684902    19.652611    20.355542    6674.6205    14485.403    16005.692    16155.133   -1234.7333   -531.61601    1131.6962   -1766.1805 
13083000    274.60428   -3756.7901   -3286.1278   -3756.7901            0    13782.422    16.735392    19.712082     20.41714    6735.3983    13521.111    14359.113    13467.042   -649.68786    906.35363    930.91349    -1932.296 
13084000    314.09762   -3742.2468   -3203.8942   -3742.2468            0     13373.36    16.737951    19.715095    20.420261    6738.4879    12265.999    14071.499    13782.584   -429.51984    1011.7819    84.515118   -1889.6415 
13085000    305.62308   -3819.4562   -3295.6287   -3819.4562            0    11635.951    16.787454    19.773403    20.480654    6798.4526    11330.685    12646.992    10930.175   -263.43192    583.57508   -1657.6823   -2141.9421 
13086000    284.98804   -3773.2882   -3284.8284   -3773.2882            0    13064.831    16.737925    19.715065     20.42023    6738.4569    10640.218    13449.861    15104.414      -2190.7   -1949.6647    282.34819    -2000.902 
13087000    287.94337   -3789.4678   -3295.9427   -3789.4678            0    12911.394    16.755595    19.735877    20.441787    6759.8201    14052.471    12498.558    12183.153    -718.5851    1635.0339    1614.0108   -2023.0724 
13088000    302.70909   -3775.9204   -3257.0874   -3775.9204            0    11960.832    16.850324    19.847456    20.557356     6875.121    12532.198    9919.5391     13430.76   -1117.3526   -1196.2083    -920.3699   -2057.8155 
13089000    290.83411   -3813.3533   -3314.8736   -3813.3533            0    14954.705     16.67769    19.644116    20.346743    6665.9691    14159.941    17390.658    13313.515    1016.2293    126.03766   -27.053692   -1861.0323 
13090000    294.27534   -3785.3357   -3280.9579   -3785.3357            0    11188.842    16.798756    19.786716    20.494443    6812.1931    11841.481    10917.063    10807.983   -1513.3056    735.61248    5.0115592   -2169.3593 
13091000    281.39529   -3789.0883   -3306.7864   -3789.0883            0    11508.398    16.784544    19.769976    20.477105    6794.9184    10772.841    11867.376    11884.978    2986.4695    473.17583   -1881.3031   -2166.3397 
13092000    306.22488   -3761.0174   -3236.1584   -3761.0174            0    13182.645    16.752527    19.732264    20.438044    6756.1083     14597.61     11294.98    13655.344   -631.75596    106.62764   -2705.7099   -1937.2604 
13093000    298.73684   -3804.5418   -3292.5171   -3804.5418            0    12063.747    16.773664    19.757161    20.463831    6781.7129    11500.203    12745.545    11945.494    815.03128   -641.52486    825.64599   -2099.3603 
13094000    292.75103   -3779.0028   -3277.2375   -3779.0028            0    12343.473     16.73092    19.706813    20.411683    6729.9994    12593.738    11848.263    12588.419    1778.3317   -746.87903    428.20019   -2065.7239 
13095000     299.7903   -3795.9126   -3282.0823   -3795.9126            0    15925.202    16.706681    19.678263    20.382111    6700.7915    13298.002    17962.039    16515.565   -1577.6284   -618.64698   -1973.7093   -1725.8051 
13096000    299.70511   -3761.0649   -3247.3806   -3761.0649            0    11981.224    16.722156    19.696491    20.400991    6719.4295     13505.51    11441.459    10996.704   -699.12073   -307.08263   -13.998703   -2073.2687 
13097000    315.83346   -3779.6034   -3238.2757   -3779.6034            0     12940.19    16.696262    19.665991      20.3694    6688.2627    14489.339    12300.315    12030.915   -492.90078   -632.71468    76.687649   -1976.0708 
13098000    276.29703   -3756.7169   -3283.1533   -3756.7169            0    12052.854    16.741567    19.719354    20.424672     6742.856    12721.543     12738.97     10698.05   -434.41188    655.78868    -1018.816   -2097.9041 
13099000    281.97065   -3728.3504   -3245.0624   -3728.3504            0    12287.021    16.779029     19.76348    20.470376    6788.2221    11472.396    11599.739    13788.927    443.87816    303.85014   -528.28375   -2028.6565 
13100000    290.08709   -3724.7455   -3227.5461   -3724.7455            0    12804.781     16.74404    19.722267    20.427689    6745.8444    12018.627     15213.86    11181.856    1562.8109    513.25598    1711.6925   -1967.7961 
13101000    285.27195   -3758.6408   -3269.6944   -3758.6408            0    12444.422    16.733422    19.709761    20.414736      6733.02    11006.402    14786.059    11540.805   -683.25997   -1635.5779    366.10314   -2047.7245 
13102000    294.53538   -3771.3511   -3266.5275   -3771.3511            0    10721.236    16.828547    19.821805    20.530788    6848.4994    9944.1034    11340.689    10878.915   -3.5369334    312.44731   -927.40578   -2195.7083 
13103000    287.21688   -3731.8916   -3239.6117   -3731.8916            0    13405.262    16.795986    19.783453    20.491063    6808.8237     15226.31    13054.764    11934.713    369.85241   -654.88181    2692.4683    -1908.473 
13104000    294.02545   -3755.1418   -3251.1923   -3755.1418            0    14264.389    16.771893    19.755074     20.46167    6779.5646    14195.154    15139.647    13458.365   -4121.7933   -245.00613    567.02032   -1840.8294 
13105000    284.17432   -3699.3589   -3212.2939   -3699.3589            0     11387.28    16.796032    19.783508     20.49112    6808.8804    11772.308    11585.249    10804.285    795.89718    1019.7767    197.50795   -2081.5308 
13106000    276.73054   -3746.6904   -3272.3837   -3746.6904            0    12425.643    16.752917    19.732723     20.43852    6756.5796    12112.597    13204.783     11959.55   -748.32292    2857.4204    531.98375   -2047.9884 
13107000    290.50604   -3783.0044    -3285.087   -3783.0044            0    12981.929    16.751458    19.731004    20.436739     6754.814    13593.456     13036.42     12315.91   -1423.7091    12.876645   -506.75116   -2006.2108 
13108000    289.57772   -3755.3126   -3258.9863   -3755.3126            0     13852.79    16.773477     19.75694    20.463603    6781.4862     15448.73    12941.848    13167.791   -847.32163   -28.462849     1584.647   -1888.9312 
13109000    295.07275   -3768.2224   -3262.4778   -3768.2224            0    16900.037    16.655349    19.617801    20.319486    6639.2156    19431.857    16246.505    15021.749   -167.08547   -688.24773    435.67716   -1626.1124 
13110000    290.02067   -3766.6726   -3269.5871   -3766.6726            0    12401.689    16.719158     19.69296    20.397334    6715.8165    12504.355    13919.285    10781.425   -29.437968   -216.41725   -2863.7455   -2054.9249 
13111000    301.20428   -3804.9013   -3288.6475   -3804.9013            0    10580.084    16.786267    19.772005    20.479206    6797.0108    8388.4826    11123.896    12227.873    102.86806     534.9781   -1440.3767    -2239.871 
13112000    297.41698   -3788.7008   -3278.9383   -3788.7008            0    14025.487    16.725045    19.699894    20.404516     6722.913        13649    14818.237    13609.223     410.2738    24.021751   -1149.8527   -1903.7843 
13113000      285.064   -3768.4278   -3279.8379   -3768.4278            0    15157.271    16.704134    19.675263    20.379004    6697.7276    15876.662    14287.829    15307.324    68.393772    231.13449   -973.79765   -1799.2834 
13114000    306.69232   -3751.4309   -3225.7708   -3751.4309            0    11701.299    16.796833    19.784451    20.492098    6809.8546     10671.36    11577.675    12854.861    720.54081    1609.1676   -2270.7836   -2063.6593 
13115000    308.97747   -3782.4577   -3252.8809   -3782.4577            0    13952.842     16.72547    19.700394    20.405034    6723.4251    13638.903    14883.105    13336.518    851.71201    1478.3917    1386.0521   -1884.7453 
13116000    273.77146   -3750.3798   -3281.1449   -3750.3798            0    13139.603    16.719093    19.692883    20.397255    6715.7381    13550.027    14401.877    11466.907   -2706.0961    1293.8238    567.91152   -1994.2239 
13117000    285.06323   -3806.3127   -3317.7241   -3806.3127            0    12337.532    16.774896    19.758611    20.465333     6783.207    12190.629    10617.228    14204.739    -1583.133    1920.8846    941.03411   -2097.2199 
13118000    276.69957   -3751.3575    -3277.104   -3751.3575            0    11250.205     16.73102    19.706932    20.411806    6730.1209    9889.6238     12586.38    11274.613   -487.33565    531.42389   -1092.5681   -2172.8748 
13119000    280.10111   -3731.1544   -3251.0706   -3731.1544            0    14557.896    16.725655    19.700612     20.40526    6723.6478    13993.318    15845.159    13835.211   -1418.3119    562.84914   -1027.8959   -1823.5596 
13120000    292.48973   -3763.6648   -3262.3474   -3763.6648            0    12368.191    16.723361     19.69791    20.402461    6720.8819    12278.445    12543.525    12282.604   -39.596793      -799.44    1750.0681   -2050.0523 
13121000    283.12567   -3753.5325   -3268.2648   -3753.5325            0    11997.763    16.775388    19.759192    20.465935    6783.8048    10710.322    12638.983    12643.983   -1023.2852    380.36477   -328.22877   -2081.2682 
13122000    299.38224   -3773.7068   -3260.5759   -3773.7068            0    10873.728    16.814175    19.804877    20.513254    6830.9682    10905.176    12068.167    9647.8414    735.67143    1533.6924    169.10237   -2177.3061 
13123000    283.08936   -3790.2318   -3305.0263   -3790.2318            0    12690.592    16.741512     19.71929    20.424606    6742.7904    12523.041    13278.418    12270.318   -650.00618    1795.7784   -895.23807   -2057.0756 
13124000    304.00805    -3789.949   -3268.8896    -3789.949            0    12729.935    16.724161    19.698852    20.403437    6721.8466    11707.343    14528.658    11953.804    885.33729    906.96769    -287.2194   -2020.9584 
13125000    302.83365   -3742.6703   -3223.6237   -3742.6703            0    12890.136    16.819142    19.810728    20.519314    6837.0241    13934.237    11621.635    13114.537    1015.8818    232.00718   -365.60117   -1938.3356 
13126000    292.85915   -3765.1137   -3263.1631   -3765.1137            0    12103.054    16.777465    19.761638    20.468469    6786.3248    13256.251     10527.47    12525.442   -512.56679    31.391688    217.32955   -2065.3046 
13127000    297.61926   -3748.3379   -3238.2287   -3748.3379            0    11876.294    16.777649    19.761855    20.468693     6786.548    10657.395      13664.7    11306.787    1064.6303    2224.8032   -1116.8653   -2062.7744 
13128000    288.66048   -3752.0155   -3257.2613   -3752.0155            0    14694.795    16.705539    19.676919    20.380719    6699.4182    15127.949    15557.126     13399.31    1054.5876    638.26259    1075.3914   -1821.5189 
13129000    307.37859   -3762.6811   -3235.8448   -3762.6811            0    12716.802    16.804881     19.79393    20.501916    6819.6473    12229.595    12789.504    13131.307    340.32269   -2303.9916   -1031.1484   -1971.0627 
13130000    270.96044   -3755.9689    -3291.552   -3755.9689            0    14823.233    16.686733    19.654767    20.357775    6676.8175    15986.422    12329.726     16153.55    676.76565   -879.36693   -427.55468   -1848.1465 
13131000    280.18868   -3755.7487   -3275.5149   -3755.7487            0    14930.654    16.654285    19.616547    20.318188    6637.9432    15881.945    14146.904    14763.113    1155.5158    137.81358   -797.08467   -1830.1142 
13132000    288.46943   -3687.0953   -3192.6686   -3687.0953            0    13405.031      16.7391    19.716449    20.421663    6739.8757     13353.48    15411.585    11450.028    -1006.128    57.323924    939.04885   -1875.0321 
13133000    276.75647   -3762.8054   -3288.4542   -3762.8054            0    12915.998    16.744723    19.723071    20.428523    6746.6699    13140.256    12894.751    12712.988   -1014.0892    872.82949   -359.55079    -2017.607 
13134000    294.14816   -3818.3354   -3314.1755   -3818.3354            0    13151.211    16.754774     19.73491    20.440785    6758.8265     13568.19    13287.839    12597.603   -479.02279     2389.532    625.17437   -2017.8534 
13135000    280.68587   -3776.8091   -3295.7231   -3776.8091            0    14102.295    16.741934    19.719787     20.42512    6743.2999    12666.755    14891.667    14748.462    631.03857   -805.60741   -1005.2956   -1908.8454 
13136000    290.94195   -3762.4507   -3263.7862   -3762.4507            0    13978.241    16.750566    19.729954    20.435651    6753.7351    12019.398    15661.026    14254.298    756.33641    84.174546   -1588.8908   -1886.9812 
13137000    281.27658   -3754.2456   -3272.1472   -3754.2456            0    13896.122    16.703421    19.674424    20.378135    6696.8702    14194.343    12447.003    15047.021    -14.05526    721.16699     313.3468   -1914.9548 
13138000    297.03988   -3749.0542    -3239.938   -3749.0542            0    12658.827      16.7784    19.762739    20.469609    6787.4589    14506.212    10928.955    12541.313   -1809.8426   -22.539303   -2939.1498   -1986.8644 
13139000    273.54041   -3787.6195   -3318.7806   -3787.6195            0    13896.827    16.721921    19.696215    20.400705    6719.1466    14243.324    12855.675    14591.481   -367.36844    1156.7616    1398.5404   -1957.0047 
13140000    300.40692   -3753.0841    -3238.197   -3753.0841            0    12272.173    16.777768    19.761995    20.468838    6786.6921    10153.803    12533.719    14128.998    535.93187    1665.2482    1214.8335   -2023.5348 
13141000    290.85077   -3759.3253    -3260.817   -3759.3253            0    13652.192    16.672314    19.637784    20.340185    6659.5251    13455.133    13815.069    13686.374     418.7318    998.25306   -232.87772   -1934.8841 
13142000    283.55599   -3764.2713    -3278.266   -3764.2713            0    13519.364    16.708838    19.680804    20.384743    6703.3873    14967.523    12240.163    13350.406   -526.97078   -1831.9868    46.437372   -1956.5855 
13143000    287.94397   -3752.1126   -3258.5865   -3752.1126            0    11502.974     16.81704    19.808252     20.51675    6834.4614    11544.947    14013.898    8950.0771    150.08065   -23.254334   -958.48904   -2112.0436 
13144000    295.84031   -3759.9737   -3252.9135   -3759.9737            0    13160.211    16.764773    19.746688    20.452983    6770.9342    10807.298    14601.114    14072.222    661.06361   -263.39241    797.09304   -1953.3804 
13145000    295.25583   -3744.0099   -3237.9516   -3744.0099            0    13500.527    16.770541    19.753482    20.460021    6777.9256    15823.043    12673.067    12005.472   -252.23357    459.02894   -709.41774   -1903.4367 
13146000    288.31108   -3776.0051   -3281.8498   -3776.0051            0    12323.516    16.735475    19.712179    20.417241    6735.4985    12418.998    12888.738    11662.813   -72.796835    17.800818   -207.23803   -2071.3066 
13147000    273.07483   -3756.9733   -3288.9324   -3756.9733            0     13583.62    16.739916     19.71741    20.422659    6740.8618    13658.873    13957.339    13134.648    621.92398    334.85241   -88.154677   -1953.5464 
13148000    288.86979   -3769.6523   -3274.5394   -3769.6523            0    16499.688    16.654387    19.616668    20.318313    6638.0659    16423.519    16474.851    16600.695    641.06821   -504.40988   -429.27042   -1677.2147 
13149000    297.77866   -3731.5549   -3221.1725   -3731.5549            0    12856.245    16.779916    19.764525    20.471458    6789.2992    14111.717     12326.79    12130.227   -888.80212    5.2495757   -669.44551   -1948.2119 
13150000    295.07955   -3765.5297   -3259.7734   -3765.5297            0     14064.89    16.725865     19.70086    20.405517    6723.9021    14783.191    14299.865    13111.615   -616.89872   -120.97256    1530.5101   -1880.5532 
13151000    284.15459     -3730.07   -3243.0388     -3730.07            0    11655.145    16.834696    19.829048    20.538289    6856.0094    11591.796    12312.301    11061.338    30.170099    3027.8077     456.6117   -2077.6657 
13152000    286.81254   -3784.1672   -3292.5803   -3784.1672            0    11166.945    16.772859    19.756212    20.462849    6780.7365    12319.455    9742.8705    11438.511    2739.0633    3123.4649    1381.0842   -2188.2801 
13153000    285.70221   -3746.1891   -3256.5053   -3746.1891            0    13387.626    16.826949    19.819923    20.528838    6846.5487    14242.987    11463.931    14455.959     927.7827    612.22482    279.92197   -1919.7523 
13154000    281.97126   -3764.9254   -3281.6363   -3764.9254            0     14405.17    16.749746    19.728989    20.434652    6752.7443    15383.679    13723.802    14108.031   -508.52914    13.338812    2317.1638   -1862.9884 
13155000    283.64195   -3761.0697   -3274.9171   -3761.0697            0    11430.786    16.835935    19.830507    20.539801    6857.5231    9567.5899    11898.918    12825.851    956.41158   -837.79021    373.75713   -2131.7248 
13156000    288.18543   -3817.0542   -3323.1142   -3817.0542            0     12105.37    16.814751    19.805556    20.513957    6831.6708    12615.182    11558.081    12142.846    962.01487    185.26886    48.028338    -2117.021 
13157000    291.60307   -3742.1635   -3242.3658   -3742.1635            0    14351.078    16.747115    19.725889    20.431441    6749.5617    12780.949    16042.939    14229.348    796.30896   -12.094853    127.58685   -1829.7112 
13158000    301.46002   -3790.6328   -3273.9406   -3790.6328            0    14922.443    16.700953    19.671517    20.375124    6693.9022    13356.386    14425.174    16985.768    807.96286   -785.86022    867.93647   -1817.1566 
13159000    282.00358   -3766.5209   -3283.1765   -3766.5209            0    11364.903    16.788237    19.774325    20.481609    6799.4038    12066.337    10979.754    11048.618   -756.88672    149.12266    1375.1113   -2156.2062 
13160000    309.25662   -3757.3098   -3227.2545   -3757.3098            0    15832.548     16.74421    19.722467    20.427897    6746.0501    14994.521    15196.638    17306.485     2.343034    -313.8482    2057.3922   -1669.5816 
13161000    289.03962   -3784.6174   -3289.2133   -3784.6174            0    13792.698    16.739676    19.717127    20.422366    6740.5717    14737.298    12758.789    13882.006   -836.10624  0.063528928    486.79971   -1933.3315 
13162000    292.61944   -3770.7543   -3269.2146   -3770.7543            0    13810.095    16.742007    19.719873    20.425209    6743.3878    14667.546    12596.731    14166.007   -592.51578    494.74281   -790.96039   -1911.0554 
13163000    299.96322   -3751.0399   -3236.9132   -3751.0399            0    15514.105    16.739893    19.717383    20.422631    6740.8341    17164.048    15245.267    14132.999    -1947.751    296.17823   -330.59804   -1711.7503 
13164000    295.19771   -3764.4087   -3258.4499   -3764.4087            0    11006.501    16.786181    19.771904    20.479102    6796.9068    10155.278    14489.449    8374.7752   -93.702092   -954.42269   -105.13729   -2167.4205 
13165000    293.33904   -3745.2256   -3242.4525   -3745.2256            0    14630.844    16.684307    19.651909    20.354815    6673.9057    15689.096    14134.472    14068.964    455.81072    823.36572    -2014.614   -1818.4022 
13166000    300.96527    -3739.062   -3223.2178    -3739.062            0     12256.75    16.787958    19.773998     20.48127    6799.0659    12973.249    11269.787    12527.213   -588.91805    374.44726    393.41094   -2007.8704 
13167000    269.37328   -3739.7998   -3278.1033   -3739.7998            0    14605.471     16.73741    19.714459    20.419602    6737.8352    17029.113    12988.531    13798.769    -2837.545   -1023.2919   -1518.4838   -1842.9052 
13168000    314.31381   -3776.1017   -3237.3786   -3776.1017            0    13223.709    16.779341    19.763847    20.470757    6788.6012    14729.081    12386.063    12555.982   -190.43391    587.93692   -630.04812   -1928.1682 
13169000    290.87968   -3730.4373   -3231.8795   -3730.4373            0    12699.365    16.759838    19.740876    20.446964    6764.9573    13366.686    13575.054    11156.355    3089.3849    137.97515    619.17816   -1978.9606 
13170000    302.11702   -3757.9927   -3240.1745   -3757.9927            0    13328.314    16.704519    19.675716    20.379474    6698.1902    12800.017    14358.231    12826.693   -845.84344   -1099.3593    730.38254   -1938.1817 
13171000    292.67834   -3760.4642   -3258.8236   -3760.4642            0    12902.703    16.750882    19.730326    20.436037    6754.1177     10790.38    14027.412    13890.319   -135.21612   -1542.8456    123.96146    -1987.883 
13172000    297.25709   -3778.0026   -3268.5141   -3778.0026            0    12343.503    16.738943    19.716264    20.421472    6739.6866    13705.977    9817.2094    13507.324    468.06364   -2416.5977    1396.1005   -2055.2537 
13173000    288.71215   -3766.6446   -3271.8019   -3766.6446            0      15304.8     16.69184    19.660782    20.364005    6682.9499    16028.562    13987.665    15898.173   -120.90979     412.9133   -1686.5064   -1780.1353 
13174000    280.98444   -3778.1043   -3296.5066   -3778.1043            0    12834.292    16.820663    19.812519    20.521169    6838.8784    13490.354     13717.03    11295.494    807.31627   -1260.2995   -133.39921   -2016.4396 
13175000    303.10676   -3780.8046     -3261.29   -3780.8046            0    13644.804    16.730562    19.706392    20.411246    6729.5676    13526.654     14674.88    12732.877   -782.17193   -964.16813   -1910.3089   -1922.1366 
13176000    300.21978   -3791.6975   -3277.1311   -3791.6975            0    14161.227    16.665182    19.629383    20.331483    6650.9817    12447.583    13923.713    16112.384   -138.33689    413.96332    1111.1887    -1903.524 
13177000    307.99973   -3784.2156   -3256.3146   -3784.2156            0    12600.876    16.765416    19.747446    20.453769    6771.7142    14030.683     10992.51    12779.436   -1548.0078   -1229.8732    148.85741    -2011.871 
13178000    297.85156   -3778.1685   -3267.6611   -3778.1685            0    15007.715    16.767527    19.749932    20.456343    6774.2717    15008.873     16042.64    13971.633    192.68922   -871.64175    1034.4279   -1784.9618 
13179000    290.79927   -3774.4465   -3276.0265   -3774.4465            0    13585.878    16.745449    19.723927    20.429409    6747.5482    15856.995    11633.856    13266.782   -1278.8579   -719.42964   -1996.2924   -1939.0936 
13180000    292.56604   -3776.6198   -3275.1716   -3776.6198            0    12658.134    16.758476    19.739271    20.445301    6763.3075    12337.597     13312.17    12324.635   -1735.4049   -1477.0576   -649.36108   -2026.6252 
13181000     303.3553   -3787.8241   -3267.8835   -3787.8241            0    14111.698    16.721044    19.695181    20.399634    6718.0886    15515.036    13949.579    12870.479   -539.46981    802.77999    486.34327   -1885.2697 
13182000    313.14231   -3798.5769   -3261.8617   -3798.5769            0    13466.631    16.685527    19.653347    20.356304    6675.3707    15111.663    12206.888    13081.341     138.2447    1465.9808   -706.86034    -1950.839 
13183000    287.05304    -3788.026   -3296.0269    -3788.026            0    13751.399     16.71487    19.687909    20.392102    6710.6499    12915.811    15180.089    13158.296    504.13985    -2094.049   -13.740045   -1950.2058 
13184000    282.07404   -3803.7115   -3320.2463   -3803.7115            0    16041.276    16.674303    19.640127    20.342611    6661.9087    16282.645    15130.755    16710.427   -71.901509    168.89443     784.6379   -1761.7223 
13185000    296.90384   -3752.8755   -3243.9925   -3752.8755            0    13457.356    16.709503    19.681587    20.385554    6704.1877    13190.962     14389.07    12792.036    572.57853    1182.2228    515.15084    -1928.217 
13186000    285.92985   -3738.4976   -3248.4236   -3738.4976            0    14854.423    16.741473    19.719244    20.424558    6742.7426    18199.418    11657.306    14706.544    1474.7568    517.98005   -217.85337   -1787.6993 
13187000    273.59468   -3743.9545   -3275.0226   -3743.9545            0    12793.618    16.735695    19.712438    20.417509    6735.7637    12748.272    10550.902     15081.68    211.27504   -1555.1628     -1462.07   -2018.2517 
13188000    304.29883   -3725.9098    -3204.352   -3725.9098            0    13503.685    16.736008    19.712806     20.41789    6736.1412    11251.659    14430.896    14828.499   -1195.4684   -327.74297   -1012.4965   -1877.7539 
13189000    293.01222   -3772.3291   -3270.1161   -3772.3291            0    12943.081    16.713326     19.68609    20.390218    6708.7903    12871.728    14902.025    11055.489   -248.29858   -1470.6806   -448.60701   -2003.7545 
13190000    307.03451   -3728.9553   -3202.7086   -3728.9553            0     12021.19    16.823187    19.815492    20.524249    6841.9583    12966.517    10954.569    12142.484    1638.7897    7.8833471    1391.8802   -2003.1989 
13191000    301.07133   -3765.1506   -3249.1247   -3765.1506            0    12789.814     16.80016     19.78837    20.496156    6813.9018    11282.896    13066.498    14020.048    639.78365    268.37329   -164.99609   -1978.1527 
13192000    295.35347   -3742.3559   -3236.1302   -3742.3559            0    13562.296    16.797874    19.785676    20.493367    6811.1198    14614.965    14772.226    11299.698    357.53257    -992.9189   -219.85306   -1888.9439 
13193000    297.10088   -3757.5496   -3248.3288   -3757.5496            0    11337.059    16.840494    19.835878    20.545364    6863.0962    11606.712     11611.51    10792.954    1746.4156   -729.23594   -552.15643   -2113.5888 
13194000    301.20896    -3753.473   -3237.2112    -3753.473            0    13219.898    16.778426     19.76277    20.469641     6787.491    14185.477    12476.411    12997.804    1904.7934   -718.33038    413.58374   -1928.5921 
13195000    280.74786   -3726.5029   -3245.3107   -3726.5029            0    13302.172    16.766348    19.748543    20.454905    6772.8432    14721.158    13935.589    11249.769   -1389.1824    1069.7852   -1399.6877   -1931.3891 
13196000    293.06668   -3740.3123    -3238.006   -3740.3123            0    12237.967    16.748701    19.727758    20.433377    6751.4804    14324.839    9782.0175    12607.045   -1127.8366   -753.60372    841.35592   -2033.0139 
13197000    291.66758    -3732.967   -3233.0588    -3732.967            0     14098.89    16.744585    19.722909    20.428354    6746.5033    14110.902    12734.195    15451.573   -75.944272   -179.64309   -1561.1169   -1845.8573 
13198000     295.6936   -3774.2788   -3267.4701   -3774.2788            0    12564.701     16.85451    19.852386    20.562462    6880.2457    11450.354    12713.935    13529.813    29.369739    273.80096     1757.659   -2006.7114 
13199000    303.85168   -3743.9513   -3223.1599   -3743.9513            0    13938.493    16.742658     19.72064    20.426004    6744.1748    14018.557    13122.501     14674.42    524.27715     275.0922    1877.4918   -1852.2134 
13200000     285.3768   -3729.1141   -3239.9881   -3729.1141            0    13658.392    16.778538    19.762901    20.469777    6787.6265    15258.354    11307.119    14409.703   -932.46648    1482.9042    156.07426   -1887.9361 
13201000    289.37816   -3746.8709   -3250.8867   -3746.8709            0    11928.034    16.802716     19.79138    20.499274    6817.0117    12794.461    12202.022     10787.62   -303.37572    282.49367   -15.441292   -2065.0119 
13202000    278.42063   -3716.1323   -3238.9288   -3716.1323            0    12962.016    16.799827    19.787977    20.495749    6813.4958    12988.016    12023.465    13874.567    453.13044   -338.76194   -1508.4888   -1950.9212 
13203000    287.73731   -3798.2735   -3305.1016   -3798.2735            0    13940.491    16.750064    19.729363    20.435039     6753.128     13033.15     14482.28    14306.044   -790.64528    -35.86726    1386.1762   -1932.1382 
13204000    293.35344   -3776.3466   -3273.5488   -3776.3466            0    14037.015    16.759463    19.740433    20.446505    6764.5026    12943.203    14317.433    14850.409   -1728.9024    669.52702     1634.152   -1888.7505 
13205000    277.50001   -3751.8804   -3276.2549   -3751.8804            0    13523.743    16.758238    19.738991    20.445011    6763.0198    13469.654    13425.213    13676.361   -512.69888   -766.69965   -1980.4189    -1942.385 
13206000    282.42048   -3734.2118   -3250.1528   -3734.2118            0    14272.105     16.72137    19.695565    20.400032    6718.4819    13143.436    14221.504    15451.375    248.38606   -872.29529    1515.3355    -1851.741 
13207000    290.30259    -3746.399   -3248.8303    -3746.399            0    12325.701    16.709174      19.6812    20.385154    6703.7925    13475.434    12081.243    11420.425    644.40911    -1075.771     1108.715    -2043.772 
13208000    296.90409   -3736.6186   -3227.7351   -3736.6186            0    15339.679    16.702635    19.673498    20.377176    6695.9252    16361.967    16372.129    13284.941     712.8569   -347.38415   -1684.2199   -1729.7664 
13209000    280.81122   -3753.7458    -3272.445   -3753.7458            0    14326.638    16.761215    19.742498    20.448644     6766.625    12595.808    14547.569    15836.538   -180.96497    1056.6249     1388.206   -1858.6309 
13210000    283.95556    -3726.374   -3239.6839    -3726.374            0    12888.729    16.802883    19.791576    20.499477    6817.2145    13000.857    11930.726    13734.604     1065.653   -634.79615   -359.03913   -1958.2597 
13211000    288.58539   -3763.8128   -3269.1874   -3763.8128            0    13886.712    16.712216    19.684783    20.388865    6707.4545     13676.32    14336.387     13647.43    500.95845    2030.5953   -134.51185   -1910.7705 
13212000     281.2433   -3733.5169   -3251.4755   -3733.5169            0    16451.971    16.687607    19.655797    20.358842    6677.8674    15439.807    15785.119    18130.987   -672.61728    204.22824   -879.35043   -1649.2206 
13213000    300.07498   -3711.2285   -3196.9103   -3711.2285            0    12875.626    16.756722    19.737205    20.443161    6761.1838    13829.005    11592.708    13205.165   -457.31294   -532.67832   -1330.3274     -1927.31 
13214000    284.41609    -3752.254   -3264.7746    -3752.254            0    11236.485    16.734001    19.710443    20.415442    6733.7188     11624.74    10355.492    11729.223    32.151154    105.50571   -24.679728   -2161.3025 
13215000    285.65718   -3804.6178   -3315.0112   -3804.6178            0    11918.877    16.755311    19.735543     20.44144    6759.4762     11225.49    12841.956    11689.186    -898.5958   -117.24443   -329.71161    -2140.048 
13216000    267.16175    -3736.281   -3278.3749    -3736.281            0    14112.503    16.726177    19.701227    20.405897     6724.278        15172    14275.231    12890.279   -902.55491   -1048.6353   -40.386427   -1894.4083 
13217000    290.19529   -3773.6258    -3276.241   -3773.6258            0    12325.955    16.751223    19.730728    20.436453      6754.53    11150.572    13391.983     12435.31   -163.84148    69.241696   -539.31711   -2062.0371 
13218000    287.29504   -3740.7819    -3248.368   -3740.7819            0     12692.71    16.813562    19.804156    20.512507    6830.2218     13868.84    12522.189    11687.099    82.565687    299.66251    2320.8715   -1984.0246 
13219000    297.34264   -3726.2933   -3216.6582   -3726.2933            0    13045.292    16.771394    19.754486    20.461061    6778.9597    12299.084     13766.45     13070.34   -475.07052    827.90949   -528.08499   -1926.9462 
13220000    285.89799   -3770.0945   -3280.0751   -3770.0945            0     13058.36    16.691206    19.660036    20.363233    6682.1891    14415.022     12578.22    12181.837    658.53179   -764.23648   -256.63919   -2007.5004 
13221000    298.76694   -3763.5509   -3251.4746   -3763.5509            0    12870.262    16.696618    19.666411    20.369835    6688.6914    14162.331    12668.136    11780.318   -38.849639    680.41048   -870.89812   -1996.0101 
13222000     283.5841   -3768.4252   -3282.3718   -3768.4252            0    13138.576    16.718515    19.692202    20.396549     6715.041    14919.514    11639.123    12857.092    1009.6957    864.77785    -6.461393   -1995.6849 
13223000    296.68737   -3777.8027   -3269.2907   -3777.8027            0    11735.631    16.744778    19.723136     20.42859    6746.7364    12968.793    10267.525    11970.574    328.02473    1130.1254    33.229193   -2114.5724 
13224000    283.62422   -3717.9028   -3231.7806   -3717.9028            0    12106.086    16.817631    19.808947     20.51747     6835.181    12886.408    10069.487    13362.364   -809.81008   -750.51467   -130.24776   -2024.9963 
13225000    300.61431   -3774.6919   -3259.4492   -3774.6919            0    12054.351    16.750088    19.729391    20.435068    6753.1568    12639.237    11225.921    12297.896   -190.93515    814.97308     1071.492   -2072.2419 
13226000    291.60296    -3737.401   -3237.6035    -3737.401            0    13953.856    16.743088    19.721146    20.426528     6744.694    12021.955    13419.308    16420.304   -241.14826   -329.11077    495.60385   -1865.0402 
13227000    297.78507   -3673.4694    -3163.076   -3673.4694            0    14423.397    16.723228    19.697754      20.4023    6720.7224    14576.756    15019.877    13673.558    280.76714    -432.9885    327.95195    -1749.369 
13228000    298.82645   -3733.0455   -3220.8672   -3733.0455            0    11248.735    16.827629    19.820725    20.529668    6847.3795    10524.441    11968.423    11253.342   -1079.1642    1155.8003    73.208619   -2097.5459 
13229000    286.32446   -3725.9496   -3235.1992   -3725.9496            0    13808.554    16.805183    19.794286    20.502284    6820.0147    14943.679    12490.499    13991.485   -391.00068   -1197.3847   -14.437626   -1861.7601 
13230000    280.24108   -3669.3102   -3188.9866   -3669.3102            0    14410.854    16.768529    19.751112    20.457566    6775.4863    14820.777    13065.816    15345.968    1685.5457    1508.1914    1335.3769   -1764.9994 
13231000    289.80231   -3719.0544   -3222.3432   -3719.0544            0    13210.878    16.797061    19.784719    20.492375     6810.131    15337.399    11553.579    12741.655    122.98914   -370.17665    1321.7559    -1910.255 
13232000    288.97545   -3728.5193   -3233.2253   -3728.5193            0    13972.558     16.74498    19.723375    20.428837    6746.9814    13887.317    15561.475    12468.882   -1820.8943   -640.27347    3404.8999   -1858.3563 
13233000    296.17275   -3799.0303   -3291.4003   -3799.0303            0    12058.836    16.767779    19.750229    20.456652    6774.5779    11691.485    12641.344    11843.678   -468.92113   -1016.8803   -263.70767   -2099.9841 
13234000    297.87461   -3738.0691   -3227.5222   -3738.0691            0    13013.913    16.742797    19.720803    20.426173    6744.3425    13727.894    12302.172    13011.673   -139.81874    -260.0671   -4039.7178   -1947.4825 
13235000    289.34736   -3779.1267   -3283.1952   -3779.1267            0    13557.692    16.758825    19.739683    20.445728    6763.7308     12908.19    12413.883    15351.001    311.52006     83.66478    2333.5699   -1945.8364 
13236000    287.36232   -3796.5622    -3304.033   -3796.5622            0    13994.297    16.811379    19.801583    20.509843    6827.5609    13355.296    13010.471    15617.123   -699.17583   -1100.4397    -1169.542   -1910.5793 
13237000     293.9631   -3784.7647   -3280.9221   -3784.7647            0    14176.344    16.767968    19.750452    20.456882    6774.8071    15229.047        13848    13451.986    153.44506   -1558.7649    1073.3039    -1880.248 
13238000    309.47545   -3800.2465   -3269.8162   -3800.2465            0    10409.545    16.820992    19.812907    20.521571    6839.2803    9334.7089    10423.654    11470.271    223.86898     1552.275    1225.2308   -2231.5277 
13239000    303.36968   -3775.1554   -3255.1901   -3775.1554            0    13279.865    16.751632    19.731209    20.436952    6755.0247    11494.544    14674.656    13670.395    1364.2788    1263.4989   -741.93591   -1946.9228 
13240000    302.06057   -3735.9442   -3218.2227   -3735.9442            0    14651.073    16.718146    19.691768    20.396099    6714.5969    14454.048    16235.133     13264.04   -721.68549     642.3521   -1941.9531   -1783.5089 
13241000    282.01968   -3753.2246   -3269.8526   -3753.2246            0    12223.436    16.760948    19.742183    20.448318    6766.3017    12268.296    11299.786    13102.226      419.661   -1416.2269    83.401377   -2063.6492 
13242000    277.70814   -3706.5414   -3230.5591   -3706.5414            0    14214.823    16.737347    19.714384    20.419525    6737.7592    15515.535    12944.195     14184.74   -662.56687   -599.67968    1302.0289   -1833.7636 
13243000    293.93578    -3714.208   -3210.4121    -3714.208            0    14609.308    16.774543    19.758196    20.464903    6782.7788    18779.802    12531.496    12516.628    1117.7108    13.950449    248.10679   -1765.2612 
13244000    300.28929   -3754.2967   -3239.6111   -3754.2967            0    12980.348    16.763491    19.745178     20.45142    6769.3812    13604.431    13685.235    11651.377    1498.1082   -821.45928    1305.7024    -1958.133 
13245000    302.45987   -3732.5699    -3214.164   -3732.5699            0    12607.589    16.702377    19.673193     20.37686     6695.614    13392.561    11861.598    12568.608   -854.54634   -559.02395    322.91227   -1983.0498 
13246000    285.07189   -3764.1081   -3275.5046   -3764.1081            0    13054.201    16.723185    19.697702    20.402246    6720.6694    13109.693     12398.68    13654.231    1723.1153     1101.542   -1205.0209   -1996.0092 
13247000    279.07071   -3756.9494   -3278.6317   -3756.9494            0    13461.823    16.743155    19.721224    20.426609    6744.7747    13913.889    14725.917    11745.663   -714.51056   -102.68171    -557.3874   -1954.4512 
13248000    291.18056   -3697.8692   -3198.7957   -3697.8692            0    15564.747    16.736433    19.713307    20.418409    6736.6549    14451.278    17372.408    14870.555   -61.056895   -1049.3549   -2872.9481   -1669.6028 
13249000    277.88119   -3764.8641   -3288.5853   -3764.8641            0    12816.712    16.785969    19.771654    20.478843    6796.6485     14204.82    10836.129    13409.188      287.078    -89.81393    1720.3987   -2018.1652 
13250000    311.46821   -3749.7897   -3215.9438   -3749.7897            0    14517.346    16.764403    19.746252    20.452533    6770.4865     15152.47    13553.689     14845.88    368.09804   -1298.2068    2088.1665   -1782.4924 
Loop time of 514.944 on 64 procs for 250000 steps with 864 atoms

Performance: 83.893 ns/day, 0.286 hours/ns, 485.490 timesteps/s
99.1% CPU use with 64 MPI tasks x 1 OpenMP threads

MPI task timing breakdown:
Section |  min time  |  avg time  |  max time  |%varavg| %total
---------------------------------------------------------------
Pair    | 22.961     | 28.137     | 32.891     |  47.2 |  5.46
Bond    | 0.27422    | 0.28432    | 0.29748    |   1.0 |  0.06
Kspace  | 214.16     | 224.15     | 235.68     |  38.1 | 43.53
Neigh   | 6.6842     | 7.7334     | 9.2405     |  25.0 |  1.50
Comm    | 114.73     | 127.31     | 140.69     |  55.5 | 24.72
Output  | 0.99677    | 1.0073     | 1.0148     |   0.4 |  0.20
Modify  | 119.12     | 122.12     | 125.07     |  14.0 | 23.72
Other   |            | 4.198      |            |       |  0.82

Nlocal:        13.5000 ave          17 max           9 min
Histogram: 2 1 9 7 0 16 8 7 10 4
Nghost:        2317.55 ave        2367 max        2283 min
Histogram: 4 8 9 13 8 7 7 6 0 2
Neighs:        4552.05 ave        6062 max        2846 min
Histogram: 3 2 4 10 12 12 5 4 6 6

Total # of neighbors = 291331
Ave neighs/atom = 337.18866
Ave special neighs/atom = 2.0000000
Neighbor list builds = 16822
Dangerous builds = 3

unfix		3
unfix		2
unfix		1

write_data	data.final.${pid}
write_data	data.final.0
System init for write_data ...
PPPM initialization ...
  extracting TIP4P info from pair style
  using 12-bit tables for long-range coulomb (../kspace.cpp:340)
  G vector (1/distance) = 0.37528851
  grid = 24 24 24
  stencil order = 5
  estimated absolute RMS force accuracy = 0.0030457938
  estimated relative force accuracy = 9.1723177e-06
  using double precision FFTW3
  3d grid and FFT values/proc = 2535 216
Last active /omp style is kspace_style pppm/tip4p/omp
WARNING: Not all mixed pair coeffs generated from mixing. Use write_data with 'pair ij' option to store all pair coeffs. (../write_data.cpp:312)

write_restart   restart.lmp.${pid}
write_restart   restart.lmp.0
System init for write_restart ...
PPPM initialization ...
  extracting TIP4P info from pair style
  using 12-bit tables for long-range coulomb (../kspace.cpp:340)
  G vector (1/distance) = 0.37528851
  grid = 24 24 24
  stencil order = 5
  estimated absolute RMS force accuracy = 0.0030457938
  estimated relative force accuracy = 9.1723177e-06
  using double precision FFTW3
  3d grid and FFT values/proc = 2535 216
Last active /omp style is kspace_style pppm/tip4p/omp
Total wall time: 0:08:39
