LAMMPS (30 Jul 2021)
  using 1 OpenMP thread(s) per MPI task
package omp 0
using multi-threaded neighbor list subroutines
echo both

include		in.partitions
variable        pid world 0
include		in.temp
variable        temperature equal 267.75
variable	tempDamp equal 100.0
include		in.pressure
variable        pressure equal 10250.0
variable        pressureDamp equal 1000.0 # This is 1 ps
include		in.seed
variable        seed world 745823

units		real
atom_style	full
read_restart    restart.lmp.${pid}
read_restart    restart.lmp.0
Reading restart file ...
  restart file = 30 Jul 2021, LAMMPS = 30 Jul 2021
  restoring atom style full from restart
  triclinic box = (-3.1461935 -0.21978183 -0.027964404) to (14.756192 22.799781 19.257962) with tilt (-0.33693135 -6.2010604 0.11589885)
  4 by 4 by 4 MPI processor grid
  restoring pair style lj/cut/tip4p/long/omp from restart
  restoring bond style harmonic/omp from restart
  restoring angle style harmonic/omp from restart
  1008 atoms
  672 bonds
  336 angles
Finding 1-2 1-3 1-4 neighbors ...
  special bond factors lj:    0        0        0       
  special bond factors coul:  0        0        0       
     2 = max # of 1-2 neighbors
     1 = max # of 1-3 neighbors
     1 = max # of 1-4 neighbors
     2 = max # of special neighbors
  special bonds CPU = 1.469 seconds
  read_restart CPU = 1.710 seconds

include 	in.setup
variable	out_freq equal 1000
variable	out_freq2 equal 10000
variable	out_freq3 equal 1000

timestep	2.0

neigh_modify    delay 7 every 1

include		in.tip4p
# This is TIP4P/Ice

# create groups ###
group ox type 2
336 atoms in group ox
group hy type 1
672 atoms in group hy

# set charges - beside manually ###
set group ox charge -1.1794
Setting atom values ...
  336 settings made for charge
set group hy charge 0.5897
Setting atom values ...
  672 settings made for charge

# ### TIP3P Potential Parameters ###
pair_style lj/cut/tip4p/long/omp 2 1 1 1 0.1577 8.5
pair_coeff 1 1*2 0.000 0.000
pair_coeff 2 2 0.21084 3.1668
bond_style  harmonic
bond_coeff  1 450 0.9572
angle_style harmonic
angle_coeff 1 55 104.52
kspace_style pppm/tip4p/omp 1.0e-5
pair_modify tail yes

thermo          ${out_freq}
thermo          1000
thermo_style    custom step temp pe etotal epair emol press lx ly lz vol pxx pyy pzz pxy pxz pyz enthalpy

restart 	${out_freq3} restart.lmp.${pid} restart2.lmp.${pid}
restart 	1000 restart.lmp.${pid} restart2.lmp.${pid}
restart 	1000 restart.lmp.0 restart2.lmp.${pid}
restart 	1000 restart.lmp.0 restart2.lmp.0


include         in.dump
dump            myDump all atom ${out_freq2} dump.water.${pid}
dump            myDump all atom 10000 dump.water.${pid}
dump            myDump all atom 10000 dump.water.0
dump            myDump2 all dcd ${out_freq2} dump.dcd
dump            myDump2 all dcd 10000 dump.dcd
dump_modify     myDump append yes
dump_modify     myDump2 append yes


variable natoms 	equal  "count(all)"                        # NUMBER ATOMS
variable H      	equal  "enthalpy/v_natoms"                 # ENTHALPY-per-atom
variable Vol      	equal  "vol/v_natoms"                 # volume-per-atom
fix AVG all 		ave/time ${out_freq} 1 ${out_freq} v_Vol v_H file vol_enthalpy.dat
fix AVG all 		ave/time 1000 1 ${out_freq} v_Vol v_H file vol_enthalpy.dat
fix AVG all 		ave/time 1000 1 1000 v_Vol v_H file vol_enthalpy.dat



fix 		1 all shake 1e-6 200 0 b 1 a 1
       0 = # of size 2 clusters
       0 = # of size 3 clusters
       0 = # of size 4 clusters
     336 = # of frozen angles
  find clusters CPU = 0.107 seconds
fix             2 all nph tri ${pressure} ${pressure} ${pressureDamp}
fix             2 all nph tri 10250 ${pressure} ${pressureDamp}
fix             2 all nph tri 10250 10250 ${pressureDamp}
fix             2 all nph tri 10250 10250 1000
fix             3 all temp/csvr ${temperature} ${temperature} ${tempDamp} ${seed}
fix             3 all temp/csvr 267.75 ${temperature} ${tempDamp} ${seed}
fix             3 all temp/csvr 267.75 267.75 ${tempDamp} ${seed}
fix             3 all temp/csvr 267.75 267.75 100 ${seed}
fix             3 all temp/csvr 267.75 267.75 100 745823


run             250000
PPPM initialization ...
  extracting TIP4P info from pair style
  using 12-bit tables for long-range coulomb (../kspace.cpp:340)
  G vector (1/distance) = 0.38374919
  grid = 24 30 32
  stencil order = 5
  estimated absolute RMS force accuracy = 0.0019109655
  estimated relative force accuracy = 5.7548159e-06
  using double precision FFTW3
  3d grid and FFT values/proc = 4080 384
Last active /omp style is kspace_style pppm/tip4p/omp
Neighbor list info ...
  update every 1 steps, delay 7 steps, check yes
  max neighbors/atom: 2000, page size: 100000
  master list distance cutoff = 10.8154
  ghost atom cutoff = 10.8154
  binsize = 5.4077, bins = 5 5 4
  1 neighbor lists, perpetual/occasional/extra = 1 0 0
  (1) pair lj/cut/tip4p/long/omp, perpetual
      attributes: half, newton on, omp
      pair build: half/bin/newton/tri/omp
      stencil: half/bin/3d/tri
      bin: standard
Per MPI rank memory allocation (min/avg/max) = 9.340 | 9.346 | 9.348 Mbytes
Step Temp PotEng TotEng E_pair E_mol Press Lx Ly Lz Volume Pxx Pyy Pzz Pxy Pxz Pyz Enthalpy 
13250000    269.16594   -4783.8169   -4245.4518   -4783.8169            0    8832.8378    17.902386    23.019563    19.285927    7947.8287    8345.4625    9165.6137    8987.4372    -693.9914   -109.32323    -434.4227   -3221.6294 
13251000    265.17291   -4800.9736    -4270.595   -4800.9736            0    10090.816    17.735002    22.952249    19.312408     7861.274    10356.981    9203.2661      10712.2   -240.36344   -699.70928   -286.61726   -3113.6969 
13252000    267.69205   -4803.0183   -4267.6011   -4803.0183            0    10509.449    17.975095    22.851619    19.150393    7866.2157    10025.804    10320.859    11181.683   -300.64486    531.12319    55.394759   -3061.9499 
13253000    261.09443   -4797.2398   -4275.0187   -4797.2398            0    10593.834     17.78635    22.847212    19.386379    7878.0142    11073.052    10929.993    9778.4555    1839.5478    287.16731    1536.1958   -3057.8639 
13254000    258.90306   -4835.7396   -4317.9015   -4835.7396            0    9229.1393    17.931109    22.810558    19.307765    7897.2352      10401.2    10091.546    7194.6722    1849.1184    67.453755    488.77219   -3254.9531 
13255000    263.82719   -4798.0674   -4270.3804   -4798.0674            0    10988.044    17.859831    22.755802    19.330951     7856.384    10376.158    10712.333    11875.639   -355.75125   -1086.8204    152.47664      -3011.4 
13256000    280.81261   -4814.3766   -4252.7167   -4814.3766            0     10631.38    18.028578    22.873964    19.022671    7844.6649    9341.2639    10220.909    12331.969    319.24614   -501.18458   -1172.9547   -3036.4188 
13257000    267.03373   -4804.7282   -4270.6278   -4804.7282            0    11527.147    17.688896      22.9331    19.249009    7808.5766    13569.273    10945.065    10067.104    458.39416    181.28964   -157.31107   -2957.9153 
13258000    263.05474   -4779.7251   -4253.5831   -4779.7251            0    12698.384    17.941838    22.974395    18.958265    7814.6513    11858.122    11973.783    14263.247   -118.03966   -24.327416    764.41352   -2806.3651 
13259000    274.30044   -4782.2965   -4233.6617   -4782.2965            0    10768.895    17.672534    22.979245    19.373175    7867.4749    13562.038    11019.517    7725.1297   -54.056197   -2.5608306   -556.88285   -2998.0489 
13260000     261.7073   -4771.3134   -4247.8665   -4771.3134            0    12427.234    17.943259    22.985846    18.972685    7825.1129     10162.05     13109.44     14010.21    -934.8043    748.83482   -2048.9067   -2829.6551 
13261000    261.82815   -4784.7887      -4261.1   -4784.7887            0    12711.493    17.864759    22.806056    19.181091    7814.8502    13178.401    12653.605    12302.471   -382.77029   -201.43176    433.47703   -2812.3512 
13262000    271.72445   -4773.6898   -4230.2073   -4773.6898            0    8267.9422    17.908176    23.026979    19.306031    7961.2508    10816.625    7732.6418    6254.5595    525.62113   -451.01104    265.53674    -3270.244 
13263000    279.18115   -4777.0048    -4218.608   -4777.0048            0    10952.244     17.82517    22.889377    19.248197       7853.4     9983.865    11809.347    11063.521   -1482.9373   -1498.9594    916.44718    -2964.206 
13264000     280.1822   -4823.3722   -4262.9731   -4823.3722            0    12396.774     17.86952    22.740614    19.268996    7830.2232    13946.763    11303.643    11939.917   -513.72961   -603.08392   -449.73108   -2847.3139 
13265000    269.61809   -4810.3592   -4271.0897   -4810.3592            0    9468.4209     17.94756    23.041094    19.127996    7910.0277    11456.678    7859.1943    9089.3901   -22.698677   -710.83166    1097.3384   -3178.8161 
13266000    265.96758   -4787.2436   -4255.2756   -4787.2436            0    11037.026    17.792672    22.952006    19.218477    7848.3939    11417.594    12678.975    9014.5097   -285.47354    492.94108    829.99827   -2991.9691 
13267000    255.07551   -4766.2931   -4256.1105   -4766.2931            0    11749.422    17.878042    23.056476     19.09795    7872.2639    11303.104    11135.777    12809.384    -1679.068    782.33152   -2296.3781   -2907.1724 
13268000    252.67592   -4802.8074   -4297.4243   -4802.8074            0    8592.3083    17.875604    22.871715    19.367775    7918.4319    8903.7418    9395.6627    7477.5205    379.01984   -65.137381     492.4559   -3305.1656 
13269000    274.84606   -4827.0272   -4277.3012   -4827.0272            0    8172.1517    17.986364    22.832372    19.331232    7938.7832    9198.2654    7714.0323    7604.1574   -760.71756   -727.01291   -1411.0417   -3331.1375 
13270000    269.41635    -4821.143    -4282.277    -4821.143            0    10364.859    17.964572    22.611551    19.425906    7890.9357    8331.4238    11833.697    10929.456    527.62422    762.06028    1305.9111   -3089.4766 
13271000    264.49297   -4822.8568   -4293.8382   -4822.8568            0    12483.138    17.982444    22.571482    19.263112    7818.7124    11456.153    13658.995    12334.265   -1560.3831    875.81356    -1670.186   -2870.4122 
13272000       280.87   -4825.8349   -4264.0602   -4825.8349            0    10942.922    17.866887    22.802728    19.297149    7861.9242     11529.93    10442.254    10856.583   -987.00038   -401.68878   -712.12823   -3009.3656 
13273000    254.72917   -4815.9119   -4306.4221   -4815.9119            0    10013.642     17.88548    22.878932    19.311981    7902.4762    9645.6261    9870.9564    10524.343   -1251.3347    23.366766    1213.5764   -3152.3548 
13274000    278.98741   -4783.5691   -4225.5598   -4783.5691            0    9568.8159    17.961549    22.867598     19.30456    7929.1061    9784.9548    8917.8718    10003.621    24.020179    -1427.588   -1035.4256   -3119.0422 
13275000     272.8475   -4787.4131   -4241.6844   -4787.4131            0    10135.777    17.883289    22.889433    19.320959     7908.809    10310.542    9074.8975    11021.893    1803.0604   -181.47742    46.458841   -3072.6049 
13276000    268.89222   -4794.5136    -4256.696   -4794.5136            0    9211.5217    17.898771    22.969337    19.252712    7915.2312    9740.2154    9383.9866     8510.363   -197.63817   -504.59591     579.7018   -3193.3591 
13277000    266.93433   -4764.4065   -4230.5048   -4764.4065            0    11788.232    17.912417    22.966579    19.139934    7873.9188     12072.17     10956.88    12335.645   -281.80223    343.54485    74.292758   -2876.8265 
13278000    268.53876   -4832.6609   -4295.5502   -4832.6609            0    8844.2121    18.107351    22.835397    19.193721    7936.3841    8771.0775    7773.6838    9987.8751   -684.78066   -232.76729   -1748.0077   -3271.8856 
13279000    266.17935   -4806.3352   -4273.9437   -4806.3352            0    8705.7281    17.911097    23.001159    19.183367    7903.0865    8938.0101    8197.3467    8981.8274    1011.4825   -1252.4506     725.9649   -3270.5353 
13280000    261.08455   -4759.4327   -4237.2313   -4759.4327            0    9897.6249    17.736898     22.91916    19.368376    7873.5319    9797.0365    9643.7642    10252.074   -871.54275     -800.324    -48.55282   -3100.7129 
13281000    273.93134   -4793.5715   -4245.6749   -4793.5715            0    8714.3482    17.906858    23.243708    19.050063    7929.0512    8060.8154    8841.0974    9241.1319   -504.46342   -273.76354    1181.5462   -3237.9732 
13282000     282.4707   -4825.5735   -4260.5972   -4825.5735            0    10723.346    17.857021    23.059148    19.113639    7870.3792    11061.592    10298.692    10809.754   -1396.1289    700.49343   -2532.8542   -3029.7564 
13283000    263.63303   -4791.8451   -4264.5464   -4791.8451            0    10375.054    17.751128    23.176909    19.146564     7877.208    9443.9301    9809.0092    11872.222    1310.3344    234.05597   -164.94245   -3072.6499 
13284000    258.50206   -4817.5204   -4300.4844   -4817.5204            0    9525.9442    17.753081    23.284082    19.034522    7868.1898    8534.2832    9386.8216    10656.728    659.59797    106.14679   -573.34449   -3207.3872 
13285000    263.10555   -4818.2988   -4292.0552   -4818.2988            0    10310.087    17.634378     23.30115    19.087785    7843.1956    9799.3169    10453.495    10677.449   -8.0639551     1608.287   -2025.1316   -3112.7363 
13286000    262.47749   -4820.7572   -4295.7698   -4820.7572            0    11239.265    17.706384    23.034598    19.217078    7837.8665    12515.316    10450.916    10751.564    953.63995   -215.41542    369.65278   -3011.0404 
13287000    264.60348   -4807.7147    -4278.475   -4807.7147            0    10113.621    17.856813    22.854472    19.325445    7886.8693    12111.603    10162.692    8066.5684    69.906165    188.91542   -1224.2947   -3115.1871 
13288000     266.5033    -4797.917   -4264.8775    -4797.917            0    10537.891    17.877766    22.791653    19.297555     7863.056    11120.764    10791.242    9701.6663    847.88517   -901.63758   -753.75653    -3056.449 
13289000    260.20252   -4782.4802    -4262.043   -4782.4802            0    10932.835    17.832194    22.768089    19.305378    7838.0798    11430.555    11509.743    9858.2054   -591.64418   -1580.2282   -2207.7339   -3012.3068 
13290000    267.95006   -4806.2749   -4270.3417   -4806.2749            0    10440.879    17.845022    22.948027    19.322167    7912.5834    11657.307    10535.646    9129.6842    1926.2124   -173.38377    10.521259   -3065.4965 
13291000    271.02033   -4814.4996   -4272.4254   -4814.4996            0    9473.2785    18.049145    22.762172    19.268108    7916.0659    8433.1153    11112.381    8874.3388   -1506.5943    51.194447   -1902.1089   -3178.7572 
13292000    278.80357   -4817.4959   -4259.8543   -4817.4959            0    8812.8617    17.930042    22.822278    19.263539    7882.7254    8745.7261    7426.9648    10265.894    2938.1848   -637.71634     1124.153   -3246.7148 
13293000    285.63661   -4813.9507   -4242.6422   -4813.9507            0    10660.627    17.979804    22.864771    19.112714    7857.3152    9785.8538    9782.4839    12413.542     309.1456    -231.1768   -2227.5741   -3021.0316 
13294000    265.10672   -4824.5247   -4294.2785   -4824.5247            0    11074.808    17.728526    22.870653    19.355133    7847.7894    11168.693    11611.301    10444.428    1433.0435    993.94084    1259.2831    -3026.745 
13295000    269.18811    -4850.099   -4311.6895    -4850.099            0    8166.7296    18.132291    23.028792    19.037911    7949.5606    7647.5087    6963.0267    9889.6534   -1862.7087    107.57236   -2073.5484   -3364.8701 
13296000     262.9204   -4820.2855   -4294.4123   -4820.2855            0    10460.159    17.785698    22.807468    19.372127    7858.2399    11285.649    10983.643    9111.1843    360.74007    1739.8937     1635.924   -3095.6324 
13297000    272.60243   -4805.3695    -4260.131   -4805.3695            0    11040.233     18.05085    22.735264    19.116383    7845.1883    9635.9558    12273.533    11211.211    827.95494   -1193.3247   -336.98346   -2996.9735 
13298000     265.2588    -4829.252   -4298.7017    -4829.252            0    10785.584    17.856185    22.670491    19.468189    7880.8882    13280.498    11098.069    7978.1856    2554.6094   -220.11387    1807.4191   -3059.0641 
13299000    282.62179   -4810.7915    -4245.513   -4810.7915            0    11257.842    17.924198    22.681019    19.316352    7852.8519     12006.56    11527.722    10239.244    100.76954   -851.11301    492.65669   -2956.1998 
13300000    251.32961   -4806.7931   -4304.1029   -4806.7931            0    8825.4834    18.033544    22.943939    19.241265    7961.2762    9492.2099    8118.5515    8865.6887   -159.47966   -720.28725    164.09857   -3279.4021 
13301000       281.13   -4772.6898   -4210.3951   -4772.6898            0    10289.208    17.953747    22.895621    19.267746    7920.2413    12158.749    9698.9281    9009.9471   -1935.4978   -521.13638     61.70267   -3021.9032 
13302000     264.1244   -4819.0115   -4290.7301   -4819.0115            0     9619.744    17.763343    22.901358    19.342202    7868.4982     10363.73    9995.7777    8499.7244    1721.6815    57.907209    1423.8894   -3186.8263 
13303000    268.12858   -4836.5662    -4300.276   -4836.5662            0    12845.253    17.957387    22.752119    19.090362    7799.7229    11955.609    12819.885    13760.265   -518.39631   -348.41166    105.10543   -2839.1161 
13304000    280.47698   -4797.3375   -4236.3488   -4797.3375            0    10408.301    18.038518    22.612705    19.380206    7905.1799    10495.344    11163.191     9566.368    883.92095   -437.13197    1157.7618   -3036.3868 
13305000    270.69257   -4786.6524   -4245.2338   -4786.6524            0     11336.56    17.961911    22.572739    19.387892    7860.8118    13496.592    10877.871    9635.2174   -179.27738   -577.98032    694.73958   -2945.5892 
13306000    294.74067   -4808.1669   -4218.6492   -4808.1669            0    9997.3821    17.892918    22.711164    19.418474    7891.0657    9604.4569    11552.659    8835.0303    -931.5402   -520.96846    1452.7774   -3068.1195 
13307000    255.01449   -4821.7551   -4311.6947   -4821.7551            0    9273.3613    17.851287    23.099181    19.142007    7893.2089    7951.6535    9340.8932    10527.537   -764.93844   -92.901664   -921.01965   -3244.1977 
13308000    274.60259   -4819.5312   -4270.2921   -4819.5312            0    11393.291     17.56757    23.083757    19.327438    7837.7692    12414.599    12013.377     9751.899    -2204.311    125.67232   -295.77085   -2967.9725 
13309000    264.30358   -4802.5392   -4273.8994   -4802.5392            0    10582.941    17.812139    23.201165    19.039862    7868.4584    9835.6367    9141.9001    12771.285    623.03774    88.173216    38.325895    -3059.471 
13310000    270.98246   -4812.3892   -4270.3908   -4812.3892            0     10581.37    17.828924    23.000025    19.179491    7864.8517    10601.728    10735.571    10406.812    433.01499   -29.079852    441.73656   -3056.6992 
13311000    277.62143   -4808.5148   -4253.2377   -4808.5148            0    8867.0522    17.856102    23.018906    19.296734     7931.497    10210.216    6901.2403    9489.7002    -205.1096   -624.41289    1135.7723   -3227.5614 
13312000    284.46599   -4791.6577   -4222.6906   -4791.6577            0    10814.368    17.813761    22.920213    19.284559    7873.7926    12753.754    9755.6235    9933.7279   -1610.9873   -1377.1113   -3549.1056   -2980.8639 
13313000     276.9158   -4796.6701   -4242.8043   -4796.6701            0    9658.4692    17.959267    22.963638    19.245525    7937.0493    7838.6421    10012.908    11123.858    310.14986   -950.55586   -5.9636251   -3124.8005 
13314000    277.31248   -4833.2705   -4278.6113   -4833.2705            0    10560.502    17.777513    23.097028      19.1699    7871.3092    11626.056    9875.5188    10179.932   -1463.1577    1076.0102   -609.05914   -3066.3188 
13315000    265.18851   -4820.6298     -4290.22   -4820.6298            0    10105.944    17.733287    23.052783    19.214238    7854.8115    11073.209    9634.8692    9609.7534    -574.8932    570.46102    1287.9693     -3132.54 
13316000    266.30604   -4772.5499   -4239.9049   -4772.5499            0    10272.466    17.804883    23.084963    19.243732    7909.6563    9344.6904    9791.4311    11681.275   -1050.5202   -543.67759    6.8607206   -3054.9326 
13317000     265.9612   -4816.6968   -4284.7416   -4816.6968            0    10745.839    17.991023    22.806103    19.127628    7848.1638     10553.28    11492.363    10191.873   -828.63169   -852.20999    604.23607   -3054.8006 
13318000    275.59412    -4816.081   -4264.8587    -4816.081            0    11808.198    17.757409    22.940823    19.269144    7849.6632    10651.633    12417.835    12355.126   -504.52807  0.061218355    -1036.226   -2913.0646 
13319000    262.74191   -4833.3197   -4307.8034   -4833.3197            0    10736.644    17.919684    22.811896    19.202412    7849.5996    8964.3957     11031.26    12214.276   -351.18817    866.24746   -670.38929   -3078.6901 
13320000    267.21447   -4780.5209   -4246.0589   -4780.5209            0    9565.9474    17.860774    22.818512    19.355958    7888.6424    9721.2721    10294.108    8682.4618    375.12594   -1069.3419    1124.6142   -3145.5181 
13321000    266.11753   -4794.5309    -4262.263   -4794.5309            0    11159.956    17.868431    22.947558    19.226686      7883.65    11638.314    10870.527    10971.027   -1224.8462   -135.18948    697.60884   -2979.1476 
13322000    278.28438   -4782.2519   -4225.6487   -4782.2519            0     9096.807    18.015513    22.846082    19.321447    7952.3964     9470.931    9543.0266    8276.4634   -186.14181    1169.6279    41.739504   -3170.6234 
13323000    258.27926    -4814.504   -4297.9136    -4814.504            0    12640.031    18.063367    22.661525    19.056642    7800.7116     9785.015    13342.289    14792.788    -2008.328   -406.03782    138.38266   -2859.9158 
13324000    264.19241   -4827.2894   -4298.8719   -4827.2894            0    10280.292    17.766783    22.781083    19.417816     7859.294    11029.121    9390.8165    10420.939    1546.6718   -1348.1085    2236.7833   -3120.5475 
13325000    269.15867   -4821.8377   -4283.4871   -4821.8377            0    10098.028    17.951899    22.877823    19.199361    7885.1845    7494.0461    11119.065    11680.973   -340.76352   -567.10532   -840.14538   -3122.2409 
13326000    280.58471   -4829.6082   -4268.4041   -4829.6082            0    10403.563    17.891124    22.817514     19.31667    7885.6626    9984.8913    10778.972    10446.827    134.78814    367.26152   -951.93574   -3071.9496 
13327000    258.02462   -4829.2203   -4313.1392   -4829.2203            0    11920.724     17.89373    22.769801    19.249487    7842.9468    11044.282    12774.542    11943.348     1038.667    266.38364    1944.0634   -2949.6309 
13328000    268.11428    -4750.946   -4214.6843    -4750.946            0    11491.201    17.923777    22.794498    19.219436    7852.3596    10542.069    12576.473    11355.061    945.38431   -304.88913   -887.84755    -2898.728 
13329000    265.37473   -4813.6084   -4282.8262   -4813.6084            0    10564.883    17.999933    22.628956    19.321414    7869.9928    9240.3221    11352.303    11102.023   -610.97878    -147.8851     343.4224   -3070.2336 
13330000    278.24605   -4804.8092   -4248.2827   -4804.8092            0    8352.0278    18.092379    22.920026    19.161623    7945.8997    8653.0791    7929.1109    8473.8935    -290.1457    122.25505   -686.90159   -3280.4264 
13331000    257.35648   -4782.2022   -4267.4574   -4782.2022            0    9755.2742    17.804461    22.886792    19.410477    7909.5173     10834.07    10055.067    8376.6864    968.06112    655.39746    1881.5998   -3142.1651 
13332000    256.51331   -4818.2293    -4305.171   -4818.2293            0     9993.149    17.771118     23.05399    19.210234    7870.3406    10714.298    9371.4284    9893.7202    372.71786   -1448.4301    138.15044   -3158.1489 
13333000    266.43295   -4785.9422   -4253.0434   -4785.9422            0     10060.03     17.89398    22.919734    19.228213    7885.9755    8696.8876    10656.025    10827.176   -192.43613    382.29818    550.49081   -3096.0508 
13334000    274.31294   -4774.0131   -4225.3534   -4774.0131            0    11609.193    17.776394    23.038484    19.183288    7856.3463    14486.623    9722.6331    10618.322    165.51801    184.60072   -1368.2382   -2895.2097 
13335000    268.51191   -4830.6699    -4293.613   -4830.6699            0    10784.198    17.817923    23.050591    19.152544    7866.2117    11604.167    9375.6686    11372.757   -125.88899   -512.58794   -243.52545    -3056.443 
13336000    262.23105   -4812.9894   -4288.4949   -4812.9894            0    10243.814    17.931324    23.060502    19.064971    7883.4671    10845.834    9927.3306    9958.2779    241.08679    -625.3071   -272.66809   -3110.7402 
13337000    257.86482    -4809.998   -4294.2365    -4809.998            0    8607.7957     17.84656    23.123346    19.163987    7908.4445    6942.7823    8616.7487    10263.856    1562.8256    -567.8315   -972.22821    -3301.443 
13338000     266.3714   -4814.1056   -4281.3299   -4814.1056            0    8299.8161    17.820659    23.130155    19.304926    7957.3864    9042.6328     7559.395    8297.4205    637.34881    1521.0554   -270.07244   -3318.1336 
13339000    256.66422    -4839.781   -4326.4208    -4839.781            0    9730.0944    17.978936    23.023093      19.1086    7909.6367    9242.1513    9092.0507    10856.081    1902.6768   -651.45698    1506.8212   -3204.0161 
13340000     269.3809   -4829.1297   -4290.3346   -4829.1297            0    8660.7922    17.869728    23.000615    19.299497    7932.3777    9263.7339     9675.888    7042.7547   -877.86193     111.7511   -896.34372   -3288.4057 
13341000    263.80694   -4812.1673   -4284.5208   -4812.1673            0    9771.7699    17.745207    23.117804    19.171795    7864.8498    10979.788    10023.273     8312.249    120.43148   -604.17784    254.94439   -3163.6913 
13342000    269.98105   -4810.2533   -4270.2578   -4810.2533            0    11390.041    17.875588    23.119182    18.961093    7836.0316    9744.1676     11475.14    12950.815   -583.11461   -96.894994   -848.56126   -2968.5985 
13343000    278.56242   -4794.2463   -4237.0871   -4794.2463            0    9686.1013    17.815539    23.211287    19.107982     7901.563    8851.6545    9563.3373    10643.312    267.84565   -268.44426    1750.9278   -3120.8976 
13344000    266.22422   -4815.7084    -4283.227   -4815.7084            0    9917.6922    17.783334    23.196759    19.134605    7893.3256    9579.6451    10136.064    10037.367    633.16038   -58.114825    -3.259342   -3141.5414 
13345000    248.72594   -4807.9382   -4310.4555   -4807.9382            0    10915.633    17.827552    23.077783    19.068881    7845.3261    10384.067    11243.902    11118.931    396.53422   -751.78913    3067.9154   -3061.5321 
13346000    280.41361   -4824.3105   -4263.4487   -4824.3105            0    9441.3479    17.958932    22.839542    19.243393    7893.1353    9252.0748    9373.3731    9698.5958    138.57054    780.65692    134.25802   -3176.6241 
13347000    259.92374   -4787.6127   -4267.7332   -4787.6127            0    11642.619    17.883213    22.934503    19.041864    7809.8798    10323.929    13008.025    11595.901    1638.4988    1865.7259    1105.7822   -2941.6496 
13348000    265.61001   -4808.6358   -4277.3829   -4808.6358            0    10275.967    17.773665     23.01154    19.249769    7873.1442     11285.72    9991.7605    9550.4214     238.0914    1350.7906    116.05868   -3097.4786 
13349000    264.85813    -4802.777    -4273.028    -4802.777            0    10848.443     17.84456    22.887663    19.197322    7840.5756    11621.061    11187.189    9737.0801   -96.500734   -440.08554    -2044.187   -3032.5438 
13350000    268.58636   -4804.4132   -4267.2073   -4804.4132            0    12731.768    17.745882    22.835747    19.225201    7790.8295    13765.611    12895.443    11534.249   -632.92159    390.42701   -211.01867   -2820.6078 
13351000    252.31001   -4826.3746   -4321.7234   -4826.3746            0    8971.8793    18.057072    22.833466    19.281833    7950.0066    8306.8334    9524.1281    9084.6764    874.62579    675.99176    2728.4002   -3281.4996 
13352000    265.09753   -4802.4453   -4272.2175   -4802.4453            0    8865.5188    18.232185    22.577178     19.20673    7906.0907    8561.3861    10007.264    8027.9062     206.9796    311.19042   -941.17425   -3250.0034 
13353000    271.61534   -4800.0916   -4256.8273   -4800.0916            0    10591.638     17.77066    22.748656    19.509034    7886.6955    11880.821    10212.851    9681.2419    258.90867   -207.39168    1563.3032   -3038.5838 
13354000    269.53441   -4796.2626   -4257.1605   -4796.2626            0    9969.8653     17.97186    22.902043    19.148203    7881.2532     8437.415    9945.6488    11526.532   -455.24646   -361.05654     551.2578   -3111.2243 
13355000    276.10953   -4765.3458   -4213.0927   -4765.3458            0    11322.104    17.723042    23.078844    19.258697    7877.3333    11282.939    12202.581     10480.79    669.63982    567.75232    1214.4817   -2912.3774 
13356000     259.3414   -4823.9898   -4305.2749   -4823.9898            0    10665.004    17.845997    23.167442    19.016782    7862.4142    10997.297    8792.9519    12204.762    1639.7492    577.41104   -788.85716   -3082.3697 
13357000    276.63166   -4810.7024   -4257.4049   -4810.7024            0    10328.252    17.773749    23.089496    19.193077    7876.5875    11060.388    10305.304    9619.0636    8.5004646   -91.677914   -834.07558   -3070.9785 
13358000     265.2672   -4785.5329   -4254.9657   -4785.5329            0    9815.8557    17.990639    23.097937    19.066705    7923.1054    8761.7719    9054.6805    11631.115    1727.1467    655.01103    1920.1103     -3120.74 
13359000    259.46731   -4792.1005   -4273.1338   -4792.1005            0    11317.311    17.875742    22.675543     19.35467     7845.264    13424.278    12516.645    8011.0091   -1515.3409    590.28207   -302.11276   -2978.2622 
13360000    273.94894    -4793.635   -4245.7033    -4793.635            0    11125.311    17.962542    22.795551    19.210129    7865.8955    11156.974    11365.887    10853.072    1282.3518   -151.88631    691.97759   -2969.4519 
13361000    268.19687   -4772.4398   -4236.0129   -4772.4398            0    10017.147     17.92861    22.808218    19.333397    7905.8056    9532.3908    9201.3567    11317.694   -1415.9887   -1355.1141   -884.79006   -3081.0552 
13362000    272.51768   -4812.4151   -4267.3461   -4812.4151            0    10023.674    17.905002      22.9519    19.153182     7871.073    9091.3716    9463.2451    11516.407   -1727.5216   -418.93548    1418.6189   -3116.7132 
13363000    256.88499   -4804.6538    -4290.852   -4804.6538            0    12514.186    17.772904     22.91317    19.264713     7845.238    14418.282    12378.828    10745.449    -790.1787    -304.8989    1518.9957   -2859.0446 
13364000    260.41118   -4776.6252   -4255.7707   -4776.6252            0    10793.512    17.897098    23.029892    19.126559    7883.3601    9158.2727    10625.681    12596.582   -741.50497    138.06569    2288.0424   -3014.8328 
13365000    267.77088   -4802.1416   -4266.5667   -4802.1416            0    10089.959    17.692913    22.928508    19.413943     7875.695    10753.396    10427.863    9088.6182    81.842092   -1274.4644   -430.83425   -3107.6448 
13366000    265.79648   -4842.3832   -4310.7574   -4842.3832            0    8496.9256    17.976947    23.005485    19.146059    7918.2049    6564.7604    8941.4001    9984.6162    1382.6023   -1127.2715    1470.6356   -3329.5418 
13367000    250.33263   -4818.8556   -4318.1594   -4818.8556            0    9158.9129    17.810173    22.902826    19.343592    7890.3146    6855.9431    10512.447    10108.349    618.73238    1306.6505   -111.53142   -3264.2237 
13368000    259.41323   -4820.4891   -4301.6306   -4820.4891            0    9205.8299    17.994089    22.977349     19.20918    7942.1595    8572.2684    9350.3623    9694.8591     463.2543   -495.15984    1505.9304   -3235.3354 
13369000    260.64045   -4819.2466   -4297.9335   -4819.2466            0    8812.3719    17.932241    22.765023    19.366979    7906.1405    10254.004    8551.2156    7631.8964   -1994.0554   -533.27378   -3021.2734    -3281.841 
13370000    254.49359   -4785.5694   -4276.5507   -4785.5694            0    9771.0872     17.79327    23.062961    19.216416    7885.7539     8737.872     10042.84     10532.55   -452.66376    35.035469    596.00842   -3152.8207 
13371000    268.15462   -4843.2324     -4306.89   -4843.2324            0     9863.337    17.861363    22.991673    19.222268    7893.8671    10067.248    9066.3212    10456.442   -1419.6334   -265.80862   -2053.1236   -3171.3836 
13372000    275.83499    -4785.047    -4233.343    -4785.047            0    12043.426    17.837837    22.834423    19.255544    7843.1053     11523.05    13600.928      11006.3    1404.1326   -1002.3437    1870.5394    -2855.772 
13373000     276.3169    -4814.014   -4261.3461    -4814.014            0    11115.619    17.939424    22.741864    19.295355    7872.0406    8522.5449    12651.671    12172.641   -534.42221    453.30163    1710.3334   -2985.2104 
13374000    284.69533   -4829.1568    -4259.731   -4829.1568            0    9883.8726    17.901626    22.884202    19.215462    7871.8912    11107.918    9551.8512    8991.8487    -157.9181    151.77883   -1232.6512   -3125.0282 
13375000    271.14384   -4790.4173   -4248.0961   -4790.4173            0    9048.2003    17.845049    22.950922    19.369714    7933.0662    9858.8967    8881.8662    8403.8381     1819.008    1175.2842   -83.321486   -3201.2588 
13376000    277.73452   -4841.4336   -4285.9303   -4841.4336            0    10511.685    17.939744    22.819784     19.17849    7851.3109    9705.3156     10705.76    11123.979   -2359.7473   -524.90665   -1804.4668   -3082.3075 
13377000    261.65256   -4804.2665   -4280.9291   -4804.2665            0    10498.218    17.811633    22.964923    19.245238    7872.1256     10966.47    10303.082    10225.103    899.99112   -809.16251    1837.9631   -3075.6614 
13378000     270.2499   -4831.9222    -4291.389   -4831.9222            0    10183.486    17.802146    23.081677    19.188631    7884.6736    10725.939    9283.3772    10541.142   -389.13889   -460.34474   -986.90661   -3120.3912 
13379000    282.15409   -4795.7089   -4231.3658   -4795.7089            0    10164.666    17.919233      22.6718     19.43665     7896.358    11663.733    10941.323    7888.9432   -1225.4274     929.0056   -1307.8276      -3060.8 
13380000    252.84714   -4806.9407   -4301.2151   -4806.9407            0    10833.935    17.830483    22.914265    19.173328    7833.6926    11483.051     10277.99    10740.763   -1541.4757   -36.072563   -1453.8433   -3063.4774 
13381000    263.36229   -4835.7615   -4309.0044   -4835.7615            0    10757.242    17.684901    22.915509     19.32829     7832.954    11577.664    10350.695    10343.368   -1459.1435   -646.24604    1246.0567   -3080.1443 
13382000    272.82838   -4784.1772   -4238.4867   -4784.1772            0    10674.189    17.904414    22.982507    19.168232    7887.5035    10498.335    10180.915    11343.316     -513.482   -2275.2954    1109.2157   -3010.6226 
13383000    275.31638   -4810.5649   -4259.8982   -4810.5649            0    9288.9241    17.819895    23.026901    19.311441    7924.1978    8121.1454    9639.9966     10105.63    148.28641    708.92392    35.058685   -3186.4116 
13384000    261.08062   -4827.4606   -4305.2671   -4827.4606            0    9648.2286    17.904418    23.151448    19.047311    7895.3622    10595.192    8763.7284    9585.7655   -101.98563    1397.3446    1180.1562   -3194.3145 
13385000    265.34432   -4818.1762   -4287.4547   -4818.1762            0    11876.705    17.685361    23.061498    19.148763    7809.8406    14608.448    10396.703    10624.965    269.28251    114.06311    626.06462   -2934.7156 
13386000    283.15415   -4822.9036   -4256.5603   -4822.9036            0    10434.282      17.7838    23.020233    19.166375    7846.4693    10529.437    10495.901    10277.509   -993.12627   -1585.8546    906.01115   -3062.5371 
13387000    267.47772   -4813.5192   -4278.5307   -4813.5192            0    11896.886    17.664176    23.064652    19.228792    7834.1575    14695.139    9603.4626    11392.055   -591.07581    -1677.422    318.86366    -2919.274 
13388000    266.88416    -4807.061   -4273.2598    -4807.061            0    11232.124    17.910748    23.051722    19.035545    7859.2739    9951.9507    10709.886    13034.537   -597.25234    701.38729    912.99529   -2985.8399 
13389000    254.38407   -4819.4663   -4310.6667   -4819.4663            0    9339.9869    17.718974    23.080053    19.328943    7904.6652    12003.545    8162.8072    7853.6091   -595.98819    322.20734    1711.4456   -3233.9396 
13390000     270.5166   -4795.5556    -4254.489   -4795.5556            0    11161.644    17.910254    23.032447    19.051014    7858.8665     11994.27    9797.7686    11692.893    -1774.391    91.403868   -922.76038   -2975.2138 
13391000    268.21679   -4822.7193   -4286.2526   -4822.7193            0     8911.159    17.845033    22.905861    19.365046    7915.5758    8952.6853    8533.6949     9247.097   -439.87433   -76.676993    688.55523   -3257.5435 
13392000    268.85693   -4812.8002   -4275.0531   -4812.8002            0     8920.002    17.915818    23.037765    19.130397    7895.8879    9245.6995    8043.3573    9470.9491   -606.39828   -204.09556    2115.6735   -3247.8843 
13393000    264.74997   -4818.7965   -4289.2639   -4818.7965            0    9972.3184    17.803438    22.999815    19.310437    7907.1567    8992.1041    10669.789    10255.062    1641.9917    1513.9386   -121.82944   -3139.2784 
13394000    273.83002   -4818.8529   -4271.1591   -4818.8529            0    10376.812     17.99602    22.886166     19.15697    7889.9876    10268.796    10025.355    10836.284   -119.36502    280.17553   -436.90946   -3077.1266 
13395000    269.88007   -4824.6825    -4284.889   -4824.6825            0     7782.541    17.860776    22.965134    19.359467    7940.7717    7175.3336    9241.5658    6930.7237   -5.8297468   -819.90245   -720.79386   -3383.6084 
13396000    273.36749   -4845.2061   -4298.4373   -4845.2061            0    8340.2616    17.823807    23.021566    19.263416    7904.3952    8116.0957    8264.2256    8640.4635   -371.07187   -669.03443   -1996.7101   -3336.9929 
13397000    266.08684   -4837.5141   -4305.3075   -4837.5141            0    11091.383    17.956089    22.717171    19.267096    7859.2711    9580.6166    11526.075    12167.458    611.60045    721.41722    694.46333   -3034.0197 
13398000    267.77566   -4830.4636   -4294.8792   -4830.4636            0    10173.603    17.918787    22.946819    19.266964    7922.1739    9298.4059    10112.878    11109.526    951.85193    -624.1343   -2147.4034   -3119.4538 
13399000    281.76877   -4805.1542   -4241.5818   -4805.1542            0    9148.6355        17.83    23.117675    19.143715    7890.8125    9002.6613    8699.3276    9743.9174    1358.3037     277.0825    1559.3669   -3188.7623 
13400000    267.49979   -4824.9102   -4289.8776   -4824.9102            0    10421.184    17.723081    22.954814    19.285342    7845.8559    11471.427    9439.5959    10352.527   -2132.1604    347.82365   -1567.9809   -3097.4465 
13401000    280.97647   -4784.8333   -4222.8457   -4784.8333            0    11212.018    17.839346    22.952894    19.296806    7901.3592    11923.977    11303.184    10408.892     444.1173   -176.74313   -478.93007   -2930.8488 
13402000    276.34049   -4822.6092   -4269.8941   -4822.6092            0    9657.2248    17.883199    22.958076    19.165623    7868.7119     9397.361    9364.3619    10209.951   -1488.9071   -1357.6248    550.36296   -3161.6591 
13403000    260.54059   -4771.8485   -4250.7351   -4771.8485            0    10435.035    17.879029    22.813718    19.316715    7879.0394    11696.475    10175.303    9433.3282    69.902117    356.39556     1414.071   -3051.6691 
13404000    247.14537   -4782.5226   -4288.2014   -4782.5226            0    8170.2027    17.918683    22.869291    19.349193    7929.0586    9748.2546    7856.7003    6905.6532   -969.71753    285.72441    1662.3019   -3343.4221 
13405000    260.74965   -4808.1464   -4286.6149   -4808.1464            0      11317.2    17.847982    22.992497    19.133884    7851.9657    12356.445    11349.005    10246.149   -2103.9194   -268.26663   -596.72326   -2990.6499 
13406000    266.23687   -4836.9054   -4304.3988   -4836.9054            0    9719.8561    17.783044    23.222985    19.085845    7881.9838    9067.0566    9883.9734    10208.538   -2292.6799    515.88432   -300.01552    -3187.095 
13407000    263.52903   -4805.8968   -4278.8062   -4805.8968            0    10196.768    17.674438    23.283031    19.082498    7852.7246    11501.825    8966.9572    10121.522    833.63379    358.32277    387.44173   -3111.0322 
13408000    259.97131   -4831.0532   -4311.0785   -4831.0532            0    9158.0211    17.742591    23.303724     19.16398    7923.7009    10134.202    7781.7294    9558.1324    602.12497    218.54778    295.75514   -3252.7862 
13409000    261.60681   -4819.3153   -4296.0693   -4819.3153            0    11295.208    17.822363    23.174267    19.050336    7868.1739    10635.322    10106.128    13144.174    718.17593    1039.6125    889.48015   -2999.9527 
13410000    272.76958   -4804.8555   -4259.2827   -4804.8555            0    10583.898    17.692891     23.15275    19.162779    7849.8234    11457.331    9771.8143    10522.549    823.02204     134.3259    1247.1322   -3047.6208 
13411000    251.30743   -4809.2372   -4306.5913   -4809.2372            0    9962.2463    17.862523    23.220881    19.074075    7911.6119    9946.3865    9868.3763    10071.976    1862.0427    996.29973    553.83373     -3157.12 
13412000    262.43672   -4792.7849    -4267.879   -4792.7849            0    10837.686     17.72825    23.182568    19.169378    7878.3527    11331.128    9405.6234    11776.308   -133.35275    571.97436   -658.99071   -3022.6539 
13413000    275.00235   -4825.2891   -4275.2504   -4825.2891            0     10130.48    17.889348    23.010851    19.063157    7847.3318    11739.549    8702.2353    9949.6569    1789.9365    431.46948    1667.9827   -3115.8647 
13414000    264.72128   -4821.7675   -4292.2922   -4821.7675            0     9962.408    17.783988    22.932963    19.310083    7875.4151    11519.185    9805.8873     8562.152   -470.40781   -889.53398   -648.07063   -3148.0613 
13415000    254.01461   -4798.6721   -4290.6115   -4798.6721            0    9735.4976    17.990201    22.960437    19.083996    7882.8904    9358.9299    9612.8563    10234.707    823.30158    5.3766458    811.51011    -3171.381 
13416000    291.86827   -4810.6718   -4226.8992   -4810.6718            0    9458.9724    17.769652    22.730875    19.512994    7881.6834    9583.5746    9566.4403    9226.9023    291.89978    897.35849    1222.7306   -3139.6256 
13417000    273.70606   -4831.9225   -4284.4766   -4831.9225            0    9402.9195    18.002121    22.874517    19.110928    7869.6859     8853.955    9963.7581    9391.0455   -1077.2723    124.22481    1009.1462   -3205.2913 
13418000     264.9953   -4768.1582   -4238.1349   -4768.1582            0     9804.531    17.769075    22.981672    19.325412    7891.7845    11159.367    9599.4807    8654.7452   -1147.8553    240.97133    2585.8377   -3109.6963 
13419000    267.80511    -4766.636   -4230.9927    -4766.636            0    9993.1982    17.809815    23.016384    19.309728    7915.3961    10795.374    10426.555    8757.6657   -711.34882    44.064316    524.47911   -3077.3986 
13420000    274.53582   -4810.9939   -4261.8883   -4810.9939            0    10733.913    17.900448    22.865016    19.283617     7892.669    11857.116    10136.309    10208.316    180.90298   -658.41605    1962.3816   -3026.3453 
13421000    270.32354   -4800.4768   -4259.7963   -4800.4768            0    10079.025    18.067379    22.567558    19.312292    7874.3287    9858.5668    10692.975    9685.5321    1166.8527    329.21064    466.04354   -3102.3311 
13422000    261.75104   -4806.4495   -4282.9151   -4806.4495            0    10876.849    17.893002    22.458805    19.587187    7871.2178    11766.142    11068.671    9795.7347   -930.02846    2.7526275    2218.5525    -3034.322 
13423000    260.12317   -4831.3854    -4311.107   -4831.3854            0    7819.9621    18.170405    22.717113    19.303164    7967.9431    6566.8651    8757.9839    8135.0373    701.24505   -708.38238    440.72854   -3402.3939 
13424000    269.08104   -4830.9817   -4292.7864   -4830.9817            0    9250.8817    17.879144    22.847035    19.334488    7897.8563    8549.4839    10799.674    8403.4877   -1355.2169    1136.7539    869.28054   -3227.2502 
13425000    266.89072   -4813.4339   -4279.6195   -4813.4339            0    10470.882    17.927721    23.035923    19.009469     7850.561     10818.86    8778.1978    11815.587   -460.29599   -937.90508   -368.51908   -3080.7833 
13426000    273.69349   -4821.0611   -4273.6403   -4821.0611            0      11465.8    17.630478    23.047823    19.282055      7835.15    10552.988     12405.47    11438.942    97.847848   -509.46601   -132.34867   -2963.4706 
13427000    269.44309    -4790.717   -4251.7976    -4790.717            0    8820.0878    17.795905    23.284157    19.106914    7917.1911    6967.0774    10338.079    9155.1066   -928.70168    1548.2142   -279.56383    -3233.394 
13428000    272.33821   -4814.1628   -4269.4528   -4814.1628            0     9497.246    17.657133    23.257132    19.221964     7893.582    9971.2896    9884.0447    8636.4038   -1487.5929   -192.35474     2377.559   -3176.1317 
13429000    265.89396   -4793.8488    -4262.028   -4793.8488            0    8759.3916    17.838328    23.213494    19.089801    7904.8942     8361.069    8507.6146    9409.4911    195.00275   -42.036803   -123.63982   -3252.2035 
13430000      266.067   -4800.2975   -4268.1306   -4800.2975            0    10487.713    17.664891    23.128913    19.280492    7877.4255    10854.459    9365.6477    11243.031    671.47431   -142.91696   -986.43434   -3063.2585 
13431000     261.8595     -4809.33   -4285.5787     -4809.33            0    11368.426    17.943605     22.94883     19.01869    7831.6066      10156.8    11494.116    12454.362    888.13284   -35.622582    2322.1584   -2987.1231 
13432000    261.74808   -4791.1784   -4267.6499   -4791.1784            0    11047.208    17.722394    22.863811    19.411466    7865.5545    10851.048    12129.474    10161.103   -588.00099    869.12245   -1469.5364   -3000.4131 
13433000     262.0375   -4824.6828   -4300.5754   -4824.6828            0    10852.258     18.00384     22.73059    19.234877    7871.6408    10636.417    10700.329    11220.029   -781.56308   -598.10311   -596.09063   -3054.7383 
13434000    266.55659   -4830.6627   -4297.5166   -4830.6627            0    10640.455    17.745798    22.895724    19.326529    7852.4248    11392.232    11464.205    9064.9294    116.77088    133.99252   -175.32311   -3078.9763 
13435000    277.51076   -4800.8133   -4245.7575   -4800.8133            0    11148.531    17.996628    22.777651    19.175922    7860.6114    9728.7158    13070.397     10646.48    -170.1207   -250.56988   -82.767079   -2967.7016 
13436000    273.63725   -4809.8085   -4262.5002   -4809.8085            0    8856.1453    18.022315    22.794043    19.308705    7932.0431     10279.65    7902.8363    8385.9499    1768.7098   -1083.8226    863.66889    -3238.015 
13437000    265.73163   -4811.7601    -4280.264   -4811.7601            0    11977.782    17.863814    22.699135     19.33397    7839.7921    12579.466     11460.84    11893.039    69.529246    344.30442    -906.8475   -2910.7804 
13438000    279.74283    -4809.223   -4249.7028    -4809.223            0    9252.2165    17.922255    22.977878    19.145943    7884.5937    8559.1744    8340.5438    10856.931    819.83857   -1397.1467    2507.4936   -3185.8024 
13439000    263.62521   -4838.0186   -4310.7356   -4838.0186            0    9203.9014    17.808208    23.005835    19.312495     7912.188    8803.1871    8887.5511    9920.9659    774.25466   -483.84953     115.1752   -3248.6869 
13440000    276.98127   -4784.1412   -4230.1444   -4784.1412            0    10245.762    17.819544    23.024015     19.19338    7874.6109    10668.241    9604.1539    10464.892    81.713153    584.56013   -672.08844   -3053.4891 
13441000    269.40427   -4799.2344   -4260.3926   -4799.2344            0    10161.303    17.842888    23.046037    19.173568    7884.3219    7532.3206    11616.956    11334.633    7.4465198    1673.9419    484.61238   -3091.9977 
13442000    273.15868   -4798.9225   -4252.5714   -4798.9225            0    11364.734    17.626905    23.309932    19.051499    7827.9172    10604.568    10988.972    12500.662   -38.959381    78.275342   -1025.8287    -2955.149 
13443000    256.36038   -4790.3533   -4277.6009   -4790.3533            0    9845.0179    17.779877    22.987239    19.283328    7881.2946     8644.743     10113.55     10776.76    262.06132   -254.79659    807.15212   -3146.0086 
13444000    273.23421   -4824.0972    -4277.595   -4824.0972            0    10415.505    18.041319    22.744986    19.218634    7886.3576    8607.6345    10537.552    12101.329   -881.79415   -532.29464   -578.97856   -3079.6616 
13445000    269.32476   -4812.8381   -4274.1553   -4812.8381            0    11621.274    17.785579    22.855856    19.401914    7886.9683    13281.862    9787.9036    11794.056    1138.5237   -348.05396   -449.51714   -2937.4375 
13446000    260.23472   -4810.5097   -4290.0081   -4810.5097            0    9062.3716    18.043088    22.840683    19.211146    7917.2295    10738.809    8067.6015    8380.7043    964.09062   -1329.3911   -552.11388   -3243.6244 
13447000    259.79956   -4804.5874   -4284.9562   -4804.5874            0    7967.5536    17.913028    22.878182    19.400056    7950.4829    9200.5652    7810.2021    6891.8936   -236.13984    -581.3151     1163.608   -3361.1212 
13448000    270.04669   -4819.1025   -4278.9758   -4819.1025            0    8969.2285    17.910907    22.910381    19.249941    7899.1308    9372.7524    8400.8331       9134.1    929.80661    1337.9315    1041.5622   -3245.7142 
13449000    281.93553   -4815.1012   -4251.1953   -4815.1012            0    9204.4251    18.002697    22.789125    19.292894    7915.2131    6500.5931    10297.907    10814.776    518.79293     1044.302    1152.6153   -3188.6801 
13450000    269.71165   -4821.3936    -4281.937   -4821.3936            0     10653.93    17.811684    22.875602    19.323636    7873.4733    11238.505     10262.12    10461.165   -705.87267   -1004.1069   -244.66115   -3058.5832 
13451000     259.9263   -4799.1565   -4279.2718   -4799.1565            0    7372.2677    18.020004    23.043952    19.183587    7966.0246    5548.2191    7829.6822    8738.9018    817.64517    181.32066    1608.9619    -3422.789 
13452000    263.24467    -4808.479   -4281.9571    -4808.479            0     10855.21    17.903993    22.791541    19.323956    7885.3256    11659.276      10250.3    10656.052    461.55427    891.39499    161.40738   -3033.6147 
13453000    264.02253   -4825.6912   -4297.6135   -4825.6912            0    10712.055    18.062362    22.650018    19.160546    7838.8252    10666.884    11026.777    10442.503   -249.33863    131.11166   -203.74985   -3072.9983 
13454000    253.34388   -4819.6119   -4312.8928   -4819.6119            0    7976.6379    17.943928    22.781558    19.408211    7933.8949    8129.0365    7528.2648    8272.6124   -1047.6894   -642.03486   -571.08377   -3389.9342 
13455000    251.51841   -4816.5768   -4313.5089   -4816.5768            0    8998.4149    18.078246    22.647857    19.379176    7934.4848     9804.017    7937.3311    9253.8965    -619.8447    819.52128    721.42531   -3272.2454 
13456000      271.741   -4833.6141   -4290.0985   -4833.6141            0    11363.305    17.985774    22.406033    19.510498    7862.5326    11151.343    11878.532     11060.04   -1586.3576   -788.76281    -1716.563   -2987.1027 
13457000    258.07033   -4795.5108   -4279.3383   -4795.5108            0    10821.596    18.098094    22.538691      19.3189     7880.321    10513.672    11613.484    10337.632   -627.39225   -470.76382    878.13899   -3035.6512 
13458000    280.75218   -4806.4679   -4244.9289   -4806.4679            0    12307.721    17.913239    22.685962    19.294255    7840.7811    14708.999     11983.22    10230.945    116.74779   -565.05699    900.49929    -2837.544 
13459000    277.60048   -4830.4737   -4275.2384   -4830.4737            0    9179.4242    18.024394    22.587889    19.391464    7894.9052    8080.2581    10405.166    9052.8483   -1982.5774    47.570566    -232.1519   -3218.3278 
13460000    275.06854   -4806.3378   -4256.1668   -4806.3378            0     8634.871    18.112903    22.978655    19.044762     7926.623    6473.3117    8356.0709     11075.23   -1477.8053    1273.8179    859.94147   -3257.9613 
13461000    275.01505   -4819.9034   -4269.8394   -4819.9034            0    10167.712    17.767472    22.948826    19.280583    7861.5158    11675.187    10055.382    8772.5663   -1249.9087   -1342.4969     1821.726   -3104.0894 
13462000    268.42278   -4810.6668   -4273.7881   -4810.6668            0    10830.213     18.00771    22.981255    19.041915    7880.3017    10616.429    9684.3496    12189.859   -650.70181   -136.41114    1236.9891   -3029.1138 
13463000    263.39059   -4809.2899   -4282.4762   -4809.2899            0    9599.1537    17.970841    22.863093    19.239317    7904.8392    10930.939    8411.2202    9455.3016   -1470.3823   -834.29418   -1557.8924   -3175.8476 
13464000    266.82827   -4809.4838   -4275.7943   -4809.4838            0    9472.1699    17.790525    22.896119    19.301066      7861.98    9891.9664    9231.8476    9292.6957   -488.13348      -564.15    2047.0014   -3189.7256 
13465000    266.65038   -4863.9513   -4330.6176   -4863.9513            0    9799.0213    17.947719    22.838985    19.214471    7876.1596    9195.9811    10663.415    9537.6676   -113.44276   -719.53477    1588.2394   -3205.0461 
13466000    286.46077   -4851.6462   -4278.6893   -4851.6462            0    10483.924     17.83768    22.882918    19.238037    7852.5466    11275.218    9747.5768    10428.977    2533.0974   -185.46811    594.01296   -3078.0562 
13467000    262.55241   -4838.7029   -4313.5657   -4838.7029            0    10425.435    17.840676    22.900657    19.247778    7863.9339    10633.194    11228.716    9414.3942   -158.66811    308.66187     2005.791   -3117.8996 
13468000    271.73972   -4800.8036   -4257.2906   -4800.8036            0    9030.6131    17.986592    22.950373    19.192382    7922.5961    7994.5541    8370.6383    10726.647   -1529.5056   -999.98671   -331.50319    -3213.867 
13469000    265.47016   -4798.7016   -4267.7285   -4798.7016            0    12244.537    17.879185    22.656921    19.256612    7800.6086    14481.264    11451.837    10800.509    3321.3291    235.30804    130.89588   -2874.7426 
13470000    253.77892   -4815.5642    -4307.975   -4815.5642            0    11778.394    17.956177    22.913023    19.020168    7825.4731    11766.558    11228.705    12339.918     2523.353   -35.005326   -309.36972   -2963.7482 
13471000    275.05795   -4832.5412   -4282.3913   -4832.5412            0    12130.626    17.867471    22.808036    19.244867    7842.7053    15139.891    10992.018     10259.97   -452.30263     474.7303   -895.46541   -2894.9168 
13472000    257.80106   -4824.8945   -4309.2605   -4824.8945            0    10624.835    18.025079    22.811262     19.16714    7881.0445    10329.155    10173.148    11372.202    62.788579   -437.86343    370.90083   -3088.0744 
13473000    257.25873   -4829.6633   -4315.1141   -4829.6633            0    9843.9378    17.849193    22.891336    19.338391    7901.5093    9307.8742    10159.251    10064.688    2259.2129   -170.93869   -241.75922   -3180.7439 
13474000    266.43955    -4804.773    -4271.861    -4804.773            0    10654.359    17.844208    23.036426    19.174366    7881.9451    10193.575    11100.268    10669.235   -779.64349    1227.1009   -1227.6274   -3047.1415 
13475000     277.2902   -4842.9301   -4288.3154   -4842.9301            0     10431.33    17.819331    22.905323    19.235212     7850.997    10994.445    9584.2505    10715.295    584.80803    1293.8153    1222.6418   -3093.9413 
13476000    267.99625   -4821.6749   -4285.6493   -4821.6749            0    10874.373    17.981287    22.857311    19.183723    7884.5842    11645.934    10578.531    10398.653   -1797.8152    438.17916   -447.48325   -3035.2207 
13477000    270.44421   -4757.4134   -4216.4916   -4757.4134            0    8936.8774    17.952725    22.852137    19.339399    7934.1457     8762.014    7480.0953    10568.523   -436.34504   -1737.7781    1144.1642   -3182.3932 
13478000    278.39564   -4808.3538   -4251.5281   -4808.3538            0    9684.3448    17.847605     22.93992    19.298188    7901.1148    10168.985    9942.6145    8941.4344    43.077853   -789.49818    83.190438   -3135.6044 
13479000    276.28247   -4812.6309   -4260.0318   -4812.6309            0    10365.604    17.999439    22.942049    19.131427    7900.2081    11131.908    10120.077     9844.826   -368.32186   -221.35523   -377.09893   -3065.7439 
13480000    276.73955   -4781.3444   -4227.8311   -4781.3444            0    9543.8115    17.974065    22.896839    19.274307     7932.327    8769.6174    9967.4435    9894.3736   -167.30833     340.2071    296.70971   -3123.7567 
13481000    284.41878   -4812.7068   -4243.8341   -4812.7068            0    9786.6323    17.748776     23.05093    19.217504    7862.3766    11145.165    9165.4024    9049.3295    -1996.399   -503.53072    821.79877   -3121.6529 
13482000    269.90144   -4823.1831   -4283.3469   -4823.1831            0    8437.5625    17.822481    23.024295    19.314275    7925.6137    9191.2998    8419.6532    7701.7344   -540.18245   -653.62605    880.03341   -3308.0748 
13483000    267.19186   -4824.1515   -4289.7347   -4824.1515            0    10690.748    17.761128    23.143681    19.060157    7834.8275    11182.215     9425.852    11464.178    1173.8889    -578.4606    684.42052   -3068.1786 
13484000    277.79748   -4815.4239   -4259.7946   -4815.4239            0    9644.5694    17.719648    23.253918    19.246589     7930.581    10522.199    9680.8431    8730.6662   -875.05967    1063.6267   -1010.7736   -3144.3096 
13485000    263.20713   -4828.5432   -4302.0964   -4828.5432            0    10428.952    17.899959    22.967449    19.099769    7852.2283     10221.44    10823.956     10241.46    1097.0187     1403.953    1287.1439   -3107.8073 
13486000    277.00771   -4839.2323   -4285.1827   -4839.2323            0    9309.7143    17.796734    22.997476    19.285045    7892.9824    11813.714    7949.2202     8166.209    172.11149   -926.39799    1163.8784   -3213.5317 
13487000    254.06426   -4781.4969    -4273.337   -4781.4969            0    10550.332    17.792097    23.017852    19.218513    7870.6706    11339.318    9701.0782      10610.6    818.98622   -1748.3613    699.24087   -3062.3102 
13488000     276.5194   -4811.4747   -4258.4018   -4811.4747            0    10428.132     17.83415     22.78561    19.341785     7859.766    7956.7025    11909.219    11418.475    -723.6495    698.59082    602.95048   -3063.0602 
13489000    265.96329     -4814.14   -4282.1805     -4814.14            0    8689.6966    18.040277    22.904334    19.172507    7922.0897    9442.1673    7320.0411    9306.8815   -1424.9145   -585.00418    239.02377   -3278.2116 
13490000    262.66764   -4785.2505   -4259.8828   -4785.2505            0    12170.967    17.876328    22.798823    19.323167    7875.3355    11575.531     12033.13    12904.239   -313.94183    426.30236   -1562.4711   -2862.0023 
13491000    266.51389   -4824.2213   -4291.1606   -4824.2213            0    11708.327    17.897425    22.735559    19.244667    7830.8084    11849.141    11684.026    11591.813     1949.348   -679.64432    1565.0789   -2954.0193 
13492000    256.73762   -4797.4671   -4283.9601   -4797.4671            0    10681.198    17.973372    22.862063    19.158454    7872.3689    12183.428    9687.0477    10173.117    822.71786   -1900.5646    812.41693   -3057.6473 
13493000    279.87561   -4810.2765   -4250.4907   -4810.2765            0    8900.3564    17.859367    23.067756    19.317301    7958.2549    10016.701     8706.525     7977.843    272.94272    1165.3468    921.69007   -3217.4887 
13494000    263.82237   -4779.8627   -4252.1853   -4779.8627            0    11945.535     17.88619    23.007505    19.082418    7852.7319    11581.497    12133.497    12121.611   -2043.2534    766.97707   -650.66467   -2884.1344 
13495000    273.44424   -4778.8037   -4231.8815   -4778.8037            0    11731.661    17.801297    22.872546    19.260941    7842.3038    10186.246    12037.407    12971.329   -1113.5956    1088.6184   -241.88444   -2890.1085 
13496000    267.44307   -4813.8096   -4278.8904   -4813.8096            0    11130.386    18.038422    22.723338      19.2149    7876.0558     8321.415    12789.764    12279.979    164.11347    1217.9693    831.69674   -3000.4075 
13497000    259.60487   -4801.5419      -4282.3   -4801.5419            0    8774.1566     18.10064     22.73377    19.251047    7921.7249    8512.7723    8574.6945    9235.0031   -702.45175   -810.31426    514.33421   -3268.6197 
13498000    281.48769   -4824.9593   -4261.9491   -4824.9593            0    7691.4129    17.985531    22.755753    19.428564    7951.6121    7195.0773    7483.3179    8395.8434   -133.58439   -271.84566    1557.0641   -3370.0059 
13499000    276.45921   -4841.3697   -4288.4172   -4841.3697            0    9949.7982    17.884356    22.930946    19.175953     7864.158    9162.3872      9823.01    10863.997   -1786.6957    807.86532    319.10458   -3147.2681 
13500000    274.03182   -4798.3853   -4250.2878   -4798.3853            0    7818.5519    17.880176    22.993639     19.34295    7952.4734    7751.9502    8782.5456      6921.16    1008.4616    768.96936    1962.0348   -3343.5026 
Loop time of 529.04 on 64 procs for 250000 steps with 1008 atoms

Performance: 81.657 ns/day, 0.294 hours/ns, 472.554 timesteps/s
99.2% CPU use with 64 MPI tasks x 1 OpenMP threads

MPI task timing breakdown:
Section |  min time  |  avg time  |  max time  |%varavg| %total
---------------------------------------------------------------
Pair    | 28.859     | 32.689     | 36.777     |  30.9 |  6.18
Bond    | 0.28877    | 0.29555    | 0.30864    |   0.7 |  0.06
Kspace  | 246.4      | 257.32     | 272.27     |  37.5 | 48.64
Neigh   | 4.6878     | 5.3907     | 6.517      |  23.1 |  1.02
Comm    | 91.593     | 107.97     | 120.93     |  67.6 | 20.41
Output  | 1.2655     | 1.2675     | 1.2787     |   0.4 |  0.24
Modify  | 109.95     | 117.52     | 122.32     |  35.2 | 22.21
Other   |            | 6.591      |            |       |  1.25

Nlocal:        15.7500 ave          19 max          11 min
Histogram: 1 2 1 8 0 15 16 13 6 2
Nghost:        2498.34 ave        2523 max        2477 min
Histogram: 2 7 7 12 6 13 7 3 5 2
Neighs:        5252.81 ave        6371 max        3654 min
Histogram: 1 2 1 8 9 8 14 13 6 2

Total # of neighbors = 336180
Ave neighs/atom = 333.51190
Ave special neighs/atom = 2.0000000
Neighbor list builds = 9990
Dangerous builds = 0

unfix		3
unfix		2
unfix		1

write_data	data.final.${pid}
write_data	data.final.0
System init for write_data ...
PPPM initialization ...
  extracting TIP4P info from pair style
  using 12-bit tables for long-range coulomb (../kspace.cpp:340)
  G vector (1/distance) = 0.38325193
  grid = 24 30 32
  stencil order = 5
  estimated absolute RMS force accuracy = 0.0019637947
  estimated relative force accuracy = 5.9139094e-06
  using double precision FFTW3
  3d grid and FFT values/proc = 4080 384
Last active /omp style is kspace_style pppm/tip4p/omp
WARNING: Not all mixed pair coeffs generated from mixing. Use write_data with 'pair ij' option to store all pair coeffs. (../write_data.cpp:312)

write_restart   restart.lmp.${pid}
write_restart   restart.lmp.0
System init for write_restart ...
PPPM initialization ...
  extracting TIP4P info from pair style
  using 12-bit tables for long-range coulomb (../kspace.cpp:340)
  G vector (1/distance) = 0.38325193
  grid = 24 30 32
  stencil order = 5
  estimated absolute RMS force accuracy = 0.0019637947
  estimated relative force accuracy = 5.9139094e-06
  using double precision FFTW3
  3d grid and FFT values/proc = 4080 384
Last active /omp style is kspace_style pppm/tip4p/omp
Total wall time: 0:08:51
