LAMMPS (30 Jul 2021)
Processor partition = 0
  using 2 OpenMP thread(s) per MPI task
using multi-threaded neighbor list subroutines
variable        pid world 0 1
variable        phase world IceII IceIh

shell cd ${phase}
shell cd IceII
include Restart.lmp
echo both
log log.lammps
#include		in.partitions
include		in.temp
variable        temperature equal 202.60
variable	tempDamp equal 100.0
include		in.pressure
variable        pressure equal 2100.6
variable        pressureDamp equal 1000.0 # This is 1 ps
include		in.seed
variable        seed equal 745823

units		real
atom_style	full
box tilt large
read_restart	restart.lmp.${pid}
read_restart	restart.lmp.0
Reading restart file ...
  restart file = 30 Jul 2021, LAMMPS = 30 Jul 2021
  restoring atom style full from restart
  triclinic box = (-10.734954 -9.2836261 -0.00013748704) to (12.714954 12.273624 21.860136) with tilt (-9.0328209 2.0427693 2.8942857)
  4 by 2 by 4 MPI processor grid
  restoring pair style lj/cut/tip4p/long/omp from restart
  restoring bond style harmonic/omp from restart
  restoring angle style harmonic/omp from restart
  1296 atoms
  864 bonds
  432 angles
Finding 1-2 1-3 1-4 neighbors ...
  special bond factors lj:    0        0        0       
  special bond factors coul:  0        0        0       
     2 = max # of 1-2 neighbors
     1 = max # of 1-3 neighbors
     1 = max # of 1-4 neighbors
     2 = max # of special neighbors
  special bonds CPU = 0.002 seconds
  read_restart CPU = 0.007 seconds
include 	in.setup
variable	out_freq equal 1000
variable	out_freq2 equal 10000
variable	out_freq3 equal 1000

timestep	2.0

neigh_modify    delay 7 every 1

include		in.tip4p
# This is TIP4P/Ice

# create groups ###
group ox type 2
432 atoms in group ox
group hy type 1
864 atoms in group hy

# set charges - beside manually ###
set group ox charge -1.1794
Setting atom values ...
  432 settings made for charge
set group hy charge 0.5897
Setting atom values ...
  864 settings made for charge

# ### TIP3P Potential Parameters ###
pair_style lj/cut/tip4p/long/omp 2 1 1 1 0.1577 8.5
pair_coeff 1 1*2 0.000 0.000
pair_coeff 2 2 0.21084 3.1668
bond_style  harmonic
bond_coeff  1 450 0.9572
angle_style harmonic
angle_coeff 1 55 104.52
kspace_style pppm/tip4p/omp 1.0e-5
pair_modify tail yes

thermo          ${out_freq}
thermo          1000
thermo_style    custom step temp pe etotal epair emol press lx ly lz vol pxx pyy pzz pxy pxz pyz enthalpy

restart 	${out_freq3} restart.lmp.${pid} restart2.lmp.${pid}
restart 	1000 restart.lmp.${pid} restart2.lmp.${pid}
restart 	1000 restart.lmp.0 restart2.lmp.${pid}
restart 	1000 restart.lmp.0 restart2.lmp.0


include         in.dump
dump            myDump all atom ${out_freq2} dump.water.${pid}
dump            myDump all atom 10000 dump.water.${pid}
dump            myDump all atom 10000 dump.water.0
dump            myDump2 all dcd ${out_freq2} dump.dcd
dump            myDump2 all dcd 10000 dump.dcd
dump_modify     myDump append yes
dump_modify     myDump2 append yes


variable natoms 	equal  "count(all)"                        # NUMBER ATOMS
variable H      	equal  "enthalpy/v_natoms"                 # ENTHALPY-per-atom
variable Vol      	equal  "vol/v_natoms"                 # volume-per-atom
fix AVG all 		ave/time ${out_freq} 1 ${out_freq} v_Vol v_H file vol_enthalpy.dat
fix AVG all 		ave/time 1000 1 ${out_freq} v_Vol v_H file vol_enthalpy.dat
fix AVG all 		ave/time 1000 1 1000 v_Vol v_H file vol_enthalpy.dat


timer           timeout 10:00:00 every 1000
New timer settings: style=normal  mode=nosync  timeout=10:00:00

fix 		1 all shake 1e-6 200 0 b 1 a 1
Finding SHAKE clusters ...
       0 = # of size 2 clusters
       0 = # of size 3 clusters
       0 = # of size 4 clusters
     432 = # of frozen angles
  find clusters CPU = 0.007 seconds
fix             2 all nph tri ${pressure} ${pressure} ${pressureDamp}
fix             2 all nph tri 2100.6 ${pressure} ${pressureDamp}
fix             2 all nph tri 2100.6 2100.6 ${pressureDamp}
fix             2 all nph tri 2100.6 2100.6 1000
fix             3 all temp/csvr ${temperature} ${temperature} ${tempDamp} ${seed}
fix             3 all temp/csvr 202.6 ${temperature} ${tempDamp} ${seed}
fix             3 all temp/csvr 202.6 202.6 ${tempDamp} ${seed}
fix             3 all temp/csvr 202.6 202.6 100 ${seed}
fix             3 all temp/csvr 202.6 202.6 100 745823


run             250000
PPPM initialization ...
  extracting TIP4P info from pair style
  using 12-bit tables for long-range coulomb (../kspace.cpp:340)
  G vector (1/distance) = 0.36619789
  grid = 30 40 32
  stencil order = 5
  estimated absolute RMS force accuracy = 0.0047552827
  estimated relative force accuracy = 1.4320393e-05
  using double precision FFTW3
  3d grid and FFT values/proc = 7888 1280
Last active /omp style is kspace_style pppm/tip4p/omp
Neighbor list info ...
  update every 1 steps, delay 7 steps, check yes
  max neighbors/atom: 2000, page size: 100000
  master list distance cutoff = 10.8154
  ghost atom cutoff = 10.8154
  binsize = 5.4077, bins = 7 5 5
  1 neighbor lists, perpetual/occasional/extra = 1 0 0
  (1) pair lj/cut/tip4p/long/omp, perpetual
      attributes: half, newton on, omp
      pair build: half/bin/newton/tri/omp
      stencil: half/bin/3d/tri
      bin: standard
Setting up Verlet run ...
  Unit style    : real
  Current step  : 7750000
  Time step     : 2
  Walltime left : 9:59:59.92
Per MPI rank memory allocation (min/avg/max) = 10.65 | 10.66 | 10.66 Mbytes
Step Temp PotEng TotEng E_pair E_mol Press Lx Ly Lz Volume Pxx Pyy Pzz Pxy Pxz Pyz Enthalpy 
 7750000    213.16201   -6450.0983   -5901.7521   -6450.0983            0     1195.349    23.449909     21.55725    21.860274    11050.708    896.05719     1724.458    965.53186   -1151.7905    495.71915    162.65217   -5709.1057 
 7751000    201.90571   -6460.9595   -5941.5693   -6460.9595            0    324.89543    23.293036    21.555868    22.083668    11088.245    1153.2632    357.66728   -536.24419    683.73864    67.639852    322.68075   -5889.0302 
 7752000    206.96819   -6462.9483   -5930.5353   -6462.9483            0    2068.5905    23.356789    21.486268    21.934697    11007.933    1909.9816    2277.8279    2017.9619   -351.07697    962.32817    -753.7789    -5598.445 
 7753000    200.91056   -6447.3786   -5930.5484   -6447.3786            0    3345.4384    23.400973    21.435209    21.785485    10927.703     3229.394    4026.0239    2780.8972   -1028.3756    209.01615    -251.4682   -5397.3881 
 7754000    192.84511   -6466.8663    -5970.784   -6466.8663            0     2271.984    23.364045    21.584916    21.735475    10961.438    2231.5348    1794.1272    2790.2901    408.42486    190.70157    1114.8748   -5607.5816 
 7755000     199.4363   -6460.9726   -5947.9348   -6460.9726            0    1571.5998    23.508561    21.474035    21.851756    11031.284    1646.8862    1424.7707    1643.1424   -1182.8381    396.43972   -121.94387   -5695.0959 
 7756000    199.11343   -6432.7205   -5920.5133   -6432.7205            0    1456.4827    23.474936     21.69912    21.729274    11068.576    1466.8526    421.11387    2481.4816   -906.90307    399.38617   -600.59016   -5685.4023 
 7757000    204.56415   -6467.2937   -5941.0649   -6467.2937            0    2256.8692    23.377006    21.541725    21.808153    10982.172    2242.8527    1510.9927    3016.7622    378.27032    701.40998    174.75388   -5579.5964 
 7758000    208.92153   -6466.5394   -5929.1015   -6466.5394            0    2091.5401     23.42437    21.384514    21.928675    10984.485    1931.3972    3090.0572    1253.1659    41.900004   -129.21789   -119.16343   -5594.0421 
 7759000    209.47453   -6439.8113   -5900.9508   -6439.8113            0    2244.3907    23.317983    21.602499    21.858331    11010.625      2636.44    1958.3182     2138.414    1163.5165   -407.86254   -940.71917   -5540.5495 
 7760000    209.73724   -6466.5132    -5926.977   -6466.5132            0     2235.046     23.50008     21.44759    21.792829    10984.023    1329.5752    2716.0224    2659.5403   -727.46914    1202.6277    20.550453   -5568.9434 
 7761000    205.59597   -6466.6226   -5937.7395   -6466.6226            0    555.85026    23.353751    21.615046    21.864825    11037.198    615.36517    1368.9776   -316.79197   -795.21625   -1.4471006   -254.41618   -5848.2664 
 7762000      208.486   -6432.6541   -5896.3366   -6432.6541            0    2348.9152    23.489518    21.507662    21.787861    11007.328     1597.354    3280.4277     2168.964    1095.0989   -646.79681   -324.82804   -5519.2639 
 7763000    207.66914   -6450.7489   -5916.5327   -6450.7489            0    2079.0829    23.428579    21.549044     21.76252    10987.102    1734.2185    2373.6343    2129.3958    318.89581   -772.42498    8.6945527   -5583.3896 
 7764000    200.66868   -6473.6811   -5957.4731   -6473.6811            0    1279.9179    23.355473    21.558556    21.864186    11008.842    1220.6644    1068.6254    1550.4641    172.44462    148.20874    1024.2032   -5751.9789 
 7765000    215.30416   -6484.7203   -5930.8635   -6484.7203            0    2711.5145    23.319011    21.536698    21.852835    10974.811    2210.1166    3120.0527    2804.3742    10.934249    1014.1294   -586.89734   -5496.8684 
 7766000    211.21845   -6482.0201   -5938.6735   -6482.0201            0    2618.0166    23.304221     21.41432    21.939523    10948.788    2672.7809     3650.947    1530.3219   -276.50798    242.67714    683.53953   -5520.6369 
 7767000    203.82887   -6463.4591   -5939.1217   -6463.4591            0    2962.0749    23.364403    21.454221    21.849554    10952.418    2926.2498    3393.1424    2566.8325    222.42782    566.10563   -2.1397048   -5465.9901 
 7768000    208.44262   -6498.4215   -5962.2155   -6498.4215            0    2268.6708    23.427641    21.586971    21.677831    10963.168    1925.0993    1431.2027    3449.7105    -268.5198    18.222819   -31.907308   -5599.4855 
 7769000    202.72971   -6464.4512   -5942.9414   -6464.4512            0    2562.3048    23.518173    21.398435     21.72988    10935.607    2820.7751      2068.97    2797.1692    1205.5653   -473.24267   -135.26475   -5534.2932 
 7770000    197.20971   -6460.3317   -5953.0218   -6460.3317            0    1673.6051      23.3248    21.557477    21.826626    10974.948    2469.7394    1977.8864    573.18945    799.62439    -657.3221   -951.21242   -5685.1473 
 7771000    191.67305   -6461.3668   -5968.2996   -6461.3668            0    1833.0784    23.459211    21.416729    21.861629     10983.71    1474.0958    1935.2315    2089.9079    522.48828    685.03422   -393.40651   -5674.6658 
 7772000    214.77842   -6480.9657   -5928.4613   -6480.9657            0    1521.5598    23.346332    21.577187    21.852828    11008.322    2223.8556    1138.6752    1202.1486   -1461.2332   -469.06759    501.75045   -5684.1823 
 7773000    200.65705   -6467.3374   -5951.1594   -6467.3374            0    2092.0517    23.357228    21.577154     21.80051    10987.076    2110.4434    990.94488    3174.7669   -1368.0948    183.34607    144.31167    -5615.939 
 7774000    207.29925   -6411.9062   -5878.6415   -6411.9062            0    2174.6346    23.618559     21.40291    21.801492    11020.783    2502.2819    1961.3139    2060.3081   -826.59846   -927.96027    376.78632   -5529.1194 
 7775000    205.85462   -6433.4412   -5903.8927   -6433.4412            0    1893.1521     23.38846     21.70212    21.711093    11020.099    1863.3159    1784.9051    2031.2352    317.89117   -1153.1577   -439.29011   -5599.6313 
 7776000    207.53233     -6443.67   -5909.8058     -6443.67            0    2502.2619    23.465304    21.447264    21.842098    10992.398    3203.4487    2266.6472      2036.69     99.22485   -1149.3301   -397.66501    -5508.661 
 7777000    209.77988   -6457.0235   -5917.3776   -6457.0235            0    1070.2116    23.395122    21.472011    22.002753     11052.87    1198.6784     1787.301    224.65559    538.10581   -502.01536    548.47394    -5744.865 
 7778000    196.59296   -6468.6277   -5962.9043   -6468.6277            0    1423.1791    23.294977    21.624908    21.846182    11005.053    2155.6358    1487.0218     626.8798    80.473046    100.23965   -500.47201   -5734.4878 
 7779000    204.35023   -6478.9092   -5953.2307   -6478.9092            0    2004.9073    23.459992     21.40628    21.883451    10989.675    464.96734    3243.6842    2306.0703    212.54912    613.91296    210.46933   -5631.8979 
 7780000    214.98167   -6452.6012   -5899.5739   -6452.6012            0    1931.6552    23.390296      21.6923    21.679776    11000.087    1334.3678    1827.4826    2633.1152    243.73059    430.93846    376.89798   -5589.6882 
 7781000    202.40388   -6428.4226   -5907.7509   -6428.4226            0    2080.5369    23.555727    21.534623    21.699653    11007.446    2088.1465    1766.7205    2386.7438    427.12623    205.27179   -1000.0042   -5573.7575 
 7782000     207.6435   -6455.0731   -5920.9228   -6455.0731            0    1399.5207    23.492893    21.481355    21.766528    10984.678     915.3774    1417.6464    1865.5381    268.90169    -62.27622   -623.65201   -5696.7193 
 7783000     202.0632   -6456.1065   -5936.3112   -6456.1065            0    3796.3826    23.259014    21.545719    21.796247    10922.801    3254.6766    4030.8506    4103.6205    650.78221   -45.314091    578.77838   -5331.5556 
 7784000    206.89693   -6490.7401   -5958.5104   -6490.7401            0    1500.8697    23.516103    21.282423    21.959224    10990.145     145.4506    3273.8059    1083.3527   -309.16412    483.85844    225.37267    -5717.951 
 7785000    201.44362   -6481.4492   -5963.2478   -6481.4492            0    1485.8321    23.321624    21.620399    21.820259    11002.273    2709.0448    508.90075    1239.5509    296.53712    623.12563    256.31389   -5724.8359 
 7786000     196.4983   -6464.8023   -5959.3224   -6464.8023            0     1287.626    23.584624    21.460728    21.787026    11027.356   -391.38441     2932.113    1322.1494    51.664585     836.7153   -557.71851   -5752.2429 
 7787000    200.05805   -6442.1086   -5927.4715   -6442.1086            0    1357.3729    23.497878    21.635818    21.699034    11031.698    1125.1138    1050.2814    1896.7235    1448.7433   -1143.9202    603.16265   -5709.0892 
 7788000    215.80393   -6488.2835    -5933.141   -6488.2835            0    2822.2487    23.399223    21.442977    21.796311    10936.277    2312.2927    2662.9277    3491.5258    173.90681    135.52435    108.72056   -5483.0082 
 7789000    199.99834    -6450.591   -5936.1075    -6450.591            0    1966.7472     23.32055    21.491877    21.991775     11022.33    1238.7497    3350.6132    1310.8788   -19.278904   -738.16548   -536.88762   -5619.9541 
 7790000     205.1744    -6477.312   -5949.5134    -6477.312            0    1527.8553    23.247543    21.493676    22.057519    11021.594    2057.6391    2077.7766    448.15006    -703.5463    1043.3479   -201.76845    -5703.928 
 7791000    194.68831    -6453.326   -5952.5022    -6453.326            0    1741.7646    23.316583    21.411019    22.034091    11000.119    1995.0611    1319.9423    1910.2903    106.53712    33.234744     481.7552   -5673.0789 
 7792000     203.2378    -6465.695   -5942.8781    -6465.695            0    1759.8633    23.361288    21.566192    21.778017     10972.07    2338.5103    1269.1357    1671.9439   -504.25855   -54.037433    826.64446   -5661.2711 
 7793000    205.47602   -6453.6375   -5925.0629   -6453.6375            0    1738.9969    23.564897    21.530567    21.622362    10970.443     1036.625    1361.3176    2819.0481    93.315481   -686.15084    636.17288   -5646.8362 
 7794000    199.01511   -6441.8593    -5929.905   -6441.8593            0       3672.3    23.430771    21.539149    21.656776    10929.717    3710.0223     2446.618    4860.2596    28.711773   -442.73125    963.53697   -5344.5451 
 7795000    191.61722   -6487.5177   -5994.5941   -6487.5177            0    1915.2745    23.446824    21.640054    21.584892     10951.97    987.86137    2046.0988    2711.8634   -142.75031   -372.52053    416.65991   -5688.6802 
 7796000    204.36554   -6454.7174   -5928.9995   -6454.7174            0    2097.1066    23.588682    21.471222    21.702851    10992.013    252.02653    1965.2337    4074.0595    19.039809    1558.1842    262.49927   -5592.8181 
 7797000    197.24117   -6471.9556   -5964.5647   -6471.9556            0    1998.3096    23.333775    21.552904    21.807018    10966.981     2558.586    1544.3087     1892.034   -233.86859   -265.51455    349.23539   -5644.9508 
 7798000    199.79866   -6437.4526   -5923.4827   -6437.4526            0    2144.4615    23.460589    21.408949     21.85034    10974.695     1978.352    2733.2592    1721.7732   -605.23316   -133.29976   -162.33163   -5580.2516 
 7799000    201.40545    -6433.226   -5915.1228    -6433.226            0    1065.8404    23.456362    21.511783    21.934433    11067.856    1089.7674    2077.8606    29.893167   -735.93381       81.121   -1594.2503   -5743.0819 
 7800000    203.87227   -6458.5118   -5934.0628   -6458.5118            0    2220.9579    23.250096    21.609168    21.903458    11004.631    2578.8323    2136.4689    1947.5724    304.60825     113.9813    1213.6728   -5577.6185 
 7801000    205.93621   -6443.0544   -5913.2961   -6443.0544            0     1992.936    23.461382    21.415449     21.96146    11034.229    2454.0404    2879.8089    644.95871   -267.13861    363.73309   -522.43159    -5592.587 
 7802000    199.65091   -6470.6158   -5957.0259   -6470.6158            0    2436.7361    23.236935    21.646985    21.802539    10966.886    3333.2445    1731.7062    2245.2577   -59.473172   -1046.7975   -383.40037   -5567.2925 
 7803000    199.92333    -6471.859   -5957.5684    -6471.859            0    2045.0936    23.597435    21.308193    21.792628    10957.741    1061.1324    2754.2728    2319.8756    628.09117   -444.42328    599.54402   -5630.7473 
 7804000    207.63939   -6457.7614   -5923.6218   -6457.7614            0    735.54182    23.357727    21.615211    21.889502     11051.62    873.94123       1070.1    262.58424   -33.080692    107.62929   -1025.5254   -5805.0697 
 7805000    201.01927     -6441.08   -5923.9701     -6441.08            0    1635.0543    23.300429    21.518972    22.001215    11031.437     2270.786     1803.178    831.19894    112.59722   -605.48106   -394.56746    -5660.919 
 7806000    203.58905   -6426.4748   -5902.7543   -6426.4748            0    2068.9559    23.502791    21.361765    21.914493    11002.414    2728.2608    2083.0015    1395.6054    399.93543   -841.42521   -135.31837   -5570.7719 
 7807000    198.24881   -6446.9737   -5936.9907   -6446.9737            0    1970.6172    23.370146    21.670492    21.716029    10997.921    3597.6398    726.29409    1587.9177   -577.20845   -802.27892    87.566534   -5620.9167 
 7808000    201.73993   -6460.2646   -5941.3009   -6460.2646            0    1341.0467    23.569096    21.452913    21.797836    11021.548    864.07441    1603.2456    1555.8202    -976.3076   -282.38286    163.89987   -5725.7438 
 7809000     209.2963   -6472.8825   -5934.4805   -6472.8825            0    1156.8626    23.325712    21.524024    21.964181    11027.407    1614.2159    1576.0793    280.29261    704.25009   -50.920747    190.11974   -5748.4299 
 7810000    195.21396   -6471.5922   -5969.4162   -6471.5922            0    2119.1946    23.212415    21.591693    21.944032    10998.246    2439.4897    2383.6589    1534.4353   -550.85583    1000.0028    198.92521   -5629.5013 
 7811000     204.0498   -6462.5898   -5937.6841   -6462.5898            0    1459.9006    23.472851    21.368382     22.01528    11042.355    800.03196    2247.7095    1331.9603   -993.64374    201.15847   -179.03861   -5702.5797 
 7812000    202.23799   -6441.6211   -5921.3762   -6441.6211            0    3191.9537    23.244964    21.598887    21.822311    10956.226    4265.6254    2586.7027     2723.533   -1177.9372    900.57592    112.80739   -5411.3489 
 7813000    201.73077   -6416.4697   -5897.5296   -6416.4697            0     3113.711    23.530171    21.419693    21.804776    10989.804     2612.127    3355.9305    3373.0755   -864.24024    648.03147   -808.46682   -5398.4795 
 7814000    204.29239     -6466.73   -5941.2003     -6466.73            0    3251.8774    23.506344    21.463518    21.628495      10912.2    3483.2865    2893.5314    3378.8142   -581.01215    50.363187   -130.47324    -5423.686 
 7815000    191.15891   -6470.6308   -5978.8861   -6470.6308            0     2522.968    23.290089     21.69551    21.680307     10954.85    3086.2421     1935.298     2547.364    68.769578    157.83728    190.86477   -5575.8035 
 7816000    205.66067   -6439.5057   -5910.4561   -6439.5057            0    1592.4299    23.629139    21.399912    21.848103    11047.744    648.54157    2331.8161     1796.932   -564.53962     308.3528    299.41308   -5653.8838 
 7817000    200.16489   -6484.3725   -5969.4606   -6484.3725            0    1574.8432    23.203448    21.650774    21.884664    10994.256    3246.8843    375.24521       1102.4     85.11389    -391.3869    65.622963   -5716.9503 
 7818000    202.03653   -6478.9986   -5959.2719   -6478.9986            0    2168.7671    23.296885     21.41356    22.020913    10985.556    2518.7539    2530.2762    1457.2712    43.226058   -390.58882    121.60437   -5611.8071 
 7819000    188.68452   -6461.9843   -5976.6049   -6461.9843            0    2990.8163    23.430121    21.405198    21.818916    10942.761    3202.9482    2473.7536    3295.7472   -983.46802    96.609625    425.07847   -5499.3037 
 7820000    204.45021    -6473.556   -5947.6203    -6473.556            0    2382.6082     23.29767    21.665273    21.724103    10965.249    1906.5637    1811.2167    3430.0442    878.04016   -74.036944   -636.45563    -5566.601 
 7821000    197.58671   -6444.4317   -5936.1519   -6444.4317            0    1583.7945    23.622727    21.405388     21.77752    11011.882    573.72108    3055.4923    1122.1701    393.83339    563.35777    256.35004   -5681.7992 
 7822000    218.41728   -6450.1087   -5888.2436   -6450.1087            0    1359.4735    23.436105    21.742143    21.595298    11003.909    625.37779    749.61662    2703.4261   -4.9812536   -39.204911    158.82665   -5670.0743 
 7823000    198.41192    -6473.463   -5963.0604    -6473.463            0     3212.801    23.358911    21.504355    21.728414    10914.581     4207.787    2310.0057    3120.6102   -1218.3259    135.38029   -306.95216   -5451.6533 
 7824000    207.92255   -6484.2227   -5949.3546   -6484.2227            0    2808.2678    23.413716    21.371624    21.888433    10952.734    2609.9922    3265.6375    2549.1737    861.19142    28.624481    706.57746   -5500.7776 
 7825000    204.45203   -6464.6966   -5938.7562   -6464.6966            0    1494.1156    23.205019    21.674989     21.94901    11039.662    1635.8317    1024.8673    1821.6477   -808.08525    778.01156   -373.50136   -5698.2004 
 7826000     201.0441      -6461.7   -5944.5263      -6461.7            0    2182.6984    23.321941    21.448557    22.034391    11022.087    3264.6311    1773.9767    1509.4873   -537.31685   -155.37603    325.55893   -5593.6666 
 7827000    195.72062    -6462.419   -5958.9397    -6462.419            0    1697.7355    23.270289    21.475425    22.007887    10998.206    2129.1655    2363.0597    600.98134    808.80162    -548.8827   -669.68254    -5686.627 
 7828000    196.99634   -6414.8495   -5908.0884   -6414.8495            0    1639.6936    23.307184    21.526764    22.031731    11053.941    1404.6315    3526.6872   -12.237974   -214.66573    279.18541   -1393.8382   -5643.7527 
 7829000    201.17881    -6475.999   -5958.4787    -6475.999            0    1694.2815    23.242572    21.542386    21.953493    10992.124    1770.0918    1273.7862    2038.9664    385.07114    424.44615    589.87591   -5686.8704 
 7830000    212.27462   -6453.5935     -5907.53   -6453.5935            0    2064.9714     23.46181    21.437797    21.869181    10999.532    1948.5283    2184.1639     2062.222    66.977629    -36.38618    799.21157   -5576.2737 
 7831000    203.00727   -6484.2718    -5962.048   -6484.2718            0    1066.6676    23.356236    21.754829    21.673013    11012.295     1299.951   -683.83887    2583.8906   -494.85599    1.5935433   -329.86039    -5790.738 
 7832000    194.60171   -6449.1708   -5948.5697   -6449.1708            0    2108.2209      23.5504    21.565574     21.68381    11012.728    -8.026172    2681.3289      3651.36     41.84294   -528.34764   -692.12749   -5609.9697 
 7833000    204.23041   -6468.5425   -5943.1722   -6468.5425            0    2768.3072    23.428583    21.540131    21.758943    10980.754    1799.2665    2430.4018    4075.2532    223.73946    882.28567    844.83797   -5499.8471 
 7834000    207.60195   -6428.1533   -5894.1099   -6428.1533            0    2445.5077    23.358885    21.611917    21.760412    10985.315    2438.1957    1411.9021    3486.4253    211.74823    447.23074   -390.65002   -5502.3163 
 7835000    196.48382   -6453.5074   -5948.0647   -6453.5074            0    2299.0329    23.511681    21.339303    21.885032    10980.222    2429.3526    2471.9984    1995.7477   -361.52009   -904.65094   -1125.7171   -5579.9085 
 7836000    197.59562   -6462.3774   -5954.0747   -6462.3774            0     2337.567    23.150711    21.667027    21.836988    10953.588    3780.3531    1273.6343    1958.7136   -1143.7829    697.03828    330.18087   -5580.6558 
 7837000    199.77885   -6483.9698   -5970.0509   -6483.9698            0    2068.5544    23.481757    21.404346    21.811491     10962.71    1368.1297    2523.6266     2313.907   -269.71158    64.961449    878.66953   -5639.3307 
 7838000    207.44734   -6467.8642   -5934.2186   -6467.8642            0     2486.341    23.365115    21.568078    21.745973    10958.679    2396.5357    2369.9239    2692.5635   -458.35063    20.070177   -733.87453   -5536.8488 
 7839000    191.38016   -6474.1032   -5981.7894   -6474.1032            0    3182.4738    23.235724    21.561089    21.802233    10922.647    2942.5547    3517.0968    3087.7699    134.60417    47.851923   -615.49563   -5474.8353 
 7840000    201.29878   -6473.5631   -5955.7343   -6473.5631            0    2178.3568    23.450721    21.382988    21.895609    10979.476    2588.7576    2669.2491    1277.0636   -529.40564    102.53697   -466.38447   -5606.9262 
 7841000    197.42643   -6475.5315   -5967.6641   -6475.5315            0       1606.3    23.182717    21.711497    21.862796    11004.234    2356.1148    1037.1604    1425.6249    478.32042   -16.244716   -258.37859   -5709.8763 
 7842000    202.45335   -6459.1932   -5938.3942   -6459.1932            0     1638.211    23.527467    21.364718    21.947197    11031.927    753.62359     2479.122    1681.8874    650.12142   -827.58748    559.68051   -5674.8236 
 7843000    204.19097   -6464.3194   -5939.0506   -6464.3194            0    2104.1403    23.260506    21.615628    21.800281    10960.973    1797.0968    2120.8694    2394.4548    1062.7877    1393.5584    1218.0779   -5602.6942 
 7844000    196.98849   -6440.0394   -5933.2985   -6440.0394            0    2811.4974    23.428269    21.464236    21.799389    10962.257    2226.5856    2623.0472    3584.8594   -340.52613    117.43017     35.19594   -5483.8152 
 7845000    197.03636   -6484.5858   -5977.7217   -6484.5858            0    2632.3667    23.383288    21.506566    21.732199    10928.997    2575.4552    2872.6283    2449.0167     6.798408    574.62019   -823.17027   -5558.1535 
 7846000    210.88339   -6458.9856   -5916.5009   -6458.9856            0    1961.1345    23.408225    21.594131    21.811692     11025.38    2151.3265    1333.7116    2398.3654    602.63126   -548.38571    44.569909   -5601.1625 
 7847000    191.32211   -6434.5283   -5942.3638   -6434.5283            0    1051.5903    23.492807    21.512847    21.878621    11057.393    914.94529    939.27475    1300.5509    1094.4219    -108.0782   -9.8812344   -5772.7836 
 7848000    198.57707   -6482.5896   -5971.7621   -6482.5896            0    1548.7706    23.364041    21.643586    21.798044     11022.87    1801.4131    547.45893    2297.4397   -420.23518   -393.66104    -920.1586    -5722.786 
 7849000    193.12872   -6429.8765   -5933.0646   -6429.8765            0    1425.1616    23.410448    21.446761    21.992328     11041.87    1265.6996    2306.7449    703.04033   -518.35376    552.68711    599.09113   -5703.5646 
 7850000    198.45103   -6469.0231   -5958.5199   -6469.0231            0    1514.0608    23.366653    21.513437    21.894528    11006.314    1361.2469    1065.0881    2115.8473   -523.69684    911.37336    281.74735   -5715.4892 
 7851000    196.74745   -6466.6077   -5960.4869   -6466.6077            0     2917.308    23.381552     21.51249    21.769426    10949.921     2291.071    3915.8865    2544.9665   -102.61473    503.76712   -856.46222   -5494.6122 
 7852000    209.73006   -6479.1527   -5939.6349   -6479.1527            0    3167.3306     23.39764    21.419572    21.727547    10889.139    3525.8159    2936.5892    3039.5867    -1401.166    456.64256    692.42429   -5436.6408 
 7853000     203.8507   -6443.4335     -5919.04   -6443.4335            0    4133.0217    23.507567    21.445849    21.635521    10907.326    3823.5537    4213.0025     4362.509    115.36544    -492.1591   -269.74067   -5261.5913 
 7854000     204.6066   -6465.9077   -5939.5697   -6465.9077            0    1812.2712    23.398321    21.651515    21.740763    11014.069     1422.075     1371.953    2642.7855    624.22822    318.59612    262.00916   -5648.4665 
 7855000    204.65895   -6454.6155   -5928.1428   -6454.6155            0    1675.9326    23.531783     21.47438    21.807901    11020.196    1432.1811    1522.7526    2072.8641    26.666202    1222.7569    380.06194   -5658.7898 
 7856000    203.82163   -6475.3898   -5951.0711   -6475.3898            0    1790.6077    23.259853    21.586092     21.90053    10996.022    1787.7495    2195.9373    1388.1363   -1067.4953    904.77424   -545.66972   -5663.9191 
 7857000    195.94308   -6453.4365   -5949.3848   -6453.4365            0     2292.388     23.44102    21.351311    21.989608    11005.722    3654.7692    1807.4841    1414.9106   -1733.3909    549.59137    -892.6012   -5581.4402 
 7858000    206.51311   -6478.8682   -5947.6258   -6478.8682            0    2164.0902     23.25153    21.570458    21.876294    10971.971    2212.6906     3386.571    893.00907    150.63755    348.58106   -345.36733    -5601.339 
 7859000    194.19908    -6450.586   -5951.0207    -6450.586            0    2045.9856    23.426788    21.496125     21.88934    11023.147    1922.6661    2666.6898    1548.6008    899.50053   -1260.6556    425.39738   -5622.1055 
 7860000    200.36018   -6470.2204    -5954.806   -6470.2204            0    1399.6161     23.41953    21.549765    21.850104    11027.428    1912.4934    1199.8115    1086.5433    59.102873   -568.29694    -498.5979   -5729.7146 
 7861000     193.7277      -6429.6   -5931.2473      -6429.6            0    2579.9967     23.48563     21.49449    21.818459    11014.212    3133.4354    1388.4469    3218.1079   -647.60534    1223.1478    740.36536   -5516.8199 
 7862000    200.56829   -6455.6932   -5939.7435   -6455.6932            0    2469.6436    23.409895    21.580697    21.746178     10986.21    2531.9173    1163.8105     3713.203    -43.16448     1167.335    612.56928   -5544.0508 
 7863000    196.19812   -6443.1981   -5938.4903   -6443.1981            0    1472.3788    23.582246    21.477244    21.783798    11033.094    1281.4873    1039.0877    2096.5615   -682.24002   -1038.2187    516.81517   -5701.5752 
 7864000     199.1937   -6436.6741   -5924.2605   -6436.6741            0    2336.9472    23.314799    21.677052    21.759154    10996.992    1951.6896    1797.3973    3261.7546    1186.6906   -496.94017    564.61639   -5549.4613 
 7865000    201.40726   -6449.1744   -5931.0665   -6449.1744            0    2012.4135    23.468182    21.453373     21.84304    10997.352    2028.6624    1593.1611    2415.4169   -412.32474    964.49344    1197.5255   -5608.3054 
 7866000    195.19311   -6480.9283    -5978.806   -6480.9283            0    2266.7129     23.35558    21.560581    21.809269    10982.273    3272.8411    2157.2599    1370.0377    -135.1624     433.2522   -703.96298   -5615.7575 
 7867000    193.22455     -6493.13   -5996.0716     -6493.13            0    2765.5989    23.349174    21.419542     21.90368    10954.657    2786.5098    3179.7812    2330.5057   -297.22228    1085.1257   -187.94272   -5554.2327 
 7868000    197.99414   -6474.9299   -5965.6021   -6474.9299            0    4173.9365     23.35442    21.360523    21.821399     10885.88    4410.8619     4077.484    4033.4637   -134.58923    22.284698    640.61527   -5302.9504 
 7869000    201.33237   -6468.2094   -5950.2941   -6468.2094            0    3238.6301    23.337061    21.561286    21.757762    10948.006    3973.2265    1612.1943    4130.4696     83.79492    305.45424    778.02119   -5433.1968 
 7870000    202.48974   -6469.6087   -5948.7162   -6469.6087            0    1910.8544    23.488351    21.456488    21.827299    11000.468     2315.717    1180.0576    2236.7887    1023.4411   -171.85335   -519.86115   -5642.1567 
 7871000    199.76023   -6460.9398   -5947.0687   -6460.9398            0    2292.6066    23.324052     21.56195    21.828014    10977.571    2370.1881    2170.9086    2336.7231      1018.22   -446.01103    119.01243   -5580.0302 
 7872000    205.32743   -6435.5336   -5907.3413   -6435.5336            0    1570.1304     23.40519    21.489236      21.8925    11011.044    1636.2202    1478.5628    1595.6083   -947.65575   -302.10937     664.4866   -5655.2022 
 7873000    202.66393   -6474.3113   -5952.9707   -6474.3113            0    1813.6824    23.390341     21.53804    21.792412    10978.627      1563.04    1716.5709    2161.4363   -432.48282     330.4944     -177.123   -5662.5783 
 7874000    202.78731   -6453.7385   -5932.0805   -6453.7385            0    2302.9944    23.302987     21.58804    21.827771    10980.806    3052.0207    1443.1699    2413.7924   -184.58028    811.56663   -1030.7341   -5563.2703 
 7875000    206.68402   -6448.8773   -5917.1953   -6448.8773            0     2113.452    23.470696    21.337634    21.875567    10955.484    509.38292    2856.2442    2974.7288    408.65811    1148.9423    1047.8913   -5579.5195 
 7876000    209.75151   -6485.7041   -5946.1311   -6485.7041            0    1646.3528    23.355843    21.664542    21.735905     10998.23    2013.2225    1526.3122    1399.5236   -223.80172   -1738.3222   -1302.5276   -5682.0596 
 7877000    201.88244   -6466.6784   -5947.3481   -6466.6784            0    2186.6466    23.512444    21.399307    21.790024    10963.651    1057.3316    2972.9859    2529.6224   -387.27181    691.46908   -262.11962   -5597.7173 
 7878000    208.37799   -6480.9392   -5944.8995   -6480.9392            0    2138.0275    23.349786    21.402733    21.944464    10966.729    2627.6135     2691.856     1094.613    1114.3894   -323.13787   -204.90046   -5602.9466 
 7879000    204.99008   -6432.8135    -5905.489   -6432.8135            0    2153.6895    23.351333    21.524264    21.880081    10997.372    2820.5182     2417.842    1222.7084    -848.1201   -309.51702   -753.47822   -5560.0686 
 7880000    189.03226   -6468.0785   -5981.8045   -6468.0785            0     1861.762    23.289693    21.539188    21.881753    10976.786      2196.28    2646.0424    742.96365   -136.48338   -561.55407   -617.36199    -5683.764 
 7881000    197.57375   -6479.2199   -5970.9735   -6479.2199            0     4226.392    23.297386    21.319847    21.858733    10857.161    3377.7445    4601.9478    4699.4837    730.02891    740.98223    803.70603   -5301.7642 
 7882000    209.39473   -6453.6549   -5914.9997   -6453.6549            0    1473.0909    23.455102    21.587209    21.796402    11036.176     2499.609     489.4927    1430.1711    265.57361   -167.03264   -403.07347   -5677.9038 
 7883000    199.74011   -6440.1582    -5926.339   -6440.1582            0    1217.5843    23.513823    21.623773    21.714088    11040.692    1598.9996    127.35352    1926.3998    272.34639   -647.91268   -236.80532    -5730.287 
 7884000     198.3435   -6477.3557   -5967.1292   -6477.3557            0    645.86045    23.568612    21.540885    21.705476    11019.626    176.57681    93.078391    1667.9262   -330.40853   -271.23378    1602.7468    -5863.333 
 7885000    201.94523   -6494.9309   -5975.4391   -6494.9309            0    2649.5439    23.263204    21.556805     21.80223     10933.39     3162.897    2644.1502    2141.5845   -200.90933    40.393507   -84.032588   -5552.9633 
 7886000    204.41301   -6444.9122   -5919.0722   -6444.9122            0    2128.5702    23.436314    21.380584    21.975897    11011.728    1616.0151    3000.9167    1768.7788    18.327495    113.00657    426.12935    -5577.235 
 7887000    200.57552   -6466.6297   -5950.6614   -6466.6297            0    2221.8676    23.225509    21.600734    21.918486    10996.242    1437.8818    2325.7252     2901.996    669.36851    1283.8562    249.55564   -5594.3429 
 7888000    199.61802   -6476.6756   -5963.1704   -6476.6756            0    2816.9411    23.237619    21.340348    22.130133    10974.308    3217.4658     3790.013    1443.3446   -684.73236    314.51832    638.03967   -5512.3217 
 7889000    192.94194   -6456.4305   -5960.0991   -6456.4305            0    2867.0382     23.42157    21.513296    21.725942    10947.163    2721.8493     3704.534    2174.7312   -371.23312   -462.05595   -684.87225   -5502.3675 
 7890000    209.57652   -6484.7342   -5945.6114   -6484.7342            0    1277.8375    23.381821    21.630593    21.765276    11008.064    1165.2796    749.15443    1919.0786    1060.4132   -353.71681    99.795764   -5740.4657 
 7891000    200.23552    -6471.589   -5956.4953    -6471.589            0    1438.2271    23.581466    21.374916    21.862205    11019.685    199.03809     2632.751    1482.8922    204.29826    469.96372    621.98203   -5725.3567 
 7892000    202.60449   -6463.4971   -5942.3094   -6463.4971            0    1305.0378    23.272315    21.639821    21.881939    11019.936    2617.4219    1601.0338   -303.34233    427.56517   -220.45158   -1330.7817   -5732.5709 
 7893000    200.09183   -6457.2921    -5942.568   -6457.2921            0    1535.2369     23.43487    21.460698    21.946563    11037.556     711.3676    1821.3245    2073.0187   -622.56016     663.7759   -531.88026   -5695.4388 
 7894000    205.51399   -6476.8951   -5948.2229   -6476.8951            0    1947.8723    23.404626    21.433602    21.880905    10976.456    1250.1474    3305.1831    1288.2864    218.28004   -225.32781    -430.5196   -5636.4068 
 7895000    206.00986   -6438.0817   -5908.1339   -6438.0817            0    3198.2846    23.258703    21.596437    21.776127     10938.26    3748.5023    3397.5195    2448.8319    -1477.307    971.61161   -225.04147    -5397.933 
 7896000     202.8842   -6480.1062    -5958.199   -6480.1062            0    1878.6179     23.51784    21.413816    21.802257    10979.763    2119.4112    1849.7157    1666.7268    14.742378    -935.3134   -385.99388   -5657.3785 
 7897000    196.48382   -6472.0182   -5966.5756   -6472.0182            0    2605.7895    23.336231    21.565586    21.798316     10970.21    3040.5798    1896.6918    2880.0968   -643.02755   -1087.6714    81.319002   -5549.6772 
 7898000    195.83332   -6466.0052   -5962.2359   -6466.0052            0    3500.8977    23.581655    21.284914    21.788354    10936.304    2148.3918    4084.4585    4269.8428   -92.309992      2097.15   -823.01033    -5403.861 
 7899000    216.44795   -6471.5938   -5914.7947   -6471.5938            0    2139.4599    23.236067    21.667851    21.848419    11000.147    2471.9061    1765.3129    2181.1607   -739.82426    1388.5233   -29.625281     -5571.57 
 7900000    201.93752   -6474.9408   -5955.4689   -6474.9408            0    2695.3845    23.404587     21.48559    21.771972    10948.284    2073.4862    2750.7973    3261.8701    1094.6504   -346.82898     630.4978   -5525.0982 
 7901000    208.37968   -6457.2356   -5921.1916   -6457.2356            0     2706.924    23.415497    21.415166    21.777222    10920.117    2891.4921    2050.1992    3179.0806    340.17525    76.448907    875.03453   -5490.0903 
 7902000    198.90254   -6476.2708   -5964.6061   -6476.2708            0    2494.7748    23.328141    21.667494    21.697143    10967.089    1985.0508    2168.2009    3331.0726    1862.7767   -1141.0927    113.33273   -5565.5825 
 7903000    207.91237   -6451.0711   -5916.2292   -6451.0711            0    2142.9163    23.496545    21.425493    21.873996    11011.918    2185.1678    1817.7929    2425.7882    99.035713    484.46304    51.605771   -5572.0822 
 7904000     194.4556    -6440.244   -5940.0188    -6440.244            0    1559.1637    23.371724    21.537515    21.875775    11011.584    2676.6422    1152.8465    848.00237   -58.632372    241.56085    531.93323   -5689.6286 
 7905000    192.81354   -6463.1109   -5967.1098   -6463.1109            0    1987.7441    23.352706    21.505129     21.87191    10984.138    1600.1702    2358.7456    2004.3164   -1319.5957    1268.3645   -510.39848   -5648.6883 
 7906000    190.30752   -6475.6291   -5986.0746   -6475.6291            0     3158.145    23.409649    21.342876    21.814102    10898.963    3949.0134    2193.5183    3331.9034    94.333921    534.81433    690.41552   -5484.0869 
 7907000    196.53044   -6463.9508   -5958.3882   -6463.9508            0    2656.9443    23.381751    21.543519    21.810463     10986.48    3716.1141    2292.5197    1962.1991    25.011966    -748.4612    862.70981   -5532.6752 
 7908000     207.6835   -6494.5298   -5960.2767   -6494.5298            0     1527.955    23.421118    21.594103     21.76575    11008.203    1580.8743    1442.0973    1560.8934   -651.16812   -711.62545    -956.3328   -5714.9737 
 7909000    206.51788   -6470.5341   -5939.2794   -6470.5341            0    1505.3109    23.527684    21.430744    21.864947    11024.651    11.047145    2438.9257    2065.9598    1157.9824   -290.64581    109.43557   -5697.2507 
 7910000    198.90078   -6464.7374   -5953.0772   -6464.7374            0    1996.9709    23.286523    21.657764    21.772917    10980.822      2061.87    755.73548    3173.3072    508.22409    552.19298   -450.24673   -5633.2743 
 7911000    201.72033   -6488.8116   -5969.8983   -6488.8116            0     2348.574    23.452977    21.376956    21.810419    10934.724    1712.9884    2857.6351    2475.0984   -985.29492    1248.4351   -870.06989   -5595.3671 
 7912000    204.46492   -6463.8553   -5937.8817   -6463.8553            0    1488.2822    23.373842    21.476107    21.904482    10995.593    736.58236    1980.4953     1747.769    366.14555    490.07017      1522.69   -5699.2216 
 7913000    197.10336   -6453.9155   -5946.8791   -6453.9155            0    2093.9752    23.383262    21.541293    21.772893     10967.13    2142.0056    1784.2262    2355.6937    256.97999   -732.66396   -54.752297   -5611.9596 
 7914000    195.11339    -6464.895   -5962.9777    -6464.895            0    1540.3217    23.478063     21.47509    21.830603    11006.848    704.07072    2312.7989    1604.0954    430.82305   -740.37812    227.76832   -5715.7198 
 7915000    208.91762   -6479.0516   -5941.6238   -6479.0516            0    2541.8624    23.416291    21.605411    21.645442    10950.831     1234.301     2649.796    3741.4903   -44.165256    136.00095    3.9007762   -5535.6715 
 7916000    201.45496   -6434.6734   -5916.4428   -6434.6734            0    2351.3087    23.536074    21.555568    21.658869    10988.268    1394.3453     2356.185    3303.3958   -341.64979    117.15763   -135.40426   -5539.6394 
 7917000    197.66709   -6456.6463   -5948.1598   -6456.6463            0    1683.4336    23.502981    21.462451    21.809183    11001.241    571.66365    2959.0466    1519.5906   -172.74599    370.12996   -234.27905   -5678.0667 
 7918000    206.17526   -6448.4051   -5918.0318   -6448.4051            0    1800.7351    23.319046    21.604387    21.834806    11000.237    2135.4419    1338.3081    1928.4551    320.95112   -192.43439   -542.75822    -5629.145 
 7919000    209.88633   -6432.8551   -5892.9353   -6432.8551            0    2384.9657    23.446955    21.392337    21.976889    11023.282    3001.8719    3171.3349     981.6903   -36.838322   -463.10143   -246.87081   -5509.5204 
 7920000    208.48204    -6476.825   -5940.5176    -6476.825            0    2060.0134    23.208042    21.553582    21.970725    10990.118    3131.6756    1487.1326    1561.2319   -140.11559    123.70958    478.59583   -5610.3395 
 7921000    207.72619   -6479.0575   -5944.6945   -6479.0575            0    2574.5328    23.377166    21.445331    21.855984    10957.084    2645.8678     2665.542    2412.1885   -52.601012   -1120.8131    177.87717   -5533.2898 
 7922000    206.69981   -6473.0551   -5941.3324   -6473.0551            0    2462.3105    23.338033    21.466523     21.90126    10972.234    2282.8726    2941.7771    2162.2818    276.50655   -362.75328    725.36125   -5547.3165 
 7923000    197.99191   -6467.1732   -5957.8511   -6467.1732            0    1905.4885     23.32503    21.634455    21.797437    10999.517    1998.2071    1237.1846    2481.0738   -507.66352    -702.7239    203.42329    -5652.179 
 7924000    195.50743   -6462.0238   -5959.0928   -6462.0238            0    3036.7029    23.484829    21.343133     21.84779    10950.982    2041.9267    4716.8774    2351.3046   -194.34967   -458.18857   -1305.0267   -5474.1045 
 7925000     197.9916   -6447.4698   -5938.1485   -6447.4698            0    2284.8451    23.325178    21.570763     21.77372     10955.27    3221.3067     1911.917    1721.3117    936.87878   -306.50032    742.66523   -5573.0957 
 7926000    191.47286   -6454.7527   -5962.2004   -6454.7527            0    2251.9027    23.497628    21.458402    21.778922    10981.402    1475.7138    3006.5813     2273.413      80.2541   -192.71892    -14.72283   -5601.5526 
 7927000    207.17976   -6446.1796   -5913.2223   -6446.1796            0    1310.2123    23.478922    21.545179    21.851321    11053.656    676.70401    1089.8709     2164.062    299.13431    48.953064    1363.9666   -5702.0079 
 7928000    196.06228   -6433.0876   -5928.7293   -6433.0876            0    1262.0182    23.332697    21.561615    21.975726    11055.782    1777.4755    1841.6443     166.9347    59.242902   -651.73753   -52.910024    -5725.245 
 7929000    201.99817   -6456.8888   -5937.2608   -6456.8888            0     931.3739    23.446422    21.474443    21.943324    11048.438     354.2835    1930.5768    509.26143    508.01361   -965.65821   -1487.7029   -5787.1884 
 7930000    199.17417   -6443.4637   -5931.1003   -6443.4637            0    1132.5744    23.278528    21.689383    21.886548    11050.451     952.7815     800.4008    1644.5409    -817.5895    104.38577    106.94966   -5748.5752 
 7931000    200.75302   -6460.6848   -5944.2599   -6460.6848            0    3046.7937    23.423697    21.345128    21.878837    10939.021    2436.8765    2904.0491    3799.4554    1194.4876   -481.79905    1263.9051   -5458.1915 
 7932000    206.94526   -6458.1058   -5925.7518   -6458.1058            0    3054.2996    23.313735    21.566009    21.745137    10933.112    2697.2468    3459.4336    3006.2184   -306.61263   -321.16406   -162.51043   -5438.7491 
 7933000    203.63144   -6489.8266   -5965.9971   -6489.8266            0    1825.8349    23.479762     21.50729    21.755134    10986.039    682.57133    1997.7352    2797.1982    392.12931    870.10293    609.93964   -5673.4616 
 7934000    201.03767    -6476.024   -5958.8668    -6476.024            0    2807.7208    23.491889    21.472615    21.716406    10954.456    1748.1721    3040.3332    3634.6571    420.56459    179.84688    374.03698   -5510.3068 
 7935000    212.50241   -6468.7975    -5922.148   -6468.7975            0     2633.933    23.212192    21.697694    21.749513    10954.164    3414.5409    1536.2661    2950.9918   -986.08358    -672.6011    617.68464   -5501.3633 
 7936000    209.28586    -6456.611   -5918.2359    -6456.611            0    2095.0185    23.527629    21.325232      21.9965    11036.351    2203.5122    2512.5566    1568.9866   -71.027825    316.68498    122.59372   -5581.0345 
 7937000    193.49226   -6465.6301    -5967.883   -6465.6301            0    2041.2021    23.230716    21.595497     21.93441     11004.03    1026.7761    2437.0189    2659.8113    1299.8971    1039.4067   -1118.0995   -5640.3058 
 7938000    204.58999   -6441.5669   -5915.2716   -6441.5669            0    2844.9391    23.645783    21.228338     21.83598    10960.803    1280.9927    4040.9268    3212.8978    531.24192   -1012.3293    38.289319   -5460.5022 
 7939000    200.72938   -6497.9543   -5981.5902   -6497.9543            0    2776.0563    23.270374    21.591248    21.754129    10930.066    2980.3096    3066.0107    2281.8486   -539.60856   -558.15459    980.64155   -5539.0763 
 7940000    214.89573   -6445.7332    -5892.927   -6445.7332            0    3278.9019    23.430947    21.523607    21.717665     10952.62    2441.7641    3139.7448    4255.1967   -1.4307312    -376.7788    293.95926   -5369.1791 
 7941000    205.45509   -6450.2624   -5921.7417   -6450.2624            0    2409.2589    23.580193    21.426792    21.713918    10970.911    1412.5393    3194.2877    2620.9497    299.62648    345.19867   -125.65322   -5536.2615 
 7942000    202.04544    -6450.677   -5930.9274    -6450.677            0    1907.2595    23.249526    21.752834    21.762719    11006.344    3341.2488    498.54161    1881.9882   -863.30524   -940.94053    258.93665   -5624.7813 
 7943000    201.24852   -6470.9295     -5953.23   -6470.9295            0    774.01038    23.613101    21.325723    21.957991    11057.307   -317.07124     2045.186    593.91635   -289.82212   -830.58157    361.38887   -5828.4134 
 7944000    202.52183   -6462.0899   -5941.1149   -6462.0899            0    1047.6666    23.288968    21.652848    21.899747     11043.44    1807.2009    605.50192    730.29707    896.50807    454.20691   -215.72952   -5772.3806 
 7945000    199.15567   -6434.1027   -5921.7869   -6434.1027            0    490.56477    23.473794     21.53673    21.920781    11082.024    307.08317    377.21756     787.3936    196.44713   -199.33979   -661.14619   -5842.5019 
 7946000    208.16189   -6484.2577   -5948.7739   -6484.2577            0    2613.3865    23.487704    21.451548      21.7647    10966.092    3431.0673    1525.0106    2884.0818   -991.98948    179.67138   -150.39983   -5530.8171 
 7947000    210.48933   -6477.5354   -5936.0644   -6477.5354            0    2431.2613    23.297093    21.656613    21.713378    10955.184    3011.4496    1978.0337    2304.3005     -757.483   -428.32994   -159.11096   -5547.6215 
 7948000    210.11741   -6463.7398   -5923.2255   -6463.7398            0    3592.6567    23.553806    21.242044     21.79977    10907.101    3073.8422    4492.2839    3211.8441     582.8925    1257.7892    131.75628   -5351.7457 
 7949000    206.80842   -6459.3051    -5927.303   -6459.3051            0    2485.6332    23.282364     21.53893    21.828614    10946.553    4510.3591    1967.4753    979.06507   -104.88735    355.37123     -581.971    -5530.486 
 7950000    202.47803   -6483.8115   -5962.9491   -6483.8115            0    1818.6641    23.337572     21.53117    21.832032    10970.274    972.40634    2948.9351    1534.6509   -446.91093    229.09787    293.73514   -5671.9807 
 7951000    208.45417   -6470.9093   -5934.6736   -6470.9093            0    2024.7159    23.505038    21.466008    21.766437    10982.459    986.92954    2839.3414    2247.8769   -318.12363   -24.329169    222.52318   -5610.3791 
 7952000    198.59836   -6455.7315   -5944.8493   -6455.7315            0    2758.6899    23.304503    21.621986    21.726539    10947.778    1885.3169    2860.3956     3530.357    99.967337    404.13219    -420.6377   -5504.3911 
 7953000    195.04449    -6490.965   -5989.2249    -6490.965            0    1397.7165    23.604302     21.33788    21.864455    11012.377    1055.5385    1826.6886    1310.9225   -658.86605   -782.48846   -465.60932   -5764.7458 
 7954000    197.12142   -6464.5739   -5957.4911   -6464.5739            0    962.70376      23.3103    21.682885    21.814593    11025.849     820.4379    1076.1073    991.56607   -326.93857   -605.17448   -305.51973   -5802.6876 
 7955000    201.64603   -6479.7957   -5961.0736   -6479.7957            0    1698.6568    23.455771    21.446795    21.895826     11014.72    1740.8297    983.51976    2371.6209    -319.0466   -88.557286     683.2142   -5688.2041 
 7956000    195.53172   -6477.2037   -5974.2102   -6477.2037            0    1232.2106    23.548391    21.383676    21.908181    11031.891    1043.5802    804.17696    1848.8745    174.88806    314.46729    390.32433   -5775.9613 
 7957000     194.2095   -6466.9889   -5967.3968   -6466.9889            0    2221.8511    23.342235    21.523714    21.838943    10972.137    2343.9608    2615.2782    1706.3144    558.45377   -408.02995   -504.53964    -5611.862 
 7958000    198.64738   -6452.1105   -5941.1022   -6452.1105            0    3358.2753    23.450265    21.460949     21.72254    10932.192    2686.6881    3320.5917     4067.546    882.56791   -289.72718    16.891832   -5405.6762 
 7959000    211.32717   -6474.6808   -5931.0545   -6474.6808            0      2657.72    23.337962     21.56137     21.72916    10934.079    2467.3414     2649.045    2856.7737    342.35277   -689.82398   -7.1174645   -5507.2483 
 7960000    203.20546   -6473.6475   -5950.9139   -6473.6475            0    1967.9716    23.553356    21.422286    21.786588    10992.787    1158.1148    3297.9067    1447.8933    95.149446    158.67189   -271.99166   -5635.4115 
 7961000    195.55734   -6434.2574   -5931.1981   -6434.2574            0    2366.3777    23.422401    21.563583    21.795664    11008.356    2315.9128    1699.8842    3083.3359   -175.57969    487.03072    163.88753   -5551.2866 
 7962000    194.51101   -6454.1648   -5953.7971   -6454.1648            0    1826.3254    23.279979     21.52085    21.947149     10995.63     1827.925    2677.5348    973.51629    1461.9963    702.29313    828.07708   -5660.9276 
 7963000    199.91143   -6463.1637   -5948.9037   -6463.1637            0    2057.4944    23.480367    21.443304     21.87951     11016.26    2096.6238    2104.1376    1971.7217   -924.15359   -783.20673   -583.09232    -5618.345 
 7964000    205.97716   -6472.4915   -5942.6278   -6472.4915            0    2361.2723    23.343097    21.595191    21.747603    10962.937     1492.207    2259.5498    3332.0601    849.55255    467.47949    383.94225      -5565.1 
 7965000    197.44009   -6480.5823   -5972.6797   -6480.5823            0    3179.8561    23.528596    21.329133    21.722471    10901.304    2194.2981    3006.9527    4338.3176    635.78532    186.76491    932.29831   -5467.1324 
 7966000    208.08973   -6484.8208   -5949.5227   -6484.8208            0     2724.058    23.346682    21.648371    21.648224    10941.394    2960.9901    2191.8625    3019.3214    269.14196   -361.12426   -1683.4308   -5514.8475 
 7967000    202.87123   -6471.2241   -5949.3502   -6471.2241            0    2043.0874     23.41449    21.467301    21.858549     10987.11    2296.3221    1551.7725    2281.1675    62.679154    209.81288    70.478866   -5621.9746 
 7968000    208.95901    -6462.907   -5925.3727    -6462.907            0    1820.0416    23.336838    21.466503    21.923244    10982.675    2499.8848    2477.7765     482.4636    1500.2852   -676.38824   -199.51741   -5633.8547 
 7969000    196.99239    -6457.926   -5951.1751    -6457.926            0    2325.3801    23.266948    21.648168    21.816825    10988.847    2424.4138    2083.2068    2468.5197   -921.98217   -221.07862   -23.586426   -5578.5072 
 7970000    194.16478   -6475.2651   -5975.7881   -6475.2651            0    2573.5107    23.535714     21.35847    21.823243    10970.258    1339.8072    3679.7438     2700.981   -202.78064    229.99485   -603.04741   -5564.0522 
 7971000    199.31283   -6465.5578   -5952.8376   -6465.5578            0    3517.1217    23.239229    21.565229    21.820917    10935.755    3525.7349    2659.4523    4366.1779     976.7786    630.06665    65.535966   -5391.9033 
 7972000    205.60821   -6486.1532   -5957.2386   -6486.1532            0    4273.1305    23.373092    21.405491    21.737875    10875.731    3981.0552    5620.3116    3218.0246   -126.70751   -87.991362   -340.86217   -5279.4715 
 7973000    204.22144   -6489.3362    -5963.989   -6489.3362            0    2652.0155    23.551917    21.423793    21.693186    10945.761    1990.5993    2692.7644    3272.6828   -342.48598   -1506.0275    -141.6017   -5540.6406 
 7974000    206.79144   -6451.7742   -5919.8158   -6451.7742            0    3152.3049    23.241392    21.561405    21.825566    10937.164    4009.9591    2517.0774    2929.8781   -540.49551   -148.51823   -106.41499   -5417.0001 
 7975000    201.67269   -6479.7163   -5960.9256   -6479.7163            0    291.09628    23.593734    21.417806    21.863771    11048.332   -433.62105    531.67694    775.23295    701.68661    454.45798    49.123444   -5914.0217 
 7976000    204.01018   -6468.3212   -5943.5174   -6468.3212            0    1846.7742    23.419497    21.747181    21.580251    10990.996    652.42033     1316.845    3571.0572    107.54665    32.696865   -279.84902   -5647.4936 
 7977000    205.02004   -6426.2782   -5898.8767   -6426.2782            0    1186.1053    23.460408    21.502497    21.895911    11045.554    79.156647    1707.5431    1771.6162    154.14755      451.443    572.78627   -5707.8092 
 7978000    208.57901   -6442.2786   -5905.7218   -6442.2786            0    1739.8831    23.491603    21.508353    21.771943    11000.616    1630.3976    2188.1694    1401.0824   -956.03583   -542.88099   -933.80686   -5626.5877 
 7979000    208.30521   -6461.7737   -5925.9212   -6461.7737            0    2422.9504    23.227638    21.655248     21.84718    10989.137    3802.5538    1427.0996    2039.1978   -419.55895   -313.47684   -400.60733   -5537.6064 
 7980000    214.33273   -6469.1793   -5917.8214   -6469.1793            0    3150.5542    23.451658    21.323579      21.8779    10940.553    2926.1749    3547.0248    2978.4628    185.11621   -555.46284     861.9294   -5415.1292 
 7981000    206.60631   -6452.8644   -5921.3822   -6452.8644            0    2338.6557    23.319576    21.571337    21.785508    10958.861    3138.9583    1553.5432    2323.4658   -1222.5813   -292.24213    669.31488   -5547.6095 
 7982000    205.70655   -6465.8471   -5936.6796   -6465.8471            0    1471.4447     23.40213    21.459399    21.934612    11015.467    2339.3516     1805.543    269.43944    43.761125   -1702.6399   -709.82119   -5700.2931 
 7983000    196.39095    -6465.715   -5960.5113    -6465.715            0     1970.401    23.412516    21.427876    21.909904    10991.771    2126.9606    3386.5684    397.67411    1082.3761    575.30837    411.79069   -5644.6487 
 7984000    194.76827   -6443.7337   -5942.7042   -6443.7337            0    2214.4112    23.328427    21.625919    21.781632    10988.805    2339.9615    1674.0765    2629.1956     224.1556   -92.254975    85.072775   -5587.8217 
 7985000    198.66702   -6461.2922   -5950.2334   -6461.2922            0    2547.7212    23.643013    21.343659    21.734884     10968.04    1665.8397     3453.177    2524.1468   -744.68111   -905.97654   -973.69052    -5542.706 
 7986000    199.97109   -6464.5416   -5950.1281   -6464.5416            0    2340.0572    23.281151    21.646203    21.775088    10973.524     2616.284    2051.7364    2352.1511   -31.127688   -86.925527   -453.59355    -5575.631 
 7987000    194.08662   -6458.6589   -5959.3829   -6458.6589            0    1825.6772    23.544049     21.44734    21.772274    10994.067    826.49214    2653.6575    1996.8821    974.28781    579.99945   -123.51801   -5666.6589 
 7988000    199.28167   -6431.3616   -5918.7216   -6431.3616            0    3105.6741    23.439009    21.562232    21.703643    10968.963    2593.8662    2497.2454    4225.9107   -59.765857    911.92614    457.21323   -5421.9036 
 7989000    200.22393   -6474.0313   -5958.9674   -6474.0313            0    784.21651    23.367189    21.649088    21.821159    11038.852    769.43863     2119.181   -535.97015   -506.54398   -535.10269    39.163281   -5832.7161 
 7990000    204.19047   -6460.6763   -5935.4088   -6460.6763            0    1917.5075    23.494569    21.384671    21.939589    11022.968    1630.6226    2737.7535    1384.1463    47.964536    673.02488   -616.90777   -5627.1528 
 7991000    198.60999   -6466.2921     -5955.38   -6466.2921            0    3072.4004    23.179457    21.587139    21.856309     10936.42    4244.7757    2481.2898    2491.1358    256.81982    564.35181   -485.41587    -5465.343 
 7992000    200.24546    -6467.146   -5952.0267    -6467.146            0    1556.8739    23.601232     21.36076    21.835001    11007.903    572.41397    2324.7864    1773.4213    -943.6578    707.31093    147.49466   -5702.0878 
 7993000    200.82853   -6448.5513   -5931.9322   -6448.5513            0    1740.0357    23.386761     21.55183     21.80916    10992.417    1570.2428    2021.7012     1628.163   -248.83032    388.82397     945.8508   -5652.9816 
 7994000    199.77957    -6458.722   -5944.8012    -6458.722            0    1816.0598    23.449789    21.524308     21.76837    10987.378     1937.651    1950.8323    1559.6962   -169.38815   -738.06067   -586.08812   -5653.7964 
 7995000     219.0935    -6464.591   -5900.9863    -6464.591            0    1389.2528    23.609385    21.522981    21.730889    11042.429    880.79341    1274.1733    2012.7916    277.71647    46.199065   -830.46513   -5677.2576 
 7996000    200.61656   -6469.0527   -5952.9788   -6469.0527            0     1453.497    23.351081     21.61858    21.766627    10988.168    2305.2861     625.0589     1430.146    -581.9268     502.4003    709.36829   -5720.0542 
 7997000    198.02367   -6450.4526   -5941.0488   -6450.4526            0    2258.1694    23.519061    21.433393    21.791726    10985.063    469.08448    3931.8365    2373.5872    626.64899     510.4886   -475.29354   -5579.2768 
 7998000    205.30012     -6463.15    -5935.028     -6463.15            0    3109.4198    23.202348    21.604099    21.826565    10940.911    4440.8441    2980.8684     1906.547      76.3481   -27.688814   -736.33808   -5438.8828 
 7999000    194.78587   -6456.4332   -5955.3584   -6456.4332            0    1699.1846    23.422717    21.431343     21.90832    10997.544    2523.1343    1226.8179    1347.6015   -638.43939    663.39269    958.19961   -5682.8298 
 8000000    207.07616   -6430.1293   -5897.4385   -6430.1293            0    959.50441    23.336472    21.596331    21.974355    11074.683    2436.7522    189.11932    252.64176   -543.78657    53.569957   -263.62195   -5742.4661 
Loop time of 566.217 on 64 procs for 250000 steps with 1296 atoms

Performance: 76.296 ns/day, 0.315 hours/ns, 441.527 timesteps/s
195.9% CPU use with 32 MPI tasks x 2 OpenMP threads

MPI task timing breakdown:
Section |  min time  |  avg time  |  max time  |%varavg| %total
---------------------------------------------------------------
Pair    | 35.789     | 47.886     | 56.355     |  89.6 |  8.46
Bond    | 0.73346    | 0.99345    | 1.5195     |  13.9 |  0.18
Kspace  | 298.1      | 308.61     | 320.86     |  38.8 | 54.50
Neigh   | 2.6228     | 2.8758     | 3.1066     |   8.0 |  0.51
Comm    | 75.695     | 82.207     | 86.507     |  34.7 | 14.52
Output  | 0.62843    | 0.62893    | 0.63064    |   0.0 |  0.11
Modify  | 106.07     | 109.07     | 111.1      |  10.4 | 19.26
Other   |            | 13.94      |            |       |  2.46

Nlocal:        40.5000 ave          48 max          30 min
Histogram: 3 1 4 3 3 2 0 3 10 3
Nghost:        3011.25 ave        3046 max        2982 min
Histogram: 3 0 6 4 5 6 2 4 1 1
Neighs:        12598.7 ave       14977 max        9355 min
Histogram: 3 1 4 3 3 2 0 3 10 3

Total # of neighbors = 403158
Ave neighs/atom = 311.07870
Ave special neighs/atom = 2.0000000
Neighbor list builds = 6286
Dangerous builds = 0

unfix		3
unfix		2
unfix		1

write_data	data.final.${pid}
write_data	data.final.0
System init for write_data ...
PPPM initialization ...
  extracting TIP4P info from pair style
  using 12-bit tables for long-range coulomb (../kspace.cpp:340)
  G vector (1/distance) = 0.36574051
  grid = 30 40 32
  stencil order = 5
  estimated absolute RMS force accuracy = 0.0048653054
  estimated relative force accuracy = 1.4651723e-05
  using double precision FFTW3
  3d grid and FFT values/proc = 7888 1280
Last active /omp style is kspace_style pppm/tip4p/omp
WARNING: Not all mixed pair coeffs generated from mixing. Use write_data with 'pair ij' option to store all pair coeffs. (../write_data.cpp:312)

write_restart   restart.lmp.${pid}
write_restart   restart.lmp.0
System init for write_restart ...
PPPM initialization ...
  extracting TIP4P info from pair style
  using 12-bit tables for long-range coulomb (../kspace.cpp:340)
  G vector (1/distance) = 0.36574051
  grid = 30 40 32
  stencil order = 5
  estimated absolute RMS force accuracy = 0.0048653054
  estimated relative force accuracy = 1.4651723e-05
  using double precision FFTW3
  3d grid and FFT values/proc = 7888 1280
Last active /omp style is kspace_style pppm/tip4p/omp
Total wall time: 0:09:26
