LAMMPS (30 Jul 2021)
Processor partition = 1
  using 2 OpenMP thread(s) per MPI task
using multi-threaded neighbor list subroutines
variable        pid world 0 1
variable        phase world IceIh IceIII

shell cd ${phase}
shell cd IceIII
include Restart.lmp
echo both
log log.lammps
#include		in.partitions
include		in.temp
variable        temperature equal 67.72
variable	tempDamp equal 100.0
include		in.pressure
variable        pressure equal 2099.2
variable        pressureDamp equal 1000.0 # This is 1 ps
include		in.seed
variable        seed equal 745823

units		real
atom_style	full

read_restart	restart.lmp.${pid}
read_restart	restart.lmp.1
Reading restart file ...
  restart file = 30 Jul 2021, LAMMPS = 30 Jul 2021
  restoring atom style full from restart
  orthogonal box = (0.039227058 0.046619235 0.012014957) to (19.960774 19.953382 20.687983)
  4 by 2 by 4 MPI processor grid
  restoring pair style lj/cut/tip4p/long/omp from restart
  restoring bond style harmonic/omp from restart
  restoring angle style harmonic/omp from restart
  972 atoms
  648 bonds
  324 angles
Finding 1-2 1-3 1-4 neighbors ...
  special bond factors lj:    0        0        0       
  special bond factors coul:  0        0        0       
     2 = max # of 1-2 neighbors
     1 = max # of 1-3 neighbors
     1 = max # of 1-4 neighbors
     2 = max # of special neighbors
  special bonds CPU = 0.002 seconds
  read_restart CPU = 0.008 seconds
include 	in.setup
variable	out_freq equal 1000
variable	out_freq2 equal 10000
variable	out_freq3 equal 1000

timestep	2.0

neigh_modify    delay 7 every 1

include		in.tip4p
# This is TIP4P/Ice

# create groups ###
group ox type 2
324 atoms in group ox
group hy type 1
648 atoms in group hy

# set charges - beside manually ###
set group ox charge -1.1794
Setting atom values ...
  324 settings made for charge
set group hy charge 0.5897
Setting atom values ...
  648 settings made for charge

# ### TIP3P Potential Parameters ###
pair_style lj/cut/tip4p/long/omp 2 1 1 1 0.1577 8.5
pair_coeff 1 1*2 0.000 0.000
pair_coeff 2 2 0.21084 3.1668
bond_style  harmonic
bond_coeff  1 450 0.9572
angle_style harmonic
angle_coeff 1 55 104.52
kspace_style pppm/tip4p/omp 1.0e-5
pair_modify tail yes

thermo          ${out_freq}
thermo          1000
thermo_style    custom step temp pe etotal epair emol press lx ly lz vol pxx pyy pzz pxy pxz pyz enthalpy

restart 	${out_freq3} restart.lmp.${pid} restart2.lmp.${pid}
restart 	1000 restart.lmp.${pid} restart2.lmp.${pid}
restart 	1000 restart.lmp.1 restart2.lmp.${pid}
restart 	1000 restart.lmp.1 restart2.lmp.1


include         in.dump
dump            myDump all atom ${out_freq2} dump.water.${pid}
dump            myDump all atom 10000 dump.water.${pid}
dump            myDump all atom 10000 dump.water.1
dump            myDump2 all dcd ${out_freq2} dump.dcd
dump            myDump2 all dcd 10000 dump.dcd
dump_modify     myDump append yes
dump_modify     myDump2 append yes


variable natoms 	equal  "count(all)"                        # NUMBER ATOMS
variable H      	equal  "enthalpy/v_natoms"                 # ENTHALPY-per-atom
variable Vol      	equal  "vol/v_natoms"                 # volume-per-atom
fix AVG all 		ave/time ${out_freq} 1 ${out_freq} v_Vol v_H file vol_enthalpy.dat
fix AVG all 		ave/time 1000 1 ${out_freq} v_Vol v_H file vol_enthalpy.dat
fix AVG all 		ave/time 1000 1 1000 v_Vol v_H file vol_enthalpy.dat


timer           timeout 02:55:00 every 1000
New timer settings: style=normal  mode=nosync  timeout=02:55:00

fix 		1 all shake 1e-6 200 0 b 1 a 1
Finding SHAKE clusters ...
       0 = # of size 2 clusters
       0 = # of size 3 clusters
       0 = # of size 4 clusters
     324 = # of frozen angles
  find clusters CPU = 0.001 seconds
fix             2 all nph aniso ${pressure} ${pressure} ${pressureDamp}
fix             2 all nph aniso 2099.2 ${pressure} ${pressureDamp}
fix             2 all nph aniso 2099.2 2099.2 ${pressureDamp}
fix             2 all nph aniso 2099.2 2099.2 1000
fix             3 all temp/csvr ${temperature} ${temperature} ${tempDamp} ${seed}
fix             3 all temp/csvr 67.72 ${temperature} ${tempDamp} ${seed}
fix             3 all temp/csvr 67.72 67.72 ${tempDamp} ${seed}
fix             3 all temp/csvr 67.72 67.72 100 ${seed}
fix             3 all temp/csvr 67.72 67.72 100 745823


run             250000
PPPM initialization ...
  extracting TIP4P info from pair style
  using 12-bit tables for long-range coulomb (../kspace.cpp:340)
  G vector (1/distance) = 0.37159249
  grid = 24 24 24
  stencil order = 5
  estimated absolute RMS force accuracy = 0.0035859069
  estimated relative force accuracy = 1.0798852e-05
  using double precision FFTW3
  3d grid and FFT values/proc = 3211 432
Last active /omp style is kspace_style pppm/tip4p/omp
Neighbor list info ...
  update every 1 steps, delay 7 steps, check yes
  max neighbors/atom: 2000, page size: 100000
  master list distance cutoff = 10.8154
  ghost atom cutoff = 10.8154
  binsize = 5.4077, bins = 4 4 4
  1 neighbor lists, perpetual/occasional/extra = 1 0 0
  (1) pair lj/cut/tip4p/long/omp, perpetual
      attributes: half, newton on, omp
      pair build: half/bin/newton/omp
      stencil: half/bin/3d
      bin: standard
Setting up Verlet run ...
  Unit style    : real
  Current step  : 37250000
  Time step     : 2
  Walltime left : 2:54:59.94
Per MPI rank memory allocation (min/avg/max) = 10.18 | 10.19 | 10.19 Mbytes
Step Temp PotEng TotEng E_pair E_mol Press Lx Ly Lz Volume Pxx Pyy Pzz Pxy Pxz Pyz Enthalpy 
37250000    67.489933   -5107.9649   -4977.8049   -5107.9649            0    2900.0004    19.921547    19.906763    20.675968    8199.5411    2118.2301    3942.4494    2639.3219    55.451104    394.38158    570.03021   -4631.0173 
37251000    68.151578   -5120.7805   -4989.3445   -5120.7805            0    2067.4138    19.866785    19.969146    20.733286    8225.3658     3537.489    869.76558    1794.9868   -359.10829   -151.17579    156.92236   -4741.3406 
37252000    67.166586   -5116.9168   -4987.3803   -5116.9168            0    2218.0555    20.010315    19.847032    20.740477    8236.9841    788.10448    3251.5638    2614.4982   -102.85783    109.44881   -646.99754   -4720.9299 
37253000    67.701357   -5120.2058    -4989.638   -5120.2058            0    2055.9224    19.949339    19.918774    20.669201    8213.2451    2282.7893     1582.449    2302.5288   -335.07578   -65.832452    229.58727    -4743.376 
37254000    63.436529   -5123.0228   -5000.6802   -5123.0228            0    1783.0801    19.953614    19.994622    20.740453    8274.7139    1918.0591    999.14789    2432.0334    27.966574    362.53582    121.47167   -4785.5012 
37255000     65.78109   -5115.1357   -4988.2713   -5115.1357            0    2295.6587    19.915713    19.939554    20.751505    8240.6395     2392.202    1967.7276    2527.0466   -56.626149    766.80565     870.9132   -4712.3762 
37256000    69.252618    -5117.753   -4984.1935    -5117.753            0    3190.9868    19.721088    19.980937    20.844213    8213.5746    4369.9865    2906.2371    2296.7368   -162.37232   -1051.8077    -201.9762   -4601.9562 
37257000    67.926129   -5118.3343    -4987.333   -5118.3343            0    1616.5235    19.958466    19.916972       20.685    8222.5401    745.96188    2044.7506    2058.8581    -29.77884   -246.52902    560.53598   -4793.4839 
37258000    67.240566   -5117.2355   -4987.5564   -5117.2355            0      1798.94    19.897508    19.868075    20.755154    8205.0351    1625.6353    2466.4916     1304.693     78.46654    142.53453    -27.60345   -4772.2916 
37259000    70.303455   -5115.5159   -4979.9298   -5115.5159            0    2836.6873    19.970906    19.897479    20.652363    8206.6435    2707.8966    2815.7833    2986.3819   -329.43369   -33.946211    358.48413   -4640.4195 
37260000     71.28429   -5123.8866   -4986.4088   -5123.8866            0    1934.3756    19.858388    20.042421    20.716914    8245.5424    2552.0961    1694.6592    1556.3714   -135.48832    655.83655   -227.16051   -4753.7948 
37261000     65.18939   -5113.0363   -4987.3131   -5113.0363            0    2673.7233    19.917816    19.936423     20.56868    8167.6172    2872.7222    2591.8547    2556.5931   -37.261426   -786.79198   -373.61734    -4668.829 
37262000    69.927532   -5110.4688   -4975.6077   -5110.4688            0    1891.7036    20.019625    19.858922    20.755597    8251.7647    1065.9288     2438.394    2170.7881   -134.98656    -638.5384    286.66233   -4747.9534 
37263000    68.432564    -5108.439    -4976.461    -5108.439            0    2904.6332    20.023974    19.883421    20.603537    8203.1974     2050.345    3056.4605    3607.0941    44.327609     490.0396    727.53564   -4628.9646 
37264000    66.225012   -5119.5532   -4991.8326   -5119.5532            0    1825.7397    19.967044     19.87242    20.792845    8250.4652    2517.2997    1634.6644     1325.255   -161.95485     499.3524     164.7531   -4772.1513 
37265000    65.763025   -5115.0812   -4988.2517   -5115.0812            0    2346.2175    19.994258    19.972822    20.482577    8179.5482    2199.4607    1295.3919       3543.8   -136.96444   -301.30905    108.84752   -4708.3706 
37266000    64.768465   -5111.6886   -4986.7772   -5111.6886            0    2323.1112    19.973134    19.825018    20.724854    8206.3736    1526.3394    2970.7525    2472.2418   -306.02857    709.73971   -156.36823   -4708.7437 
37267000    69.955319   -5122.7786   -4987.8639   -5122.7786            0    2345.6715    19.907558    19.853143    20.725086    8191.1261    2794.4164    1562.3872    2680.2108   -312.48352    195.54238    242.33294   -4707.6519 
37268000    67.167259   -5126.2662   -4996.7285   -5126.2662            0    453.74745    20.018303    19.997086     20.70291    8287.5346    199.66428    859.92222    301.65584    53.814986   -147.65698   -447.09311   -4941.8862 
37269000      66.4185   -5116.6809   -4988.5872   -5116.6809            0    2349.9205    19.917303    19.898342    20.659276    8187.7113     1581.283    2561.1045    2907.3739   -256.99326    367.16886   -243.00831   -4707.9847 
37270000    70.381759   -5125.6183   -4989.8811   -5125.6183            0     1591.104     20.03349    19.872242    20.688116    8236.1533    729.68497    2550.7413    1492.8858    76.375687    201.42686    287.26354   -4798.7643 
37271000    65.442057   -5124.0495    -4997.839   -5124.0495            0     1173.769    19.955594    19.917822    20.818311    8274.6954    1362.2331    1595.6588    563.41507    212.83534   -458.93467    366.51047    -4856.191 
37272000    69.454089   -5119.8371   -4985.8891   -5119.8371            0    2608.7803    19.920296    19.975115    20.646295     8215.371    2879.1885    1863.3011    3083.8514    -239.6195     939.7123     185.0309   -4673.3239 
37273000    66.277785   -5123.1204   -4995.2981   -5123.1204            0    2218.3303    19.899607    19.904357    20.755812    8221.1462    1425.5255    2956.4409    2273.0247   -360.07104    1026.4262    609.17932    -4729.327 
37274000    70.611258    -5111.202   -4975.0222    -5111.202            0    1667.8989    19.910849    19.919647    20.666665    8196.7525    1544.2286    1891.1936    1568.2745     43.16533    95.595678    -160.6254   -4775.6396 
37275000    72.214722   -5119.1558   -4979.8837   -5119.1558            0    1576.5323    19.980019    19.950407    20.639209    8226.9849    941.73689    2250.1247    1537.7354   -518.72576    273.88644   -806.53562   -4790.7279 
37276000    69.769455   -5114.4569   -4979.9006   -5114.4569            0     1639.432    19.892832    19.953666    20.697283    8215.4744    1829.6382    1714.9355    1373.7223   -483.83694    145.99782   -153.22813   -4783.4733 
37277000    72.311645   -5118.4395   -4978.9804   -5118.4395            0    1536.7138    19.945637    19.950683    20.614846    8203.2467    1088.7525    1842.5445    1678.8445   -116.53336    110.20395   -33.319909   -4795.1342 
37278000    67.079679   -5123.6404   -4994.2716   -5123.6404            0    1415.8732    20.003247    19.891061    20.773634    8265.5343    936.19102    1657.0346    1654.3939    -459.8415    925.56883   -14.070149   -4823.5961 
37279000    68.381859   -5116.4735   -4984.5933   -5116.4735            0    2770.2488    19.878989    19.846176     20.76372    8191.7428    2917.1394     3232.745     2160.862   -47.262611     -315.562    86.383896   -4653.6368 
37280000    70.027139   -5117.5209   -4982.4677   -5117.5209            0    2338.7704    19.908012    19.892628    20.721828    8206.3138    1908.3836    3107.1754    2000.7523    153.58608    838.97023    65.302562    -4702.562 
37281000    71.210975   -5117.2115   -4979.8751   -5117.2115            0    2201.6932    19.844949    20.011433    20.734939    8234.3804    2901.3467    1455.3217    2248.4112    362.33588    60.597352   -178.86969   -4715.4738 
37282000    69.177739   -5117.4894   -4984.0743   -5117.4894            0    2027.5532    19.911605     19.97515    20.688455    8228.5703    1386.7334    2457.5559    2238.3702   -190.16133   -541.29273    365.48214   -4740.7572 
37283000    66.059378   -5111.3488   -4983.9477   -5111.3488            0     2665.421    19.942356    19.819783    20.691214    8178.2675    3317.4739    2298.0123    2380.7769   -135.22708     92.41328    13.786083   -4666.0386 
37284000     68.76737   -5125.0103   -4992.3867   -5125.0103            0    1975.3395    19.964341    19.949446    20.595595    8202.7632    2642.1285    859.82424    2424.0657   -291.42517    144.67569    142.20594    -4756.079 
37285000    65.560571   -5126.0768   -4999.6377   -5126.0768            0    2371.7242     19.91308    19.885759     20.72454    8206.6425    1558.6697    3034.7469     2521.756    123.91823    103.85953    276.14381   -4715.7768 
37286000    64.259775   -5118.7603   -4994.8299   -5118.7603            0    2116.3286    19.840324    19.883535    20.878496    8236.4785     1947.171    2953.0512    1448.7637   -265.79339   -20.790023    331.40964   -4740.6153 
37287000    70.280067   -5124.1629   -4988.6219   -5124.1629            0    1177.2669    19.980966    19.924077    20.728522    8252.0726     1018.505    1589.2527    924.04297    129.98901    102.27861    313.21134   -4846.9402 
37288000    69.438726   -5117.0872   -4983.1688   -5117.0872            0     2198.393    20.018016    19.855734    20.722345    8236.5604    2257.5309    2295.2677    2042.3803    489.54648    -281.0961   -26.455184   -4719.0939 
37289000    66.547638   -5121.7341   -4993.3913   -5121.7341            0    1980.7344    20.053016    19.878963    20.611664    8216.4924    811.28905    2434.4805    2696.4338   -26.407918    299.16984    120.52519   -4756.0417 
37290000    67.240797    -5117.892   -4988.2124    -5117.892            0    1560.5244    20.000911    20.035661    20.553671    8236.5025    945.24593    2076.7849    1659.5424   -200.31007     60.63594    287.47004   -4800.7608 
37291000    67.865818   -5117.7211   -4986.8362   -5117.7211            0     1899.048    19.919933    19.989799     20.65432    8224.4561    1423.6959    2262.9236    2010.5245   -320.60332     29.74683   -490.56038   -4759.0544 
37292000    62.968742   -5111.3608   -4989.9203   -5111.3608            0    1997.1313    19.969327    19.896441      20.7198    8232.3604    2217.7761    2272.9006     1500.717    368.62268    -189.3578    -167.1895   -4750.1436 
37293000    67.006279   -5111.9058   -4982.6786   -5111.9058            0    1501.8305    19.917125    19.882986    20.839438    8252.6659    1215.9077    2274.1337    1015.4502   -297.81135   -276.24048   -112.76156   -4801.9233 
37294000    66.693172   -5123.4022   -4994.7788   -5123.4022            0    2521.4567    19.866963    19.990209    20.661707    8205.6883    2378.3192    2736.7251     2449.326    244.90524   -266.09613   -90.274292   -4693.0322 
37295000    63.443844   -5117.6222   -4995.2655   -5117.6222            0    2980.7407    19.999465    19.885202    20.552041    8173.4109    2557.6911    3449.3541    2935.1769   -131.58356    919.79104   -237.64182   -4639.9587 
37296000    68.589548   -5125.4328   -4993.1521   -5125.4328            0    1537.9207    19.885948    19.954351    20.767446    8240.7548    1973.4032    1273.0223    1367.3365    79.050504     394.6949   -28.534244   -4808.3202 
37297000    70.131173   -5123.7567   -4988.5028   -5123.7567            0    2224.8983    19.916318    19.881173    20.750328     8216.295    2423.6161    2766.9944    1484.0843   -39.134916   -559.98215    366.02081   -4721.9016 
37298000    65.999035   -5122.6517    -4995.367   -5122.6517            0    2609.1414    19.904862    19.890462    20.717066    8202.2367    2746.7731    2242.1323    2838.5188   -103.63537    220.02679    145.36434   -4683.2584 
37299000    68.454579   -5116.5127   -4984.4923   -5116.5127            0    2794.0663    19.947309    19.940306     20.54066    8170.1595    2923.0827    2442.1424    3016.9739    473.08306    2.3971034   -927.81659   -4651.5698 
37300000    65.892257   -5122.0675   -4994.9888   -5122.0675            0    1856.7713    19.953922    19.948098     20.72881    8250.9532      1626.84    2070.6102    1872.8638   -715.92513    636.12586    22.437229   -4771.5603 
37301000    67.877223   -5100.5861   -4969.6792   -5100.5861            0    2169.8119    19.988079    19.936611     20.61913    8216.6111    1752.4903    1990.7194    2766.2259   -13.823614   -218.02478    494.54066   -4709.6688 
37302000    65.418345   -5119.3687   -4993.2039   -5119.3687            0    2391.5188    19.868265    19.844669    20.840779    8217.0846    2780.2631    2812.7241    1581.5692   -340.15452    854.74672   -789.27479   -4706.6097 
37303000    66.519848    -5125.287   -4996.9979    -5125.287            0    2015.8201    19.967976    19.809593     20.77071    8216.0099    2025.2703    2204.0314    1818.1587   -153.06426    928.62677   -964.71058   -4755.4582 
37304000    72.724161     -5121.64   -4981.3853     -5121.64            0     2225.735    19.960466    19.864011    20.711332    8211.9378    2232.1265    2091.0395     2354.039    -138.2394    708.24346    52.432887   -4714.8253 
37305000    68.458135   -5116.9109   -4984.8836   -5116.9109            0    1791.3723    20.032176    19.853947    20.651604    8213.5101    1125.3372    2302.8721    1945.9075   -2.2125429    428.49882    292.27843    -4770.303 
37306000    70.061246   -5110.4777   -4975.3587   -5110.4777            0    3100.9391    19.947619    19.905661    20.587424    8174.6593    2870.2778     3384.957    3047.5825    249.31863    95.009626    259.91358   -4605.6678 
37307000    63.888902   -5120.9618   -4997.7467   -5120.9618            0    2459.3866    19.919393    19.943338    20.633077    8196.6796    2211.1142    2716.1729    2450.8727   -50.249255    98.820507    150.42536   -4703.7512 
37308000    66.424079   -5114.5021   -4986.3977   -5114.5021            0    2319.3327    19.915747    19.855547    20.726338    8195.9827    2289.6571    2462.6688    2205.6721   -22.601585    680.42121   -241.60512   -4709.1679 
37309000    66.325878   -5117.0513   -4989.1363   -5117.0513            0     1671.263    19.877275    19.955512     20.73726    8225.6663    2034.7084    1783.4884     1195.592    6.7958513    95.092916    209.73689   -4788.6467 
37310000    67.790898   -5119.8011   -4989.0606   -5119.8011            0    2017.9136    20.048625    19.898078    20.593373    8215.2956    1932.6946    2199.9632    1921.0829   -152.37399    369.96795    1025.3851   -4747.2911 
37311000    66.922639   -5115.2071   -4986.1412   -5115.2071            0     2094.493    19.951262    19.969538    20.674694    8237.1595    2168.9867    2224.2346    1890.2576   -10.173559    197.82289    602.61624   -4734.5287 
37312000     69.07254   -5109.7276   -4976.5154   -5109.7276            0     1709.284    19.921029    19.978229    20.698571    8237.7598    1464.4012    2007.5749    1655.8757    207.09573   -165.05761   -238.63676   -4771.1632 
37313000    72.603335    -5121.725   -4981.7034    -5121.725            0    1876.4224    19.924409    19.938015    20.804867    8264.7993    2274.2359    1183.2966    2171.7346    56.668095    162.19149   -927.39661   -4755.5314 
37314000    65.858943   -5115.4352   -4988.4207   -5115.4352            0    2022.8189    19.969139    19.885637    20.657545    8203.0916    2136.8096     1807.329     2124.318   -339.61579    844.01412   -14.943392   -4746.4234 
37315000    66.616004   -5118.8547   -4990.3801   -5118.8547            0    1759.3435    20.050795     19.81477    20.716166    8230.5722     1376.012    3006.1944    895.82404    124.58403   -135.26158    87.333358   -4779.1983 
37316000    69.804297   -5111.7168   -4977.0933   -5111.7168            0    2055.3226    20.006151     19.82592    20.704136    8212.0959    1572.2112    3152.6385    1441.1181   -79.097437    561.71633   -404.24834   -4730.9376 
37317000    66.278732   -5117.6615   -4989.8374   -5117.6615            0    2451.9474    20.103404    19.881102    20.494601    8191.2375    1539.0409    2937.1859    2879.6153    -244.4423    178.95287    675.06383   -4696.9258 
37318000    63.761399   -5111.7694   -4988.8002   -5111.7694            0    2328.9692    19.971639    19.832962    20.784946    8232.8497     2223.818    3458.6404    1304.4492    67.306864    1159.3057    548.63912   -4709.1663 
37319000    64.987261   -5123.9959   -4998.6625   -5123.9959            0      2058.91     20.00378    19.918272     20.65342     8229.164    2815.8936    1278.0822    2082.7542   -262.00697    574.40792   -426.03581   -4751.5646 
37320000    69.416195   -5120.3328   -4986.4578   -5120.3328            0    2558.6193    20.060072    19.833645     20.63518    8210.0024    2121.8322     2892.852    2661.1735    109.43978    403.23309   -339.71721   -4680.1029 
37321000    70.091355   -5119.9994   -4984.8223   -5119.9994            0     1897.634    20.073201    19.851696    20.685804    8243.0257     1891.395    2383.1479     1418.359   -220.85805    339.16293   -887.50645   -4756.6962 
37322000    73.407018   -5113.3675   -4971.7959   -5113.3675            0    2100.0904    20.007206    19.777518    20.741689    8207.3387    1595.0907    2389.8276    2315.3531   -209.92918    433.71402   -196.72174   -4720.4243 
37323000    64.491867   -5122.2403   -4997.8623   -5122.2403            0    2366.1477    19.884801    19.916823    20.776631    8228.4199    2503.4537    2509.2951    2085.6942   -84.678438    416.64399    143.91895   -4713.9174 
37324000    67.804015    -5126.633   -4995.8673    -5126.633            0    1718.1791     20.05531    19.908033    20.705492    8266.9115    1534.6878    1076.3309    2543.5186   -47.031912   -133.44526   -198.46605    -4788.716 
37325000    64.571076     -5117.06   -4992.5293     -5117.06            0    1957.6413    19.961125    19.905331    20.747255    8243.5647    1364.9857    2746.1035    1761.8346    302.95306    254.19438    82.838169   -4757.1739 
37326000    68.895131    -5124.308    -4991.438    -5124.308            0    1307.8278    19.943744    20.060803    20.649117    8261.4541    2241.6791    582.53779    1099.2666   -142.92078    275.87182     267.2502   -4833.8646 
37327000    64.142517   -5124.1425   -5000.4382   -5124.1425            0    1866.7395    19.817584    19.934101    20.878329    8247.8942    2855.7613    1582.4758    1161.9814   -35.283323    251.90103    286.42149   -4775.8936 
37328000    68.747403   -5109.3457   -4976.7606   -5109.3457            0     1711.434     20.00102    19.949804    20.634509    8233.5081    1781.6586    1312.0455    2040.5981   -368.49571   -153.54996    451.48678   -4771.2563 
37329000    64.859552   -5116.4024   -4991.3153   -5116.4024            0    2583.6075    19.959686    19.754374     20.75814    8184.7499    2044.1001    3141.5929    2565.1296   -91.302969    550.62571     398.1077   -4682.9199 
37330000    71.607955   -5121.6282   -4983.5263   -5121.6282            0    1692.2735    19.985726    19.969589    20.660611    8245.7891    1588.0365    1296.9076    2191.8765    422.44712      692.434    481.04839   -4780.0196 
37331000    70.166836   -5120.7234   -4985.4008   -5120.7234            0    2280.2363    19.866134    19.839763    20.901393    8238.0626    3023.7363    2201.8122    1615.1604   -138.97543   -25.329143      662.172   -4711.4448 
37332000    67.570213   -5126.2384   -4995.9235   -5126.2384            0      1395.86    19.930666     19.94658    20.685737    8223.5864    1568.1531    1416.4145    1203.0125   -2.8102312   -131.15137    229.63403   -4828.5144 
37333000    68.602462    -5119.006   -4986.7004    -5119.006            0    1559.9107    19.993907    19.874931    20.699684    8225.5891    1860.5643    1291.0544    1528.1135   -242.41681   -14.591167    286.94457   -4799.5707 
37334000    69.145449   -5109.8415   -4976.4886   -5109.8415            0    1874.7479    19.950363    19.900386     20.72057    8226.4791     1653.078    2009.5277    1961.6379   -229.68787    577.14018    57.569171   -4751.5662 
37335000    67.680998   -5122.6383   -4992.1098   -5122.6383            0    1878.7873    20.065043    19.832844    20.691851    8234.2574    1246.0384    1940.4624     2449.861    301.95071     17.03846     300.9601   -4766.4896 
37336000    67.712928   -5123.5373   -4992.9473   -5123.5373            0    1189.5848    19.945915    19.984612    20.747953    8270.3701    999.96735    543.00902    2025.7782   -166.26688    187.93126   -151.09151   -4849.4656 
37337000    69.879438   -5124.5425   -4989.7742   -5124.5425            0    2064.7474    19.863385    19.914141    20.763258     8213.161    2013.9888     1986.881    2193.3725   -42.944948   -52.449233   -288.34167   -4742.4576 
37338000    68.570025    -5120.328    -4988.085    -5120.328            0    1599.4077    19.986482    19.910094    20.715793    8243.4922    1275.9321    2577.8945    944.39666    100.71664     306.0763   -491.64321   -4795.7996 
37339000     62.75202   -5121.1769   -5000.1544   -5121.1769            0    1984.7634     19.92884    19.852146    20.716311    8195.9992     1490.492    2901.5218    1562.2765   -343.00051    1079.2938   -319.65781   -4762.9151 
37340000    66.025779   -5117.8625   -4990.5263   -5117.8625            0    2570.6648    19.946752     19.91124    20.648559     8200.876    2449.1205    2183.4739    3079.3999   -430.09495    567.91422   -655.99815   -4683.0713 
37341000    65.469983   -5117.7383   -4991.4739   -5117.7383            0    1283.6695    19.909616    19.992843    20.645278    8217.8497    2366.5784    107.20881    1377.2212    64.058967    339.08721   -227.88132   -4837.6275 
37342000    67.183387   -5120.9332   -4991.3644   -5120.9332            0    1924.4664    19.982351    19.873747    20.780888    8252.5931    2274.0524    1718.3911    1780.9558   -148.70617   -287.91008    239.06444    -4759.744 
37343000    69.818193   -5117.3591   -4982.7089   -5117.3591            0    2462.3835    19.922012    19.839514    20.767341    8208.1469    3108.2441    2273.3301    2005.5764   -411.75187    309.04374     177.5166   -4687.9433 
37344000    66.392633   -5113.8534   -4985.8097   -5113.8534            0    2232.9485    19.900808    19.842882    20.844179    8231.1449    2721.9239    1782.3625    2194.5592   -167.78341   -401.71301    668.40548   -4717.7603 
37345000    67.578312   -5128.9732   -4998.6427   -5128.9732            0    1558.4298    19.952748    19.909457    20.770711    8251.1313    567.82888    2342.9986    1764.4618   -298.72945    -143.0044     817.1306   -4811.1102 
37346000    68.970832   -5116.6218   -4983.6057   -5116.6218            0     2778.008    19.964789     19.84219    20.684762    8194.1679    2519.5143    3176.0448    2638.4649   -537.64525     93.65839    390.09224    -4651.624 
37347000    69.083383     -5122.89   -4989.6569     -5122.89            0    2477.3258     19.86904    19.887456    20.763756     8204.687    3254.4709     2594.977    1582.5294   -434.65621     439.2499   -26.105822   -4693.2276 
37348000    66.105277   -5116.6576    -4989.168   -5116.6576            0    1604.7312    19.929732    19.947907    20.736491    8243.9258    2368.1089    1179.4543    1266.6305   -570.00647    554.01182    296.02875   -4796.2324 
37349000    69.315747   -5125.7292    -4992.048   -5125.7292            0    1759.3732    19.938824    20.012493    20.650306    8240.0006    2197.9425    801.03233    2279.1448    111.16097     895.6182    152.93282   -4780.6207 
37350000    67.796606   -5121.9694   -4991.2179   -5121.9694            0    2247.4677    19.920572    19.855268    20.756224    8209.6739    2049.5751    2820.0599    1872.7681      178.047   -135.73799    394.55418   -4722.1294 
37351000    67.908479   -5131.6603    -5000.693   -5131.6603            0    1901.5224    19.900982    19.911406    20.745577    8220.5702    2306.8772     1110.229    2287.4611   -34.300695    217.19491   -127.66833   -4772.7222 
37352000    70.573804   -5121.9492   -4985.8417   -5121.9492            0    1096.9812    19.991535    19.908232    20.659045    8222.2198       936.25    1045.5944    1309.0991   -118.74864    258.44661   -109.48709   -4854.2998 
37353000    67.991514   -5114.6226   -4983.4952   -5114.6226            0    1483.5942     19.99254    19.880664    20.755705    8249.6656    22.845881    2406.5263    2021.4104   -93.898029    415.66897    278.18609   -4804.9997 
37354000    69.831458   -5118.5734   -4983.8976   -5118.5734            0    1568.8088    19.998528    19.835397    20.770416    8239.1828    693.89122    2679.7865    1332.7488    149.57414   -39.010054   -81.305432   -4795.3895 
37355000     68.49757   -5107.3534   -4975.2501   -5107.3534            0    956.94738    19.978486    19.938088    20.704065    8247.1086     428.7801    1499.1034    942.95863   -50.097054    751.36118    370.22265   -4860.1527 
37356000    66.607996   -5123.8367   -4995.3776   -5123.8367            0    1596.1471    19.878585    19.903688    20.770713    8218.0808    1857.4597    1745.4551    1185.5264    42.488361   -644.27112    322.68969   -4804.0758 
37357000    68.431411   -5119.0147    -4987.039   -5119.0147            0    1174.5914    20.039956    19.979623    20.597962    8247.2341    702.83189    990.73051    1830.2119   -65.438512    557.50397   -601.74935   -4845.7621 
37358000    69.768029   -5118.5646   -4984.0111   -5118.5646            0    1764.6965    19.977985    19.889933    20.737158    8240.1332     1749.943    1874.0591    1670.0874    192.69645    660.51112   -21.742763   -4771.9407 
37359000    69.162836   -5121.3713   -4987.9849   -5121.3713            0    1866.9429    19.869698    19.894339    20.786446    8216.7679    2309.2246     2255.787    1035.8172    192.42107   -73.579523    318.33752   -4764.2633 
37360000    71.807623   -5121.0806   -4982.5935   -5121.0806            0    1569.5625     19.90901    19.940881    20.739936    8233.8209    1493.7037    1456.3335    1758.6502   -252.28325   -35.491316   -397.30388   -4794.1176 
37361000    69.008938   -5111.8399   -4978.7504   -5111.8399            0    1614.0364    19.992213    19.896893    20.639366    8209.9875    2044.7661    889.23119     1908.112   -143.06019    144.55122    90.610411   -4785.4949 
37362000    69.577462   -5117.5623   -4983.3763   -5117.5623            0    1983.9266    19.935062    19.901316    20.733952    8225.8633    1884.4607    2288.7629    1778.5563   -426.09118    206.74973   -581.71028    -4745.373 
37363000    64.046562   -5116.2803   -4992.7611   -5116.2803            0     3562.703     19.88346    19.983474    20.556121    8167.7815    4854.8444    1801.1846      4032.08   -93.478957    801.02254   -359.40885   -4568.3765 
37364000    66.931624   -5114.4614   -4985.3781   -5114.4614            0    2024.5893    19.950047    19.936803    20.698514    8232.6302    2203.8498    1629.7728    2240.1451    -207.9814    788.66703    543.09115   -4742.2969 
37365000    70.832106   -5123.3913   -4986.7856   -5123.3913            0    2012.6505     19.89145    19.948773    20.719804    8221.8255    2261.3925    1593.3282    2183.2308   -211.33593    299.87925    842.28761    -4745.455 
37366000    64.570368   -5120.7943   -4996.2649   -5120.7943            0    1277.9867    19.962321    19.939213    20.764109       8264.8    1913.9088    555.35696    1364.6944    142.25895   -23.022324   -38.053757   -4842.2245 
37367000    64.443488   -5119.9887    -4995.704   -5119.9887            0     1777.539    19.898661    19.934132    20.770223    8238.7693    1972.1932    1633.4556    1726.9682   -128.34066   -274.74207    549.45438   -4782.1256 
37368000    66.761113   -5122.1103   -4993.3559   -5122.1103            0    1373.5732    19.979846    19.958959    20.648245    8234.0439    1038.5734    992.40357    2089.7427   -353.40981    672.49764    62.595455   -4828.4103 
37369000    65.988072   -5122.6939   -4995.4304   -5122.6939            0    1273.6043    19.961752    19.923968    20.785964    8266.9376    1728.8712    1135.6714    956.27033    314.69485    268.94403   -134.98872   -4841.8785 
37370000    67.948097   -5118.0903   -4987.0467   -5118.0903            0    3010.7354    19.850134    19.999024    20.624891    8187.7375    3010.7463     2495.324    3526.1358   -90.626417    62.300749   -8.6994099   -4627.5356 
37371000    65.276302    -5123.327   -4997.4361    -5123.327            0     2529.598    19.923068    19.955912     20.58797     8185.427    2574.8365    2421.5787    2592.3787     160.1065   -164.94328   -11.650474   -4695.4627 
37372000    66.613932   -5109.7042   -4981.2336   -5109.7042            0    2730.1289    19.923317    19.850248    20.798898     8225.606    3222.2803    2520.6283    2447.4782   -273.68254    17.685997   -37.882497   -4653.7218 
37373000    68.087694   -5118.1897   -4986.8769   -5118.1897            0    2088.2068    19.994075    19.962555    20.576022    8212.5662    1241.1217    2085.6335    2937.8651    265.74089    391.58253    232.61173   -4736.7685 
37374000    69.216248   -5121.2112   -4987.7218   -5121.2112            0    1505.3568    19.819018    19.946471    20.862824    8247.4806     2218.983    1039.1217    1257.9657   -279.32335    199.70928    56.473608   -4806.6559 
37375000     68.59964   -5115.6884   -4983.3882   -5115.6884            0     1338.327    19.908045    20.005417    20.666086    8230.6562    1192.9867    805.88237     2016.112    104.58983    903.81603   -51.801336   -4822.7412 
37376000    64.374044   -5123.3413   -4999.1905   -5123.3413            0    1940.8561    19.884738    19.972955    20.721494    8229.6862    1817.8574     2084.978    1919.7328    -314.9342    711.01039    83.460075    -4766.246 
37377000    68.274512   -5122.3445   -4990.6713   -5122.3445            0    2017.5138    19.910791    19.871526    20.790259    8225.8283    2502.7766    1950.8845    1598.8803   -284.96412     123.5051    12.326231   -4748.6398 
37378000     67.83071    -5121.752   -4990.9348    -5121.752            0    1994.1313    19.834792    19.910549    20.712878     8179.963    1612.8106    2447.8129    1921.7705    307.23169   -107.98056    12.853183   -4753.0422 
37379000    70.347051    -5112.774   -4977.1038    -5112.774            0    1583.7483    19.958753    19.834025    20.790115    8230.0251    1512.9059    1648.3733    1589.9658    46.399304    391.76507    940.91434   -4787.0121 
37380000    64.147194   -5124.4024   -5000.6891   -5124.4024            0    1174.2908    20.002204    19.965639    20.690456    8262.8736    885.94813    1015.7058    1621.2185    328.05354   -30.917039    199.53185   -4859.1806 
37381000    64.754921   -5123.7153     -4998.83   -5123.7153            0    1336.5399    19.853717    19.927374    20.709228    8193.2424    1746.4591     1045.688    1217.4725   -352.45137   -107.49521   -661.07986   -4839.1268 
37382000    70.348756    -5116.757   -4981.0835    -5116.757            0    1881.0691    19.968341    19.896302    20.749019    8243.5048    1726.3664    1717.4088     2199.432    12.651127    428.74519   -27.884641   -4754.9356 
37383000    68.110269   -5110.4618   -4979.1054   -5110.4618            0    2204.5432    19.896651    19.920786    20.704371     8206.321    2859.6976    1431.5182     2322.414   -322.36722    454.10772    133.18668   -4715.2639 
37384000    67.332543   -5123.0809   -4993.2244   -5123.0809            0    1475.1827    19.872772    19.902387    20.815949    8233.0327    1615.1579    1574.1618    1236.2285    164.19732    655.56238   -512.31627   -4816.0987 
37385000    66.786381   -5118.0853   -4989.2822   -5118.0853            0       2314.1    19.985677    19.895455    20.611052    8195.4514    2687.2019    1633.3494    2621.7487    24.004672   -61.931165   -192.28119   -4712.6957 
37386000    68.429357   -5116.2204   -4984.2487   -5116.2204            0    3086.4101    19.988284    19.873499    20.554954    8165.1912    1879.3206    4152.1456    3227.7641   -258.34205   -181.37603    365.25542   -4616.7161 
37387000    65.811268   -5122.1568   -4995.2342   -5122.1568            0     1523.682    19.989807    19.879521     20.77681    8256.4506    994.72844    1915.5058    1660.8118   -277.05826    614.62469   -236.03855   -4811.7648 
37388000     66.05791   -5120.8476   -4993.4494   -5120.8476            0    1854.5106    20.009475    19.887731    20.686693     8232.126    1780.3498    1762.6849    2020.4972   -120.16004    902.63257    590.40111   -4770.8022 
37389000    63.554186   -5123.6185   -5001.0489   -5123.6185            0    1798.2226    19.863741    19.893129    20.829333    8230.7521    2214.3598    1951.5134    1228.7947    46.601616    -35.12841    886.59095   -4785.1955 
37390000     70.93487   -5122.1781   -4985.3742   -5122.1781            0    2197.9062    19.951343     20.03467    20.607821    8237.3287    1745.9256    2122.3982    2725.3947    26.386155    318.52033    182.58226   -4721.3332 
37391000    67.139457   -5119.8397   -4990.3556   -5119.8397            0    847.71782    19.977094    19.914017    20.820299    8282.8188    593.50438    1224.6653    724.98379    -217.5761   -107.45903   -133.84354   -4887.9543 
37392000    68.724846   -5122.5966   -4990.0549   -5122.5966            0    1929.0901    19.934103    19.952816    20.704529    8235.0504    2235.0143    1791.3933    1760.8628   -465.99623    534.95975   -342.62885   -4758.3717 
37393000    65.308864   -5117.5585   -4991.6049   -5117.5585            0    2544.3814    19.933653    19.842344    20.789481    8222.8718    2054.3363     3194.959    2383.8489    20.252159   -21.199445   -791.63433   -4686.4772 
37394000    70.346587    -5124.729   -4989.0597    -5124.729            0    2085.7315    19.953498    19.941144    20.686777     8231.177     1750.933    1528.4365     2977.825   -77.786513    274.00307     349.4506   -4738.6817 
37395000    66.187939   -5117.0829   -4989.4338   -5117.0829            0    1795.0861    19.935961    19.954932    20.699403     8234.652    1409.6752    2106.5156    1869.0674     99.45002   -443.04118    844.41336   -4773.8549 
37396000     66.01428   -5120.4445   -4993.1304   -5120.4445            0    2339.5889    19.940325    19.863861     20.66664    8185.8875    2804.8114    1983.1168    2230.8385    -127.4722    713.76252    586.29988   -4713.8238 
37397000    66.529011   -5124.5376   -4996.2308   -5124.5376            0    1327.2645     19.99967    19.975401    20.653809    8251.2261    1909.2021    319.81861    1752.7729    -63.25489    398.56373    586.79243   -4836.5136 
37398000    65.894116   -5120.1479   -4993.0655   -5120.1479            0    1692.4604    19.921272     19.89331    20.759556    8227.0129     2394.596    1062.9332     1619.852    43.280212    207.95322     272.4661   -4789.9998 
37399000    68.274121   -5115.5477   -4983.8753   -5115.5477            0    1629.4283    19.968624    19.851134    20.748431    8224.6745    1973.9465    1393.3808    1520.9576   -112.62025    708.71708   -285.25749   -4788.4279 
37400000    69.222893   -5125.0211   -4991.5189   -5125.0211            0    1628.0992    20.014798      19.9179    20.702344    8253.0461    1306.1545    1827.6685    1750.4744   -457.23349    388.84182    150.45241   -4795.5573 
37401000    68.297122   -5109.4443   -4977.7276   -5109.4443            0    1960.5457    19.889489    19.934307    20.748438    8226.4066    1939.6572    2040.0575    1901.9224   -52.535334    936.29393    522.66702   -4742.5137 
37402000    69.049699   -5118.5212    -4985.353   -5118.5212            0    1649.0647    19.971017    19.852951    20.806968     8249.622    1867.9697     1539.446    1539.7786    10.154194    368.38723    587.37183   -4786.9503 
37403000    69.730707   -5124.8845   -4990.4029   -5124.8845            0    1907.1826     19.85604    19.997836     20.69288    8216.6838    1868.8749    2074.5997    1778.0731   -52.459715     146.5342    794.70246   -4761.8616 
37404000    66.968039   -5119.9078   -4990.7543   -5119.9078            0    1968.8673    19.973229    19.927306    20.665563    8225.1553    1518.0765    2981.3316    1407.1937    351.28381    434.06017    871.12448   -4754.5779 
37405000    65.434011    -5115.035     -4988.84    -5115.035            0    2616.2095    19.887452    19.999665    20.580394     8185.695    3485.4767    1765.5789    2597.5731    22.949659    567.87909     152.6071    -4676.517 
37406000    64.920839   -5119.2563    -4994.051   -5119.2563            0    1676.4901    20.023343    19.892601    20.641848    8221.9859    1794.2857    1688.7253    1546.4593    166.45917    1064.1841    376.90058   -4793.0244 
37407000    68.985658   -5118.1577   -4985.1131   -5118.1577            0    3015.5783    19.963887    19.810592    20.678763    8178.3766    3232.4395    3036.7218    2777.5737   -210.73279    268.68636   -63.076899   -4625.4353 
37408000    65.946217   -5123.6199   -4996.4371   -5123.6199            0    3037.3437    19.840102    19.874433    20.717448    8169.1131    3345.8127    3007.0874    2759.1311    186.87871    152.76734   -421.75045   -4634.5736 
37409000    65.353081   -5117.9134   -4991.8745   -5117.9134            0    2024.8992    19.990979    20.000168    20.589569    8232.1819    999.28476    2744.1651    2331.2476     65.02369   -1107.2401    44.468203   -4748.7693 
37410000    69.174222   -5120.8141   -4987.4058   -5120.8141            0     1807.068    19.888864    19.959078    20.684986    8211.1821    2248.8631    1411.4296    1760.9113   -64.315713   -59.505615    -486.8917   -4771.0064 
37411000    66.257601   -5120.8983   -4993.1149   -5120.8983            0    2490.6076    20.024879    19.869119    20.646842    8214.8977    2706.3266     2126.503    2638.9933   -46.095656    93.932944   -32.045805   -4694.7255 
37412000    67.583807   -5117.8408   -4987.4998   -5117.8408            0    1598.4357    19.997667    19.909137    20.718779    8248.8979    663.82443    2176.7653    1954.7173   -217.98298    225.45902    483.28609   -4795.2052 
37413000    69.004011    -5120.251    -4987.171    -5120.251            0    1634.6284    19.957242    20.029655     20.68895     8270.132    2004.4626    553.33021    2346.0925     61.81626    3.3149314    166.59345   -4790.0162 
37414000    66.710539   -5122.4526   -4993.7957   -5122.4526            0    2152.7904    20.039679    19.859557    20.672105    8227.0666    1202.1024     2739.291    2516.9779   -483.50457    591.04481    318.46897   -4735.4967 
37415000    67.915085   -5122.5943   -4991.6143   -5122.5943            0    2500.5573    19.902926    19.956689    20.670651    8210.3101    2578.2957    2447.6717    2475.7046   -37.505498    1134.8239   -374.42537   -4692.2002 
37416000    64.658647   -5109.6377   -4984.9381   -5109.6377            0    1860.1957    20.017232    19.929693    20.683651    8251.4797    2879.8069    793.85147    1906.9286   -169.03804   -181.69729    121.91151   -4761.0833 
37417000    69.443858   -5123.4779   -4989.5496   -5123.4779            0    2117.9047    19.922997    19.910017    20.741928    8227.6426    2951.3687    1315.9008    2086.4447    139.91445    90.716202    -54.34583   -4735.4186 
37418000    71.271261   -5115.5296   -4978.0769   -5115.5296            0    2142.5461    19.977921    19.951385    20.632178    8223.7223    2419.9659    1633.7468    2373.9255   -24.038358    30.293454   -33.016862   -4721.1116 
37419000    70.525575   -5116.4456   -4980.4311   -5116.4456            0    1877.1232    19.865049    19.969438    20.706304    8214.0638    1948.2789    1858.4387    1824.6521   -136.63781    643.84152   -537.40399   -4755.5635 
37420000    67.541878   -5116.2104   -4985.9502   -5116.2104            0    1409.0693    19.872223    20.020402    20.721461     8244.031    1382.1781    1297.2498      1547.78   -191.64878    748.91992    671.09955   -4816.5368 
37421000    67.396307   -5114.5038   -4984.5244   -5114.5038            0    1822.6398    19.906881    19.908098    20.785171    8237.3325    2969.0201    1151.0836    1347.8156   -343.26819    543.56026    99.595938   -4765.5651 
37422000    67.162934   -5122.1943    -4992.665   -5122.1943            0    1432.2745    19.941759    19.891647    20.815068    8256.8051    1831.6354    869.87518    1595.3128   -132.57831   -232.82444   -1142.0692   -4820.1947 
37423000    65.558776   -5121.5538   -4995.1182   -5121.5538            0    1843.4971    19.905546    19.982756    20.623919     8203.528    1662.8411     1775.281    2092.3693   -56.137542   -877.46393   -498.91597   -4774.5621 
37424000    68.279024   -5120.8132   -4989.1313   -5120.8132            0    1722.2005    19.915548    19.994449    20.693622    8240.2086    1356.8656    1828.5814    1981.1544    92.968086    54.669602   -226.89224   -4782.1659 
37425000    68.859849   -5124.3621   -4991.5601   -5124.3621            0    1578.8622    19.957225    19.959207     20.68966    8241.3204    2166.2753     858.7977    1711.5136    -146.6994    628.45149   -34.495792   -4801.7947 
37426000    65.506328   -5122.5681   -4996.2336   -5122.5681            0    1612.0965     19.94026    19.922324    20.773148     8252.264    1262.7779    2353.8586    1219.6531    206.67727   -465.75258    542.51962   -4802.2165 
37427000    66.824934   -5118.8718   -4989.9943   -5118.8718            0    1178.8998    20.005313    19.898938    20.732376    8253.2369    759.22469    1625.8786     1151.596   -34.373265     548.6515   -48.901969    -4848.096 
37428000    68.756269   -5122.2379   -4989.6357   -5122.2379            0      1981.93    19.943541     19.81103    20.906826    8260.3305    2597.8658    2042.4895    1305.4347   -266.08772    40.282302    74.361436   -4750.8757 
37429000     68.73629   -5115.4437   -4982.8799   -5115.4437            0     2002.745    19.913866    19.982999    20.754648    8259.0788    2575.5783    1356.1543    2076.5025   -160.75409    30.249802    700.34265   -4741.6489 
37430000    72.618659   -5124.0463   -4983.9951   -5124.0463            0     1944.242    19.976694    19.969472    20.664596    8243.6039    2556.2347    800.88268    2475.6087   -328.80871    202.36804     328.4877   -4750.2496 
37431000    66.192011   -5118.8044   -4991.1475   -5118.8044            0    2151.7419     19.87657    19.881165    20.816499     8226.043     2987.025    1755.3379    1712.8629   -122.30817    725.72265    68.141679   -4733.0065 
37432000    67.206425   -5120.3464   -4990.7332   -5120.3464            0    1970.1884    19.955141    19.947517    20.652848    8220.9803    1542.4149    2128.2191    2239.9312    26.276995      439.111    325.66573   -4754.5183 
37433000    65.106578   -5124.8834   -4999.3198   -5124.8834            0    1560.2138    20.022332     19.86645    20.780582    8265.9477    1766.3405     1178.317    1735.9838   -35.914261    44.385432    164.43579   -4811.2355 
37434000    66.763629    -5124.868   -4996.1088    -5124.868            0    1887.7744    19.974862    19.955384    20.635458    8225.4181    658.21473    2520.7931    2484.3154   -297.51826    190.97313    400.24347   -4769.6527 
37435000    69.257882   -5113.8592   -4980.2896   -5113.8592            0    3118.8825     19.89695    19.855519    20.658798     8161.553    3668.1969    2669.5841    3018.8663   -21.377148     314.4811    -187.6406   -4609.0556 
37436000     67.69603    -5113.292   -4982.7345    -5113.292            0    2584.1891    19.957041     19.96085    20.664203    8231.7817    2423.7395    2976.1031    2352.7246    387.47737    163.67985   -389.24687   -4672.4972 
37437000    64.932731   -5118.6847   -4993.4565   -5118.6847            0    1907.0272    19.984347    19.860272    20.795796    8253.7385    1226.3951    2574.4806     1920.206   -331.10271    23.090601    394.95308   -4763.9032 
37438000    69.871852   -5119.2886   -4984.5349   -5119.2886            0    2889.4408    19.937529    19.914344    20.669179    8206.5492    2079.3587    3876.8165    2712.1471   -107.11838    333.18246   -495.36103   -4638.7147 
37439000    63.035119   -5116.7728   -4995.2043   -5116.7728            0    1032.2286    20.048936    19.870549    20.678629    8238.0217    755.64143    1553.8459    787.19838   -303.45259    572.08664   -2.2155188   -4871.1892 
37440000     71.84604     -5117.35   -4978.7888     -5117.35            0    1887.4266    19.899704    19.967762    20.680555    8217.4714    2663.5396    575.42489    2423.3153    -252.7019    179.65623    -535.0011   -4752.5932 
37441000    66.622504   -5116.4268   -4987.9397   -5116.4268            0    1430.8639      19.9584     19.93127    20.715537    8240.5632     1573.073    1551.0859     1168.433    8.4705583    709.54283    708.46474   -4815.9783 
37442000    68.456299   -5117.3026   -4985.2789   -5117.3026            0     2243.186    20.043789    19.907655    20.597459    8218.8978    3518.4129     892.2618    2318.8834   -224.91695    705.88701    495.85611   -4716.4012 
37443000    68.124079   -5121.1251   -4989.7421   -5121.1251            0    2283.7135    19.982634    19.889029    20.721369    8235.4011    2451.0495    2505.6989    1894.3923   -394.33509    742.10089    395.22075    -4715.457 
37444000    72.308488   -5123.3109   -4983.8579   -5123.3109            0     2661.305    19.914397    19.917166    20.733329    8223.6333    2988.0876    2839.7461    2156.0815    74.093633   -99.340461    262.92529    -4664.679 
37445000    69.705103   -5124.5719   -4990.1398   -5124.5719            0    2662.1656     19.97008    19.857408    20.742532    8225.5346    2078.6279    2704.9912    3202.8777    57.440657    652.73759   -86.572867   -4670.7838 
37446000    67.298057    -5118.657    -4988.867    -5118.657            0    2132.6412     20.02674    19.891262    20.612468    8211.1236    1839.5179    1610.8023    2947.6033    186.24078    1285.1773    173.52357   -4733.4815 
37447000    67.852136   -5120.1692   -4989.3107   -5120.1692            0    1844.1372    19.937353     19.85352    20.830055    8245.0903    1492.0283    2526.7424     1513.641   -112.68249    690.11761    560.92632   -4767.5602 
37448000    68.346589   -5119.2688   -4987.4566   -5119.2688            0    1994.3361    19.878142    19.931484    20.692123     8198.237    2128.9954    2155.7942    1698.2188   -15.798708    542.97471    221.51153   -4749.0081 
37449000    71.234941   -5122.1256    -4984.743   -5122.1256            0    2129.5923    20.002195    19.909815    20.677155    8234.4706    1925.9451    2560.2474    1902.5845   -8.5536459    72.655077    429.94758   -4728.9975 
37450000      63.6497   -5115.1311   -4992.3773   -5115.1311            0    2009.0525    19.911311    19.915264    20.760494    8232.3454    2194.4506    2483.2035    1349.5035    104.59122    -169.2892    742.99088   -4751.1698 
37451000    66.911308   -5119.7281    -4990.684   -5119.7281            0    1820.1091     19.94162    19.956238    20.700059    8237.7894    2195.4383    1681.7962    1583.0927   -331.35626   -434.40123   -545.43371   -4772.0167 
37452000    68.810261   -5123.2487   -4990.5424   -5123.2487            0     944.9032      19.9725    19.979128    20.700387    8260.1404    1804.0111   -31.158441     1061.857    52.559687    109.43843    420.92412    -4876.714 
37453000    66.041153   -5121.9194   -4994.5534   -5121.9194            0    2542.1059    19.894454     19.93765    20.717658    8217.6314    3171.2396    2023.3521    2431.7259     253.1721    -130.5016    749.79007   -4689.8929 
37454000    64.060823   -5119.3982   -4995.8515   -5119.3982            0    1724.4982    19.999321    19.925634    20.776294    8279.3357    688.71072    2615.1516    1869.6322    448.19872    640.76117    130.75136   -4787.6259 
37455000    66.592452      -5127.1   -4998.6708      -5127.1            0    1948.9163    19.885412    19.978904    20.682205    8216.8073    2016.7991    1479.8756    2350.0741   -234.62632    397.66573     317.9757    -4765.125 
37456000    65.462356   -5125.0712   -4998.8216   -5125.0712            0    1200.8335    19.945261    19.877126    20.873007    8275.1971    476.99899    1788.0173    1337.4842    111.66937   -141.06768    -355.3598   -4853.8987 
37457000    65.514176   -5114.0764   -4987.7268   -5114.0764            0    2263.7515     19.93411    19.919239     20.68129    8211.9674    2860.4819    2006.3017    1924.4707   -42.046668    -706.1092   -267.60416   -4716.6128 
37458000    68.573576   -5116.8791   -4984.6292   -5116.8791            0    1551.3831    20.003808     19.87847    20.737558    8246.1886    2198.3644    789.20254    1666.5822    41.525709   -132.07014    49.420319   -4798.0565 
37459000    66.836272    -5116.531   -4987.6316    -5116.531            0    1957.8095    20.038675    19.923869    20.563476    8209.9256    558.45758    2527.0372    2787.9337   -406.86226   -163.19718     570.5467   -4753.2165 
37460000    71.563582   -5117.9639   -4979.9475   -5117.9639            0    2638.9177    19.833274    19.824863    20.829485    8189.9858    3308.6667    2421.6743     2186.412   -315.85026    645.51446   -303.22629   -4664.7485 
37461000    66.490802   -5116.4338   -4988.2007   -5116.4338            0    1554.4706    20.032005    19.916653     20.68798    8253.8934     707.6781    1991.9737    1963.7601   -491.99636   -464.79431   -245.92102    -4801.082 
37462000    63.778554   -5111.5908   -4988.5885   -5111.5908            0    1493.9576    19.950603    19.915849    20.876889    8295.0809    1356.7443    1838.1835    1286.9449   -91.501676    505.74637    609.02352   -4807.8566 
37463000    69.475553   -5115.4196   -4981.4302   -5115.4196            0    1699.8882    19.866838    19.941372    20.700312    8200.8843    2732.7752    1057.8569    1309.0325    3.6316946    1022.0344    432.57234    -4778.121 
37464000    69.256562   -5123.3319   -4989.7648   -5123.3319            0    1343.5806    19.944802    19.929292    20.735869    8242.2129    2133.9463     726.9649    1169.8307    172.61641    1060.3228    206.02065   -4828.2608 
37465000    67.887032   -5132.3153   -5001.3894   -5132.3153            0     1538.466    19.878654    19.978678    20.771187    8249.2609    1799.4697     1205.288    1610.6405   -36.119703   -107.63997    162.29194   -4816.3012 
37466000    66.172093   -5123.3927   -4995.7743   -5123.3927            0    1540.2427    19.909774    19.910019    20.836094    8259.5106    1718.2508    1492.1106    1410.3667   -288.02059   -595.89158    481.37534   -4810.2421 
37467000     65.75912   -5125.0837   -4998.2617   -5125.0837            0    1943.3833    19.976523    19.945525    20.654808    8229.7481    2898.0717    1189.6603    1742.4178   -60.724227      603.601    710.78382   -4765.0121 
37468000    68.292939    -5116.437   -4984.7284    -5116.437            0    1406.6707    20.022533    19.848213      20.7746    8256.0651    995.71197    1907.9751     1316.325   -324.62414    497.02803     2.489618   -4815.3564 
37469000    68.249557   -5116.3545   -4984.7295   -5116.3545            0    1985.1609    19.915717    20.014389    20.656159    8233.5639    3333.7461    914.37357     1707.363   -702.61548   -736.00519    481.74102   -4746.3552 
37470000     66.35322   -5125.6505   -4997.6827   -5125.6505            0    2301.5347    19.960134    19.863604    20.757446    8229.9161    1907.1278    2582.8335    2414.6427   -250.97313    471.88535   -72.590559   -4721.4413 
37471000    68.254797   -5122.8561    -4991.221   -5122.8561            0    2249.8784    19.939339    19.906204    20.768479     8243.353    2332.1472    1767.1985    2650.2896   -435.78731    367.90816    13.931411   -4720.7387 
37472000    65.978982   -5121.0677   -4993.8217   -5121.0677            0     2593.588    20.072671     19.84958    20.611022    8212.1336    2102.3522     2695.435    2982.9766   -328.47443    568.17039    157.84883   -4683.1993 
37473000     64.64129   -5118.9584   -4994.2922   -5118.9584            0    1997.2257    19.909626    19.892834    20.774956    8228.1059    2577.3758    1765.6881    1648.6134    69.122909    -442.5811   -23.000893   -4754.6282 
37474000     65.23659   -5115.0642   -4989.2499   -5115.0642            0    1952.6122    19.961754    19.919119     20.64848    8210.2599    1618.7594    2466.9188    1772.1584   -80.544939    461.95109    202.57076   -4755.4476 
37475000    64.492041   -5119.8948   -4995.5165   -5119.8948            0    1935.7397    19.988963    19.937175    20.620497    8217.7515    1425.3361    2216.8726    2165.0105   -174.01291    195.54494    164.13713    -4763.523 
37476000    68.349889   -5122.9486   -4991.1301   -5122.9486            0     2304.817    19.922809    19.941086    20.691674    8220.4387    2763.0939     1592.013    2559.3442   -220.45425    1388.0897   -449.99371   -4714.8133 
37477000    71.877252   -5113.1593    -4974.538   -5113.1593            0    2805.3864    19.963112    19.844744    20.804026    8241.7821    1747.7132    3624.8409    3043.6051    145.81977   -295.54377    307.79375   -4637.3363 
37478000    67.007908   -5110.3748   -4981.1444   -5110.3748            0    2490.6817    20.014107    19.898942    20.638294    8219.3974    2373.1962    2608.5649     2490.284    69.121022   -21.205786    366.94874   -4682.5827 
37479000    68.888566   -5118.8118   -4985.9544   -5118.8118            0    1646.3027    20.006449    19.951771    20.663191    8248.0039    1377.6396    1053.2095    2508.0589    281.69072     546.0602    215.20539   -4787.9228 
37480000    69.411809   -5113.3004   -4979.4339   -5113.3004            0    2099.4244    19.890732    19.995515    20.695868    8231.2731    1978.5642    1739.4995    2580.2095    104.66912   -175.76689   -91.321793   -4727.4092 
37481000    69.463944   -5117.6595   -4983.6924   -5117.6595            0    2158.4551    19.887971    19.869891    20.850272    8239.4397     2261.498    2413.5627    1800.3048   -22.479843    1139.0279   -574.55638   -4724.3243 
37482000    67.376967   -5119.3144   -4989.3722   -5119.3144            0    2076.4643    19.943342    19.955783     20.71391    8243.8255     2717.353    1107.7797    2404.2603    130.88932    1496.7129     686.2925   -4739.7236 
37483000    68.613388   -5123.9423   -4991.6157   -5123.9423            0     2265.893    20.019747    19.813367    20.678739    8202.3996    2527.7165    1518.2781    2751.6845   -43.598109   -2.7671254   -399.09275   -4720.5614 
37484000    70.507769   -5120.3673   -4984.3872   -5120.3673            0    1136.6539    20.000785    20.012026    20.627847    8256.4245    676.17363    631.34096    2102.4471   -31.987458    149.05035    21.901651    -4847.521 
37485000    68.619907   -5127.5685   -4995.2293   -5127.5685            0    2376.5473    19.833419    19.996011    20.639008     8185.209    3065.2143    1356.9337    2707.4938   -63.782549    492.72898    46.212935    -4711.534 
37486000    65.411972   -5122.3857   -4996.2332   -5122.3857            0    2060.4036    19.986041     19.91307    20.709167    8241.9055    2608.2032    1572.1563    2000.8511    112.17699     344.9782   -64.321597   -4748.5733 
37487000    66.655427   -5119.6025   -4991.0519   -5119.6025            0    1369.2041      19.8499     20.08139     20.78783    8286.3115     2032.574    985.27748     1089.761   -189.57039   -145.72174    246.06944   -4825.5872 
37488000    71.899075    -5125.402   -4986.7386    -5125.402            0    1706.5688    19.908498    19.965085    20.718162    8234.9484    2203.8075    1321.2978    1594.6013    49.617705     864.9438    109.60468   -4781.7826 
37489000    64.743918   -5114.2142   -4989.3501   -5114.2142            0    2514.2894    19.956678    19.835514    20.757623    8216.9251    2685.4192    2941.4426    1916.0064    74.595525   -209.50887    35.207782   -4688.0492 
37490000    69.068494   -5118.4263   -4985.2219   -5118.4263            0    2867.5319    19.829721    20.028067    20.703006    8222.2189    3147.8552    2478.7946    2975.9459    53.921136    863.35371    110.08477   -4641.3686 
37491000    62.956975   -5115.0742   -4993.6563   -5115.0742            0    1314.2478    19.892607    19.983075    20.741905    8245.2275    1634.1049    1182.2309    1126.4077   -29.243466    392.47998    325.71887   -4835.6204 
37492000      66.9978   -5120.0281   -4990.8172   -5120.0281            0    2689.4508    19.920336    19.948822    20.659707    8209.9041    2116.4251    3038.7226    2913.2047   -3.9124074    1128.1449   -783.40295   -4668.8011 
37493000      67.5778   -5116.7581   -4986.4287   -5116.7581            0    1153.5258    19.966587    19.932006    20.769539    8265.7393    480.06385    1608.4263    1372.0871   -126.47512    144.85811    389.09657   -4847.3742 
37494000    67.957136   -5116.0494   -4984.9884   -5116.0494            0    2604.0488    20.000558    19.953141    20.613586    8226.3452    2766.1184    2621.5643    2424.4638   -81.655313   -133.59722    -224.7883   -4672.5733 
37495000    70.689912   -5114.8596   -4978.5281   -5114.8596            0    2413.4761     19.93028    19.842724    20.784015    8219.4763    2136.9756    2566.8147    2536.6379   -326.95812     754.3846    576.32878   -4689.2184 
37496000     68.87121   -5116.4924   -4983.6685   -5116.4924            0    1473.6831     19.91468    19.967074    20.751075    8251.4138    2894.0573    179.27567    1347.7165   -189.93222   -419.55609   -81.714623   -4806.3278 
37497000    68.314103   -5121.4937   -4989.7442   -5121.4937            0    1216.4179    20.027854     19.89294    20.647619    8226.2774    1624.9678    407.29483    1616.9912    57.688374    448.99647   -490.92009   -4843.8084 
37498000     68.96403   -5114.7494   -4981.7465   -5114.7494            0    1803.6629    19.902948    19.901205    20.789024    8234.3795    1617.1612    1644.0053    2149.8222    -188.0785   -430.37209   -207.55013   -4765.1446 
37499000    64.945435   -5119.3913   -4994.1386   -5119.3913            0    2012.3403    19.943152    19.805285    20.819433    8223.2553    2337.6162    2658.7881    1040.6165   -377.74421    11.052051    673.51628   -4752.8032 
37500000    69.799475   -5109.2008   -4974.5867   -5109.2008            0    2321.6631    19.969589    19.907373    20.671334     8217.725    2095.3623     2187.651    2681.9761    129.39514    236.29684     -261.396   -4696.3421 
Loop time of 351.87 on 64 procs for 250000 steps with 972 atoms

Performance: 122.773 ns/day, 0.195 hours/ns, 710.489 timesteps/s
194.2% CPU use with 32 MPI tasks x 2 OpenMP threads

MPI task timing breakdown:
Section |  min time  |  avg time  |  max time  |%varavg| %total
---------------------------------------------------------------
Pair    | 25.903     | 34.374     | 44.361     |  76.9 |  9.77
Bond    | 1.0056     | 1.23       | 1.5336     |  10.9 |  0.35
Kspace  | 153.1      | 164.57     | 173.27     |  37.5 | 46.77
Neigh   | 0.11255    | 0.11928    | 0.12622    |   1.2 |  0.03
Comm    | 61.027     | 63.451     | 66.11      |  16.1 | 18.03
Output  | 0.52125    | 0.52158    | 0.52318    |   0.0 |  0.15
Modify  | 70.416     | 71.357     | 72.704     |   6.6 | 20.28
Other   |            | 16.25      |            |       |  4.62

Nlocal:        30.3750 ave          36 max          23 min
Histogram: 1 1 1 4 4 4 10 3 2 2
Nghost:        2645.22 ave        2666 max        2623 min
Histogram: 2 2 4 2 7 2 7 0 1 5
Neighs:        9589.84 ave       12207 max        6622 min
Histogram: 1 3 2 3 5 4 5 4 4 1

Total # of neighbors = 306875
Ave neighs/atom = 315.71502
Ave special neighs/atom = 2.0000000
Neighbor list builds = 326
Dangerous builds = 0

unfix		3
unfix		2
unfix		1

write_data	data.final.${pid}
write_data	data.final.1
System init for write_data ...
PPPM initialization ...
  extracting TIP4P info from pair style
  using 12-bit tables for long-range coulomb (../kspace.cpp:340)
  G vector (1/distance) = 0.37153776
  grid = 24 24 24
  stencil order = 5
  estimated absolute RMS force accuracy = 0.0035924897
  estimated relative force accuracy = 1.0818676e-05
  using double precision FFTW3
  3d grid and FFT values/proc = 3211 432
Last active /omp style is kspace_style pppm/tip4p/omp
WARNING: Not all mixed pair coeffs generated from mixing. Use write_data with 'pair ij' option to store all pair coeffs. (../write_data.cpp:312)

write_restart   restart.lmp.${pid}
write_restart   restart.lmp.1
System init for write_restart ...
PPPM initialization ...
  extracting TIP4P info from pair style
  using 12-bit tables for long-range coulomb (../kspace.cpp:340)
  G vector (1/distance) = 0.37153776
  grid = 24 24 24
  stencil order = 5
  estimated absolute RMS force accuracy = 0.0035924897
  estimated relative force accuracy = 1.0818676e-05
  using double precision FFTW3
  3d grid and FFT values/proc = 3211 432
Last active /omp style is kspace_style pppm/tip4p/omp
Total wall time: 0:05:51
