#include		in.partitions
include		in.temp
variable        temperature equal 267.41
variable	tempDamp equal 100.0
include		in.pressure
variable        pressure equal 8875.0
variable        pressureDamp equal 1000.0 # This is 1 ps
include		in.seed
variable        seed equal 745823

units		real
atom_style	full
read_restart	restart.lmp.${pid}
read_restart	restart.lmp.1
Reading restart file ...
  restart file = 30 Jul 2021, LAMMPS = 30 Jul 2021
  restoring atom style full from restart
  orthogonal box = (0.62242375 1.8246642 0.75935552) to (17.585149 21.804514 21.453840)
  2 by 4 by 4 MPI processor grid
  restoring pair style lj/cut/tip4p/long/omp from restart
  restoring bond style harmonic/omp from restart
  restoring angle style harmonic/omp from restart
  864 atoms
  576 bonds
  288 angles
Finding 1-2 1-3 1-4 neighbors ...
  special bond factors lj:    0        0        0       
  special bond factors coul:  0        0        0       
     2 = max # of 1-2 neighbors
     1 = max # of 1-3 neighbors
     1 = max # of 1-4 neighbors
     2 = max # of special neighbors
  special bonds CPU = 0.002 seconds
  read_restart CPU = 0.008 seconds
include 	in.setup
variable	out_freq equal 1000
variable	out_freq2 equal 10000
variable	out_freq3 equal 1000

timestep	2.0

neigh_modify    delay 7 every 1

include		in.tip4p
# This is TIP4P/Ice

# create groups ###
group ox type 2
288 atoms in group ox
group hy type 1
576 atoms in group hy

# set charges - beside manually ###
set group ox charge -1.1794
Setting atom values ...
  288 settings made for charge
set group hy charge 0.5897
Setting atom values ...
  576 settings made for charge

# ### TIP3P Potential Parameters ###
pair_style lj/cut/tip4p/long/omp 2 1 1 1 0.1577 8.5
pair_coeff 1 1*2 0.000 0.000
pair_coeff 2 2 0.21084 3.1668
bond_style  harmonic
bond_coeff  1 450 0.9572
angle_style harmonic
angle_coeff 1 55 104.52
kspace_style pppm/tip4p/omp 1.0e-5
pair_modify tail yes

thermo          ${out_freq}
thermo          1000
thermo_style    custom step temp pe etotal epair emol press lx ly lz vol pxx pyy pzz pxy pxz pyz enthalpy

restart 	${out_freq3} restart.lmp.${pid} restart2.lmp.${pid}
restart 	1000 restart.lmp.${pid} restart2.lmp.${pid}
restart 	1000 restart.lmp.1 restart2.lmp.${pid}
restart 	1000 restart.lmp.1 restart2.lmp.1


include         in.dump
dump            myDump all atom ${out_freq2} dump.water.${pid}
dump            myDump all atom 10000 dump.water.${pid}
dump            myDump all atom 10000 dump.water.1
dump            myDump2 all dcd ${out_freq2} dump.dcd
dump            myDump2 all dcd 10000 dump.dcd
dump_modify     myDump append yes
dump_modify     myDump2 append yes


variable natoms 	equal  "count(all)"                        # NUMBER ATOMS
variable H      	equal  "enthalpy/v_natoms"                 # ENTHALPY-per-atom
variable Vol      	equal  "vol/v_natoms"                 # volume-per-atom
fix AVG all 		ave/time ${out_freq} 1 ${out_freq} v_Vol v_H file vol_enthalpy.dat
fix AVG all 		ave/time 1000 1 ${out_freq} v_Vol v_H file vol_enthalpy.dat
fix AVG all 		ave/time 1000 1 1000 v_Vol v_H file vol_enthalpy.dat


timer           timeout 23:50:00 every 1000
New timer settings: style=normal  mode=nosync  timeout=23:50:00

fix 		1 all shake 1e-6 200 0 b 1 a 1
       0 = # of size 2 clusters
       0 = # of size 3 clusters
       0 = # of size 4 clusters
     288 = # of frozen angles
  find clusters CPU = 0.001 seconds
fix             2 all nph iso ${pressure} ${pressure} ${pressureDamp}
fix             2 all nph iso 8875 ${pressure} ${pressureDamp}
fix             2 all nph iso 8875 8875 ${pressureDamp}
fix             2 all nph iso 8875 8875 1000
fix             3 all temp/csvr ${temperature} ${temperature} ${tempDamp} ${seed}
fix             3 all temp/csvr 267.41 ${temperature} ${tempDamp} ${seed}
fix             3 all temp/csvr 267.41 267.41 ${tempDamp} ${seed}
fix             3 all temp/csvr 267.41 267.41 100 ${seed}
fix             3 all temp/csvr 267.41 267.41 100 745823

run             250000
PPPM initialization ...
  extracting TIP4P info from pair style
  using 12-bit tables for long-range coulomb (../kspace.cpp:340)
  G vector (1/distance) = 0.37432117
  grid = 24 24 24
  stencil order = 5
  estimated absolute RMS force accuracy = 0.0031542123
  estimated relative force accuracy = 9.4988166e-06
  using double precision FFTW3
  3d grid and FFT values/proc = 3549 432
Last active /omp style is kspace_style pppm/tip4p/omp
Neighbor list info ...
  update every 1 steps, delay 7 steps, check yes
  max neighbors/atom: 2000, page size: 100000
  master list distance cutoff = 10.8154
  ghost atom cutoff = 10.8154
  binsize = 5.4077, bins = 4 4 4
  1 neighbor lists, perpetual/occasional/extra = 1 0 0
  (1) pair lj/cut/tip4p/long/omp, perpetual
      attributes: half, newton on, omp
      pair build: half/bin/newton/omp
      stencil: half/bin/3d
      bin: standard
Per MPI rank memory allocation (min/avg/max) = 10.19 | 10.20 | 10.20 Mbytes
Step Temp PotEng TotEng E_pair E_mol Press Lx Ly Lz Volume Pxx Pyy Pzz Pxy Pxz Pyz Enthalpy 
 4500000    278.06791   -3811.0189     -3334.42   -3811.0189            0    9322.8555    16.962725    19.979849    20.694485    7013.6235    8227.4585     10432.95    9308.1585   -934.18122   -95.040547    378.46982   -2380.8177 
 4501000    277.40141   -3825.5981   -3350.1416   -3825.5981            0    10017.475     16.91556    19.924295    20.636943    6955.2813    9714.8249    11040.018     9297.582    239.90563    2094.8823    2867.2339   -2334.0126 
 4502000    268.18796    -3838.311   -3378.6461    -3838.311            0     10460.49    16.962445    19.979519    20.694143    7013.2759    9287.2459    11072.336    11021.888    679.59443   -319.95623   -233.28278   -2308.7321 
 4503000      255.575   -3836.4256   -3398.3788   -3836.4256            0     9494.447    16.951398    19.966507    20.680666    6999.5824    10476.484     9459.375    8547.4818   -44.743852   -1827.8064   -40.465199   -2429.1692 
 4504000    249.25029   -3883.9292   -3456.7227   -3883.9292            0    7033.1055    16.996676    20.019839    20.735905    7055.8212     6867.761    6953.1656      7278.39   -36.078932    61.730193   -628.21612   -2733.0027 
 4505000    266.70349   -3852.8808   -3395.7602   -3852.8808            0    8221.4754    17.016986    20.043762    20.760684    7081.1461    9544.8035     8573.196    6546.4266   -339.76655    -1369.547    515.59487   -2546.7181 
 4506000    277.10138   -3828.1301   -3353.1878   -3828.1301            0    11054.126    16.853159    19.850795    20.560814    6878.5915    12119.036    9569.3145    11474.028    9.4531041    1707.4801   -307.38549   -2244.2688 
 4507000    276.41446   -3817.9046   -3344.1396   -3817.9046            0    9114.2408     16.98511    20.006216    20.721795    7041.4274    8719.0565    9291.2294    9332.4366    1989.1479   -1121.3322    387.96997   -2408.1801 
 4508000    265.36311    -3808.738   -3353.9147    -3808.738            0    9016.8541    16.966137    19.983869    20.698648    7017.8571     8299.146     9992.267    8759.1492    1402.8342    849.85987   -387.57682   -2431.0555 
 4509000    290.10586   -3821.2263   -3323.9948   -3821.2263            0     11175.04    16.858703    19.857325    20.567578    6885.3821    12076.058    11421.091    10027.971    1217.1319    930.92367   -196.24462   -2201.8393 
 4510000    268.93289   -3802.4509   -3341.5091   -3802.4509            0    10047.148     16.94646    19.960691    20.674641    6993.4669    9083.0243     9793.125    11265.295    2505.4969    1700.5603   -760.12958    -2316.775 
 4511000    277.18587   -3844.3897   -3369.3026   -3844.3897            0     9607.601    17.031839    20.061257    20.778804    7099.7038    7762.5832     9567.125    11493.095   -479.80946    652.68127   -807.49391   -2374.5134 
 4512000    295.31091   -3845.2077   -3339.0549   -3845.2077            0    10278.761    16.978064    19.997916    20.713198    7032.6672    12325.361    8838.9054    9672.0168    1986.9377   -71.042527    -2138.743   -2284.8217 
 4513000    279.63619    -3827.483   -3348.1962    -3827.483            0    9249.4129     16.99544    20.018383    20.734397    7054.2816    8400.3521    8667.1605    10680.726    1026.9267    102.60714     832.5574   -2396.6216 
 4514000    270.30688   -3850.9887    -3387.692   -3850.9887            0    10557.073    16.893164    19.897915     20.60962    6927.6916    12001.269     10438.14    9231.8102    39.107456    25.877248    1669.4735   -2321.0763 
 4515000     278.2312   -3845.3418   -3368.4631   -3845.3418            0    9438.7538    16.891844    19.896361    20.608011    6926.0687    9501.4076    8374.1457    10440.708    299.04076    695.28741   -383.10309   -2415.0583 
 4516000    265.94889   -3816.1073   -3360.2799   -3816.1073            0    12234.898    16.887467    19.891206     20.60267    6920.6858    12746.546     11355.25    12602.897     360.6638    435.59409    877.37515   -2125.3982 
 4517000    276.83112   -3854.0393   -3379.5602   -3854.0393            0    9595.5279    16.962134    19.979153    20.693763    7012.8901    10937.734    9024.8048    8824.0448   -863.88132    930.77252   -1825.3494   -2398.1699 
 4518000    259.11201   -3868.3989   -3424.2897   -3868.3989            0     10160.24     16.92525    19.935709    20.648766    6967.2418    8741.3658    9870.4732    11868.882    215.01839    601.72335    162.48303    -2391.907 
 4519000    265.73685   -3836.6149   -3381.1511   -3836.6149            0    10758.184    16.894695    19.899719    20.611489    6929.5762    10638.273    9714.5156    11921.764   -264.89004   -500.11505    1121.2039   -2293.9208 
 4520000    248.36411   -3814.4596    -3388.772   -3814.4596            0    10143.918    16.946745    19.961028     20.67499    6993.8208    12860.689    8481.4579    9089.6084   -761.87912    832.80896    353.46057   -2354.1157 
 4521000    272.06597   -3853.2905   -3386.9788   -3853.2905            0    9520.0629    16.954245    19.969861     20.68414    7003.1105    10069.957    9120.3064    9369.9253   -690.68755   -708.85812    121.50643   -2414.6645 
 4522000    280.45159    -3849.414   -3368.7296    -3849.414            0    9246.5849    16.990676    20.012772    20.728585    7048.3515    9510.4532      8968.72    9260.5817    805.52653    260.21622   -846.32985   -2418.2456 
 4523000    253.51243   -3866.1175   -3431.6058   -3866.1175            0     9569.383    16.955178     19.97096    20.685277    7004.2662    9804.4111    9131.9062    9771.8318   -1979.4215    192.74405    980.25005    -2454.093 
 4524000    276.74666   -3814.6569   -3340.3226   -3814.6569            0    9569.9494    17.022129    20.049819    20.766957    7087.5674    9930.6305    8978.7775    9800.4403    16.645058    2372.2523    827.72305   -2351.1257 
 4525000    266.09927   -3844.2713   -3388.1863   -3844.2713            0    8896.3411    16.968485    19.986634    20.701512    7020.7709    7579.8755    8792.1816    10316.966    942.63248    494.91361   -604.85604   -2477.2833 
 4526000    278.97496   -3844.0023   -3365.8488   -3844.0023            0    8548.0725    17.007897    20.033056    20.749594    7069.8046    8704.3964    10102.543    6837.2778   -553.32821    893.91217   -183.31707   -2484.4925 
 4527000    277.77166    -3832.775   -3356.6839    -3832.775            0    8129.5245    16.990656    20.012749    20.728561    7048.3273    8593.7257    8016.0797    7778.7682     2125.712   -32.989994   -780.37684   -2521.0288 
 4528000    262.90846   -3873.4626   -3422.8465   -3873.4626            0    8879.3268    17.021767    20.049393    20.766516    7087.1154    8458.9208    9923.5045    8255.5552     1042.136   -55.145848    293.88451   -2505.0943 
 4529000    261.52697   -3885.7703    -3437.522   -3885.7703            0    7914.5302    16.998723     20.02225    20.738402     7058.371    6259.9158    10992.513    6491.1617    807.78143    1007.4467    -38.73076   -2622.8074 
 4530000    260.45856   -3825.1011   -3378.6841   -3825.1011            0     8500.722    16.978487    19.998415    20.713714    7033.1932    8203.7865     7202.075    10096.304    -722.7507   -34.618335   -75.579511   -2506.7488 
 4531000    260.04847   -3771.0879   -3325.3738   -3771.0879            0    9936.4351    16.953453    19.968928    20.683173    7002.1288    11390.906    7894.8603    10523.539    1080.3193   -329.15703    252.46814   -2310.6763 
 4532000    256.90118   -3772.6668    -3332.347   -3772.6668            0    9497.2782     16.95845    19.974814    20.689269    7008.3221    9249.8625    9624.6863    9617.2859    872.21127   -871.44635    1072.1281   -2361.6379 
 4533000    262.82133   -3820.2666   -3369.7998   -3820.2666            0    8760.1987    17.053644     20.08694    20.805406    7127.0067    7649.4374    9087.2829    9543.8757    68.973521     969.5135   -99.088298    -2459.264 
 4534000    264.21615   -3868.0778   -3415.2204   -3868.0778            0     10300.81    16.971095    19.989708    20.704696    7024.0108    9980.3027    9108.4369     11813.69   -356.50445    174.93746   -895.67771   -2360.0261 
 4535000    260.94274   -3876.9541   -3429.7072   -3876.9541            0    8307.7262     16.91143    19.919431    20.631905    6950.1888    7779.5256    9657.2779    7486.3752    1062.6277   -200.06303    430.08791   -2587.6247 
 4536000    251.46778   -3813.4523   -3382.4452   -3813.4523            0    8027.4959    16.949478    19.964246    20.678323    6997.2043    7205.3122    10030.969    6846.2067    549.55769    911.68549   -628.19509   -2563.2629 
 4537000    267.03113   -3829.0803   -3371.3981   -3829.0803            0    6354.9721    17.016987    20.043763    20.760684    7081.1466    6349.3174    5519.7952    7195.8037    1059.6465   -528.98156   -485.39927   -2715.1121 
 4538000     273.2542   -3829.5012   -3361.1529   -3829.5012            0    7908.5503    16.978154    19.998023    20.713309    7032.7798    8906.2608    7036.6634    7782.7269    404.96327    1501.5809    1057.7374   -2550.0054 
 4539000    264.01495   -3807.6896    -3355.177   -3807.6896            0    8865.5416    16.983833    20.004712    20.720237    7039.8394    8278.1696    9800.7017    8517.7534    268.31193   -1132.4717    540.15009   -2444.9622 
 4540000    265.03338   -3850.4442   -3396.1861   -3850.4442            0    9545.9251    16.955014    19.970767    20.685078    7004.0636        10060     9576.584    9001.1909   -219.27588    78.360807    220.81892   -2421.0977 
 4541000    267.07708   -3867.8654   -3410.1045   -3867.8654            0    8008.7682    16.969768    19.988145    20.703078    7022.3637    7837.6696    7533.3834    8655.2517    73.550158    258.90697    896.48319   -2589.8947 
 4542000    255.70924    -3820.711   -3382.4341    -3820.711            0    9560.6273    16.905538     19.91249    20.624716    6942.9261    10346.786    9032.0039    9303.0917   -421.55055    2343.0809    9.4357048   -2414.3685 
 4543000    262.51122   -3840.3451   -3390.4099   -3840.3451            0    8182.0277    17.026469    20.054931    20.772252    7092.9903    6758.0645    10063.176    7724.8424    403.54847   -175.80756   -1448.0405   -2544.0283 
 4544000    267.60458   -3836.9499   -3378.2849   -3836.9499            0    8842.1488    16.983927    20.004823    20.720352    7039.9564    7667.9417    9029.0882    9829.4166    986.58805   -593.74054   -1205.2036   -2470.4566 
 4545000    255.93904   -3866.6763   -3428.0056   -3866.6763            0    9003.8152    16.942796    19.956376    20.670172    6988.9329    7259.5205    10356.993    9394.9319   -657.31979   -14.605607    741.40853    -2510.279 
 4546000    277.10806   -3836.9276   -3361.9738   -3836.9276            0    8383.0477    17.009533    20.034983    20.751591    7071.8456    7403.0653    8486.2468    9259.8312   -189.11694   -1554.2863   -43.147117   -2497.3831 
 4547000    260.06182   -3838.2459   -3392.5088   -3838.2459            0    10944.879    16.915992    19.924804    20.637471    6955.8148    10848.019    12499.656    9486.9624   -463.38447    1415.1055    1168.2628   -2282.2228 
 4548000    261.87484   -3836.6733   -3387.8288   -3836.6733            0    8563.8069    16.993374     20.01595    20.731877      7051.71     9015.956    9807.9783    6867.4863    123.31373    884.29145   -875.96287   -2507.1102 
 4549000    262.30602   -3802.8513   -3353.2678   -3802.8513            0     10837.98    16.924727    19.935093    20.648128    6966.5958    10637.678    11802.841    10073.422   -142.11366   -69.228111   -1143.2342   -2252.1219 
 4550000    268.12207    -3860.539    -3400.987    -3860.539            0    10253.272    16.926558     19.93725    20.650361    6968.8571    8820.4049     10943.35    10996.061    -633.8077    723.36856   -311.32331   -2358.9097 
 4551000    279.61796   -3842.1651   -3362.9095   -3842.1651            0    10123.398    16.945334    19.959365    20.673268    6992.0732    11678.021    7937.1189    10755.054    -712.9288    354.56643    420.57552   -2330.6042 
 4552000    280.75227   -3863.5647    -3382.365   -3863.5647            0    9744.3426    16.924012     19.93425    20.647255    6965.7122    11970.867    8962.6002    8299.5608   -120.24476    953.52308   -96.418685    -2392.459 
 4553000    249.59662   -3831.9535   -3404.1534   -3831.9535            0    10073.238    16.892656    19.897318    20.609001    6927.0676    9109.6134    10441.481    10668.621   -506.07428    -237.9016   -246.87389   -2386.5128 
 4554000     268.7994    -3809.434   -3348.7211    -3809.434            0    9261.7879    16.942996    19.956611    20.670415    6989.1797    11020.679    9172.0716     7592.613    578.71719   -1022.7621    272.39112   -2404.6669 
 4555000    255.93752   -3828.9138   -3390.2456   -3828.9138            0    9820.5249    16.929519    19.940737    20.653973    6972.5146    11103.608    8884.3069    9473.6602    217.87553    811.83384    827.96731   -2391.6262 
 4556000     279.3467   -3829.9315   -3351.1408   -3829.9315            0    7755.0388     16.99976    20.023472    20.739668    7059.6629    7734.3488    7279.4057    8251.3618     1187.703    738.04214    1427.8111   -2552.6979 
 4557000    272.60638   -3848.8306   -3381.5926   -3848.8306            0    9520.0734    16.937675    19.950343    20.663924    6982.5965    8530.5973    11658.476    8371.1471    -230.0283   -1812.9671    201.61144   -2412.1254 
 4558000    263.38953   -3838.0626   -3386.6219   -3838.0626            0    8957.9641    17.003497    20.027873    20.744226    7064.3189    9123.9178    9140.6135    8609.3609    298.43035   -1118.4159   -2079.2617   -2463.7201 
 4559000    261.56266    -3836.692   -3388.3826    -3836.692            0     6755.964    17.015858    20.042433    20.759307    7079.7377    5691.6352    6895.4808     7680.776    252.38437    564.57619   -1712.1651   -2690.8245 
 4560000     247.7856   -3847.7107   -3423.0147   -3847.7107            0    8249.0484    17.020741    20.048184    20.765264    7085.8335     8572.062    8147.5988    8027.4843    1.4893314   -46.501232    -799.8106   -2570.5612 
 4561000     262.7041   -3818.3808   -3368.1149   -3818.3808            0     10164.59    16.922646    19.932642    20.645588    6964.0261     8554.749    9671.2218      12267.8   -498.75919   -103.37058   -51.942501   -2335.7669 
 4562000    277.91893   -3856.9349   -3380.5914   -3856.9349            0    8161.1906    17.029649    20.058678    20.776133    7096.9658    8464.1469    7507.2409    8512.1841    197.70321    1121.5842   -157.59694   -2535.8921 
 4563000    280.15651   -3829.1352   -3348.9565   -3829.1352            0    7640.9931    16.952164    19.967409      20.6816    7000.5311     9007.396    6918.9079    6996.6754    1518.8248    -863.2667    -63.51524    -2568.845 
 4564000     272.2975   -3837.9889   -3371.2803   -3837.9889            0    9331.1991    16.945435    19.959484    20.673391    6992.1981    8931.1709    9225.8083    9836.6183   -1232.4538   -1317.7418   -1113.6416   -2419.7402 
 4565000    260.37883   -3843.6887   -3397.4083   -3843.6887            0    10476.417    16.884812    19.888078    20.599431     6917.422    11314.202     9826.465    10288.585    951.67726    555.89312    279.47761   -2340.5106 
 4566000     274.7675   -3817.6821     -3346.74   -3817.6821            0    9582.4684    17.009187    20.034575    20.751168    7071.4133    9058.4589    8439.9591    11248.987   -163.13127   -1047.2703    476.06666   -2358.5066 
 4567000    252.43166   -3856.2945   -3423.6352   -3856.2945            0     9012.602    16.957766    19.974009    20.688435    7007.4743    8819.9688    9758.0824    8459.7547    727.55072     -1256.62   -1936.7742   -2502.5759 
 4568000    264.23342   -3828.9503   -3376.0633   -3828.9503            0    8943.1717    16.933704    19.945667     20.65908    6977.6873    9762.8108    10811.994    6254.7105    230.69924   -760.87082    1354.5684   -2465.9846 
 4569000    259.97102   -3863.9201   -3418.3386   -3863.9201            0    9936.4043    16.975714    19.995149    20.710331    7029.7478    9891.3409    9355.5956    10562.276    1440.1318   -1425.1265   -1326.8289    -2399.642 
 4570000    259.68594   -3818.5353   -3373.4425   -3818.5353            0    9336.3448    17.015539    20.042057    20.758917    7079.3386    9729.5316    9846.5694    8432.9335    791.28127   -293.89774    731.11156   -2409.5126 
 4571000    251.64764   -3801.1162   -3369.8008   -3801.1162            0     9684.911    16.979632    19.999764    20.715112    7034.6168    9484.7745    9656.6253    9913.3334   -191.75809    -118.0725   -1254.9496   -2376.1999 
 4572000    287.36864   -3827.4183   -3334.8783   -3827.4183            0    7645.0889    17.105969    20.148572    20.869242    7192.8109    8769.1712    7511.9535    6654.1419   -4.5652712    188.95443   -650.56184   -2532.9102 
 4573000    262.16516   -3849.2283   -3399.8862   -3849.2283            0    9972.0845    16.892298    19.896896    20.608565    6926.6273    11582.938     11207.63    7125.6853   -762.70006    988.59777    555.79894   -2392.5286 
 4574000    270.67045   -3836.4212   -3372.5013   -3836.4212            0    9867.4604    16.917487    19.926565    20.639294    6957.6585    10815.841    10469.325    8317.2153    114.09949    1195.7151    3436.3707    -2371.247 
 4575000    260.35916   -3806.3252   -3360.0785   -3806.3252            0    6817.2953    17.032869     20.06247     20.78006    7100.9915    5286.6034    7228.1321    7937.1504   -43.088101   -115.99984    242.50034   -2654.0748 
 4576000    261.32411    -3848.341   -3400.4404    -3848.341            0    7623.5904    16.944504    19.958387    20.672255    6991.0461    8938.3459    6941.2454    6991.1798   -813.69519    277.49051     291.7162   -2623.1602 
 4577000    251.85045    -3848.314    -3416.651    -3848.314            0    7837.4174    16.926607    19.937307    20.650421    6968.9177    8993.0553    8416.3581    6102.8386   -286.49963   -194.15579    57.816939   -2620.0988 
 4578000    275.16751   -3820.8643   -3349.2366   -3820.8643            0    9008.4103    16.965579    19.983212    20.697967    7017.1649    9287.1281    9548.0344    8190.0684   -709.15662    58.298892   -101.65981   -2427.3325 
 4579000     269.0707   -3862.9287   -3401.7507   -3862.9287            0    10882.984    16.821786    19.813842    20.522539    6840.2486    12145.126    11623.093    8880.7319   -899.68938    1721.0099    2259.2583   -2316.0859 
 4580000     270.0148    -3835.991   -3373.1948    -3835.991            0     8433.062    16.920442    19.930045    20.642899    6961.3053    8286.1208    9792.2671    7220.7981     42.03764    -1104.834    540.39482   -2517.0409 
 4581000     263.0793   -3835.1377   -3384.2288   -3835.1377            0    8406.0224    16.916769    19.925719    20.638418    6956.7731    8658.0255    7658.9213    8901.1205    1485.1772    895.68103   -1434.3111   -2531.3756 
 4582000    255.54308    -3853.416   -3415.4239    -3853.416            0    9235.6044    16.937854    19.950555    20.664143    6982.8189    10073.169    10199.218    7434.4264     669.9482    -314.2787   -1441.4195   -2474.8953 
 4583000    252.05709    -3858.018   -3426.0007    -3858.018            0    10174.155    16.942796    19.956376    20.670171    6988.9323    8899.4923    10311.316    11311.655   -1616.2767   -908.64042   -80.867027   -2388.9857 
 4584000    277.28862   -3823.8663   -3348.6031   -3823.8663            0    7590.5136    16.973658    19.992727    20.707823    7027.1939    7837.1963    8396.2018    6538.1428   -392.97903   -106.03359    425.12343   -2570.6937 
 4585000    258.93252   -3853.4436   -3409.6422   -3853.4436            0    11421.961      16.8913    19.895721    20.607347    6925.3998     10955.33    12034.341    11276.211   -463.63589    1576.6625    -102.0988   -2256.0258 
 4586000    273.44224   -3855.1219   -3386.4512   -3855.1219            0    9195.2439    16.933896    19.945892    20.659313    6977.9238    11234.977    7831.7422    8519.0127   -155.43024   -1075.1613    1624.6782   -2450.6893 
 4587000    265.13598   -3885.2283   -3430.7943   -3885.2283            0    8562.3933    16.985013    20.006102    20.721677    7041.3068    9314.2838    8096.5457    8276.3503   -131.43755    2377.2386   -1374.6952   -2551.5201 
 4588000    266.15145   -3849.1501   -3392.9756   -3849.1501            0    7649.0131    17.111778    20.155414    20.876329     7200.141    7359.6993    7558.6009    8028.7392    -202.1053    949.95892    460.59636   -2589.7782 
 4589000    268.00808   -3925.0149   -3465.6583   -3925.0149            0    8715.0494    17.024255    20.052323    20.769551    7090.2231    8400.7713    8190.3044    9554.0727    672.95366    846.28677   -714.64783   -2564.4905 
 4590000    265.00847   -3855.1866   -3400.9711   -3855.1866            0     10246.33    17.002724    20.026963    20.743283     7063.356    10481.361    10218.682    10038.946   -1511.4374   -31.356724    -251.8796   -2345.4782 
 4591000    257.80022   -3840.2541   -3398.3933   -3840.2541            0    7346.5151    16.994361    20.017112    20.733081    7052.9385    7849.4845    4694.6438     9495.417    321.92603    112.71182    -456.4284   -2642.7317 
 4592000    273.11653   -3830.9532   -3362.8409   -3830.9532            0    8351.4282    16.980971    20.001341    20.716745    7036.2805     8045.244    8857.6223    8151.4182   -1149.7321    702.09526    -91.86571   -2505.8429 
 4593000    258.32982   -3845.2356   -3402.4671   -3845.2356            0    8607.0828    16.953512    19.968998    20.683245    7002.2017    7927.4834    7558.9402    10334.825   -2347.3877   -89.552985    951.67902   -2523.5124 
 4594000    267.73165   -3861.1042   -3402.2214   -3861.1042            0    10935.197    16.923754    19.933947    20.646941    6965.3946    9609.3637    11682.712    11513.517     513.5726    393.71636    926.25377   -2291.3897 
 4595000    256.42607   -3867.5236   -3428.0181   -3867.5236            0    8017.0475    16.949703    19.964512    20.678598    6997.4836    7275.3258     7855.973    8919.8436   -239.20516   -55.215112   -1767.1593   -2609.8695 
 4596000    288.18501   -3838.6709   -3344.7317   -3838.6709            0    9102.8326    16.890347    19.894598    20.606184    6924.2277    10068.695     9049.205    8190.5973   -1163.6572    -882.2295    1066.3597   -2425.5025 
 4597000    269.16427   -3830.3384   -3369.0001   -3830.3384            0    9622.4927    16.945977    19.960122    20.674052    6992.8693    11574.137    8547.4296     8745.912   -2269.8635    318.45887   -696.15201   -2387.6615 
 4598000    264.70935    -3853.099   -3399.3963    -3853.099            0    9086.7194    16.957796    19.974044    20.688472    7007.5118    10571.378    9302.2726     7386.508    1216.0231    107.89423    821.37459   -2470.7574 
 4599000    258.93552   -3807.4599   -3363.6533   -3807.4599            0    9885.2294    16.987676    20.009239    20.724925     7044.619    9964.3554    8716.5014    10974.831    481.90383     1544.128    1288.0422   -2348.0592 
 4600000    263.24237   -3846.2048   -3395.0163   -3846.2048            0    9083.9453    16.988264    20.009931    20.725642      7045.35    9106.0045    8652.1899    9493.6414    1300.2402    1723.0756    805.95979   -2461.6482 
 4601000    269.44381   -3874.1955    -3412.378   -3874.1955            0    9411.6954    16.936159    19.948558    20.662074    6980.7221    10058.597    9477.6426    8698.8463    2011.0808   -868.08866   -161.91375   -2454.2046 
 4602000    284.05013   -3848.8634   -3362.0112   -3848.8634            0    10128.377    16.976329    19.995874    20.711082    7030.5122    11922.074    7983.8932    10479.165    168.75688    179.31576    94.740934   -2323.5202 
 4603000    266.20902    -3826.502   -3370.2289    -3826.502            0    8822.9762    16.950522    19.965476    20.679597    6998.4973    6865.2468    11206.461    8397.2209   -129.86248    178.21424    491.66116   -2469.7038 
 4604000    267.82925   -3852.5893   -3393.5391   -3852.5893            0    8350.6791    16.973578    19.992633    20.707726    7027.0944    9231.7375    7920.5652    7899.7347    145.68721   -22.236627   -1329.2778   -2537.7368 
 4605000    278.48776    -3847.951   -3370.6325    -3847.951            0    7915.0475    17.050595    20.083349    20.801687    7123.1852    8224.9211    5816.7838    9703.4376    757.62535   -182.47383   -1185.2091   -2548.3829 
 4606000    263.80822   -3847.9824   -3395.8241   -3847.9824            0    10259.183    16.918373    19.927609    20.640376    6958.7523    9870.3626    9798.1176    11109.068   -637.76888   -1386.6779   -57.582511    -2354.658 
 4607000     270.3221   -3867.8279   -3404.5051   -3867.8279            0    7611.8107    17.021618    20.049218    20.766335    7086.9301    7173.1476    8094.4651    7567.8194    925.09565    1674.1318    124.40125   -2617.7818 
 4608000    267.18869   -3835.5922   -3377.6399   -3835.5922            0    7854.1538    16.980651    20.000964    20.716355    7035.8828    9522.8355    6630.9184    7408.7074    -1018.976    40.561688    375.33301   -2571.7163 
 4609000    266.76405   -3853.5717   -3396.3473   -3853.5717            0    8940.4562    16.983199    20.003965    20.719463    7039.0504    6170.8154    9207.5646    11442.989   -1314.8749    1480.8182    1058.1361   -2478.5439 
 4610000    258.47804   -3844.1356   -3401.1131   -3844.1356            0    8159.7155    16.986077    20.007356    20.722975    7042.6303    8713.6856    8395.4794    7369.9814   -2055.8227    214.59909    830.22692   -2563.0325 
 4611000    264.88694   -3831.8131   -3377.8059   -3831.8131            0    8580.9929    16.931818    19.943446    20.656779    6975.3562    9335.9478    7204.3152    9202.7157    541.89818    546.55715    572.36294   -2504.8751 
 4612000    266.14259   -3855.7415   -3399.5822   -3855.7415            0    8478.5501     16.95913    19.975616      20.6901    7009.1658     7345.165    8458.1667    9632.3185    -712.0118    660.91155   -1014.4301   -2532.8922 
 4613000    261.65396   -3856.1499   -3407.6839   -3856.1499            0    9965.3479    16.926467    19.937142     20.65025    6968.7441    7217.9411    11148.118    11529.985   -1476.3853   -917.84373    100.55068   -2394.8858 
 4614000    272.52092    -3810.547   -3343.4555    -3810.547            0     8310.844    16.958507    19.974881    20.689339    7008.3929    8713.9483    7035.6967     9182.887   -784.78741   -99.440787   -213.15936   -2494.0023 
 4615000    270.43817   -3838.9445   -3375.4228   -3838.9445            0    7809.3293    17.056291    20.090057    20.808635    7130.3255    9216.2449    6061.4021    8150.3408     625.2689   -820.20572    682.32631   -2563.3425 
 4616000    262.74605   -3873.9001   -3423.5624   -3873.9001            0    9341.2445    16.947847    19.962326    20.676334    6995.1854    10633.151    8634.6244    8755.9583   -453.43931   -661.18094     1520.296    -2470.591 
 4617000    254.28106   -3883.7602   -3447.9312   -3883.7602            0    8606.7615    16.990877    20.013008     20.72883    7048.6013    10004.136    7594.3189    8221.8302    1330.2607    1387.3522    398.36495   -2563.1852 
 4618000      274.966   -3888.6053    -3417.323   -3888.6053            0    8660.3483    16.914411    19.922942    20.635542    6953.8649    8060.1631    9317.3767     8603.505    556.23153    301.34298    1070.4661   -2539.0339 
 4619000    261.84197   -3845.1097   -3396.3215   -3845.1097            0    10128.636    17.019237    20.046413    20.763429    7083.9559    10992.787    9707.1302    9685.9924    431.05471   -421.01642    358.28241   -2349.9095 
 4620000    263.36073   -3875.6799   -3424.2886   -3875.6799            0    8900.6656    17.047095    20.079227    20.797417    7118.7995    8953.7913     8688.132    9060.0735     899.1508   -2657.8321    541.91968   -2500.2181 
 4621000    249.24353   -3828.9385   -3401.7436   -3828.9385            0    11309.568    16.926211    19.936841    20.649938    6968.4289    11888.137    9596.0042    12444.563    755.93525   -609.10825   -859.45941   -2252.3817 
 4622000    277.44418   -3865.6586   -3390.1287   -3865.6586            0     7411.454    17.056988    20.090879    20.809485    7131.1998    7869.6558    5912.1804    8452.5258   -130.94692   -555.41497    500.07469   -2619.3284 
 4623000    256.52932   -3848.9155    -3409.233   -3848.9155            0    8677.8304    16.983022    20.003756    20.719247    7038.8301    8832.7525    8813.8121    8386.9267   -900.67478   -973.34908   -989.84186    -2518.418 
 4624000    280.56107   -3835.7161    -3354.844   -3835.7161            0     9864.806    16.969807    19.988191    20.703125     7022.412    8693.3636     10495.42    10405.634    983.09891    1627.4195    911.00654   -2344.5431 
 4625000    278.69981   -3818.8264   -3341.1444   -3818.8264            0     8816.072    16.966753    19.984593    20.699399    7018.6207    7311.9306    9106.8868    10029.399    -1206.046   -246.31811    452.66695   -2438.7367 
 4626000    273.96336   -3841.5046   -3371.9408   -3841.5046            0    8188.0076    17.006439    20.031339    20.747816    7067.9872    7880.5091    9125.6432    7557.8706   -79.111199   -1097.5715    278.74663   -2527.9264 
 4627000    276.26666   -3847.3456    -3373.834   -3847.3456            0    7608.4576    16.995552    20.018515    20.734533     7054.421    8536.8795    7397.1464     6891.347    232.78584    42.238751    1033.9317   -2591.0645 
 4628000    271.92347   -3827.1886   -3361.1211   -3827.1886            0    9241.9954    16.954332    19.969964    20.684246    7003.2182    10882.532    8057.4116    8786.0428   -514.16682   -36.038286   -177.19816   -2417.1921 
 4629000     264.5846    -3790.149     -3336.66    -3790.149            0    9234.9869    16.959594    19.976161    20.690665    7009.7401    8996.4434    8776.0413    9932.4759    322.42771   -832.72844    530.64335   -2392.5685 
 4630000    263.71349   -3853.2075   -3401.2116   -3853.2075            0    7647.6466    16.979261    19.999327    20.714659    7034.1553    5908.0481    8202.5738    8832.3177   -1301.2098    638.70011    1415.0799   -2616.6706 
 4631000    259.67634   -3879.2005   -3434.1241   -3879.2005            0    7314.6173    16.982443    20.003075    20.718541    7038.1111    7344.4211    7111.3964    7488.0345   -1548.0391    1004.5826    479.78054   -2683.3252 
 4632000    253.11327   -3763.5938   -3329.7663   -3763.5938            0    9446.0388    16.933882    19.945876    20.659297     6977.907    7480.9558     11177.03     9680.131   -221.17918    603.08937    721.53581   -2368.4843 
 4633000    258.29166   -3814.5474   -3371.8443   -3814.5474            0    9279.5061    16.947223     19.96159    20.675572    6994.4119    9219.3623    9238.3637    9380.7922     994.7231    77.119579   -1415.8203    -2425.276 
 4634000    257.89396   -3844.7501   -3402.7286   -3844.7501            0    7874.3647    16.972771    19.991682    20.706741     7026.092     6518.127    9341.8651    7763.1019   -633.01482   -728.98241   -1299.1867   -2595.8555 
 4635000    263.55103   -3889.3456   -3437.6282   -3889.3456            0    7210.4686    16.972396     19.99124    20.706283     7025.626    7449.7358     8284.512     5897.158    1108.5843   -217.41223   -1016.8148   -2698.8324 
 4636000    267.85712   -3869.3348   -3410.2369   -3869.3348            0    8703.5644     16.99194    20.014261    20.730127     7049.925    9397.1871    9077.0247    7636.4812   -260.85943   -37.428419    121.43592   -2515.3719 
 4637000    267.98927   -3859.5591   -3400.2346   -3859.5591            0    10115.078    16.890064    19.894264    20.605838    6923.8785    10046.361    10598.805    9700.0688    1524.3802   -406.54168   -228.51412   -2378.8377 
 4638000    282.40135   -3836.3943   -3352.3681   -3836.3943            0     8164.008     16.93706     19.94962    20.663174    6981.8364    8698.7334    8028.7544    7764.5361    1287.7474    301.59724    1335.4861   -2521.0849 
 4639000     238.1251    -3847.778   -3439.6397    -3847.778            0    8097.0364    16.969302    19.987596    20.702509    7021.7851    8113.4509    9067.4112    7110.2471   -883.97918   -40.459652   -538.06096   -2610.4584 
 4640000    257.34859    -3810.247   -3369.1603    -3810.247            0    10178.002    16.888718    19.892679    20.604197    6922.2242    8992.5351    10461.298    11080.172    -1.127624     92.13416    270.81694    -2341.655 
 4641000    275.24614   -3896.0533   -3424.2908   -3896.0533            0    8177.6661    16.956185    19.972146    20.686506    7005.5141    7373.1028    9084.6719    8075.2235   -490.98416   -169.46076   -467.04883   -2588.7931 
 4642000    263.30698    -3854.551   -3403.2518    -3854.551            0    8378.9314    16.918593    19.927868    20.640644    6959.0242    6029.8522    9541.3525    9565.5897   -628.24556    17.565687    2055.2491   -2552.8721 
 4643000    249.05485   -3838.0997   -3411.2282   -3838.0997            0    9827.5366    16.961612    19.978539    20.693128    7012.2436    10445.996     9463.739     9572.875   -1217.8502    -311.3246    -1212.718   -2406.2016 
 4644000    263.97246   -3850.2914   -3397.8517   -3850.2914            0    8369.8892    16.973962    19.993085    20.708194    7027.5715    9914.6082    7914.3827    7280.6766    667.95286   -2304.4761   -930.35883   -2540.0224 
 4645000    282.58803   -3837.9345   -3353.5883   -3837.9345            0    11136.609    16.885248    19.888592    20.599963     6917.958    10901.695     10125.23      12382.9    1044.4459   -697.39879    1899.3758   -2230.0011 
 4646000    259.39061   -3865.8521   -3421.2655   -3865.8521            0    8356.8554    16.986414    20.007752    20.723386    7043.0494    9189.7129    6976.5152     8904.338   -2527.2185   -1619.6495   -62.379807   -2562.8856 
 4647000    252.95651   -3862.6837   -3429.1249   -3862.6837            0    10122.829    16.971415    19.990086    20.705087    7024.4089    8865.3285    9732.0544    11771.103    28.138278   -1591.9437    85.023837   -2392.1039 
 4648000    256.09038   -3849.0732   -3410.1431   -3849.0732            0    10496.191    16.962546    19.979638    20.694266    7013.4012     10514.36    9384.8293    11589.383   -1428.1924     -734.011   -1465.3751   -2336.5585 
 4649000    277.23648   -3839.4711   -3364.2973   -3839.4711            0    7819.5042     17.06817     20.10405    20.823128    7145.2342    6538.0602    9049.6312    7870.8214    2152.2998    141.99154    -259.3793   -2549.4587 
 4650000    269.04326   -3838.8014   -3377.6705   -3838.8014            0    10038.691     16.97482    19.994096    20.709241    7028.6372     10594.04    9315.0907    10206.943   -325.52479   -45.049747     1728.632   -2348.6498 
 4651000    277.02228   -3816.5441   -3341.7374   -3816.5441            0    10498.461    16.950047    19.964917    20.679018    6997.9097    10554.177     10727.74    10213.465    1859.9513    1512.2954    -1759.621   -2270.2925 
 4652000     261.3159   -3859.0281   -3411.1416   -3859.0281            0    6721.4702    16.951789    19.966969    20.681143    7000.0676    9318.9043    4682.1275    6163.3788    546.81947   -227.45313    276.19814   -2724.9547 
 4653000    267.39621   -3847.0139    -3388.706   -3847.0139            0    7714.0742    16.967935    19.985986    20.700841    7020.0878     8420.761    7157.9137     7563.548    515.11639    1081.0129   -693.15896   -2598.9331 
 4654000    252.27885   -3849.7384   -3417.3411   -3849.7384            0    6711.0189     16.93319    19.945061    20.658452    6977.0517    6679.5972    7061.7276    6391.7319   -933.12814   -69.655268    1529.5709   -2734.4738 
 4655000    265.23672   -3867.3951   -3412.7884   -3867.3951            0    7826.9589    16.950331    19.965251    20.679364    6998.2608    7353.6012     8594.056    7533.2194   -1061.1702    133.69066    1801.1977   -2613.9498 
 4656000     239.6796    -3848.802   -3437.9994    -3848.802            0    9198.9261    16.942877    19.956471     20.67027    6989.0321    8509.6509    10617.164    8469.9631    739.18286   -320.08835   -865.37447   -2500.3725 
 4657000    261.48808   -3871.3554   -3423.1738   -3871.3554            0    7898.0352    16.888496    19.892418    20.603926    6921.9512    7226.3445    9141.3792     7326.382    442.22595    1769.8489   -1376.2478   -2625.8706 
 4658000    273.05061   -3887.1586   -3419.1592   -3887.1586            0    11185.915     16.83415    19.828405    20.537623    6855.3425    10022.244     11607.04    11928.459   -460.83552    224.12883   -291.58707   -2300.8123 
 4659000    267.05546   -3870.8651   -3413.1411   -3870.8651            0    9340.3927    16.953823    19.969364    20.683625    7002.5875    10223.129    9757.0942    8040.9548    124.33987   -1227.0308    217.47539   -2459.2483 
 4660000    271.67606   -3843.4608   -3377.8173   -3843.4608            0    9890.7344    16.923936    19.934161    20.647163    6965.6192    8242.2087    12746.691    8683.3034   -53.436301    399.75009    -163.9878   -2373.0531 
 4661000    253.76681   -3842.7345   -3407.7869   -3842.7345            0    10403.697    16.881493    19.884169    20.595382    6913.3437    10633.512    9785.0464    10792.534    1098.1284      71.9762    2243.5152   -2358.8443 
 4662000    257.39224   -3834.2924   -3393.1309   -3834.2924            0    9006.4805    16.906439    19.913552    20.625816    6944.0365     9593.144     8024.086    9402.2115   -457.98783    396.29649    687.00041   -2481.0298 
 4663000    275.08478   -3838.0456   -3366.5597   -3838.0456            0    10037.989    16.937473    19.950107    20.663678    6982.3478    9785.1855    10323.123    10005.659    740.37703   -696.83441   -420.94812   -2344.3875 
 4664000    272.90311   -3870.4451   -3402.6986   -3870.4451            0     9396.529    16.910086    19.917848    20.630265    6948.5315    9419.2541    9977.3341    8792.9987    861.49473   -45.684633   -325.78195   -2450.4806 
 4665000    258.83688   -3824.8552   -3381.2176   -3824.8552            0    9779.9502    16.905781    19.912777    20.625013    6943.2258    9867.9343    11001.655    8470.2614   -757.87862   -521.84245   -28.997264   -2390.9015 
 4666000    264.77327   -3811.4338   -3357.6214   -3811.4338            0    7934.6145    16.961159    19.978005    20.692574     7011.681     7804.406    7899.5805    8099.8569    1059.1487    1180.6638    721.12209   -2546.2422 
 4667000    255.02841   -3864.1428   -3427.0328   -3864.1428            0    9390.9645    16.962403     19.97947    20.694092    7013.2236    10198.654    9276.9739    8697.2654    -678.7318   -1139.6967   -732.20007   -2466.5187 
 4668000    288.33032    -3871.664   -3377.4757    -3871.664            0    7408.4057    17.020394    20.047776    20.764841    7085.4004    8375.8049    6989.7122    6859.6999   -43.818346     651.3164   -115.43028   -2611.9407 
 4669000    274.39919   -3859.5323   -3389.2215   -3859.5323            0    6870.5014    17.005944    20.030756    20.747212    7067.3702      7297.56    6558.5745    6755.3698    183.47188   -535.17407    -1092.337   -2681.0765 
 4670000    263.85255   -3841.6084   -3389.3741   -3841.6084            0     10938.05    16.908792    19.916323    20.628686    6946.9362    9598.7815    12564.185    10651.183   -1404.2516    273.90409    731.88532   -2281.1972 
 4671000    257.41367   -3846.9819   -3405.7837   -3846.9819            0    8785.1042    16.940588    19.953775    20.667478    6986.2006    8697.4974    9246.8684    8410.9467    360.92131    306.59484    156.39863   -2510.6995 
 4672000    275.10135   -3886.3506   -3414.8363   -3886.3506            0    8769.5688    16.874178    19.875553    20.586458    6904.3612    8687.8112     7692.158    9928.7372   -261.70959    338.61534   -1119.0453   -2531.8019 
 4673000    255.78619   -3855.1023   -3416.6935   -3855.1023            0    9506.6728    16.875278    19.876849      20.5878    6905.7112     9332.739    9710.1483    9477.1311    -629.5057   -1292.7261    603.84559   -2459.2507 
 4674000    255.68423   -3873.6924   -3435.4584   -3873.6924            0    9679.7236     16.93475    19.946899    20.660356    6978.9804    11912.588    8165.2884    8961.2939    612.05696   -1822.2102   -408.94833   -2450.2438 
 4675000    285.02309   -3870.6132   -3382.0934   -3870.6132            0    12207.502    16.849419     19.84639    20.556252    6874.0138    11051.943    14228.323    11342.241    2770.8356   -555.45586   -1416.4429   -2158.2859 
 4676000    250.77107   -3839.3242   -3409.5111   -3839.3242            0    11462.607    16.892603    19.897255    20.608936    6927.0017    13265.909    10447.929    10673.982   -162.27737    1407.5042    315.15521   -2251.5217 
 4677000    268.83827   -3862.5476    -3401.768   -3862.5476            0    7273.3321    16.982218     20.00281    20.718266     7037.831    7373.6022    5973.7568    8472.6374    490.28309   -727.58357   -830.23355   -2655.2365 
 4678000    289.15173   -3884.2019   -3388.6057   -3884.2019            0    8933.4899    16.974901    19.994191     20.70934    7028.7379     6741.428    10735.371    9323.6707    18.490176   -256.72575    296.37865   -2472.8611 
 4679000     254.2197   -3848.2824   -3412.5586   -3848.2824            0    10256.099    16.987037    20.008486    20.724145    7043.8238    10699.731    9320.3622    10748.205    933.88138   -868.94978   -181.26615   -2358.9808 
 4680000    264.20396   -3880.9077   -3428.0712   -3880.9077            0    8905.9739    16.981223    20.001637    20.717052    7036.5933    8449.0086    8768.7419    9500.1711   -13.120446   -281.84602    877.28827   -2514.1268 
 4681000    276.90759   -3886.4596   -3411.8494   -3886.4596            0    9297.8841    16.919623    19.929081      20.6419    6960.2943    8067.2236    8787.9747    11038.454   -697.89355   -454.12021   -59.492249   -2468.0328 
 4682000    279.92343   -3863.4543   -3383.6751   -3863.4543            0     10362.61    16.952082    19.967313      20.6815    7000.4295    10861.249     10168.39    10058.192    2566.5769   -1244.4094   -133.69314   -2325.7139 
 4683000    272.84782    -3898.358   -3430.7062    -3898.358            0    10536.997     16.92562    19.936145    20.649217    6967.6985    11598.324    8421.2037    11591.463   -580.56161    493.90343    359.63115    -2359.971 
 4684000    269.02153   -3884.3985   -3423.3048   -3884.3985            0    8551.5733    16.960378    19.977085    20.691621    7010.7124    9051.5142    9103.2434    7499.9624   -1591.0599    418.60207    1872.7599   -2548.9573 
 4685000    281.47614   -3866.3443   -3383.9039   -3866.3443            0    10417.168     16.92837    19.939384    20.652572    6971.0953    12055.126    9696.0299    9500.3475   -728.27978   -2429.2021     862.9549   -2324.8292 
 4686000    282.18047   -3870.2888   -3386.6411   -3870.2888            0     10772.87    16.936129    19.948523    20.662038    6980.6849    9858.1051    9343.7881    13116.715    748.12891   -701.08278    -373.1896    -2289.897 
 4687000    261.09643   -3849.8049   -3402.2946   -3849.8049            0    9155.1682    16.906789    19.913964    20.626243    6944.4679     10474.08     7452.252    9539.1725   -1382.7515   -1916.2132   -1286.0513    -2475.078 
 4688000    287.44537   -3848.5495   -3355.8779   -3848.5495            0    11749.252    16.903203     19.90974    20.621868    6940.0498    11134.243    12013.722    12099.792    1033.2316    1916.8929   -2140.3106   -2166.6949 
 4689000    251.48703   -3862.7064   -3431.6662   -3862.7064            0    7867.2837    16.956614    19.972652     20.68703    7006.0467     7198.616     7815.751    8587.4841   -535.37146    119.74073   -113.39463   -2627.8186 
 4690000    283.88149   -3812.1737   -3325.6106   -3812.1737            0    9744.2663      16.9596    19.976169    20.690673    7009.7484    8960.6088    10317.677    9954.5131    2.1759138    -704.4159    667.27085   -2329.4543 
 4691000    261.15456   -3809.4118   -3361.8018   -3809.4118            0    9572.4161    16.965028    19.982562    20.697295    7016.4808    9337.6369    10259.436    9120.1757   -308.64924    1264.1809    457.55712    -2382.274 
 4692000    272.00947    -3836.297   -3370.0821    -3836.297            0    11028.313    16.976721    19.996335     20.71156    7030.9984    11301.166    11065.724     10718.05    1388.1141     413.5979    612.58947     -2239.24 
 4693000    271.82425   -3852.0492   -3386.1517   -3852.0492            0    8685.2836    16.989193    20.011026    20.726776    7046.5067    8002.9844    9233.3682    8819.4982    1233.3892   -2279.5516   -544.73342   -2493.5992 
 4694000    263.62187   -3795.5348   -3343.6959   -3795.5348            0    10542.445     16.98675    20.008147    20.723795    7043.4663    10324.962    10923.236    10379.136   -905.25205   -1205.6798   -264.98247   -2260.7577 
 4695000    273.80078   -3852.5794   -3383.2942   -3852.5794            0    8227.7416    17.026074    20.054466     20.77177    7092.4964    6706.3914    8442.4571    9534.3764   -666.09091    1171.5718    160.10506   -2532.2431 
 4696000    257.45731   -3806.8018   -3365.5288   -3806.8018            0    9718.3783    16.991119    20.013294    20.729126    7048.9034    7639.6155    10999.251    10516.268   -1508.8438   -1499.3273   -1344.0867   -2366.4695 
 4697000    267.63803   -3842.5693   -3383.8469   -3842.5693            0    9300.9825     16.98742    20.008937    20.724613    7044.3008    9398.0475    8272.6783    10232.222   -936.63229   -83.758544   -1074.8273   -2428.3207 
 4698000    262.58597   -3815.2455   -3365.1822   -3815.2455            0     7475.812    17.015393    20.041886     20.75874    7079.1572    5953.3217    8149.9461    8324.1681    759.30735     -218.512    279.80779   -2593.3625 
 4699000    271.20587   -3805.4632   -3340.6256   -3805.4632            0    6465.8026    17.066161    20.101684    20.820677    7142.7121    8260.1099    6795.5747     4341.723   -870.18052   -142.47252    531.63881   -2667.0886 
 4700000    259.90205   -3810.7249   -3365.2617   -3810.7249            0     9464.916    16.941808    19.955212    20.668966    6987.7096     8525.629     10481.35    9387.7696   -451.05695    851.90496   -879.28827   -2400.7056 
 4701000    268.68333   -3815.5676   -3355.0535   -3815.5676            0    11510.074    16.910194    19.917975    20.630398    6948.6651    12074.653    11991.238    10464.331    596.43023    86.757231    -1306.667   -2188.6324 
 4702000    275.27417   -3830.9723   -3359.1618   -3830.9723            0    9092.9297    16.937709    19.950384    20.663965    6982.6388    7084.1205     10597.13    9597.5383   -991.04001   -1392.3726   -1235.9275   -2433.1867 
 4703000    255.82704   -3828.6031   -3390.1243   -3828.6031            0    9576.8051    16.890671     19.89498    20.606579    6924.6259    10221.747    8016.2368    10492.432   -1756.7411     1462.587   -295.20855   -2422.9765 
 4704000    258.12175   -3824.0243   -3381.6125   -3824.0243            0    9983.8039    16.841514    19.837079    20.546608     6864.343    10958.642    8845.5905     10147.18   -715.19519    104.02045   -553.01767   -2382.1399 
 4705000    259.54329   -3864.7375   -3419.8892   -3864.7375            0    8239.4962    16.948775    19.963418    20.677466    6996.3339    8181.1307    9008.2841    7529.0738    2398.6761    1403.0264   -892.77564   -2579.1775 
 4706000    263.81736   -3846.9695   -3394.7956   -3846.9695            0    8535.5769    16.965828    19.983505    20.698271    7017.4735    7782.2204    9113.6448    8710.8656    1462.0037   -864.47179    670.68742    -2521.242 
 4707000    263.94567     -3833.32   -3380.9261     -3833.32            0    8797.6304     16.94457    19.958466    20.672336    6991.1282    7418.5987    10147.887    8826.4057    667.52186   -280.34177     1160.319   -2483.9335 
 4708000    275.10948   -3824.7268   -3353.1985   -3824.7268            0    9624.7134    16.968372    19.986501    20.701375    7020.6311    10516.956    10290.685    8066.4994    1092.8146   -252.38975    1986.9385   -2367.7366 
 4709000    258.20089    -3831.144   -3388.5965    -3831.144            0    10665.454    16.939913     19.95298    20.666655    6985.3656    12037.476    11756.354    8202.5308    54.654411   -104.36921   -1207.6453   -2302.0599 
 4710000    264.07453   -3801.0676   -3348.4529   -3801.0676            0    7945.0822     16.96818    19.986275     20.70114    7020.3923    10047.715     8125.429    5662.1024    724.58628    67.885898   -206.68921   -2534.9939 
 4711000    263.53352   -3831.5924    -3379.905   -3831.5924            0    9232.2304    16.975594    19.995007    20.710184    7029.5981    9503.7906    8751.3328    9441.5678    758.97219    1924.8449   -263.23666   -2433.4216 
 4712000    261.53786    -3839.473   -3391.2061    -3839.473            0    9268.7978    17.010641    20.036288    20.752942    7073.2271     10065.74    8830.3165    8910.3369    449.17115   -173.49548    345.46397   -2435.0762 
 4713000    271.64117   -3825.2822   -3359.6985   -3825.2822            0    7479.5315    17.000452    20.024287    20.740511    7060.5247     10327.72    5251.1568    6859.7176    2552.4433    757.14735    499.86178   -2589.5273 
 4714000    271.75433   -3853.8755   -3388.0979   -3853.8755            0    8523.6639    16.991149    20.013329    20.729162    7048.9402    6516.0009    9357.9585    9697.0323   -586.88118   -897.49708   -476.92261   -2511.8519 
 4715000    245.66802   -3867.3401   -3446.2735   -3867.3401            0     8268.217    16.970888    19.989465    20.704444    7023.7542    9954.2825    8201.8566    6648.5118     1930.851    1249.5927   -76.131717   -2599.3249 
 4716000    268.86077    -3894.606   -3433.7879    -3894.606            0    8338.5483     16.97083    19.989397    20.704373    7023.6824    8686.5553    8818.0579    7511.0316    364.67214    138.98613    1301.0853   -2579.6437 
 4717000    267.93532   -3874.7746   -3415.5426   -3874.7746            0    10079.792    16.905532    19.912483    20.624709    6942.9187    9526.6333    8651.6619    12061.081    3.8658105   -52.177422   -825.93443   -2394.9098 
 4718000    267.32017   -3857.9122   -3399.7345   -3857.9122            0    7361.8495    16.973174    19.992157    20.707232    7026.5924    6399.4409    8594.6435    7091.4639    478.49973   -94.153422    239.07982   -2645.3243 
 4719000    281.99066   -3874.8245   -3391.5022   -3874.8245            0    6661.2867    16.957509    19.973705    20.688121    7007.1551    5913.3073    6633.3531    7437.1995    564.18073   -46.832038   -528.87372   -2710.7709 
 4720000    249.36542   -3850.5432   -3423.1395   -3850.5432            0    9948.3519    16.859858    19.858686    20.568987    6886.7977    10131.855    9489.3532    10223.848    503.18762    1025.4835    412.80675    -2423.958 
 4721000    270.20423    -3866.906   -3403.7852    -3866.906            0    9333.4256    16.914395    19.922924    20.635523    6953.8454    7823.6864    10578.678    9597.9123   -708.36569   -312.71426   -1208.7553   -2457.2386 
 4722000    253.46536   -3863.8912   -3429.4603   -3863.8912            0    9182.4558    17.018038    20.045001    20.761967    7082.4592    8692.9449    9734.4487    9119.9739    577.88619   -165.67692   -900.46833   -2481.0007 
 4723000    259.94792    -3854.187   -3408.6452    -3854.187            0    9079.3654      16.9486    19.963212    20.677252    6996.1168    7669.9085    8682.6378     10885.55    1855.6973    6.3787819   -771.70123   -2482.2668 
 4724000    256.49809   -3809.6082   -3369.9793   -3809.6082            0    10117.995    16.934589    19.946709    20.660159    6978.7814    7665.2008    10209.139    12479.646   -1481.5582   -264.66353   -703.81296   -2340.1862 
 4725000    268.36112   -3846.0118   -3386.0501   -3846.0118            0    10251.265    16.878384    19.880507    20.591589     6909.525    9177.7364    11523.268    10052.791   -167.39676   -2609.0128   -1859.0126   -2353.0472 
 4726000    265.45151   -3828.7701   -3373.7953   -3828.7701            0    10402.243    16.850044    19.847126    20.557014    6874.7785    11572.061    9512.4194    10122.248   -1355.6021    1163.4153   -570.90103   -2330.8499 
 4727000    271.76052   -3799.6433   -3333.8551   -3799.6433            0    9626.7562     16.93038    19.941752    20.655025    6973.5793    9556.8998     10701.64    8621.7287   -823.00814    255.00608     1937.328   -2354.7899 
 4728000    274.48991   -3822.0709   -3351.6046   -3822.0709            0    8687.2503    16.929971    19.941269    20.654525    6973.0732    5490.5518    12126.475    8444.7241     28.53773    179.82659   -1162.6865   -2468.1537 
 4729000    265.67146   -3820.4155   -3365.0637   -3820.4155            0     9297.025    16.911464    19.919471    20.631947    6950.2304    9536.2018    9020.5621     9334.311    647.40737   -143.95861     1414.673   -2422.6988 
 4730000    274.48434   -3829.0162   -3358.5594   -3829.0162            0    8067.2598    16.966749    19.984589    20.699394    7018.6158    7407.0042     8089.167    8705.6082   -990.52096    648.16769    979.10187   -2532.8003 
 4731000    278.26445   -3861.1823   -3384.2465   -3861.1823            0    7516.6339    16.998104    20.021522    20.737648    7057.6005      7928.26    8301.8605    6319.7813     292.8802   -578.24569    957.11881   -2610.5754 
 4732000    284.40423   -3876.4373   -3388.9782   -3876.4373            0    9217.4173    16.968728     19.98692    20.701808    7021.0719    9488.6866    9841.0992    8322.4661    674.18103   -85.007193   -1665.2049   -2445.1595 
 4733000    253.78521   -3850.1195   -3415.1404   -3850.1195            0    11128.141    16.932201    19.943896    20.657245     6975.829     9208.936    12441.083    11734.404    1941.2686    1776.6531    635.00698   -2283.0155 
 4734000    273.01993   -3823.0251   -3355.0783   -3823.0251            0    8108.6943    16.979963    20.000154    20.715515    7035.0276    8431.2592    8246.3627    7648.4611    748.09183    -10.06133   -129.57293   -2523.1372 
 4735000    270.80722   -3873.3094   -3409.1551   -3873.3094            0    7862.4582    16.976418    19.995977     20.71119    7030.6218    8295.0655    8062.0798    7230.2292    552.07789   -983.87101    100.74561   -2602.9826 
 4736000     259.6673   -3828.8562   -3383.7954   -3828.8562            0    8720.0817    16.976507    19.996083    20.711299    7030.7333    9187.6917    8057.7809    8914.7726    456.94294    1474.5054   -1056.0086   -2489.6728 
 4737000    273.90293   -3840.9984   -3371.5381   -3840.9984            0    9401.1091    16.942967    19.956577     20.67038    6989.1438    9028.7936     9398.067    9776.4667    1193.8603    889.33685   -380.87801   -2413.2878 
 4738000     274.8584   -3819.3126   -3348.2147   -3819.3126            0    8372.0637    16.971344    19.990001    20.704999    7024.3196    8103.5345    9969.0745     7043.582   -1779.9808   -742.26615    68.971813   -2490.5596 
 4739000    276.39315   -3840.4389   -3366.7105   -3840.4389            0    10401.001    16.888396    19.892299    20.603803    6921.8277    7936.4118    11907.614    11358.978    92.428904   -2057.2967      384.523   -2316.7527 
 4740000    271.93473   -3850.3225   -3384.2357   -3850.3225            0    5087.3329    17.023579    20.051528    20.768727    7089.3795     6003.242    2640.0028    6618.7539   -999.00566   -107.44959    1253.3089   -2858.2496 
 4741000    243.31239   -3841.3731    -3424.344   -3841.3731            0    10005.029     16.98243     20.00306    20.718525    7038.0949    9960.2485    11158.309    8896.5288   -383.68637     32.27549   -116.82812   -2397.3939 
 4742000    256.38302   -3813.4779   -3374.0462   -3813.4779            0    6820.2569    17.045786    20.077684    20.795819    7117.1587    7596.3175    6091.4228    6773.0304    582.66423   -1222.0787    1131.2182   -2666.1276 
 4743000     285.4376   -3865.8066   -3376.5764   -3865.8066            0    8384.0359    16.965028    19.982563    20.697295    7016.4812    5866.2762    8739.7029    10546.129    255.30233    86.684227   -636.59653   -2518.6532 
 4744000    277.01129   -3853.7981   -3379.0102   -3853.7981            0    10642.274     16.98372    20.004578    20.720098     7039.698     10103.13    9138.9194    12684.772    1464.5949   -228.55177    1837.6718   -2286.4023 
 4745000    274.60609   -3818.8572   -3348.1918   -3818.8572            0    7842.4834    16.928461    19.939491    20.652683    6971.2079    8306.8619    7079.7994    8140.7888   -1056.5346    887.14508    1964.2639   -2550.8628 
 4746000    268.36983   -3846.6598    -3386.683   -3846.6598            0    9243.8136    16.915706    19.924467    20.637121    6955.4613    7901.8236     11210.24    8619.3773    93.859344   -1871.3586   -885.97472   -2449.0066 
 4747000    254.77368    -3835.484   -3398.8106    -3835.484            0    8148.9802    16.938352    19.951141     20.66475    6983.4341    8506.6759     5644.081    10296.184    174.24807   -812.65947    -686.7046   -2568.8678 
 4748000    277.01184    -3813.549   -3338.7601    -3813.549            0    8792.9054    16.894151    19.899079    20.610825     6928.907    11504.062    7083.2131    7791.4411    1607.5611     883.7148   -236.31729   -2450.2282 
 4749000    263.96209   -3844.5058   -3392.0838   -3844.5058            0    7783.5253    16.891184    19.895584    20.607205     6925.257    6636.9334    7560.3478    9153.2948    668.55038    106.50531    124.24899   -2605.9651 
 4750000    273.65368   -3812.3485   -3343.3155   -3812.3485            0    9352.6736    16.920384    19.929977    20.642829    6961.2339    12313.176     8407.044    7337.8003   -2079.0017   -16.849365    1082.7006   -2393.8091 
Loop time of 429.561 on 64 procs for 250000 steps with 864 atoms

Performance: 100.568 ns/day, 0.239 hours/ns, 581.989 timesteps/s
193.3% CPU use with 32 MPI tasks x 2 OpenMP threads

MPI task timing breakdown:
Section |  min time  |  avg time  |  max time  |%varavg| %total
---------------------------------------------------------------
Pair    | 27.117     | 33.801     | 42.667     |  58.4 |  7.87
Bond    | 0.81184    | 1.1424     | 1.6146     |  17.0 |  0.27
Kspace  | 183.36     | 198.53     | 209.24     |  41.1 | 46.22
Neigh   | 4.059      | 5.0492     | 5.915      |  24.0 |  1.18
Comm    | 82.647     | 94.148     | 102.29     |  48.8 | 21.92
Output  | 0.59767    | 0.59868    | 0.61002    |   0.3 |  0.14
Modify  | 80.446     | 83.594     | 87.706     |  19.4 | 19.46
Other   |            | 12.7       |            |       |  2.96

Nlocal:        27.0000 ave          32 max          21 min
Histogram: 3 1 2 2 5 5 4 4 3 3
Nghost:        2623.00 ave        2654 max        2593 min
Histogram: 3 2 3 3 3 6 7 1 2 2
Neighs:        8855.16 ave       11455 max        6963 min
Histogram: 4 2 5 4 6 2 5 2 1 1

Total # of neighbors = 283365
Ave neighs/atom = 327.96875
Ave special neighs/atom = 2.0000000
Neighbor list builds = 14665
Dangerous builds = 1

unfix		3
unfix		2
unfix		1

write_data	data.final.${pid}
write_data	data.final.1
System init for write_data ...
PPPM initialization ...
  extracting TIP4P info from pair style
  using 12-bit tables for long-range coulomb (../kspace.cpp:340)
  G vector (1/distance) = 0.37452714
  grid = 24 24 24
  stencil order = 5
  estimated absolute RMS force accuracy = 0.0031308381
  estimated relative force accuracy = 9.428426e-06
  using double precision FFTW3
  3d grid and FFT values/proc = 3549 432
Last active /omp style is kspace_style pppm/tip4p/omp
WARNING: Not all mixed pair coeffs generated from mixing. Use write_data with 'pair ij' option to store all pair coeffs. (../write_data.cpp:312)

write_restart   restart.lmp.${pid}
write_restart   restart.lmp.1
System init for write_restart ...
PPPM initialization ...
  extracting TIP4P info from pair style
  using 12-bit tables for long-range coulomb (../kspace.cpp:340)
  G vector (1/distance) = 0.37452714
  grid = 24 24 24
  stencil order = 5
  estimated absolute RMS force accuracy = 0.0031308381
  estimated relative force accuracy = 9.428426e-06
  using double precision FFTW3
  3d grid and FFT values/proc = 3549 432
Last active /omp style is kspace_style pppm/tip4p/omp
Total wall time: 0:07:09
