#include		in.partitions
include		in.temp
variable        temperature equal 32.11
variable	tempDamp equal 100.0
include		in.pressure
variable        pressure equal -831.2
variable        pressureDamp equal 1000.0 # This is 1 ps
include		in.seed
variable        seed equal 745823

units		real
atom_style	full

read_restart	restart.lmp.${pid}
read_restart	restart.lmp.1
Reading restart file ...
  restart file = 30 Jul 2021, LAMMPS = 30 Jul 2021
  restoring atom style full from restart
  orthogonal box = (-0.015139600 0.0021387050 -0.13457992) to (20.015141 19.997862 20.834578)
  4 by 4 by 4 MPI processor grid
  restoring pair style lj/cut/tip4p/long/omp from restart
  restoring bond style harmonic/omp from restart
  restoring angle style harmonic/omp from restart
  972 atoms
  648 bonds
  324 angles
Finding 1-2 1-3 1-4 neighbors ...
  special bond factors lj:    0        0        0       
  special bond factors coul:  0        0        0       
     2 = max # of 1-2 neighbors
     1 = max # of 1-3 neighbors
     1 = max # of 1-4 neighbors
     2 = max # of special neighbors
  special bonds CPU = 0.005 seconds
  read_restart CPU = 0.014 seconds
include 	in.setup
variable	out_freq equal 1000
variable	out_freq2 equal 10000
variable	out_freq3 equal 1000

timestep	2.0

neigh_modify    delay 7 every 1

include		in.tip4p
# This is TIP4P/Ice

# create groups ###
group ox type 2
324 atoms in group ox
group hy type 1
648 atoms in group hy

# set charges - beside manually ###
set group ox charge -1.1794
Setting atom values ...
  324 settings made for charge
set group hy charge 0.5897
Setting atom values ...
  648 settings made for charge

# ### TIP3P Potential Parameters ###
pair_style lj/cut/tip4p/long/omp 2 1 1 1 0.1577 8.5
pair_coeff 1 1*2 0.000 0.000
pair_coeff 2 2 0.21084 3.1668
bond_style  harmonic
bond_coeff  1 450 0.9572
angle_style harmonic
angle_coeff 1 55 104.52
kspace_style pppm/tip4p/omp 1.0e-5
pair_modify tail yes

thermo          ${out_freq}
thermo          1000
thermo_style    custom step temp pe etotal epair emol press lx ly lz vol pxx pyy pzz pxy pxz pyz enthalpy

restart 	${out_freq3} restart.lmp.${pid} restart2.lmp.${pid}
restart 	1000 restart.lmp.${pid} restart2.lmp.${pid}
restart 	1000 restart.lmp.1 restart2.lmp.${pid}
restart 	1000 restart.lmp.1 restart2.lmp.1


include         in.dump
dump            myDump all atom ${out_freq2} dump.water.${pid}
dump            myDump all atom 10000 dump.water.${pid}
dump            myDump all atom 10000 dump.water.1
dump            myDump2 all dcd ${out_freq2} dump.dcd
dump            myDump2 all dcd 10000 dump.dcd
dump_modify     myDump append yes
dump_modify     myDump2 append yes


variable natoms 	equal  "count(all)"                        # NUMBER ATOMS
variable H      	equal  "enthalpy/v_natoms"                 # ENTHALPY-per-atom
variable Vol      	equal  "vol/v_natoms"                 # volume-per-atom
fix AVG all 		ave/time ${out_freq} 1 ${out_freq} v_Vol v_H file vol_enthalpy.dat
fix AVG all 		ave/time 1000 1 ${out_freq} v_Vol v_H file vol_enthalpy.dat
fix AVG all 		ave/time 1000 1 1000 v_Vol v_H file vol_enthalpy.dat


timer           timeout 02:55:00 every 1000
New timer settings: style=normal  mode=nosync  timeout=02:55:00

fix 		1 all shake 1e-6 200 0 b 1 a 1
       0 = # of size 2 clusters
       0 = # of size 3 clusters
       0 = # of size 4 clusters
     324 = # of frozen angles
  find clusters CPU = 0.001 seconds
fix             2 all nph aniso ${pressure} ${pressure} ${pressureDamp}
fix             2 all nph aniso -831.2 ${pressure} ${pressureDamp}
fix             2 all nph aniso -831.2 -831.2 ${pressureDamp}
fix             2 all nph aniso -831.2 -831.2 1000
fix             3 all temp/csvr ${temperature} ${temperature} ${tempDamp} ${seed}
fix             3 all temp/csvr 32.11 ${temperature} ${tempDamp} ${seed}
fix             3 all temp/csvr 32.11 32.11 ${tempDamp} ${seed}
fix             3 all temp/csvr 32.11 32.11 100 ${seed}
fix             3 all temp/csvr 32.11 32.11 100 745823


run             250000
PPPM initialization ...
  extracting TIP4P info from pair style
  using 12-bit tables for long-range coulomb (../kspace.cpp:340)
  G vector (1/distance) = 0.37214436
  grid = 24 24 25
  stencil order = 5
  estimated absolute RMS force accuracy = 0.0034393211
  estimated relative force accuracy = 1.0357413e-05
  using double precision FFTW3
  3d grid and FFT values/proc = 2366 288
Last active /omp style is kspace_style pppm/tip4p/omp
Neighbor list info ...
  update every 1 steps, delay 7 steps, check yes
  max neighbors/atom: 2000, page size: 100000
  master list distance cutoff = 10.8154
  ghost atom cutoff = 10.8154
  binsize = 5.4077, bins = 4 4 4
  1 neighbor lists, perpetual/occasional/extra = 1 0 0
  (1) pair lj/cut/tip4p/long/omp, perpetual
      attributes: half, newton on, omp
      pair build: half/bin/newton/omp
      stencil: half/bin/3d
      bin: standard
Per MPI rank memory allocation (min/avg/max) = 9.226 | 9.230 | 9.238 Mbytes
Step Temp PotEng TotEng E_pair E_mol Press Lx Ly Lz Volume Pxx Pyy Pzz Pxy Pxz Pyz Enthalpy 
11750000    33.294614   -5189.3224    -5125.111   -5189.3224            0   -949.58369     20.03028    19.995724    20.969158     8398.566   -1603.8539   -451.07357   -793.82363    6.4330815    397.78871    225.34462   -5241.4202 
11751000    31.735984   -5190.5313   -5129.3258   -5190.5313            0   -1124.3898    20.009111    19.971545    21.024764     8401.766   -1217.2091   -1277.4374   -878.52298   -87.373641    4.1790386    596.86774   -5267.0985 
11752000    33.078522   -5191.6202   -5127.8255   -5191.6202            0   -505.41724    20.001996    19.956898    21.062953     8407.863   -579.85493   -423.53938   -512.85742    -210.4087    216.91777   -103.43689   -5189.7998 
11753000    31.682934   -5191.4932   -5130.3899   -5191.4932            0   -966.39448    20.030093    20.003397    20.895494    8372.1955   -1137.8161   -1194.4818    -566.8855    232.40925    410.81135    324.42859   -5248.3866 
11754000    30.898378   -5191.4273   -5131.8372   -5191.4273            0    -238.9607    20.006514    19.960054    20.974604    8375.8117   -906.94603     150.2947    39.769241   -13.426073    169.90096   -66.742767   -5161.0268 
11755000    31.955458   -5189.2525   -5127.6237   -5189.2525            0   -1020.1156    19.951969    20.052489    21.005476    8404.0098   -404.50966   -1315.0796   -1340.7575   -375.82527    469.64259    99.326682    -5252.653 
11756000     31.99424   -5186.7259   -5125.0224   -5186.7259            0   -525.20764    20.013404    19.891182     21.15597    8421.9856    426.28769   -1197.4386   -804.47205   -74.980097    73.100036   -357.30774   -5189.5315 
11757000    33.995812   -5194.4962   -5128.9325   -5194.4962            0    -886.8168    20.073308    20.003569    20.997107    8431.1318   -1011.4367   -983.18061   -665.83309    -25.62007    316.70791   -846.89439   -5237.9749 
11758000    30.922367   -5187.8203    -5128.184   -5187.8203            0   -1022.9227    20.087021    20.027476    20.919421    8415.7228   -1635.5266   -921.72853   -511.51285     269.2143     75.14152   -102.11349    -5253.732 
11759000    33.025263   -5187.6942   -5124.0022   -5187.6942            0   -1302.1053    20.009941    19.998781    21.029567    8415.4948   -1662.8882   -934.57664   -1308.8511    51.646119    179.62877    466.22159   -5283.8114 
11760000     33.25179   -5190.6879   -5126.5591   -5190.6879            0   -1262.8319      19.9902    20.019667    21.039852    8420.0888   -1352.6468   -1159.1929    -1276.656    78.971772   -395.24431   -299.80777   -5281.6327 
11761000    30.700525   -5188.0575   -5128.8489   -5188.0575            0   -1197.3589    20.032002     19.92915    21.146602    8442.1626   -740.15785   -1259.4128   -1592.5059      204.712     207.0777      -243.54   -5276.2681 
11762000    33.609817    -5186.321   -5121.5017    -5186.321            0   -707.22436    20.023492    20.002628     20.95635    8393.4891   -1105.4299   -142.73775   -873.50548   -237.24197    531.37066   -49.633382   -5208.0733 
11763000     33.09193    -5187.024   -5123.2034    -5187.024            0   -676.88819    19.932303     20.01394    21.053845     8398.882   -484.17971   -939.44566    -607.0392   -85.342272   -422.61823   -163.75559   -5206.1148 
11764000    32.770272   -5192.0696   -5128.8694   -5192.0696            0   -510.51346    20.055849    19.999637    20.927066    8394.0492   -1185.3565   -306.43832   -39.745544   -226.01295   -10.804581   -169.97686   -5191.3657 
11765000    31.766572   -5189.3061   -5128.0415   -5189.3061            0    -838.8001    20.007726     19.94739    21.108005    8424.2451   -646.13708   -852.99061   -1017.2726   -104.78728   -91.172013   -693.42797   -5231.0957 
11766000    31.986345   -5191.1371   -5129.4487   -5191.1371            0   -997.89363    20.097717    19.962618    21.003209    8426.5517   -1860.2709   -709.33145   -424.07857   -177.15972    271.36505    264.67569   -5252.0825 
11767000    32.522196   -5191.8699   -5129.1481   -5191.8699            0   -542.43269    20.035779    19.978175    20.914381    8371.5728   -657.41412   -389.27881   -580.60513   -111.98795    305.31839   -4.3258583   -5195.3742 
11768000    31.567517   -5192.6983   -5131.8177   -5192.6983            0   -761.71558    20.020305    19.976243    20.929942    8370.5221   -548.02628   -931.84634   -805.27412    49.523739   -182.83142    227.83112   -5224.8045 
11769000    31.440859   -5188.8112   -5128.1749   -5188.8112            0   -831.98437    20.010323    19.938527     21.02968    8390.3456   -159.42793   -1020.4401    -1316.085   -250.81216     280.7465    18.688131   -5229.9803 
11770000     33.02077   -5192.0904   -5128.4071   -5192.0904            0    -394.0343    20.001737     19.90613    21.091612    8397.7769   -103.89543   -375.82954   -702.37792   -217.13198   -26.600464    49.130821   -5176.6656 
11771000    31.844411   -5193.2594   -5131.8448   -5193.2594            0   -734.27573    19.984993     19.91204    20.969795    8344.7618   -652.70761    -470.2019   -1079.9177   -218.53785    209.56702    238.42958    -5221.206 
11772000    31.565833   -5188.7085   -5127.8311   -5188.7085            0   -671.20416    19.980758    19.905189    21.056247    8374.5066   -575.91447   -342.82839   -1094.8696   -192.47095    553.92778   -161.07956   -5209.8077 
11773000    32.009318   -5192.4369   -5130.7043   -5192.4369            0   -853.33989    20.099915    19.963122    20.838002     8361.395   -1128.1322   -968.31801    -463.5695   -181.98665    528.64258   -7.9455022   -5234.7625 
11774000    33.229185   -5185.2466   -5121.1614   -5185.2466            0   -724.38738    20.051255    19.956435    21.017641     8410.242   -554.67875   -754.31503   -864.16837   -132.99581    170.42589   -288.94422   -5210.0109 
11775000     33.54609    -5188.537   -5123.8406    -5188.537            0   -1005.3739    19.970124     19.95832    21.049131    8389.5548   -467.40096   -1389.7314   -1158.9893   -212.08872     688.9513   -33.508106   -5246.8511 
11776000    32.548958   -5187.6338   -5124.8604   -5187.6338            0   -775.24254     20.02504    19.961646    21.015247    8400.4828   -648.43627   -1074.5782    -602.7131    -156.3483     346.1162   -164.41129   -5219.8372 
11777000    32.454933   -5187.0905   -5124.4984   -5187.0905            0   -859.78661    20.070262    19.981709    20.919035    8389.3311   -1078.5358   -1143.8927   -356.93138    135.94903    18.446468    179.31473   -5229.6931 
11778000     31.85997   -5191.1663   -5129.7216   -5191.1663            0    -580.9965    19.988033    19.961247    21.132018    8431.3808   -39.975838   -859.68997   -843.32369   -96.514798    520.24847    213.42593   -5201.1627 
11779000    34.601717   -5192.9602   -5126.2279   -5192.9602            0   -1183.0501    20.015403    19.962013    21.078382    8421.8195   -1218.2004   -773.84657   -1557.1033   -142.43725    107.78988    218.08358   -5271.5343 
11780000    33.213627    -5189.392   -5125.3368    -5189.392            0   -1327.0012    20.024564    20.021902    21.017126     8426.393   -981.12386   -1879.5756   -1120.3041    125.52634    621.06425    52.484142   -5288.4123 
11781000    32.644863    -5188.126   -5125.1677    -5188.126            0   -455.17334    19.978623    19.986157    21.003745    8386.7091   -575.54025   -58.953876   -731.02589   -281.44375    256.79899    186.87369   -5180.8406 
11782000    32.726656   -5189.3441    -5126.228   -5189.3441            0   -775.63819    20.030788    19.934174     21.01649    8391.8261   -1604.0478   -9.4400992   -713.42662    112.07364    743.58193    429.55664   -5221.1554 
11783000    31.563598   -5186.1493   -5125.2762   -5186.1493            0   -734.71044    19.996091    19.990113    21.067458    8421.1711  -0.15154262    -1148.187   -1055.7927    61.181201    845.33784    75.570679   -5215.5091 
11784000    31.479659     -5191.82   -5131.1088     -5191.82            0   -598.41678    19.986587    20.043739    20.896284    8371.1754   -182.79087   -1242.8375   -369.62195   -314.58339    613.41582   -334.97455   -5204.1665 
11785000    31.627357   -5194.8192   -5133.8232   -5194.8192            0    -847.0851    19.958587     20.08255    20.990624    8413.4478   -350.59352   -1789.3558   -401.30602   -190.63161    117.89761    101.21235   -5237.7618 
11786000    31.577224   -5191.6105   -5130.7112   -5191.6105            0   -1056.8541    20.045312    19.988215    20.976965    8404.8406   -762.60565   -1524.7517   -883.20503   -140.09131    403.13841    105.55545   -5260.2561 
11787000    32.254155   -5190.1032   -5127.8984   -5190.1032            0    -712.6959    20.010021    19.952192    21.118156    8431.2927   -1157.2803   -457.97158   -522.83584    139.62592    374.84926    265.97846   -5215.5327 
11788000    34.107533   -5192.3727   -5126.5935   -5192.3727            0   -897.28053    20.066623    19.971407    20.987349    8410.8625   -995.53094   -998.76277   -697.54788   -230.42213    807.91654    -312.0546   -5236.6573 
11789000    32.419324   -5192.6595   -5130.1361   -5192.6595            0   -987.13697     20.01803    19.963457    21.087489     8427.174   -810.30815   -993.61799   -1157.4848   -16.230651    175.59667    317.93349   -5251.4569 
11790000    31.536186   -5189.2994   -5128.4792   -5189.2994            0   -520.59871    19.970317    19.993589    21.048958    8404.3924   -887.75615   -79.345958   -594.69402   -44.564767    51.598642    154.55256   -5192.2887 
11791000    32.474235   -5190.2766   -5127.6473   -5190.2766            0   -674.77699    20.007656    20.015628    20.958602    8393.2033   -861.05186   -610.23551   -553.04359   -101.02085    -17.55776   -1.0330687   -5210.2442 
11792000    32.166248   -5191.9319   -5129.8966   -5191.9319            0   -1127.8779    20.054999    19.990753    21.017093    8426.0581   -1060.1096   -1346.1863   -977.33778   -102.63059    564.84553   -221.14727   -5268.4964 
11793000    32.933716   -5187.9959   -5124.4805   -5187.9959            0   -927.33333     19.99889    20.066068    20.970874    8415.5927   -753.40385   -1060.6747   -967.92139   -251.25613    776.02365    182.79167   -5238.2947 
11794000    31.884951   -5192.7273   -5131.2345   -5192.7273            0   -283.21316    19.998291     19.94009    21.092221    8410.8968   -443.58554    228.90669   -634.96063   -146.64016   -33.619407    383.05502   -5165.9747 
11795000    30.490281   -5192.5118   -5133.7088   -5192.5118            0   -792.29093    20.005343    19.953091    21.081243    8414.9666   -543.18862   -766.12386   -1067.5603   -77.228709    687.71343    168.35658   -5230.9416 
11796000    31.684557   -5191.6329   -5130.5266   -5191.6329            0   -536.69356    19.977119    19.896731    21.062431    8371.8817   -564.15052   -259.88574   -786.04442   -67.205125   -296.98716    85.681626   -5196.0543 
11797000    32.476615    -5191.436   -5128.8021    -5191.436            0    -1432.144    19.976016    19.967931    21.093464    8413.7547   -1407.4355   -1591.8843   -1297.1122    72.610504    46.679338     281.4008   -5304.5348 
11798000    30.557392   -5191.0599   -5132.1274   -5191.0599            0   -563.20436    20.001029    19.919587     21.02398    8376.2108   -723.21089   -296.89354   -669.50866    61.559104   -280.22239   -104.45178   -5200.9276 
11799000    32.252421   -5188.3825    -5126.181   -5188.3825            0   -1247.2405    20.037495     19.97759    21.046518     8424.939   -1413.2836   -1110.8613   -1217.5764   -154.72855    226.55831   -190.27524   -5279.4283 
11800000    31.358855   -5191.8179   -5131.3397   -5191.8179            0   -777.31124    19.934577    20.075562    21.002196    8405.0334    10.214383    -1817.016    -525.1321   -67.660236    369.84801    225.52141   -5226.6216 
11801000    34.405604   -5185.7073   -5119.3532   -5185.7073            0   -988.50828    20.037507     19.99066    21.002448    8412.8036   -1236.2728   -758.86096   -970.39113   -14.507465    274.33945    204.14181   -5240.6353 
11802000    30.770139   -5190.3072   -5130.9644   -5190.3072            0   -1042.2713    20.016557    19.956216    21.025084    8398.5697   -1517.0614   -507.45513   -1102.2973    -185.3674    213.71797    95.178744   -5258.6265 
11803000    30.623906   -5191.5767    -5132.516   -5191.5767            0   -750.56489    19.984446    19.995054    20.999834    8391.3255   -647.97791   -1220.7223   -382.99449   -156.96384    194.44388   -367.37051   -5224.3692 
11804000    33.359278   -5189.4819   -5125.1457   -5189.4819            0   -978.69916    20.048833    20.029588    20.969103    8420.5597    -1490.298   -642.59662   -803.20288   -35.885736    208.49261   -697.62984   -5245.3351 
11805000    32.204752    -5188.922   -5126.8125    -5188.922            0   -722.10374    20.088287    20.013023    20.914937     8408.377   -1297.2791   -233.98039   -635.05174    -397.4808   -307.22987   -395.53794   -5215.3623 
11806000    33.151152   -5187.0474   -5123.1126   -5187.0474            0   -270.91328    20.001264    19.940302    21.034039    8389.0316   -431.72867    -171.3943   -209.61688   -156.79949    397.26857    107.85893   -5156.2576 
11807000    30.643989    -5190.697   -5131.5975    -5190.697            0   -1165.1148    19.986031    19.963024    21.120068    8426.5188   -1269.7071   -1079.4288   -1146.2085   -139.28284    188.78063   -81.259816   -5274.7809 
11808000    31.151088   -5188.3935    -5128.316   -5188.3935            0   -1338.2024    20.028119    19.983174    21.023763    8414.2436   -935.14826   -1454.9038   -1624.5552   -188.50002    577.54364    30.707761    -5292.531 
11809000    30.472385   -5188.4097   -5129.6412   -5188.4097            0   -346.94621    20.011353    20.007816    20.929325    8379.7555   -183.51535   -791.92636   -65.396932    41.180051    -187.5194   -7.3971136   -5172.0415 
11810000     32.26757   -5191.5672   -5129.3365   -5191.5672            0   -754.44612    20.010992    19.939246    21.047086    8397.8738   -1533.9234   -100.73952    -628.6754   -189.46242    317.65362    260.38696   -5221.7368 
11811000     32.40559   -5188.5667   -5126.0698   -5188.5667            0   -1177.3543    20.070549    19.975746    21.002784    8420.5239   -1502.5209    -842.3702   -1187.1718    44.927382   -235.44226    -140.8329   -5270.6545 
11812000    32.909539   -5186.4765   -5123.0077   -5186.4765            0   -1012.5992    20.023114    19.958624    21.072427    8421.2542   -1326.9453   -756.00486   -954.84754   -130.49275   -372.75855    74.188856   -5247.3704 
11813000    33.906554   -5189.1637    -5123.772   -5189.1637            0   -1205.2589    19.985228    20.041629    21.031187    8423.7584   -1430.2017   -1270.7481   -914.82671   -237.38052    3.0294613    113.80118   -5271.8404 
11814000    32.105617   -5190.0162   -5128.0979   -5190.0162            0   -1237.6123    19.944532    19.972699    21.203312    8446.2578   -801.50179    -1323.651   -1587.6842   -293.42429    120.95129   -185.08752    -5280.547 
11815000    32.066314   -5190.2826   -5128.4401   -5190.2826            0   -1256.9379    19.973278    19.924296    21.108778    8400.3118   -541.22285   -864.44896    -2365.142   -266.41982    387.70178    88.567941   -5282.4274 
11816000    33.348323   -5187.5066   -5123.1916   -5187.5066            0   -185.60112    19.942918     19.94506    21.028884    8364.5057    422.73137   -420.37863    -559.1561   -57.099112    82.579206    277.46045   -5145.8327 
11817000    32.412591   -5192.3234    -5129.813   -5192.3234            0   -1016.0023    20.062814     19.95684    20.970199    8396.2657   -1072.2601   -1058.8832   -916.86362   -160.79793    255.47246    318.49231   -5254.2234 
11818000    32.921673   -5191.6977   -5128.2055   -5191.6977            0   -521.62956    19.998382    19.962182    20.961589     8368.104   -1299.2977    234.92462   -500.51557   -263.92625    828.86361   -49.419159   -5191.8652 
11819000    32.851178   -5196.7871   -5133.4309   -5196.7871            0    -626.4446    19.952697    19.934704    21.077578    8383.6298   -227.57488   -330.99707   -1320.7619    50.543058    626.78122   -264.82969   -5210.0241 
11820000    32.271672   -5187.5332   -5125.2946   -5187.5332            0   -1201.4228    20.074852    19.931423    20.986907    8397.2888   -1631.4798   -678.08441   -1294.7041   -178.83378   -104.77221   -9.9950855   -5272.4278 
11821000    31.959366   -5188.7967   -5127.1604   -5188.7967            0   -1236.1615    20.012088    19.999895    21.086063    8439.4787   -1128.4726   -1374.4799   -1205.5318   -186.27415    345.33033   -195.13371   -5279.3085 
11822000    33.741405   -5185.9909   -5120.9178   -5185.9909            0   -826.87712    20.049915    19.960487    20.900237    8364.4016   -973.20754   -862.09641   -645.32743   -45.436873     104.6245    5.4452434   -5221.7854 
11823000    30.576396   -5191.8191   -5132.8499   -5191.8191            0   -630.61732    20.013166    19.997302    20.988623    8399.8427   -544.46199   -596.38047   -751.00949    21.716169   -15.514561    244.52518   -5210.1025 
11824000    31.602914   -5192.9038   -5131.9549   -5192.9038            0   -582.14465    19.994092    19.924399    21.020106    8373.7849   -597.02885   -501.86396   -647.54114    3.4797228    331.37939    116.91669   -5203.0482 
11825000    31.515108   -5190.3271   -5129.5475   -5190.3271            0   -760.77702    20.021147    19.994648    20.916476    8373.1957   -1533.6761   -346.58376   -402.07116   -27.081108    697.42297   -76.036074   -5222.4494 
11826000    32.306839   -5190.5341   -5128.2277   -5190.5341            0   -899.17338    20.002953    20.035457    20.951055    8396.5187   -886.67044   -1159.0943   -651.75539   -51.616732    557.59709   -95.628994   -5238.3356 
11827000    31.617523   -5193.5904   -5132.6134   -5193.5904            0   -769.75935    19.981019    20.021315    21.033678    8414.4447   -768.02389   -1006.7921   -534.46204   -52.930646    423.06931    497.32916   -5227.0752 
11828000    34.693069   -5190.7313   -5123.8228   -5190.7313            0    -1174.356    20.031477    19.968639    21.010307     8404.151   -1430.1872   -1242.1205   -850.76033   -129.11491    576.65011    239.02647   -5267.7589 
11829000     32.54328   -5192.4905    -5129.728   -5192.4905            0   -972.84541    20.014166    19.957959    21.092256    8425.1307    -1000.197   -890.01554   -1028.3237   -129.00223    290.90433    145.10009   -5249.2634 
11830000    32.273155   -5186.9647   -5124.7232   -5186.9647            0   -978.93674    19.997689    20.030286    21.019513    8419.5644   -1112.8042   -888.92778   -935.07825   -108.34537    64.835591   -420.75729   -5244.9276 
11831000    32.133371   -5187.9007   -5125.9288   -5187.9007            0   -1028.1154    20.024711    19.984582    21.019575    8411.7286   -973.52307   -841.82129   -1269.0018   -170.80317    88.754809   -583.23672   -5252.0543 
11832000    31.719439   -5192.8972   -5131.7236   -5192.8972            0   -801.02627    19.947791    20.015947    21.022023    8393.5456   -466.39181   -1403.0894   -533.59763   -130.55564   -10.077605    594.15638   -5229.7782 
11833000    32.813708   -5189.8895   -5126.6055   -5189.8895            0   -1258.7341     20.04513    19.972122    20.988521     8402.624   -1708.5742   -1021.9505   -1045.6775    34.896189    139.26249   -525.29742   -5280.8554 
11834000    33.541709   -5188.7363   -5124.0483   -5188.7363            0   -568.04714    19.990336    19.919543    21.030072    8374.1406   -804.01017    -84.80109   -815.33017    28.101862    230.76373     27.18118   -5193.4229 
11835000    31.076651    -5189.877    -5129.943    -5189.877            0   -283.90508    20.000608     19.97908    21.040321    8407.5806    -370.9203   -12.563641   -468.23129   -233.05192    730.70672    140.41569   -5164.7543 
11836000    32.898635   -5193.5263   -5130.0785   -5193.5263            0   -775.20337    19.982544    19.960526    21.029152    8387.7311   -410.28691    -749.7207   -1165.6025   -114.68323    307.66274   -223.67899   -5224.9064 
11837000    32.299814   -5192.0305   -5129.7376   -5192.0305            0   -897.36493    20.022255    19.960106    21.133211    8445.8101   -1083.4278   -199.21589   -1409.4511   -197.30959     802.7015   -400.65741   -5240.2692 
11838000    32.439452   -5190.4495   -5127.8873   -5190.4495            0   -870.57931     20.00646    19.962504     20.95304    8368.2045   -718.26302   -864.62026   -1028.8547   -383.37074    343.07553    55.244906   -5234.1343 
11839000    30.039842   -5191.0144     -5133.08   -5191.0144            0   -1060.6986    20.018249    19.963072    21.071705    8420.7956   -1007.8134   -1150.1988   -1024.0836   -160.58817    96.834871    110.23842    -5263.343 
11840000     31.19024   -5189.1772   -5129.0242   -5189.1772            0   -541.19742    19.941611    19.990961    21.004868    8373.6317   -535.10253   -369.45431   -719.03542   -175.26024   -125.11521   -28.606703   -5195.1157 
11841000    30.499955   -5188.2664   -5129.4447   -5188.2664            0   -765.69058    20.042952    19.929797    21.052949     8409.642   -1603.9458   -132.98675   -560.13915   -7.5184734    -112.8569     394.0206   -5223.3536 
11842000    32.808627   -5193.3572    -5130.083   -5193.3572            0   -415.32497    19.962967    20.000386    20.923148    8353.9233   -39.684097   -686.17162   -520.11918    58.393903    296.79893    383.11887   -5180.6835 
11843000    32.616307      -5188.5   -5125.5968      -5188.5            0   -1098.8512    20.021038    19.965163    21.106378    8436.7112   -1054.0077   -1206.0527   -1036.4933   -203.91847     54.82933    401.84929   -5260.8003 
11844000    31.295667   -5188.8579   -5128.5016   -5188.8579            0   -395.38548     19.98997    19.990143    21.047097    8410.4695   -742.43547    59.708122   -503.42908   -272.25719    234.36336    57.972886   -5176.9988 
11845000    31.270931   -5193.3855   -5133.0769   -5193.3855            0    -997.4324    19.928333    20.007276    21.158055     8435.963   -392.63445   -1535.0496   -1064.6131   -114.81501    456.16684    184.02389   -5255.7909 
11846000    33.694799   -5190.5623   -5125.5791   -5190.5623            0   -913.48514    20.016829    19.936874    21.036339    8395.0348   -672.78864   -791.45075    -1276.216    24.900642     53.66329   -79.282078   -5237.4198 
11847000    31.754998    -5188.787   -5127.5448    -5188.787            0   -242.63147    19.987154    19.969275     20.95573     8364.039   -203.38506   -348.46227   -176.04707    76.118272    410.30308    185.47334   -5157.1412 
11848000    31.704694   -5189.8321   -5128.6869   -5189.8321            0   -938.49633    19.945971    20.013487    21.002924    8384.1244   -873.73475    -709.4926   -1232.2616   -100.64246    216.34066    84.984383   -5243.4405 
11849000    32.364914   -5190.9557   -5128.5372   -5190.9557            0   -1422.7205    20.018426    20.027609    20.970131    8407.3702   -1843.2874   -1150.3343   -1274.5398   -264.32326     256.2277   -160.02211   -5302.9811 
11850000    31.972512   -5190.1845   -5128.5228   -5190.1845            0   -540.99121    20.034393    20.014464     20.90338    8381.7877   -752.87578   -705.49569   -164.60215    -31.31166    575.86169   -162.72735   -5194.6534 
11851000     30.62467    -5192.113   -5133.0508    -5192.113            0   -765.66082    19.981329     20.03815    21.031007    8420.5816   -595.55111   -1221.0318   -480.39958   -212.85145    111.76614   -23.521799   -5227.0782 
11852000    32.342055   -5191.1628   -5128.7884   -5191.1628            0   -1158.6407    19.984215    20.008473     21.06419    8422.5928   -1274.0034   -1260.0506   -941.86814    23.252846   -75.865409   -333.53217   -5271.1099 
11853000    33.393738   -5192.0092   -5127.6066   -5192.0092            0   -1087.8677    19.997558    20.017488    21.004307    8408.0423     -1380.04   -427.13431   -1456.4289    130.11588    393.09861   -296.21569   -5261.0038 
11854000    32.570681   -5189.1637   -5126.3484   -5189.1637            0   -768.91964    20.052957    19.991296     20.89483    8376.4154   -1022.6474   -485.10605   -799.00543   -283.58853     569.7773   -48.883193   -5220.2807 
11855000    32.581774   -5186.5033   -5123.6666   -5186.5033            0   -749.68781    20.007166    19.887125    21.136082    8409.7298   -558.97828   -563.11948   -1126.9657   -100.74817    304.16425   -54.837281   -5215.6137 
11856000    30.853302   -5191.0025   -5131.4993   -5191.0025            0   -928.82522    19.972618    19.939333    21.028445    8374.3819   -1039.9633   -449.59898   -1296.9134   -115.18942    555.10586   -321.48508   -5244.9384 
11857000    31.482664   -5188.1239   -5127.4069   -5188.1239            0   -674.94822    20.012675    19.922513    21.022358    8381.6726    161.71489   -967.16001   -1219.3995   -122.63331   -324.92262    556.64676   -5209.9113 
11858000    33.089502   -5189.1338   -5125.3179   -5189.1338            0   -592.28622    20.015363    19.946047    20.969872    8371.7468   -1163.9145    -53.68541   -559.25879    -177.8408    659.19227    149.22799   -5197.6321 
11859000    33.305866   -5191.5101   -5127.2769   -5191.5101            0    -943.1774    20.088556     19.90992    21.062926    8424.3604   -1509.4156   -285.07564   -1035.0409   -251.78816    706.96273    453.40891   -5243.1563 
11860000      32.9659   -5188.0062   -5124.4287   -5188.0062            0    -1007.221    19.982024    19.952756    21.002542    8373.6389    -831.8241   -1223.4916   -966.34728   -192.99014    529.07642   -522.00008   -5247.4315 
11861000    33.319427    -5187.667   -5123.4077    -5187.667            0   -1053.9792    20.030278    19.997885    21.024059    8421.4644   -1533.8941   -646.66602   -981.37748     21.92238   -46.797392     203.6214   -5252.8557 
11862000    32.981808   -5191.0585   -5127.4503   -5191.0585            0   -1227.8196     20.08671    19.971503    20.996163    8422.8585   -976.65335   -1745.5297   -961.27566   -270.10277    398.16173   -86.963233   -5278.2741 
11863000    30.830796   -5190.8045   -5131.3448   -5190.8045            0   -895.80517     20.00661    20.063809    20.931794    8402.2061   -818.69585   -1120.8068   -747.91289     167.7924    457.40261    112.66602   -5241.1145 
11864000    32.675087   -5189.6987   -5126.6821   -5189.6987            0   -684.39322    19.976829    20.015963    20.913013    8362.1826   -137.91711   -1261.9375   -653.32509   -453.16411     298.2426    317.02116   -5210.1465 
11865000    31.263394   -5187.7059   -5127.4118   -5187.7059            0   -708.56786    19.972638    19.964862    21.039673    8389.5896   -446.61722   -809.41294   -869.67342   -282.07968   -369.81037    578.25216   -5214.1076 
11866000     31.18808   -5190.9404   -5130.7916   -5190.9404            0   -723.32422    20.037202    19.961778    21.022996      8408.74   -894.61352   -552.04967   -723.30947   -206.70919    358.88287   -338.08531   -5219.4949 
11867000    31.049713   -5192.1448   -5132.2628   -5192.1448            0   -392.16334    20.021773    20.008158     20.98255    8405.5844   -497.81849   -201.18503    -477.4865    -35.69256    60.273896   -360.79344   -5180.3369 
11868000     31.63854   -5191.5277   -5130.5101   -5191.5277            0    -615.0445     20.08921    19.966933    20.828627    8354.7768   -1168.1481   -649.70432   -27.281071   -204.93898   -242.71995   -51.662766   -5205.4507 
11869000    32.632348   -5193.9622   -5131.0279   -5193.9622            0   -964.82397    20.026932     19.95612    21.048303    8412.1616   -1283.2591   -600.40746   -1010.8054   -107.32784    135.49106   -170.73503   -5249.3952 
11870000    32.605363   -5191.0193   -5128.1372   -5191.0193            0   -797.13953    20.014197    19.978927    20.939803    8373.0356    -258.0205   -1113.0641    -1020.334    -317.4979    480.73306   -31.441703   -5225.4776 
11871000    30.398114   -5192.2197   -5133.5943   -5192.2197            0   -972.14756    19.996603    19.977973    21.053371     8410.645   -630.44976   -1373.2802   -912.71276   -203.91411    190.10539   -373.17565   -5252.8386 
11872000    31.659277   -5187.3148   -5126.2572   -5187.3148            0    -1361.178    20.030242    20.039976    21.029246    8441.2566   -1124.4222   -1433.7635   -1525.3483    107.10879    145.71205   -242.50354   -5293.8278 
11873000    30.453924    -5186.157    -5127.424    -5186.157            0   -1008.5294    20.037773     19.98322     21.05727    8431.7359   -1078.1581   -989.08136   -958.34874    -159.3823    9.6061399    77.039938   -5251.4411 
11874000    32.008919   -5188.6492   -5126.9173   -5188.6492            0   -265.25126    19.980342     19.92395    21.075854    8390.0304    800.92658    145.71804   -1742.3984    32.396359    7.4877706   -543.26031   -5159.3735 
11875000    32.882434   -5187.9649   -5124.5484   -5187.9649            0   -722.54172    20.023903    19.964329    20.962765    8380.1542   -832.55373    -820.4917   -514.57974   -80.302791    420.57197    198.26659   -5212.8545 
11876000    30.207732   -5191.0511    -5132.793   -5191.0511            0   -693.55959    19.977163    20.046632    20.858457    8353.2872   -913.78416   -240.36613   -926.52848   -101.14821    269.28269    561.11802   -5217.2853 
11877000    31.888465   -5190.2691   -5128.7695   -5190.2691            0   -634.26256    20.010314     19.93828    21.032144    8391.2203   -951.12885   -70.123248   -881.53558   -148.20734    161.40172    211.57064   -5206.3888 
11878000    31.940846   -5191.2401   -5129.6395   -5191.2401            0   -545.61664    19.989595    19.918602    21.090436    8397.4691   -801.20714   -57.180918   -778.46188   -101.07471     257.4171    53.320662   -5196.4603 
11879000    34.038997   -5188.5591   -5122.9121   -5188.5591            0   -1016.7297    20.043373    19.871185    21.086871    8398.5962   -1156.8961   -490.82655   -1402.4665   -116.47161    591.05589    193.48967   -5247.4461 
11880000    29.873796    -5191.392   -5133.7778    -5191.392            0   -987.02727     19.97827    20.003697    20.982455    8385.4128   -303.40657   -1666.6387   -991.03656   -266.35236    356.44575   -140.17541    -5254.484 
11881000    30.055639   -5189.5127   -5131.5479   -5189.5127            0   -150.35943    20.042577    19.887365    21.103478    8411.7209   -250.00754    205.01927   -406.09001   -228.19001    405.21828   -111.82648   -5149.9934 
11882000    32.983558   -5187.2777   -5123.6661   -5187.2777            0   -629.45432    19.987764    19.959627    21.066531    8404.4573   -26.213486   -513.38717   -1348.7623   -242.79276  -0.56078165   -146.66091   -5200.8186 
11883000    32.737448   -5187.6787   -5124.5418   -5187.6787            0   -673.22302    19.933715    20.012108    21.089148     8412.791   -599.40013   -287.93655   -1132.3324   -281.09695   -9.6088532    481.78802   -5207.1408 
11884000     30.91874   -5189.0209   -5129.3915   -5189.0209            0   -990.86901    19.980765    19.994464    20.958858    8373.1618   -1514.8341   -684.13363   -773.63927   -46.808188    503.81977    30.710553   -5250.3904 
11885000    33.370869   -5194.1694   -5129.8109   -5194.1694            0   -724.12421    20.066137    20.005229    20.911827    8394.5861   -975.96469   -600.00814   -596.39978   -146.78185    -362.0388   -349.96998   -5218.4628 
11886000    32.199178   -5189.9853   -5127.8864   -5189.9853            0   -1481.0249    20.026939    20.013876    21.014925    8423.1327   -1258.3164   -1972.4312    -1212.327   -206.06362    594.74202   -48.010203   -5309.8196 
11887000    31.663158   -5191.2312   -5130.1662   -5191.2312            0   -1399.7727    20.038607    19.984045    21.028846     8421.052   -1125.9075   -1796.8803   -1276.5304   -278.00183    351.91215    13.169548   -5302.0756 
11888000    32.057118   -5192.4528    -5130.628   -5192.4528            0   -48.317774    19.996007    19.933435    20.971404    8358.9729   -63.585023   -247.20968    165.84138   -217.42401    182.04485   -223.58384   -5136.5183 
11889000    30.989613   -5193.4511   -5133.6851   -5193.4511            0   -649.73674    20.009772    19.944875     21.02805    8392.1348    -850.9033   -678.69298   -419.61394   -112.48963   -134.93337   -132.41564   -5213.2068 
11890000    32.537172    -5188.427   -5125.6763    -5188.427            0   -898.80161    20.004011    19.956791    21.089751    8419.3632    -1143.323   -538.01902   -1015.0628    184.44616    146.71834   -94.215351   -5236.0382 
11891000    32.381639   -5192.0406   -5129.5898   -5192.0406            0    -605.3787    20.027279    19.896981    21.045815    8386.3865   -436.23816     -333.932    -1045.966   -157.29265    141.50029    4.9601996   -5203.6318 
11892000    31.577779   -5187.9124    -5127.012   -5187.9124            0   -1445.8767    20.040798    20.001901    20.992352    8414.8692    -997.8051   -1890.8315   -1448.9934   -515.17473   -34.266514   -213.09158   -5304.4532 
11893000    30.726989   -5187.8397   -5128.5801   -5187.8397            0   -534.00754    20.024908    19.953323    20.941786    8367.5726   -575.14516   -292.48605   -734.39141   -180.68194    158.80418   -503.70355   -5193.7464 
11894000    31.495793   -5189.7588   -5129.0165   -5189.7588            0   -444.77828    20.049962     19.89337    21.018779     8383.578   -1078.5473    114.66763   -370.45516     223.1848    672.12847    144.26726   -5183.3978 
11895000    32.456517   -5191.0881    -5128.493   -5191.0881            0   -1088.4704    19.983203    20.012544    21.045929    8416.5775   -909.31141   -1185.2765   -1170.8232   -125.26822    555.63071    92.699826   -5262.0996 
11896000    31.606139   -5191.0651     -5130.11   -5191.0651            0   -1074.8988    20.032904    19.959199     21.02736    8407.5947   -1759.8228   -336.83897   -1128.0345    31.332935    7.4298518    262.80492   -5261.9099 
11897000    31.361995   -5192.3487   -5131.8645   -5192.3487            0   -514.88467    20.010644    19.953876    21.003514    8386.4913   -681.16958   -649.79287   -213.69156   -83.241194    638.12988    456.88635   -5194.8392 
11898000     30.40075   -5189.8982   -5131.2678   -5189.8982            0   -180.83916    20.008287    19.977034    20.998425    8393.2013   -387.16799   -80.008814   -75.340689   -142.12788     22.16227   -287.69085   -5153.4036 
11899000    33.481304   -5190.3331   -5125.7616   -5190.3331            0   -1099.2555    20.036289     19.97444    20.988119    8399.7317   -1435.7503   -701.30579   -1160.7104   -184.62398     147.4989   -535.07175    -5260.422 
11900000    31.331145   -5190.4625   -5130.0378   -5190.4625            0   -864.09836    20.086525    20.025151    20.921432     8415.347   -1128.2666   -1076.6969   -387.33158   -33.750371   -153.48212    18.331629   -5236.0879 
11901000    32.999248   -5187.7665   -5124.1247   -5187.7665            0   -936.33552    19.991616    19.997527    21.012345    8400.3758   -1748.3209    -295.0104   -765.67522   -198.16056    338.78125   -10.294834    -5238.836 
11902000    32.808601   -5189.1946   -5125.9205   -5189.1946            0   -973.89328    19.988009    20.009269    21.094497    8436.6478   -655.37104   -1234.7785   -1031.5303   -522.11654    637.11309    313.24137   -5245.7482 
11903000    31.791848   -5189.9487   -5128.6355   -5189.9487            0    -464.8305    19.984223    19.957289     21.04679    8394.1105    76.019115   -644.23136   -826.27925    25.378358   -360.32369    -414.8382   -5185.5398 
11904000    32.242367   -5190.4578   -5128.2757   -5190.4578            0   -711.97279     20.07227    19.903662     21.03012    8401.7787   -694.31646   -531.42703   -910.17488    87.844623     212.6106    411.82372   -5215.5147 
11905000    30.940636   -5189.2323   -5129.5606   -5189.2323            0   -950.96587    19.972048    19.970139    21.052169    8396.5432   -742.72617   -668.33008   -1441.8414   -209.97291    138.34469    166.64595   -5246.0111 
11906000     31.05216     -5190.24   -5130.3533     -5190.24            0   -639.49213    19.984612    19.966792    21.126814    8430.2028   -501.45237   -887.34896   -529.67505   -85.383533    109.68191   -56.237485   -5208.9762 
11907000    33.697133   -5192.4667   -5127.4789   -5192.4667            0   -154.72446    19.970148    19.989663    20.963795    8368.6741    74.016365   -559.70359    21.513851   -81.238834   -165.77669    203.48447   -5146.3628 
11908000    30.399905   -5191.8481   -5133.2194   -5191.8481            0   -1216.4163    19.996603    19.968653    21.097927    8424.5127     -781.113   -1203.1695   -1664.9663    -236.9426    353.17291   -539.12412   -5282.6718 
11909000    31.286245   -5189.2362    -5128.898   -5189.2362            0   -1069.4386    20.003192    19.978121    21.137157    8446.9613   -1615.2002   -744.99127   -848.12431   -97.942176    660.17541    159.08157   -5260.6425 
11910000    31.610226   -5188.5866   -5127.6237   -5188.5866            0   -725.51887    20.006906    19.932725    21.069271    8402.2598   -719.24322    -743.0154     -714.298   -191.02284    527.38447    87.656434   -5216.5275 
11911000    31.788842    -5191.626   -5130.3186    -5191.626            0    -656.7406    20.037581     19.93987    20.990193    8386.5637   -1162.0629    248.25133   -1056.4102    28.085692   -318.00477    37.900992   -5210.6441 
11912000    30.722249   -5186.9069   -5127.6565   -5186.9069            0    -257.3436    19.996907    19.953378    20.975099     8369.187    223.60264   -639.17246     -356.461   -88.702519   -320.56986   -309.94788   -5159.0668 
11913000    31.471704   -5187.1708    -5126.475   -5187.1708            0   -1464.9713    19.953574     20.01604    21.065187     8413.257   -1030.9877   -1674.8017   -1689.1245    -89.73078   -200.77226    -329.1664   -5306.2251 
11914000    32.029289   -5193.0442    -5131.273   -5193.0442            0    -570.1675    19.975396    19.992562    21.026579    8397.1611   -144.46165   -1037.6266   -528.41427    -160.3496   -29.857922    31.867181    -5201.098 
11915000    31.781699   -5190.3882   -5129.0945   -5190.3882            0   -852.64428    19.972725    20.086057    20.914996    8390.5378   -601.72427   -1331.6537    -624.5549   -151.06112    459.83907   -111.16855   -5233.4304 
11916000    33.243998   -5190.5689    -5126.455   -5190.5689            0    -545.1962    20.005239    19.940994    21.033348    8390.7148    50.030273   -1028.0003    -657.6186   -284.28118    116.66309   -170.49414   -5193.1707 
11917000    32.569413   -5191.8013   -5128.9885   -5191.8013            0   -698.02977     20.07071     19.95394    20.943323    8387.5859   -1247.7057   -242.00297   -604.38068   -67.964917    71.718112    163.26742   -5214.3745 
11918000    33.485589   -5188.4633   -5123.8836   -5188.4633            0   -1193.8699    20.052842    20.020873    20.914955    8396.8399   -1503.6279     -1019.88   -1058.1018   -94.809798   -328.28737    11.857369    -5270.084 
11919000    32.707849   -5188.5032   -5125.4234   -5188.5032            0   -495.22859    20.014206    20.000232    20.899095    8365.6728   -873.68285    129.55467    -741.5576   -65.563174    -442.6217   -127.70153   -5185.8436 
11920000    31.535292   -5188.5431   -5127.7247   -5188.5431            0   -1105.7808    20.025289    19.959185    21.008576    8396.8851   -1099.3801   -896.76818   -1321.1941   -103.84512    -57.38356     319.8904   -5263.1385 
11921000    33.230804   -5190.6672   -5126.5788   -5190.6672            0   -989.43154    20.011664    19.987023    20.978174    8390.7157   -1048.1521   -1097.4589   -822.68358   -92.106144    8.8037921   -86.762689   -5247.6556 
11922000    32.734067   -5193.8307   -5130.7003   -5193.8307            0    -1050.653    20.082213    19.944643    20.942123    8388.0022   -1411.9723   -442.86525   -1297.1214    17.154995    721.34351   -75.583144   -5259.2271 
11923000    32.168588    -5194.034   -5131.9942    -5194.034            0    -1157.838    20.021446    19.984206    21.061244    8426.8714   -958.48934   -1168.1863   -1346.8384   -89.234023    126.70976   -105.00582   -5274.2893 
11924000    31.779712   -5189.2816   -5127.9918   -5189.2816            0   -825.49685    20.011649    19.930631    21.038345    8391.0341   -670.17947   -631.94234   -1174.3687   -285.44401    354.83092    198.11186   -5229.0116 
11925000    31.825758   -5190.0402   -5128.6616   -5190.0402            0   -685.73566    19.941863    20.024859    21.066009    8412.3527   -430.08142   -1144.5502   -482.57532   -224.24053     318.4392   -76.319326   -5212.7914 
11926000     31.95994   -5192.6002   -5130.9628   -5192.6002            0   -505.09037    20.070644    19.914801    20.971323     8382.298   -948.93598    89.574163    -655.9093   -43.613478   -15.005215    703.15769   -5192.7087 
11927000    32.948202    -5190.664   -5127.1207    -5190.664            0   -1015.8986    20.085294    19.912186    20.990866    8395.1316   -1699.6952   -227.04949    -1120.951   -92.018415    127.55946   -79.010373   -5251.5016 
11928000    32.933382   -5192.1335   -5128.6187   -5192.1335            0   -292.38025    20.041236    19.954337    20.982051    8390.9232    -742.0159   -179.76563    44.640774   -43.877847   -7.7913352    85.228746   -5164.3981 
11929000    31.380661   -5185.1603   -5124.6401   -5185.1603            0    -945.4505    19.906123    20.027681    21.034538    8385.9126    -375.1708   -1576.0722   -885.10854    -56.06131   -253.74029    90.962427   -5240.2686 
11930000    32.841706   -5190.0884   -5126.7504   -5190.0884            0   -638.28027    20.046483    19.981584     20.90239    8372.6712   -791.66936   -804.81944   -318.35201   -147.78149   -214.96366    279.40186   -5204.6888 
11931000    31.373909   -5190.2662    -5129.759   -5190.2662            0   -672.62972    20.033009    19.942504    21.010173      8393.74    -1115.975    2.1161172   -904.03026   -204.01504    136.68564    165.35126   -5212.0983 
11932000    31.230101   -5188.8116   -5128.5817   -5188.8116            0     -1285.21    20.036615    19.934377    21.095777    8426.0216   -1516.4426   -877.48341    -1461.704   -75.856539    579.66913    272.40733   -5286.5146 
11933000    30.892967   -5191.5663   -5131.9866   -5191.5663            0    -795.1423    19.935315    19.991315    21.014069    8374.8033   -757.29789   -338.14251   -1289.9865     98.00769    395.19703    -49.63033   -5229.1036 
11934000    31.017217   -5190.9696   -5131.1502   -5190.9696            0   -853.45667     19.98095    19.995471    20.999255    8389.8011   -926.92756   -429.04889   -1204.3935    -194.4729    408.49871     410.2222   -5235.5763 
11935000    33.277303    -5189.413   -5125.2349    -5189.413            0   -753.61261    20.060924    19.951027    20.915045    8370.9549   -1059.4786   -686.58013   -514.77908   -179.46336    82.958527    273.59046   -5217.2373 
11936000    32.545405   -5187.6681   -5124.9015   -5187.6681            0   -1065.0622     20.00487    19.934088    21.029548    8386.1385   -1290.0924   -939.67459   -965.41944   -246.98738    85.321125   -246.25282   -5255.1621 
11937000    31.448117   -5190.7009   -5130.0505   -5190.7009            0   -799.15623    19.947122    20.041966    20.986994    8390.1712    -876.4787   -1010.3099   -510.68011   -43.679741    250.51811     347.7849   -5227.8369 
11938000    32.808329   -5190.0304   -5126.7568   -5190.0304            0   -967.63537    20.061848    19.944865    21.023742    8412.2477   -1555.0397   -387.65992   -960.20649   -134.63267    540.81466   -612.12776   -5245.4701 
11939000    30.864355   -5190.3846   -5130.8601   -5190.3846            0   -880.44527     19.96868    20.035339     21.05686    8424.4137    -722.0103   -898.39536   -1020.9302   -202.17469     611.6723    331.63134   -5239.0329 
11940000    32.168958   -5185.2552   -5123.2147   -5185.2552            0   -694.45282    19.966149    19.993091    21.090933     8419.185    -483.2006   -687.91095   -912.24691    -64.87683   -64.781223   -387.40181   -5208.4832 
11941000    32.248182   -5190.7128   -5128.5195   -5190.7128            0    -731.2303     19.99715    19.998028    20.993081    8395.2078   -883.33734    -584.1328   -726.22076   -173.39317    21.100399    321.65853   -5218.0481 
11942000    32.481636   -5189.3238   -5126.6802   -5189.3238            0    -981.9248    20.017795    19.997373    20.991365    8402.9132   -1064.4338   -1350.9164   -530.42421   -45.034822   -319.54552    408.19641    -5247.013 
11943000    31.263007   -5189.5248   -5129.2314   -5189.5248            0   -802.10946    20.090031    19.974162    20.886301    8381.2869   -1716.2725    -113.6306   -576.42532   -340.78756    429.36423    37.940104   -5227.2753 
11944000    32.904581   -5188.0886   -5124.6294   -5188.0886            0    -677.9541     20.02676    20.021503    20.931284    8392.7295    -496.9656   -1180.5986   -356.29808   -179.03064   -8.8162202    27.070262   -5207.6105 
11945000    33.020038   -5191.2992   -5127.6173   -5191.2992            0   -210.16677    19.994543     19.95943    20.955643    8362.9713   -758.45358    152.92082   -24.967539   -156.79462    91.777729    96.605755   -5153.2504 
11946000    32.094729   -5189.8307   -5127.9334   -5189.8307            0   -1245.9887    19.992492    19.966588    21.089907     8418.708   -769.72495   -1428.3058   -1539.9354    -116.1611    208.11184    33.720861   -5280.9136 
11947000    32.117971   -5190.4118   -5128.4696   -5190.4118            0   -866.21148    20.039853    19.948174    20.970951    8383.3158   -1070.1178   -335.43013   -1193.0865    99.025248   -185.36037   -60.030161   -5234.3744 
11948000    32.726781   -5191.6787   -5128.5623   -5191.6787            0   -357.34968    19.937317    19.971471    21.106127     8403.986    -32.69635   -220.46795   -818.88475    -101.1134    249.17084   -189.98893   -5172.3604 
11949000    33.720232   -5190.5107   -5125.4784   -5190.5107            0   -633.03111    19.934476    19.972042    21.064474    8386.4454   -468.62317   -473.72121   -956.74895   -213.59869    323.09399    254.42509    -5202.903 
11950000    30.450231   -5188.6158   -5129.8899   -5188.6158            0    -1201.297    20.040685    19.983974    21.010131    8414.4003   -1418.5143   -1182.5041   -1002.8726   -82.975506    788.75239   -383.54527   -5277.3076 
11951000    31.287144   -5188.8345   -5128.4946   -5188.8345            0   -1227.7784    20.015832    20.009586    20.945931    8389.0234    -1467.074    -1035.975   -1180.2863     101.8658    422.97263    321.83771   -5278.7076 
11952000    31.686247   -5189.5668   -5128.4573   -5189.5668            0   -638.10095    20.054909     19.96466    20.926048    8378.5685   -792.40147   -705.29248   -416.60889   -191.64993   -58.769534   -203.25083   -5206.4286 
11953000    30.605993   -5189.6999   -5130.6736   -5189.6999            0   -1002.7627    20.048449    20.004123    20.979277    8413.7736   -1208.1759   -1065.5357    -734.5765   -58.384436    118.69025    110.19347   -5253.7189 
11954000    31.911634   -5192.8457   -5131.3014   -5192.8457            0   -1001.3836    20.068219    19.981518    20.972257    8409.7384   -917.04798   -1175.5272   -911.57575   -80.362598    856.42985    26.676607   -5254.1186 
11955000      31.2605   -5193.4584   -5133.1699   -5193.4584            0   -832.64633    20.043613    19.975265    20.933828    8381.4127   -611.39976   -903.71908   -982.82015   -186.19027    598.53589    166.91114   -5234.9479 
11956000     32.43039   -5193.6964   -5131.1517   -5193.6964            0   -821.47053    20.025636    19.936847    21.024684    8394.0633   -665.70013   -960.75611   -837.95535   -172.08929    49.057423    123.03953   -5231.7151 
11957000    31.467762   -5190.4702   -5129.7819   -5190.4702            0   -671.15075    20.012139    19.995662    20.929462    8375.0492   -1057.3543   -645.20279   -310.89512     97.73308   -246.75177   -94.472952   -5211.7573 
11958000     32.11963    -5190.615   -5128.6696    -5190.615            0   -590.64606    19.982198    19.984618    20.977711    8377.1677   -478.68051   -903.69569   -389.56199   -152.05684    439.57878   -184.46435   -5200.8303 
11959000    30.692587   -5188.8352   -5129.6419   -5188.8352            0   -717.45856    19.961216    19.954036    21.103533    8405.6811    77.189318   -1423.6849   -805.88012   -269.92916    24.726257    15.922443   -5217.5939 
11960000    31.870116   -5185.2683   -5123.8041   -5185.2683            0    -693.5304     20.02747     19.92569    21.060821    8404.5557   -70.962786   -1073.7684      -935.86    72.410902   -37.943791   -54.901264   -5208.8114 
11961000     32.39389   -5189.8758   -5127.4014   -5189.8758            0   -371.45047    19.960966    19.942567    21.081561    8391.9978   -44.150737   -118.28821   -951.91245   -86.267559    537.58194    210.28183   -5172.8628 
11962000    31.783487   -5189.7974   -5128.5003   -5189.7974            0   -578.60967    19.985232    19.979388    21.029406    8396.8884   -592.37191   -587.33632    -556.1208   -212.68622    276.09659   -76.050792   -5199.3569 
11963000    33.754898   -5191.0735   -5125.9743   -5191.0735            0   -713.49893    19.971196    19.981345    20.953986    8361.7163   -168.28058   -940.33609   -1031.8801    -61.29887    280.07828     27.83086   -5212.9834 
11964000     34.58008   -5193.9394   -5127.2488   -5193.9394            0   -1125.6041    20.036496    19.901073    21.031057    8386.0873   -1606.1662    -5.394164   -1765.2519   -141.66983    250.55729   -500.07188    -5264.913 
11965000    30.508196   -5192.2011   -5133.3635   -5192.2011            0   -1384.5649    20.028736    19.945059      21.0911    8425.3532   -1187.6012   -1341.1419   -1624.9515   -166.24587    490.25523    2.4452579   -5303.4921 
11966000    30.259405   -5188.2448    -5129.887   -5188.2448            0   -807.68247    20.026196    19.965427    20.996943    8395.2399   -570.77363   -900.01394   -952.25984   -393.93733    100.51634    -143.2181   -5228.7763 
11967000    30.282016    -5192.195   -5133.7936    -5192.195            0   -1096.3568    19.986818    19.947775    21.095212    8410.5041   -1356.9304   -740.13775   -1192.0021   -355.55164    754.51959    114.18671   -5268.2711 
11968000    33.059025   -5189.5694   -5125.8123   -5189.5694            0   -496.83471    20.020499    19.924559    21.007786    8379.9978   -744.30513   -323.28709   -422.91191     -149.201   -275.61056    300.70063   -5186.5323 
11969000    31.924484   -5188.9787   -5127.4097   -5188.9787            0   -581.27024    19.964241    20.011194    20.977113    8380.5308   -1071.9239   -386.63981   -285.24707   -100.75681     263.9162    221.41886   -5198.4534 
11970000    31.236595   -5192.3685   -5132.1261   -5192.3685            0   -1086.8667    19.957447    20.017715    21.017386    8396.4984   -854.06869    -1487.608   -918.92349   -87.557077    187.58648    89.166689   -5265.2176 
11971000    31.551816   -5189.9353   -5129.0849   -5189.9353            0   -566.24548    19.927302    20.006422     21.12445    8421.7691   -131.15786   -988.99783   -578.58074    -174.0467   -56.240301   -113.47493   -5198.6328 
11972000    31.605876   -5194.1956    -5133.241   -5194.1956            0   -873.42597    20.025874    19.928057     21.06498    8406.5443    -793.5555   -686.16219   -1140.5602   -297.11559    532.59502   -18.257778   -5240.3237 
11973000    30.962126   -5189.6916   -5129.9786   -5189.6916            0   -565.63974    20.011318     19.92172    21.164025    8437.2477   -1288.4548    71.336723   -479.80112    188.80433   -102.06051    616.83145   -5199.5798 
11974000    31.668159   -5189.4955   -5128.4208   -5189.4955            0   -324.39335    19.946759    20.038366    20.974174    8383.3872    367.06166   -1082.0725   -258.16916   -372.46339   -445.13667    109.57677   -5168.0821 
11975000    29.616648   -5188.2699   -5131.1517   -5188.2699            0   -1667.1157    20.022903    20.036472     20.95588    8407.2545   -1836.8588   -1799.1385   -1365.3498   -176.50329    191.23174     -120.114   -5335.5587 
11976000     31.53247   -5188.8707   -5128.0577   -5188.8707            0   -471.35187    19.955666    19.999095     21.06224    8405.8407     29.37558   -856.15895   -587.27225   -53.380146    548.20256   -189.61233    -5185.841 
11977000    33.826896   -5187.7335   -5122.4954   -5187.7335            0    -588.6653    20.004609     19.92016    21.083552    8401.6904    -337.7537   -853.85983   -574.38236   -555.61237    109.61721   -186.09681   -5194.6246 
11978000    33.440286   -5190.4351   -5125.9427   -5190.4351            0   -426.76288    19.959869     19.99404    20.992104    8377.4959   -380.87824   -771.33657   -128.07383   -118.29415    217.10792   -241.51308   -5178.0833 
11979000    32.781832   -5189.5919   -5126.3694   -5189.5919            0   -539.38205     20.06264    19.979169    20.988543    8412.9401   -801.98782   -847.46958    31.311245    34.413639    816.93219    -178.0221   -5192.5484 
11980000    33.651616   -5188.1096   -5123.2096   -5188.1096            0   -1029.2981    20.062751    19.963406    21.059917    8434.9354    -1796.499   -226.83746   -1064.5579   -19.734866   0.97469897   -396.17559   -5249.8286 
11981000    33.916484   -5190.7886   -5125.3778   -5190.7886            0   -1079.8704    20.008703    19.984425    21.074572    8426.9293   -1076.9951    -824.1056   -1338.5104   -159.28827    239.22959    98.748579   -5258.0918 
11982000    32.352958   -5190.6763   -5128.2809   -5190.6763            0   -676.05665      19.9978    19.997445    20.970262    8386.1106   -555.66195   -590.68224   -881.82575   -74.569193    139.14947     388.0179   -5210.9645 
11983000    31.611109    -5190.862   -5129.8973    -5190.862            0   -1027.0384    20.104408    19.965532    20.957568    8412.2672   -756.91459   -1625.3682   -698.83225   -118.58525   -104.55148    250.56907   -5255.8987 
11984000    33.707607   -5191.4876   -5126.4796   -5191.4876            0   -925.45645    19.998038    19.989933    21.065193    8421.0095   -33.864954   -1656.0007   -1086.5037    56.554436    167.63488   -51.440564   -5240.1366 
11985000    31.744278   -5193.1627   -5131.9412   -5193.1627            0   -760.92018    20.048498    20.008525    20.902547    8384.8664   -980.62876   -1073.5716   -228.56023    25.851333    337.77056    128.58355   -5224.9901 
11986000    31.010373    -5191.926   -5132.1199    -5191.926            0   -786.97908    19.983822    19.986007    20.993004    8384.5388   -1009.5229   -751.41462   -599.99975   -196.21722    255.21273   -365.05544   -5228.3516 
11987000    33.211408   -5192.5406   -5128.4896   -5192.5406            0   -608.72047    20.011295    19.965927    21.008339    8393.7568    -725.6439   -581.61238   -518.90513   -78.256772    116.25124   -70.641058   -5203.0057 
11988000    33.189269   -5190.2911   -5126.2828   -5190.2911            0   -827.78663    20.015839    19.978505    21.030725    8409.9038   -956.63116    -268.1778   -1258.5509    47.672774    18.192672   -335.66552   -5227.8107 
11989000    31.831601   -5188.9754   -5127.5855   -5188.9754            0     -596.258    20.054641    20.014545    20.919694    8396.8413   -270.67801   -1216.2427   -301.85333   -21.361087    26.322325   -292.74285   -5200.6028 
11990000    31.957866   -5188.4266   -5126.7931   -5188.4266            0   -110.43282     19.99788    20.015145    20.879918    8357.4059   -583.98864    166.45156    86.238619   -230.86568    79.561873    200.74884   -5140.2532 
11991000    31.447735   -5191.4882   -5130.8386   -5191.4882            0   -874.47962    20.011259    19.996158    21.020842    8411.4542   -1058.3369   -921.29918   -643.80275   -261.73941   -611.30258   -81.449503   -5238.1132 
11992000    32.572119   -5190.8022   -5127.9841   -5190.8022            0   -860.42783    20.064001    19.997149    20.950058    8405.6411   -1119.4367   -749.16204   -712.68471   -113.36489   -338.50589    91.854267    -5233.462 
11993000    31.946055   -5188.2635   -5126.6528   -5188.2635            0   -1010.4151    20.058446    19.988566    21.028444    8431.1351   -1441.8596   -643.00225   -946.38339    -121.6983    88.506274   -336.76717   -5250.8929 
11994000    33.056064   -5190.0227   -5126.2713   -5190.0227            0   -779.53662    20.039974    20.020806    20.925625    8395.7049   -841.20462   -922.25136   -575.15389     18.78628    68.073625    518.99278   -5221.7199 
11995000    33.986186   -5188.8717   -5123.3265   -5188.8717            0   -932.35595    19.936936    19.993434    21.076033    8401.0718   -486.65072   -1215.8097   -1094.6074   -26.656913    143.78127   -119.02167   -5237.5596 
11996000    32.578732   -5188.3611   -5125.5303   -5188.3611            0   -729.32959    20.023058    19.953236    21.006999    8392.8175   -242.88756   -1118.8988   -826.20237   -154.43345    645.94216   -198.44711   -5214.8007 
11997000    31.787124   -5189.5877   -5128.2836   -5189.5877            0   -886.30499    20.010916    19.995588    20.992343     8399.667   -888.77916   -688.78672   -1081.3491   -225.87766    340.97657    199.27372   -5236.8564 
11998000    32.638563   -5187.7612    -5124.815   -5187.7612            0   -907.25809    20.031925    19.972067    21.060701    8425.9431   -1033.3494   -903.18314   -785.24173   -26.952701   -23.248163    130.49926   -5236.3022 
11999000    31.291739   -5192.5781   -5132.2293   -5192.5781            0   -646.44928    19.961803    19.940474    21.025193    8369.0322   -306.51492   -436.82701   -1196.0059   -186.79215   -134.01122   -210.44417   -5211.1309 
12000000    33.369582    -5188.448    -5124.092    -5188.448            0   -638.10141    19.965389    20.012152    21.001133    8391.0112   -954.59047   -145.72086   -813.99289   -79.919681   -373.13078    416.46964   -5202.1792 
Loop time of 351.531 on 64 procs for 250000 steps with 972 atoms

Performance: 122.891 ns/day, 0.195 hours/ns, 711.174 timesteps/s
99.1% CPU use with 64 MPI tasks x 1 OpenMP threads

MPI task timing breakdown:
Section |  min time  |  avg time  |  max time  |%varavg| %total
---------------------------------------------------------------
Pair    | 16.875     | 26.515     | 36.212     |  90.4 |  7.54
Bond    | 0.25708    | 0.27277    | 0.28497    |   1.2 |  0.08
Kspace  | 141.15     | 150.71     | 160.86     |  38.3 | 42.87
Neigh   | 0.071763   | 0.074423   | 0.077483   |   0.6 |  0.02
Comm    | 81.305     | 82.167     | 83.135     |   4.6 | 23.37
Output  | 0.51292    | 0.51327    | 0.51457    |   0.0 |  0.15
Modify  | 81.896     | 83.228     | 86.237     |  11.5 | 23.68
Other   |            | 8.05       |            |       |  2.29

Nlocal:        15.1875 ave          19 max          11 min
Histogram: 2 6 8 8 0 12 6 13 6 3
Nghost:        2204.88 ave        2229 max        2175 min
Histogram: 2 0 5 4 16 12 7 12 3 3
Neighs:        4706.59 ave        6248 max        3214 min
Histogram: 5 5 6 10 7 8 7 8 4 4

Total # of neighbors = 301222
Ave neighs/atom = 309.89918
Ave special neighs/atom = 2.0000000
Neighbor list builds = 250
Dangerous builds = 0

unfix		3
unfix		2
unfix		1

write_data	data.final.${pid}
write_data	data.final.1
System init for write_data ...
PPPM initialization ...
  extracting TIP4P info from pair style
  using 12-bit tables for long-range coulomb (../kspace.cpp:340)
  G vector (1/distance) = 0.3721712
  grid = 24 24 25
  stencil order = 5
  estimated absolute RMS force accuracy = 0.0034358973
  estimated relative force accuracy = 1.0347103e-05
  using double precision FFTW3
  3d grid and FFT values/proc = 2366 288
Last active /omp style is kspace_style pppm/tip4p/omp
WARNING: Not all mixed pair coeffs generated from mixing. Use write_data with 'pair ij' option to store all pair coeffs. (../write_data.cpp:312)

write_restart   restart.lmp.${pid}
write_restart   restart.lmp.1
System init for write_restart ...
PPPM initialization ...
  extracting TIP4P info from pair style
  using 12-bit tables for long-range coulomb (../kspace.cpp:340)
  G vector (1/distance) = 0.3721712
  grid = 24 24 25
  stencil order = 5
  estimated absolute RMS force accuracy = 0.0034358973
  estimated relative force accuracy = 1.0347103e-05
  using double precision FFTW3
  3d grid and FFT values/proc = 2366 288
Last active /omp style is kspace_style pppm/tip4p/omp
Total wall time: 0:05:51
