LAMMPS (30 Jul 2021)
Processor partition = 1
  using 2 OpenMP thread(s) per MPI task
using multi-threaded neighbor list subroutines
variable        pid world 0 1
variable        phase world IceV IceIII

shell cd ${phase}
shell cd IceIII
include Restart.lmp
echo both
log log.lammps
#include		in.partitions
include		in.temp
variable        temperature equal 141.47
variable	tempDamp equal 100.0
include		in.pressure
variable        pressure equal 7176.3
variable        pressureDamp equal 1000.0 # This is 1 ps
include		in.seed
variable        seed equal 745823

units		real
atom_style	full

read_restart	restart.lmp.${pid}
read_restart	restart.lmp.1
Reading restart file ...
  restart file = 30 Jul 2021, LAMMPS = 30 Jul 2021
  restoring atom style full from restart
  orthogonal box = (0.12965826 0.079598392 0.19097892) to (19.870343 19.920403 20.509019)
  2 by 4 by 4 MPI processor grid
  restoring pair style lj/cut/tip4p/long/omp from restart
  restoring bond style harmonic/omp from restart
  restoring angle style harmonic/omp from restart
  972 atoms
  648 bonds
  324 angles
Finding 1-2 1-3 1-4 neighbors ...
  special bond factors lj:    0        0        0       
  special bond factors coul:  0        0        0       
     2 = max # of 1-2 neighbors
     1 = max # of 1-3 neighbors
     1 = max # of 1-4 neighbors
     2 = max # of special neighbors
  special bonds CPU = 0.002 seconds
  read_restart CPU = 0.006 seconds
include 	in.setup
variable	out_freq equal 1000
variable	out_freq2 equal 10000
variable	out_freq3 equal 1000

timestep	2.0

neigh_modify    delay 7 every 1

include		in.tip4p
# This is TIP4P/Ice

# create groups ###
group ox type 2
324 atoms in group ox
group hy type 1
648 atoms in group hy

# set charges - beside manually ###
set group ox charge -1.1794
Setting atom values ...
  324 settings made for charge
set group hy charge 0.5897
Setting atom values ...
  648 settings made for charge

# ### TIP3P Potential Parameters ###
pair_style lj/cut/tip4p/long/omp 2 1 1 1 0.1577 8.5
pair_coeff 1 1*2 0.000 0.000
pair_coeff 2 2 0.21084 3.1668
bond_style  harmonic
bond_coeff  1 450 0.9572
angle_style harmonic
angle_coeff 1 55 104.52
kspace_style pppm/tip4p/omp 1.0e-5
pair_modify tail yes

thermo          ${out_freq}
thermo          1000
thermo_style    custom step temp pe etotal epair emol press lx ly lz vol pxx pyy pzz pxy pxz pyz enthalpy

restart 	${out_freq3} restart.lmp.${pid} restart2.lmp.${pid}
restart 	1000 restart.lmp.${pid} restart2.lmp.${pid}
restart 	1000 restart.lmp.1 restart2.lmp.${pid}
restart 	1000 restart.lmp.1 restart2.lmp.1


include         in.dump
dump            myDump all atom ${out_freq2} dump.water.${pid}
dump            myDump all atom 10000 dump.water.${pid}
dump            myDump all atom 10000 dump.water.1
dump            myDump2 all dcd ${out_freq2} dump.dcd
dump            myDump2 all dcd 10000 dump.dcd
dump_modify     myDump append yes
dump_modify     myDump2 append yes


variable natoms 	equal  "count(all)"                        # NUMBER ATOMS
variable H      	equal  "enthalpy/v_natoms"                 # ENTHALPY-per-atom
variable Vol      	equal  "vol/v_natoms"                 # volume-per-atom
fix AVG all 		ave/time ${out_freq} 1 ${out_freq} v_Vol v_H file vol_enthalpy.dat
fix AVG all 		ave/time 1000 1 ${out_freq} v_Vol v_H file vol_enthalpy.dat
fix AVG all 		ave/time 1000 1 1000 v_Vol v_H file vol_enthalpy.dat


timer           timeout 02:55:00 every 1000
New timer settings: style=normal  mode=nosync  timeout=02:55:00

fix 		1 all shake 1e-6 200 0 b 1 a 1
Finding SHAKE clusters ...
       0 = # of size 2 clusters
       0 = # of size 3 clusters
       0 = # of size 4 clusters
     324 = # of frozen angles
  find clusters CPU = 0.001 seconds
fix             2 all nph aniso ${pressure} ${pressure} ${pressureDamp}
fix             2 all nph aniso 7176.3 ${pressure} ${pressureDamp}
fix             2 all nph aniso 7176.3 7176.3 ${pressureDamp}
fix             2 all nph aniso 7176.3 7176.3 1000
fix             3 all temp/csvr ${temperature} ${temperature} ${tempDamp} ${seed}
fix             3 all temp/csvr 141.47 ${temperature} ${tempDamp} ${seed}
fix             3 all temp/csvr 141.47 141.47 ${tempDamp} ${seed}
fix             3 all temp/csvr 141.47 141.47 100 ${seed}
fix             3 all temp/csvr 141.47 141.47 100 745823


run             250000
PPPM initialization ...
  extracting TIP4P info from pair style
  using 12-bit tables for long-range coulomb (../kspace.cpp:340)
  G vector (1/distance) = 0.37246531
  grid = 24 24 24
  stencil order = 5
  estimated absolute RMS force accuracy = 0.0034728609
  estimated relative force accuracy = 1.0458418e-05
  using double precision FFTW3
  3d grid and FFT values/proc = 3211 432
Last active /omp style is kspace_style pppm/tip4p/omp
Neighbor list info ...
  update every 1 steps, delay 7 steps, check yes
  max neighbors/atom: 2000, page size: 100000
  master list distance cutoff = 10.8154
  ghost atom cutoff = 10.8154
  binsize = 5.4077, bins = 4 4 4
  1 neighbor lists, perpetual/occasional/extra = 1 0 0
  (1) pair lj/cut/tip4p/long/omp, perpetual
      attributes: half, newton on, omp
      pair build: half/bin/newton/omp
      stencil: half/bin/3d
      bin: standard
Setting up Verlet run ...
  Unit style    : real
  Current step  : 24000000
  Time step     : 2
  Walltime left : 2:54:59.96
Per MPI rank memory allocation (min/avg/max) = 10.19 | 10.19 | 10.19 Mbytes
Step Temp PotEng TotEng E_pair E_mol Press Lx Ly Lz Volume Pxx Pyy Pzz Pxy Pxz Pyz Enthalpy 
24000000    154.18221   -4946.1772   -4648.8238   -4946.1772            0    9275.6771    19.740684    19.840804     20.31804    7957.9882    7495.6534    9688.8497    10642.528   -76.474301    192.78825   -212.89897   -3572.2971 
24001000    138.55212   -4951.8793   -4684.6699   -4951.8793            0    7383.2244    19.927161    19.740781    20.325984    7995.7893    6573.0999    8254.7485    7321.8248    -367.9004    506.23192   -301.52568   -3823.7093 
24002000    135.12242   -4944.2008   -4683.6059   -4944.2008            0    6950.5348    19.735678    19.802625    20.521191    8020.0554    8091.3785    5831.5376    6928.6883    -34.20748   -667.88198   -575.04838   -3870.6416 
24003000     138.4041   -4957.2208   -4690.2969   -4957.2208            0     7207.765    19.810921    19.650693     20.65433    8040.6962    6949.0702    8563.7905    6110.4344   -623.85281   -31.941682   -970.29188   -3845.0761 
24004000    134.50971   -4969.0383    -4709.625   -4969.0383            0     6849.166    19.817853    19.879076    20.437547     8051.588    6879.1505     6307.124    7361.2234    115.25438    678.74824   -159.07103   -3905.3675 
24005000     141.8143   -4949.5851   -4676.0843   -4949.5851            0    7610.9704    19.610856    19.741029    20.544401    7953.5284    9420.4681    6292.8735    7119.5696   -804.68521    624.70623    1407.2979    -3793.257 
24006000    144.52933   -4955.4282   -4676.6912   -4955.4282            0     6672.073    19.742105    19.941034     20.46891    8058.1594    7508.8648    5750.8229    6756.5314    366.91492    869.67014    624.69247   -3892.5892 
24007000     135.6692   -4946.9469   -4685.2974   -4946.9469            0    8326.6205    19.797582    19.841434    20.362758     7998.744    8189.6559    7268.6263    9521.5792    129.30973    119.14251   -879.56025   -3713.9682 
24008000    143.43533   -4957.4505   -4680.8234   -4957.4505            0    7347.6599    19.745398    19.657747    20.638364    8010.7818    5803.8977    9287.9646    6951.1172    -686.8542    39.335008    833.61194   -3822.4034 
24009000    143.74099   -4949.6668   -4672.4502   -4949.6668            0    7144.9016    19.922128    19.722366    20.480742    8047.1191    6314.5528    7992.4733    7127.6785   -56.880079    185.47562    1245.0533   -3833.9318 
24010000    143.46865   -4956.5056   -4679.8142   -4956.5056            0    7001.0138    19.993759    19.760223    20.442708    8076.5282    5836.4712    7686.9402    7479.6301   -533.79992    244.62093    311.85927   -3855.1797 
24011000    135.19301   -4942.9354   -4682.2043   -4942.9354            0    7188.1105    19.659213    19.706004    20.600672    7980.7934    8140.3764    6615.9099    6808.0453   -161.92873   -1015.6764    297.24582    -3845.568 
24012000    141.62123    -4934.766   -4661.6376    -4934.766            0    7349.3109    19.817214    19.792835    20.510913    8045.1771    6980.3436    7599.0903    7468.4989   -438.45935      308.279    -403.6438   -3799.3381 
24013000    146.27192   -4949.2043   -4667.1067   -4949.2043            0    6694.6833    19.882027    19.837349    20.399245    8045.5991    7905.2698    5681.3397    6497.4403    1.3286838   -446.69752   -49.665232   -3881.5739 
24014000    141.95598   -4965.2483   -4691.4743   -4965.2483            0    7641.2323      19.8703    19.886925    20.285318    8015.9289    7233.4385    7509.4496     8180.809    193.16974    1250.7164   -150.83256   -3798.1829 
24015000    139.90054   -4962.8009    -4692.991   -4962.8009            0    7539.0511    19.898271    19.728344    20.500348    8047.6153    7264.8563    8666.9458    6685.3513   -31.012265   -114.32573    576.91644   -3808.1611 
24016000    140.65269   -4945.9953   -4674.7348   -4945.9953            0    8412.1104    19.791822    19.808234    20.256945    7941.5537    8058.1239    9158.2837    8019.9235    452.28771   -322.17023    323.75619   -3700.4491 
24017000    141.80004   -4959.0524   -4685.5791   -4959.0524            0    6480.3606    19.821943    19.742066    20.528496    8033.3365    6811.0364    6500.0116    6130.0339    197.64885    636.09639    442.17439   -3926.3532 
24018000    136.23322   -4965.6628   -4702.9256   -4965.6628            0     6714.886    19.803354     19.72939    20.578233    8040.0819    6903.5492    6648.0204    6593.0883    121.21803    1107.6819   -511.07506   -3915.5626 
24019000    140.46414   -4958.2313   -4687.3344   -4958.2313            0     6994.385    19.914321    19.812778     20.36365    8034.6414    6034.5983    6652.8756    8295.6813     190.4177    729.10681    137.73592   -3867.7533 
24020000    143.09789    -4956.656   -4680.6797    -4956.656            0    7884.7247    19.765644      19.7934    20.394485    7978.9198    8785.8169    6375.1895    8493.1677   -116.14831    113.52529   -267.00694   -3763.1787 
24021000     141.7123   -4969.2334   -4695.9293   -4969.2334            0    6800.3083     19.78973    19.709673      20.4902    7992.1842    5384.0702    8203.8572    6812.9976   -36.735665   -74.004328    1273.8143   -3903.3003 
24022000    144.69876   -4959.3458   -4680.2821   -4959.3458            0    7174.6225    20.008625    19.709267    20.325554    8015.4903    7303.3083    7004.1656    7216.3936    279.77427   -1139.6972    27.152291   -3841.5852 
24023000    144.79258   -4976.6333   -4697.3886   -4976.6333            0    7106.5631    19.926181       19.767    20.372879     8024.486    5274.0954    8376.1481    7669.4458   -415.38374    563.68598    143.99262   -3865.7154 
24024000    152.30168   -4948.1602   -4654.4336   -4948.1602            0    7950.8272    19.631199    19.680555    20.653344    7979.4793    7724.1685    9058.6223    7069.6908   -266.88451   -29.356189   -1040.1193   -3729.1758 
24025000    148.77324   -4954.0369   -4667.1152   -4954.0369            0     7108.343    19.711678    19.918087    20.415479    8015.5033     8157.474    5959.2079     7208.347    156.86614   -340.26494   -361.41767   -3836.1649 
24026000    144.92645   -4951.2552   -4671.7524   -4951.2552            0    6035.5882     19.80205    19.938327     20.38974    8050.2718    5425.2374    6399.9793    6281.5479    185.20459    36.644755    860.42428   -3963.1444 
24027000     151.7153    -4956.065   -4663.4693    -4956.065            0    7564.9527    19.863939    19.636846    20.505077     7998.315    7437.2949    7503.7896    7753.7736    113.96026    827.42863    1463.7493   -3781.0386 
24028000    140.82662   -4967.7379   -4696.1419   -4967.7379            0    5684.0851    19.713642    19.802383    20.617563    8048.6243    5740.1681    5785.5297    5526.5574   -194.27681    -93.04245    100.44224   -4028.9387 
24029000    144.77638   -4955.1656   -4675.9522   -4955.1656            0    7943.6154     19.88215    19.704846    20.424272    8001.7129    7864.1157    7964.8475     8001.883    75.232888    583.93988   -423.95641   -3748.9579 
24030000    143.40146   -4948.2808    -4671.719   -4948.2808            0    8289.5508    19.791914    19.897732    20.293169     7991.738    7761.0582    7627.8857    9479.7083    550.38487    509.51957    68.613407   -3705.5611 
24031000    147.28446    -4951.136   -4667.0856    -4951.136            0    8085.7106    19.781063    19.760313    20.523287    8022.1427    8275.7424    8333.9992    7647.3901   -253.49159    394.49618    -150.6341   -3721.1001 
24032000    147.07651   -4957.3403   -4673.6909   -4957.3403            0    7644.0557    19.909492    19.754633     20.30547    7986.2372    7039.5466    7518.2125    8374.4079   -2.8813916   -52.088293   -343.67955   -3783.3795 
24033000    143.95606   -4961.0475   -4683.4161   -4961.0475            0    7347.6826    19.815365    19.973497    20.324132    8043.9281    8336.8097    5571.0988    8135.1391    303.04201    242.64117    251.71726   -3821.4415 
24034000    140.47224   -4969.0295    -4698.117   -4969.0295            0    6656.1918    19.650622    19.927261    20.498537    8026.8801    7555.7216     5467.798    6945.0558   -60.950214    353.67482   -98.150684   -3918.9178 
24035000    135.90829   -4971.0528   -4708.9422   -4971.0528            0    6832.1987    19.763881    19.719806    20.556155    8011.5539    6567.2742    7075.7182    6853.6037    36.484207   -201.39121    76.373745   -3910.6661 
24036000    133.04115   -4962.2524   -4705.6714   -4962.2524            0    5236.1861    19.936995    19.880295    20.385697    8079.9392    5044.2089    4597.5744    6066.7751    169.79928    219.92564    366.00273   -4088.6517 
24037000    136.58607   -4950.5745   -4687.1567   -4950.5745            0    7049.2244    19.924905    19.795417    20.377027    8037.1437    6912.5372    7102.1696    7132.9663    141.19111    667.10823    83.423288   -3860.8925 
24038000     145.9706   -4959.1044   -4677.5879   -4959.1044            0    6273.7476     19.86337     19.79722    20.523133    8070.5067    6010.3706    5700.2338    7110.6383   -410.99979     1555.722   -492.33916   -3939.1674 
24039000    136.79081     -4959.38   -4695.5674     -4959.38            0    8130.8895    19.772669    19.758699    20.486658    8003.7728    7462.3817    8473.9592    8456.3274    -254.2588    460.66656    -616.5682   -3746.4745 
24040000    135.71815    -4946.582   -4684.8381    -4946.582            0    7377.0349    19.832483    19.903006     20.31638    8019.4041    8684.4156    5674.7164    7771.9725   -581.82845   -538.57626    85.596038   -3822.0586 
24041000     141.9233   -4961.7753   -4688.0643   -4961.7753            0    5860.4939    19.693936    19.971187    20.540354    8078.7531    6065.7256    5797.8951    5717.8611   -122.37279       473.34   -1128.1683    -3997.579 
24042000    138.63551   -4954.1289   -4686.7587   -4954.1289            0    6503.0238    19.680414    19.760628    20.604423    8013.0055    5741.3689    7949.5776    5818.1248   -143.82713   -37.491302   -1048.2917   -3926.8058 
24043000    145.64252   -4960.9888   -4680.1049   -4960.9888            0    5913.5681    19.836575    19.835344    20.510454    8070.1516    4341.7038    6578.7487    6820.2518    184.07988    284.18729    212.08996   -3984.1082 
24044000    142.08614   -4975.6244   -4701.5993   -4975.6244            0     5811.392    19.860117    19.913663    20.288392    8023.8095    5026.6749    4483.9619    7923.5393   -178.98183     357.9361    211.31065   -4021.5558 
24045000    141.67402   -4978.4441   -4705.2139   -4978.4441            0    7037.7998    19.786164    19.680395    20.600986    8022.0143    7502.5305    7171.2911    6439.5778     399.7688   -52.994009   -490.62323   -3881.8416 
24046000     136.7547   -4965.9168   -4702.1739   -4965.9168            0    5818.9879     19.84974    19.868131    20.512569    8089.6905    5521.4074     4682.825    7252.7315   -360.95394    384.19952    87.021397   -4015.6506 
24047000    139.59904   -4947.9956   -4678.7671   -4947.9956            0    9491.5569    19.745996    19.699775    20.383162      7928.88    10145.267    8445.6399    9883.7633    502.27135    574.57498    -233.6126   -3581.2149 
24048000     137.8597   -4961.5853   -4695.7113   -4961.5853            0    8048.8496    19.980318    19.729485    20.264872    7988.4405    7757.1291    8283.2215    8106.1981    230.33484    144.68633    366.81231   -3757.9944 
24049000    142.26799   -4953.3433   -4678.9675   -4953.3433            0    7293.9236    19.917581    19.733353      20.4565    8040.2362    6567.2599     7893.235    7421.2758   -688.63273    321.45634   -278.03717   -3823.6922 
24050000     131.5648   -4955.7544   -4702.0206   -4955.7544            0    7301.4738    19.718047    19.763487      20.6018    8028.4673    6153.1645     8483.839    7267.4181   -520.65947   -124.80234    971.61967   -3847.1132 
24051000     154.3304   -4947.0617   -4649.4225   -4947.0617            0    6667.4085    19.697595    19.720781    20.677497    8032.2144    7700.5664    6044.5045    6257.1545   -294.71654    123.60211   -302.14491   -3868.3916 
24052000    141.66544   -4970.4546   -4697.2409   -4970.4546            0    6863.1911    19.816066    19.884532    20.442043    8054.8435     8273.495    5911.7932    6404.2851   -157.88312   -1149.4715    999.02429   -3891.0106 
24053000    135.78391   -4962.1643   -4700.2936   -4962.1643            0    7813.0264    19.750102    19.975196    20.263862    7994.3398    7397.2074    7588.4647    8453.4072    261.30057    675.47725     438.2713   -3789.3787 
24054000    150.09452   -4965.6403   -4676.1704   -4965.6403            0      5949.15    19.954603    19.834566    20.465745    8100.1554    5587.5825    5884.7253    6375.1423   -670.12075   -794.04264   -46.660016   -3973.3827 
24055000    140.41662   -4951.1739   -4680.3686   -4951.1739            0    6964.4104    19.678343     19.83465    20.552135    8021.7662    6170.7748    9155.5898    5566.8667   -197.54612     281.1969    26.819786   -3865.6076 
24056000     152.6223   -4961.7719    -4667.427   -4961.7719            0    6266.6949    19.910494    19.799649     20.51067    8085.7327    4670.7133    7775.9503    6353.4212    587.31747    618.01685   -957.51227   -3928.4451 
24057000     137.6109   -4966.7942      -4701.4   -4966.7942            0    6936.0035     19.76384    19.935145    20.313644    8003.4744    7117.3839    6121.0591    7569.5677    -312.5357    824.51344    646.72492   -3891.8126 
24058000     143.2845   -4959.3579   -4683.0217   -4959.3579            0    7031.9252    19.892673    19.708012    20.451355    8017.8521    6913.0146    7446.7973    6735.9637   -810.58237    -370.1365   -122.51562   -3860.7635 
24059000     139.6169   -4953.6377   -4684.3748   -4953.6377            0    8496.0607    19.525332    19.866863    20.577514    7982.1638    9739.7943    7102.8591    8645.5288    800.77709    1604.1118    1686.0543   -3695.3341 
24060000    144.55059   -4966.2681   -4687.4901   -4966.2681            0    6764.6156    19.736518    19.842793    20.512399    8033.2225    5680.7546    7961.3177    6651.7744   -376.40975    227.83945    506.06907   -3894.9727 
24061000    142.69732   -4954.5331   -4679.3293   -4954.5331            0    6880.1141    19.805808    19.675791    20.626067    8037.8742    7946.5767    6431.4936    6262.2721   -919.45042    780.42505    16.315931   -3872.8137 
24062000    149.56909   -4953.6309   -4665.1743   -4953.6309            0    6439.2721    19.795403    19.858073    20.520199    8066.4608      6124.06    6249.1486    6944.6076   -610.77458   -159.75601    1859.4308   -3907.6516 
24063000    143.58227   -4945.7392   -4668.8287   -4945.7392            0    7327.2559    19.874452    19.834229    20.350837    8022.1865    6402.8066    7820.6966    7758.2644   -357.65302      276.956    106.83572   -3811.5738 
24064000    145.33746   -4972.0444   -4691.7489   -4972.0444            0    5851.9316    19.792185     19.76979    20.617528    8067.3777    7154.3347     4995.645    5405.8152    14.199302    258.65519   -125.08331   -4003.2432 
24065000    136.72276    -4960.199   -4696.5177    -4960.199            0     6419.535    19.942996    19.631107    20.583065    8058.3337    5349.6234    7963.7757    5945.2059    414.19669    164.93824   -230.01277   -3942.0777 
24066000    151.83021   -4961.9235   -4669.1062   -4961.9235            0    5787.4986    19.786195    19.895493    20.459883    8054.1577    7414.7191    4128.7465    5819.0303    200.74506   -349.00498    210.23298   -3989.2972 
24067000    141.30931   -4964.8304   -4692.3035   -4964.8304            0    7410.9224    19.844287    19.594168      20.5782    8001.4687    7849.4175    7770.1258     6613.224   -558.62412   -263.11222    816.03019   -3827.4991 
24068000    132.50098   -4937.5442   -4682.0049   -4937.5442            0    8171.0377    19.774266    19.608526    20.648042    8006.1588    9016.1066     8516.394    6980.6126   -535.89517    1054.8857    -421.7791   -3727.9413 
24069000    132.79007    -4960.798   -4704.7012    -4960.798            0     7944.689    19.800105    19.755666    20.450773    7999.6114    8200.0094    7798.1318    7835.9258    -720.1774   -1113.5513   -429.77716   -3777.8251 
24070000    150.17963   -4967.6086   -4677.9746   -4967.6086            0    7890.4051    19.857431    19.840138    20.321981    8006.3358    7665.3381    7357.0042    8648.8732    641.48441    269.72087     70.21434   -3756.6578 
24071000    139.34401   -4951.0257   -4682.2891   -4951.0257            0    6412.7425    19.699534    19.796734    20.730926      8084.78    8541.0982    5691.1144    5006.0147   -69.720612    1415.5485   -266.09613    -3926.174 
24072000    147.97837   -4943.8609   -4658.4722   -4943.8609            0    7062.6221    19.634245    19.876919    20.677651    8069.8317    7470.1591    6181.0299    7536.6774   -110.85203    1169.9855    262.61292   -3827.2707 
24073000    136.42698   -4963.1424   -4700.0315   -4963.1424            0    8571.2627     19.64949    19.872385    20.436562    7980.1144     9464.866    7189.2674    9059.6548   -952.80625   -336.27822    237.39779   -3702.4927 
24074000    140.57004   -4968.4529   -4697.3518   -4968.4529            0     7310.736    19.781719    19.863427     20.39649    8014.4482    7387.1232    7282.3215    7262.7634    418.41487   -968.86027   -283.96521   -3842.8546 
24075000     143.1078   -4963.0442   -4687.0488   -4963.0442            0    8174.5348     19.78986    19.715938    20.464621    7984.7967    8319.6047    7432.1708    8771.8289    29.800193   -125.90205   -463.77235   -3735.1236 
24076000    143.96211   -4961.3488   -4683.7057   -4961.3488            0    7851.6648    19.682533    19.802685    20.533493     8003.278    8876.2337    7127.0035    7551.7572   -476.29713     757.8389    311.52445   -3767.2625 
24077000    135.04074   -4968.7653   -4708.3278   -4968.7653            0    7927.7876    19.844268    19.921425    20.289157    8020.8332    8263.2386    7213.4535    8306.6707   -146.77883    292.65391    38.022968   -3780.9699 
24078000    141.73297   -4933.3216   -4659.9776   -4933.3216            0    8744.5477    19.823736     19.58374    20.565195    7983.8792    9548.2851    8199.7405    8485.6175   -301.73511    996.18968   -867.65557   -3641.7914 
24079000    141.38314    -4968.713   -4696.0437    -4968.713            0    6028.9576    19.803486    19.892312    20.422712    8045.2642    5865.8478    6504.4681    5716.5568   -18.696896   -77.369988     1088.264   -3988.6545 
24080000     145.0586   -4953.6373   -4673.8796   -4953.6373            0    7638.9995    19.784398    19.634472    20.654707     8023.449     6615.234    9180.6345      7121.13   -98.116314   -258.16263   -412.22731   -3780.0114 
24081000    143.66244   -4955.9458   -4678.8807   -4955.9458            0    7020.1688    19.792683    19.874679    20.416849    8031.4414    8748.4496    5746.0321    6566.0246   -497.63626    536.40897    350.03205    -3856.606 
24082000    141.55472   -4973.8375   -4700.8373   -4973.8375            0    5354.1523    19.884508    19.877425    20.298825    8023.1675    3880.9899    6470.4479    5711.0192   -126.76529   -517.77209    350.00631   -4074.3497 
24083000    142.35707   -4953.2424   -4678.6948   -4953.2424            0    7466.1193    19.723293    19.868648    20.494806    8031.4059     7524.263    7342.3895    7531.7055   -318.05986    1005.9605      -1850.3   -3804.1896 
24084000    140.25205   -4935.4855   -4664.9977   -4935.4855            0    8054.2332    19.714064    19.752087    20.602475     8022.478    8271.1919    8756.3025    7135.2051   -408.31169    381.02726    933.72413   -3722.6555 
24085000    131.48791   -4945.9812   -4692.3957   -4945.9812            0    8814.9856     19.76753    19.733921    20.458257    7980.5797     9673.464    8377.6855    8393.8074   -106.54365    751.69868    1838.9244   -3666.4321 
24086000    142.71077   -4966.2897   -4691.0599   -4966.2897            0    6804.7222    19.853468    19.719574    20.460474    8010.3147    5522.9008    7058.6781    7832.5877    765.74863    553.98882   -467.73209   -3896.1172 
24087000    142.54573   -4967.2188   -4692.3073   -4967.2188            0    7283.7941    19.916454    19.702027    20.458053     8027.628    7438.3424    6421.5097    7991.5302   -237.54542    205.23253   -330.57097   -3839.5592 
24088000    144.20714   -4963.9517   -4685.8361   -4963.9517            0    7128.5895    20.078412    19.669567    20.357696    8039.9395    4729.4225    9116.5199    7539.8261   -388.10232   -149.32676       107.39   -3849.9786 
24089000    133.98124   -4964.2865   -4705.8924   -4964.2865            0    7568.9034     19.76948    19.716066    20.442738    7968.0964    9216.7483    5750.1511    7739.8108    9.8168525    1739.2182   -5.7492419   -3826.3366 
24090000    140.18611   -4956.5394   -4686.1787   -4956.5394            0    7888.3643     20.03389    19.716759     20.28016    8010.7316    8793.3713    6644.1426     8227.579    -538.7534    372.53207    315.48657   -3764.5944 
24091000    134.98758   -4955.1761   -4694.8412   -4955.1761            0    5874.3525    19.918825    19.837158    20.325321    8031.2029    7124.5369    4619.6137    5878.9071    463.50799   -202.84045   -229.05883   -4006.7967 
24092000      142.514   -4955.1273   -4680.2771   -4955.1273            0    8702.4293    19.553192    19.793819    20.546861       7952.3    10560.597    8348.5908       7198.1   -297.10824   -27.603185    778.19896   -3671.0029 
24093000     147.3313   -4958.5743   -4674.4335   -4958.5743            0    6894.5854     19.77856    19.782985     20.49363    8018.7261    6245.0849    7246.7266    7191.9446   -60.076756    249.19226   -150.79051    -3868.147 
24094000    134.53361   -4947.7845   -4688.3251   -4947.7845            0    7085.4273    19.750175    19.894398    20.459577    8038.9331    9258.5142     5441.953    6555.8148    620.44723    653.03974    650.97663   -3857.6325 
24095000    132.53324    -4958.367   -4702.7655    -4958.367            0    8173.7138    19.790982    19.748939    20.400281    7973.4686    8718.7822    8329.1302     7473.229   -97.120889   -1129.3751    -667.8086   -3752.2863 
24096000    141.58238   -4951.7781   -4678.7245   -4951.7781            0    6539.6879    19.726284    19.837746    20.489496    8018.0524    5132.9453    7222.5279    7263.5904   -63.063635    525.90168    644.85703   -3914.0057 
24097000    136.78029   -4951.8112   -4688.0189   -4951.8112            0    6553.8823    19.814595    19.836118    20.499859    8057.3595    7072.1334    6243.4668    6346.0466    41.215431   -1102.0785   -214.27104   -3917.8831 
24098000    143.83323   -4962.0647   -4684.6702   -4962.0647            0    7490.6139    19.632849    19.598096     20.75635    7986.3468    6993.4966    9402.2249      6076.12   -417.69498    88.944425    497.04407   -3812.2184 
24099000    136.36921   -4947.9964   -4684.9969   -4947.9964            0    5987.7713    19.777507    19.819898    20.502119     8036.588    4567.1101    7790.4318    5605.7721    392.59229    876.69207    1174.5169   -3983.1978 
24100000    138.64044   -4949.6356   -4682.2559   -4949.6356            0    8471.7738    19.885391     19.68933    20.397487    7986.2288    7883.2307    9385.4295    8146.6613   -183.04688    313.37802   -411.11616   -3695.5403 
24101000    132.70948   -4967.5561   -4711.6147   -4967.5561            0    6265.5068    19.783262    19.836507    20.504774    8046.7049    7677.4005    4612.0003    6507.1195   -181.40691    1252.6929    19.294328    -3976.339 
24102000    139.66939   -4958.2676   -4688.9034   -4958.2676            0    5900.6305    19.786872       19.901    20.436817      8047.58    6353.3158    5235.3812    6113.1944    361.46019   -327.06975   -368.68212   -3996.3718 
24103000    142.73121   -4944.0718   -4668.8027   -4944.0718            0    7652.3077    19.890664    19.709811    20.358136    7981.2284    7743.1551    7395.0681    7818.6999   -364.04354   -118.13973   -523.03293   -3778.0892 
24104000    140.83969   -4950.2069   -4678.5857   -4950.2069            0     5520.276    19.795612    19.963971    20.366419    8048.7892    4580.5636    5282.0832    6698.1813   -385.25217   -715.74462   -557.95312   -4030.5973 
24105000    144.08726   -4939.4837   -4661.5993   -4939.4837            0    7063.0494    19.836374    19.722435    20.495243    8018.1819    7790.7686    7169.6729    6228.7066    179.00747     1475.819    751.88858   -3835.6678 
24106000      136.091   -4962.9821   -4700.5192   -4962.9821            0    6027.4046      19.7966    19.697116    20.601024    8033.0795     5588.031    7164.1672    5330.0155   -116.19145   -338.06783    253.74014   -3994.3833 
24107000    143.58907   -4953.5866    -4676.663   -4953.5866            0     8795.591    19.741868    19.749595    20.418626    7961.0978    9041.5125    8923.8116    8421.4489    941.10875    346.18046   -1036.2248   -3655.4558 
24108000    136.02873   -4933.7781   -4671.4352   -4933.7781            0    7567.1054    19.837325    19.653096    20.577073    8022.2778    6349.7224    8601.7618    7749.8321   -321.56818    334.26681    1465.6553   -3786.1089 
24109000    142.61779    -4963.295   -4688.2446    -4963.295            0    7319.4067    19.750203    19.710319    20.646191    8037.2071    7183.5484    7516.8233    7257.8484   -96.707425    887.30205    1202.3509   -3830.3046 
24110000    140.85063    -4937.708   -4666.0657    -4937.708            0    8114.5986    19.870342    19.781788    20.304694    7981.1841    7987.7914      7920.83    8435.1746    118.87614    222.72641    516.80002   -3721.5477 
24111000    150.71972   -4958.0377    -4667.362   -4958.0377            0    7603.2561    19.931403    19.688554    20.364661    7991.5104    5964.7292    8634.3763    8210.6628    -5.729102    393.48718    53.263925   -3781.2179 
24112000    138.82362   -4942.6767   -4674.9437   -4942.6767            0    6466.5702    19.679276     19.84179    20.522266    8013.3716    6231.4406    5405.3759     7762.894   -578.57506    44.776568   -916.90924   -3919.2163 
24113000    140.67515   -4972.5173   -4701.2134   -4972.5173            0    7094.7856    19.791341    19.736949    20.487287    8002.7582    6406.0225    8588.8872     6289.447    82.391648    331.39796    443.26629   -3873.1666 
24114000    140.00106   -4951.2393   -4681.2355   -4951.2393            0    6244.6784    19.794589    19.812804    20.515734    8045.9901    6203.7417    7098.6533    5431.6402    -566.9951    945.70806   -446.46807   -3948.4692 
24115000     142.6923   -4960.0705   -4684.8764   -4960.0705            0    7301.2631    19.748534    19.822724     20.57368     8053.973      8484.72    5312.3484    8106.7208   -9.4037956    139.69019    432.40513   -3827.2778 
24116000    129.90615   -4949.9952   -4699.4603   -4949.9952            0     6583.718    19.852779     19.92168    20.263269    8014.1371    7228.0938    5356.1306    7166.9296     233.9009    466.90305     256.4596   -3929.9687 
24117000    133.51149   -4962.7612   -4705.2731   -4962.7612            0    6187.3583    19.726444    19.871041    20.519187    8043.2127    7797.2804    4934.2131    5830.5813    70.547096    401.10039    -506.5093   -3979.4835 
24118000    137.34433   -4948.1546   -4683.2745   -4948.1546            0    7681.2139    19.759947    19.473363    20.563946    7912.8544     7126.793    7892.0823    8024.7663    50.834682   -26.769036   -53.102853   -3796.8558 
24119000    138.51074   -4963.4984   -4696.3688   -4963.4984            0    8192.0643    19.702674    19.764848     20.53875    7998.2073    7906.2406    9201.3898    7468.5626   -642.94042   -1237.0249   -385.71542   -3740.8001 
24120000    140.80176   -4955.9896   -4684.4415   -4955.9896            0    7273.8017    19.717886    19.780441     20.60557    8036.7589    6620.7352    8514.4054    6686.2646   -509.76187    1318.8115    230.23193   -3831.8946 
24121000    139.47905   -4971.4379   -4702.4408   -4971.4379            0    7370.5304    19.736388    19.867522    20.400517    7999.3104    6928.5207    7790.4372    7392.6332   -182.06996    553.03512    637.14124   -3842.5819 
24122000    142.73092   -4950.1576    -4674.889   -4950.1576            0     6941.207    19.902521    19.891707    20.390731    8072.5906    7448.2468    5386.3037    7989.0706    64.983883    208.09098   -69.424299   -3857.6976 
24123000    147.19811   -4971.4651   -4687.5812   -4971.4651            0    6482.3703    19.718545    19.938063    20.458738    8043.3448    8278.3892    4622.3012    6546.4207    71.276077     1227.432    387.41537   -3927.1736 
24124000    146.05498   -4964.8227   -4683.1434   -4964.8227            0    6884.2806    19.775636    19.739996    20.626818    8052.1111    6432.9188    8412.2854    5807.6376    315.80784    1201.0624   -51.649377   -3874.7101 
24125000    144.69595   -4946.4683     -4667.41   -4946.4683            0    7825.0133    19.660835    19.887535    20.430076    7988.2729    7809.3275    8321.4432    7344.2692   -120.99478   -1100.3887    16.248434     -3755.79 
24126000    138.48793   -4964.0757     -4696.99   -4964.0757            0    7377.9295    19.846713    19.772438    20.265996    7952.7397     7065.373    6781.5017    8286.9138   -477.32513    936.82177   -298.31399    -3841.279 
24127000    145.07486   -4970.9335   -4691.1444   -4970.9335            0    5607.6403    19.781178    19.840781    20.531295    8058.0002    5985.9742    5423.4659    5413.4806    130.00815    95.096752   -120.25494   -4032.1476 
24128000     140.5661    -4964.208   -4693.1144    -4964.208            0    8128.8102     19.83414    19.770428     20.38416    7993.2292    8047.6566    8416.5704    7922.2035    297.99662   -170.13614     664.5851   -3745.5142 
24129000    148.05267   -4939.2702   -4653.7382   -4939.2702            0    7907.2615    19.641211    19.734895    20.492957    7943.4233    6341.2528    8623.4979    8757.0337    228.78836    978.41723    74.378114   -3737.7082 
24130000    139.59298   -4972.4454   -4703.2286   -4972.4454            0    7971.5905    19.815914    19.837293    20.353217    8000.7293    7886.0873     7809.538    8219.1462   -14.013636    234.30585    -1.017606    -3773.084 
24131000     133.1055   -4957.4317   -4700.7265   -4957.4317            0      8098.71    19.643036    19.771186     20.52812    7972.4266    8294.5274    8007.9262    7993.6765    107.37045    937.38088   -19.025951   -3759.0922 
24132000    146.03914   -4947.7189   -4666.0701   -4947.7189            0    7131.5912    19.751951    19.880303    20.428645    8021.8136    7276.5076    7709.2836    6408.9823   -587.42694    336.20077    688.85543   -3831.7458 
24133000    142.10157   -4938.2627   -4664.2078   -4938.2627            0    7532.0676    19.679901    19.965557    20.396634    8014.2493     8581.058    6204.2133    7810.9317    329.39974   -295.83272    452.50022   -3783.8627 
24134000    137.41202   -4965.9897    -4700.979   -4965.9897            0    6700.1668    19.757864    19.808496    20.582787    8055.5592    7341.7712     6342.914    6415.8151    14.380176   -144.65251    285.80435   -3913.8296 
24135000    143.32486   -4974.0221   -4697.6081   -4974.0221            0    6761.5428    19.879282    19.768963    20.471345    8045.0912    6307.1054    7278.6487    6698.8744    92.675197   -145.62838   -260.01586   -3904.2803 
24136000    149.11361   -4969.0496   -4681.4715   -4969.0496            0    5293.8769     19.85441    19.870755    20.378942    8039.9434    5713.9432    5156.6426     5011.045   -213.51031    356.68259    754.21096   -4060.7415 
24137000    136.94628   -4958.7764    -4694.664   -4958.7764            0     8074.374    19.851652    19.614616    20.559612     8005.554    8371.4778    9036.7179    6814.9263     203.7487    777.64199   -64.574242   -3751.9583 
24138000    140.67133   -4962.4545    -4691.158   -4962.4545            0     6193.194    19.775016    19.793525    20.489495    8019.9419    6730.6347    6224.9194     5624.028   -645.23329    482.57458    271.33634   -3966.7857 
24139000    135.65564   -4964.5072   -4702.8838   -4964.5072            0    8658.1474    19.746827    19.747724    20.427341    7965.7414    11255.791    6280.0256    8438.6254   -325.75219    229.43086   -694.79597   -3697.0481 
24140000    142.59437   -4952.0482    -4677.043   -4952.0482            0    6911.6305    19.711457    19.756688    20.586773     8017.171    7688.8781    7129.1637    5916.8497    39.877879    473.46899   -497.26068   -3868.9198 
24141000    141.49667   -4956.8236   -4683.9354   -4956.8236            0    8131.5633    19.919456    19.843235    20.186663    7979.1103    8080.9406    7314.8966    8998.8526    186.74887   -75.219045    933.78572   -3737.6886 
24142000    141.24065   -4964.0969   -4691.7024   -4964.0969            0     6995.579    19.831349    19.797575    20.481372    8041.2449    5681.0415    7112.7978    8192.8977   -204.72161   -110.29916    241.18445   -3871.3077 
24143000    138.47473   -4959.8137   -4692.7535   -4959.8137            0    6494.5326    19.807322    19.889189    20.379378     8028.488    4031.9294    7115.5824    8336.0861   -221.27389    118.02466    106.23818   -3932.3265 
24144000    140.84028   -4952.4424   -4680.8201   -4952.4424            0    7669.6037    19.655495      19.7835    20.518425    7978.6818    6845.3474    9156.3497    7007.1141   -314.24849    355.32305    574.00622   -3788.3782 
24145000    146.59565   -4970.6192   -4687.8971   -4970.6192            0    7004.0948     19.70603    19.855291     20.55618    8042.9952    7786.9212    6948.4886    6276.8746    134.10349    1050.3649    308.32075    -3866.325 
24146000    138.13065   -4966.4282   -4700.0316   -4966.4282            0    6486.8387    19.677511    19.993415    20.438982    8041.1174    5916.5064    6768.8159    6775.1939    66.749658    1346.8623    1072.3667   -3939.3107 
24147000    143.46828   -4981.6235   -4704.9328   -4981.6235            0     6659.298    19.643828    19.879691    20.553426     8026.385    7347.8708    6113.5792    6516.4438    307.91673    202.56033     795.4334   -3925.4181 
24148000    139.43294   -4965.6076   -4696.6995   -4965.6076            0     7372.608    19.833373    19.918519     20.30818    8022.7753    6213.0279    7863.4336    8041.3623    288.31403    274.48469   -427.30087   -3834.0752 
24149000    143.30007   -4953.2385   -4676.8722   -4953.2385            0    7399.1039    19.658976    19.838995    20.543448    8012.2391    7584.4939    7575.8552    7036.9627    1071.7262     420.1856   -13.620855   -3812.2848 
24150000    144.41155    -4969.005   -4690.4952    -4969.005            0      7765.19    19.741814    19.845768    20.415348     7998.559    6435.2147    8325.5848    8534.7704   -110.89886    1964.0913    251.32204   -3784.6797 
24151000    148.83393   -4946.0663   -4659.0275   -4946.0663            0    8778.6004    19.766725    19.951163    20.214589    7972.0102    9308.3261    7682.9631     9344.512    245.67662    -180.0445    -303.9316   -3638.3959 
24152000    146.71127   -4962.3088   -4679.3638   -4962.3088            0    5872.8114    19.798575    19.752677    20.506617    8019.6223    6885.7869    4339.6931    6392.9542   -327.21266   -491.22396   -576.92568   -3992.4917 
24153000    142.65474    -4964.317   -4689.1953    -4964.317            0    6753.2856    19.682367    19.780581    20.696905    8057.8983    8123.9144    5882.2917    6253.6508   -536.13565   -18.749868   -54.992956    -3895.575 
24154000    142.26429   -4966.3463   -4691.9776   -4966.3463            0    7340.6627    19.890997    19.715573    20.487947    8034.6023    7179.9386    7533.8853     7308.164    655.48031    1449.8028   -212.92974    -3831.825 
24155000     140.0912    -4958.563   -4688.3853    -4958.563            0    7903.1418    19.786979    19.996247    20.256317    8014.7226    8113.6993    7246.5576    8349.1684    -193.4364    770.47799    -1214.303   -3764.6147 
24156000    139.92655   -4971.5475   -4701.6874   -4971.5475            0    6245.5027    19.726156    19.902194    20.454251    8030.2117    7537.6459       4400.5    6798.3622   -342.61369    1104.4703    740.80216   -3970.2616 
24157000    147.38192   -4962.1607   -4677.9223   -4962.1607            0     8470.483    19.730945    19.741085     20.50814    7988.1311    8957.8659    8595.1532    7858.4299   -320.60091    1285.9045    411.81226   -3691.1221 
24158000    129.19181   -4959.9577   -4710.8004   -4959.9577            0    4995.2553    20.021472    19.795198    20.414697    8090.9365    3889.2291    5740.8536    5355.6833   -386.23723    359.24609   -96.336633   -4121.3702 
24159000    141.19962   -4966.4995   -4694.1841   -4966.4995            0    7663.2283     19.81378    19.765072    20.376307    7979.7851     7129.078    7806.2979    8054.3088    83.029132     936.7068    160.10234   -3802.3608 
24160000    142.24007   -4961.5148   -4687.1929   -4961.5148            0    7043.3981    19.611632    19.853024     20.66458    8045.7586    8819.2712    5507.6799    6803.2431    695.22867    702.37314   -20.341064   -3860.7266 
24161000    140.29775   -4970.1393   -4699.5632   -4970.1393            0    6693.7478    19.796512    19.845924     20.45017    8034.4643    6447.1682     6950.952    6683.1232    6.5942293    92.976564    195.68257   -3915.2272 
24162000    142.51207   -4952.6643   -4677.8178   -4952.6643            0    7974.7186     19.80924    19.882617    20.303227    7996.6192    10134.232    6567.6264    7222.2978     385.5008   -214.93332   -822.91782   -3747.7863 
24163000    146.52613   -4961.7139   -4679.1259   -4961.7139            0    7311.6168    19.768845    19.875382     20.37946    8007.3619    6903.5293     7502.224    7529.0971   -262.05415    702.92337    55.221126   -3825.2815 
24164000    142.39462   -4963.1065   -4688.4865   -4963.1065            0    8095.1404    19.633017    19.856971    20.409734    7956.7808     9002.815    7215.4166    8067.1895   -749.95693   -286.26558    697.37996   -3749.1144 
24165000    143.23586   -4959.6506   -4683.4082   -4959.6506            0    8421.1853    19.737946    19.940752    20.307906    7992.9782    7533.3148    7859.7168    9870.5244    181.24818    803.83871   -647.15365   -3701.7557 
24166000    140.94016   -4951.8257   -4680.0108   -4951.8257            0    6803.7618    19.656337    19.826488    20.629148    8039.5114    6312.4587    6770.3116     7328.515    756.98761   -68.610098    620.36312   -3882.2831 
24167000    140.67035   -4946.7591   -4675.4645   -4946.7591            0    8555.5037    19.891205    19.596043    20.460025    7975.0907    7557.7644    9099.1459    9009.6008   -142.05307    189.16843   -927.38006   -3680.3866 
24168000    145.61059    -4950.187   -4669.3647    -4950.187            0    6461.5214    19.865363    19.753709     20.54976     8064.026    7295.5361    6390.6603    5698.3677   -316.48666    393.88319   -539.86064   -3909.4539 
24169000    149.57964   -4954.1761   -4665.6992   -4954.1761            0    8776.1152    19.803236    19.637653    20.518645     7979.477    9659.8373    7538.1576    9130.3506   -144.32242     1634.267     63.68926   -3644.4009 
24170000    139.23657   -4954.6197   -4686.0903   -4954.6197            0    6204.9439    19.804499    19.880842    20.482864    8064.7205    6451.0893      5927.06    6236.6823   -334.23763    1389.0932   -841.80223   -3956.2916 
24171000    145.62184   -4951.1259   -4670.2819   -4951.1259            0    7260.6074    19.598333    19.905546    20.478247    7988.8821    7272.1334    6760.6038    7749.0851   -438.80542     153.2235     548.1264   -3824.3511 
24172000    138.66991   -4964.6757   -4697.2391   -4964.6757            0    5889.8197     19.91058    19.888844    20.302105    8039.6019    5090.1541    6146.2929    6433.0122   -134.60553    989.56156    188.34309   -4006.6616 
24173000    138.65097   -4970.6339   -4703.2339   -4970.6339            0    6710.6258    19.800297    19.835107    20.483027    8044.5248    6204.6041    6330.7899    7596.4833   -325.88107   -265.85919    898.21248   -3915.9356 
24174000    143.09698   -4967.7057   -4691.7311   -4967.7057            0    5171.6917    19.822034    19.876466    20.470602    8065.2528    4518.0672    5226.5304    5770.4774   -305.94666   -97.881232   -198.84954    -4083.419 
24175000    133.70543   -4945.9503   -4688.0881   -4945.9503            0    8328.1098    19.798987    19.620643     20.57154    7991.4028    8952.7559    8735.6927    7295.8809    221.46156    1279.6915    185.65659   -3717.4768 
24176000     136.9454   -4963.5184   -4699.4077   -4963.5184            0    6655.5836    19.802035    19.735125    20.473457    8000.9376    7123.7538    7161.8143    5681.1827    24.724253     959.8905   -548.46145   -3922.7978 
24177000    141.10099   -4950.0794   -4677.9543   -4950.0794            0    6002.4552    19.670398     19.82055      20.4885    7988.0176    7093.3899    5384.0183    5529.9573   -129.79309   -19.386981    772.43386    -3978.686 
24178000    139.48063   -4953.5333   -4684.5331   -4953.5333            0    5778.6672    19.966953    19.599411     20.56903    8049.4946    4725.9669    6777.9128    5832.1218   -170.78951    891.47667    103.15588   -4006.1545 
24179000    147.47479   -4954.3807   -4669.9631   -4954.3807            0    8503.0867    19.759414    19.771443     20.47667    7999.6642    9851.4778    7465.1017    8192.6805   -96.137354   -369.04292   -126.91926   -3677.9344 
24180000    144.56502    -4953.576   -4674.7702    -4953.576            0    7543.5358    19.613076    19.828829    20.580333    8003.7805    7799.4842    8019.4759    6811.6475   -226.96339   -9.8838504    297.87028   -3794.2364 
24181000    139.80092   -4955.6813   -4686.0634   -4955.6813            0    9094.0873    19.771732     19.81259    20.322876    7961.0642    8619.8609    9918.7716    8743.6295   -91.024291     433.6469    256.34064   -3630.2039 
24182000    137.76488   -4952.8389   -4687.1477   -4952.8389            0    6626.1066    19.705983    19.836726    20.517066    8020.1661     4976.536    7702.6819     7199.102   -557.25723   -139.64354   -698.73755   -3912.1193 
24183000    142.21368   -4974.5406   -4700.2695   -4974.5406            0     5967.687    19.734141    19.839517     20.48755       8021.2    4457.4771    6613.7173    6831.8667    249.39859    925.64529    716.26887   -4002.1637 
24184000    136.97596    -4969.973   -4705.8034    -4969.973            0    5850.1548    19.847454     19.84861    20.519843    8083.6768    5094.4095    6595.0249      5861.03   -173.91952   -76.293655     342.6242   -4016.1161 
24185000    143.38476   -4947.8709   -4671.3413   -4947.8709            0     7520.332    19.647468    19.783956    20.619153    8014.7605    8210.6589    6913.5806    7436.7565   -105.70448    46.626642   -658.93426   -3792.3118 
24186000    144.13787   -4948.1551   -4670.1731   -4948.1551            0    6828.6482    19.736774    19.874733    20.462151    8026.5472    7308.9307    6648.0932    6528.9206    259.29192    955.33762    622.40455   -3870.8187 
24187000    140.16342   -4965.9145   -4695.5976   -4965.9145            0    6824.0471    19.976793    19.804357    20.340812    8047.3853    6310.8895    5957.8359    8203.4158    101.52579   -193.30246    358.60181   -3894.7079 
24188000    140.92922    -4950.986   -4679.1921    -4950.986            0    7419.9253    19.750494    19.791674    20.477837     8004.691    7357.7852    8305.7538    6596.2368   -170.51159    438.02357    976.70759   -3812.9885 
24189000    131.95048   -4961.1756    -4706.698   -4961.1756            0    6617.5469    19.806558    19.806592    20.445064    8020.6071    5251.4135    7404.9498    7196.2774    73.667535    221.43906    440.46348   -3932.6281 
24190000    143.17651   -4945.5563   -4669.4284   -4945.5563            0    6110.8913    19.880055    19.919345    20.373306     8067.782    8815.6564    3540.9443    5976.0731   -345.32264   -157.51175   -175.84995   -3950.4189 
24191000    139.11673    -4951.649   -4683.3507    -4951.649            0    6948.6829    19.762757    19.761431    20.551118    8026.0409    6532.5105    7855.3304    6458.2078   -177.62472    541.19557   -4.5787576   -3869.9964 
24192000     139.5044    -4953.066     -4684.02    -4953.066            0    6200.1709    19.815002    19.806602    20.504987    8047.5483    6766.5379    5874.3703    5959.6046    64.142971     408.9536   -451.06043   -3956.3355 
24193000    137.56452   -4943.7961   -4678.4913   -4943.7961            0    8044.1882    19.900889    19.696553      20.3227    7966.0696     7553.815      8122.05    8456.6995   -236.12385    215.28099     75.21831   -3743.9421 
24194000    146.42735   -4954.6426   -4672.2452   -4954.6426            0    7694.6193    19.876977    19.784107    20.357167    8005.4196    7771.9113    8295.0992    7016.8474    307.25824   -796.89718   -190.87109    -3773.892 
24195000    144.68749   -4965.3628   -4686.3208   -4965.3628            0    6575.7324    19.715145    19.909949    20.471726    8035.7165    6204.7051    6807.9346    6714.5575   -76.258486    5.5053996   -1188.3432   -3915.6931 
24196000    139.87175   -4955.8322   -4686.0778   -4955.8322            0    6880.0301    19.671398    19.761893    20.564919    7994.4902    7562.6859    6637.2158    6440.1887   -640.87805    569.70563    590.71299   -3883.9252 
24197000    139.85717   -4946.5849   -4676.8586   -4946.5849            0    8681.6282    19.957612    19.772477    20.171884    7960.0558    7603.2875     9144.516    9297.0812    494.22461   -189.20099   -88.520386   -3669.0149 
24198000    142.03566   -4951.3545   -4677.4268   -4951.3545            0    7162.4807     19.74522    19.761951    20.410208    7964.1463    7273.5832    6051.2775    8162.5812   -362.57622    55.475665    89.993919   -3845.5125 
24199000    148.22247    -4960.622   -4674.7625    -4960.622            0    6796.5744    19.802613    19.785763    20.513494    8037.3878    6490.0744    7223.3901    6676.2588    413.44638   -124.26973    697.81467    -3878.088 
24200000    140.99408   -4959.2101   -4687.2911   -4959.2101            0    8625.5474    19.846768     19.67729    20.433285    7979.8232    8857.6105    7484.4731    9534.5587    362.78065    -435.2109    233.23211   -3683.4712 
24201000    133.30463   -4951.7172    -4694.628   -4951.7172            0    6372.9024    19.812097    19.900124    20.471361    8071.1042    7020.3351    5327.2256    6771.1465   -49.218827    517.30241    265.57598   -3944.4815 
24202000    145.48546   -4962.6762   -4682.0952   -4962.6762            0    6026.6859    19.712444    19.893401    20.474611    8029.0685    6352.5899    5386.5215    6340.9463    467.09758   -184.44562   -89.581733    -3976.396 
24203000    141.06713   -4973.2401   -4701.1803   -4973.2401            0     6775.919    19.648173    19.917461    20.554745    8043.9293    8218.8079     6265.965    5842.9842   -3.5748006   -123.56098    -244.9505   -3906.2806 
24204000    134.98784   -4958.8192   -4698.4838   -4958.8192            0    6475.8549    19.749705    20.000296    20.309611    8022.2951    5702.6254    6236.1546    7488.7845      303.568   -479.04644    -219.8217   -3940.8286 
24205000    139.00002   -4974.1843   -4706.1111   -4974.1843            0    8173.3149    19.777029    19.844337    20.393347    8003.6143    8908.0823     7756.643    7855.2194    45.522041   -286.99131    -841.2216    -3752.085 
24206000    139.88492   -4969.6594   -4699.8796   -4969.6594            0    8211.8088    19.697016    19.665658    20.696231    8016.7843    9697.1818    7886.9634    7051.2813   -679.83208    700.36168    52.663584    -3739.783 
24207000    135.30045   -4953.4599   -4692.5216   -4953.4599            0      5305.49    19.881718    19.866136    20.450733    8077.4855     3832.469     6747.057     5336.944   -57.258421     184.5111   -177.72313   -4067.5251 
24208000    136.35213    -4944.305   -4681.3384    -4944.305            0    6797.0516    19.932423    19.814994     20.25026      7998.06    7142.9087    5008.2217    8240.0243    28.168891   -286.50817    596.93878   -3888.5065 
24209000    139.52375   -4954.2873    -4685.204   -4954.2873            0    7143.5609     19.87433    19.596579    20.549037    8003.2102    7485.6478    6440.6994    7504.3355   -213.55017    5.9112106     561.3163   -3851.4175 
24210000    143.08544    -4949.151   -4673.1987    -4949.151            0    7018.0626    19.708856     19.84919    20.563373    8044.4908     7187.887    7639.9938     6226.307   -929.47545     229.3224   -607.53147    -3849.835 
24211000    134.61061   -4942.8448   -4683.2369   -4942.8448            0    7467.7753     19.76548    19.949668    20.315289    8010.6184    7663.7638    7139.1347    7600.4272   -65.265556    1108.5233    55.322729   -3810.8018 
24212000     134.5843   -4943.9031   -4684.3459   -4943.9031            0    7588.9502    19.636459    19.880654    20.560563    8026.5488    7346.6336    8530.1416    6890.0754   -313.09692    161.29857    346.65067   -3795.9911 
24213000     141.4667   -4943.8776   -4671.0472   -4943.8776            0    7056.3413    19.626068    19.884125    20.555822    8021.8517    6309.1128    8765.6785    6094.2327    184.65764   -765.21027   -394.72645   -3845.5224 
24214000    144.51646   -4960.7329   -4682.0207   -4960.7329            0    7145.2563    19.717881    19.975775    20.343942    8013.0709    8147.7498    5935.8515    7352.1675    266.10068    399.48506   -695.44948   -3847.0088 
24215000    133.80075   -4974.7076   -4716.6616   -4974.7076            0    5621.0172    19.780042    19.744219    20.666399    8071.0857    5786.6353    5487.5762      5588.84   -659.63916   -416.98506   -223.41726   -4055.0201 
24216000    137.19335   -4956.2827   -4691.6938   -4956.2827            0    7258.5795    19.602815    19.701234    20.632938    7968.4337    6798.8643    8858.7104    6118.1639   -254.67195    518.21707    239.06111   -3848.1639 
24217000    132.45668    -4958.783   -4703.3291    -4958.783            0    7987.6536    19.734423    19.797319    20.417356    7976.8297    7014.0758    8888.9534    8059.9315    772.78998    229.88729   -18.401909   -3774.0944 
24218000    143.56325   -4955.1113   -4678.2375   -4955.1113            0    6527.4143    19.847319    19.844447     20.36913    8022.5662    8211.2431    4694.0899    6676.9099    -250.0593    349.96823   -531.96729   -3914.5242 
24219000    142.80665   -4958.8644   -4683.4497   -4958.8644            0    7252.2401    19.725997    19.936144    20.373266    8011.9968    7843.7519    6957.6061    6955.3622    18.697436   -1386.9881   -181.96343    -3836.049 
24220000    131.80321   -4951.0049   -4696.8114   -4951.0049            0    7213.2402    19.645864    19.734822    20.660023    8010.0486    7374.8222    7520.7827    6744.1156   -262.05203   -377.18244   -16.986777   -3854.1726 
24221000    139.57111   -4953.1099   -4683.9352   -4953.1099            0     8696.305    19.832935      19.7841     20.27506    7955.4628    7880.0535    8582.0017    9626.8598   -584.54782   -663.35327    590.32058   -3674.9702 
24222000    141.53039   -4970.9667   -4698.0134   -4970.9667            0    7475.2788    19.668954    19.921006    20.445151    8010.9284    6361.5526    7939.2826    8125.0013    174.66249    1045.3818    195.55686   -3824.6678 
24223000    138.10646   -4961.2902   -4694.9403   -4961.2902            0    6708.7886    19.712975    19.738329    20.630345    8027.2913    7142.6043    6950.6241    6033.1373   -254.78028   -624.94473    999.06584   -3909.5437 
24224000    138.06477   -4946.9071   -4680.6376   -4946.9071            0    8680.2659     19.82674    19.784568    20.346489    7981.1847    7479.8409    9544.3506    9016.6061     92.89086   -729.26008    217.82595   -3670.2773 
24225000    139.38236   -4965.0932   -4696.2826   -4965.0932            0    7063.1369    19.788058    19.845515     20.39092    8007.6001    6333.8466    7428.0405    7427.5237   -486.71062   -937.22489    1042.6182   -3871.4309 
24226000    142.91559   -4960.7178    -4685.093   -4960.7178            0    6834.0388    19.617199    19.854119    20.590503    8019.6343    6931.6974    7490.6631    6079.7559   -125.86822    452.37457   -1356.7105   -3885.7966 
24227000    148.19043   -4942.0415   -4656.2438   -4942.0415            0    7437.1972    19.746696    19.847624    20.559322     8057.712     7245.126    7812.0819    7254.3837   -197.16024   -308.93958    620.49627    -3782.273 
24228000    142.29298   -4952.1076   -4677.6836   -4952.1076            0    5894.7604    19.786421    19.955945    20.506539    8097.1449     6769.678    5235.0498    5679.5535   -240.23458   -30.192252    -398.6371   -3981.5799 
24229000    151.42318   -4967.7086   -4675.6762   -4967.7086            0    8313.4462    19.646427    19.797288    20.565247    7998.7703    9451.3155    7670.0022    7819.0209    463.53892   -396.03925    7.1994157   -3705.8806 
24230000    143.56225    -4945.335   -4668.4631    -4945.335            0    6570.0666    19.623378    19.936482    20.507027     8022.782    7266.6176    5594.8272     6848.755   -822.66164   -56.229337    161.03748   -3899.7387 
24231000     152.1351   -4969.4188   -4676.0135   -4969.4188            0    6987.8377    19.804773    19.930638    20.401304    8052.8384    6569.4435    6228.3777     8165.692    69.851909    599.80924   -1748.7549   -3855.3451 
24232000    137.74534   -4949.9134     -4684.26   -4949.9134            0     6018.856    20.064784    19.843648    20.234966    8056.7239     3835.619    6636.3969     7584.552   -117.61532    678.66764    864.40086   -3977.0501 
24233000    144.48447   -4974.7809   -4696.1304   -4974.7809            0    5578.6745    19.895319     19.72496    20.507989    8048.0396     4418.156    6453.7858    5864.0818     97.29193     261.8765   -373.71835    -4041.348 
24234000    148.58934   -4961.9742   -4675.4071   -4961.9742            0    6862.0177    19.757333    19.819307      20.4571    8010.5228    7799.0815    6809.4647     5977.507    -198.2687    476.95377   -1046.7122   -3873.7501 
24235000    140.15627   -4963.8726   -4693.5694   -4963.8726            0    7978.8114     19.64862    19.738557    20.584349    7983.3393    8325.7846    8512.9393    7097.7102    308.89577    454.79197    499.24056   -3764.6059 
24236000    136.80582    -4962.056   -4698.2145    -4962.056            0    7829.1611    19.728342    19.916174    20.433952    8028.7671    8043.9343    7826.9457    7616.6033   -299.63864    1824.1403    381.18145   -3781.4876 
24237000    141.87242   -4957.9503   -4684.3374   -4957.9503            0    6803.9551    19.567335    19.872796    20.566682    7997.5116    7959.2509     6460.444    5992.1706   -398.58292    420.31973    48.675236   -3890.7546 
24238000     141.2921   -4954.7885   -4682.2948   -4954.7885            0     7753.429    19.670942    19.873326    20.606605    8055.6793    7134.9203    7998.3254    8127.0413    170.92888    186.48415    778.06612   -3771.3923 
24239000    140.41758    -4964.887   -4694.0799    -4964.887            0    5696.1829    19.691515    19.854894    20.618392    8061.2334    6859.0053    4990.8179    5238.7257    254.70592    707.74494    812.36143   -4024.4092 
24240000    143.96472   -4957.0289   -4679.3808   -4957.0289            0    6142.3665    19.712014    19.779054    20.570795    8020.2443    6374.1969    6276.5529    5776.3498   -69.345442    1079.2128   -495.85556   -3960.9264 
24241000    138.86494   -4971.3756   -4703.5629   -4971.3756            0    6750.3015    19.886712    19.906294    20.378838    8067.3853    6436.8286    5449.7522    8364.3239   -82.298852   -147.09178    25.102964   -3909.3593 
24242000    144.16139   -4960.5797   -4682.5523   -4960.5797            0    8402.9082    19.653771    19.782634    20.493098    7967.7854     7918.386    9564.3542    7725.9843   -215.78515    -910.8066     811.9593   -3706.1178 
24243000    143.54817   -4950.8672   -4674.0225   -4950.8672            0    7678.6259    19.828751    19.735665    20.460279    8006.7944    7331.2344    8239.9123    7464.7311   -181.17583    212.17574   -226.93982   -3777.3825 
24244000    142.64562    -4948.335    -4673.231    -4948.335            0    6337.0138    19.573607    19.838974    20.592402    7996.4472    6602.3638     6653.349    5755.3287   -357.97993   -434.95378    1223.6386   -3934.2085 
24245000    153.18379   -4964.9512   -4669.5234   -4964.9512            0    6802.8733    19.796572    19.922656    20.423839    8055.1682    6974.9016    6174.3742     7259.344   -139.57731    1160.7407    186.77563   -3870.3466 
24246000    142.32823   -4953.6883   -4679.1963   -4953.6883            0    6111.9052     19.66031    19.968432    20.486144    8042.5641    6247.9848     5283.802    6803.9289    255.28993    118.12255    743.98535   -3962.3154 
24247000    137.83205   -4955.2393   -4689.4186   -4955.2393            0    7450.4996    19.618365    19.856566    20.641893    8041.1186    8642.4488    7357.7977    6351.2522   -341.73872    64.116178   -465.44566   -3815.6876 
24248000     140.5672   -4951.6001   -4680.5044   -4951.6001            0    6664.7702     19.78393    19.796477    20.566863    8055.0555    7844.3958    5714.3893    6435.5257    283.44739    -523.8463    114.79252   -3897.5624 
24249000    139.48324   -4965.8157   -4696.8105   -4965.8157            0    7677.2208    19.704766    19.800026    20.510296    8002.1919     7413.504    8418.7986    7199.3596   -191.90511   -325.65704     40.39004     -3800.85 
24250000    150.70225   -4948.8485   -4658.2066   -4948.8485            0    7837.3869     19.70383    19.844905     20.43598    7990.8897    7548.8586    7999.4851    7963.8171    475.80897   -103.00684    946.99635   -3744.8459 
Loop time of 336.955 on 64 procs for 250000 steps with 972 atoms

Performance: 128.207 ns/day, 0.187 hours/ns, 741.940 timesteps/s
194.2% CPU use with 32 MPI tasks x 2 OpenMP threads

MPI task timing breakdown:
Section |  min time  |  avg time  |  max time  |%varavg| %total
---------------------------------------------------------------
Pair    | 28.671     | 35.217     | 41.436     |  63.2 | 10.45
Bond    | 0.98264    | 1.1386     | 1.4361     |   9.0 |  0.34
Kspace  | 143.53     | 150.47     | 158.55     |  33.0 | 44.66
Neigh   | 0.91103    | 0.97335    | 1.0138     |   3.1 |  0.29
Comm    | 62.477     | 65.801     | 69.731     |  22.4 | 19.53
Output  | 0.52627    | 0.52661    | 0.52794    |   0.0 |  0.16
Modify  | 68.056     | 69.498     | 71.214     |   8.9 | 20.63
Other   |            | 13.33      |            |       |  3.95

Nlocal:        30.3750 ave          37 max          25 min
Histogram: 3 2 3 2 8 9 1 1 1 2
Nghost:        2702.41 ave        2715 max        2686 min
Histogram: 2 2 1 3 6 3 2 8 2 3
Neighs:        9824.03 ave       12811 max        7602 min
Histogram: 3 3 5 4 6 3 3 2 2 1

Total # of neighbors = 314369
Ave neighs/atom = 323.42490
Ave special neighs/atom = 2.0000000
Neighbor list builds = 3096
Dangerous builds = 0

unfix		3
unfix		2
unfix		1

write_data	data.final.${pid}
write_data	data.final.1
System init for write_data ...
PPPM initialization ...
  extracting TIP4P info from pair style
  using 12-bit tables for long-range coulomb (../kspace.cpp:340)
  G vector (1/distance) = 0.37232486
  grid = 24 24 24
  stencil order = 5
  estimated absolute RMS force accuracy = 0.0034920401
  estimated relative force accuracy = 1.0516175e-05
  using double precision FFTW3
  3d grid and FFT values/proc = 3211 432
Last active /omp style is kspace_style pppm/tip4p/omp
WARNING: Not all mixed pair coeffs generated from mixing. Use write_data with 'pair ij' option to store all pair coeffs. (../write_data.cpp:312)

write_restart   restart.lmp.${pid}
write_restart   restart.lmp.1
System init for write_restart ...
PPPM initialization ...
  extracting TIP4P info from pair style
  using 12-bit tables for long-range coulomb (../kspace.cpp:340)
  G vector (1/distance) = 0.37232486
  grid = 24 24 24
  stencil order = 5
  estimated absolute RMS force accuracy = 0.0034920401
  estimated relative force accuracy = 1.0516175e-05
  using double precision FFTW3
  3d grid and FFT values/proc = 3211 432
Last active /omp style is kspace_style pppm/tip4p/omp
Total wall time: 0:05:37
