LAMMPS (30 Jul 2021)
  using 16 OpenMP thread(s) per MPI task
package omp 0
using multi-threaded neighbor list subroutines
echo both

include		in.partitions
variable        pid world 0
include		in.temp
variable	temperature equal 250.0
variable	tempDamp equal 100.0
include		in.pressure
variable        pressure equal 1000
variable        pressureDamp equal 1000.0 # This is 1 ps
include		in.seed
variable        seed world 745823

units		real
atom_style	full
include		in.box
read_data       water.data
Reading data file ...
  orthogonal box = (0.0000000 1.0915313 0.0000000) to (18.207572 22.537647 22.213196)
  1 by 1 by 1 MPI processor grid
  reading atoms ...
  864 atoms
  reading velocities ...
  864 velocities
  scanning bonds ...
  2 = max bonds/atom
  scanning angles ...
  1 = max angles/atom
  reading bonds ...
  576 bonds
  reading angles ...
  288 angles
Finding 1-2 1-3 1-4 neighbors ...
  special bond factors lj:    0        0        0       
  special bond factors coul:  0        0        0       
     2 = max # of 1-2 neighbors
     1 = max # of 1-3 neighbors
     1 = max # of 1-4 neighbors
     2 = max # of special neighbors
  special bonds CPU = 0.000 seconds
  read_data CPU = 0.008 seconds
include 	in.setup
variable	out_freq equal 500
variable	out_freq2 equal 500

timestep	2.0

neigh_modify    delay 7 every 1

include		in.tip4p
# This is TIP4P/Ice

# create groups ###
group ox type 2
288 atoms in group ox
group hy type 1
576 atoms in group hy

# set charges - beside manually ###
set group ox charge -1.1794
Setting atom values ...
  288 settings made for charge
set group hy charge 0.5897
Setting atom values ...
  576 settings made for charge

# ### TIP3P Potential Parameters ###
pair_style lj/cut/tip4p/long 2 1 1 1 0.1577 8.5
pair_coeff 1 1*2 0.000 0.000
pair_coeff 2 2 0.21084 3.1668
bond_style  harmonic
bond_coeff  1 450 0.9572
angle_style harmonic
angle_coeff 1 55 104.52
kspace_style pppm/tip4p 1.0e-5
pair_modify tail yes

thermo          ${out_freq}
thermo          500
thermo_style 	custom step temp pe etotal epair emol press lx ly lz vol pxx pyy pzz pxy pxz pyz

restart 	${out_freq} restart.lmp.${pid} restart2.lmp.${pid}
restart 	500 restart.lmp.${pid} restart2.lmp.${pid}
restart 	500 restart.lmp.0 restart2.lmp.${pid}
restart 	500 restart.lmp.0 restart2.lmp.0


include         in.dump
dump            myDump all atom ${out_freq2} dump.water.${pid}
dump            myDump all atom 500 dump.water.${pid}
dump            myDump all atom 500 dump.water.0
dump            myDump2 all dcd ${out_freq2} dump.dcd
dump            myDump2 all dcd 500 dump.dcd
dump_modify     myDump append yes
dump_modify     myDump2 append yes


timer           timeout 00:55:00 every 1000
New timer settings: style=normal  mode=nosync  timeout=00:55:00

fix 		1 all shake 1e-6 200 0 b 1 a 1
       0 = # of size 2 clusters
       0 = # of size 3 clusters
       0 = # of size 4 clusters
     288 = # of frozen angles
  find clusters CPU = 0.000 seconds
fix             2 all nph iso ${pressure} ${pressure} ${pressureDamp}
fix             2 all nph iso 1000 ${pressure} ${pressureDamp}
fix             2 all nph iso 1000 1000 ${pressureDamp}
fix             2 all nph iso 1000 1000 1000
fix             3 all temp/csvr ${temperature} ${temperature} ${tempDamp} ${seed}
fix             3 all temp/csvr 250 ${temperature} ${tempDamp} ${seed}
fix             3 all temp/csvr 250 250 ${tempDamp} ${seed}
fix             3 all temp/csvr 250 250 100 ${seed}
fix             3 all temp/csvr 250 250 100 745823
velocity 	all create ${temperature} ${seed} dist gaussian
velocity 	all create 250 ${seed} dist gaussian
velocity 	all create 250 745823 dist gaussian

run             500000
PPPM initialization ...
  extracting TIP4P info from pair style
  using 12-bit tables for long-range coulomb (../kspace.cpp:340)
  G vector (1/distance) = 0.37144849
  grid = 24 25 25
  stencil order = 5
  estimated absolute RMS force accuracy = 0.0033118622
  estimated relative force accuracy = 9.9735747e-06
  using double precision FFTW3
  3d grid and FFT values/proc = 33792 15000
Last active /omp style is kspace_style pppm/tip4p/omp
Neighbor list info ...
  update every 1 steps, delay 7 steps, check yes
  max neighbors/atom: 2000, page size: 100000
  master list distance cutoff = 10.8154
  ghost atom cutoff = 10.8154
  binsize = 5.4077, bins = 4 4 5
  1 neighbor lists, perpetual/occasional/extra = 1 0 0
  (1) pair lj/cut/tip4p/long/omp, perpetual
      attributes: half, newton on, omp
      pair build: half/bin/newton/omp
      stencil: half/bin/3d
      bin: standard
Per MPI rank memory allocation (min/avg/max) = 25.42 | 25.42 | 25.42 Mbytes
Step Temp PotEng TotEng E_pair E_mol Press Lx Ly Lz Volume Pxx Pyy Pzz Pxy Pxz Pyz 
       0          250   -3852.2439   -3423.7525   -3852.2439            0    2962.6983    18.207572    21.446115    22.213196    8673.8464     2645.686    3255.3905    2987.0185    2059.0609   -2061.3767    -1725.181 
     500    254.13332   -3906.2993   -3470.7235   -3906.2993            0    2998.3755    18.049084    21.259437     22.01984    8449.3069    5008.3856    2166.4647    1820.2761    174.55328    -1403.211   -847.33249 
    1000    254.66258   -3912.8473   -3476.3644   -3912.8473            0    1177.6361    18.152853    21.381663    22.146438    8595.8779    1349.8058    557.86944    1625.2329   -267.44842    1407.4267    2.9106067 
    1500    237.30689   -3905.7792   -3499.0433   -3905.7792            0     2185.786    18.186263    21.421015    22.187198    8643.4269    2390.4724    728.57413    3438.3116   -89.302236   -959.57352    831.52921 
    2000    245.71173   -3914.2935    -3493.152   -3914.2935            0    1597.1155    18.211363     21.45058     22.21782    8679.2649    1415.5187    903.67773    2472.1499    194.79903    41.870387   -22.620832 
    2500    249.45629   -3920.3018   -3492.7423   -3920.3018            0    155.65135    18.210225     21.44924    22.216432    8677.6378    -1107.974    113.70035    1461.2277    837.46524    997.10186   -334.68232 
    3000    254.02835   -3934.7851   -3499.3892   -3934.7851            0    282.86871    18.234968    21.478384    22.246618     8713.058   -290.21548    158.26822    980.55339   -356.12678    458.31235   -580.42329 
    3500    236.75437   -3930.4261   -3524.6372   -3930.4261            0    396.66366    18.137578    21.363672    22.127803    8574.1978    1150.8543    1156.5403   -1117.4037   -1487.9589     -1930.25    555.00007 
    4000    236.90486   -3926.9879   -3520.9411   -3926.9879            0    811.26491    18.181421    21.415313    22.181292     8636.526    885.15772   -104.30533    1652.9423   -42.370857   -1003.6917   -774.54908 
    4500    236.72383   -3918.0585   -3512.3219   -3918.0585            0    2828.6392     18.19787    21.434687    22.201359    8659.9874    2257.4494    1708.3571    4520.1111    303.03499    282.35936   -219.42524 
    5000    256.46238   -3920.6833   -3481.1156   -3920.6833            0    1165.6028      18.1312    21.356158    22.120021    8565.1545     1746.577    953.88986    796.34146   -1125.9586   -114.77431   -738.31979 
    5500    236.98046   -3935.8411   -3529.6647   -3935.8411            0    196.39646    18.202538    21.440186    22.207054    8666.6537    257.00165    1241.0401    -908.8524    -990.8511   -78.813286   -72.791592 
    6000    253.16319   -3919.5837   -3485.6706   -3919.5837            0   -196.09908    18.254271     21.50112    22.270168    8740.7572    409.81067   -903.24082   -94.867079    16.070513     15.25189    86.351574 
    6500    248.88725   -3933.6722    -3507.088   -3933.6722            0    1448.3642    18.283363    21.535386     22.30566    8782.6141    1214.6124    1041.7839    2088.6964    370.29389   -829.92024    676.76988 
    7000    246.02043   -3919.5044   -3497.8338   -3919.5044            0    677.88144     18.12202    21.345346    22.108822    8552.1518     598.0406    720.74734    714.85639    506.85268    428.87514    268.50135 
    7500     234.3744   -3923.3705   -3521.6608   -3923.3705            0    30.091301    18.053516    21.264657    22.025248     8455.533    -834.4616    -97.50925    1022.2447   -119.70105   -248.32814   -144.25009 
    8000    252.29481   -3923.1772   -3490.7525   -3923.1772            0   -268.13145    18.165936    21.397073      22.1624    8614.4778    1304.0471   -839.04357   -1269.3979   -3.3560377    342.08857    517.26855 
    8500    247.84119   -3928.1366   -3503.3452   -3928.1366            0   -876.57098    18.157904    21.387612      22.1526    8603.0553   -942.92714   -821.32059   -865.46521    1882.6322   -213.17316   -718.27756 
    9000    250.04927    -3890.171   -3461.5951    -3890.171            0    81.129903     18.08434    21.300964    22.062853    8498.9175    448.00748   -305.51199    100.89422    107.29822   -357.94882   -127.27181 
    9500    252.12112   -3909.7288   -3477.6018   -3909.7288            0     2071.129    17.997934    21.199188    21.957437    8377.6752    2125.0823    2533.5086    1554.7961   -1498.5806   -74.997858    95.243599 
   10000    252.81359   -3937.0782   -3503.7643   -3937.0782            0     1484.613    17.942566    21.133973    21.889889    8300.5958    1807.2163    1516.4728    1130.1498    1233.5926   -204.31819   -1024.7567 
   10500    259.66073   -3910.4428   -3465.3932   -3910.4428            0    1133.6774    18.057186     21.26898    22.029725    8460.6908   -291.37586    2275.3513    1417.0568    170.53949    924.46079   -1195.4514 
   11000    255.12315   -3958.3613    -3521.089   -3958.3613            0    2668.6071    17.975707    21.173009    21.930321    8346.6756    3318.1171    1737.0299    2950.6742    200.35523   -392.15521     1114.531 
   11500    243.67493   -3955.0344   -3537.3839   -3955.0344            0    1178.9059    18.026849    21.233247    21.992714    8418.1187    2003.3428    714.35618    819.01876   -188.84413   -893.43671   -267.32008 
   12000    262.59517   -3913.1963   -3463.1172   -3913.1963            0     458.1711    17.990112    21.189975    21.947894    8366.7575    72.178187   -219.05669    1521.3918    181.09865    205.32951    978.58142 
   12500    250.74517   -3914.3513   -3484.5827   -3914.3513            0    518.00178     17.98099    21.179231    21.936766     8354.037   -447.49903    1181.2962    820.20818   -514.22526    -56.03504    786.61748 
   13000    251.87713   -3911.7588     -3480.05   -3911.7588            0    2748.1086    17.985871     21.18498     21.94272    8360.8417    2351.9966    1760.0145    4132.3147   -350.17004    126.34691   -326.49636 
   13500    242.79876   -3964.4326   -3548.2838   -3964.4326            0    154.17853    18.014298    21.218464    21.977402    8400.5485    -446.0027    1261.9159   -353.37763   -431.19286    -1295.096    821.33727 
   14000    244.00483   -3943.6445   -3525.4285   -3943.6445            0     746.0117    17.998405    21.199744    21.958012    8378.3335    1319.7774    85.895486     832.3622   -847.29449    133.01096     374.4469 
   14500    232.92368   -3937.3137   -3538.0905   -3937.3137            0     838.1761    18.042325    21.251475    22.011594    8439.8176    1444.5983    1157.2774   -87.347437    2353.6516    -354.3349    1362.5039 
   15000     252.1168   -3931.4702   -3499.3506   -3931.4702            0     859.6888    18.102892    21.322815    22.085486    8525.0993    210.07042     1441.715    927.28094    1635.8967   -191.57806   -247.76399 
   15500    248.12979   -3949.2943   -3524.0084   -3949.2943            0    291.72559    18.163681    21.394417    22.159648    8611.2695    679.22122   -1185.3026    1381.2582   -175.04565     364.6551    115.44363 
   16000    249.99397   -3934.4946   -3506.0135   -3934.4946            0    694.20684     18.01944     21.22452    21.983674     8407.743   -133.14727    2261.3308   -45.563038    684.16802    173.45617   -241.82242 
   16500    269.05359   -3952.2673   -3491.1187   -3952.2673            0    689.70601    18.103269     21.32326    22.085946    8525.6327    476.39749    163.90525    1428.8153   -213.32221   -348.89525     951.0467 
   17000    246.51738    -3954.083   -3531.5607    -3954.083            0    802.00562    18.031264    21.238447      21.9981    8424.3052    1123.6552    629.48363    652.87808    1143.8744   -825.11309    342.08144 
   17500    244.48674   -3945.6156   -3526.5737   -3945.6156            0    -363.6654    18.114641    21.336654     22.09982    8541.7092   -1078.7851    986.26832    -998.4794   -203.63276    1057.4654    164.88586 
   18000    227.29467    -3939.229   -3549.6537    -3939.229            0     678.9431    18.093637    21.311915    22.074195    8512.0317   -279.74203    1591.9551    724.61619   -397.66257    959.79244    456.26944 
   18500    241.08094   -3956.5272   -3543.3228   -3956.5272            0    855.60077     18.06272    21.275498    22.036476    8468.4712     -44.8308    1093.1974    1518.4358     671.3941   -904.75943   -1302.2017 
   19000    243.74604   -3934.7436   -3516.9712   -3934.7436            0    1735.7258    18.048809    21.259113    22.019505    8448.9212    1289.3603    1611.4802     2306.337    -1004.367   -1224.4995     428.8654 
   19500    268.86801   -3964.3749   -3503.5443   -3964.3749            0    1193.6347    17.983856    21.182607    21.940263    8358.0326    1647.5377    731.30175    1202.0646    1620.4727   -872.04339   -275.41213 
   20000    237.38143   -3948.2781   -3541.4144   -3948.2781            0    1055.3997    18.044536    21.254079    22.014291    8442.9209    1007.4953     1222.829    935.87481   -796.21651   -673.17393    241.71674 
   20500    256.23945   -3959.2578   -3520.0721   -3959.2578            0    1716.9503    18.016373    21.220908    21.979933    8403.4517    595.77663    1549.7645    3005.3098   -511.32663   -94.765288    255.31653 
   21000    254.51589   -3969.1898   -3532.9582   -3969.1898            0    873.76191    17.990084    21.189942     21.94786    8366.7183    1058.4255    637.79644    925.06376   -902.03214     -1737.09   -1124.7257 
   21500    250.90189   -3970.9819   -3540.9446   -3970.9819            0    467.98198     17.99006    21.189914    21.947831    8366.6846    1437.4208   -68.657385    35.182574   -345.53866   -379.77613    450.53435 
   22000    255.16749   -3930.5425   -3493.1941   -3930.5425            0   -452.51457    18.106099    21.326593    22.089398    8529.6309   -167.63423   -876.16812   -313.74137    622.88123    352.24498     1512.439 
   22500    249.88448   -3952.1572   -3523.8638   -3952.1572            0    423.72953    18.060187    21.272515    22.033386    8464.9095    360.83603    2263.1244   -1352.7719   -931.11673   -242.17412    337.99408 
   23000    237.84125   -3954.1357   -3546.4839   -3954.1357            0      1435.48    18.049494     21.25992    22.020341    8449.8829     137.3288    1693.1606    2475.9507    1114.6395   -1073.4473    484.61938 
   23500    247.03576   -3922.4456   -3499.0348   -3922.4456            0   -137.19968    18.167381    21.398775    22.164162    8616.5331   -950.26704    111.44325    427.22476    1191.2422    25.444247   -650.24191 
   24000    252.67025   -3883.8916   -3450.8235   -3883.8916            0     1314.033    18.110085    21.331288    22.094261     8535.266   -589.41533    1533.7622    2997.7521   -24.971997   -838.20622    1137.6839 
   24500    246.31233   -3940.5358   -3518.3649   -3940.5358            0    380.54758    18.089477    21.307014    22.069119    8506.1609    124.33402    208.79362    808.51511   -1089.2914    199.85978   -127.09714 
   25000    234.71805   -3884.4601   -3482.1614   -3884.4601            0    1236.3501    18.123742    21.347374    22.110922    8554.5894    343.46358     1384.112    1981.4748   -22.653502    515.16837   -1220.8559 
   25500    241.52868   -3922.5559    -3508.584   -3922.5559            0    944.07144    18.092123    21.310131    22.072348    8509.8944    704.61747    1160.5864    967.01048   -108.88017   -611.88467    1193.0285 
   26000    260.30536   -3929.7027   -3483.5483   -3929.7027            0    965.85439    18.133326    21.358663    22.122615    8568.1684    1049.5074    687.98952    1160.0662     453.3787    29.364707   -19.896502 
   26500    228.78623   -3950.7235   -3558.5917   -3950.7235            0    819.06523    17.998117    21.199405    21.957661    8377.9316    13.645474    149.58885    2293.9614   -704.27602   -211.68747   -420.99599 
   27000    260.32431   -3928.8637   -3482.6767   -3928.8637            0    277.52293    17.995747    21.196613    21.954769    8374.6219    1030.8785    409.47722   -607.78694    1070.9455    -188.1541   -1046.7983 
   27500    245.24782   -3910.2032   -3489.8568   -3910.2032            0    279.63537    18.055925    21.267495    22.028187    8458.9182    328.87221    781.48925   -271.45536    696.47786   -350.84418   -630.61193 
   28000    248.89284   -3944.2928    -3517.699   -3944.2928            0    1649.4889    17.991591    21.191718    21.949699    8368.8215    1966.3957     2440.723    541.34791    441.20258    978.40948   -76.635167 
   28500    249.49296   -3933.3037   -3505.6813   -3933.3037            0   -469.69122    18.043978    21.253423    22.013611    8442.1384    371.17998   -1128.0828   -652.17079    794.73175    636.79657   -1576.7779 
   29000    231.49055   -3940.1867   -3543.4198   -3940.1867            0    421.56154    18.102422    21.322262    22.084913    8524.4361     1270.364    1285.5385   -1291.2178    4.9473518   -716.69815   -226.22654 
   29500    259.61694   -3957.6765    -3512.702   -3957.6765            0    606.43927    18.087766    21.304999    22.067032    8503.7476   -90.380569    646.34173    1263.3567    708.22409    1542.4077   -490.76711 
   30000    255.85308   -3908.1692   -3469.6458   -3908.1692            0   -51.896831    17.991495    21.191604    21.949582     8368.687   -804.83907    688.11434   -38.965764    457.25994    303.86851     184.4278 
   30500    254.23082   -3959.8356   -3524.0927   -3959.8356            0    1102.5046    17.944099    21.135778    21.891759    8302.7232    1711.4663   -117.29704    1713.3446   -773.54143   -88.654924   -217.95981 
   31000    250.95671   -3882.2072    -3452.076   -3882.2072            0    1070.4833    18.046361    21.256229    22.016518    8445.4828    1337.0841    965.13759    909.22832     555.8399    639.39516    471.47221 
   31500     251.4407   -3902.5399   -3471.5791   -3902.5399            0     1233.793    18.003751    21.206041    21.964535    8385.8021    129.74691    672.28997    2899.3421     483.3659    795.24968   -375.12236 
   32000    249.38936   -3898.1992   -3470.7544   -3898.1992            0    464.35622    17.997177    21.198297    21.956514    8376.6189    364.61752   -957.65441    1986.1056   -1096.4036    297.96991    235.49459 
   32500    255.91758   -3928.5355   -3489.9015   -3928.5355            0    1383.8494    18.007189    21.210091    21.968729    8390.6073    2875.3851    89.213662    1186.9495   -684.81956     750.6018    114.22735 
   33000    251.01434   -3919.4762   -3489.2462   -3919.4762            0    117.23686    18.035088    21.242952    22.002765    8429.6665   -192.85674    1528.4234   -983.85606   -670.05214    1024.7821    171.07797 
   33500    242.75268   -3910.1235   -3494.0537   -3910.1235            0    471.21439    18.060201    21.272531    22.033403    8464.9286    2342.7876   -110.52554   -818.61885   -342.00481    389.94498   -20.297956 
   34000     255.1903   -3962.5138   -3525.1263   -3962.5138            0     193.0278     17.89948    21.083223    21.837324    8240.9413   -105.86609    248.00221    436.94728   -847.25865    1014.7803    150.54018 
   34500    242.36717   -3953.2822   -3537.8732   -3953.2822            0     867.3612    17.946526    21.138637     21.89472    8306.0929    1731.0437   -404.81625    1275.8562   -330.82355    48.731429    564.27584 
   35000    240.97493   -3942.2459   -3529.2232   -3942.2459            0    625.35583    17.976177    21.173562    21.930894    8347.3303    1011.8391    958.62499   -94.396643   -1775.1872    849.94792   -260.77508 
   35500     252.2637   -3935.9514   -3503.5801   -3935.9514            0    510.28768    17.974645    21.171758    21.929025    8345.1965    439.76143   -265.85441     1356.956    298.74932    430.92989   -135.60303 
   36000    248.22793   -3939.1434   -3513.6892   -3939.1434            0    1308.7278    17.966597    21.162278    21.919206    8333.9911    1598.0098    1011.6867     1316.487    1130.3015   -547.82879    732.91587 
   36500    249.93818    -3890.026   -3461.6405    -3890.026            0    421.16158    18.040953     21.24986    22.009921    8437.8936   -179.68717    1586.8605   -143.68855   -702.45723     1275.941   -498.24474 
   37000    258.23194   -3941.7922   -3499.1915   -3941.7922            0    205.23606    18.007808    21.210819    21.969483    8391.4712   -341.49721    544.46641    412.73898   -61.625533    341.27627    725.61181 
   37500    248.42093   -3927.8937   -3502.1087   -3927.8937            0    482.95445    18.060403    21.272769    22.033649    8465.2127    1585.7568    318.97624   -455.86975   -150.30646     441.5898   -893.90351 
   38000    258.00368   -3941.9655    -3499.756   -3941.9655            0    485.19185    18.000178    21.201832    21.960175    8380.8096    914.63002    756.63426   -215.68874   -342.02965    476.02029    660.41694 
   38500    242.29783   -3902.6391   -3487.3489   -3902.6391            0    561.28537    17.991639    21.191775    21.949758     8368.889    1685.0694    1401.8194   -1403.0327   -1978.5462   -723.99673   -125.47731 
   39000    249.23815    -3919.218   -3492.0324    -3919.218            0     1498.505    17.927095     21.11575    21.871014    8279.1421    2618.5271    461.44072    1415.5472   -921.41425   -1132.4069    486.49824 
   39500    248.63025   -3902.9112   -3476.7674   -3902.9112            0    518.01029    17.867153    21.045147    21.797886    8196.3726    761.95102     2027.301   -1235.2212   -223.90601   -1416.7857    518.77105 
   40000    245.69522   -3909.9685   -3488.8553   -3909.9685            0    1797.7915    17.925657    21.114056     21.86926    8277.1505    3005.2145     467.8463    1920.3138    305.96686    699.74371    809.68327 
   40500    241.37099   -3945.1428   -3531.4411   -3945.1428            0     1271.815    17.994902    21.195618    21.953739    8373.4431    1110.2874    1479.6995    1225.4582     236.5042   -454.24696    154.56727 
   41000    251.26407   -3916.2089   -3485.5509   -3916.2089            0    1977.9293    17.971457    21.168003    21.925136     8340.757    1630.5487    2040.7119    2262.5273    242.50172    1976.3362    508.47551 
   41500    257.72781   -3934.5323   -3492.7957   -3934.5323            0    1527.0177     18.02259    21.228231    21.987518    8412.1539    1971.3079    1471.3029    1138.4424   -664.78484    777.76737    582.17088 
   42000    246.22792   -3926.2244   -3504.1981   -3926.2244            0   -432.90225    18.124325     21.34806    22.111634    8555.4151   -10.388858   -457.57135   -830.74655    1235.3382    -853.1321   -1152.2421 
   42500    245.95814   -3940.0991   -3518.5353   -3940.0991            0    474.24076     18.05496    21.266358    22.027009     8457.562   -242.93715   -653.11448    2318.7739   -621.07548    472.30914    63.201286 
   43000    252.41864    -3937.377   -3504.7401    -3937.377            0    1053.0012    17.994119    21.194695    21.952783    8372.3494    511.30014    1317.4819    1330.2214   -52.848258    667.10065    778.68788 
   43500    241.43562   -3952.7349   -3538.9225   -3952.7349            0    189.20484    18.099265    21.318544    22.081061     8519.977    856.76964   -385.13919    95.984086   -280.68909    1762.5795    72.877809 
   44000    254.55493   -3941.8894   -3505.5909   -3941.8894            0   -503.64032    18.086617    21.303645     22.06563    8502.1272   -1877.8323    -11.25345    378.16479    599.66561   -1132.1123     285.4512 
   44500    251.25795   -3913.3748   -3482.7273   -3913.3748            0    1690.7818    18.051944    21.262805    22.023329    8453.3239    199.90951     4035.922    836.51378    33.303528    410.49691   -649.93697 
   45000    235.64378   -3935.3392   -3531.4538   -3935.3392            0    1002.1918    18.022991    21.228703    21.988007    8412.7151    91.871585    720.36829    2194.3356   -134.78177   -563.54669   -941.20137 
   45500    251.29245   -3954.7845   -3524.0778   -3954.7845            0    2377.2639    17.989624    21.189401      21.9473    8366.0773    3040.4854    1855.9952    2235.3112   -1034.8295    1565.8296     364.1321 
   46000    263.29324   -3932.2142   -3480.9386   -3932.2142            0    2362.4074     17.99059    21.190539    21.948478     8367.425     888.3179    3256.9045    2941.9999    429.42174   -788.32146   -1170.2057 
   46500    254.55564   -3945.4359   -3509.1363   -3945.4359            0    2601.4074     17.86838    21.046592    21.799382    8198.0609    3289.5948    1200.2543    3314.3733   -249.86003    5.2340642   -595.89156 
   47000    238.98956   -3919.8251   -3510.2051   -3919.8251            0    828.36257    18.036371    21.244463    22.004331    8431.4656    1498.7649    629.01102    357.31174    -74.50569    392.23469    62.135481 
   47500    242.42193   -3892.8358   -3477.3329   -3892.8358            0    1633.7888    18.005642    21.208268    21.966842    8388.4448    1541.5159    1513.6415    1846.2089   -1075.4299    1876.4473   -984.18425 
   48000    262.19991   -3936.9423   -3487.5407   -3936.9423            0    1756.3605    17.903629     21.08811    21.842385    8246.6731    966.97221    1760.5032    2541.6061   -655.34076   -494.52911    1204.6004 
   48500    238.75989   -3892.6146   -3483.3884   -3892.6146            0    121.60697    17.963356    21.158461    21.915253    8329.4827     444.2457   -280.40012    200.97533     83.87994    562.64521   -530.60272 
   49000    247.32444   -3916.0185   -3492.1129   -3916.0185            0    589.40114    17.952004     21.14509    21.901403    8313.7014    691.93875    71.723173    1004.5415   -616.71378    682.00773    1441.3489 
   49500    268.38436   -3910.5184   -3450.5168   -3910.5184            0   -244.25718    17.955546    21.149261    21.905724    8318.6226     64.14586   -810.65452    13.737107    1534.0421    -974.0743    541.62242 
   50000    236.30005   -3906.8939   -3501.8837   -3906.8939            0    1350.7032    17.870621    21.049231    21.802116    8201.1453     892.7625    798.77601    2360.5711    255.25799   -345.71071    1501.4151 
   50500    269.20543   -3943.7141   -3482.3052   -3943.7141            0    575.59321    17.882177    21.062843    21.816214    8217.0658   -447.75981   -75.494131    2250.0336     631.4388    329.17864   -55.023384 
   51000     254.7525   -3915.6307   -3478.9936   -3915.6307            0   -406.56291    17.936551    21.126888     21.88255    8292.2499   -1045.4757    552.64906   -726.86204    667.06871    1207.0194    631.41321 
   51500    249.56612   -3924.5743   -3496.8265   -3924.5743            0    1198.7812    17.859627    21.036281    21.788703    8186.0183    750.04302    1556.9141    1289.3864    -173.4962    112.08484   -876.71966 
   52000    254.22148   -3940.5862   -3504.8593   -3940.5862            0    2017.7307    17.886525    21.067964    21.821519    8223.0612    2982.1146    1471.9896     1599.088    281.37218   -2048.2439    199.64837 
   52500    251.67255   -3911.8837   -3480.5255   -3911.8837            0    527.94586    17.908897    21.094316    21.848813    8253.9557   -599.65826     1065.102    1118.3939    426.23605   -436.79478   -1075.1354 
   53000      251.053   -3931.2768   -3500.9806   -3931.2768            0    52.740964    17.978577    21.176389    21.933822    8350.6743    456.78928    442.48341    -741.0498   -25.468854    56.778104    -215.6708 
   53500     250.0483   -3929.3606   -3500.7864   -3929.3606            0    1557.4789    17.890832    21.073037    21.826773    8229.0028    557.37301    2604.4289    1510.6347   -1390.9658    563.07966    -657.8046 
   54000    253.21214   -3916.2393   -3482.2424   -3916.2393            0    693.52804    17.960572    21.155181    21.911855    8325.6097    598.33025     215.7789     1266.475   -1113.6705   -415.44841    494.59674 
   54500    234.10916   -3948.1452   -3546.8901   -3948.1452            0    1747.0694    17.897131    21.080456    21.834458    8237.6973    1767.9216    1297.2482    2176.0385    1032.8362    366.08527   -1098.4575 
   55000    253.90204   -3924.1142   -3488.9348   -3924.1142            0    720.53605    17.975065    21.172252    21.929537    8345.7807   -234.41642     1405.413    990.61158   -593.76677    163.79962    58.787556 
   55500     244.6505   -3948.6253   -3529.3028   -3948.6253            0    1567.1006    17.891262    21.073544    21.827298    8229.5962    100.61934     4201.858     398.8245    68.671975    1521.6669    35.979703 
   56000    248.75898   -3868.9469   -3442.5825   -3868.9469            0    1087.6664     17.90445    21.089077    21.843387    8247.8077    2760.1541   -391.96501    894.81001    63.584945    1426.5317    1170.0907 
   56500    235.77754   -3887.9893   -3483.8746   -3887.9893            0   -30.222168    17.946863    21.139034    21.895131      8306.56    629.37911    12.890243   -732.93586   -254.88192    805.79067    270.13949 
   57000    259.28276   -3907.0977    -3462.696   -3907.0977            0    1182.1658    18.061106    21.273597    22.034507    8466.2018    675.83823    994.13955    1876.5196    1100.2651   -62.143654   -95.703509 
   57500    253.71198   -3902.6415   -3467.7878   -3902.6415            0    1735.7508    17.902229    21.086461    21.840677    8244.7388     1070.365    2720.9629    1415.9245    1123.5521    331.05832   -918.79196 
   58000    236.12471   -3883.5451   -3478.8354   -3883.5451            0    1212.7332    17.824421    20.994813    21.745752    8137.7036    514.97797    1385.2353    1737.9864    70.450184    858.33313     149.4163 
   58500    257.90521   -3920.7366   -3478.6959   -3920.7366            0    1097.4443    17.843911     21.01777     21.76953    8164.4274    -469.5485     1819.765    1942.1165    156.64251   -610.54447   -774.19967 
   59000    254.06419   -3923.2347   -3487.7774   -3923.2347            0   -365.43494    17.935418    21.125553    21.881168    8290.6783   -1892.6694   -17.293842    813.65842    364.90274    118.97722    928.34546 
   59500    248.52213   -3915.8796   -3489.9212   -3915.8796            0    1435.5188    17.815351     20.98413    21.734686    8125.2871     1169.921    2122.0379    1014.5974   -1418.0934   -1447.1014   -1159.9697 
   60000      246.029   -3941.5739   -3519.8886   -3941.5739            0    397.48793    17.956407    21.150276    21.906775    8319.8196   -168.97551    699.23116    662.20815   -1088.3925   -654.65085    1116.5199 
   60500    250.10961    -3923.283   -3494.6037    -3923.283            0    1778.1786    17.846032    21.020268    21.772117    8167.3386     1634.352    1528.1705    2172.0134    73.410385     134.0466    -813.1414 
   61000    250.44862   -3908.5965   -3479.3361   -3908.5965            0    923.37197    17.899524    21.083275    21.837378    8241.0027    408.49718    2453.6349   -92.016176   -35.095597    168.27593    358.25781 
   61500    257.67014   -3908.5794   -3466.9416   -3908.5794            0    2300.7069    17.921627     21.10931    21.864343    8271.5693    2136.6847    2381.4915    2383.9444     691.3053   -267.61698   -46.477758 
   62000    256.41813   -3903.2118   -3463.7199   -3903.2118            0    628.70569    17.923568    21.111595    21.866711    8274.2565     1202.187    118.96574    564.96434     94.66975    779.92326    115.90001 
   62500    242.41352   -3912.2161   -3496.7276   -3912.2161            0   -316.62037    17.922689     21.11056    21.865639    8273.0396   -414.15783    55.226143   -590.92943   -438.55926     137.9292    980.40122 
   63000    255.56523   -3884.6906   -3446.6606   -3884.6906            0    1428.8864    17.882247    21.062925      21.8163    8217.1621    1593.0899    1374.3661    1319.2033   -636.65019    256.28788    466.04124 
   63500    246.27658    -3934.766   -3512.6564    -3934.766            0    290.22227    17.921583    21.109257    21.864289    8271.5079    1517.7487    726.60336   -1373.6852   -1550.1363    504.74086    -163.5727 
   64000    252.61188    -3914.802   -3481.8339    -3914.802            0    766.92096    17.867562    21.045628    21.798384    8196.9349    1256.1184    1623.3417   -578.69722    220.19478   -11.958923    1491.5166 
   64500    247.47544    -3943.736   -3519.5715    -3943.736            0    1843.7024    17.810617    20.978555    21.728912    8118.8124    2972.4359    1024.9353    1533.7361   -1710.5528    1072.2827    190.52783 
   65000    232.49399   -3921.1918   -3522.7051   -3921.1918            0     726.1179     17.79777    20.963423    21.713238    8101.2566    183.40372    291.30268    1703.6473     274.0873   -117.97635     1031.535 
   65500     249.6467   -3942.8933   -3515.0074   -3942.8933            0   -550.67058     17.88829    21.070043    21.823673    8225.4961    162.29159   -1050.1575   -764.14581    593.93107    1188.8453    735.59145 
   66000    251.99091   -3889.0683   -3457.1645   -3889.0683            0    1108.7875    17.867208    21.045211    21.797952    8196.4479    2207.7752   -307.61043    1426.1978   -307.56685   -1531.9555   -725.59695 
   66500    254.92537   -3910.1137   -3473.1804   -3910.1137            0    255.83943    17.860831      21.0377    21.790172    8187.6744    20.284242    327.12101    420.11304   -582.64204   -653.32533    377.89082 
   67000     236.7192   -3941.7166    -3535.988   -3941.7166            0    975.14623    17.792132    20.956781    21.706359    8093.5591    1203.0593    200.83798    1521.5414   -897.83287   -645.37516   -176.83169 
   67500     250.1372    -3941.515   -3512.7883    -3941.515            0   -669.94916    17.884499    21.065577    21.819047     8220.267     352.6766   -1832.9639    -529.5602    639.68912    737.54532    1076.9742 
   68000    244.74104   -3919.7406   -3500.2628   -3919.7406            0    780.62065    17.883848     21.06481    21.818252     8219.369    661.12026    528.77575    1151.9659   -351.83325    436.58975   -39.169947 
   68500    248.74325   -3925.1229   -3498.7855   -3925.1229            0    2583.6236     17.66756    20.810051    21.554381    7924.7447    3583.1041     1645.838    2521.9288   -394.82836     -402.623   -847.37507 
   69000     236.3851   -3946.0974   -3540.9414   -3946.0974            0     1509.018    17.751011    20.908346    21.656192    8037.5714    1617.2019   -514.81699    3424.6689    570.16312    442.80975   -1328.5164 
   69500     241.9156   -3917.9687   -3503.3336   -3917.9687            0    824.75923    17.868049    21.046202    21.798978    8197.6053   -12.902664    1410.6881    1076.4923     597.5143   -213.95351   -592.95216 
   70000     251.7361   -3924.9893   -3493.5222   -3924.9893            0    1848.3626    17.848824    21.023557    21.775524    8171.1735    2492.0709   -33.948307    3086.9652   -677.13181   -386.34057    335.89433 
   70500    248.75212   -3913.2672   -3486.9146   -3913.2672            0    1462.2181    17.915285    21.101839    21.856606    8262.7906    2051.1906    376.85375      1958.61    622.82345    194.71292   -314.42419 
   71000    251.53628   -3926.0799   -3494.9554   -3926.0799            0      1664.11    17.876972    21.056711    21.809864    8209.8919    2047.7952    266.77581     2677.759    190.01758    1269.6185   -973.22413 
   71500    252.72517   -3933.3069   -3500.1446   -3933.3069            0    1115.9055    17.906082       21.091    21.845379    8250.0643    1256.0327    321.75681    1769.9271    573.90812   -428.52182    172.90756 
   72000    256.59117   -3855.6583   -3415.8698   -3855.6583            0    880.11466    17.957414    21.151462    21.908004    8321.2199    852.51285    1389.6736    398.15757    1044.5199    697.12918   -716.43982 
   72500    243.08719   -3890.7432   -3474.1001   -3890.7432            0    1726.9491     17.91917    21.106415    21.861346    8268.1674    4042.4524    79.376585    1059.0183   -633.22936   -193.16509    148.73395 
   73000    230.77642   -3896.6084   -3501.0655   -3896.6084            0    2811.9696    17.828226    20.999296    21.750395     8142.917    3929.2262    2897.7681    1608.9144    1001.7127    26.998147   -1075.1974 
   73500    251.29875   -3862.0781   -3431.3606   -3862.0781            0    1074.1864    17.941506    21.132724    21.888595    8299.1241    1347.1118    2109.6398   -234.19255    604.35006    393.91928    341.96027 
   74000    259.45591   -3915.4747   -3470.7762   -3915.4747            0    1923.7953    17.857864    21.034205    21.786553    8183.5955    579.94451    2533.9618    2657.4795    476.80871    110.14088   -1090.6997 
   74500    251.46916   -3899.5206   -3468.5111   -3899.5206            0    1565.1793    17.887396    21.068989    21.822581     8224.262    3261.2569    249.81258    1184.4685    1351.9114    487.31269    917.39999 
   75000    238.66584   -3885.1288   -3476.0637   -3885.1288            0   -279.48504    17.970859    21.167299    21.924406    8339.9247    -1287.102   -753.67421    1202.3211   -809.98478   -927.67312   -253.34431 
   75500    247.39127    -3920.764   -3496.7438    -3920.764            0    1652.3679    17.879191    21.059326    21.812572    8212.9504    1888.8325    2100.3255    967.94556    1103.7879    499.00411   -58.908705 
   76000    251.37667   -3923.8051   -3492.9541   -3923.8051            0    996.07481    17.899346    21.083066    21.837161    8240.7568    1839.9937    279.81386    868.41687   -341.66652    -396.6154    432.36022 
   76500      222.822   -3930.5034   -3548.5941   -3930.5034            0    1176.6736    17.977272    21.174852     21.93223    8348.8563    2541.7141    43.079285    945.22746    444.47463   -561.76761   -88.125833 
   77000    248.72351   -3937.5595   -3511.2559   -3937.5595            0     1490.271    17.891316    21.073607    21.827363    8229.6702    2435.2877    1095.4399     940.0853    152.65744    1222.0423   -1076.0044 
   77500    237.77802   -3888.4672   -3480.9238   -3888.4672            0    1983.5003    17.908331    21.093648    21.848121    8253.1719    2432.8122    409.40344    3108.2852   -413.59566     864.3861   -52.168465 
   78000    265.08464   -3912.9571   -3458.6111   -3912.9571            0    1014.6263    17.968895    21.164985     21.92201    8337.1899   -385.44502    2271.5088    1157.8151   -410.68232   -634.62669    1157.4331 
   78500    240.08635   -3940.0132   -3528.5134   -3940.0132            0    841.32191    17.944145    21.135833    21.891815    8302.7873    453.57214     1447.822    622.57165   -332.45305    879.86555   -810.15383 
   79000    251.75896   -3939.3765   -3507.8703   -3939.3765            0    1323.6637    18.025944    21.232181    21.991609     8416.851    649.72502    1317.4714    2003.7948    596.07672   -1107.7139    181.29793 
   79500    249.89471   -3909.1406   -3480.8296   -3909.1406            0    133.21184     18.03851    21.246982     22.00694    8434.4661    -482.1709    1041.3873   -159.58085    544.98895   -169.31245    -57.62678 
   80000    265.59343   -3933.2315   -3478.0134   -3933.2315            0   -818.34131    18.162251    21.392733    22.157904    8609.2366   -1088.8013   -25.017986   -1341.2047    849.91698    353.94724    74.241499 
   80500    248.35148   -3933.0664   -3507.4004   -3933.0664            0   -65.401833    18.088145    21.305446    22.067495    8504.2829   -1142.2187    1334.8226   -388.80942   -988.45293    545.21446    531.34908 
   81000    244.37965   -3906.4452   -3487.5868   -3906.4452            0    496.94594    18.001684    21.203606    21.962013    8382.9139   -445.21258    1692.9209    243.12948   -180.85304    1200.6993    706.10422 
   81500    241.63454   -3935.9544    -3521.801   -3935.9544            0    528.90762    17.992117    21.192338    21.950341     8369.556    645.93086   -316.93785    1257.7298      798.993   -510.86425    944.73065 
   82000    247.65707   -3962.3003   -3537.8246   -3962.3003            0    1794.6779    17.969718    21.165954    21.923013    8338.3351    2905.0312    1026.2803    1452.7221     693.2661    164.99629   -136.46502 
   82500    266.14028   -3920.7818   -3464.6265   -3920.7818            0    368.52302    17.981706    21.180075     21.93764    8355.0351   -221.63068    1057.6005    269.59924   -295.08753    395.39997    160.32913 
   83000    238.72103   -3927.5723   -3518.4126   -3927.5723            0     1078.534    17.903609    21.088087    21.842362    8246.6464    216.10374    625.45918    2394.0392    146.54814   -20.472828   -743.11987 
   83500    260.71562   -3938.0989   -3491.2413   -3938.0989            0    1096.0311    17.992234    21.192475    21.950483    8369.7185    1603.5741    1478.4621    206.05712    323.94636     737.4131   -51.688614 
   84000    266.58171   -3929.8424   -3472.9305   -3929.8424            0    1838.0646    17.911849    21.097792    21.852414     8258.037    2401.3053    3033.6812     79.20732    135.53601     1057.993    276.28915 
   84500    238.43041   -3920.4288   -3511.7672   -3920.4288            0     295.8454    17.986809    21.186085    21.943865    8362.1499   -312.49167    925.66867     274.3592    1049.0965   -102.70544    -1017.009 
   85000    243.53459   -3898.8768   -3481.4668   -3898.8768            0    1829.4588    17.847153    21.021589    21.773485    8168.8787    2602.8828    925.65273    1959.8408    175.13158   -463.98952   -966.20718 
   85500    258.31834   -3880.0525   -3437.3037   -3880.0525            0    1168.3406    17.993899    21.194437    21.952515    8372.0429    1098.2206    1980.6996    426.10171    179.82609   -436.90151    187.18995 
   86000    247.79118   -3913.2327   -3488.5272   -3913.2327            0    442.56737    18.013428    21.217439     21.97634    8399.3314    8.6192118    1196.3584    122.72448   -78.341235   -618.53648   -1113.2591 
   86500    240.38635   -3942.3087   -3530.2947   -3942.3087            0     811.5133    17.999471    21.200999    21.959312    8379.8219   -556.43478    1410.6407    1580.3339    84.675263   -194.96197   -735.92713 
   87000    254.44439   -3964.3324   -3528.2234   -3964.3324            0    259.87652    17.971401    21.167937    21.925068    8340.6793   -833.81016    987.82313    625.61661   -538.20238   -758.75742   -240.67975 
   87500    242.16481   -3934.5804   -3519.5182   -3934.5804            0    1455.1724    17.947369     21.13963    21.895748    8307.2628    674.13563    560.44858    3130.9331    912.26992    470.07854    325.46608 
   88000    255.89185   -3913.2797   -3474.6898   -3913.2797            0    260.91643    17.993496    21.193962    21.952023    8371.4804   -356.90411   -323.59901    1463.2524   -342.79621    870.50058   -341.23557 
   88500    236.76211   -3900.1955   -3494.3934   -3900.1955            0    156.26881    18.009981    21.213378    21.972134    8394.5095    707.27395   -544.29854    305.83101    30.183824    57.632718    256.93017 
   89000    235.85334   -3950.4651   -3546.2205   -3950.4651            0    1585.5683    18.009289    21.212563     21.97129    8393.5418    1510.6133    2154.8233    1091.2683   -886.98113    157.59283    298.78178 
   89500    242.19972    -3954.892     -3539.77    -3954.892            0   -1485.9427    18.041916    21.250994    22.011096    8439.2447   -1322.3446   -1831.2721   -1304.2115   -716.57767   -431.97981   -210.61402 
   90000    259.51624   -3959.6041   -3514.8021   -3959.6041            0    1035.7543    18.016439    21.220985    21.980013    8403.5432   -859.24117    1006.7962    2959.7079    533.64127    101.08194   -2.6880616 
   90500    249.34932   -3929.7309   -3502.3547   -3929.7309            0    934.35149    17.962791    21.157795    21.914563    8328.6968    468.73981    1500.8149    833.49977    440.56808   -1231.1024   -240.80249 
   91000     240.2839   -3940.7929   -3528.9545   -3940.7929            0     777.0366    17.987421    21.186806    21.944611    8363.0034    319.95417    1260.5838    750.57188    272.42949    173.61484    11.398958 
   91500    242.32393   -3980.3738   -3565.0389   -3980.3738            0    1322.9781    17.932655    21.122298    21.877797    8286.8473     555.6778    1025.1647    2388.0918    34.790544    273.17133    514.04526 
   92000    267.13823   -3950.1767   -3492.3109   -3950.1767            0     539.7569    17.991012    21.191035    21.948992    8368.0128    562.95261    473.58287    582.73522    1130.6417   -569.44282   -388.86402 
   92500    239.69371   -3953.4077   -3542.5809   -3953.4077            0      1377.46    17.962341    21.157265    21.914014    8328.0706    1337.3257    1490.5788    1304.4755    348.70696    568.77922   -472.22638 
   93000    243.23411   -3950.1976   -3533.3026   -3950.1976            0    1824.2576    17.938938    21.129699    21.885462     8295.561    2864.6446    862.61379    1745.5143    885.45388    964.79704   -684.19023 
   93500    250.99835   -3972.2028   -3542.0003   -3972.2028            0     1364.874    17.960273    21.154829    21.911491    8325.1943     268.1017    1720.2604    2106.2598    54.329437   -1240.1712   -235.68232 
   94000    236.75343   -3944.9896   -3539.2023   -3944.9896            0     236.8947    17.978767    21.176613    21.934054    8350.9391    998.45624   -659.28864     371.5165    952.00952     659.7573     533.3787 
   94500    250.12664   -3955.7682   -3527.0597   -3955.7682            0    976.42651    17.945571    21.137513    21.893555    8304.7671    1242.6479    1101.9647    584.66691   -616.60814    436.04204    134.23878 
   95000    255.06429   -3973.6951   -3536.5237   -3973.6951            0    1967.0657    17.834538     21.00673    21.758094     8151.568    3403.2399     443.9124    2054.0448    318.86993    2371.9447   -967.59757 
   95500    241.57384   -3939.5317   -3525.4824   -3939.5317            0    1813.9914    17.916509     21.10328    21.858099    8264.4838    1134.6688    2364.1678    1943.1377    -118.6509    470.50762   -501.75153 
   96000    253.32318   -3922.6656   -3488.4783   -3922.6656            0    797.03783    17.892876    21.075444    21.829266    8231.8229   -460.18023    2868.6995    -17.40574     653.5599    222.69312   -1031.3217 
   96500    264.92314   -3932.5157   -3478.4465   -3932.5157            0    861.40982    17.942754    21.134194    21.890117    8300.8557    37.813391    474.27439    2072.1417   -859.34774   -571.58127    -264.4391 
   97000    251.99801   -3950.4117   -3518.4958   -3950.4117            0      665.939    17.944444    21.136185     21.89218     8303.202    66.994436    818.34628    1112.4763    324.85841    1392.3085   -68.140559 
   97500    261.14263   -3964.2846   -3516.6951   -3964.2846            0    1669.0322    17.924644    21.112863    21.868024    8275.7474     2616.902     1726.925    663.26969    1638.4218    -442.7381      -376.28 
   98000    232.49733   -3955.9212   -3557.4287   -3955.9212            0    375.43718    17.953685    21.147069    21.903454    8316.0366   -354.37312    1901.4679   -420.78327    633.15074   -1104.4006   -115.43584 
   98500    244.18323   -3904.0851   -3485.5635   -3904.0851            0    2580.7407    17.833547    21.005563    21.756886    8150.2103     3553.387    2511.2663    1677.5687    276.11759    170.85293    380.93543 
   99000    240.44824   -3910.9889   -3498.8688   -3910.9889            0   -862.72457    17.922082    21.109845    21.864898    8272.1989   -1548.1371   -1458.6544    418.61774   -415.49738   -670.40061    982.85479 
   99500     262.9563   -3914.3798   -3463.6817   -3914.3798            0    1581.0289    17.910689    21.096425    21.850998    8256.4327    980.01424    1884.3502    1878.7222    241.26638   -405.46901    439.32485 
  100000    237.10719    -3937.149   -3530.7554    -3937.149            0    1264.0584    17.897104    21.080424    21.834425    8237.6596    375.04244    2380.7471    1036.3855   -180.33505    279.04514    66.708558 
  100500     244.4509   -3929.6752   -3510.6947   -3929.6752            0    2102.0955    17.902025     21.08622    21.840428    8244.4566     3017.427    2478.2511    810.60829    1250.9321    737.11441    883.99779 
  101000    251.12617   -3976.0075   -3545.5858   -3976.0075            0    527.82349    17.817301    20.986427    21.737065    8127.9558    641.72298    20.320176    921.42731    1630.2287   -582.02927    455.10611 
  101500    254.44049   -3923.7548   -3487.6525   -3923.7548            0   -336.16266     17.99979    21.201375    21.959702    8380.2684   -363.87007   -1604.8598    960.24189    11.969837   -203.35053    937.06032 
  102000    275.10624   -3963.4793   -3491.9566   -3963.4793            0    208.91855    18.004427    21.206837    21.965359    8386.7463   -95.872517    1399.3304   -676.70219   -72.049962   -429.07688    295.91978 
  102500     253.9838   -3957.6656   -3522.3461   -3957.6656            0    867.27083    17.946531    21.138644    21.894727    8306.1002   -457.15946    2565.7028    493.26917    1107.1699    248.73378    1093.2392 
  103000    256.62494   -3928.4045   -3488.5582   -3928.4045            0    1317.3994    17.989515    21.189272    21.947166    8365.9248   -131.44975    1320.7381      2762.91    1383.2275    596.96733   -1562.9663 
  103500    249.21409   -3932.8931   -3505.7487   -3932.8931            0    823.85732    18.044565    21.254114    22.014327    8442.9616   -82.701576    1528.4106    1025.8629   -639.12746    808.10056    501.96627 
  104000    254.06995    -3928.395   -3492.9278    -3928.395            0    2371.5456    17.980428    21.178569     21.93608    8353.2529    1630.1557    3405.3958    2079.0852   -189.67504    948.59863   -377.69852 
  104500    248.06062   -3913.8215   -3488.6541   -3913.8215            0    781.57462     18.06814    21.281882    22.043089    8476.0973    1276.1871   -563.27069    1631.8075    208.52763    1129.7362    1369.1621 
  105000    271.58618   -3938.1023   -3472.6129   -3938.1023            0    536.92833     18.11887    21.341636     22.10498    8547.6935    1514.2216    415.41692   -318.85351    969.09302    89.437656    2330.0325 
  105500    260.08395   -3913.9762   -3468.2012   -3913.9762            0    947.92641    17.992216    21.192454    21.950461    8369.6935    674.57734   -23.205874    2192.4078   -534.47287    1659.1789    294.67322 
  106000    238.87754   -3935.2038   -3525.7759   -3935.2038            0    1415.9658    17.959124    21.153476    21.910089    8323.5968    1305.0617    1161.7684    1781.0673   -362.58033   -500.91045   -368.76229 
  106500    252.73428   -3946.2293   -3513.0514   -3946.2293            0    2213.9183    17.964474    21.159778    21.916617    8331.0381    1873.8679    2485.9266    2281.9603    80.954465    615.12255   -331.03837 
  107000    245.94269   -3932.5949   -3511.0576   -3932.5949            0    2311.6003    18.038985    21.247541    22.007519    8435.1313    1383.2921    2624.2282    2927.2806   -804.75925    1046.2271    1894.4826 
  107500    255.09187   -3920.6082   -3483.3894   -3920.6082            0   -125.82779    18.101223     21.32085     22.08345    8522.7424   -1063.3439    737.19413   -51.333632    130.06029    1206.0636   -49.056844 
  108000    244.07297   -3892.7877    -3474.455   -3892.7877            0     689.0629     18.08189    21.298078    22.059863    8495.4629      1962.23    132.99852   -28.039848    647.37926    366.25058     792.0087 
  108500     263.0629   -3907.4566   -3456.5758   -3907.4566            0    848.23167    18.005728    21.208369    21.966946    8388.5646    952.56289    630.45076    961.68136    1139.4497    844.62262   -754.23739 
  109000     246.7077   -3915.6367   -3492.7881   -3915.6367            0    953.93816    17.948245    21.140662    21.896817    8308.4797   -985.00859    2093.4227    1753.4004   -128.40869   -794.90965   -289.76346 
  109500    246.44931   -3907.6431   -3485.2374   -3907.6431            0    2133.9284    17.925698    21.114104     21.86931    8277.2069    3026.0659    2171.9107    1203.8084    402.42293    849.21487   -110.24997 
  110000    247.50267   -3926.0699   -3501.8588   -3926.0699            0    649.46407     17.98751    21.186911     21.94472    8363.1277    538.42677    1870.7632   -460.79769   -1014.7486    1176.8101    648.07482 
  110500    252.49109   -3922.3355   -3489.5744   -3922.3355            0    199.46782    17.930932     21.12027    21.875696    8284.4601   -350.95427   -410.48773    1359.8455     723.5595    495.80056    66.690355 
  111000    250.83398   -3910.2716   -3480.3508   -3910.2716            0    1185.7842     17.92196    21.109701    21.864749    8272.0298    493.88963    2150.3276    913.13545   -240.30861    686.90002     1086.888 
  111500    256.06282   -3902.4119    -3463.529   -3902.4119            0    2136.4664    17.957133    21.151131    21.907661    8320.8294    589.78039    2863.8804    2955.7385   -775.92855    551.41206    379.56341 
  112000     253.4638   -3911.4139   -3476.9856   -3911.4139            0    2460.0391     17.86126    21.038205    21.790695     8188.264    3642.1578    1070.8356    2667.1238    811.23803   -157.73554    627.50458 
  112500    243.07214   -3911.6402   -3495.0228   -3911.6402            0    248.08502    17.956645    21.150556    21.907065    8320.1504    153.23811      1818.48   -1227.4631    1244.9516   -384.12704    1008.5307 
  113000    251.84556   -3940.9354   -3509.2808   -3940.9354            0    2072.4815     17.92979    21.118925    21.874302    8282.8774    1435.1205    2476.0585    2306.2655    655.57323    423.39492    401.58927 
  113500    249.83777   -3939.5103   -3511.2969   -3939.5103            0    70.387722    18.079799    21.295615    22.057312    8492.5159    1148.0635   -900.76099   -36.139347    519.35595    584.08501   -188.40987 
  114000    263.40803   -3916.2989   -3464.8265   -3916.2989            0   -80.722312     18.10056    21.320069    22.082641    8521.8061   -1650.0179    804.58419    603.26676    371.92543    966.59149    1270.7699 
  114500    251.98866   -3955.2081   -3523.3081   -3955.2081            0    2239.2174    18.001621    21.203531    21.961935     8382.825   -623.83609    3908.6072    3432.8812   -686.04839    326.56098    109.36168 
  115000     251.5581   -3932.3392   -3501.1772   -3932.3392            0    368.76195    18.078138    21.293659    22.055286    8490.1762    847.19145   -494.77952    753.87392    397.82707     555.4174    807.81199 
  115500    246.51316   -3940.4269   -3517.9117   -3940.4269            0    2276.9949    17.969318    21.165483    21.922526    8337.7792    117.77678    2962.2113    3750.9967     287.6789    1211.5162   -254.81168 
  116000    232.36084   -3915.7224   -3517.4639   -3915.7224            0    890.53308    18.052828    21.263846    22.024408    8454.5657    1362.0147    429.32587    880.25867    830.11319   -178.50985    757.76669 
  116500    264.05911     -3945.47   -3492.8817     -3945.47            0    2116.7971     18.00147    21.203354    21.961751    8382.6143    1476.7301    2142.9646    2730.6967    122.30413    630.14243    255.20867 
  117000    248.80985   -3987.4783   -3561.0267   -3987.4783            0    1058.7246    17.975578    21.172857    21.930164    8346.4965   -130.04892     2144.147    1162.0756    1225.9194    1403.8764   -273.33697 
  117500    232.93862   -3943.5634   -3544.3146   -3943.5634            0     337.8453    18.057346    21.269169     22.02992    8460.9157    626.24631   -1348.8206    1736.1102   -1190.2352    181.95447    1106.7448 
  118000    242.38923   -3958.4492   -3543.0024   -3958.4492            0    121.96489    18.065536    21.278815    22.039912    8472.4329   -1078.7662   -181.55949    1626.2204   -573.20854   -78.580169   -1074.3453 
  118500     254.9707   -3946.7893   -3509.7782   -3946.7893            0    1345.9805    17.978893    21.176761    21.934207    8351.1138    1180.8181    498.61272    2358.5105   -695.12203    623.37559     645.0067 
  119000    242.83086   -3925.9485   -3509.7447   -3925.9485            0    2021.6419    18.081178     21.29724    22.058995    8494.4602    2530.4371     1788.792    1745.6967   -636.04558    1158.8668   -316.92329 
  119500    243.41908   -3937.4352   -3520.2233   -3937.4352            0    1128.2855    18.059125    21.271264    22.032091    8463.4169    699.55384    225.59898    2459.7037    77.241379   -288.32674    605.52583 
  120000    241.94779   -3933.8605   -3519.1703   -3933.8605            0    571.87409    18.066966    21.280499    22.041656    8474.4445    1014.4146   -486.39125     1187.599   -125.43574     2.327906    281.06418 
  120500     250.7236   -3905.4871   -3475.7554   -3905.4871            0    1171.2121    18.104801    21.325064    22.087815    8527.7971    1254.2052    1474.0622    785.36876    349.41527    1115.7761    1041.8192 
  121000    251.17886   -3946.7674   -3516.2554   -3946.7674            0    2875.4425    18.004774    21.207245    21.965782    8387.2305    2893.9815    3029.7685    2702.5776   -340.42949   -292.95082    935.83594 
  121500     240.7589   -3944.5468   -3531.8943   -3944.5468            0    1154.5961    18.078593    21.294195    22.055842    8490.8173   -778.16336     2790.579    1451.3726   -60.313342    -1584.255   -260.99171 
  122000    259.52278   -3929.3674   -3484.5542   -3929.3674            0   -764.70754    18.168133     21.39966    22.165079    8617.6026   -970.19238   -130.46786   -1193.4624   -1088.8585   -729.27589   -230.93932 
  122500    245.63657   -3889.2882   -3468.2755   -3889.2882            0    1773.1365    18.057527    21.269381     22.03014    8461.1693    3150.3918    728.22558    1440.7921    111.10621   -1037.7136   -795.75882 
  123000     243.0128   -3959.5682   -3543.0525   -3959.5682            0    2248.9772    18.076925    21.292229    22.053806    8488.4663    2198.0694    3343.7094    1205.1528    1442.7331    672.99903   -41.917916 
  123500    255.54985   -3954.2906   -3516.2869   -3954.2906            0    1123.3254    18.088417    21.305766    22.067827    8504.6665    299.08702    1196.0717    1874.8176   -83.859805    -190.5184   -9.5155687 
  124000    254.13903   -3929.8646    -3494.279   -3929.8646            0    508.87291     18.06342    21.276323    22.037331    8469.4566   -254.31279    517.62555     1263.306    386.20443     375.4907    1240.7849 
  124500    245.90323   -3929.8764   -3508.4067   -3929.8764            0   -46.826481       18.028    21.234603    21.994118    8419.7313   -958.83966     -373.464    1191.8242    263.89588   -734.98274   -783.70489 
  125000    263.66117   -3917.6994   -3465.7932   -3917.6994            0    1680.3564    17.947582     21.13988    21.896008    8307.5583    1256.7059    1492.5049    2291.8586    771.62019   -29.515711    1040.2099 
  125500    254.37421    -3956.048   -3520.0593    -3956.048            0   -503.58144    18.055897    21.267461    22.028152     8458.878   -615.28201    158.29353   -1053.7558    658.40862    -2.596442    435.90516 
  126000    242.79979   -3926.4799   -3510.3293   -3926.4799            0   -110.52958    18.109656    21.330783    22.093739    8534.6601   -327.90197    67.793734   -71.480504   -923.70945    1529.2458    114.48768 
  126500    233.62361   -3968.4449   -3568.0221   -3968.4449            0   -643.51222    18.052856     21.26388    22.024443     8454.606   -311.23847   -148.39783   -1470.9003    366.72552    908.30058    920.33239 
  127000    265.51039   -3952.6267   -3497.5509   -3952.6267            0    1396.9963    17.965199    21.160631      21.9175    8332.0458    1505.9825    1963.4995    721.50698    -1250.757   -513.75006   -1112.5144 
  127500    252.13418   -3930.3131   -3498.1637   -3930.3131            0    965.54308    17.976426    21.173855    21.931198    8347.6772     430.3438    612.54616    1853.7393     421.6116   -344.99159   -809.91456 
  128000    260.81491   -3951.4437   -3504.4159   -3951.4437            0    2004.6691    17.976753     21.17424    21.931596    8348.1325    1478.9283    2346.6962    2188.3829   -759.39727   -377.62904   -618.58175 
  128500    247.55263   -3964.6825   -3540.3858   -3964.6825            0   -10.528434    18.048691    21.258975    22.019361    8448.7557    621.50059    174.11809   -827.20398   -212.69748     1151.644   -2073.3148 
  129000    264.49641   -3940.7059   -3487.3681   -3940.7059            0    1176.9031     18.01724    21.221928     21.98099     8404.664    346.92964    546.84939    2636.9302   -317.82105     1469.664   -270.57726 
  129500    247.64518   -3939.4439   -3514.9886   -3939.4439            0     1441.578     18.03782    21.246169    22.006098    8433.4971    762.80173    952.39202    2609.5401    21.891214   -12.461999    19.666369 
  130000    244.83675   -3965.8035   -3546.1617   -3965.8035            0    568.95652    18.145642    21.373169    22.137641    8585.6387    532.31535    1140.8002    33.753994   -539.57023    1177.4293    792.79356 
  130500    253.11807   -3921.2448   -3487.4091   -3921.2448            0    2167.6348    18.133252    21.358576    22.122525    8568.0638     2548.025    2064.9168    1889.9627   -386.96789    1724.5392    397.59664 
  131000    249.16709   -3970.9388   -3543.8749   -3970.9388            0    1305.0304    18.090266    21.307944    22.070082    8507.2744    772.06784    2693.8614    449.16182   -535.30344    230.05536   -166.01098 
  131500    248.44008   -3926.7471   -3500.9293   -3926.7471            0    1868.6617    17.926489    21.115036    21.870274    8278.3024    395.13837    2336.0366    2874.8101    414.78649    883.93114    765.16458 
  132000    258.14784   -3916.1535   -3473.6969   -3916.1535            0    1312.4156    18.086752    21.303805    22.065796    8502.3184    1356.7386    1724.6538    855.85454   -1626.5719    1552.7622   -214.06439 
  132500    254.85514   -3938.1267   -3501.3137   -3938.1267            0    870.21613    18.000868    21.202644    21.961016    8381.7732    944.68795    1855.5429   -189.58249    -677.0062    1272.7746   -1345.1675 
  133000    259.27205     -3949.97   -3505.5866     -3949.97            0    1051.1706    17.930019    21.119194    21.874582    8283.1946    435.67491    1655.0948    1062.7422   -573.22732    794.77122     291.4117 
  133500    235.07894   -3879.6783    -3476.761   -3879.6783            0    1058.4283    18.034472    21.242225    22.002013    8428.8022    700.40586    70.407263    2404.4719    910.02642   -72.775091   -191.70974 
  134000    252.38391   -3971.0599   -3538.4825   -3971.0599            0   -389.34514    18.023089    21.228818    21.988126    8412.8524   -1465.0237   -455.69184    752.68015    -395.3498    1061.9182   -615.52255 
  134500    261.00374   -3949.9871   -3502.6357   -3949.9871            0    559.71293      17.9974     21.19856    21.956786    8376.9305    503.08724    343.05553    832.99603   -311.25022   -1601.1109    62.076447 
  135000    237.55466   -3949.3227   -3542.1621   -3949.3227            0   -609.70002    18.015435    21.219802    21.978788    8402.1383   -1318.4877   -37.509969   -473.10242   -616.29642   -38.930989   -744.86583 
  135500    256.79919   -3945.4049   -3505.2599   -3945.4049            0    791.40936    17.933252    21.123002    21.878526    8287.6757     106.6474      589.123    1678.4577   -171.06275    100.34968   -310.82033 
  136000    255.00144   -3937.3077   -3500.2439   -3937.3077            0    445.15823     18.02746    21.233966    21.993459    8418.9746    1552.5435   -973.38939    756.32054     794.7463   -416.68932   -1206.9248 
  136500    259.11273    -3926.006   -3481.8956    -3926.006            0    3909.2861    17.894592    21.077465     21.83136    8234.1918    4369.3786    4855.3275    2503.1523    52.538228    167.67235   -410.57763 
  137000    250.16089   -3950.2345   -3521.4673   -3950.2345            0    985.06121    17.980995    21.179238    21.936772    8354.0445    3012.9484    259.66453   -317.42934   -276.85135    430.02946   -422.77193 
  137500    259.71806   -3892.0894   -3446.9415   -3892.0894            0    9.6411745    18.007961    21.210999     21.96967    8391.6851    311.91485    387.58265   -670.57398   -1397.8563    120.77441   -308.97212 
  138000    252.76408   -3920.2225   -3486.9935   -3920.2225            0     2028.285    17.884528    21.065612    21.819082    8220.3069    2586.1856    2402.5784    1096.0909   -42.893445    211.24506   -109.75845 
  138500    248.84563   -3907.3573   -3480.8444   -3907.3573            0    1059.7507    17.926641    21.115216     21.87046    8278.5137    526.57014    756.10937    1896.5726   -17.873223    915.03328   -454.08124 
  139000     238.7721   -3959.6704   -3550.4232   -3959.6704            0   -881.23694    18.009582    21.212909    21.971649    8393.9528   -554.15169   -1430.8973   -658.66187   -967.22754     1287.828    783.35847 
  139500     244.3346    -3885.796   -3467.0148    -3885.796            0    2736.1468    17.993818    21.194341    21.952416    8371.9297    1980.8602    4115.6389    2111.9414   -1880.1026    381.88806    708.36554 
  140000    246.21888   -3898.9445   -3476.9338   -3898.9445            0    2834.4294    17.953894    21.147315    21.903709    8316.3268    3665.3461    3177.3207    1660.6215   -658.43409   -9.4431627    158.08927 
  140500     250.3531   -3895.6649   -3466.5683   -3895.6649            0    376.56155    18.104891     21.32517    22.087925    8527.9241    172.01049    1725.0487   -767.37454   -1234.9766    536.18872    53.789118 
  141000     247.3208   -3928.2069   -3504.3075   -3928.2069            0    300.59958    17.951905    21.144972    21.901282     8313.563   -610.86076    127.50439    1385.1551     374.0006   -300.93361    414.83854 
  141500    256.35283   -3928.4691   -3489.0891   -3928.4691            0    1356.9747    17.944296    21.136011       21.892     8302.997    2306.5922    506.95151    1257.3803    937.48941    90.135151   -106.59958 
  142000    235.36239   -3885.6997   -3482.2966   -3885.6997            0     1709.444    17.906035    21.090944    21.845321    8249.9986    1506.9011    2230.2121    1391.2189    980.30345    323.45153    298.46468 
  142500    268.06186   -3908.9695   -3449.5206   -3908.9695            0     877.3371    17.912016    21.097989    21.852618    8258.2686    525.54225    857.58857    1248.8805    361.45139   -740.69593    -634.2302 
  143000    239.87164   -3914.1644   -3503.0326   -3914.1644            0   -241.80093    17.964675    21.160014    21.916861    8331.3169   -993.74494    175.92062    92.421547    668.75224    898.05439    527.98327 
  143500    251.43464   -3917.7449   -3486.7945   -3917.7449            0    1481.6224     17.92891    21.117888    21.873228     8281.657    1093.0818    2482.7873    868.99808    156.68386     1042.784    488.82308 
  144000    238.13082   -3903.4847   -3495.3366   -3903.4847            0    988.11638    18.033437    21.241007    22.000751    8427.3519    769.25907    2139.4875    55.602599    72.126723    1015.6696   -49.121336 
  144500    255.61465   -3917.0966   -3478.9818   -3917.0966            0    568.71169    17.945861    21.137853    21.893908    8305.1689    722.77967    476.33386    507.02155    28.050616    607.01686    715.70733 
  145000    250.50462   -3869.0129   -3439.6565   -3869.0129            0   -104.19243     18.02765    21.234191    21.993691    8419.2412   -339.55677     429.9428   -402.96333    555.88467    710.11241    -893.2594 
  145500     263.7767   -3897.2524   -3445.1482   -3897.2524            0    1089.5851    17.980505     21.17866    21.936175    8353.3615   -92.567189    1601.5938    1759.7285    110.24365    423.68316   -825.20576 
  146000    247.71049    -3907.362   -3482.7947    -3907.362            0    763.36199    17.886782    21.068266    21.821832    8223.4151    1088.9316    727.75092    473.40348    83.126208   -170.81453   -262.35578 
  146500    243.96652   -3896.5291   -3478.3788   -3896.5291            0    432.53972    17.987028    21.186344    21.944133     8362.456   -139.48784    1079.4961    357.61088   -157.14273    647.83544    999.41429 
  147000    238.41343    -3912.062   -3503.4295    -3912.062            0    2540.8771    17.767911    20.928252     21.67681    8060.5502    1141.1885    3351.5511    3129.8918    798.47503     676.6006    881.09668 
  147500    248.55737   -3911.7298    -3485.711   -3911.7298            0    1126.9797    17.827141    20.998018    21.749071    8141.4305   -933.91941    2017.3704    2297.4881    101.67257    1084.8302    964.15887 
  148000    243.12848   -3927.5505   -3510.8366   -3927.5505            0    2180.8589     17.77849    20.940713    21.689716    8074.9568    2673.9926    2493.4323    1375.1517   -5.0667222    1456.1081   -463.57877 
  148500    248.71188   -3901.7857    -3475.502   -3901.7857            0    1792.0584    17.799791    20.965803    21.715704    8104.0168    1109.4101     1536.617    2730.1481   -227.13795   -443.63342   -747.47445 
  149000    256.89757   -3863.3032   -3422.9896   -3863.3032            0    1747.7563    17.860021    21.036746    21.789184    8186.5607    2244.2018    1549.6954    1449.3717    979.34882    -28.70996   -174.83091 
  149500    253.71263   -3876.0255   -3441.1707   -3876.0255            0    2622.1006    17.787993    20.951907     21.70131    8087.9129     2471.866    3556.9347    1837.5013   -509.00438   -488.96933    1024.0707 
  150000    246.34071   -3911.2364   -3489.0169   -3911.2364            0   -119.26904     17.87783    21.057722    21.810911    8211.0745   -389.40719    227.35469   -195.75461     93.54536    12.505261    155.80581 
  150500    246.96032   -3917.0265    -3493.745   -3917.0265            0      1112.99    17.870572    21.049174    21.802057    8201.0788    466.48217    1344.9978    1527.4899    1151.3946    316.23722    176.75101 
  151000    253.26494   -3886.1956   -3452.1082   -3886.1956            0     1516.832     17.83939    21.012445    21.764014    8158.2229    823.45462      2269.16    1457.8813    238.46627   -879.89957   -155.66005 
  151500    257.28856   -3918.7984   -3477.8146   -3918.7984            0     971.6038    17.890324    21.072439    21.826154    8228.3023     257.2282    528.46888    2129.1143    1186.3664    674.75955     73.53009 
  152000    236.46514   -3896.4998   -3491.2066   -3896.4998            0    1113.9435    17.825451    20.996027    21.747009    8139.1152     1093.013     1740.682     508.1354    1630.9029    212.36777    1453.5922 
  152500    247.40984   -3924.2166   -3500.1646   -3924.2166            0   -387.94698    17.893046    21.075644    21.829474    8232.0578   -240.57057   -1159.5358    236.26541    71.562599    1138.0069    528.83699 
  153000    254.01531    -3901.979   -3466.6055    -3901.979            0    1177.6083        17.83    21.001385    21.752558    8145.3472    1211.6761    1560.1283    761.02065   -1453.1887    583.86473    -331.7986 
  153500    254.46923   -3890.5227   -3454.3712   -3890.5227            0    746.86999    17.835085    21.007374    21.758762    8152.3187    549.04259    661.76994    1029.7974   -737.58336    328.92372   -774.37215 
  154000    244.73776   -3914.8773   -3495.4051   -3914.8773            0    1387.9681    17.834768    21.007001    21.758375    8151.8839    1098.1996    2077.6731    988.03156   -1240.2971   -229.16775   -301.52002 
  154500     242.8166   -3926.8356   -3510.6563   -3926.8356            0    1158.6766    17.784756    20.948094    21.697361    8083.4984    1460.1277    241.48164    1774.4205    74.707826    207.35001   -388.11624 
  155000    266.33056   -3958.1097   -3501.6283   -3958.1097            0    357.72736    17.870534    21.049128     21.80201    8201.0257   -1552.3259     1736.238    889.26996   -224.20863    560.69797   -434.50499 
  155500    247.14082   -3940.3585   -3516.7676   -3940.3585            0   -98.121925    17.969276    21.165433    21.922474    8337.7198   -878.28555   -373.37552     957.2953    511.53242    685.09932    692.36869 
  156000    236.26124   -3960.1891   -3555.2454   -3960.1891            0    2059.9036    17.884712    21.065829    21.819307    8220.5613    1874.3385    1781.2891    2524.0832    353.16993    113.37935   -302.38513 
  156500    247.78748   -3950.4068   -3525.7075   -3950.4068            0    1372.6614    17.912052    21.098031    21.852661    8258.3177    696.79421    1764.2561    1656.9339   -267.62328   -133.10263   -900.19984 
  157000     248.2932    -3939.463   -3513.8969    -3939.463            0    214.17295    17.883329    21.064199     21.81762    8218.6537    399.47402    168.57435    74.470469    -133.9354    337.75487   -954.30198 
  157500     245.6513   -3931.9926   -3510.9547   -3931.9926            0    1119.0788    17.998713    21.200106    21.958388    8378.7637    1755.0026    565.81089    1036.4229    533.14044    573.76988    346.99191 
  158000    245.25353   -3933.6777   -3513.3215   -3933.6777            0    819.02515    17.904141    21.088713     21.84301    8247.3805   -62.601496    280.92755    2238.7494    357.19083   -1474.5609   -111.45164 
  158500    253.23976   -3944.6436   -3510.5993   -3944.6436            0    1604.0589    17.934252     21.12418    21.879746    8289.0621    1318.9034    2360.0476    1133.2257   -611.13873   -46.528594   -452.90632 
  159000    244.67756    -3926.238    -3506.869    -3926.238            0    1484.2667    17.917574    21.104535    21.859398    8265.9583    1035.3255     1657.564    1759.9107    1063.4852   -793.29365   -52.964917 
  159500    247.07482   -3912.2725   -3488.7947   -3912.2725            0    499.64648    17.947142    21.139363    21.895471    8306.9478    1008.1546    451.01848    39.766346    530.22159    174.70931    624.75209 
  160000    255.77832   -3902.3835   -3463.9882   -3902.3835            0    1273.5435    17.962633    21.157609     21.91437    8328.4767     719.8029   -301.20741    3402.0349   -66.835019   -26.249525   -685.52096 
  160500    255.91097   -3924.7843   -3486.1617   -3924.7843            0     971.6906    17.930828    21.120147    21.875569    8284.3157    122.31395    789.26667    2003.4912    1440.2188   -313.94973   -672.96961 
  161000    247.12296   -3952.6921   -3529.1318   -3952.6921            0    1239.1249    17.852981    21.028454    21.780595    8176.8839    957.10359    1646.2516    1114.0194    1029.8555   -806.61955    679.41691 
  161500    256.67614   -3936.6576   -3496.7234   -3936.6576            0   -1532.9781    17.950573    21.143404    21.899658    8311.7136   -1686.3446   -1298.0862   -1614.5036    284.87897    462.69741   -197.28892 
  162000    242.66983   -3920.9911   -3505.0634   -3920.9911            0   -619.53782    17.917419    21.104353     21.85921    8265.7442   -851.69794   -2658.1475     1651.232    -1094.693   -976.83387   -379.35436 
  162500    256.49358   -3926.5895   -3486.9683   -3926.5895            0    520.37694    17.859186    21.035762    21.788165    8185.4127   -701.90139    227.60634    2035.4259   -127.76962    245.70506    474.63177 
  163000    255.48834   -3921.6753    -3483.777   -3921.6753            0    1540.7609    17.885695    21.066986    21.820506    8221.9157    2267.5962   -160.88623    2515.5727    114.70071    -812.5862    -995.4764 
  163500    233.49373   -3924.8919   -3524.6917   -3924.8919            0    1447.0847     17.91481     21.10128    21.856026    8262.1332    774.85438     3697.789   -131.38914   -144.94122   -1193.7218   -276.32106 
  164000     253.0518   -3932.1976   -3498.4755   -3932.1976            0    1987.7487    17.914747    21.101205    21.855949    8262.0457     2110.973    1159.0834    2693.1897   -1442.8484    244.58884   -480.68837 
  164500    256.12755   -3899.0299    -3460.036   -3899.0299            0   -88.876818    18.027699    21.234248     21.99375    8419.3091    431.63571     60.91725   -759.18341     365.5006    611.40177    27.855355 
  165000    256.11705   -3920.6144   -3481.6385   -3920.6144            0    1150.3213    17.897045    21.080354    21.834353    8237.5781    378.29472    1503.3276    1569.3415   -475.83697   -121.83267   -798.99989 
  165500    245.12247   -3901.9838   -3481.8523   -3901.9838            0    1807.5485    17.946626    21.138755    21.894842    8306.2318    1489.4207    2593.5059     1339.719    212.12225   -445.57765   -77.816226 
  166000    263.76415   -3910.5511   -3458.4683   -3910.5511            0    1013.4843    17.948553    21.141025    21.897193    8308.9078    468.28251    296.46189    2275.7086    101.55347   -1561.1014   -891.87413 
  166500    245.27246   -3915.9792   -3495.5906   -3915.9792            0    1892.9461    17.957863    21.151991    21.908551    8321.8438    2631.1193    424.14883    2623.5701   -77.453774   -1223.8813   -1121.5896 
  167000    244.22337   -3926.6925    -3508.102   -3926.6925            0    247.14695    17.919066    21.106293    21.861218     8268.023   -487.21089    822.57194     406.0798    140.88891     849.1706    528.05923 
  167500    243.68653   -3908.4996   -3490.8293   -3908.4996            0    1653.2572    17.975257    21.172478    21.929771    8346.0482    1597.0554    1483.9003    1878.8158    -783.9939   -447.71485     471.1466 
  168000    254.67807   -3869.2245    -3432.715   -3869.2245            0    2345.1941     17.87616    21.055756    21.808874    8208.7743    2180.1552    2420.1608    2435.2665    -902.9271   -1768.8738    352.17079 
  168500    257.40626    -3906.368   -3465.1825    -3906.368            0   -22.854654    17.995671    21.196524    21.954677    8374.5166    393.25711   -1390.5204    928.69937   -66.499104    120.32099   -485.33511 
  169000    250.96503   -3889.2819   -3459.1365   -3889.2819            0    2147.9868    17.843337    21.017094    21.768829    8163.6394    3021.1329    2141.7598    1281.0678   -399.59383    487.21509   -34.862955 
  169500    251.15386   -3939.7198   -3509.2507   -3939.7198            0    857.79594    17.902768    21.087096    21.841336    8245.4842    1285.1431    284.63566    1003.6091    -658.4403    122.09885   -430.09725 
  170000    238.01804   -3884.1886   -3476.2338   -3884.1886            0    1933.9454     17.98263    21.181163    21.938767    8356.3235    150.81677     3181.062    2469.9574    762.58955   -721.97726    20.126216 
  170500    245.68411   -3928.5064   -3507.4123   -3928.5064            0    2151.5765     17.96618    21.161786    21.918697    8333.4108    2365.6162    1999.2521    2089.8613    154.37926    421.39402   -255.53457 
  171000    239.23252   -3886.9756   -3476.9393   -3886.9756            0    464.48236    17.962716    21.157706    21.914471    8328.5918    2292.6215    -774.9844   -124.19002    198.73211   -838.67985    294.15946 
  171500    247.33762   -3903.8148   -3479.8866   -3903.8148            0    357.63741    17.880277    21.060604    21.813896    8214.4462     1051.358     700.6432   -679.08902    246.24009   -1205.1344    466.41633 
  172000      242.665   -3910.4403   -3494.5207   -3910.4403            0    2607.9053    17.831638    21.003314    21.754556     8147.592    4052.6137    1088.4715    2682.6306   -777.96994   -1603.4289   -75.307305 
  172500    259.65135   -3898.3725   -3453.3389   -3898.3725            0    1993.1935    17.796309    20.961701    21.711455    8099.2605    2823.4913     2644.373    511.71631    651.73476    63.101812   -620.26979 
  173000     251.6141   -3908.3801   -3477.1221   -3908.3801            0    1976.1118    17.736011    20.890678    21.637892    8017.2128    1388.6212    2878.9138    1660.8003    -1214.088   -827.98735    110.57978 
  173500    252.99043    -3901.075   -3467.4581    -3901.075            0    99.429389    17.950073    21.142816    21.899048    8311.0191    598.26501    1775.5703   -2075.5471   -483.06913   -60.651598    177.39336 
  174000    252.94752   -3925.8864    -3492.343   -3925.8864            0    787.13311    17.871279    21.050007    21.802919    8202.0521   -43.867853     2206.052    199.21515    58.139147   -247.55443    389.59136 
  174500    256.12569    -3892.986   -3453.9953    -3892.986            0    653.22537    17.909751    21.095321    21.849854    8255.1357    1040.9317   -703.20952    1621.9539   -553.54591    24.832493   -525.22814 
  175000    253.38506   -3908.5612   -3474.2679   -3908.5612            0    1372.0777    17.877906    21.057811    21.811003    8211.1789   -317.57924    784.79024     3649.022   -695.11976   -269.86819   -288.71342 
  175500    234.60687   -3936.3712   -3534.2631   -3936.3712            0   -44.399624    17.859217    21.035798    21.788203    8185.4549   -1391.0503    227.13807    1030.7134   -1087.9059   -18.288675    109.88002 
  176000    253.22491    -3939.521   -3505.5022    -3939.521            0    1778.5286     17.92508    21.113376    21.868556    8276.3509    915.46575    1333.7395    3086.3805   -770.87207   -97.247094   -653.37916 
  176500    257.28196   -3919.6825   -3478.7101   -3919.6825            0   -553.83941    17.979944    21.177999     21.93549     8352.579   -1606.4704    217.16404   -272.21192    1337.9263   -711.56298   -35.035827 
  177000    258.97955   -3893.0533   -3449.1712   -3893.0533            0    253.68552    17.947651    21.139962    21.896092    8307.6548   -262.99813    701.70542    322.34928    1029.7614   -497.69939   -342.91566 
  177500    239.26094   -3892.3646   -3482.2795   -3892.3646            0    1798.2583    17.939405     21.13025    21.886032    8296.2095    1439.5016    1954.0247    2001.2486   -38.669899    1011.5976    305.21966 
  178000    250.81981   -3900.2259   -3470.3293   -3900.2259            0   -218.63108     17.95657    21.150468    21.906974    8320.0465   -531.04544    -506.3181     381.4703    69.078399   -958.18437    984.43803 
  178500    234.46624   -3938.4931    -3536.626   -3938.4931            0     1302.749    17.832793    21.004674    21.755965    8149.1753    1251.3034    1550.1784    1106.7652    457.55919    648.01448   -610.13625 
  179000     242.8955   -3908.2915   -3491.9769   -3908.2915            0    75.145154    17.866983    21.044945    21.797677    8196.1374   -782.15786    24.247092    983.34623    920.40897   -376.13758   -1541.1262 
  179500    240.80403   -3915.1711   -3502.4412   -3915.1711            0    1073.4438    17.943673    21.135277    21.891239    8302.1321    487.72759     650.4305    2082.1734    513.75222   -984.22878   -25.165104 
  180000    254.23661   -3942.3652   -3506.6124   -3942.3652            0    563.80669    17.952932    21.146183    21.902535    8314.9906    1618.9419    185.23979   -112.76162   -219.75443    276.44087    1393.8037 
  180500    250.60118   -3924.9809   -3495.4591   -3924.9809            0    1130.9772    17.903638     21.08812    21.842396    8246.6855    1496.3433    910.01057    986.57789     34.77662   -1702.7524   -186.59331 
  181000    244.26946   -3913.5328   -3494.8633   -3913.5328            0    1171.5579    17.931875     21.12138    21.876845    8285.7663    1540.3574    438.30967    1536.0065    582.32308   -691.22703     1271.656 
  181500    259.48658   -3937.6083   -3492.8572   -3937.6083            0    2843.8682    17.836433    21.008962    21.760406    8154.1668    2221.8412    1957.3051    4352.4583   -172.19514   -614.65812    1001.6847 
  182000    250.39423   -3898.4944   -3469.3273   -3898.4944            0    2084.8882     17.90467    21.089337    21.843656    8248.1126   -1.2116312    1502.6555    4753.2208   -47.683557   -611.26547   -409.57729 
  182500    244.74296   -3913.5835   -3494.1024   -3913.5835            0    143.08677    17.994057    21.194622    21.952707    8372.2629    202.46582    323.50109    -96.70661    1076.1495    402.69644    302.28536 
  183000    243.56743    -3934.901   -3517.4348    -3934.901            0    734.90396     17.89602    21.079148    21.833103    8236.1636    433.51668    764.01401    1007.1812    -461.9917   -401.87903    2255.2757 
  183500    248.44962   -3954.1077   -3528.2735   -3954.1077            0    459.55763    18.013569    21.217605    21.976513    8399.5287    -185.2562     478.2872    1085.6419   -605.44711   -1049.0607    1049.3502 
  184000    238.37209   -3909.4841   -3500.9225   -3909.4841            0   -107.84174    17.982608    21.181137    21.938739    8356.2918   -66.719006    971.26826   -1228.0745   -966.72706   -1506.6909    -699.4564 
  184500    259.17325   -3907.8153   -3463.6012   -3907.8153            0    1736.1599    17.910915    21.096691    21.851274     8256.745    3233.3104    1194.1925    780.97684   -1504.1868     662.5042   -421.29258 
  185000    251.56229   -3937.8271   -3506.6579   -3937.8271            0    2756.8247    17.875434      21.0549    21.807988    8207.7736    1459.2221     2879.763    3931.4889   -1860.4123    1500.8743     604.1972 
  185500    263.02903   -3953.6574   -3502.8346   -3953.6574            0     817.7166    17.922145     21.10992    21.864976    8272.2868    593.11556    1742.5825    117.45178   -1574.2981   -1045.2268    1283.1778 
  186000     253.4542   -3923.9538    -3489.542   -3923.9538            0    1407.0635    17.920196    21.107624    21.862597    8269.5876    1319.4286    1561.9332    1339.8285    836.16433   -192.35062   -523.70236 
  186500    240.80285    -3962.591   -3549.8632    -3962.591            0   -11.140252     17.97641    21.173836    21.931178    8347.6542    -1183.271    538.69239    611.15784    575.01601    427.58414    996.06166 
  187000    240.13634   -3939.1137   -3527.5282   -3939.1137            0    544.21158    18.029891     21.23683    21.996425    8422.3812    174.59971    804.99567    653.03936    923.42229   -1238.2142   -379.37581 
  187500    238.59122   -3931.3358   -3522.3986   -3931.3358            0    1099.7496    17.952316    21.145457    21.901784    8314.1345    983.88946    814.07167    1501.2875   -225.05265   -5.2182335    405.66274 
  188000    254.44072   -3912.8577    -3476.755   -3912.8577            0    519.23729    18.003973    21.206302    21.964804    8386.1112    807.21434    430.71172    319.78582   -834.94867   -92.349386    611.19801 
  188500    257.25768    -3935.311   -3494.3801    -3935.311            0    403.78899    18.019161    21.224191    21.983334    8407.3529    423.68437   -86.816487     874.4991    183.93937   -1356.9174    947.32614 
  189000    241.74158    -3950.731   -3536.3942    -3950.731            0    1491.1969     17.98344    21.182117    21.939755     8357.452    2258.9009    327.84033    1886.8495    254.10758    435.88687   -761.15335 
  189500    246.07846   -3946.9636   -3525.1936   -3946.9636            0    1779.2708    18.020299    21.225532    21.984723    8408.9465    1178.2929     2040.311    2119.2086    1373.1224    252.72393    -373.6338 
  190000    260.69238   -3912.7067   -3465.8888   -3912.7067            0    2342.7762    18.050805    21.261464     22.02194     8451.724    2428.6768    3174.9978    1424.6539    1012.0207   -1123.9589    832.82108 
  190500    258.78467   -3923.2082   -3479.6602   -3923.2082            0     692.4632    18.029276    21.236105    21.995674    8421.5189    445.38798    385.44959     1246.552    237.81425    334.23195   -422.37275 
  191000    238.96569   -3912.2693   -3502.6903   -3912.2693            0    352.34057    18.067052    21.280601    22.041762    8474.5666    602.57378   -146.97408    601.42203   -332.74475    -334.0718    1062.6397 
  191500    229.40184   -3913.3392   -3520.1523   -3913.3392            0    -251.9616    18.164665    21.395576    22.160849    8612.6695   -1267.3416   -13.582593    525.03941   -149.87072    -204.7971   -604.22497 
  192000    257.20519   -3932.9718   -3492.1309   -3932.9718            0    473.40209    18.122755    21.346212    22.109719    8553.1925   -643.86674     1309.112    754.96104    10.014751    58.206549   -1446.8803 
  192500    266.84453   -3909.8782   -3452.5158   -3909.8782            0    466.17108    18.141929    21.368796    22.133111    8580.3688    25.659124    330.12858    1042.7255   -255.21744    221.44924   -53.013779 
  193000    241.32323   -3912.5665   -3498.9468   -3912.5665            0    962.26252    18.057303    21.269118    22.029867    8460.8548    -1180.651    1331.2794    2736.1591    502.25845    -468.7474   -832.64828 
  193500    257.72224    -3968.909   -3527.1819    -3968.909            0   -224.38892    18.000204    21.201863    21.960207     8380.846   -987.83283    117.46396    197.20209    200.59608    631.22594    707.97751 
  194000    257.22238   -3920.2221   -3479.3517   -3920.2221            0    564.82236    18.061518    21.274083     22.03501    8466.7812   -88.697174    881.48677    901.67747   -741.77707   -1127.4897   -986.63948 
  194500    260.98232   -3942.0707   -3494.7559   -3942.0707            0    885.79681    17.992905    21.193265    21.951302    8370.6545    1486.4708   -154.77681    1325.6965   -466.86697    129.40599    55.945547 
  195000    246.99687   -3938.2437   -3514.8995   -3938.2437            0    1762.2037    17.951091    21.144015     21.90029    8312.4332    2687.5244    1511.5761    1087.5107    101.46136    585.29208   -1870.7877 
  195500    268.80665   -3922.2096   -3461.4842   -3922.2096            0    1891.9243    17.962942    21.157973    21.914748    8328.9071    876.18518    2274.1208    2525.4668   -822.49567    293.45882    1172.1485 
  196000    244.89981   -3905.8323   -3486.0824   -3905.8323            0   -561.38862    18.122299    21.345675    22.109163    8552.5475    1143.1789     96.71814   -2924.0629    173.20707    1165.4101   -594.47321 
  196500    249.61293   -3917.5926   -3489.7646   -3917.5926            0    1801.6299    17.979676    21.177683    21.935163    8352.2054    1750.1477    1191.5137    2463.2284    24.181139   -331.39388    797.26216 
  197000    259.93817   -3946.6596   -3501.1344   -3946.6596            0    1392.2855     18.04488    21.254485    22.014712    8443.4045    938.40137    1327.2978    1911.1574    133.02328     384.6015    762.28304 
  197500    241.57836   -3935.3212   -3521.2641   -3935.3212            0    663.18371    18.138852    21.365172    22.129357    8576.0041    1412.1067    1017.1331   -439.68865    318.55611    20.123073   -217.14604 
  198000    255.49426   -3930.0975   -3492.1891   -3930.0975            0    1588.1917    18.009218     21.21248    21.971204    8393.4435    547.75679    2796.9951    1419.8232    -373.8554   -364.31142   -1537.0797 
  198500    249.45792    -3932.833   -3505.2706    -3932.833            0   -718.45414    18.130319     21.35512    22.118946     8563.906     791.2772   -1340.0561   -1606.5835    140.97786   -84.011492   -1285.7286 
  199000    253.31257   -3917.5284   -3483.3594   -3917.5284            0    1257.6573    18.053789    21.264979     22.02558    8455.9163    826.37826    898.19417    2048.3995    868.29996   -2147.6439   -89.061907 
  199500    257.25564   -3926.5732   -3485.6458   -3926.5732            0    1542.9034    17.945887    21.137884     21.89394     8305.205     1250.014    803.69419    2575.0021    1367.6926    -124.4769    670.86126 
  200000     244.6163   -3938.4651   -3519.2011   -3938.4651            0    351.90238    17.972674    21.169436     21.92662    8342.4515   -820.94608   -261.49033    2138.1436    1033.1252    701.37703   -170.13261 
  200500    244.16498   -3923.1319   -3504.6415   -3923.1319            0          405    17.956551    21.150445     21.90695    8320.0196    1783.1984   -958.95957    390.76115   -602.74138   -917.72544    396.59164 
  201000    248.59943   -3912.9492   -3486.8583   -3912.9492            0    534.23179    18.043764    21.253171     22.01335    8441.8383    939.20656   -4.4663017    667.95512    -447.7074    745.23032    497.25675 
  201500    262.40967   -3914.6202    -3464.859   -3914.6202            0    676.19439    18.006423    21.209188    21.967794    8389.5357    629.65512    586.93844    811.98963   -244.82371    143.04104    78.895178 
  202000    252.16416    -3911.377   -3479.1762    -3911.377            0    872.67943    17.908071    21.093342    21.847805    8252.8131    415.80254    773.20473     1429.031   -1146.0502    82.141331    502.67882 
  202500     249.1357   -3926.2677   -3499.2576   -3926.2677            0   -373.73942    18.022846    21.228532     21.98783    8412.5121    1698.6143   -1062.7196    -1757.113   -1000.7441   -463.69439   -1414.9861 
  203000    244.07965   -3942.6021    -3524.258   -3942.6021            0     877.3168    18.075006    21.289969    22.051465    8485.7633    1034.3459    1359.4094    238.19508    951.02005   -144.97652    450.31858 
  203500     253.7764   -3950.2845   -3515.3204   -3950.2845            0    1468.3623    17.910974    21.096761    21.851346    8256.8268    987.95619    2212.2047     1204.926    1033.8255    118.74118   -1773.2345 
  204000    251.25031   -3977.0638   -3546.4294   -3977.0638            0    1598.8138    17.922127    21.109898    21.864953    8272.2613    2545.5059    1890.0419    360.89348   -183.54116    177.62812   -204.15874 
  204500    254.54166   -3975.6317    -3539.356   -3975.6317            0    820.78708    17.992555    21.192853    21.950875    8370.1668    177.13916    2570.3362    -285.1141    516.14021   -515.94988   -197.19907 
  205000    242.05296   -3958.0285   -3543.1581   -3958.0285            0   -63.518807    17.995307    21.196094    21.954232    8374.0076    1994.9393   -220.35051   -1965.1452     500.2486   -561.32292    705.19893 
  205500    259.87493   -3931.3842   -3485.9674   -3931.3842            0    2298.0709    17.936264     21.12655      21.8822    8291.8525    3427.4887    2687.5601    779.16388   -307.16307   -71.671148    395.50747 
  206000    249.01309   -3971.7538   -3544.9539   -3971.7538            0    346.77873    17.940372    21.131388    21.887212    8297.5508    1350.1539    36.148361   -345.96606    1113.8298    7.2914098    86.210248 
  206500    248.97073   -3944.6587   -3517.9313   -3944.6587            0   -1155.6297    18.022959    21.228665    21.987968      8412.67   -1114.8615   -1995.7398   -356.28766    1165.1043   -442.40995    390.35317 
  207000    243.54287   -3953.1452   -3535.7211   -3953.1452            0    709.74322      17.9638    21.158983    21.915794    8330.0995    1478.9476   -597.47602    1247.7581    946.23046   -152.39297    59.592878 
  207500      251.357   -3939.4177   -3508.6004   -3939.4177            0     1079.939    18.052476    21.263432    22.023978     8454.071    2024.7416   -482.91099    1697.9862   -458.93897    696.64264    312.64455 
  208000    258.09409   -3936.7351   -3494.3707   -3936.7351            0    586.27962    18.028698    21.235424    21.994969    8420.7088    372.00772    969.92418    416.90695    -127.7577    991.71871   -495.30469 
  208500    241.02245   -3939.0588   -3525.9546   -3939.0588            0    1509.2309    17.955536    21.149249    21.905712    8318.6085    1799.1061    2229.1256    499.46107    171.06722     382.0077   -393.92103 
  209000    249.62252   -3953.0061   -3525.1616   -3953.0061            0     476.6229    18.056444    21.268106     22.02882    8459.6476   -802.02678    216.66063    2015.2349    333.33223   -1524.9859    159.27887 
  209500    248.91091   -3940.0013   -3513.3765   -3940.0013            0     2332.202     17.97855    21.176357    21.933789    8350.6366    2849.8115    2054.4836    2092.3109     114.7921    910.45958    107.08786 
  210000    245.86651   -3892.2292   -3470.8224   -3892.2292            0    1233.5656    17.977832    21.175512    21.932913    8349.6364    1769.6926    481.96149    1449.0426   -441.86136   -120.42451   -64.725524 
  210500    260.40722   -3902.8389   -3456.5098   -3902.8389            0    966.34609    18.037883    21.246244    22.006175    8433.5862    1066.4881    1145.1542      687.396    -1786.678   -666.86248   -474.54367 
  211000    241.97161    -3935.599    -3520.868    -3935.599            0    1626.1412    17.952403    21.145559    21.901889     8314.255    2354.9859    2169.2489    354.18894   -547.89889    140.32623    -425.9099 
  211500    262.73117   -3939.6939   -3489.3817   -3939.6939            0    999.55289     18.02186     21.22737    21.986627    8411.1313    1737.4086    384.78233    876.46772    776.01113    1004.6854   -239.32437 
  212000    248.68094   -3934.5992   -3508.3686   -3934.5992            0    1290.1329    17.990944    21.190956     21.94891    8367.9192    2520.3864    1370.4081   -20.395679    1206.1453    1132.5604    585.82766 
  212500    272.68666   -3945.6979   -3478.3223   -3945.6979            0    579.77079    18.085246    21.302031    22.063958     8500.194    1062.8355    25.328146    651.14871   -313.50728    331.99992    775.34631 
  213000     258.3593   -3948.5708   -3505.7518   -3948.5708            0     1124.978    18.037487    21.245778    22.005692    8433.0312    1373.4065    75.314023    1926.2134     1855.902    62.320266    275.65532 
  213500    247.23251   -3951.3742   -3527.6261   -3951.3742            0    842.57702    17.966434    21.162086    21.919008    8333.7654   -327.63599    834.79731    2020.5697   -1085.8499   -644.28911    1521.8638 
  214000    243.74489   -3939.0469   -3521.2765   -3939.0469            0   -297.02821     18.07062    21.284804    22.046115    8479.5885      -842.01    263.45797    -312.5326   -501.62832   -165.48479    70.073094 
  214500    252.04577   -3961.9352   -3529.9374   -3961.9352            0    691.89503    18.018576    21.223503    21.982621    8406.5349    -1589.524    1324.7489    2340.4602   -10.023971   -551.01277    754.02894 
  215000    246.01502   -3996.6815   -3575.0202   -3996.6815            0    2422.7262    17.848786    21.023513    21.775478    8171.1213    1813.9767     2395.027    3059.1749   -875.96725   -266.11609   -88.374115 
  215500    242.75666   -3929.1951   -3513.1185   -3929.1951            0    1651.1731    18.036298    21.244377    22.004242    8431.3635    1825.1394    2833.1969    295.18287     325.7372   -366.77055    147.87109 
  216000    239.73406   -3948.7306   -3537.8347   -3948.7306            0    1166.8435    17.912468    21.098521    21.853169    8258.8939    827.58513   -62.165062    2735.1105     104.2565    -1076.845    100.67093 
  216500    246.44546   -3953.3196   -3530.9205   -3953.3196            0   -130.44479    17.993919     21.19446     21.95254     8372.071   -1725.8759    562.01397    772.52757   -363.56184    903.25555     72.51862 
  217000    239.19479   -3956.6929   -3546.7212   -3956.6929            0    1667.3256    17.980368    21.178498    21.936006    8353.1694    2553.9432    864.14135    1583.8922   -1115.4451    402.32907    171.39295 
  217500    252.65662   -3937.0577   -3504.0129   -3937.0577            0    79.507205    18.006969    21.209831     21.96846    8390.2986     455.1347   -236.90896    20.295869    924.84652   -169.71017   -533.62372 
  218000    250.02039   -3951.0888   -3522.5624   -3951.0888            0     1482.104    17.943773    21.135394    21.891361    8302.2701    1484.2279    1197.8934    1764.1907   -316.31949     410.7897   -408.58543 
  218500    249.24462   -3956.3309   -3529.1341   -3956.3309            0   -327.84089    18.023274    21.229036    21.988352    8413.1116   -176.99383    432.77114      -1239.3   -614.55725      1422.47   -77.607201 
  219000    245.12664   -3925.6188   -3505.4802   -3925.6188            0   -226.18861    18.010328    21.213787    21.972558    8394.9949   -50.502025    512.15591   -1140.2197   -1913.2367    -803.5884    29.821081 
  219500    257.23787   -3933.5542   -3492.6573   -3933.5542            0    297.95586    18.000524    21.202239    21.960597     8381.293   -132.83762    459.70851     566.9967   -79.327871    361.92823   -174.06799 
  220000      240.704   -3955.8411   -3543.2827   -3955.8411            0    269.78899    17.966151    21.161752    21.918662    8333.3708      740.018     888.3965   -819.04751   -396.01957   -5.0579559    1383.7243 
  220500    244.49693   -3962.9487   -3543.8894   -3962.9487            0     674.2629    17.907131    21.092235    21.846658    8251.5142    508.95613    1504.4135    9.4190244    654.47387    518.13887   -552.74828 
  221000    251.30154   -3936.1021   -3505.3799   -3936.1021            0    1123.5125    17.943072    21.134569    21.890506    8301.2979    2221.1918    501.94575    647.39985   -414.66823   -93.376785   -1099.2413 
  221500    239.27155   -3963.7143   -3553.6111   -3963.7143            0    551.53347    17.983195    21.181828    21.939456    8357.1106   -763.98178    199.71634    2218.8659    700.37042   -607.47938    114.05787 
  222000    255.45072   -3953.3809   -3515.5471   -3953.3809            0    895.22947    17.993376    21.193821    21.951877     8371.313   -157.29557    2409.3475    433.63645    42.634327    1089.8587   -390.46628 
  222500    260.39998   -3936.1372   -3489.8206   -3936.1372            0    1419.6562    18.051666    21.262478     22.02299    8452.9337    912.41789    2112.2808      1234.27    492.34498   -1559.1171     792.5095 
  223000    243.06819   -3938.3883   -3521.7777   -3938.3883            0    990.05999    17.932484    21.122097    21.877588    8286.6106    1171.4961    1615.7992    182.88477    1669.1361    629.36548   -82.796124 
  223500    258.24478   -3926.0753   -3483.4526   -3926.0753            0    805.39165    17.953186    21.146482    21.902845    8315.3434    1007.9027    697.89496    710.37728    911.20996   -388.30128   -383.13474 
  224000    256.70449   -3917.1141   -3477.1314   -3917.1141            0    446.78079    17.885003    21.066171    21.819662    8220.9616    1179.4111    471.80525   -310.87398   -747.53771    278.40651   -6.7230655 
  224500    253.02549   -3943.4599   -3509.7829   -3943.4599            0   -220.00231     17.95951    21.153931     21.91056    8324.1337    280.95243   -564.58545    -376.3739    869.33333    320.95001    629.55551 
  225000    246.65308   -3942.1025   -3519.3476   -3942.1025            0    1983.3003    17.940555    21.131604    21.887435    8297.8045    1407.3026    1299.6798    3242.9184   -589.11649    -202.4625   -66.047171 
  225500    259.06169     -3889.08   -3445.0571     -3889.08            0     1427.468    17.939197    21.130004    21.885778    8295.9201    1182.4125    1998.6889    1101.3025   -668.28801    520.13548    558.25666 
  226000    249.68304   -3923.3711   -3495.4229   -3923.3711            0   -9.7092488      17.9298    21.118936    21.874314    8282.8901    462.83639   -611.84673    119.88259   -888.71718    1235.3765    1567.2275 
  226500    243.99848   -3905.6696   -3487.4646   -3905.6696            0    1056.4688     17.97559     21.17287    21.930178    8346.5123     1973.288   -902.34919    2098.4675    361.07536    87.384444   -812.15971 
  227000     262.2851    -3895.122   -3445.5743    -3895.122            0     146.7529    18.024235    21.230168    21.989525    8414.4573    -1234.666      1580.66    94.264644   -1487.1226    824.94938    782.27995 
  227500    254.93639   -3936.4132    -3499.461   -3936.4132            0   -96.019204    17.940743    21.131826    21.887665    8298.0663    238.23337    288.97073   -815.26171   -764.50415   -353.22222    576.37548 
  228000    258.13902   -3939.3925    -3496.951   -3939.3925            0    2406.0996    17.936394    21.126703    21.882359     8292.033    1802.0354    2198.3037    3217.9597    373.74195    156.00259   -85.493577 
  228500    252.93201   -3939.3853   -3505.8685   -3939.3853            0   -14.778087    17.904695    21.089366    21.843687    8248.1472     779.5498   -505.29643   -318.58763    167.01035   -193.15836    263.40264 
  229000    251.46498   -3944.0417   -3513.0393   -3944.0417            0    884.38981     17.87604    21.055614    21.808728    8208.6091    -31.98149    705.93826    1979.2127   -196.35832   -502.46727   -3.3912627 
  229500    259.13895   -3975.4782   -3531.3229   -3975.4782            0    549.51729    17.960645    21.155267    21.911945    8325.7118    369.91002    576.23112    702.41073    978.96512    1183.3963   -352.32327 
  230000    251.89245   -3917.6367   -3485.9016   -3917.6367            0    1893.7641      17.9542    21.147676    21.904082    8316.7522    3100.8379    1787.6543    792.80016   -717.40686   -1073.8463    68.259556 
  230500    263.31047   -3952.5199   -3501.2148   -3952.5199            0    2067.7182    17.953077    21.146353    21.902712    8315.1917    2407.7638    998.89975     2796.491    357.77515    323.95858    958.33609 
  231000    254.98184   -3939.4916   -3502.4615   -3939.4916            0    1164.8763    17.965239    21.160678    21.917549     8332.102   0.72257784     2000.313    1493.5932    356.78587    326.11263   -255.66214 
  231500    258.05681   -3937.6335   -3495.3329   -3937.6335            0    501.81639    17.983631    21.182342    21.939988    8357.7186    257.89347    1576.6744   -329.11872   -473.54477   -568.10122    686.57978 
  232000    245.78415   -3928.5943   -3507.3287   -3928.5943            0    1820.6029    17.948074     21.14046    21.896608    8308.2419    1017.7498     925.3049     3518.754    94.928058   -263.59345   -344.63146 
  232500    251.59741   -3937.8411   -3506.6117   -3937.8411            0    2271.3186    17.958234    21.152428    21.909004    8322.3599    892.23434     2195.292    3726.4295    630.07515     946.3185    -508.8822 
  233000    245.35826    -3947.655   -3527.1193    -3947.655            0    1818.4572    17.990753    21.190731    21.948677    8367.6526    1817.8856    1832.1286    1805.3573    19.947508    1458.2078   -597.31971 
  233500    249.39768    -3921.971   -3494.5119    -3921.971            0    1471.5225    18.049335    21.259733    22.020147    8449.6595    697.74105    1692.3695    2024.4569    126.33842   -861.01999    642.80334 
  234000      254.461     -3917.67   -3481.5326     -3917.67            0    1420.2353     18.03162    21.238866    21.998534    8424.8042    2944.2375    175.48376    1140.9845    78.953121   -519.26882   -582.02292 
  234500    254.76587   -3924.7158   -3488.0558   -3924.7158            0    1552.6863    17.944507    21.136259    21.892256    8303.2893    1834.6831    1372.3786    1450.9971   -467.73936     383.1443    492.04244 
  235000    249.57146   -3952.0956   -3524.3387   -3952.0956            0    456.94786    18.024319    21.230267    21.989628    8414.5756    754.04104    1131.7453   -514.94277   -631.60151    485.69452    470.91016 
  235500    238.51719    -3939.155   -3530.3447    -3939.155            0    197.42835    17.980478    21.178628    21.936141    8353.3235    405.30463    361.66696   -174.68654   -1710.0407   -482.73151   -118.48476 
  236000    255.33135   -3937.6622    -3500.033   -3937.6622            0    611.33361    17.927458    21.116177    21.871457    8279.6451    1751.8367   -471.33733    553.50141   -31.959364   -275.96128     187.4051 
  236500    235.05507   -3930.7406   -3527.8642   -3930.7406            0   -85.604602    17.915165    21.101697    21.856459     8262.624    508.76124    576.05968   -1341.6347   -410.09929    469.83004    536.04314 
  237000    240.09452   -3890.5413   -3479.0275   -3890.5413            0    695.75137    17.877995    21.057917    21.811113    8211.3026    142.14053    961.02257    984.09101   -459.95815    311.87688   -1620.7238 
  237500    246.70991   -3945.2713    -3522.419   -3945.2713            0    472.48043    17.885844    21.067161    21.820688    8222.1214     1644.309    539.51853   -766.38623   -385.84011     1339.573   -329.79352 
  238000    255.73131   -3914.3019   -3475.9872   -3914.3019            0    30.768324    17.939115    21.129908    21.885678    8295.8065    280.35847   -702.23088    514.17738   -816.16651    64.800222   -686.78913 
  238500    242.20205   -3913.4943   -3498.3683   -3913.4943            0    1566.9257    17.921306    21.108931    21.863951     8271.124    1238.9272    1906.5998    1555.2501   -245.13063    677.64348   -1061.1978 
  239000    240.93549   -3904.9267   -3491.9715   -3904.9267            0    246.91483    17.910839    21.096603    21.851182     8256.641    236.53022    576.47717   -72.262896    659.44952    118.55392    -370.0866 
  239500     263.8276   -3917.5473   -3465.3558   -3917.5473            0   -458.24938    18.047873    21.258011    22.018363    8447.6069    674.75773   -556.24539   -1493.2605    -355.8474   -309.98474   -560.85653 
  240000    247.53627   -3928.0334   -3503.7647   -3928.0334            0    711.41247    17.897387    21.080758    21.834771    8238.0515    2379.6977   -109.09726   -136.36307   -501.28286    -71.94782   -256.31659 
  240500    246.13378   -3905.6447   -3483.7798   -3905.6447            0    2683.4325    17.887843    21.069516    21.823126    8224.8786    2204.7515    2558.3262    3287.2199    231.61945    560.66887   -127.27975 
  241000    240.18364   -3941.8489   -3530.1823   -3941.8489            0     1268.029    17.927177    21.115846    21.871114    8279.2555    2549.9391    789.88241    464.26566    1090.2784    2012.2768    -532.1858 
  241500    246.85821   -3886.2576   -3463.1511   -3886.2576            0   -347.28955    18.028633    21.235349     21.99489    8420.6187   -1518.5699    1294.9209   -818.21968    888.51132   -1159.9229   -467.35195 
  242000       253.82   -3922.0281   -3486.9893   -3922.0281            0    805.51445    17.990911    21.190917     21.94887    8367.8731    401.75255    1706.6825    308.10833    1203.4361   -374.67365   -259.80475 
  242500    259.06492    -3899.918   -3455.8896    -3899.918            0    732.11258    18.028074     21.23469    21.994208    8419.8352    1804.8045    627.56834   -236.03507    259.20881   -353.20997   -408.03167 
  243000    255.91505   -3906.3657    -3467.736   -3906.3657            0    1439.7639    17.965819    21.161362    21.918257    8332.9093    1365.7361    530.34766    2423.2078   -757.76651   -828.57478   -1214.0785 
  243500      251.428   -3905.8421   -3474.9031   -3905.8421            0    1209.8265    18.061428    21.273976      22.0349    8466.6542    110.07082    2253.8319    1265.5769    964.27519    1097.2584   -441.06886 
  244000    255.21275   -3907.2309    -3469.805   -3907.2309            0    2578.3125    18.041217    21.250171    22.010243    8438.2639    2027.7948    2651.9816     3055.161    790.71099   -485.73446    37.888116 
  244500    259.51467   -3897.5113    -3452.712   -3897.5113            0    1086.0855    18.032615    21.240038    21.999748    8426.1986   -1176.9751    2249.0561    2186.1756    384.02345   -46.801125   -249.56951 
  245000    266.27113   -3912.8111   -3456.4315   -3912.8111            0    906.95507    18.051452    21.262226     22.02273    8452.6334    1175.2509    563.29788    982.31643    81.340384    614.97168   -147.09627 
  245500    246.30653   -3908.8177   -3486.6567   -3908.8177            0    1139.5774    18.062747     21.27553     22.03651    8468.5101   -120.44777    167.98281    3371.1972   -490.24767   -675.05482   -148.62077 
  246000    255.16111   -3940.4221   -3503.0847   -3940.4221            0    1819.0952    17.980325    21.178448    21.935954      8353.11    1240.8823    2624.0874     1592.316   -537.82657    1101.6353   -327.02982 
  246500    260.72823   -3936.4646   -3489.5854   -3936.4646            0    2632.9935    17.932981    21.122683    21.878195    8287.2997    2378.0173    2854.8888    2666.0746    775.40065    516.00097    708.44672 
  247000    248.19944   -3941.6444    -3516.239   -3941.6444            0    1455.5818    18.066257    21.279664    22.040791    8473.4472    1710.9338    704.31151       1951.5   -716.07928    -480.3719    50.320356 
  247500    236.79707   -3898.7705   -3492.9084   -3898.7705            0    1318.6515    17.995371    21.196171    21.954311     8374.098    1998.7331    1016.0748    941.14662   -389.25785   -765.33311   -279.24274 
  248000    244.18092    -3867.171   -3448.6533    -3867.171            0    1248.5006    18.006309    21.209054    21.967655     8389.377    1532.8499    855.82075    1356.8312    185.68446    950.07369     372.2157 
  248500     236.0591   -3945.8268   -3541.2296   -3945.8268            0    444.89173    18.050806    21.261465    22.021941    8451.7259    388.74289     1417.783   -471.85073    992.41095     104.7192    708.42386 
  249000    250.52076   -3966.7122   -3537.3282   -3966.7122            0     303.6003    18.029189    21.236003    21.995569    8421.3976     164.9574    140.06905    605.77444   -9.4825261   -368.46251    65.535755 
  249500    248.13621   -3935.8729    -3510.576   -3935.8729            0     1716.533    18.024437    21.230406    21.989771    8414.7405    2071.4478    1231.6919    1846.4592   -385.55062    195.85316    752.91005 
  250000    259.10601   -3917.6353   -3473.5364   -3917.6353            0    424.39113    18.057958     21.26989    22.030667    8461.7759    974.27128    93.715714     205.1864   -963.33315    949.48288   -507.36434 
  250500    266.65153    -3953.553   -3496.5214    -3953.553            0     853.8381    18.051496    21.262278    22.022783    8452.6948    556.67193    771.67577    1233.1666   -753.00916    1029.8915   -49.211524 
  251000     262.9871    -3925.341   -3474.5901    -3925.341            0    1489.6601    17.962701    21.157689    21.914453    8328.5715    2274.3942     1905.064    289.52199   -265.69163    483.14269   -977.14762 
  251500    252.83775    -3940.214   -3506.8587    -3940.214            0    2416.6403    17.923561    21.111588    21.866703    8274.2474    2216.5823    2052.0255     2981.313   -1102.9561   -778.12748    -153.2983 
  252000    255.93544   -3968.1469   -3529.4823   -3968.1469            0    2211.0075    17.860757    21.037613    21.790082    8187.5729    1690.6704    2327.4616    2614.8907    524.39048    552.16218    588.22905 
  252500    254.41337   -3917.1509   -3481.0951   -3917.1509            0    2131.2902    17.897127    21.080452    21.834453     8237.692    41.348049    3242.1748    3110.3479    803.09955    1431.6839   -827.18725 
  253000    256.04718   -3917.8559   -3478.9998   -3917.8559            0    2158.8318     17.96799    21.163919    21.920906    8335.9311    2691.0114    915.98322    2869.5008    1818.6426    958.24478   -283.55373 
  253500    251.16449   -3915.5469   -3485.0596   -3915.5469            0    2079.9192    17.881171    21.061658    21.814987    8215.6793    555.98135    2995.4586    2688.3176   -381.79579    589.52345     -34.9495 
  254000    248.02632    -3900.355   -3475.2463    -3900.355            0   -487.05995    18.050201    21.260752    22.021203    8450.8757   -706.66364   -2114.7729    1360.2567    354.05287    457.14498   -365.79262 
  254500    257.88154   -3928.8703   -3486.8702   -3928.8703            0    926.68626    18.100711    21.320246    22.082825    8522.0185    535.71573    1559.7301    684.61292     386.6622   -992.37184   -486.84736 
  255000     247.2596   -3959.4715    -3535.677   -3959.4715            0    1035.6226    18.023157    21.228898    21.988209    8412.9472    912.61358    1189.8822    1004.3721   -331.89769    284.63982    785.88506 
  255500    233.02976    -3914.935   -3515.5299    -3914.935            0    1498.5673    18.009804     21.21317    21.971919    8394.2627    2378.6121     1083.264    1033.8259    615.76735    1767.2211    767.17978 
  256000    264.38555   -3921.2104   -3468.0626   -3921.2104            0    672.43086    18.039151    21.247737    22.007722    8435.3643    1340.3921   -21.627689    698.52818   -283.93969   -304.59188   -342.37955 
  256500    244.32613   -3897.1265   -3478.3599   -3897.1265            0    249.06307    18.166641    21.397904     22.16326    8615.4807    40.891957    81.477312    624.81994    1405.3646   -1295.7481   -656.07974 
  257000    248.81041   -3915.3769   -3488.9244   -3915.3769            0    2047.9193    18.043816    21.253232    22.013414    8441.9114    2321.3086    1887.0542    1935.3951   -177.57647    375.84041   -20.097006 
  257500     253.7103   -3938.1979   -3503.3471   -3938.1979            0    1569.5944    18.098267    21.317368    22.079844    8518.5676    3093.9503    1232.2877     382.5451   -1064.3715    518.17026    774.54889 
  258000    244.54974   -3910.3668   -3491.2169   -3910.3668            0    459.36866    18.108254    21.329132    22.092028     8532.678     1503.341     -752.086    626.85097   -748.56118   -496.48301    817.25285 
  258500    250.25764   -3905.8189   -3476.8859   -3905.8189            0    1869.1768    18.034703    21.242497    22.002295     8429.126    3083.5386    933.78736    1590.2044    143.58395   -1890.1004   -502.38711 
  259000    241.97755   -3951.9907   -3537.2495   -3951.9907            0    1586.4439    18.012422    21.216254    21.975112    8397.9234    3682.9096   -269.12938    1345.5514   -551.85661    -918.0294   -1512.2047 
  259500     252.7132   -3943.9635   -3510.8217   -3943.9635            0    2045.2452    18.015522    21.219905    21.978894    8402.2602    3260.4131    1569.5068    1305.8158    155.22706   -1220.0432   -782.73338 
  260000    238.22487   -3914.8664   -3506.5571   -3914.8664            0    174.61274    18.065227    21.278451    22.039534    8471.9976    1713.3645   -287.09493   -902.43136    1083.5677    1797.5248    1533.3422 
  260500    262.69062   -3909.8306   -3459.5878   -3909.8306            0    619.22867    17.981185    21.179461    21.937004    8354.3088    294.33754    -850.0325     2413.381    179.12514    934.70338    277.29448 
  261000    257.63096    -3932.225   -3490.6544    -3932.225            0    588.91977    17.946678    21.138816    21.894905    8306.3033    231.90783    200.99812    1333.8533    768.77832   -308.41822    1216.2054 
  261500    243.49211   -3913.5745   -3496.2374   -3913.5745            0   -205.92194    18.075199    21.290197      22.0517    8486.0354   -318.25632   -229.45503   -70.054476    282.51058    738.39941    1348.2594 
  262000    244.02637   -3914.1833   -3495.9304   -3914.1833            0    1384.8382    18.003143    21.205325    21.963793    8384.9522     2628.425    1134.8529    391.23665    1225.5848    785.80965    1420.2429 
  262500    237.56479   -3876.8228   -3469.6449   -3876.8228            0    2080.3304    17.900482    21.084403    21.838546    8242.3257    2161.6533    3497.5917    581.74606   -581.69808    -364.3248   -359.69855 
  263000    249.47409   -3901.6461   -3474.0561   -3901.6461            0    1637.2597    17.953142     21.14643    21.902792    8315.2826    1661.7848    1535.9317    1714.0627   -96.136113    316.09273    626.20281 
  263500    246.79489   -3886.1907   -3463.1927   -3886.1907            0    2273.3098    17.923126    21.111075    21.866172     8273.645    868.17196    3998.0469    1953.7105    452.30919   -987.97133   -584.61963 
  264000    245.91813   -3906.0037   -3484.5084   -3906.0037            0      967.356    18.010409    21.213883    21.972657    8395.1086      311.532    1219.0352    1371.5008    149.43518   -81.202704    1195.2418 
  264500    239.06858   -3929.4573   -3519.7019   -3929.4573            0     1746.887    17.933764    21.123605     21.87915    8288.3857    1011.1341    1193.6971    3035.8299    430.55442   -28.073135    1366.3148 
  265000    235.43259   -3898.3568   -3494.8334   -3898.3568            0    834.15025     18.00494    21.207441    21.965985    8387.4634     708.3847    794.85622    999.20984    328.91241   -431.96284     251.8992 
  265500    242.86906    -3932.354   -3516.0848    -3932.354            0    1487.0419    17.936915    21.127317    21.882995    8292.7553    1187.7773    1116.9392    2156.4092   -471.64393    53.948315   -12.703491 
  266000    252.93059   -3959.4455   -3525.9311   -3959.4455            0    1066.2094    17.952811     21.14604    21.902387    8314.8222    1582.6199   -763.99647    2380.0047   -1211.9888   -533.76374   -313.79638 
  266500    243.71681   -3886.9284   -3469.2062   -3886.9284            0    1744.8771    17.954009    21.147452     21.90385    8316.4875    472.29976    3503.6115      1258.72   -310.95514    372.89393      611.931 
  267000    244.85357   -3950.2916   -3530.6209   -3950.2916            0   -321.78205    17.925184    21.113499    21.868682    8276.4946   -1499.5483   -57.215599    591.41776   -1196.3236    386.25169   -344.94453 
  267500    253.82374   -3907.1766   -3472.1314   -3907.1766            0    417.60986    18.005196    21.207742    21.966297    8387.8206    38.907056   -168.49673    1382.4193    52.293302   -989.04649    853.82128 
  268000     257.3938   -3938.1289   -3496.9647   -3938.1289            0    2027.0105    17.954037    21.147484    21.903883    8316.5253    1005.2717    1986.9791    3088.7808    328.61016     72.96992    312.42462 
  268500    238.06261   -3940.9995   -3532.9683   -3940.9995            0    645.46888    18.069345    21.283302    22.044559    8477.7939   -270.54221    1564.0344    642.91448    399.20714    726.25545    374.06291 
  269000    256.36924    -3942.048   -3502.6398    -3942.048            0    2199.7774    17.953289    21.146603    21.902971    8315.4865    2935.7665    1643.7541    2019.8118    1196.2085   -564.86572    753.38322 
  269500    240.52914   -3880.6837    -3468.425   -3880.6837            0    3535.5861    17.958439    21.152669    21.909253    8322.6441    2882.4935    3843.3103    3880.9543    544.45452   -141.08077   -710.92907 
  270000    250.99627   -3904.8603   -3474.6613   -3904.8603            0    1256.8888     17.94364    21.135237    21.891199    8302.0858    684.82688    2151.2782     934.5613    830.59521    367.15381   -221.51068 
  270500    240.16502   -3910.1006    -3498.466   -3910.1006            0     244.8667    17.973107    21.169946    21.927149    8343.0542   -269.43388    399.13091    604.90309   -475.03987    327.23507    -46.86927 
  271000    247.36805   -3927.0011   -3503.0208   -3927.0011            0   -288.93535    17.996945    21.198024    21.956231    8376.2945    -1232.614     -1350.77    1716.5779   -426.66094   -223.95354    151.98323 
  271500    240.65849   -3901.2554    -3488.775   -3901.2554            0    2368.8897    17.904304    21.088905    21.843209    8247.6058   -68.222316    2910.1357    4264.7556    1151.5735   -707.99554    1227.4819 
  272000    255.00143    -3905.989   -3468.9252    -3905.989            0     591.1252    18.001176    21.203008    21.961393    8382.2043    645.45296    1266.7254   -138.80275    101.98813   -480.73226    -985.5358 
  272500    252.88628    -3905.297   -3471.8585    -3905.297            0    2358.4505     17.96589    21.161446    21.918344    8333.0083    1208.1437    3867.7975    1999.4102   -708.82781   -40.091083   -296.76318 
  273000    251.28675   -3922.4728   -3491.7759   -3922.4728            0    263.23098    18.060786    21.273221    22.034117    8465.7522    603.71176   -39.760192    225.74137   -816.05845    513.17116    622.15727 
  273500    260.55743   -3945.8318   -3499.2452   -3945.8318            0    1064.1799    18.040419    21.249231    22.009269    8437.1438    239.62561    534.30919    2418.6049   -149.50745    87.862465    -555.1547 
  274000    255.57575   -3892.2024   -3454.1543   -3892.2024            0    254.36963     18.04109     21.25002    22.010087    8438.0846    827.93952    664.78396    -729.6146   -503.12824   -788.69009   -921.67799 
  274500     269.4281   -3932.7554   -3470.9648   -3932.7554            0    624.31678    18.007565    21.210532    21.969187    8391.1316    524.02406   -457.66179    1806.5881    722.29743    226.62967   -251.80335 
  275000    249.59657   -3932.4708   -3504.6708   -3932.4708            0    1173.9094    17.990541     21.19048    21.948417    8367.3556    936.06913    1351.5355    1234.1235    896.27708   -480.92726    1541.9266 
  275500    236.62333   -3936.6768   -3531.1125   -3936.6768            0    1050.2411     17.89344    21.076109    21.829955    8232.6016    1806.5048    740.88901    603.32949    602.56577   -731.87465   -986.67222 
  276000    268.63383    -3914.578   -3454.1488    -3914.578            0   -1054.9554     18.06671    21.280198    22.041344    8474.0851    590.86135   -3516.6292   -239.09852    240.17765    453.79345    153.39026 
  276500    245.22136   -3898.7597   -3478.4587   -3898.7597            0    239.58564    18.047499     21.25757    22.017907    8447.0815     368.7445    885.74688   -535.73446   -601.08766   -884.11935    621.73181 
  277000     261.1241   -3911.9453   -3464.3875   -3911.9453            0    902.30238    18.100316    21.319781    22.082343    8521.4607    1003.2424    946.07855    757.58615   -620.09698   -709.93976   -649.88096 
  277500    243.91572   -3900.7606   -3482.6974   -3900.7606            0    437.94589    18.131447    21.356449    22.120323     8565.505    994.88148   -348.59055    667.54672     34.46024    -886.8225   -839.70399 
  278000    247.58029   -3902.9163   -3478.5722   -3902.9163            0    1451.8406    18.020468    21.225731    21.984929     8409.183   -289.71682    2748.6359    1896.6027    872.40948    389.20234    868.69693 
  278500    264.19799   -3933.4441   -3480.6177   -3933.4441            0    1322.4587    18.067857    21.281549    22.042743    8475.6989    423.17029    1807.5809     1736.625    998.14467   -248.84829    125.90841 
  279000     244.0011   -3932.0752   -3513.8657   -3932.0752            0    2766.5412    17.894414    21.077257    21.831144     8233.947    1213.6259    3235.4277    3850.5701   -650.26045    823.93795   -348.05338 
  279500    255.09689   -3923.3614    -3486.134   -3923.3614            0    900.31327    17.985556     21.18461    21.942337    8360.4032    939.14388    1441.4624    320.33352   -542.36367   -904.49832   -15.021144 
  280000    251.67574   -3916.6163   -3485.2527   -3916.6163            0    727.29028    18.026702    21.233074    21.992535    8417.9136   -328.90364    1163.0715    1347.7029    172.00617   -85.465569    624.03412 
  280500    248.67082   -3910.5123    -3484.299   -3910.5123            0   -338.39935    17.992611     21.19292    21.950944    8370.2455    282.96951   -663.97983   -634.18773   -167.58255   -540.20149    142.46277 
  281000    255.45379   -3904.4171   -3466.5781   -3904.4171            0    387.90196    18.054171    21.265429    22.026047    8456.4538    489.76522    1227.0955   -553.15481   -329.10028    268.77925    948.13857 
  281500    257.45839   -3915.6328   -3474.3579   -3915.6328            0    1356.4027    17.957274    21.151297    21.907833    8321.0253    513.48749    2205.5476     1350.173    -722.5888    255.87845    600.58793 
  282000    248.83543   -3919.4814    -3492.986   -3919.4814            0    811.77178    18.007731    21.210729     21.96939    8391.3646    988.42682   -75.439763    1522.3283   -892.53647   -428.33544   -1090.3065 
  282500    252.63921   -3896.3312   -3463.3162   -3896.3312            0    484.24878    17.927034    21.115678     21.87094    8279.0579     738.5893    1890.3681    -1176.211   -572.33704    359.46091    782.77447 
  283000    242.68103    -3918.952    -3503.005    -3918.952            0     1472.376    17.974489    21.171574    21.928835     8344.979    2332.0147    2041.7928    43.320493   -1637.9966   -755.10193   -1389.7712 
  283500    229.22165   -3881.3855   -3488.5074   -3881.3855            0    493.10954    18.091566    21.309475    22.071669    8509.1091    1524.3264   -379.87756    334.87975    887.68071   -1215.9066   -303.99816 
  284000    243.09338   -3909.2326   -3492.5789   -3909.2326            0     938.0162    18.097538     21.31651    22.078955    8517.5385    2685.0188    307.00527   -177.97548   -313.94089    861.20795   -312.93597 
  284500    269.00768   -3881.3589    -3420.289   -3881.3589            0    1870.6824    18.031127    21.238286    21.997933    8424.1136     2085.857    1785.6328    1740.5575    652.43708    220.31033    357.03579 
  285000    244.87997   -3919.5841   -3499.8682   -3919.5841            0   -190.14272    18.184742    21.419223    22.185342    8641.2583    739.68488   -863.22531   -446.88771   -9.3178741    -82.51734   -1139.5511 
  285500    248.39211    -3920.569   -3494.8334    -3920.569            0   -481.41243    18.193954    21.430074    22.196581    8654.3975    82.401894   -1334.4708   -192.16839     281.0314   -55.805095   -753.94999 
  286000    249.14932   -3973.5443   -3546.5109   -3973.5443            0    1979.3155    18.077794    21.293253    22.054866    8489.6909    2370.1316    1378.9559    2188.8591   -368.74588    276.16212    121.89489 
  286500    245.91166   -3914.6227   -3493.1385   -3914.6227            0   -325.68104    18.223328    21.464673    22.232418    8696.3833    95.692566    -915.0876   -157.64808    396.33066   -409.63813   -120.63241 
  287000    243.45317   -3931.4851   -3514.2147   -3931.4851            0    636.98172    18.019675    21.224797    21.983961    8408.0726    684.46635    671.74169    554.73711    -435.8944   -329.27991   -749.38952 
  287500    247.63346   -3890.1674   -3465.7321   -3890.1674            0    2266.9363    18.120337    21.343364    22.106769    8549.7699    2933.7697     1543.695    2323.3443    1497.1874    14.008455    398.30868 
  288000    236.92971   -3983.1355   -3577.0461   -3983.1355            0    1433.7899    18.040983    21.249895    22.009957    8437.9347    1216.4012     569.1997    2515.7689    -260.1269    26.372439   -1277.3731 
  288500    236.92994   -3962.6336   -3556.5437   -3962.6336            0    1415.9088    18.031159    21.238324    21.997972    8424.1586    481.69797    1893.0253    1873.0031   -1318.3772   -81.940452   -486.64094 
  289000    254.73591   -3936.0231   -3499.4145   -3936.0231            0   -679.78114    18.164708    21.395627    22.160901    8612.7304    1762.5847   -2234.5001   -1567.4281    22.685956   -1269.6821   -111.77936 
  289500    248.88251   -3950.2867   -3523.7106   -3950.2867            0    261.16643    18.213579     21.45319    22.220523    8682.4331   -340.04432   -174.17603    1297.7196   -118.17673    482.32109   -437.27764 
  290000    246.25795   -3904.3706   -3482.2929   -3904.3706            0    1020.4573    18.210117    21.449113    22.216301    8677.4842    450.19968    843.15804    1768.0142     658.9052   -565.61964    457.60309 
  290500    234.20811   -3922.6166   -3521.1919   -3922.6166            0    674.13008    18.095582    21.314206    22.076568    8514.7771    583.83034    225.75057    1212.8093    876.98103   -261.94636    798.79494 
  291000    255.70817   -3906.4033   -3468.1283   -3906.4033            0    626.73085    18.194596    21.430831    22.197365    8655.3147   -1132.9538     1012.132    2001.0144   -1067.1235   -617.09058   -178.77329 
  291500    252.30885   -3916.2277    -3483.779   -3916.2277            0    1249.2979     18.10772    21.328503    22.091377     8531.923    1307.3515    1337.7524    1102.7899    -561.3737   -214.54247    145.95833 
  292000    252.58465   -3965.4491   -3532.5277   -3965.4491            0    1041.8266     18.06986    21.283908    22.045186    8478.5174    840.05978    1190.5978    1094.8222   -350.37443   -339.00863    1127.0421 
  292500    245.78746   -3933.1232   -3511.8519   -3933.1232            0    895.50636    18.008161    21.211235    21.969914    8391.9652    825.83834    1045.4956     815.1851    -464.6958   -738.60314   -505.23029 
  293000    229.60702   -3979.1407   -3585.6022   -3979.1407            0    526.23413    18.131116     21.35606    22.119919    8565.0359   -318.49018   -43.124058    1940.3166    132.26121   -392.92831    787.98552 
  293500    256.76024   -3955.8974   -3515.8192   -3955.8974            0    229.86137    18.226097    21.467935    22.235796    8700.3478    263.13366    59.112894    367.33757    374.98084    644.01933   -538.67163 
  294000    230.60771   -3940.1841   -3544.9304   -3940.1841            0    1411.1594    18.169789    21.401611      22.1671    8619.9597    4071.6029    874.40342    -712.5282    263.20942   -821.54684   -659.66193 
  294500    262.32106    -3961.342   -3511.7327    -3961.342            0    1885.6041    18.179781    21.413381    22.179291    8634.1891    1807.3999    709.51922    3139.8931    401.51116    55.633846    965.67142 
  295000    242.75108   -3920.3335   -3504.2665   -3920.3335            0    1327.7219    18.054078    21.265319    22.025933    8456.3225    3201.6215    576.00923    205.53515    634.34638   -66.973609   -749.88755 
  295500    257.66856   -3938.5264   -3496.8913   -3938.5264            0     1126.451    18.156537    21.386003    22.150933    8601.1134   -9.6104687    1383.1213    2005.8423    629.55329   -1621.4224    582.88481 
  296000    247.50841   -3946.2733   -3522.0523   -3946.2733            0     1298.284    18.183311    21.417538    22.183597    8639.2186    387.72538    2190.0761    1317.0506   -861.90961      288.381    174.24866 
  296500    253.47231   -3964.0099    -3529.567   -3964.0099            0    2270.8358    18.103702     21.32377    22.086474    8526.2441    4086.0648    1877.3471     849.0955   -1808.1387   -83.068365    1870.6218 
  297000    259.85101    -3956.424   -3511.0483    -3956.424            0    1734.5163    18.121113    21.344277    22.107715    8550.8678    1508.1493     1278.134    2417.2656   -760.17137   -679.34282   -448.62775 
  297500    253.15471   -3944.5049   -3510.6064   -3944.5049            0    744.64847    18.185079    21.419621    22.185754    8641.7398    2683.6548   -573.50678    123.79744   -1299.9023   -538.02098   -36.708746 
  298000     250.7526   -3959.3663   -3529.5849   -3959.3663            0    1095.1143    18.172501    21.404805    22.170408    8623.8199    1536.1877    1168.7757    580.37942   -230.66245    93.527094    100.86345 
  298500    260.95752   -3959.2424   -3511.9702   -3959.2424            0   -1143.8499    18.125877    21.349889    22.113527    8557.6133    -1199.368    569.85743   -2802.0392    346.54586   -357.00733    23.408966 
  299000    256.24309   -3956.9556   -3517.7637   -3956.9556            0    900.19822     18.02364    21.229467    21.988799    8413.6241    871.59596    1166.2397    662.75902    1289.6668   -367.19544    1608.7659 
  299500    252.43087   -3949.8684   -3517.2105   -3949.8684            0    944.66175    17.990117    21.189981      21.9479    8366.7643    1067.9772    411.99881    1354.0092   -461.68234   -168.13105   -321.43302 
  300000    265.26493     -3957.45    -3502.795     -3957.45            0    1288.1795    17.936058    21.126308    21.881949    8291.5671     1815.338    2055.3371   -6.1367635   -425.60835   -409.89452     345.7199 
  300500    249.35711   -3965.4123   -3538.0228   -3965.4123            0     508.8546    18.087356    21.304516    22.066532    8503.1692    434.53575    1168.8244   -76.796331   -1250.0869   -1289.1263    313.88714 
  301000    244.73289   -3947.5499   -3528.0861   -3947.5499            0     864.4373    18.091229    21.309078    22.071257    8508.6335   -920.07831    2467.6288    1045.7614   -1265.8543    969.77503    975.12514 
  301500    254.23584   -3933.3418   -3497.5903   -3933.3418            0   -348.75579    18.125029     21.34889    22.112493    8556.4128   -458.12971    501.69056   -1089.8282   -454.86802    -141.4659    263.58962 
  302000    246.56598    -3922.627   -3500.0214    -3922.627            0   -486.42377    18.135917    21.361714    22.125776    8571.8416    -382.3779    198.89189   -1275.7853   -814.68271   -361.37154    392.01803 
  302500    238.26826   -3913.8517   -3505.4681   -3913.8517            0    673.73829    18.003673    21.205948    21.964438     8385.692    1489.1653    1383.2517   -851.20203    333.20273    -853.3289    1050.6728 
  303000    263.93755   -3920.7638   -3468.3839   -3920.7638            0    698.34139    17.953362     21.14669     21.90306    8315.5884     810.0379    1454.6035   -169.61721    882.03546    464.39056   -32.226545 
  303500    248.87242   -3912.6287   -3486.0699   -3912.6287            0     1632.215    18.001264    21.203112    21.961501    8382.3276    1311.3194    3223.7097    361.61586    178.22566   -13.852282   -480.22915 
  304000    250.87676    -3934.148   -3504.1538    -3934.148            0    1075.3699    17.948538    21.141007    21.897174    8308.8865     1945.613    1464.1322   -183.63562   -215.00912   -58.885453   -1267.6766 
  304500    247.79466   -3866.3229   -3441.6114   -3866.3229            0    675.69688    18.076489    21.291716    22.053274    8487.8528    1611.5046    399.97216    15.613872    110.58633    -781.2211    873.71603 
  305000    256.15919   -3912.3396   -3473.2915   -3912.3396            0    1129.1356     18.02864    21.235357    21.994899    8420.6287    825.05589    2432.6887    129.66234   -508.86325    -827.9109   -2026.9577 
  305500    250.20103   -3911.0895   -3482.2535   -3911.0895            0    1641.6708    17.970921    21.167371    21.924482    8340.0106    2324.1745    929.64865    1671.1893   -1080.2294   -571.32023    596.27627 
  306000    246.92187    -3931.897   -3508.6814    -3931.897            0   -283.19147    18.150694     21.37912    22.143804    8592.8115   -937.30771   -762.09282    849.82613   -84.069252    -487.3519   -530.02859 
  306500    243.74474   -3915.2003   -3497.4301   -3915.2003            0   -84.699748    18.051202    21.261931    22.022424    8452.2816   -1960.1794    146.66029    1559.4199    1308.1163   -311.21803    1194.9248 
  307000    248.89836   -3912.3174   -3485.7141   -3912.3174            0   -785.58387    18.028478    21.235165    21.994701    8420.4007   -923.59998   -115.71816   -1317.4335    51.629247   -225.96374    954.28821 
  307500    235.85462   -3904.2388   -3499.9921   -3904.2388            0    635.99417    17.972674    21.169436     21.92662    8342.4512    844.80616   -26.757233    1089.9336    311.59339   -1341.7081   -382.33167 
  308000    258.68722    -3927.224   -3483.8429    -3927.224            0    1639.4742    18.045269    21.254943    22.015186    8443.9504    1460.8636    1005.2068    2452.3522   -948.47372   -989.46968   -455.95697 
  308500    253.45462   -3898.4256   -3464.0131   -3898.4256            0     1172.739    18.028322    21.234982    21.994511    8420.1829    2522.9665    1183.7917   -188.54132   -767.10195   -230.64611    407.87807 
  309000    252.43664   -3899.1743   -3466.5066   -3899.1743            0    847.82349    18.040435    21.249249    22.009289    8437.1662   -388.82823    343.85059    2588.4481    995.64532   -159.02588   -1111.7979 
  309500    263.27695   -3910.3647    -3459.117   -3910.3647            0    1067.7257    17.953684    21.147068    21.903452     8316.035      286.244    2577.0574    339.87555    1121.8076     39.28367   -4.8959246 
  310000    257.89258    -3882.315   -3440.2959    -3882.315            0    210.06541    17.991527    21.191642    21.949621    8368.7321   -52.208299    977.29945   -294.89492   -897.97627   -33.865527   -234.77304 
  310500    262.23325   -3845.3327   -3395.8739   -3845.3327            0    182.99317    18.094342    21.312745    22.075055    8513.0263    722.84935    27.760834   -201.63066     221.0773    -837.9697   -457.41791 
  311000    255.11315   -3916.4829   -3479.2277   -3916.4829            0    1002.0381    17.887943    21.069634    21.823249    8225.0172    3350.4974   -58.688561   -285.69444   -807.83767   -199.79345   -585.52982 
  311500    249.19166   -3908.9787   -3481.8727   -3908.9787            0    323.33761     17.95209     21.14519    21.901508    8313.8201    429.66928   -1383.9615    1924.3051    869.22625   -195.71098   -85.382315 
  312000    252.98807   -3900.0843   -3466.4714   -3900.0843            0    2417.2613    17.857508    21.033786    21.786119    8183.1062    2662.9561    2381.1152    2207.7127   -1828.5899    592.75699    270.72045 
  312500    235.80718   -3880.8185   -3476.6531   -3880.8185            0    1064.3669    17.870107    21.048626    21.801489    8200.4381     1057.184    1759.7875    376.12935    1429.2956    250.85969   -588.20425 
  313000    259.26745   -3922.3738   -3477.9982   -3922.3738            0     1172.947     17.90117    21.085214    21.839386    8243.2763    1392.2794    -66.26586    2192.8275    627.73817   -202.07905   -482.92803 
  313500    252.80373   -3915.1268   -3481.8298   -3915.1268            0   -786.73967    17.934655    21.124654    21.880237    8289.6203     562.5358    -2459.469   -463.28582    777.26245   -189.13624   -549.78992 
  314000    261.23971   -3897.4563   -3449.7003   -3897.4563            0    1666.4065    17.861663    21.038679    21.791187    8188.8183    4011.0136   -280.08316    1268.2889   -548.51859    98.808696    156.19009 
  314500    259.44071    -3903.708   -3459.0356    -3903.708            0    286.17736    17.855682    21.031634     21.78389    8180.5949    758.36183   -519.33631    619.50657    265.34403   -47.935313   -218.99808 
  315000    260.34867   -3900.0825   -3453.8538   -3900.0825            0    1874.1974    17.831245    21.002851    21.754077    8147.0534    1753.2515    2926.4534    942.88745     944.2876    1337.7763    571.99654 
  315500     245.8388   -3859.4882   -3438.1289   -3859.4882            0    1244.9935    17.943751    21.135369    21.891334    8302.2403    1350.0185    763.25709    1621.7049    298.29408   -22.957917   -106.38119 
  316000    260.74143   -3888.1027   -3441.2008   -3888.1027            0    746.42763    18.041141    21.250081    22.010149    8438.1563    110.31309    1064.5685    1064.4013    238.42544    364.78033   -232.17163 
  316500    249.17419   -3904.3063   -3477.2302   -3904.3063            0    641.89279    17.926631    21.115204    21.870448    8278.4999    987.77339   -726.89949    1664.8045    566.65279   -56.842016    406.52666 
  317000    244.72746   -3934.2372   -3514.7827   -3934.2372            0    1974.9154    17.864423    21.041931    21.794555    8192.6158    2088.3228    1917.3001    1919.1235    502.31955    734.85241    1280.4442 
  317500    244.92614    -3951.121    -3531.326    -3951.121            0    2054.0645    17.804388    20.971217    21.721312    8110.2967    2661.7417    2588.9964    911.45531    2008.7634   -738.08699   -87.073852 
  318000    253.17701   -3943.9171   -3509.9804   -3943.9171            0    2167.4655    17.862685    21.039884    21.792434    8190.2247    3798.4826    2791.2788   -87.365065   -126.26238    619.21426    1022.6845 
  318500    246.22527   -3924.9581   -3502.9364   -3924.9581            0    2069.4299    17.856075    21.032097    21.784369    8181.1351    1056.2722    4464.3925    687.62506    84.983141    215.23827    -187.9921 
  319000    250.88413   -3924.7114   -3494.7046   -3924.7114            0    322.69863    17.957477    21.151537    21.908081    8321.3077    121.03124   -271.82616    1118.8908    179.95536    233.98886   -19.327979 
  319500    236.11235   -3909.8036   -3505.1151   -3909.8036            0    2872.1412    17.865268    21.042926    21.795585    8193.7779    4890.5426    1595.1838    2130.6972    865.70744    713.53212   -753.43479 
  320000    256.37512   -3951.5048   -3512.0866   -3951.5048            0    808.41367    17.997216    21.198343    21.956561     8376.673   -873.59481    1910.3676    1388.4682   -379.08301    157.89103    393.93896 
  320500    241.50127   -3931.4055   -3517.4806   -3931.4055            0     1005.668    17.883481    21.064379    21.817805    8218.8639    2157.9701    1378.0509   -519.01716     108.8375   -499.39645   -292.84367 
  321000    220.33122   -3915.8181   -3538.1779   -3915.8181            0    1804.4854    17.933938     21.12381    21.879362    8288.6264    1450.1677    3368.7162    594.57224    530.97618   -659.99456    1570.0754 
  321500    245.45825   -3942.2434   -3521.5364   -3942.2434            0    1833.4594    17.913203    21.099387    21.854066    8259.9103    2119.2648    2117.6127    1263.5006   -117.88206    1108.0056    782.98888 
  322000    251.95897   -3914.3115   -3482.4624   -3914.3115            0    1776.3102    17.887026    21.068554     21.82213    8223.7519    1255.6403    1567.7107    2505.5796     22.24754    524.32476    1712.4543 
  322500    247.13712   -3931.4108   -3507.8262   -3931.4108            0    1698.6081    17.900045    21.083889    21.838014    8241.7226    2613.8595    1634.9359    847.02898   -440.71124    1002.3742    500.04207 
  323000    250.94277   -3905.5673     -3475.46   -3905.5673            0    148.02057    17.942442    21.133827    21.889737    8300.4234   -40.701151     528.4389   -43.676028    162.27351    13.850807   -83.843032 
  323500     241.7221   -3907.8979   -3493.5945   -3907.8979            0    1429.2204    17.914883    21.101366    21.856116    8262.2352     580.4843    799.69835    2907.4785   -220.68465    1164.7045    113.40006 
  324000    245.35013   -3920.3194   -3499.7976   -3920.3194            0    1750.4814    17.843108    21.016825     21.76855    8163.3257       492.17    1779.3379    2979.9362   -831.84358    594.32895    1287.8733 
  324500    250.34991   -3894.5561   -3465.4649   -3894.5561            0    3038.6733    17.891241    21.073518    21.827272    8229.5665    3542.2614    3077.9585    2495.8001   -13.032835   -80.190863   -444.49214 
  325000    250.02819   -3905.8098     -3477.27   -3905.8098            0    994.83873     17.93706    21.127487    21.883171    8292.9556   -174.00232    1017.9218    2140.5967    746.91259    486.93406   -172.90088 
  325500    253.63422   -3894.1514    -3459.431   -3894.1514            0    1040.2432    17.936461    21.126782    21.882441    8292.1257    931.43005    1774.0516    415.24779    455.93292    199.61409    155.82754 
  326000    246.26899   -3916.8673   -3494.7706   -3916.8673            0    195.27281    18.028393    21.235066    21.994598    8420.2827    823.70312   -1099.9528    862.06812   -1563.8267    1335.2836    1032.1062 
  326500    245.68947   -3895.0345   -3473.9312   -3895.0345            0    182.66032    18.070816    21.285034    22.046353    8479.8641    493.14924    127.23561   -72.403891    673.91299    -874.5524   -142.06273 
  327000    266.71448   -3915.7389   -3458.5994   -3915.7389            0    236.06487    18.064126    21.277155    22.038192    8470.4499    880.67208     382.0917   -554.56917   -356.82338    559.55591    383.93087 
  327500    244.14903   -3944.9357   -3526.4726   -3944.9357            0    1946.7118     17.95862    21.152883    21.909475    8322.8965     1133.618    3383.5301    1322.9873   -1224.2425    626.41721    274.42439 
  328000    244.15282    -3905.889   -3487.4194    -3905.889            0   -540.82937    17.994564     21.19522    21.953326    8372.9709   -1306.4298    221.37507    -537.4334   -201.84759   -928.55412    306.38311 
  328500    251.43297    -3920.605   -3489.6575    -3920.605            0    286.44763    18.010324    21.213783    21.972554    8394.9903    1100.2167   -111.07734   -129.79651   -346.30676    265.97084   -645.17904 
  329000    257.90587   -3936.4055   -3494.3637   -3936.4055            0    1584.5036    17.996548    21.197556    21.955746    8375.7401     3385.913    445.21756    922.38039   -703.62522   -63.953504   -342.93736 
  329500    237.82524   -3944.2033    -3536.579   -3944.2033            0     538.8602    17.944892    21.136712    21.892726    8303.8239    945.12246    329.04953    342.40859    -847.7773   -1680.3368   -878.79508 
  330000    245.54807    -3932.178    -3511.317    -3932.178            0    249.28139    18.017662    21.222425    21.981505    8405.2544   -853.16396    838.35632    762.65183    146.71166   -878.03146    377.55575 
  330500    258.00669   -3960.7099   -3518.4953   -3960.7099            0     2345.842    17.903824     21.08834    21.842623    8246.9428    2336.4355    1975.8137    2725.2767   -826.74262   -572.65233    419.00492 
  331000    236.42498   -3946.1263    -3540.902   -3946.1263            0    759.49563    17.910105    21.095738    21.850286    8255.6254    1149.9049    214.10708    914.47489    94.159964   -496.37355    455.78283 
  331500    258.47145   -3963.1834   -3520.1722   -3963.1834            0   -84.587677    17.971785    21.168388    21.925535    8341.2127    1639.3998    -992.6886   -900.47429    149.70874   -136.99261    659.20264 
  332000    255.49051   -3946.7077   -3508.8057   -3946.7077            0    1585.8406    17.967216    21.163008    21.919962    8334.8536    2342.9865    1763.4138     651.1215   -816.08833   -1237.2852    -1037.486 
  332500    264.34405   -3939.0206   -3485.9439   -3939.0206            0     1111.766    17.954076     21.14753    21.903931    8316.5805    633.48094    399.06586    2302.7511    1089.1554    406.32393   -914.60323 
  333000    252.70931    -3947.675   -3514.5399    -3947.675            0    2103.1024    17.976301    21.173708    21.931045    8347.5031    3181.1038    1813.3897    1314.8137    408.40945     -466.436   -1046.8427 
  333500     265.5722   -3914.4076    -3459.226   -3914.4076            0     20.31654    17.983672     21.18239    21.940037    8357.7752    490.55949   -939.66064    510.05078   -780.30851   -1635.2113    483.60606 
  334000    254.06859   -3926.6467   -3491.1819   -3926.6467            0    1844.0469    17.921721     21.10942    21.864458    8271.6993    1972.9926    861.37442    2697.7737   -408.74882    116.80669    35.793273 
  334500    245.10757   -3905.9323   -3485.8263   -3905.9323            0    1312.0494    17.908159    21.093446    21.847912    8252.9348    1526.4175    422.03589    1987.6948    1374.9871   -1041.9328    928.01318 
  335000    241.29641   -3934.0872   -3520.5134   -3934.0872            0    34.097337    17.899057    21.082725    21.836808    8240.3571    937.67564     330.7668   -1166.1504   -66.864271   -1332.0588   -1183.0287 
  335500    261.14729   -3893.8094   -3446.2119   -3893.8094            0    345.84537    17.867962    21.046099    21.798871    8197.4848   -257.75416    751.95239    543.33788     1647.897   -1537.7141   -1038.6714 
  336000    267.57526   -3880.5467   -3421.9319   -3880.5467            0    1778.7715    17.826917    20.997754    21.748798    8141.1235    2291.6174    1833.7638    1210.9332    100.13067   -1969.0649    20.200323 
  336500    260.85659   -3909.7445   -3462.6452   -3909.7445            0    740.08519    17.979919     21.17797    21.935459    8352.5444    35.499757    2747.5703   -562.81453   -800.21971   -751.47053    5.7958935 
  337000    256.03758     -3895.39   -3456.5504     -3895.39            0     877.8383    17.967043    21.162804    21.919751    8334.6131    1765.9165    -233.8163    1101.4147   -849.84693   -127.14738    314.88508 
  337500     247.4355   -3888.3348   -3464.2388   -3888.3348            0    2027.1224    17.935956    21.126186    21.881824    8291.4244     3884.425    907.09597    1289.8462   -39.200331    349.47658   -278.82423 
  338000    227.08689   -3921.1429   -3531.9238   -3921.1429            0    1293.4229    17.905364    21.090154    21.844502     8249.071    2522.2337    358.38281    999.65225   -1015.0538   -1106.4217    932.48368 
  338500     246.5421   -3925.0234   -3502.4587   -3925.0234            0    1039.6918    17.920854    21.108399      21.8634    8270.4989    2210.9789    774.57501    133.52134    -234.1627    697.36837   -948.46748 
  339000    248.63685   -3913.1293   -3486.9742   -3913.1293            0    1434.2284    17.944953    21.136785    21.892801     8303.909    1716.4885    1341.7682    1244.4285    16.798668    652.02508   -304.63403 
  339500    227.91403   -3908.3806   -3517.7438   -3908.3806            0    2043.1284    17.867697    21.045787    21.798549    8197.1209    2832.5234    1125.8356    2171.0264    542.95732    281.60425      830.001 
  340000    251.62003   -3913.3579   -3482.0898   -3913.3579            0    490.26228    18.053496    21.264634    22.025223    8455.5047     92.41646    151.93076    1226.4396     1624.368    17.405473    146.54619 
  340500    239.07984   -3883.9269   -3474.1522   -3883.9269            0    878.92268    18.049771    21.260246    22.020678    8450.2712    1140.4455    1110.5094    385.81314   -757.56398    -593.3256    193.91089 
  341000    252.73069   -3907.1819   -3474.0102   -3907.1819            0    303.87875    18.020019    21.225203    21.984382    8408.5546    1427.0316   -1158.1191    642.72375    431.24313   -50.639014   -447.05252 
  341500    252.13603   -3938.1775   -3506.0249   -3938.1775            0    1055.0747    18.000148    21.201797    21.960139    8380.7687    2599.9547   -800.50774    1365.7771    503.63671    32.742823   -98.172756 
  342000    252.56309   -3943.7398   -3510.8553   -3943.7398            0    142.28901    18.029355    21.236199    21.995771    8421.6303   -104.76902   -371.01652    902.65257    2070.2821   -697.59977   -448.60651 
  342500    226.09711   -3918.6793   -3531.1566   -3918.6793            0     774.1672    17.998571    21.199939    21.958214    8378.5652    92.575214     1662.219     567.7074    1607.7079   -117.28327   -111.44972 
  343000     235.8588   -3920.4569    -3516.203   -3920.4569            0    392.87799    18.018703    21.223651    21.982775    8406.7113    490.49555     1077.186   -389.04759    813.62329    238.45269    336.99537 
  343500    244.01146   -3940.8849   -3522.6576   -3940.8849            0    939.32371    18.011163     21.21477    21.973576    8396.1623    353.40619    460.90897     2003.656    740.61965   -65.468899    420.88752 
  344000    261.47816    -3969.856   -3521.6914    -3969.856            0    204.32745     17.99353    21.194002    21.952065    8371.5275   -255.04124    702.98315    165.04043    599.80578    114.53337   -130.55423 
  344500    256.79274   -3957.5662   -3517.4322   -3957.5662            0    342.96252    18.010153    21.213581    21.972344    8394.7499   -349.93528    1392.3667   -13.543851    253.26257    303.09137    512.82526 
  345000    260.03331   -3968.0565   -3522.3683   -3968.0565            0    1367.6509    18.063785    21.276752    22.037775    8469.9692    1732.2156    1021.6409    1349.0962    162.61804    517.88627   -109.11631 
  345500    244.09869   -3930.0869   -3511.7101   -3930.0869            0    366.86849    18.057589    21.269454    22.030216    8461.2562   -1198.9741    1193.8624    1105.7172    877.05233   -44.838766   -79.556667 
  346000    250.47149   -3927.8023   -3498.5027   -3927.8023            0    1589.1682    17.985175     21.18416    21.941871    8359.8709    290.76729    1157.9142     3318.823    652.30738   -290.32012   -942.12207 
  346500    244.47269   -3939.2346   -3520.2168   -3939.2346            0   -188.57174    18.007031    21.209904    21.968536     8390.386   -1079.4866    1021.8729   -508.10151    715.28341   -284.08555   -1279.6244 
  347000     260.7804   -3936.0192   -3489.0505   -3936.0192            0   -58.275247    18.066402    21.279836    22.040969    8473.6522   -414.57989   -412.62805    652.38219    1396.7916    1208.5861    732.10793 
  347500    253.61404   -3941.5604   -3506.8746   -3941.5604            0   -302.71512    17.986873    21.186161    21.943943    8362.2395   -333.31003    253.89284   -828.72816    1108.5761    153.79614   -550.49409 
  348000    226.80756   -3934.7762   -3546.0358   -3934.7762            0    610.13347    18.016058    21.220537    21.979549    8403.0104   -829.81553    2346.4613    313.75467   -453.49751   -591.80691    140.35152 
  348500    241.89871   -3938.1641    -3523.558   -3938.1641            0    448.93025    18.063314    21.276198    22.037201    8469.3076    442.75844    577.57259    326.45973    523.61651    82.298232   -1279.7215 
  349000    252.99799   -3998.8564   -3565.2266   -3998.8564            0    850.01523    18.069331    21.283285    22.044542    8477.7737    1267.3046    858.10838    424.63268    86.233834    1187.9706    1584.5141 
  349500    258.48822   -3911.6083   -3468.5683   -3911.6083            0    1736.8449    18.077302    21.292674    22.054266    8488.9975    1737.4679    1459.6091    2013.4577   -187.51399   -60.893944    185.12974 
  350000    250.32894   -3921.0983   -3492.0431   -3921.0983            0    1431.8189    18.048294    21.258507    22.018877    8448.1982    1338.4703    1423.9511    1533.0352   -408.78077    110.36042    243.07713 
  350500    249.10103   -3910.0426    -3483.092   -3910.0426            0    1475.4346    18.052818    21.263835    22.024396    8454.5517    1801.5511    949.85115    1674.9015    566.90444    1776.1578    1364.6202 
  351000    252.09457   -3934.9828   -3502.9013   -3934.9828            0   -1369.2311    18.179676    21.413257    22.179163    8634.0394   -1163.8891    -1850.172   -1093.6322   -467.44716    514.32729    199.42879 
  351500    261.50313   -3937.8901   -3489.6827   -3937.8901            0    1810.2633    18.023551    21.229362     21.98869    8413.4991    2457.9825    1554.9084    1417.8991    326.55225    549.73626    131.51721 
  352000     246.2684   -3898.5026    -3476.407   -3898.5026            0    810.09044    18.115874    21.338107    22.101324    8543.4535    562.61788    1718.6867    148.96679    1027.1071    124.77183   -490.72179 
  352500    256.43643   -3963.0809   -3523.5576   -3963.0809            0    2065.1072    18.008542    21.211683    21.970379    8392.4975     2146.159    2968.5023    1080.6602    355.27324    1162.4332    307.61819 
  353000    230.90505   -3940.9342   -3545.1709   -3940.9342            0   -19.115707    18.198604    21.435552    22.202255    8661.0359     298.5005   -163.36599   -192.48163   -900.01905    832.90612   -296.93902 
  353500    248.20356   -3964.5347   -3539.1223   -3964.5347            0    2897.6489    18.067868    21.281561    22.042756    8475.7138    2004.7323    3547.4632    3140.7511    1112.0087    203.67671   -561.94659 
  354000    246.20185   -3925.6288   -3503.6472   -3925.6288            0    1551.6359    18.081534    21.297658    22.059429    8494.9611    805.63113    2574.6479    1274.6288    92.074183    1068.2554    119.57282 
  354500    252.28867   -3911.2916   -3478.8775   -3911.2916            0    895.22562    18.096791    21.315629    22.078043    8516.4832     1269.881    501.79747    913.99841    621.77308    1447.0586    1244.8761 
  355000    252.84508   -3922.2794   -3488.9116   -3922.2794            0    1024.4681    18.132179    21.357312    22.121216    8566.5426     439.3667    1548.3606    1085.6771    1278.2509    543.94052    38.753517 
  355500    238.87645    -3935.159    -3525.733    -3935.159            0    1657.1177    18.037826    21.246177    22.006106    8433.5067    482.53634    3474.3638    1014.4528    116.31681   -91.782684    776.97539 
  356000    251.66905    -3921.706   -3490.3538    -3921.706            0    995.98657     18.05559      21.2671    22.027777    8458.4467     1292.456    347.93664    1347.5671    53.992736   -329.47645    117.90402 
  356500    249.56109   -3946.6937   -3518.9545   -3946.6937            0    1357.1606     18.10356    21.323602    22.086301    8526.0431    2014.5249    942.63757    1114.3195   -1180.0999   -153.65053    443.99309 
  357000    255.63929   -3931.2228   -3493.0658   -3931.2228            0    1083.5375    18.128659    21.353166    22.116922    8561.5551    552.17042    2610.8182    87.623774    348.32077    -783.7033   -201.68682 
  357500    261.06553    -3906.205   -3458.7476    -3906.205            0    1623.8899    18.112837     21.33453    22.097619    8539.1578    1125.6883    2789.8923    956.08897    1033.2937    50.892711   -992.87817 
  358000    245.18296   -3922.6893   -3502.4541   -3922.6893            0    184.13671    18.224161    21.465654    22.233434    8697.5755    1114.4681   -860.27259    298.21464    921.44627    492.47143   -425.62369 
  358500     250.6332   -3942.2464   -3512.6697   -3942.2464            0    945.23097    18.147308    21.375131    22.139673    8588.0033    1176.7296    1078.3189    580.64436   -56.358417    -160.4555   -688.44487 
  359000    252.02929   -3972.1705   -3540.2009   -3972.1705            0    1755.5293    18.108636    21.329581    22.092493    8533.2168    2878.9615    306.52617    2081.1003   -87.981996    -199.2631   -539.18999 
  359500    248.75563   -3927.8346    -3501.476   -3927.8346            0   -386.62208    18.170994    21.403031     22.16857    8621.6749   -476.61158   -686.35653    3.1018831    164.14901   -868.35595    659.16675 
  360000    253.25027   -3957.7946   -3523.7323   -3957.7946            0    1574.4753    18.078721    21.294346    22.055998    8490.9974     1060.079    1477.0944    2186.2525   -157.07734     1068.275    684.36086 
  360500    244.12713   -3957.8318   -3539.4062   -3957.8318            0    722.20614     18.17259    21.404911    22.170518    8623.9474   -415.41354    777.69003    1804.3419   -546.81464    1151.3386   -84.415605 
  361000    254.17119   -3965.3039   -3529.6632   -3965.3039            0    1745.0763    18.146946    21.374705    22.139232    8587.4895    1441.7016    2434.4216    1359.1056   -8.0742088   -818.75272    184.40917 
  361500    243.74292    -3946.662   -3528.8949    -3946.662            0   -178.79615    18.154323    21.383395    22.148232    8597.9673   -67.840076    6.2184703   -474.76685   -673.47553   -1173.8182   -594.42994 
  362000    243.57493   -3938.2502   -3520.7711   -3938.2502            0    1415.1071    18.089353    21.306868    22.068968    8505.9861    1215.1218    1519.4825     1510.717    330.31038   -237.50747   -415.50636 
  362500    248.13428   -3944.1523   -3518.8586   -3944.1523            0   -735.48844    18.180939    21.414744    22.180703    8635.8383   -2124.7401    1675.4408    -1757.166    227.95927   -830.18944   -81.685796 
  363000    258.16187   -3952.9096   -3510.4289   -3952.9096            0    1739.1942      18.0782    21.293732    22.055362    8490.2633    1347.8895    2590.2658    1279.4273    483.34153    1125.4243    269.69262 
  363500    258.37443    -3938.269   -3495.4241    -3938.269            0    667.99784    18.019731    21.224863     21.98403    8408.1512   -872.52632    301.89696    2574.6229     1445.037    234.39125     1022.806 
  364000    253.01877    -3956.597   -3522.9315    -3956.597            0    784.98377     17.98511    21.184084    21.941792    8359.7807     1459.879   -32.698357    927.77061    311.84249   -217.49584   -489.46096 
  364500     252.2866   -3975.1774   -3542.7668   -3975.1774            0     -15.5419    18.006389    21.209148    21.967753    8389.4884   -1270.3086    1184.1499    39.533006    1363.1008   -25.807099   -109.03085 
  365000    245.85995    -3939.683   -3518.2875    -3939.683            0   -272.94864    18.093114    21.311298    22.073557    8511.2928    896.83017   -1275.5563   -440.11977   -724.14867   -422.69351   -584.42507 
  365500    245.57828    -3941.734   -3520.8212    -3941.734            0    2037.0595     17.96287    21.157888     21.91466    8328.8067    3373.3883    1222.6931    1515.0972   -194.32498   -468.98379    30.962025 
  366000    254.57393   -3909.7462   -3473.4152   -3909.7462            0    1001.8075    17.942417    21.133797    21.889706    8300.3881    2518.5011    274.01587    212.90564   -361.03702   -531.23912   -417.46351 
  366500    247.82267   -3936.5738   -3511.8142   -3936.5738            0    1455.4699    17.910649    21.096378    21.850949    8256.3773    232.06136    1913.5127    2220.8356    794.52382    10.271958   -846.99341 
  367000    247.29914   -3943.1769   -3519.3146   -3943.1769            0    452.50267    18.011886    21.215623    21.974459    8397.1743    -277.1754    911.46874    723.21466    289.12112   -646.49046    54.538415 
  367500    254.49346   -3928.7133   -3492.5202   -3928.7133            0    2124.4546    17.980392    21.178526    21.936036     8353.203   -201.65549    3844.4743     2730.545   -1375.4884    119.71479   -160.26458 
  368000    244.57772   -3907.5173   -3488.3195   -3907.5173            0    582.85979     18.00081    21.202576    21.960946    8381.6921    445.22078    121.18311    1182.1755    336.01225   -442.16912   -1655.6006 
  368500    258.96702   -3926.8434   -3482.9828   -3926.8434            0   -519.54245    17.951024    21.143935    21.900207    8312.3395   -975.59336   -1458.9855    875.95148    238.77965   -205.02841    137.69308 
  369000    256.54136    -3927.357   -3487.6538    -3927.357            0    351.62999    17.955084    21.148718    21.905161    8317.9813   -591.87514    544.27747    1102.4876   -488.68542    73.938393    376.09134 
  369500    257.84101   -3967.9409   -3526.0102   -3967.9409            0    1016.9395    17.920173    21.107597    21.862569    8269.5557    1636.3752    1307.4925    106.95091   -348.16318    276.76281    254.99836 
  370000    259.47263   -3969.1357   -3524.4085   -3969.1357            0    1111.4394    17.918396    21.105504    21.860402    8267.0964    282.77668    253.66499    2797.8765    366.03135    635.46889    1416.5926 
  370500    236.40881   -3967.8566     -3562.66   -3967.8566            0   -407.57084    17.971916    21.168544    21.925696    8341.3963    35.270764   -946.71933   -311.26397    1258.7488    772.04239    965.80342 
  371000    245.27816   -3948.7324    -3528.334   -3948.7324            0     546.6606    17.985838    21.184941     21.94268     8360.796    547.22358    1084.6101    8.1481317   -53.507686    -2036.445    1521.7373 
  371500    245.28505   -3933.7143   -3513.3041   -3933.7143            0    712.09489      17.9675    21.163342    21.920308    8335.2486    1691.9738    -386.9875    831.29834    -123.8637   -1619.5004    243.75058 
  372000    248.24733   -3962.7673   -3537.2799   -3962.7673            0    1688.4265    17.939262    21.130081    21.885858    8296.0109    1499.2132    1904.3639    1661.7025   -229.01774   -392.60546    14.849402 
  372500    246.60281   -3976.8993   -3554.2305   -3976.8993            0    1379.7044    17.944146    21.135833    21.891816    8302.7881    2139.2842    600.99677    1398.8322    938.54471   -650.59892    -205.4653 
  373000    241.84598   -3978.5159   -3564.0001   -3978.5159            0   -431.84464    18.018446     21.22335    21.982462    8406.3528   -1158.4493   -1909.0717     1771.987    282.65478   -303.22835   -44.479773 
  373500    248.51865   -3955.5085    -3529.556   -3955.5085            0     921.4512    17.970247    21.166577    21.923659    8339.0721    894.61691    1638.5873    231.14942    1015.1867   -21.041374     1092.497 
  374000    274.73873   -3970.8797   -3499.9869   -3970.8797            0    1061.5501    17.931707    21.121182    21.876641    8285.5337    1337.4541     2692.983   -845.78665    474.47576   -236.74498   -319.22199 
  374500     252.4925   -3911.5401   -3478.7766   -3911.5401            0    30.551292    18.082883    21.299247    22.061075    8496.8626   -1386.6952    783.94176    694.40734   -738.93489   -59.145342    1804.5184 
  375000    266.98676   -3940.4618   -3482.8556   -3940.4618            0   -33.575579    18.013045    21.216988    21.975873    8398.7955   -269.15615    -165.9409    334.37031    886.67339      29.1316    169.52438 
  375500    241.90562   -3945.4207   -3530.8028   -3945.4207            0    2711.6775     17.95099    21.143895    21.900166    8312.2918    2332.8346    3601.9724    2200.2255   -322.78478    480.35577    250.28743 
  376000    248.55388   -3937.3132   -3511.3004   -3937.3132            0   -109.77488    18.067239    21.280821     22.04199    8474.8297   -747.36821    107.00972    311.03387    311.79938   -116.12375    55.403691 
  376500    261.00571   -3935.3463   -3487.9915   -3935.3463            0    1733.2479     17.95876    21.153047    21.909645    8323.0904    1773.6056    1944.1139    1482.0241    776.04559    98.054709   -108.97542 
  377000    241.27747    -3955.504   -3541.9627    -3955.504            0    356.27875    18.012301    21.216111    21.974965    8397.7541    1028.0555    226.25507   -185.47434   -94.821776    269.91442    168.44661 
  377500    239.23512    -3941.761   -3531.7202    -3941.761            0    539.24647    18.028374    21.235043    21.994574    8420.2556     862.7995   -398.66875    1153.6087   -371.36715   -982.82593   -1198.3011 
  378000    247.45416   -3942.2727   -3518.1447   -3942.2727            0    1199.4598    17.993922    21.194464    21.952543    8372.0752    308.31214    1181.3693    2108.6978    -504.1078    1518.6758   -739.44737 
  378500    261.49403   -3964.6595   -3516.4677   -3964.6595            0    1164.5698    18.034711    21.242507    22.002305    8429.1379    726.17344    398.15556    2369.3803    426.28416    446.25156   -613.22914 
  379000    244.11736   -3958.5682   -3540.1594   -3958.5682            0    1877.2712    18.001517    21.203409    21.961808      8382.68    1779.0188    903.28192    2949.5127   -423.77311    844.37528    435.15046 
  379500    246.07785    -3970.165    -3548.396    -3970.165            0    2113.9497    17.983547    21.182243    21.939885    8357.6013    2316.5735    398.30482    3626.9708   -545.74723    1047.9564    -129.9441 
  380000    245.28334   -3971.8811   -3551.4738   -3971.8811            0    3150.3254    17.929322    21.118373     21.87373    8282.2275    2633.4993     3558.264    3259.2129    604.70614     300.9344    1314.4103 
  380500    256.43111   -3918.4438   -3478.9297   -3918.4438            0    196.03007    17.913631    21.099891    21.854588    8260.5019    317.22998    577.53801    -306.6778    328.61644    107.93467    969.68791 
  381000    251.92043   -3952.7418   -3520.9588   -3952.7418            0    2110.3472    17.943629    21.135225    21.891186    8302.0713    2537.0027    841.19703    2952.8418   -694.55515   -28.431679   -487.64184 
  381500    250.31849    -3910.638   -3481.6007    -3910.638            0    1767.2554    17.953204    21.146503    21.902867    8315.3687    1085.1695    1640.7063    2575.8903   -547.59208    1151.2764   -237.42241 
  382000    258.25572   -3969.0882   -3526.4468   -3969.0882            0   -630.01204    18.055448    21.266932    22.027604    8458.2471   -402.46866    -243.6123   -1243.9552    1402.8906   -1384.2537   -245.07258 
  382500     267.0479   -3934.9412   -3477.2303   -3934.9412            0    2437.0464    17.974978     21.17215    21.929432    8345.6606    2299.2147    2543.7274    2468.1971    265.27134    597.96496   -241.22996 
  383000    256.16217    -3916.908   -3477.8548    -3916.908            0    96.262362    18.105031    21.325335    22.088095    8528.1217    1153.1532   -162.84147   -701.52463    413.50103    -882.5083    633.94816 
  383500    264.67052   -3916.0627   -3462.4265   -3916.0627            0   -1148.5842     18.02407    21.229974    21.989323    8414.2262    542.47928   -2626.0171   -1362.2149    385.41882   -685.66986   -545.62012 
  384000    246.25663   -3959.0626   -3536.9872   -3959.0626            0    1508.9593    17.909602    21.095146    21.849673    8254.9304    1716.7229    1901.3758    908.77926    1079.3172   -2055.1779    -536.6488 
  384500    253.57367   -3936.8347   -3502.2181   -3936.8347            0    1026.5357    17.953049    21.146321    21.902678    8315.1532    236.20994    1331.6562    1511.7409    120.67149    375.14425    247.19355 
  385000    244.79503    -3929.849   -3510.2787    -3929.849            0    609.28419    17.979952    21.178008    21.935499    8352.5895    1721.3417   -942.06654    1048.5774    -565.6039     38.65804   -149.62713 
  385500    254.13992   -3934.7545   -3499.1673   -3934.7545            0    2266.9332    17.982602    21.181129    21.938732    8356.2832    1303.9545     3801.054    1695.7912   -232.37706   -1270.3545     361.9994 
  386000    245.25181   -3930.7127   -3510.3595   -3930.7127            0    2126.2803    18.026271    21.232566    21.992009    8417.3094    1803.4386    2145.2556    2430.1466     1138.216   -184.09591    176.35662 
  386500    248.50697   -3952.3919   -3526.4595   -3952.3919            0    2438.7316    17.971313    21.167833     21.92496    8340.5559    3897.7833    1465.9918    1952.4199    866.85825    293.50003    1092.0651 
  387000    240.21818   -3938.0927    -3526.367   -3938.0927            0    1740.4911    17.999126    21.200593    21.958892    8379.3405    1428.8563    617.94624    3174.6706    801.31464   -230.85037   -230.10144 
  387500    258.20864   -3951.2616   -3508.7008   -3951.2616            0   -184.17921    17.981551    21.179892    21.937451    8354.8194    418.49982    -1368.452    397.41461    167.27762    228.66238    260.29274 
  388000    235.26404   -3939.6865    -3536.452   -3939.6865            0    2525.0489    17.970134    21.166445    21.923522    8338.9154    4091.3428    1486.0607    1997.7431   -820.78507   -920.69816    598.34598 
  388500    237.54645   -3978.4938   -3571.3473   -3978.4938            0    1391.6655    17.986785    21.186057    21.943836    8362.1166    1855.3046    1382.7367    936.95512    420.71292    1145.8587    1116.4269 
  389000    256.38598   -3965.2953   -3525.8585   -3965.2953            0     943.9761    17.969558    21.165765    21.922818    8338.1123    1586.3276    1128.5315    117.06922   -690.92042    3.7866198    843.07234 
  389500    243.87945   -3952.6799   -3534.6789   -3952.6799            0    1394.2618    17.919613    21.106937    21.861886    8268.7808    795.53738    1462.3567    1924.8911    -228.5863    207.12501    1433.2195 
  390000    230.15447   -3961.9992   -3567.5223   -3961.9992            0   -270.79572    18.003822    21.206124     21.96462    8385.9003    704.49589    334.78867   -1851.6717    301.34647     508.7516    402.44664 
  390500    258.33103   -3950.0735   -3507.3029   -3950.0735            0    1286.6393    17.986982    21.186289    21.944076     8362.391    451.69757    2686.9821    721.23824     416.2736    1280.2474   -110.84507 
  391000    248.26234   -3962.5808   -3537.0676   -3962.5808            0    1339.7052    17.959515    21.153937    21.910567    8324.1412    1015.5245    956.74398    2046.8472    210.69035    33.873757    655.99403 
  391500    258.03987   -3935.7531   -3493.4816   -3935.7531            0    2729.9581    17.923632    21.111671    21.866789    8274.3456    2680.0729    2849.1306    2660.6709    747.29655   -1412.9124    -175.2665 
  392000    230.68824   -3976.1444   -3580.7526   -3976.1444            0    2156.3727    17.812341    20.980585    21.731014    8121.1698    2731.1611    2311.5305    1426.4265    1912.2891    1285.0801    1333.4878 
  392500    251.30661   -3938.2471   -3507.5162   -3938.2471            0    2179.0976    17.860183    21.036936    21.789381     8186.783    2681.8688    2252.6619    1602.7621   -277.35419   -2.7991346    697.82888 
  393000    259.00666   -3934.8246    -3490.896   -3934.8246            0      1997.62    17.843696    21.017516    21.769267    8164.1317    1832.4687    2198.3465    1962.0448    -201.3946   -1325.9834    161.05378 
  393500    249.25964   -3897.9545    -3470.732   -3897.9545            0     475.1893    17.960439    21.155024    21.911693    8325.4247    2580.4804   -33.741282   -1121.1712   -565.17705    1154.3814    76.884151 
  394000    243.47931   -3940.3316   -3523.0164   -3940.3316            0   -53.909171    17.946796    21.138956     21.89505     8306.468    89.874826    397.96772   -649.57006   -875.65276   -158.81443    361.49136 
  394500    239.30969   -3911.8018   -3501.6331   -3911.8018            0    1003.9737    17.967546    21.163396    21.920364    8335.3123    169.04937    3289.7609   -446.88923    724.23836   -161.63582     2441.274 
  395000    236.76407   -3904.8929   -3499.0874   -3904.8929            0    2785.3014    17.920245    21.107681    21.862656    8269.6549    4010.4641    2096.8872     2248.553   -383.31021    742.08125    808.77591 
  395500    238.65776   -3941.2973    -3532.246   -3941.2973            0    1848.8708    17.877625    21.057481    21.810661    8210.7925    879.78728    3744.2267    922.59841   -433.90842   -452.90173   -6.9227414 
  396000    242.87548   -3938.1082   -3521.8279   -3938.1082            0    1393.1984    17.949227    21.141818    21.898015     8309.843    528.41931    3270.7687    380.40712   -6.2312643   -490.30438    593.69225 
  396500     249.2928   -3940.5952   -3513.3158   -3940.5952            0    452.55039    17.949373    21.141991    21.898194    8310.0466    1507.0577   -92.211629   -57.194898    824.57538    1857.0091   -69.063078 
  397000    239.94252   -3952.8803    -3541.627   -3952.8803            0    296.71752     17.95464    21.148194    21.904619    8317.3638   -1144.4034    18.754819    2015.8012   -5.2998928   -679.01643    1199.9259 
  397500    253.79139   -3938.8535   -3503.8638   -3938.8535            0    300.57068    18.068301    21.282072    22.043285    8476.3238    319.14397    855.65863   -273.09057   -1266.5672    939.46128   -1420.7019 
  398000    247.59323     -3932.75   -3508.3837     -3932.75            0    2250.1809    17.936067    21.126318     21.88196    8291.5793    1443.5973    3301.7048    2005.2405   -328.84291   -667.73798    500.64345 
  398500     259.4848   -3920.0511   -3475.3031   -3920.0511            0    1245.2845    17.974317    21.171371    21.928625    8344.7397     1917.804    1205.9814    612.06822   -271.77772    1036.0355   -261.17028 
  399000    236.08627   -3964.5918    -3559.948   -3964.5918            0    2876.7407    17.892047    21.074468    21.828255    8230.6789    2801.8289    2122.0099    3706.3833     1716.305    1219.4738    2190.5085 
  399500    237.44653   -3942.6736   -3535.6984   -3942.6736            0     8.033318    17.949462    21.142095    21.898302    8310.1697    1372.7955   -375.71413   -972.98142    322.30646   -603.11245    970.64579 
  400000    254.74867   -3943.5941   -3506.9636   -3943.5941            0    1913.0743    17.922515    21.110355    21.865427    8272.7987    1081.8986    2597.1948    2060.1295   -1105.5408     104.1244   -836.50913 
  400500    247.51859   -3910.2243   -3485.9859   -3910.2243            0    1374.1064    17.924417    21.112596    21.867747    8275.4326    1745.5049    846.72242    1530.0919    690.98372   -87.255492   -1109.7297 
  401000    249.19274   -3932.7203   -3505.6124   -3932.7203            0    10.807223    18.146796    21.374529    22.139049    8587.2767   -426.32638   -195.28976    654.03781    182.02386   -1206.8798   -472.98731 
  401500    253.91398    -3919.825   -3484.6251    -3919.825            0   -872.53569    18.063977    21.276978    22.038009    8470.2392   -2017.5959    229.38958   -829.40079   -1315.0152    -43.08327    36.843163 
  402000    241.96311   -3907.6337   -3492.9172   -3907.6337            0   -1368.5241    18.053259    21.264355    22.024934    8455.1721   -1323.2472   -2266.3318   -515.99337   -936.83112    180.17815   -810.26465 
  402500    251.19177    -3923.343   -3492.8089    -3923.343            0    1467.1538    18.101526    21.321206    22.083819    8523.1694    1230.7475    78.942645    3091.7713    123.00203    530.84592    351.47037 
  403000    242.05211   -3921.2909   -3506.4219   -3921.2909            0      822.649    17.994084    21.194654    21.952741    8372.3011    968.94904   -13.714018     1512.712   -238.28925   -45.312955    725.84149 
  403500     242.6468   -3924.2514   -3508.3631   -3924.2514            0    693.89346    18.059616    21.271842    22.032689    8464.1067    1114.2682    96.256244    871.15592    38.747496   -780.23839   -1085.6551 
  404000    251.76019   -3949.6326   -3518.1243   -3949.6326            0    365.85826    18.032195    21.239544    21.999236    8425.6103    209.19726    598.80051    289.57701    142.78842    184.82762    143.31888 
  404500    254.35242   -3947.5994   -3511.6481   -3947.5994            0    2606.2306    17.902563    21.086855    21.841085    8245.2006    3300.1067    1907.1038    2611.4811   -749.22173   -577.11819   -496.43016 
  405000    249.62638   -3926.5369   -3498.6859   -3926.5369            0    475.66604    18.025889    21.232117    21.991543    8416.7747    618.68128    131.20642    677.11042   -773.38157   -916.33122    215.61154 
  405500    257.50832   -3913.5703   -3472.2098   -3913.5703            0   -538.13781    17.909801    21.095379    21.849915    8255.2046   -1511.5477   -828.71469    725.84894    281.05966   -337.15824   -512.24171 
  406000     254.7563    -3928.799   -3492.1554    -3928.799            0    1257.6536    17.927949    21.116756    21.872056    8280.3253     1630.473    1178.1924     964.2953    225.08964   -184.78772   -556.76255 
  406500    246.43009   -3908.3086   -3485.9359   -3908.3086            0    2059.0178    17.899106    21.082782    21.836867    8240.4245    1298.4367    2676.7584    2201.8584    1248.6989   -628.53204    312.97928 
  407000    239.20177   -3935.3374   -3525.3537   -3935.3374            0    1398.6695    17.859464    21.036089    21.788504    8185.7941   -44.580561     2416.732    1823.8571    -110.0837    614.20922   -241.81694 
  407500    253.25899   -3916.5854   -3482.5082   -3916.5854            0    2014.6384    17.837956    21.010756    21.762265    8156.2562    1460.7639    1837.1094    2746.0419    -768.6181   -165.49333   -103.61695 
  408000    241.81158   -3919.4144   -3504.9576   -3919.4144            0    949.60273    17.847854    21.022414     21.77434    8169.8409     1789.592    415.09326    644.12297    765.41721   -302.01947    396.31963 
  408500    260.50269   -3931.0505   -3484.5578   -3931.0505            0    602.27101    17.867412    21.045451    21.798201    8196.7285    178.66958    716.13194     912.0115   -540.07594    -98.51285   -380.68878 
  409000    253.63673   -3916.3686   -3481.6439   -3916.3686            0    689.11959    17.842661    21.016298    21.768004    8162.7115    385.60736    1534.4902    147.26116    896.16029    193.62192   -766.19493 
  409500    249.42575   -3906.8239   -3479.3167   -3906.8239            0    1314.4421    17.867358    21.045388    21.798135    8196.6542    645.99197    1592.3068    1705.0275    989.30562    753.44197   -582.18419 
  410000    257.85622   -3934.5584   -3492.6016   -3934.5584            0    1385.2286    17.876548    21.056212    21.809346    8209.3077    320.67311    1990.0569    1844.9559   -635.28013   -716.20785    863.83543 
  410500    253.45188   -3928.4941   -3494.0862   -3928.4941            0    239.74152    17.865463    21.043156    21.795823    8194.0467   -977.68648    337.59081    1359.3202     589.1302   -767.62601   -186.70617 
  411000    266.75769    -3899.135   -3441.9215    -3899.135            0    55.842508    17.873178    21.052243    21.805236    8204.6668     477.4265   -6.1620673   -303.73691    1542.1461    415.43266   -492.03615 
  411500    248.88598   -3908.2939   -3481.7119   -3908.2939            0    254.75125    17.934544    21.124523    21.880101    8289.4664    23.074053    464.24047    276.93924   -1185.8851    -193.1427     1631.935 
  412000    241.27664   -3876.1708   -3462.6309   -3876.1708            0    936.36533    17.968727    21.164787    21.921805    8336.9558    390.86883    583.67699    1834.5502   -206.19831   -229.99016   -59.271929 
  412500    254.52138   -3926.4819   -3490.2409   -3926.4819            0    1622.6517    17.857324    21.033569    21.785894    8182.8529     1963.755    2104.7022    799.49789   -454.62486   -467.83941   -539.63987 
  413000    244.31448   -3931.7059   -3512.9593   -3931.7059            0    1923.1994    17.783009    20.946036     21.69523    8081.1162    683.66095    1977.3596    3108.5777     -1084.05   -1093.7784    497.60538 
  413500    249.38658   -3932.8319   -3505.3918   -3932.8319            0    2386.9901    17.871954    21.050801    21.803742    8202.9804    917.79502    3654.3445    2588.8309    202.99349    78.716706   -50.054277 
  414000    245.56463   -3938.1069   -3517.2175   -3938.1069            0    2002.0175    17.847113    21.021542    21.773436    8168.8232    1322.9362     3173.407    1509.7093    759.97263   -540.61479   -1097.0528 
  414500    241.82994   -3931.3202   -3516.8319   -3931.3202            0     1399.686    17.906404    21.091378     21.84577     8250.508    1009.4534    1300.9729    1888.6319    807.72362   -1138.5547    -436.5261 
  415000    245.30165   -3924.7717   -3504.3331   -3924.7717            0    701.93603    17.886425    21.067846    21.821397    8222.9232   -57.051206    1880.8748    281.98451    606.76405   -1458.9868    -1556.263 
  415500    255.77493   -3935.3879   -3496.9984   -3935.3879            0     525.5681    17.875808    21.055341    21.808445    8208.2895    191.96053    342.50823    1042.2355    1086.9192   -153.73628   -748.66453 
  416000    258.82237   -3949.0396   -3505.4269   -3949.0396            0    1372.0158    17.939482     21.13034    21.886126    8296.3162    390.89753    682.86071    3042.2893   -549.32151    383.99296    546.60622 
  416500    260.79123    -3975.481   -3528.4938    -3975.481            0   -597.95832    17.913035    21.099189    21.853861    8259.6778   -557.57378   -1106.5078   -129.79341   -779.47191    -163.1829    658.82723 
  417000     251.9105   -3961.1551   -3529.3891   -3961.1551            0    1882.5062    17.814175    20.982745    21.733251    8123.6779    3341.6878    1688.7444    617.08641   -416.14612    189.31506    837.94202 
  417500    262.09466   -3926.1529   -3476.9316   -3926.1529            0    964.91489    17.897364    21.080731    21.834743    8238.0195    2124.3854    548.43123     221.9281   -232.33064   -1230.4467    657.83639 
  418000    236.51637   -3923.8794   -3518.4984   -3923.8794            0    1449.1128    17.855889    21.031879    21.784143    8180.8799     2263.854    256.16272    1827.3217   -417.31964   -594.50834    665.34389 
  418500    266.73439    -3928.406   -3471.2324    -3928.406            0    568.15046    17.969438    21.165625    21.922673    8337.9464    209.78406    1298.5493    196.11799   -354.62292   -447.01771    1480.5416 
  419000    255.75458   -3955.6773   -3517.3227   -3955.6773            0    1860.1851    17.815888    20.984762    21.735341    8126.0217    1499.3811    1266.9174    2814.2568    1093.2719   -1019.7639   -1298.9077 
  419500    250.78245   -3917.8926   -3488.0601   -3917.8926            0    647.91634    17.934489    21.124459    21.880035     8289.391   -1152.8701    2367.3183    729.30075   -57.768611    130.37358   -192.58982 
  420000    249.04967   -3943.1415   -3516.2789   -3943.1415            0    -521.0609    17.919542    21.106854      21.8618    8268.6826   -976.77488   -929.66734    343.25954   -310.30111   -292.21905    -2332.912 
  420500    257.02398   -3930.2946   -3489.7643   -3930.2946            0   -387.27488    17.990158    21.190029     21.94795    8366.8215     339.9416   -1786.8968    285.13053   -177.32193   -776.10897    -345.7068 
  421000    254.71612   -3894.6961   -3458.1214   -3894.6961            0   -788.20627    18.016084    21.220567     21.97958    8403.0466    373.02225   -746.76555   -1990.8755   -793.99755   -264.52593    761.23823 
  421500    252.82789   -3920.8181   -3487.4797   -3920.8181            0    911.68098    17.895326     21.07833    21.832256    8235.2051   -166.69894    990.57195    1911.1699   -1007.7476   -651.44603    -458.0808 
  422000    235.56365   -3892.5511    -3488.803   -3892.5511            0   -11.293074    17.908611    21.093978    21.848463    8253.5592   -739.95517   -167.61815     873.6941   -475.26119   -559.21444    531.57755 
  422500    237.35536   -3930.4185   -3523.5996   -3930.4185            0    499.73208     17.90146    21.085555    21.839739    8243.6766    342.94814   -486.50291     1642.751    384.24999   -1142.0051   -496.57135 
  423000    251.06537   -3911.9897   -3481.6722   -3911.9897            0    624.68539     17.90806    21.093329    21.847791    8252.7973     920.0753    1099.6574   -145.67651   -1383.5407    339.65715    347.88129 
  423500    258.11193   -3930.1516   -3487.7565   -3930.1516            0     602.6734    18.001889    21.203847    21.962262    8383.1996    349.13012    877.44468    581.44539   -1323.8878    181.42459   -439.35236 
  424000     241.5411   -3934.9026   -3520.9094   -3934.9026            0    1468.5045    17.933418    21.123197    21.878727    8287.9051    2284.6005    1582.0142    538.89873   -1591.1999      1027.23   -1160.6415 
  424500    267.45655   -3921.5483    -3463.137   -3921.5483            0    1513.5486    17.920069    21.107474    21.862442    8269.4115    1708.3285    2365.0832    467.23419   -852.97465    732.34138    334.56294 
  425000    263.56761   -3883.4284   -3431.6826   -3883.4284            0   -313.20377    18.104024    21.324149    22.086867    8526.6996   -167.29306   -365.61972   -406.69854   -295.13831    1841.4075    841.21516 
  425500    245.34366    -3909.403   -3488.8924    -3909.403            0   -226.25711    18.008233     21.21132    21.970002     8392.066    33.838449    181.72931   -894.33909    -930.7633   -792.72285   -67.036603 
  426000    259.17724   -3913.5457   -3469.3248   -3913.5457            0    2475.8606     17.92843    21.117322    21.872643    8280.9921    1395.1177    2920.0339    3112.4303   -639.55252    94.904252    220.40475 
  426500    250.79487   -3915.8981   -3486.0443   -3915.8981            0     1527.939    18.007027    21.209899    21.968531    8390.3801    3470.2239    793.54013    320.05289    1286.2171   -302.63291    707.85857 
  427000    242.79474   -3932.8486   -3516.7067   -3932.8486            0    2920.8155    17.982039    21.180467    21.938046     8355.499     4591.812     2949.934    1220.7005   -326.10896   -896.66168   -13.767664 
  427500    272.35516   -3944.3564    -3477.549   -3944.3564            0    1989.9163    17.911871    21.097818    21.852441    8258.0679    3110.8525    1470.3788    1388.5176    776.78901    471.39337    37.590664 
  428000    243.74617   -3922.7829   -3505.0103   -3922.7829            0    1531.1329     17.95952    21.153942    21.910572    8324.1475    686.16025     2468.011    1439.2273   -136.70442   -35.873008    49.222708 
  428500    264.64662   -3920.1222    -3466.527   -3920.1222            0    1354.0199    17.954867    21.148461    21.904895    8317.6788    1247.1551    1508.6427    1306.2617    515.44601    1588.3519    1121.3097 
  429000    246.48435   -3941.9699   -3519.5041   -3941.9699            0    1163.8174    17.971884    21.168505    21.925656    8341.3508    1828.1646     2096.407   -433.11953    17.489484    30.747597   -2.8845528 
  429500    263.86121   -3959.6122   -3507.3632   -3959.6122            0    493.54736    17.977683    21.175335    21.932731    8349.4278   -375.78697    2160.0823   -303.65323    172.40485    1388.4644     241.5223 
  430000      251.708   -3979.8199    -3548.401   -3979.8199            0    663.42009    17.864099    21.041549    21.794159    8192.1696    23.286855    84.719365    1882.2541   -504.74211    19.984985   -687.64155 
  430500    245.87382   -3954.2186   -3532.7993   -3954.2186            0   -97.512372    17.929688    21.118804    21.874178    8282.7355   -901.90243     753.0474   -143.68209   -149.77539    1014.2885    207.13477 
  431000    249.86132   -3916.0102   -3487.7565   -3916.0102            0    255.64147    17.974794    21.171933    21.929207    8345.4042    547.83404    463.90926    -244.8189   -332.84898    702.86155    -279.5021 
  431500    236.98088    -3921.231   -3515.0539    -3921.231            0   -676.05934    18.041175    21.250121    22.010191    8438.2039   -1355.8158   -16.932769   -655.42948   -29.495232   -301.75417    -948.4897 
  432000    263.82108   -3966.2012   -3514.0209   -3966.2012            0    1965.0645     17.91199    21.097958    21.852586    8258.2323    1453.2044    2462.8373    1979.1517   -373.44131    230.54551   -208.38813 
  432500    247.64166   -3931.3306   -3506.8812   -3931.3306            0    719.17676      17.9752    21.172412    21.929702    8345.9696    1106.6979    1229.6685   -178.83611    631.15318    -618.7012   -240.06762 
  433000    256.96534   -3924.3343   -3483.9045   -3924.3343            0     551.9261    18.004347    21.206743    21.965262    8386.6349    2120.2226   -728.88733    264.44304    785.86574    437.01409    997.60936 
  433500    256.68306   -3951.1394   -3511.1934   -3951.1394            0    942.15281    18.030437    21.237473    21.997091    8423.1463     1596.743   -552.84846    1782.5639   -612.12662   -789.45505   -584.92345 
  434000    256.15593   -3947.5453   -3508.5028   -3947.5453            0   -34.573257    18.111092    21.332474    22.095489    8536.6891    775.82329    185.11587   -1064.6589     15.06423    227.40572   -622.95721 
  434500    249.62114   -3896.1457   -3468.3036   -3896.1457            0    439.70106     18.04099    21.249903    22.009966    8437.9448    1513.8409   -493.84146    299.10376   -403.76759   -1078.7651   -965.06347 
  435000    249.56601   -3936.5568   -3508.8091   -3936.5568            0    760.26845    18.037579    21.245885    22.005804    8433.1593    631.42087    459.28084    1190.1036    -553.8282   -999.20574    58.862928 
  435500    227.97839   -3950.3076   -3559.5604   -3950.3076            0   -308.54075    18.071443    21.285773    22.047119     8480.747    41.830203     402.4779   -1369.9303   -776.98565   -143.09963    -704.1695 
  436000    244.23437   -3930.9519   -3512.3425   -3930.9519            0    698.44613    18.011941    21.215688    21.974527    8397.2517    936.37257   -270.95449    1429.9203   -273.49395    285.03509    409.07228 
  436500    252.85789   -3947.7736   -3514.3838   -3947.7736            0    332.57069    18.039331    21.247949    22.007942    8435.6173    1755.5955   -263.02623   -494.85721    1126.7941   -34.746008   -950.20064 
  437000     246.8729   -3919.1183   -3495.9866   -3919.1183            0    2018.3395    17.994345    21.194961    21.953059    8372.6647    2251.9391    3237.2908    565.78852    30.153085    1309.8776    301.27629 
  437500    250.36185   -3916.4777   -3487.3661   -3916.4777            0   -45.137174    18.009755    21.213113    21.971859    8394.1941    1869.6354   -624.56867   -1380.4782    590.67174    63.357286   -773.42913 
  438000    249.36724   -3940.8263   -3513.4194   -3940.8263            0    2007.9106    17.893866     21.07661    21.830475    8233.1897    2135.8683    1758.7665    2129.0969   -552.96378    -563.8647   -1233.5181 
  438500     251.6192   -3912.4567     -3481.19   -3912.4567            0    1901.3513    18.017821    21.222613    21.981699    8405.4775    2008.1096    2252.8436    1443.1008    367.80977    353.27501   -441.91393 
  439000    253.72772   -3879.7931   -3444.9125   -3879.7931            0    271.02435    17.933071    21.122789    21.878305    8287.4253    2354.9188   -1731.4435    189.59773    1809.0385     192.6369   -557.91152 
  439500    249.80211    -3909.734   -3481.5818    -3909.734            0    3032.2354    17.861253    21.038196    21.790687    8188.2545    1880.9747    4473.4254    2742.3059   -949.31828     12.15065   -818.22979 
  440000    236.14909   -3923.2628   -3518.5113   -3923.2628            0    1464.8905    17.872461    21.051399    21.804361    8203.6797    2248.2691     943.8761    1202.5264    497.26951    539.06203   -1505.6755 
  440500    248.92748   -3981.1587   -3554.5055   -3981.1587            0    1759.6081    17.868098    21.046259    21.799038    8197.6724    2789.9667    3653.0768   -1164.2193    167.42935    370.84324   -165.67257 
  441000     230.5447   -3951.5358   -3556.3901   -3951.5358            0    1622.1834    17.837502    21.010221     21.76171    8155.6328    1524.2577    2696.8517    645.44068    1281.2068    466.61869    971.58234 
  441500    237.41909   -3949.3047   -3542.3765   -3949.3047            0    1340.1357    17.874399    21.053681    21.806725    8206.3477    1391.4076    1181.9304    1447.0692    773.09071   -605.66077    211.78104 
  442000    230.49589    -3902.978    -3507.916    -3902.978            0    1793.9405    17.928957    21.117943    21.873286    8281.7226    3057.6867    771.13161     1553.003    298.93666   -484.42423    508.61391 
  442500    237.60997   -3909.2229   -3501.9676   -3909.2229            0   -187.68913    18.008527    21.211666    21.970361    8392.4774   -425.27223   -56.589312   -81.205849   -478.27426    275.91326    504.56395 
  443000    247.23549    -3917.181   -3493.4279    -3917.181            0    23.452169    17.990511    21.190446    21.948382    8367.3147    629.09667    98.366523   -657.10669    596.65647   -6.1617914   -476.81507 
  443500    242.31766   -3909.9386   -3494.6145   -3909.9386            0    586.47863    17.993299    21.193729    21.951782    8371.2046    1084.2795    222.14578    453.01062   -450.65352    690.12704   -382.88411 
  444000    242.22897   -3923.3772   -3508.2051   -3923.3772            0    1229.9473    17.963322    21.158421    21.915211    8329.4358    3133.4081   -143.32163    699.75531    1957.7099     475.7092    358.85468 
  444500    234.22728   -3951.4903   -3550.0328   -3951.4903            0    1417.7764    18.013442    21.217455    21.976357    8399.3506    3687.6669   -631.45607    1197.1183    413.60913    310.45281   -672.19904 
  445000    232.47537    -3894.618   -3496.1632    -3894.618            0    621.70418    18.048167    21.258357    22.018722    8448.0196    1522.7397    -969.5097    1311.8826    520.50539    1402.6715   -1291.8091 
  445500    260.49252   -3907.7771   -3461.3019   -3907.7771            0    77.267745    18.049315    21.259709    22.020122    8449.6312     361.8968   -1080.3983    950.30473   -236.25871    1329.3106    944.54806 
  446000    258.59097   -3913.1444   -3469.9283   -3913.1444            0   -514.87253    18.004675    21.207129    21.965661    8387.0924    1863.2528   -1987.1034    -1420.767   -772.95646    606.64353    100.11905 
  446500    254.87357   -3918.4445      -3481.6   -3918.4445            0     2375.593    17.885663    21.066949    21.820467    8221.8726    1619.7029    1956.8722    3550.2037    1011.4451    1651.4338   -1027.1355 
  447000    248.39556   -3917.4186   -3491.6771   -3917.4186            0    1978.6432    17.893471    21.076145    21.829992     8232.644    1941.3398    1322.3506    2672.2393    515.84924     208.9573    116.33018 
  447500    264.24132    -3913.454   -3460.5534    -3913.454            0     1210.116    17.872855    21.051862    21.804841    8204.2213    2192.2801    87.155558    1350.9125    111.83918   -880.36665   -474.80714 
  448000     248.4003   -3918.5257   -3492.7761   -3918.5257            0    1012.3507    17.884342    21.065392    21.818855    8220.0504    1499.1848    3100.6091   -1562.7419   -379.51759   -312.03369     1168.084 
  448500     249.1375   -3950.8013   -3523.7882   -3950.8013            0    1834.9997    17.827839     20.99884    21.749922    8142.3864    2343.0166    1196.7549    1965.2277    -992.7299   -624.75851    672.32278 
  449000    246.32905   -3929.4852   -3507.2856   -3929.4852            0     844.7828     17.93734    21.127817    21.883513    8293.3445   -349.25152    1788.0397    1095.5603   -147.34296   -662.37879   -339.56808 
  449500     246.9243   -3921.2664   -3498.0466   -3921.2664            0   -721.50048    18.002168    21.204176    21.962603    8383.5896    586.36399   -2989.5732    238.70776   -487.06604   -1549.1343    214.30871 
  450000    243.44685   -3936.6472   -3519.3876   -3936.6472            0    1073.3673    17.931208    21.120594    21.876032    8284.8419    2832.1515    -235.4514    623.40184   -613.11962    1029.5729   -159.48672 
  450500    256.20169   -3948.9917   -3509.8707   -3948.9917            0    383.48683    17.976402    21.173827    21.931168    8347.6432    1937.7492   -489.27193   -298.01674   -311.20299   -248.86685   -1.7674011 
  451000    240.33285   -3954.6314   -3542.7091   -3954.6314            0    752.67209    17.829062     21.00028    21.751414     8144.062    2123.0085   -737.99528    873.00304    658.71668   -432.41207    321.86987 
  451500    256.01741   -3941.7002   -3502.8952   -3941.7002            0   -705.82417    17.864909    21.042503    21.795147     8193.284    765.66026    -1158.379   -1724.7538   -965.27994    588.07474    295.52511 
  452000    258.77399   -3969.3082   -3525.7784   -3969.3082            0      985.125    17.852618    21.028025    21.780152    8176.3844    968.58658    249.52074    1737.2677    277.29506   -526.41286    410.43818 
  452500    236.16377   -3924.1245   -3519.3479   -3924.1245            0    1098.3567    17.836426    21.008954    21.760398    8154.1572    269.67857    2418.9566    606.43483     74.07942    594.59302   -212.81275 
  453000    245.15474   -3950.6392   -3530.4523   -3950.6392            0    1478.7845    17.783841    20.947015    21.696244    8082.2496    1993.6455    1928.5341    514.17395    654.06245   -1526.5593    934.76088 
  453500    252.90853   -3925.8034   -3492.3268   -3925.8034            0    1704.8026     17.81408    20.982633    21.733136    8123.5482    2762.9539    1113.6655    1237.7883   -421.61047    882.77971    1444.1594 
  454000     266.8517   -3905.5105   -3448.1358   -3905.5105            0    1328.9879    17.937622     21.12815    21.883857    8293.7362    2052.6984     1523.354    410.91136   -533.74656   -1172.7957     1633.216 
  454500    253.94542   -3926.5412   -3491.2874   -3926.5412            0    753.15473    17.925568    21.113952    21.869151    8277.0272    1683.1595    670.99361   -94.688904    807.21668    559.05223   -99.025688 
  455000    247.93996   -3914.1004   -3489.1398   -3914.1004            0     2842.106    17.849541    21.024402    21.776399    8172.1584    1748.5154    3388.0479    3389.7546   -1663.4175    1449.4486   -455.99368 
  455500    244.06293   -3949.4676   -3531.1521   -3949.4676            0    768.05041    17.905122    21.089868    21.844206    8248.7361    658.31991    835.28834      810.543   -674.51949   -1690.7542   -595.54104 
  456000    244.60715   -3918.8263    -3499.578   -3918.8263            0     2058.576    17.795203    20.960398    21.710106    8097.7511   -32.565453    3105.1988    3103.0947    1031.1411   -1590.6288    829.09297 
  456500    245.26459   -3923.7286   -3503.3535   -3923.7286            0    985.42271    17.858861    21.035379    21.787769    8184.9655    1913.7932    251.63699    790.83799   -872.72389   -812.84573   -220.85377 
  457000    249.53817    -3932.687   -3504.9871    -3932.687            0    782.88157    17.851085     21.02622    21.778282     8174.279    688.92404    2544.3404   -884.61967   -939.47882    186.11266    639.90292 
  457500    246.25697   -3909.6165   -3487.5405   -3909.6165            0     461.8344    17.872955     21.05198    21.804963    8204.3589    1761.5825   -135.73469   -240.34464   -492.52204   -62.584723    18.525919 
  458000    256.16804   -3942.9522   -3503.8889   -3942.9522            0    858.72927    17.820428     20.99011     21.74088    8132.2355    1747.1626    939.18368   -110.15844    1504.7756   -1036.5249    47.265862 
  458500    253.11137   -3931.8089   -3497.9846   -3931.8089            0    2468.9133    17.780878    20.943525    21.692629    8078.2108     3060.266    2100.7499    2245.7242    788.60016     384.2219    299.45249 
  459000     251.9256    -3928.906   -3497.1142    -3928.906            0   -541.09287    17.850488    21.025517    21.777554    8173.4589    -1552.777    1175.4453    -1245.947   -530.99815    46.065182   -96.963645 
  459500    233.66889   -3946.2401   -3545.7397   -3946.2401            0    438.61272    17.824923    20.995405    21.746365    8138.3917    693.71669   -178.43165    800.55313   -201.83568    61.880384   -1229.6863 
  460000    253.50172   -3880.3262   -3445.8329   -3880.3262            0    1562.2732    17.852049    21.027355    21.779458    8175.6028   -401.36296    4340.8005    747.38219   -537.33471    1397.4141    1406.2764 
  460500    266.67078   -3940.9681   -3483.9035   -3940.9681            0    1236.2702    17.823165    20.993334     21.74422    8135.9839    2424.0178   -283.59685    1568.3896   -79.678764   -408.72085    707.52506 
  461000    250.33032   -3906.1056    -3477.048   -3906.1056            0     1009.352    17.889793    21.071813    21.825506    8227.5691    2009.8187    1771.1046   -752.86727   -587.13869   -317.92168   -2041.7673 
  461500    249.49339   -3897.9604   -3470.3372   -3897.9604            0    1882.0823    17.840772    21.014072      21.7657     8160.119   -83.838364    3789.9644    1940.1208   -1657.5227     17.46941    1375.8891 
  462000    248.19081   -3839.9666    -3414.576   -3839.9666            0    1896.9598    17.927603    21.116348    21.871633    8279.8456    2200.6414    2616.6668    873.57122    401.23481   -1113.6715    195.05989 
  462500    259.55093    -3870.206   -3425.3446    -3870.206            0    1922.8951    17.849461    21.024307    21.776301    8172.0481    2603.7792    2191.2118    973.69425    799.36436    675.06286    888.36555 
  463000    257.75053   -3938.3256     -3496.55   -3938.3256            0    2203.9184    17.814543    20.983179    21.733701    8124.1824      1725.31     2536.065    2350.3803     1697.875    -208.1792   -110.84505 
  463500    256.21233   -3902.2745   -3463.1354   -3902.2745            0    2309.4297     17.85112    21.026261    21.778325    8174.3266    2295.7971     2175.781    2456.7108    566.98007    -1147.726   -86.249748 
  464000    270.49209   -3908.0449   -3444.4307   -3908.0449            0    1126.3452    17.942197    21.133538    21.889438    8300.0831    1181.4539    196.81354    2000.7681    1281.8888    775.80183   -598.93815 
  464500    230.09509   -3938.2256   -3543.8505   -3938.2256            0    1664.6266     17.88396    21.064942    21.818389    8219.5235    2274.2912    109.79869    2609.7901    529.63595   -377.99572    88.057486 
  465000    240.39804    -3914.941    -3502.907    -3914.941            0    2700.1184    17.847369    21.021843    21.773749    8169.1752    2604.3569    4119.1367    1376.8616    539.90278    520.72337   -458.28946 
  465500    249.17625   -3908.7242   -3481.6446   -3908.7242            0     813.4382    17.853406    21.028954    21.781114    8177.4676    1301.3654    1450.1073   -311.15811    265.70072   -50.062018   -645.55105 
  466000    253.41718   -3900.0027   -3465.6543   -3900.0027            0    2093.4748    17.947419    21.139689    21.895809    8307.3324    875.47782    2302.6416    3102.3049   -26.648243    755.74518   -703.09404 
  466500    258.18323   -3950.0527   -3507.5355   -3950.0527            0      666.456    17.890862    21.073073     21.82681    8229.0444    582.58237    974.14505    442.64058   -599.65493    460.68509   -23.234948 
  467000    239.89845    -3887.995   -3476.8173    -3887.995            0   -1140.1141     17.96091    21.155579    21.912268    8326.0801   -1415.5798   -1665.5649   -339.19761   -22.787094    617.04345    156.94262 
  467500    250.36068   -3944.9232   -3515.8136   -3944.9232            0    344.65054     17.89068    21.072858    21.826588    8228.7933   -1174.6691    467.41028    1741.2104    996.82315   -463.60269    670.58512 
  468000    248.31713   -3930.9066   -3505.2995   -3930.9066            0    1648.5741    17.843769    21.017603    21.769357    8164.2328     973.8036    60.405357    3911.5132    546.80533    248.62131   -605.48705 
  468500    251.10916   -3927.8223   -3497.4298   -3927.8223            0     197.9395    17.867834    21.045948    21.798716    8197.3092    298.50595    7.3488417    287.96371    1521.7308   -1116.7786    332.96312 
  469000    245.06548    -3907.432   -3487.3982    -3907.432            0    1229.7307    17.939027    21.129804     21.88557    8295.6841    846.56677    1601.5815    1241.0439     1487.685    1953.2006    -292.6676 
  469500    237.51538   -3909.1864   -3502.0932   -3909.1864            0     2297.761    17.865448    21.043138    21.795804    8194.0253    210.44674     2721.196    3961.6404    49.891801    408.83073   -719.50452 
  470000    251.12881   -3918.7948   -3488.3686   -3918.7948            0    841.69266    17.883741    21.064684    21.818122    8219.2212    1257.7446     739.9804    527.35301    328.49047    275.22258    -563.2403 
  470500    249.66007   -3918.4688     -3490.56   -3918.4688            0    1029.3121     17.86627    21.044107    21.796808    8195.1574   -359.47892    664.46283    2782.9524   -21.891398   -209.78279   -238.98883 
  471000    265.26441   -3883.2263   -3428.5722   -3883.2263            0    1838.6042    17.884861    21.066004    21.819488     8220.766     2249.061    1676.9318    1589.8197    361.97425   -607.01541    144.35183 
  471500    253.43654    -3885.547   -3451.1654    -3885.547            0    1432.1783    17.836082    21.008549    21.759979     8153.686    -617.0903    1824.7243    3088.9009   -1340.7079    715.82171   -233.40776 
  472000    267.82044   -3870.0409   -3411.0058   -3870.0409            0    626.51925    17.869105    21.047445    21.800266     8199.058    1717.9557    340.94727   -179.34525   -104.21047   -939.35378    933.70997 
  472500    256.01193   -3882.0322   -3443.2365   -3882.0322            0    508.84213    17.856321    21.032387     21.78467    8181.4735    -1121.763    1542.6228    1105.6667   -1563.7263    890.34668   -655.39331 
  473000    250.62258   -3888.2279   -3458.6694   -3888.2279            0   -370.23825    17.936995    21.127411    21.883092    8292.8661   -349.19203    313.87027    -1075.393    -475.6068   -4.8448817    186.47757 
  473500    251.19549   -3919.2058   -3488.6654   -3919.2058            0    1191.6418    17.830916    21.002464    21.753676     8146.603    388.68115    1398.9189    1787.3252   -1098.1618    662.44567   -113.39862 
  474000    246.90541   -3935.1695   -3511.9821   -3935.1695            0    2180.5761    17.755763    20.913944     21.66199    8044.0293    2429.2615    529.75207    3582.7148   -271.80028    866.14378   -1649.7826 
  474500    255.32933   -3898.2076   -3460.5819   -3898.2076            0    377.63541    17.892218    21.074669    21.828464    8230.9149    643.75204   -23.231092     512.3853    1195.6558     345.9994   -114.17237 
  475000    251.06067   -3888.2012   -3457.8918   -3888.2012            0   -1121.6244     18.02399     21.22988    21.989226    8414.1148   -1798.4971   -795.24653   -771.12954   -363.83195    447.94014   -824.53964 
  475500    241.85373   -3931.4583   -3516.9293   -3931.4583            0    1575.6361    17.828952     21.00015     21.75128    8143.9112    1279.7244    1879.9468    1567.2372   -467.11848    727.12771   -719.02789 
  476000    257.25591   -3870.8697   -3429.9419   -3870.8697            0    1470.2814    17.942413    21.133793    21.889702    8300.3832    1300.0162    1041.1542    2069.6738   -477.28545     67.90897    1216.9506 
  476500    251.73199   -3938.6842   -3507.2242   -3938.6842            0   -153.97475    17.942489    21.133882    21.889795    8300.4891   -983.07059    747.01551   -225.86917    922.91001    552.09714    669.86072 
  477000    254.85939   -3899.6603     -3462.84   -3899.6603            0    70.441533    17.896988    21.080287    21.834283    8237.4996    405.35903   -1131.8956    937.86122   -337.75512    80.190682    936.56981 
  477500    262.18582   -3914.2046   -3464.8271   -3914.2046            0   -206.33168    17.951562    21.144568    21.900863    8313.0863   -1337.4679   -814.68196    1533.1549     598.0839    4.3138918   -1093.5015 
  478000    252.76456   -3964.3247   -3531.0949   -3964.3247            0    538.28701    17.902246    21.086481    21.840698    8244.7623    2901.6491    1263.5841   -2550.3722   -143.21332   -1070.7374    1037.5739 
  478500    250.75928   -3926.3062   -3496.5134   -3926.3062            0     791.1899    17.917572    21.104533    21.859396    8265.9556    1533.6071    197.96963    641.99292    998.37547   -52.487075    123.77003 
  479000    254.75666   -3942.4463   -3505.8021   -3942.4463            0    410.87927    18.032359    21.239737    21.999436    8425.8399    61.613072    910.92365    260.10108     349.3781   -1018.8256    1019.2336 
  479500     228.1503   -3966.4725   -3575.4307   -3966.4725            0    263.19711    18.033109    21.240621    22.000351    8426.8921    1873.4418    84.263941   -1168.1144   -1338.9126   -334.87469     207.7839 
  480000    248.14408   -3933.4944   -3508.1839   -3933.4944            0    1355.2882    18.032491    21.239892    21.999597    8426.0253    834.33653    846.33063    2385.1974   -144.96085    653.35342    180.10147 
  480500     253.3476   -3921.8494   -3487.6203   -3921.8494            0    722.27927    18.009549     21.21287    21.971608    8393.9066    988.18842    1315.6111    -136.9617   -663.85314    -748.7081   -706.92239 
  481000    235.77627   -3945.3305   -3541.2181   -3945.3305            0    211.35064    18.073991    21.288774    22.050227    8484.3346    260.00043    810.62456   -436.57306   -918.68609      1100.02    353.65494 
  481500    245.31022   -3956.3777   -3535.9244   -3956.3777            0    2764.4521    17.923299    21.111279    21.866383     8273.884    4235.4624    3518.7652    539.12859    41.012965   -417.95427    718.22908 
  482000     235.8006   -3947.6156   -3543.4615   -3947.6156            0   -78.945194    18.121022     21.34417    22.107604    8550.7384   -201.61788    1238.4709   -1273.6886   -51.938212   -166.23542    159.77908 
  482500    249.67809   -3900.4222   -3472.4825   -3900.4222            0    559.77084    18.000774    21.202534    21.960902    8381.6419   -298.27372    849.12589    1128.4603   -934.35096   -1043.2192    1043.6345 
  483000    245.95235   -3950.9477   -3529.3938   -3950.9477            0    672.68689    18.000654    21.202393    21.960756    8381.4746     -1568.46    773.38022    2813.1405   -1358.5706   -43.041273   -240.10108 
  483500    261.10212   -3913.9742   -3466.4541   -3913.9742            0    1722.6059    17.964266    21.159532    21.916362     8330.748    2437.0701    751.59883    1979.1489    211.57544    910.97859     722.3725 
  484000     259.1651   -3940.4833   -3496.2832   -3940.4833            0    1915.6413    17.857836    21.034172    21.786519     8183.557    1800.4589    809.57683    3136.8883   -679.39572   -1242.0695   -532.07361 
  484500    260.20059   -3924.2192   -3478.2443   -3924.2192            0    113.16878     18.02325    21.229008    21.988323    8413.0778    984.56007   -914.28624     269.2325    144.20589   -644.74491   -324.70765 
  485000    247.23718   -3898.9081    -3475.152   -3898.9081            0    1824.9867    17.934453    21.124417    21.879991    8289.3406     2444.781    652.30094    2377.8783    521.93266   -869.76251    -657.9053 
  485500    248.77849   -3925.3264   -3498.9286   -3925.3264            0    1850.6975    17.941807    21.133078    21.888962    8299.5414    3166.3129    1961.6836     424.0961   -955.21535   -149.16535    1031.5035 
  486000    259.20023   -3946.5237   -3502.2634   -3946.5237            0    944.71979    17.910719    21.096462    21.851036    8256.4752    1346.9908   -378.35792    1865.5265    372.75846    309.52781    1647.9184 
  486500    252.92143   -3944.2208   -3510.7221   -3944.2208            0    1065.7269     17.95274    21.145956    21.902301    8314.7236    628.79088    1329.2072    1239.1826    177.80847   -1259.7205   -128.00205 
  487000     265.9013    -3929.309   -3473.5633    -3929.309            0    715.63776    17.981108    21.179371     21.93691     8354.202     1387.312   -165.62181     925.2231    939.46058   -465.17793     422.3647 
  487500    239.68722   -3917.1231   -3506.3075   -3917.1231            0    1186.6264    17.942542    21.133945     21.88986    8300.5628    1071.4477    1423.4815    1064.9499    54.472172   -930.26225   -448.24577 
  488000    263.63518   -3915.7318   -3463.8702   -3915.7318            0   -5.4521055    17.967914     21.16383    21.920813    8335.8249   -634.78134   -391.97032    1010.3953    716.22487    -323.7201    842.22117 
  488500    250.65221   -3897.1367   -3467.5274   -3897.1367            0    1277.8362    17.878899    21.058981    21.812215    8212.5475    1403.3523    2529.1948   -99.038502    409.68118   -611.88536   -1647.5335 
  489000    246.22103    -3954.833   -3532.8186    -3954.833            0    1760.1281    17.879318    21.059475    21.812727    8213.1254    1035.9301    1561.0507    2683.4035   -1495.9449    1071.0388   -940.39514 
  489500    265.99816   -3943.7119   -3487.8001   -3943.7119            0    552.14271    17.996224    21.197175    21.955351    8375.2879    148.43538    1060.3541    447.63862   -44.094176    758.28256   -1022.5204 
  490000    240.94088   -3911.2067   -3498.2423   -3911.2067            0    1610.7237    17.902182    21.086405     21.84062    8244.6736     2380.635     2833.865   -382.32908    -436.9164    1130.8971    436.83669 
  490500    249.76465   -3941.8102   -3513.7221   -3941.8102            0     2131.978    17.918821    21.106005     21.86092    8267.6847    1798.3926    2039.1166    2558.4246    179.62949   -723.79209    -560.2661 
  491000    251.31519   -3950.6661   -3519.9205   -3950.6661            0    1528.6515     17.91365    21.099913    21.854611    8260.5282    649.41397    1775.9075    2160.6331    625.50029    1149.5534    113.68856 
  491500    244.62709    -3940.343   -3521.0606    -3940.343            0    1635.4882    17.896852    21.080127    21.834117     8237.312    2610.9468    1420.7039    874.81385   -1132.1159    476.56087   -527.77192 
  492000    252.84312   -3913.1194   -3479.7549   -3913.1194            0    2484.2532    17.813575    20.982038    21.732519    8122.8573    3102.1059    2206.8304    2143.8232   -581.43997   -728.71106   -1268.7115 
  492500    242.22629   -3955.2604   -3540.0928   -3955.2604            0    1435.5826    17.901365    21.085444    21.839624    8243.5457    1891.9018    2230.0349    184.81114   -600.61713    548.94589   -440.23089 
  493000    252.09143   -3970.7031    -3538.627   -3970.7031            0    2500.9511     17.84198    21.015496    21.767174    8161.7777     3463.332     1504.321    2535.2002    167.72418    1062.1479   -923.99075 
  493500    250.55263   -3959.4488   -3530.0101   -3959.4488            0    2151.0674     17.86249    21.039654    21.792196    8189.9566    1412.2304     2490.416    2550.5558     473.5555   -490.20167    567.52966 
  494000    258.30905   -3940.0595   -3497.3266   -3940.0595            0    1340.3005    17.870914    21.049576    21.802473    8201.5491    1133.5264    1620.8364    1266.5388    -155.5283   -70.813563   -888.55644 
  494500    271.14888   -3951.1824   -3486.4425   -3951.1824            0    3090.4901    17.776949    20.938898    21.687837    8072.8575    2194.1642    4075.9716    3001.3344    1646.8044    205.51597   -631.89977 
  495000    249.64907   -3927.8608   -3499.9709   -3927.8608            0    1283.9591    17.844769    21.018781    21.770577    8165.6057    1281.2967    499.91431    2070.6664    1155.6442    865.77081    22.671109 
  495500    230.14139   -3953.5844     -3559.13   -3953.5844            0   -815.64423    17.965289    21.160737    21.917611    8332.1718   -452.67064   -801.34409    -1192.918    313.78771    143.40588   -590.61616 
  496000    256.94012   -3927.3332   -3486.9466   -3927.3332            0    599.50647    17.935653     21.12583    21.881454    8291.0043    1219.0112    682.00012   -102.49188    368.69242   -757.34952    192.49416 
  496500    249.72189   -3927.4427   -3499.4279   -3927.4427            0    331.99349     18.00326    21.205463    21.963936    8385.1161   -29.643667    1164.1356   -138.51152    1396.7955   -223.06385   -751.55536 
  497000    241.36332   -3942.1869   -3528.4984   -3942.1869            0   -147.65978    18.023469    21.229266     21.98859    8413.3844    -201.6821   -312.72585    71.428605   -245.61712   -556.59332     934.7453 
  497500    245.03824   -3931.7733   -3511.7861   -3931.7733            0    1015.5391    17.964623    21.159952    21.916798    8331.2445    1235.4962     1136.058    675.06302   -766.57931    -672.6614      948.031 
  498000    248.66009   -3944.3351   -3518.1402   -3944.3351            0    359.15952    17.999479    21.201009    21.959322    8379.8336    1604.2222   -1356.4614     829.7177   -682.54895   -589.94094    556.21259 
  498500    244.55481    -3930.867   -3511.7085    -3930.867            0     583.3281    17.981661    21.180022    21.937584    8354.9722   -618.50328    1605.4942    762.99336    221.45626    382.63792    1231.1455 
  499000    247.38295   -3968.5057   -3544.4998   -3968.5057            0   -624.09255    17.966431    21.162082    21.919003    8333.7603   -601.44151    191.65213   -1462.4883    295.35282   -30.171085    186.82145 
  499500     260.0862   -3949.9053   -3504.1265   -3949.9053            0    844.46291    17.987041    21.186358    21.944148    8362.4733    1824.4519    454.80439    254.13243    599.36308   -978.41522   -1049.0241 
  500000    255.69054   -3953.6463   -3515.4015   -3953.6463            0   -307.55153    17.913801    21.100092    21.854796    8260.7378   -679.84423    532.96841   -775.77879    175.27642    595.21742   -116.40789 
Loop time of 1164.5 on 16 procs for 500000 steps with 864 atoms

Performance: 74.195 ns/day, 0.323 hours/ns, 429.370 timesteps/s
1588.0% CPU use with 1 MPI tasks x 16 OpenMP threads

MPI task timing breakdown:
Section |  min time  |  avg time  |  max time  |%varavg| %total
---------------------------------------------------------------
Pair    | 215.99     | 215.99     | 215.99     |   0.0 | 18.55
Bond    | 10.222     | 10.222     | 10.222     |   0.0 |  0.88
Kspace  | 656.84     | 656.84     | 656.84     |   0.0 | 56.41
Neigh   | 12.897     | 12.897     | 12.897     |   0.0 |  1.11
Comm    | 50.77      | 50.77      | 50.77      |   0.0 |  4.36
Output  | 3.0764     | 3.0764     | 3.0764     |   0.0 |  0.26
Modify  | 213.6      | 213.6      | 213.6      |   0.0 | 18.34
Other   |            | 1.115      |            |       |  0.10

Nlocal:        864.000 ave         864 max         864 min
Histogram: 1 0 0 0 0 0 0 0 0 0
Nghost:        6836.00 ave        6836 max        6836 min
Histogram: 1 0 0 0 0 0 0 0 0 0
Neighs:        238976.0 ave      238976 max      238976 min
Histogram: 1 0 0 0 0 0 0 0 0 0

Total # of neighbors = 238976
Ave neighs/atom = 276.59259
Ave special neighs/atom = 2.0000000
Neighbor list builds = 24566
Dangerous builds = 0

unfix		3
unfix		2
unfix		1

write_data	data.final.${pid}
write_data	data.final.0
System init for write_data ...
PPPM initialization ...
  extracting TIP4P info from pair style
  using 12-bit tables for long-range coulomb (../kspace.cpp:340)
  G vector (1/distance) = 0.37279851
  grid = 24 25 25
  stencil order = 5
  estimated absolute RMS force accuracy = 0.0031553217
  estimated relative force accuracy = 9.5021575e-06
  using double precision FFTW3
  3d grid and FFT values/proc = 33792 15000
Last active /omp style is kspace_style pppm/tip4p/omp
WARNING: Not all mixed pair coeffs generated from mixing. Use write_data with 'pair ij' option to store all pair coeffs. (../write_data.cpp:312)

write_restart   restart.lmp.${pid}
write_restart   restart.lmp.0
System init for write_restart ...
PPPM initialization ...
  extracting TIP4P info from pair style
  using 12-bit tables for long-range coulomb (../kspace.cpp:340)
  G vector (1/distance) = 0.37279851
  grid = 24 25 25
  stencil order = 5
  estimated absolute RMS force accuracy = 0.0031553217
  estimated relative force accuracy = 9.5021575e-06
  using double precision FFTW3
  3d grid and FFT values/proc = 33792 15000
Last active /omp style is kspace_style pppm/tip4p/omp
Total wall time: 0:19:24
