LAMMPS (30 Jul 2021)
  using 1 OpenMP thread(s) per MPI task
package omp 0
using multi-threaded neighbor list subroutines
echo both

include		in.partitions
variable        pid world 0
include		in.temp
variable        temperature equal 260.99
variable	tempDamp equal 100.0
include		in.pressure
variable        pressure equal 3125.0
variable        pressureDamp equal 1000.0 # This is 1 ps
include		in.seed
variable        seed world 745823

units		real
atom_style	full
read_restart	restart.lmp.${pid}
read_restart	restart.lmp.0
Reading restart file ...
  restart file = 30 Jul 2021, LAMMPS = 30 Jul 2021
  restoring atom style full from restart
  orthogonal box = (0.34174752 1.4940647 0.41693118) to (17.865825 22.135113 21.796265)
  4 by 4 by 4 MPI processor grid
  restoring pair style lj/cut/tip4p/long/omp from restart
  restoring bond style harmonic/omp from restart
  restoring angle style harmonic/omp from restart
  864 atoms
  576 bonds
  288 angles
Finding 1-2 1-3 1-4 neighbors ...
  special bond factors lj:    0        0        0       
  special bond factors coul:  0        0        0       
     2 = max # of 1-2 neighbors
     1 = max # of 1-3 neighbors
     1 = max # of 1-4 neighbors
     2 = max # of special neighbors
  special bonds CPU = 0.110 seconds
  read_restart CPU = 0.255 seconds
include 	in.setup
variable	out_freq equal 1000
variable	out_freq2 equal 10000
variable	out_freq3 equal 1000

timestep	2.0

neigh_modify    delay 7 every 1

include		in.tip4p
# This is TIP4P/Ice

# create groups ###
group ox type 2
288 atoms in group ox
group hy type 1
576 atoms in group hy

# set charges - beside manually ###
set group ox charge -1.1794
Setting atom values ...
  288 settings made for charge
set group hy charge 0.5897
Setting atom values ...
  576 settings made for charge

# ### TIP3P Potential Parameters ###
pair_style lj/cut/tip4p/long/omp 2 1 1 1 0.1577 8.5
pair_coeff 1 1*2 0.000 0.000
pair_coeff 2 2 0.21084 3.1668
bond_style  harmonic
bond_coeff  1 450 0.9572
angle_style harmonic
angle_coeff 1 55 104.52
kspace_style pppm/tip4p/omp 1.0e-5
pair_modify tail yes

thermo          ${out_freq}
thermo          1000
thermo_style    custom step temp pe etotal epair emol press lx ly lz vol pxx pyy pzz pxy pxz pyz enthalpy

restart 	${out_freq3} restart.lmp.${pid} restart2.lmp.${pid}
restart 	1000 restart.lmp.${pid} restart2.lmp.${pid}
restart 	1000 restart.lmp.0 restart2.lmp.${pid}
restart 	1000 restart.lmp.0 restart2.lmp.0


include         in.dump
dump            myDump all atom ${out_freq2} dump.water.${pid}
dump            myDump all atom 10000 dump.water.${pid}
dump            myDump all atom 10000 dump.water.0
dump            myDump2 all dcd ${out_freq2} dump.dcd
dump            myDump2 all dcd 10000 dump.dcd
dump_modify     myDump append yes
dump_modify     myDump2 append yes


variable natoms 	equal  "count(all)"                        # NUMBER ATOMS
variable H      	equal  "enthalpy/v_natoms"                 # ENTHALPY-per-atom
variable Vol      	equal  "vol/v_natoms"                 # volume-per-atom
fix AVG all 		ave/time ${out_freq} 1 ${out_freq} v_Vol v_H file vol_enthalpy.dat
fix AVG all 		ave/time 1000 1 ${out_freq} v_Vol v_H file vol_enthalpy.dat
fix AVG all 		ave/time 1000 1 1000 v_Vol v_H file vol_enthalpy.dat


timer           timeout 23:50:00 every 1000
New timer settings: style=normal  mode=nosync  timeout=23:50:00

fix 		1 all shake 1e-6 200 0 b 1 a 1
       0 = # of size 2 clusters
       0 = # of size 3 clusters
       0 = # of size 4 clusters
     288 = # of frozen angles
  find clusters CPU = 0.041 seconds
fix             2 all nph iso ${pressure} ${pressure} ${pressureDamp}
fix             2 all nph iso 3125 ${pressure} ${pressureDamp}
fix             2 all nph iso 3125 3125 ${pressureDamp}
fix             2 all nph iso 3125 3125 1000
fix             3 all temp/csvr ${temperature} ${temperature} ${tempDamp} ${seed}
fix             3 all temp/csvr 260.99 ${temperature} ${tempDamp} ${seed}
fix             3 all temp/csvr 260.99 260.99 ${tempDamp} ${seed}
fix             3 all temp/csvr 260.99 260.99 100 ${seed}
fix             3 all temp/csvr 260.99 260.99 100 745823

run             250000
PPPM initialization ...
  extracting TIP4P info from pair style
  using 12-bit tables for long-range coulomb (../kspace.cpp:340)
  G vector (1/distance) = 0.373198
  grid = 24 24 25
  stencil order = 5
  estimated absolute RMS force accuracy = 0.003191912
  estimated relative force accuracy = 9.6123481e-06
  using double precision FFTW3
  3d grid and FFT values/proc = 2730 288
Last active /omp style is kspace_style pppm/tip4p/omp
Neighbor list info ...
  update every 1 steps, delay 7 steps, check yes
  max neighbors/atom: 2000, page size: 100000
  master list distance cutoff = 10.8154
  ghost atom cutoff = 10.8154
  binsize = 5.4077, bins = 4 4 4
  1 neighbor lists, perpetual/occasional/extra = 1 0 0
  (1) pair lj/cut/tip4p/long/omp, perpetual
      attributes: half, newton on, omp
      pair build: half/bin/newton/omp
      stencil: half/bin/3d
      bin: standard
Per MPI rank memory allocation (min/avg/max) = 9.237 | 9.240 | 9.246 Mbytes
Step Temp PotEng TotEng E_pair E_mol Press Lx Ly Lz Volume Pxx Pyy Pzz Pxy Pxz Pyz Enthalpy 
 3750000     286.1802   -3860.6463   -3370.1433   -3860.6463            0    3365.3373    17.524077    20.641048    21.379333    7733.2326    3898.1277    2835.2002     3362.684   -736.45782   -4.0848025   -348.96295   -2990.5963 
 3751000    275.98632   -3866.5739   -3393.5428   -3866.5739            0    4084.5172    17.540856    20.660812    21.399804    7755.4672    3813.6389    5671.0716    2768.8411    309.48425    507.52705    757.10453   -2931.5613 
 3752000    255.29648   -3846.8979   -3409.3285   -3846.8979            0    4345.6579    17.543153    20.663517    21.402606    7758.5143     4792.614    2973.2878    5271.0719   -109.01921    791.85675   -784.21307   -2917.6174 
 3753000    255.98428   -3838.6422   -3399.8939   -3838.6422            0    3431.4479    17.647425    20.786336    21.529817    7897.6817    3490.2352    2762.7425    4041.3661    1707.4254    137.31506    180.82547   -3004.6612 
 3754000    249.71161   -3891.8672   -3463.8701   -3891.8672            0    3085.1549    17.649388    20.788647    21.532212    7900.3168    2227.8828     3700.155    3327.4268   -864.87515   -504.77136   -781.60769   -3108.4047 
 3755000    256.04809   -3852.1845   -3413.3269   -3852.1845            0    2431.4173    17.651463    20.791092    21.534743    7903.1039    2511.8975    1627.1673    3155.1872    -736.4858    612.11199    755.37542    -3133.085 
 3756000    254.90453   -3825.7676     -3388.87   -3825.7676            0    3398.6081    17.552212    20.674187    21.413657    7770.5387    3638.0513     2735.182    3822.5911   -41.922898   -936.92548    758.83204   -3003.7216 
 3757000    263.25073   -3867.6464   -3416.4436   -3867.6464            0    4043.5638    17.551216    20.673014    21.412443    7769.2167    4524.2865    3135.7894    4470.6157    -1114.651   -1276.8201    372.48369   -2958.2834 
 3758000    270.86294   -3895.8466   -3431.5967   -3895.8466            0    3114.2823    17.636497    20.773463    21.516485    7883.0185    1748.0531    2591.0692    5003.7245    420.96861    143.01434   -480.97023    -3073.561 
 3759000    265.06075   -3866.5046   -3412.1995   -3866.5046            0    4021.9975    17.550544    20.672223    21.411623    7768.3246    2800.2123    5004.0215    4261.7587   -1046.8664    1415.6872    630.93462   -2956.5352 
 3760000    255.57761   -3865.7035   -3427.6522   -3865.7035            0    2257.6543     17.54983    20.671381    21.410751    7767.3757    1900.7078    3936.5172    935.73776     885.7299    903.10106    2392.3786   -3171.9069 
 3761000    273.22141   -3868.8935   -3400.6014   -3868.8935            0    3435.3122    17.433462    20.534315    21.268782    7613.8879    3764.9204    3590.2775    2950.7386    742.36712    2525.4296    2276.6865   -3019.1418 
 3762000     268.6633   -3832.1629   -3371.6832   -3832.1629            0    3680.2449    17.426514    20.526132    21.260306    7604.7885    6135.5066     2407.827     2497.401    460.60369    636.05477    611.57419   -2963.5145 
 3763000    264.92652   -3852.5936   -3398.5186   -3852.5936            0    3544.5051    17.529182    20.647061    21.385561    7739.9924    4573.7672    2550.8175    3508.9306   -494.79361   -220.12043    896.09479   -2998.4154 
 3764000    260.48712   -3881.2161   -3434.7501   -3881.2161            0    4583.3559    17.439526    20.541458    21.276181    7621.8365    5205.9899    3522.8579    5021.2199   -843.34185    -106.6216    761.95608   -2925.2795 
 3765000    261.80605   -3846.4522   -3397.7256   -3846.4522            0    2177.5389    17.460377    20.566018    21.301619    7649.2076    2803.0238    2488.9942    1240.5987    478.44452   -66.303294   -917.18881   -3154.8084 
 3766000    259.67191   -3875.8105   -3430.7418   -3875.8105            0    2380.9994    17.590985    20.719857    21.460961    7822.1487    2009.0226    3151.2521    1982.7236   -641.22488   -97.576142   -280.08537   -3159.1221 
 3767000    262.08754   -3850.1593   -3400.9502   -3850.1593            0    2135.3412     17.56676    20.691322    21.431406    7789.8764    2296.2607    2472.6236    1637.1392   -848.00156   -413.32382    733.70361   -3158.3598 
 3768000    256.51939   -3903.8893   -3464.2238   -3903.8893            0    3367.7434    17.464389    20.570744    21.306514    7654.4822    2567.0689    3344.4843     4191.677    942.24076    -1106.454    576.71413   -3088.2733 
 3769000    262.72933   -3864.3139   -3414.0049   -3864.3139            0    3577.5014    17.432851    20.533596    21.268038    7613.0885    3318.1379    4391.9409    3022.4255   -340.60404    820.63157    892.19947   -3016.7981 
 3770000    251.48438   -3857.6234   -3426.5877   -3857.6234            0    1989.4353    17.456074    20.560949    21.296369    7643.5529    1948.7018    3208.9698    810.63438    -967.9751    833.19999   -179.97071   -3204.8187 
 3771000    256.43702   -3872.0372   -3432.5129   -3872.0372            0    4322.1392    17.493074    20.604531     21.34151    7692.2611    5647.8804    4612.2117    2706.3257   -837.16904   -64.603142   -1380.0859   -2947.6392 
 3772000    275.48419    -3863.767   -3391.5966    -3863.767            0    3162.5304    17.439859     20.54185    21.276587     7622.273    2642.2569    3825.2401    3020.0943   -400.86123   -106.48003    371.44944   -3040.0401 
 3773000    256.31343   -3899.6211   -3460.3086   -3899.6211            0    3285.5082    17.591245    20.720163    21.461277     7822.495    2811.1192    3824.0006    3221.4048   -947.26481   -635.86857    -407.9646   -3085.4878 
 3774000    273.16591   -3834.9748   -3366.7778   -3834.9748            0    1878.2955    17.616107    20.749447    21.491609    7855.7087    180.84022    2798.9626    2655.0836   -43.655243    56.025868    163.82156   -3151.5862 
 3775000    268.91772   -3852.3254   -3391.4097   -3852.3254            0    4167.7037     17.54771    20.668885    21.408166    7764.5621    3728.9946    4483.9899    4290.1265   -1120.5737    533.08285   -665.73448   -2919.4665 
 3776000    262.46068        -3815   -3365.1514        -3815            0    2316.2556    17.628845     20.76445    21.507149    7872.7624     3577.987    2358.8175    1011.9622   -134.76043     -195.828    675.53616   -3099.2078 
 3777000    266.66299   -3833.6343    -3376.583   -3833.6343            0    2866.5641    17.510748    20.625348    21.363071    7715.5991    2394.8473    3015.2978    3189.5471    1650.4864   -163.30139    188.44302   -3054.0255 
 3778000    258.05946    -3882.878   -3440.5729    -3882.878            0    1621.0857    17.550398     20.67205    21.411444    7768.1297    1715.7425    1514.3773    1633.1372    798.04315   -167.87039     101.2873   -3256.9198 
 3779000    260.01848   -3925.4826   -3479.8198   -3925.4826            0    1354.6481    17.603299    20.734361    21.475984    7838.5871    1800.5196    1667.6269    595.79782    902.10484    1228.6202   -264.92496   -3324.9595 
 3780000    270.25685   -3877.4006   -3414.1896   -3877.4006            0    4398.4488    17.525031    20.642171    21.380496    7734.4947    4256.3235    4296.6136    4642.4094    350.02181    358.43949   -582.41836    -2918.046 
 3781000    273.38977   -3864.7287    -3396.148   -3864.7287            0    3175.5456     17.50959    20.623984    21.361659     7714.069    3228.2782    3932.6088    2365.7498   -1077.8098    1410.5306    1523.9365   -3038.8934 
 3782000    259.08505   -3865.8178   -3421.7549   -3865.8178            0    1795.7865    17.551779    20.673677    21.413129    7769.9637     1422.118    3329.7968    635.44467    633.68309   -1083.7958    1467.8777   -3218.2618 
 3783000    260.42931   -3879.3988   -3433.0318   -3879.3988            0    2707.2088    17.620978    20.755185    21.497553    7862.2283    1600.5025    2326.2062    4194.9177    1037.8991   -258.80496   -950.12017   -3122.6164 
 3784000     265.7648   -3921.5582   -3466.0464   -3921.5582            0    1854.3481    17.623974    20.758713    21.501207    7866.2384    2626.7004     1323.478     1612.866    365.43921    34.095357   -549.85611   -3253.3137 
 3785000    246.95926   -3898.8002   -3475.5205   -3898.8002            0    1469.5565    17.557939    20.680933    21.420645    7778.1482   -426.99575    2501.1411    2334.5241    483.83902    494.39811    1436.1267   -3308.8195 
 3786000    258.60061   -3877.8884   -3434.6558   -3877.8884            0    2634.2839    17.472148    20.579882    21.315979    7664.6878    1858.2736    3229.1131     2815.465    256.88577    -432.7584    618.34778   -3140.1913 
 3787000     260.4205   -3858.9741   -3412.6223   -3858.9741            0    1584.7421    17.616906    20.750388    21.492584     7856.778    2224.4009    1996.9457    532.87965    442.39289   -519.13642   -374.81458   -3231.0377 
 3788000    259.39565   -3863.5913    -3418.996   -3863.5913            0    3373.7402    17.559615    20.682907    21.422689     7780.375    3578.4321    3478.7979    3063.9907   -295.64354    285.53986    545.07771   -3036.1818 
 3789000    254.37966   -3858.1147   -3422.1167   -3858.1147            0    2101.6712    17.626687    20.761909    21.504517     7869.872    3139.2425    1886.8473    1278.9238   -846.83638    16.542043   -1132.8317   -3180.8994 
 3790000    265.87454   -3887.2133   -3431.5134   -3887.2133            0    3495.0594    17.620326    20.754416    21.496756    7861.3548    4232.6508    3104.4103    3148.1169   -388.24262    796.08269    244.07521   -3030.8056 
 3791000    264.58799   -3889.4911   -3435.9963   -3889.4911            0    4251.0569    17.628662    20.764235    21.506926    7872.5172    5789.8551    4218.5267    2744.7888    758.73045   -851.56184    192.55059   -2947.9215 
 3792000    260.54474   -3897.0884   -3450.5236   -3897.0884            0    3072.3412    17.604395    20.735652    21.477321    7840.0515    3176.9092    3274.3152    2765.7992    421.26226    889.24844    326.67017   -3099.2349 
 3793000    268.20257   -3874.0782   -3414.3881   -3874.0782            0    2809.4406    17.564496    20.688656    21.428644    7786.8651    2363.9736    3197.2632    2867.0849   -169.75674   -23.636056    996.20872   -3095.3384 
 3794000    265.64345   -3876.2547    -3420.951   -3876.2547            0     4067.681    17.585601    20.713515    21.454392    7814.9686    4302.9473    3800.2388    4099.8568   -1317.0395   -286.26562    4.9504022   -2957.3439 
 3795000    253.37816   -3906.5732   -3472.2917   -3906.5732            0    3888.8566    17.521213    20.637674    21.375838    7729.4406    2857.9408     5823.316    2985.3128   -421.80812    884.38235    56.793531   -3033.9166 
 3796000    273.46078   -3884.7445   -3416.0421   -3884.7445            0    4226.3328    17.559337     20.68258    21.422351    7780.0066    2228.6773    4865.1888    5585.1324    955.96643   -5.7760333   -1160.0501    -2936.508 
 3797000    250.00045    -3845.775   -3417.2828    -3845.775            0    4295.7765    17.568465    20.693331    21.433487    7792.1456    3112.0196    3639.5204    6135.7894    37.004954   -271.47258   -484.41834   -2929.1088 
 3798000    264.42727   -3842.0667   -3388.8474   -3842.0667            0     3802.907    17.458288    20.563558    21.299071    7646.4626     3168.866    2538.4526    5701.4025   -1107.9636    484.89906     753.7876   -2964.7632 
 3799000    272.07171   -3863.2324   -3396.9108   -3863.2324            0    3526.6402    17.530092    20.648133    21.386671     7741.198    3038.2938    2919.7029     4621.924   -1272.3362   -427.18288    982.95096   -2998.7621 
 3800000    260.36932   -3859.3888   -3413.1247   -3859.3888            0    4184.6219    17.508855    20.623119    21.360763    7713.0981    3921.0888    2982.3136    5650.4633    87.576475    134.82609    238.82491   -2942.4066 
 3801000    265.93793   -3820.4352   -3364.6267   -3820.4352            0    505.35783    17.654496    20.794664    21.538444    7907.1786    272.44741    404.60953    839.01655     163.0676    15.535273    598.52943   -3306.3498 
 3802000    261.64754   -3867.7543   -3419.2994   -3867.7543            0    1678.6267    17.595146    20.724758    21.466038    7827.7014    2791.1144   -23.282992    2268.0486   -1592.3248   -1118.9844    452.40406    -3227.669 
 3803000    262.58448    -3864.858   -3414.7972    -3864.858            0    2184.1368    17.571445    20.696841    21.437121    7796.1106     2165.036    1368.2892    3019.0853    470.62452     873.7368   -380.76324   -3166.4646 
 3804000    259.15751   -3815.3734   -3371.1863   -3815.3734            0     3029.734    17.513252    20.628297    21.366126    7718.9096    5174.8567    847.77551    3066.5698    331.25081   -706.79702    652.73537   -3030.1219 
 3805000    260.58645   -3830.8264   -3384.1901   -3830.8264            0    4452.5198    17.436951    20.538425    21.273039    7618.4603    3374.2622    5589.1899    4394.1073    273.23516    1475.7534    256.89623   -2889.4821 
 3806000    278.66521     -3850.52   -3372.8973     -3850.52            0    2930.3667    17.539228    20.658894    21.397817    7753.3079    2232.9744    3490.7543    3067.3715    369.57217    201.93597    444.71955   -3041.5489 
 3807000    252.34135   -3865.7263   -3433.2219   -3865.7263            0    2981.3629    17.541942    20.662091    21.401128    7756.9074    3480.7011    2899.3013    2564.0861   -592.52336    579.79865    901.40414   -3095.9506 
 3808000    264.89534   -3866.9278   -3412.9063   -3866.9278            0    4662.9907    17.488421     20.59905    21.335833     7686.124    4569.3618    5207.8703      4211.74   -247.24469   -693.54554   -932.62966   -2890.2119 
 3809000    260.08833   -3868.3005    -3422.518   -3868.3005            0    4264.2254    17.428779    20.528799     21.26307    7607.7543    3727.9962    3993.1811    5071.4989   -702.72804    418.33191   -840.86723   -2949.3967 
 3810000    249.38471   -3885.1459    -3457.709   -3885.1459            0    3880.4612     17.51876    20.634785    21.372846     7726.195    4724.0541    3858.8787    3058.4509   -768.86899    820.35809    251.40188    -3020.464 
 3811000    254.52333   -3875.8988   -3439.6545   -3875.8988            0    2911.5136    17.472545     20.58035    21.316465    7665.2111    5150.1638    1313.5514    2270.8255   -28.211848    728.92937    1424.3104   -3114.1786 
 3812000    260.99531   -3875.3898   -3428.0528   -3875.3898            0    3359.7988    17.440929     20.54311    21.277892    7623.6755    3749.8039    3679.6828    2649.9097    251.63485    1062.0632    219.60956   -3054.4986 
 3813000     285.7369   -3896.8392   -3407.0959   -3896.8392            0    3312.7901    17.520354    20.636663    21.374792    7728.3051    3194.7516    2754.0313    3989.5875   -105.08609   -30.474371   -1132.5692   -3033.7133 
 3814000    256.50152   -3890.4669    -3450.832   -3890.4669            0    2806.7079    17.509171    20.623491    21.361148    7713.5154    4123.4311    2450.1217     1846.571   -301.46952    93.408959    652.55079    -3135.095 
 3815000    251.95191   -3917.1759   -3485.3389   -3917.1759            0     3056.798    17.512506    20.627419    21.365217     7717.924    3680.1572    2371.0538    3119.1829   -684.46143   -1128.7391    450.90394   -3141.2718 
 3816000    268.84642   -3851.0024   -3390.2089   -3851.0024            0    4145.9135    17.480742    20.590005    21.326464    7676.0032    4494.4315    2971.1503    4972.1588   -84.628402   -884.24961    232.14045   -2926.0878 
 3817000    244.45931   -3867.9038   -3448.9089   -3867.9038            0    3346.5454    17.567991    20.692773    21.432908    7791.5147    2381.4344    3107.8925    4550.3093   -218.59668   -1040.3939   -1962.4999   -3068.6367 
 3818000    271.09023   -3867.3819   -3402.7425   -3867.3819            0    2837.8468    17.498541     20.61097    21.348179    7699.4747     3101.357    1213.7612    4198.4224   -359.34646   -171.27447   -782.12779   -3084.0837 
 3819000    262.24717   -3913.4068   -3463.9241   -3913.4068            0    2281.8724    17.474714    20.582905    21.319111    7668.0659    3103.6114    1313.9394    2428.0664   -646.44272   -26.909754    464.03134   -3208.7403 
 3820000    267.27938   -3888.7256   -3430.6179   -3888.7256            0    4611.1223    17.569159    20.694148    21.434333    7793.0685    5893.9111    3616.8436    4322.6122   -609.10121    180.51244   -998.68215   -2906.5458 
 3821000    268.57727   -3902.6758   -3442.3436   -3902.6758            0    2528.0664    17.541122    20.661124    21.400128    7755.8192    3060.7753    2326.7927    2196.6311     245.6839    154.05328   -180.13126   -3156.3923 
 3822000    276.76082   -3839.4365   -3365.0779   -3839.4365            0    1770.4562    17.533664     20.65234    21.391029     7745.931     3679.704    818.27335     813.3912    1345.6855    1729.1604    185.82454   -3165.0758 
 3823000    254.35856   -3896.0169    -3460.055   -3896.0169            0    2443.2894    17.602032    20.732869    21.474438     7836.895    1613.8266    3017.6802    2698.3612   -102.52708    328.39499    406.76249    -3180.804 
 3824000    266.82767   -3894.7902   -3437.4567   -3894.7902            0    2526.6845    17.630494    20.766394    21.509162    7874.9728    1464.8498    2332.7913    3782.4124   -448.67768   -1485.6301    109.64174    -3147.271 
 3825000    264.77484   -3856.5821   -3402.7671   -3856.5821            0    2914.3524    17.555476    20.678032     21.41764     7774.875    1944.8503    2205.6369    4592.5699   -455.52305   -233.77185   -2516.6916   -3072.3128 
 3826000    253.17462   -3852.7812   -3418.8485   -3852.7812            0    2126.3021    17.596909    20.726835    21.468188    7830.0541    528.26843    2620.3485    3230.2894   -977.93322   -142.12689   -173.31799   -3176.0391 
 3827000    252.89295   -3874.8147   -3441.3648   -3874.8147            0    3619.0707    17.457233    20.562315    21.297784    7645.0763    3254.1808    3074.0698    4528.9615    1.1388514    848.34326   -1019.3985   -3037.8544 
 3828000    281.74014   -3851.0559   -3368.1629   -3851.0559            0    4265.3618    17.496909    20.609047    21.346188    7697.3205    4484.9915    4069.2312    4241.8626    990.39151    807.03874   -475.74727    -2889.344 
 3829000     252.6429   -3885.0006   -3451.9793   -3885.0006            0    3450.0203    17.557197    20.680059     21.41974    7777.1623    4027.4698    3235.4352     3087.156    603.39733    -352.8706    31.680603   -3060.6713 
 3830000    269.57912   -3852.2393   -3390.1899   -3852.2393            0    4538.3412    17.483912    20.593739    21.330332    7680.1803    3610.6239    5556.0756     4448.324   -545.15495   -338.49622    1057.2222   -2881.8614 
 3831000     259.3143   -3881.2377   -3436.7818   -3881.2377            0    2589.1866    17.540471    20.660358    21.399333    7754.9558    3962.3485     1413.031    2392.1804   -74.951568   -1672.1455    990.38529   -3143.9498 
 3832000    270.40452   -3915.2062   -3451.7421   -3915.2062            0    5023.2774    17.529445    20.647371    21.385882    7740.3407    5460.7825     5294.968    4314.0817    -2063.205    155.68434   -73.130182   -2884.6898 
 3833000    254.22974   -3889.5448   -3453.8037   -3889.5448            0    2079.1165    17.604322    20.735565    21.477231    7839.9532    1924.8401    1812.0944     2500.415   -507.64174   -508.97973   -701.44273   -3216.0823 
 3834000    267.65684   -3843.9222   -3385.1676   -3843.9222            0    2834.6843    17.431359    20.531839    21.266218    7611.1339    3371.1245    533.70838    4599.2201    25.403295    551.79585    337.75536    -3070.516 
 3835000    259.88374   -3857.9621   -3412.5303   -3857.9621            0    3926.5411    17.458082    20.563315     21.29882    7646.1919    5982.0285    2747.1718    3050.4231    748.47765   -378.58259    2075.9392   -2974.6743 
 3836000     256.7298   -3879.1145   -3439.0884   -3879.1145            0    3416.2836    17.454371    20.558943    21.294291     7641.316    4365.3937    2262.1646    3621.2923    1166.3693    25.054749    107.00284   -3058.3752 
 3837000    270.30332   -3926.4097   -3463.1191   -3926.4097            0     3041.759    17.516338    20.631933    21.369892    7722.9914    2953.0441     3071.174    3101.0588   -198.53559    625.62829     393.5785     -3120.52 
 3838000    285.41216    -3892.425   -3403.2383    -3892.425            0    3204.2902    17.541026    20.661011     21.40001    7755.6918    3975.7892    2966.6403     2670.441    1461.8447   -342.63195   -1136.3735   -3040.8049 
 3839000    247.60925   -3878.3878    -3453.994   -3878.3878            0    2471.1603    17.523541    20.640417    21.378679    7732.5228    1894.8173    3305.5288    2213.1347   -63.468971    640.10082    20.886768    -3175.319 
 3840000    262.82291   -3894.4435    -3443.974   -3894.4435            0    2803.3681    17.489263    20.600042     21.33686    7687.2347    1702.5446    4358.6942    2348.8654     -1315.18    1581.0827   -1465.6207   -3129.6872 
 3841000    250.40678   -3897.6442   -3468.4555   -3897.6442            0    3310.6002    17.497164    20.609348    21.346499    7697.6572    2398.5571    3768.2392    3765.0043   -1081.9806   -1242.9871   -787.72719   -3096.7995 
 3842000    267.45469   -3875.6391   -3417.2309   -3875.6391            0    3506.0042    17.496986    20.609138    21.346282    7697.4225    1903.1947    4060.0027    4554.8152   -387.30035   -1352.9045    178.07891   -3023.6504 
 3843000      267.169   -3923.3621   -3465.4435   -3923.3621            0     3990.132    17.482236    20.591765    21.328288    7677.9725    3593.5564    3829.2071    4547.6324   -1674.2547    1017.1197   -730.13687   -3018.6471 
 3844000    248.55023   -3868.8814   -3442.8748   -3868.8814            0    1819.1868     17.51396    20.629131     21.36699     7719.846    1821.6816    3466.8202    169.05838    -94.44593     848.8692    195.65771   -3238.0598 
 3845000    262.72834   -3915.9748   -3465.6675   -3915.9748            0    2895.3482     17.47475    20.582947    21.319154    7668.1127     3279.121    1728.8705    3678.0533   -162.67051   -1018.9085    577.61596   -3141.8761 
 3846000    276.82083   -3903.1142   -3428.6528   -3903.1142            0    3069.1538    17.474529    20.582687    21.318885    7667.8226    2452.4941    3964.5758    2790.3914   -1173.6033    -1231.453    14.531594   -3085.4375 
 3847000    266.01693   -3873.0958   -3417.1518   -3873.0958            0    2890.3414    17.453451    20.557859    21.293169    7640.1078    3749.0547    2558.2716     2363.698   -971.93165   -1606.8564   -757.04787   -3095.1009 
 3848000    252.34738   -3873.6678   -3441.1531   -3873.6678            0    876.31339    17.545812    20.666649     21.40585    7762.0426   -255.24019    757.61264    2126.5677   -767.66529    621.43976    811.30275   -3341.9532 
 3849000    256.04325   -3856.5565   -3417.7072   -3856.5565            0    3312.6406    17.447725    20.551115    21.286183    7632.5909    3630.4526    3244.3169    3063.1521    59.198832   -45.373377   -816.06708   -3048.9655 
 3850000    257.11584   -3894.9323   -3454.2445   -3894.9323            0    3230.7697    17.502746    20.615923    21.353309    7705.0266    4083.0443     3143.903    2465.3618    302.29801    82.022047   -1730.1799   -3091.2032 
 3851000    250.42816    -3897.328   -3468.1027    -3897.328            0    3266.8146    17.471441     20.57905    21.315117    7663.7576    3471.3106    3178.1753    3150.9578   -887.21881   -1079.8154   -39.629852   -3102.9773 
 3852000    268.18556   -3882.5257   -3422.8648   -3882.5257            0    3262.8619    17.527837    20.645476     21.38392    7738.2106    4101.9411    3919.0645    1767.5799    -138.0486    1051.2744   -996.19916   -3054.6382 
 3853000    265.95957   -3888.1761   -3432.3305   -3888.1761            0    2996.6265     17.49476    20.606516    21.343566    7694.4848    2855.0181    3833.8503     2301.011   -1016.9903    223.50138   -218.88517   -3096.0606 
 3854000    264.53448   -3882.8471   -3429.4441   -3882.8471            0    4451.5782    17.441676     20.54399    21.278804    7624.6552    3644.7107    4947.7118    4762.3122    576.67636   -4.5293188     2612.211   -2934.4385 
 3855000    267.78835   -3871.1953   -3412.2152   -3871.1953            0    2422.9114    17.569867    20.694983    21.435197    7794.0113    723.16652    3568.7751    2976.7925   -395.28473   -388.28714   -648.21663   -3136.8086 
 3856000    247.05051   -3878.0247   -3454.5886   -3878.0247            0    4340.7275    17.504352    20.617814    21.355268    7707.1475     5071.084    5018.0431    2933.0553   -414.29255   -1199.8496    539.13104   -2966.6872 
 3857000    257.53143   -3887.8678   -3446.4678   -3887.8678            0     4433.007     17.49687    20.609001     21.34614     7697.269    5048.8316    5274.2304     2975.959   -1637.4073       112.85   -87.558265   -2948.8327 
 3858000     263.0382   -3878.1153   -3427.2768   -3878.1153            0    2843.7978    17.556018    20.678671    21.418301    7775.5955     3592.372     3483.487    1455.5345    374.84391   -530.25083   -148.54488   -3104.7927 
 3859000    262.91967   -3880.3776   -3429.7423   -3880.3776            0    2364.3965    17.572141    20.697661    21.437971    7797.0373    4496.7141    500.57743    2095.8979   -544.28289   -1272.3802    222.85188   -3160.8826 
 3860000    246.44738   -3824.9053   -3402.5029   -3824.9053            0    2967.2826    17.560473    20.683917    21.423736    7781.5156    3115.1711    2612.0031    3174.6736    868.93824     503.4701    137.83725   -3065.7596 
 3861000    256.47724   -3842.3494   -3402.7562   -3842.3494            0     4686.412    17.461691    20.567566    21.303223    7650.9351    3361.1905    5632.5931    5065.4526    941.57743    110.19981   -698.62841   -2879.8414 
 3862000     243.8006   -3857.9778   -3440.1119   -3857.9778            0    3350.9929    17.537632    20.657014     21.39587    7751.1908    2541.4543    4318.0126    3193.5119   -538.27016    -807.6674    724.30063   -3061.3051 
 3863000    254.83066    -3861.448   -3424.6769    -3861.448            0    1983.7803    17.523933    20.640878    21.379157    7733.0409    3198.8988    1445.1445    1307.2975   -274.75925    1143.3321   -430.04159   -3200.9492 
 3864000    265.53521   -3845.5265   -3390.4082   -3845.5265            0    2370.0288    17.639137    20.776574    21.519706      7886.56    770.13453    4429.2075    1910.7442   -310.31198   -771.75463    207.84965   -3117.8137 
 3865000    259.67265   -3831.3984   -3386.3284   -3831.3984            0    1721.4756    17.517023    20.632739    21.370727    7723.8968    2628.3432   -293.34981    2829.4332   -1062.0903    -880.5251    1082.3082   -3192.4125 
 3866000     254.7741   -3844.7127   -3408.0386   -3844.7127            0    2115.3928    17.504232    20.617673    21.355122     7706.989    2082.8712    2095.1752    2168.1322   -919.20512    135.84087    639.77098   -3170.2715 
 3867000    256.87323   -3906.8352   -3466.5633   -3906.8352            0    2827.7179     17.47466    20.582841    21.319044    7667.9941    2459.5998    3203.7002    2819.8536    2065.3677    1191.0788    1127.7325   -3150.3401 
 3868000    263.93669   -3889.5088   -3437.1303   -3889.5088            0    3982.1655    17.532654     20.65115    21.389796    7744.5919    4480.0477    4974.7352    2491.7136    -168.0976   -472.77887   -732.71482    -2987.357 
 3869000    262.55357   -3869.1676   -3419.1598   -3869.1676            0    3153.4744    17.573944    20.699784     21.44017    7799.4372     3323.295    1811.1541    4325.9739    193.30616   -496.92084   -855.64713   -3060.4622 
 3870000    244.11775   -3849.6675   -3431.2581   -3849.6675            0    2494.4746    17.597937    20.728046    21.469442    7831.4266    2135.1044    1727.6496    3620.6699   -768.18301   -1352.1989    653.93287   -3146.3558 
 3871000    251.08804   -3851.1396   -3420.7833   -3851.1396            0    3768.6526    17.473635    20.581635    21.317794    7666.6459    3324.0738    3856.2681    4125.6158   -1085.1813   -12.813894   -233.27711   -2999.4097 
 3872000     272.1069   -3829.6492   -3363.2673   -3829.6492            0    3735.1761    17.445855    20.548913    21.283903    7630.1378    4266.8032    5190.3755    1748.3497    354.38107    981.40985   -1071.4161   -2947.6253 
 3873000    253.25012     -3898.08    -3464.018     -3898.08            0    2739.0204    17.526673    20.644105      21.3825    7736.6689    2788.2681    4716.7504    712.04269      721.296    475.61475   -1405.8505   -3154.9705 
 3874000    263.32607   -3836.9757   -3385.6438   -3836.9757            0    955.22791    17.560572    20.684034    21.423857    7781.6478    795.38409    1748.2993    322.00033     1345.436    175.22214   -993.17543   -3277.2376 
 3875000    263.81371    -3806.716   -3354.5483    -3806.716            0    3225.3374    17.545652     20.66646    21.405654    7761.8293    2359.5001    3576.4115    3740.1006   -1009.6456    94.320088   -1571.8532   -2989.4455 
 3876000    256.45471    -3855.616   -3416.0614    -3855.616            0     2707.315    17.561824    20.685508    21.425384    7783.3116    780.41245     3554.962    3786.5705    789.29742    1238.3084   -372.82237   -3108.7497 
 3877000    276.47512    -3878.896   -3405.0271    -3878.896            0    3734.8091    17.517657    20.633486      21.3715    7724.7354    3380.2142    3853.4174    3970.7956   -1023.0348   -1633.6991   -12.574631   -2984.2734 
 3878000    267.55562   -3875.0831    -3416.502   -3875.0831            0    1806.9099    17.503012    20.616236    21.353634    7705.3782    1409.3768    2810.8407    1200.5121   -242.71326    254.42543    1005.9197   -3213.4504 
 3879000    274.51955   -3844.2297   -3373.7126   -3844.2297            0    2999.7821    17.500012    20.612703    21.349974    7701.4174    4185.4552    3814.8563    999.03483     877.1546   -236.85826    296.29251   -3036.7852 
 3880000     263.2793   -3879.5922   -3428.3405   -3879.5922            0    2030.7042    17.530933    20.649124    21.387698    7742.3127    1905.9926    2382.2506    1803.8695   -1409.7787    17.304321   -92.165799   -3199.0462 
 3881000    256.91316   -3865.1409   -3424.8005   -3865.1409            0    4829.3892    17.406618    20.502697    21.236034    7578.7715    5901.7633    3755.7527    4830.6517   -273.58013   -158.96491    73.870792   -2891.0148 
 3882000    261.53902   -3832.8242   -3384.5553   -3832.8242            0    2445.2414    17.513946    20.629115    21.366973    7719.8273     1784.549    2419.5091     3131.666    375.70901    1159.6501   -157.77177   -3109.2559 
 3883000    243.16803   -3837.2546   -3420.4729   -3837.2546            0     2570.489    17.634959    20.771652    21.514608    7880.9565    4240.6807     1492.446    1978.3402    464.32391    153.79863    427.00226   -3125.0321 
 3884000      259.053   -3876.2909    -3432.283   -3876.2909            0    2025.7004    17.475551     20.58389    21.320131     7669.167    3259.6718    1752.8129    1064.6165    23.125477    700.40858    -1454.393   -3205.7146 
 3885000    242.75744   -3870.3668   -3454.2889   -3870.3668            0    3222.2969    17.524415    20.641447    21.379746    7733.6801    2171.2069    3950.3871    3545.2966   -85.051393   -2346.2178    2282.0704   -3090.8531 
 3886000    262.65631   -3838.3018   -3388.1179   -3838.3018            0    2289.5755    17.441958    20.544323    21.279148    7625.0258    733.40506    4134.8499    2000.4716   -108.29481   -127.55394      342.803   -3133.5098 
 3887000     264.5902   -3902.1942   -3448.6956   -3902.1942            0    2994.1787    17.471588    20.579222    21.315296    7663.9506    1758.4022    5076.2611     2147.873    660.87694     70.44319   -174.91544   -3114.0337 
 3888000    270.84156   -3892.5791    -3428.366   -3892.5791            0    3769.1257     17.50396    20.617352     21.35479    7706.6298    3812.8862    2407.2206    5087.2705   -1333.3027    688.26867   -443.18124   -3004.7415 
 3889000    249.41857   -3898.5597   -3471.0648   -3898.5597            0    3601.3704    17.466095    20.572753    21.308595    7656.7246    3440.8104    3812.2084    3551.0924   -42.807588    1115.1264   -33.672522   -3068.9161 
 3890000     267.8317   -3878.8327   -3419.7784   -3878.8327            0    1684.2948    17.590161    20.718886    21.459955    7821.0489     2427.882      1817.94    807.06253    -3456.867   -19.839237   -384.36248   -3227.6644 
 3891000    260.40828    -3897.714   -3451.3831    -3897.714            0    3957.7571    17.441678    20.543993    21.278806    7624.6583    4511.7742    4439.2194    2922.2778   -1021.7729   -63.018169    37.769229   -3011.2892 
 3892000    243.84662   -3850.9259   -3432.9811   -3850.9259            0    3258.2932    17.491207    20.602331    21.339231    7689.7977    3237.4393    3442.2464    3095.1938   -832.02141   -994.62304    785.95351   -3067.5707 
 3893000    254.05701   -3883.8975   -3448.4525   -3883.8975            0    3317.6585    17.468703    20.575825    21.311777    7660.1551    4196.6639    3188.8404    2567.4712    -975.7918   -660.61389   -681.48525   -3077.8186 
 3894000    250.31382   -3862.0144    -3432.985   -3862.0144            0    3643.2974    17.386843    20.479404    21.211907      7552.97    1666.5758    3995.6724    5267.6439    -387.6265    844.71404   -338.15481   -3031.6674 
 3895000    267.49216   -3874.2278   -3415.7554   -3874.2278            0    2081.6854    17.482153    20.591667    21.328185    7677.8622    439.80209    1981.2801     3823.974    1722.7407   -244.00677    282.87653   -3182.6613 
 3896000    265.65139   -3917.2281   -3461.9107   -3917.2281            0    1347.9381    17.451114    20.555107    21.290318    7637.0399    1481.8476    1805.2588      756.708    432.74704   -725.22163    153.90415   -3311.7795 
 3897000     242.2225   -3892.9729   -3477.8118   -3892.9729            0    2833.3162    17.536593     20.65579    21.394602     7749.813    4466.0458    950.63993    3083.2627    317.34875   -659.13957    109.60778   -3157.5817 
 3898000    251.65751   -3914.5694    -3483.237   -3914.5694            0    3591.6419    17.406094    20.502079    21.235394    7578.0861    2374.2031    4105.1333    4295.5893    329.15659   -392.73512   -494.96768   -3086.2937 
 3899000    259.74473   -3845.0634   -3399.8698   -3845.0634            0    2831.6909    17.463019     20.56913    21.304843    7652.6806    917.55811    2981.3686     4596.146    67.476008   -561.72894     1524.357   -3083.8347 
 3900000    258.21553    -3885.309   -3442.7364    -3885.309            0    3535.6775    17.383665    20.475661    21.208031    7548.8297    4283.5623    2505.4928    3817.9774    537.32572   -474.68355    334.74264   -3053.4868 
 3901000    271.12482   -3866.9096   -3402.2109   -3866.9096            0    2320.5151    17.381034    20.472562    21.204821    7545.4025    2471.2676    1992.5624    2497.7153   -137.42504    428.70895    712.96392   -3146.8569 
 3902000    241.52483   -3855.2275   -3441.2622   -3855.2275            0    3651.1598    17.437899    20.539542    21.274196    7619.7034    3949.0099    3957.8293    3046.6402   -338.92812   -313.76291    67.652846    -3035.525 
 3903000    249.93543   -3837.1458    -3408.765   -3837.1458            0    2744.9225    17.481756      20.5912    21.327702    7677.3398    3040.5537     1849.775    3344.4389   -97.581034     130.2829   -119.05185   -3101.4267 
 3904000    265.42972   -3908.0983   -3453.1608   -3908.0983            0    3495.3225    17.478148     20.58695      21.3233    7672.5875    3488.2965    3385.0279    3612.6432   -1022.6873    181.44044    483.95523   -3062.0453 
 3905000     259.0358   -3868.2712   -3424.2927   -3868.2712            0    5183.1463    17.369569    20.459058    21.190834    7530.4813    6147.5016    4236.1398    5165.7975    566.34374    366.41545    899.18256   -2855.0571 
 3906000    247.15137    -3878.072    -3454.463    -3878.072            0    2818.1404     17.44031    20.542381    21.277137    7622.8638    1593.4913    3230.8224    3630.1075   -1314.7758    342.75486    1349.0069   -3141.1657 
 3907000       246.24   -3879.7463   -3457.6993   -3879.7463            0    2476.3443    17.499989    20.612676    21.349946    7701.3867    2107.0151    2737.3172    2584.7007   -749.63777    307.73543   -252.79437   -3179.5642 
 3908000    255.10072   -3870.9709    -3433.737   -3870.9709            0    4321.0216    17.444086    20.546829    21.281744    7627.8165    3048.6629    5010.5666    4903.8353    705.79524    -788.2357    431.36077   -2953.0498 
 3909000    263.12267   -3891.8467   -3440.8634   -3891.8467            0    3033.3386    17.441227    20.543462    21.278256    7624.0667    3200.8642    4568.1541    1330.9975    -706.0144   -223.91961    66.794847    -3103.589 
 3910000    265.13002    -3839.033   -3384.6092    -3839.033            0     2853.396    17.512988    20.627986    21.365804    7718.5608    1549.2072    2852.9024    4158.0783    22.841567   -235.12006   -80.787938   -3063.4101 
 3911000     244.9201   -3885.3335   -3465.5488   -3885.3335            0    3355.7395    17.502685    20.615851    21.353235    7704.9467    3884.7624    2947.6427    3234.8132    975.99054    130.52732   -154.72291   -3088.4686 
 3912000    259.07518   -3873.0127   -3428.9667   -3873.0127            0    2442.6085    17.484708    20.594677    21.331303    7681.2298    2912.3674    2350.7901    2064.6682    2348.7552   -553.12798   -561.63708   -3155.3387 
 3913000    258.82889   -3860.3306   -3416.7067   -3860.3306            0    3104.1477    17.477609    20.586315    21.322642     7671.877    2725.7726    2235.1121    4351.5584    452.88121   -788.78729    116.35981   -3069.3946 
 3914000    270.37647   -3902.1191    -3438.703   -3902.1191            0    3532.2687    17.408193    20.504552    21.237954    7580.8281    3424.4702    2816.2037    4356.1321   -1108.7772   -571.32436   -133.59485   -3048.1804 
 3915000    257.40349   -3885.0487   -3443.8679   -3885.0487            0    1901.5382      17.5586    20.681711    21.421451    7779.0264    4719.7183    268.11092    716.78534    863.89445   -1377.4952   -98.180517   -3228.1401 
 3916000    269.05148   -3872.4366   -3411.2916   -3872.4366            0    2832.8127    17.596161    20.725953    21.467275    7829.0554    3121.0677     942.7931    4434.5773    1073.5933   -950.03064    870.45374   -3087.8446 
 3917000    260.69419   -3913.6285   -3466.8075   -3913.6285            0    3406.6546    17.571097    20.696431    21.436697    7795.6473    4122.1697    3808.2212    2289.5728   -380.07335    856.60347   -76.744772   -3079.4998 
 3918000    276.87645   -3851.1807    -3376.624   -3851.1807            0    2828.4667    17.560599    20.684067     21.42389    7781.6842    4082.7966    1838.3962    2564.2073     78.15343    -741.6372   -94.881323   -3055.6273 
 3919000     269.8219    -3852.268   -3389.8025    -3852.268            0    1338.5508    17.583123    20.710596    21.451369    7811.6651    1155.3322    1449.6049    1410.7155    1884.8205    1232.2789    105.17626   -3237.3079 
 3920000    267.82568   -3875.5277   -3416.4836   -3875.5277            0    3320.0244    17.495733    20.607663    21.344754    7695.7694    2801.1457     2736.726    4422.2017    436.81794    965.89365    420.02596    -3043.861 
 3921000    257.64798   -3870.1502   -3428.5504   -3870.1502            0     1562.112    17.557432    20.680335    21.420026    7777.4738    2203.8009    1406.4375    1076.0976    74.928382   -186.78564   -486.53454   -3251.3655 
 3922000    263.95773   -3864.3783   -3411.9638   -3864.3783            0    3713.2876    17.478356    20.587195    21.323554    7672.8614    4113.7621    5174.5701    1851.5305    913.68741   -1734.0424    702.88584   -2996.4439 
 3923000    263.71957   -3881.7477   -3429.7414   -3881.7477            0    3745.5689    17.482457    20.592026    21.328557    7678.2637    3295.6788    4852.0914    3088.9366    875.97732   -144.76307    309.86159   -3010.3141 
 3924000     249.8783   -3873.8618    -3445.579   -3873.8618            0    3435.2412    17.540682    20.660606    21.399591     7755.236    3325.9631    3387.9859    3591.7744    59.448548    1409.3332    548.12762   -3057.0458 
 3925000    272.79904    -3903.963   -3436.3948    -3903.963            0    3760.9434    17.582293    20.709619    21.450356    7810.5593     4519.008    2823.7061    3940.1161   -1780.8268    316.92798    886.05468   -3007.9895 
 3926000    264.34935   -3892.7868    -3439.701   -3892.7868            0    2985.1945    17.571098    20.696433    21.436699    7795.6495    4729.2252    2927.9046    1298.4537    -2145.862    -889.1699   -1097.0671   -3100.3096 
 3927000    277.97537   -3893.8895   -3417.4492   -3893.8895            0    3988.3095    17.584689    20.712441    21.453279    7813.7526    3814.1584    2743.6917    5407.0785    804.54286    -25.27532    1952.7343   -2962.9591 
 3928000    267.66358   -3886.4804   -3427.7142   -3886.4804            0    3152.0749    17.580521    20.707532    21.448195    7808.1981     4424.831     1508.551    3522.8427   -775.93519    431.44797   -842.98816    -3068.773 
 3929000    264.77161    -3902.556   -3448.7465    -3902.556            0    3399.1875    17.623529    20.758189    21.500664    7865.6425    2794.6444    3556.0984    3846.8199   -1140.6105    62.936636   -391.60346   -3058.8178 
 3930000    265.25964   -3911.1071   -3456.4612   -3911.1071            0    3692.2231     17.51327    20.628319    21.366148    7718.9338    4297.5382    4162.0177    2617.1133    677.95431    511.14699   -113.30604   -3040.8175 
 3931000    273.28594   -3904.8569   -3436.4541   -3904.8569            0    1963.4443     17.59117    20.720075    21.461186    7822.3953    1435.4888    2556.4856    1898.3584   -1199.2152    437.54586    198.66145   -3212.4612 
 3932000     274.8247    -3878.068   -3407.0279    -3878.068            0    3284.8695    17.510649    20.625231    21.362951    7715.4685    1740.2825    4439.5458    3674.7801   -1608.1804     1595.282    982.84989   -3037.4072 
 3933000    248.31184   -3884.1908   -3458.5928   -3884.1908            0    3253.0823    17.469674    20.576968    21.312961    7661.4323    1310.7444    4214.5892    4233.9133   -26.776322    121.79441    321.50032   -3095.1125 
 3934000    255.23666   -3891.6702   -3454.2033   -3891.6702            0    3702.6544    17.386827    20.479385    21.211888    7552.9493    3792.5027    4086.3607    3229.0996   -923.52784    752.22964    227.34702   -3046.3485 
 3935000    257.84713   -3868.4743   -3426.5332   -3868.4743            0    2929.3593    17.460272    20.565894    21.301491    7649.0689    3140.3958    3738.0491    1909.6329   -558.23462   -236.18605   -45.690478   -3099.7519 
 3936000    267.83496   -3865.0361   -3405.9762   -3865.0361            0    4254.4018    17.383343    20.475282    21.207638    7548.4099    4068.9607    4321.7994    4372.4452    195.37889    52.648056   -136.62893   -2937.6269 
 3937000     251.2262    -3877.015   -3446.4218    -3877.015            0    3972.5465    17.388278    20.481095    21.213659    7554.8413    4314.7313    4455.7816    3147.1266   -719.16227   -2044.5273    442.53838   -3008.7282 
 3938000    271.75767   -3873.2679   -3407.4845   -3873.2679            0    3517.5766    17.546333    20.667263    21.406486    7762.7343    2995.7972    3663.9181    3893.0146    114.29159    492.36545   -1395.7394   -3009.2543 
 3939000    248.45737   -3877.6807   -3451.8333   -3877.6807            0    4757.6789    17.437259    20.538788    21.273415    7618.8645    4669.5523    3194.8978    6408.5867   -404.69736   -722.57663   -524.50023   -2923.1918 
 3940000    276.35733   -3849.4149   -3375.7479   -3849.4149            0    4181.4896    17.527128    20.644641    21.383055    7737.2716    5034.4697    3623.9718    3886.0272   -476.15486    278.41073      630.254   -2903.9079 
 3941000    269.01201   -3876.2283   -3415.1509   -3876.2283            0    2784.6964    17.511393    20.626108    21.363859    7716.4525    1629.7491    2385.3935    4338.9465   -1024.9759   -324.27232   -287.70824   -3101.7708 
 3942000    266.60662   -3870.2813   -3413.3267   -3870.2813            0    3554.4545    17.533155    20.651741    21.390409    7745.2571    3415.3498    3946.6392    3301.3745   -216.71938   -236.92495    185.76547   -3011.8275 
 3943000    263.91541   -3863.2313   -3410.8893   -3863.2313            0    3029.8808    17.506622    20.620489    21.358038    7710.1474    4188.4257    2223.0738    2678.1429     1467.317   -1325.4571   -178.92774   -3070.1956 
 3944000    269.28487   -3853.5126   -3391.9676   -3853.5126            0    3671.2362    17.516592    20.632232    21.370202    7723.3277    4506.0898    3871.8051    2635.8135   -414.66522   -49.367148   -1251.1717   -2978.4512 
 3945000    261.38406   -3873.6724   -3425.6691   -3873.6724            0     2526.614    17.549873    20.671432    21.410804     7767.433    2620.8025     2801.995    2157.0446    703.16693    270.19941   -564.47382   -3139.4541 
 3946000    262.53925   -3860.0753    -3410.092   -3860.0753            0    3225.3919    17.694836    20.842179    21.587658    7961.5057    4770.2199     1683.595    3222.3606    190.09628   -1030.2007   -14.081113   -3035.5905 
 3947000    271.51229   -3840.7108    -3375.348   -3840.7108            0    3140.5906    17.501012    20.613881    21.351194    7702.7374    2790.8109    3307.3802    3323.5807    128.67909    302.40208   -261.46558    -3022.545 
 3948000    265.98309   -3832.8212   -3376.9353   -3832.8212            0    4090.0191    17.445762    20.548804    21.283789     7630.016    3675.4497      3576.71    5017.8976   -541.76259   -121.74429   -703.34223   -2921.8145 
 3949000    263.90652    -3827.377   -3375.0502    -3827.377            0    2562.5551    17.571821    20.697285    21.437581    7796.6121    2367.4266    2140.0686    3180.1701    590.17606   -1352.9647   -70.421749   -3083.6734 
 3950000    265.35592    -3877.822    -3423.011    -3877.822            0    3120.1035    17.553266    20.675428    21.414943    7771.9386     1494.587    5261.1147    2604.6088   -863.31748   -918.15027   -665.82122   -3069.3605 
 3951000    258.37349   -3834.4658   -3391.6225   -3834.4658            0    3853.7049    17.514154     20.62936    21.367227    7720.1031    4781.5409    4096.4087    2683.1651   -9.1617666    853.00836   -773.78717   -2957.7347 
 3952000     254.6982   -3843.4531   -3406.9091   -3843.4531            0    1079.0001    17.573494    20.699255    21.439622    7798.8391     1944.088     912.2493    380.66317    657.28881   -21.853088    806.34765   -3284.1857 
 3953000    254.45126   -3882.8736   -3446.7528   -3882.8736            0    2457.3646    17.545249    20.665986    21.405163    7761.2948    2242.4022    4388.4525    741.23907    579.31464     2052.789   -357.44563   -3168.6024 
 3954000     254.9041   -3866.1222   -3429.2253   -3866.1222            0    3358.9843    17.510304    20.624825     21.36253    7715.0129    2524.7073    5601.5134    1950.7321   -496.66711    685.75413   -2344.2191   -3051.2874 
 3955000     247.1189   -3872.8559   -3449.3026   -3872.8559            0    3171.5505    17.478802     20.58772    21.324098    7673.4485     2709.633    4237.7513    2567.2673    -1632.476   -900.71433    245.03636   -3094.3764 
 3956000    241.24332   -3873.6128     -3460.13   -3873.6128            0    1808.8309    17.594422    20.723905    21.465154    7826.7345    1570.1668    1547.3977    2308.9282    702.18323   -671.62427   -28.753963   -3253.6612 
 3957000    256.72435    -3869.457   -3429.4403    -3869.457            0    2657.0853    17.519487    20.635641    21.373733    7727.1565    4257.3165    1194.8088    2519.1305   -232.66401    1454.6125   -1615.6209   -3130.0063 
 3958000    268.20091   -3871.4869   -3411.7997   -3871.4869            0    2771.2712    17.536411    20.655576     21.39438    7749.5721    2749.1218    2116.3887    3448.3032   -1279.4291    281.40169   -198.88081   -3098.5919 
 3959000    249.96869    -3870.369   -3441.9312    -3870.369            0    3644.3974    17.459126    20.564545    21.300093    7647.5638    4215.3264    4336.4253    2381.4405    959.66897     1203.081    58.114855   -3035.4647 
 3960000    272.63193   -3868.2204   -3400.9386   -3868.2204            0    4136.6541    17.419652    20.518049    21.251935    7595.8084    4743.4966    4409.9047    3256.5612   -31.876327    1358.2279   -443.52456   -2942.6922 
 3961000    255.64027   -3883.8171   -3445.6584   -3883.8171            0    2477.7929    17.482971    20.592631    21.329184    7678.9408    1477.8615    1686.5217    4268.9957    55.262395   -8.0762781    900.46597   -3168.1717 
 3962000    272.25689   -3880.6133   -3413.9743   -3880.6133            0    2858.5547     17.42683    20.526504    21.260692    7605.2025    1593.2862    2690.8921    4291.4858    3.9291791   -1341.4231    891.02251   -3096.9204 
 3963000    269.88699    -3857.681   -3395.1039    -3857.681            0    2989.8613    17.482386    20.591942    21.328471    7678.1702    2902.5546    2066.1769    4000.8524    320.25083   -1321.3313   -1064.6274   -3060.3045 
 3964000    259.09025   -3875.8912   -3431.8194   -3875.8912            0    2825.6063    17.500293    20.613033    21.350317    7701.7877    3055.8514    1427.6707    3993.2968    273.65953    309.76106   -625.58921   -3114.4397 
 3965000    254.38749   -3935.2448   -3499.2333   -3935.2448            0    2334.6032    17.452773    20.557061    21.292342    7639.2178    2246.1379    2634.8132    2122.8586    1378.1869    -574.5899     1216.601   -3239.1348 
 3966000    253.55392   -3889.4538    -3454.871   -3889.4538            0    3116.6229    17.545747    20.666573    21.405771    7761.9563    2419.5622    3534.4719    3395.8345   -978.96323   -486.60523    -885.7661   -3102.0688 
 3967000    257.24547   -3901.3305   -3460.4206   -3901.3305            0      3249.21    17.534187    20.652956    21.391667    7746.6243    4277.0411    2029.8296    3440.7592    695.62378    1341.7226    479.55096    -3093.336 
 3968000    272.51797   -3861.7369   -3394.6504   -3861.7369            0    2576.4417    17.561351    20.684952    21.424807    7782.6833    2955.6417    2006.1345    2767.5489    -149.5426    975.18281    581.82961    -3102.218 
 3969000    257.57502   -3830.7421   -3389.2673   -3830.7421            0    3120.2259    17.558292    20.681349    21.421075    7778.6171    3630.1481    3037.1095    2693.4201   -620.44029   -2115.0246   -627.30576   -3035.2991 
 3970000    254.13528   -3886.1101   -3450.5309   -3886.1101            0    1923.1097    17.576318    20.702581    21.443067    7802.5995    1996.9005    3073.4723    698.95622   -169.14669    75.330548    1054.0955   -3231.6946 
 3971000    250.17072   -3833.3569   -3404.5729   -3833.3569            0     3610.722    17.506703    20.620584    21.358137    7710.2538    3560.8554    3886.0525     3385.258   -516.08966   -1030.0821   -652.26742   -2998.5611 
 3972000    260.27974   -3871.4742   -3425.3636   -3871.4742            0    3221.9045    17.534877    20.653769    21.392509    7747.5385    2662.0424    3506.2559    3497.4152   -1692.5655   -319.91821    1751.0576    -3061.321 
 3973000    262.01293   -3870.1929   -3421.1117   -3870.1929            0    2519.2085    17.504802    20.618345    21.355818    7707.7426    1522.7381    2850.7607    3184.1268    2167.6603   -1127.6474    361.49859   -3137.9287 
 3974000    269.14859   -3876.8278   -3415.5163   -3876.8278            0    5070.0929    17.500955    20.613813    21.351124    7702.6618    6252.3473    4243.4901    4714.4413   -741.17615   -2839.4542    1588.6419   -2845.9653 
 3975000    261.32059   -3881.8852   -3433.9906   -3881.8852            0    3898.8305     17.49654    20.608613    21.345738    7696.8342    3544.5386    5600.1736    2551.7794   -1160.7843   -912.91127   -1203.4428   -2996.3452 
 3976000    262.79025   -3881.6627   -3431.2493   -3881.6627            0    2634.4751    17.510088     20.62457    21.362266    7714.7267    1031.7042     2875.124    3996.5972   -495.24715   -272.76874    546.34032   -3134.8408 
 3977000    247.26326   -3759.3625   -3335.5618   -3759.3625            0    3054.7993     17.46721    20.574066    21.309956    7658.1916    2969.8598    2312.1756    3882.3627   -1056.5052     57.80994    1009.7204   -2994.3808 
 3978000    250.95496   -3823.1282        -3393   -3823.1282            0    4876.4692    17.462978    20.569082    21.304793    7652.6268    5934.2765    5911.6542    2783.4769    847.05228    807.99533   -587.89278   -2848.7582 
 3979000     253.1811   -3838.1243   -3404.1805   -3838.1243            0    2642.3059    17.533445    20.652083    21.390763    7745.6415    3440.1069    2876.5808    1610.2299   -552.44746    600.19469   -220.77985   -3105.6998 
 3980000    256.28433   -3812.0189   -3372.7563   -3812.0189            0    2872.5219    17.545638    20.666444    21.405638    7761.8119    3752.4288    3995.8478     869.2891    1153.4472    627.70863    663.54616   -3047.5924 
 3981000    258.89875   -3811.0777   -3367.3341   -3811.0777            0    2852.2853     17.50306    20.616293    21.353693    7705.4418    2196.7568    2596.3113    3763.7878    135.76663    344.74816     143.7841   -3046.8058 
 3982000    262.30317   -3839.8618   -3390.2831   -3839.8618            0    2659.0504    17.478367    20.587208    21.323567     7672.876    2609.1488    1809.0433    3558.9593   -121.28065    -174.5624    21.483075   -3092.7326 
 3983000    244.02418    -3840.908   -3422.6589    -3840.908            0    1849.7112    17.521725    20.638277    21.376463    7730.1187    2734.8466    1346.4585    1467.8285   -935.10859   -1497.3563   -275.61199   -3214.1301 
 3984000    262.97382   -3851.7382   -3401.0101   -3851.7382            0    3146.4419    17.434662    20.535728    21.270246    7615.4603    3318.9559     3590.285    2530.0849   -835.26586   -330.61128    2.8543637   -3051.5547 
 3985000    242.63629   -3843.4564   -3427.5861   -3843.4564            0    2039.8609    17.488763    20.599452    21.336249    7686.5744    2047.8719   -309.59468    4381.3056   -401.26557   -836.74764    1419.2226   -3198.9161 
 3986000    262.83652   -3886.0214   -3435.5286   -3886.0214            0    2513.9254    17.474617     20.58279    21.318992    7667.9378    3189.6569     2259.776    2092.3433    190.98391   -858.85044   -129.39375   -3154.3988 
 3987000    257.95675   -3880.4702   -3438.3412   -3880.4702            0    3564.8236    17.516915    20.632612    21.370595    7723.7542    3613.8609    1360.3333    5720.2766     1367.451    316.96886    748.80813   -3036.7886 
 3988000    263.40254    -3869.582    -3418.119    -3869.582            0    3373.0833    17.595889    20.725632    21.466943    7828.6918    3715.3459    2486.4537    3917.4504   -649.38177   -650.21661   -518.36755   -3033.0025 
 3989000    267.75011   -3909.9107   -3450.9962   -3909.9107            0     4344.712    17.614338    20.747363    21.489451    7853.3429    3730.8877    6149.1259    3154.1226   -550.10857    478.51631   -902.22288   -2953.3835 
 3990000     264.7798   -3889.9438   -3436.1203   -3889.9438            0    3471.0504    17.626338    20.761498    21.504091    7869.4042    2962.6362    4289.9024    3160.6126   -978.56219   -1801.6666   -41.570302   -3037.7576 
 3991000    259.69162    -3911.128   -3466.0255    -3911.128            0    2211.0966    17.604933    20.736285    21.477977    7840.7698    1595.9273    3197.8894    1839.4731   -986.08588   -1029.8634    1674.8459   -3213.1875 
 3992000    264.03476   -3897.3621   -3444.8156   -3897.3621            0    1007.2291    17.599775     20.73021    21.471684    7833.8802    365.47602    2110.4552    545.75619   -757.15241   -1094.9208    184.15238   -3329.7405 
 3993000    265.53569   -3851.6232   -3396.5041   -3851.6232            0    3301.2287    17.611448     20.74396    21.485926    7849.4785    3994.0635    2177.4545     3732.168   -664.91333   -270.24962   -520.55545   -3018.5907 
 3994000      266.631   -3866.9278   -3409.9314   -3866.9278            0    2252.4929     17.68367    20.829028    21.574037    7946.4439    3395.9943    2202.1256    1159.3587   -678.52916   -52.430566   -716.20791   -3148.8883 
 3995000    275.47344   -3846.6115   -3374.4594   -3846.6115            0     4819.427    17.496904    20.609041    21.346182    7697.3138    5737.8182     4040.607    4679.8559    738.79927    443.99431    1022.8852   -2833.4429 
 3996000    259.33628    -3846.882   -3402.3885    -3846.882            0    2580.5153    17.573406    20.699151    21.439514     7798.721    2037.0089    2691.3583    3013.1787   -91.718784   -212.17571   -174.27316   -3108.8901 
 3997000    257.49014   -3867.0003   -3425.6711   -3867.0003            0    1997.3469    17.521468    20.637975    21.376151    7729.7792    1417.7618    3240.1264    1334.1525   -1699.4644   -666.70061     255.4275   -3200.5083 
 3998000    266.60592   -3862.9619   -3406.0085   -3862.9619            0    1991.0272     17.57256    20.698154    21.438482    7797.5948    1282.6325    1220.2291      3470.22    635.75572    882.24888   -368.69953    -3179.589 
 3999000    262.07882   -3906.6839   -3457.4898   -3906.6839            0     2502.062    17.487533    20.598003    21.334749    7684.9527    2274.4665    2988.9797    2242.7398   -859.64437   -328.49516   -852.72968   -3177.0658 
 4000000    279.68019   -3876.4581   -3397.0959   -3876.4581            0    2874.2785     17.48886    20.599567    21.336369     7686.703     2302.726    3086.8694    3233.2401    370.15874    1748.7447   -106.27052   -3074.8816 
Loop time of 424.82 on 64 procs for 250000 steps with 864 atoms

Performance: 101.690 ns/day, 0.236 hours/ns, 588.485 timesteps/s
99.0% CPU use with 64 MPI tasks x 1 OpenMP threads

MPI task timing breakdown:
Section |  min time  |  avg time  |  max time  |%varavg| %total
---------------------------------------------------------------
Pair    | 19.974     | 24.265     | 28.556     |  46.4 |  5.71
Bond    | 0.2589     | 0.2781     | 0.29215    |   0.9 |  0.07
Kspace  | 188.74     | 196.13     | 205.01     |  24.6 | 46.17
Neigh   | 4.8229     | 5.4331     | 6.1573     |  16.1 |  1.28
Comm    | 87.479     | 95.518     | 102.23     |  35.8 | 22.48
Output  | 1.5254     | 1.5263     | 1.5316     |   0.1 |  0.36
Modify  | 92.268     | 95.512     | 100.12     |  17.2 | 22.48
Other   |            | 6.16       |            |       |  1.45

Nlocal:        13.5000 ave          19 max          10 min
Histogram: 2 6 13 16 9 8 5 3 1 1
Nghost:        2097.19 ave        2135 max        2052 min
Histogram: 1 3 2 11 8 15 11 6 4 3
Neighs:        4020.95 ave        6038 max        2563 min
Histogram: 2 5 13 9 16 9 4 2 2 2

Total # of neighbors = 257341
Ave neighs/atom = 297.84838
Ave special neighs/atom = 2.0000000
Neighbor list builds = 13963
Dangerous builds = 0

unfix		3
unfix		2
unfix		1

write_data	data.final.${pid}
write_data	data.final.0
System init for write_data ...
PPPM initialization ...
  extracting TIP4P info from pair style
  using 12-bit tables for long-range coulomb (../kspace.cpp:340)
  G vector (1/distance) = 0.37336431
  grid = 24 24 25
  stencil order = 5
  estimated absolute RMS force accuracy = 0.0031728667
  estimated relative force accuracy = 9.5549939e-06
  using double precision FFTW3
  3d grid and FFT values/proc = 2730 288
Last active /omp style is kspace_style pppm/tip4p/omp
WARNING: Not all mixed pair coeffs generated from mixing. Use write_data with 'pair ij' option to store all pair coeffs. (../write_data.cpp:312)

write_restart   restart.lmp.${pid}
write_restart   restart.lmp.0
System init for write_restart ...
PPPM initialization ...
  extracting TIP4P info from pair style
  using 12-bit tables for long-range coulomb (../kspace.cpp:340)
  G vector (1/distance) = 0.37336431
  grid = 24 24 25
  stencil order = 5
  estimated absolute RMS force accuracy = 0.0031728667
  estimated relative force accuracy = 9.5549939e-06
  using double precision FFTW3
  3d grid and FFT values/proc = 2730 288
Last active /omp style is kspace_style pppm/tip4p/omp
Total wall time: 0:07:06
