#include		in.partitions
include		in.temp
variable        temperature equal 102.72
variable	tempDamp equal 100.0
include		in.pressure
variable        pressure equal 2027.2
variable        pressureDamp equal 1000.0 # This is 1 ps
include		in.seed
variable        seed equal 745823

units		real
atom_style	full
#include		in.box
read_restart	restart.lmp.${pid}
read_restart	restart.lmp.0
Reading restart file ...
  restart file = 30 Jul 2021, LAMMPS = 30 Jul 2021
  restoring atom style full from restart
  orthogonal box = (0.11668040 0.14538165 0.14333248) to (18.090892 23.483796 22.069863)
  2 by 4 by 4 MPI processor grid
  restoring pair style lj/cut/tip4p/long/omp from restart
  restoring bond style harmonic/omp from restart
  restoring angle style harmonic/omp from restart
  864 atoms
  576 bonds
  288 angles
Finding 1-2 1-3 1-4 neighbors ...
  special bond factors lj:    0        0        0       
  special bond factors coul:  0        0        0       
     2 = max # of 1-2 neighbors
     1 = max # of 1-3 neighbors
     1 = max # of 1-4 neighbors
     2 = max # of special neighbors
  special bonds CPU = 0.002 seconds
  read_restart CPU = 0.008 seconds
include 	in.setup
variable	out_freq equal 1000
variable	out_freq2 equal 10000
variable	out_freq3 equal 1000

timestep	2.0

neigh_modify    delay 7 every 1

include		in.tip4p
# This is TIP4P/Ice

# create groups ###
group ox type 2
288 atoms in group ox
group hy type 1
576 atoms in group hy

# set charges - beside manually ###
set group ox charge -1.1794
Setting atom values ...
  288 settings made for charge
set group hy charge 0.5897
Setting atom values ...
  576 settings made for charge

# ### TIP3P Potential Parameters ###
pair_style lj/cut/tip4p/long/omp 2 1 1 1 0.1577 8.5
pair_coeff 1 1*2 0.000 0.000
pair_coeff 2 2 0.21084 3.1668
bond_style  harmonic
bond_coeff  1 450 0.9572
angle_style harmonic
angle_coeff 1 55 104.52
kspace_style pppm/tip4p/omp 1.0e-5
pair_modify tail yes

thermo          ${out_freq}
thermo          1000
thermo_style    custom step temp pe etotal epair emol press lx ly lz vol pxx pyy pzz pxy pxz pyz enthalpy

restart 	${out_freq3} restart.lmp.${pid} restart2.lmp.${pid}
restart 	1000 restart.lmp.${pid} restart2.lmp.${pid}
restart 	1000 restart.lmp.0 restart2.lmp.${pid}
restart 	1000 restart.lmp.0 restart2.lmp.0


include         in.dump
dump            myDump all atom ${out_freq2} dump.water.${pid}
dump            myDump all atom 10000 dump.water.${pid}
dump            myDump all atom 10000 dump.water.0
dump            myDump2 all dcd ${out_freq2} dump.dcd
dump            myDump2 all dcd 10000 dump.dcd
dump_modify     myDump append yes
dump_modify     myDump2 append yes


variable natoms 	equal  "count(all)"                        # NUMBER ATOMS
variable H      	equal  "enthalpy/v_natoms"                 # ENTHALPY-per-atom
variable Vol      	equal  "vol/v_natoms"                 # volume-per-atom
fix AVG all 		ave/time ${out_freq} 1 ${out_freq} v_Vol v_H file vol_enthalpy.dat
fix AVG all 		ave/time 1000 1 ${out_freq} v_Vol v_H file vol_enthalpy.dat
fix AVG all 		ave/time 1000 1 1000 v_Vol v_H file vol_enthalpy.dat


timer           timeout 23:50:00 every 1000
New timer settings: style=normal  mode=nosync  timeout=23:50:00

fix 		1 all shake 1e-6 200 0 b 1 a 1
       0 = # of size 2 clusters
       0 = # of size 3 clusters
       0 = # of size 4 clusters
     288 = # of frozen angles
  find clusters CPU = 0.001 seconds
fix             2 all nph aniso ${pressure} ${pressure} ${pressureDamp}
fix             2 all nph aniso 2027.2 ${pressure} ${pressureDamp}
fix             2 all nph aniso 2027.2 2027.2 ${pressureDamp}
fix             2 all nph aniso 2027.2 2027.2 1000
fix             3 all temp/csvr ${temperature} ${temperature} ${tempDamp} ${seed}
fix             3 all temp/csvr 102.72 ${temperature} ${tempDamp} ${seed}
fix             3 all temp/csvr 102.72 102.72 ${tempDamp} ${seed}
fix             3 all temp/csvr 102.72 102.72 100 ${seed}
fix             3 all temp/csvr 102.72 102.72 100 745823


run             250000
PPPM initialization ...
  extracting TIP4P info from pair style
  using 12-bit tables for long-range coulomb (../kspace.cpp:340)
  G vector (1/distance) = 0.37195821
  grid = 24 27 25
  stencil order = 5
  estimated absolute RMS force accuracy = 0.0031283815
  estimated relative force accuracy = 9.421028e-06
  using double precision FFTW3
  3d grid and FFT values/proc = 4410 672
Last active /omp style is kspace_style pppm/tip4p/omp
Neighbor list info ...
  update every 1 steps, delay 7 steps, check yes
  max neighbors/atom: 2000, page size: 100000
  master list distance cutoff = 10.8154
  ghost atom cutoff = 10.8154
  binsize = 5.4077, bins = 4 5 5
  1 neighbor lists, perpetual/occasional/extra = 1 0 0
  (1) pair lj/cut/tip4p/long/omp, perpetual
      attributes: half, newton on, omp
      pair build: half/bin/newton/omp
      stencil: half/bin/3d
      bin: standard
Per MPI rank memory allocation (min/avg/max) = 10.19 | 10.21 | 10.23 Mbytes
Step Temp PotEng TotEng E_pair E_mol Press Lx Ly Lz Volume Pxx Pyy Pzz Pxy Pxz Pyz Enthalpy 
30000000    104.71694    -4536.516   -4357.0347    -4536.516            0    1845.0996    17.974212    23.338415    21.926531    9197.9517    1745.9792    1584.8537    2204.4659    295.74679    -687.8571   -37.799312   -4109.5281 
30001000    109.06613   -4566.1386    -4379.203   -4566.1386            0    2293.8017    18.053299    23.290405    21.812939    9171.6574    2093.3767    1406.5099    3381.5186   -364.12743    171.42738    208.04442   -4072.3859 
30002000    102.52869   -4555.5304   -4379.7998   -4555.5304            0    1407.9114    18.049267    23.293371      21.8553     9188.586    1322.9405    1008.6921    1892.1016   -176.40682   -334.37842    25.406836   -4191.1311 
30003000    100.96094   -4555.1928   -4382.1492   -4555.1928            0    1655.8283     17.98513    23.409754    21.789514    9173.9839    1869.3898    1136.0989    1961.9963    330.44875   -164.34725   -16.230897   -4160.6107 
30004000    95.852067   -4559.7883   -4395.5011   -4559.7883            0    1578.8261    17.941125    23.501678    21.786866     9186.357    1010.5395    1944.2595    1781.6792    109.58849   -234.71052   -69.163259   -4183.9801 
30005000    104.57122   -4554.2967   -4375.0652   -4554.2967            0    1647.7325     17.91563    23.531156    21.809201    9194.2246    773.15949    1520.1892     2649.849   -225.14039    -84.08054     -5.66235   -4154.1235 
30006000    103.50676   -4549.9853   -4372.5783   -4549.9853            0    1844.1755    17.901009    23.385812    21.949954    9188.9016    2097.5399    1348.4744    2086.5123   -487.15171    593.54363    331.25175    -4125.439 
30007000    103.23531   -4555.7981   -4378.8563   -4555.7981            0    2815.8666    17.958136    23.465623    21.683902    9137.5714    2556.0852    2824.6184    3066.8961   -291.74051   -115.76541    -404.6325    -4003.608 
30008000    101.24227   -4546.3939   -4372.8681   -4546.3939            0    1649.2332     17.98473    23.336456    21.912666    9196.7428    1483.4661    760.28349    2703.9499   -531.52044    345.76383    348.08916   -4151.6646 
30009000    105.36541   -4546.3792   -4365.7865   -4546.3792            0    3265.3824    17.989081    23.227367    21.842956    9126.8384     3187.589    4273.0269    2335.5314   -258.47035   -91.713334    377.31289   -3931.1459 
30010000    105.91113   -4557.4206   -4375.8926   -4557.4206            0    2702.5979    18.088527    23.198802    21.798932     9147.533    1669.5193    3177.9273     3260.347    146.06263    -37.56548   -345.14669   -4015.3461 
30011000    103.30143   -4556.5788   -4379.5237   -4556.5788            0     1653.212    17.978139    23.340589    21.843175     9165.841    1616.7258    1557.0245    1785.8858   -417.36268    230.22304    768.31952   -4158.5316 
30012000     108.7851   -4548.0516   -4361.5977   -4548.0516            0    2222.8311    18.045191    23.124712    21.951584    9160.1731    1934.1368    2715.7809    2018.5755   -410.69709   -138.56366   -189.83791   -4064.6458 
30013000    102.99079   -4549.6368   -4373.1141   -4549.6368            0    1772.4297     18.07571    23.196579    21.951067    9203.9649    2058.4459    1951.2885    1307.5545    1280.5922   -520.23605    112.52838   -4135.2002 
30014000    103.19832   -4565.8039   -4388.9255   -4565.8039            0    1454.6161    17.914405    23.332807    22.021939     9205.024     954.1923    2096.3701    1313.2861   -613.05544    263.47367    494.03784   -4193.6494 
30015000    101.31678   -4552.6988   -4379.0453   -4552.6988            0    2529.6897    17.875155    23.402263    21.895587    9159.3418    2472.7131    3266.6121    1849.7437   -481.83237    61.185205   -435.65818   -4041.1303 
30016000    105.11038   -4554.9784   -4374.8228   -4554.9784            0    2362.8688    17.881867    23.483647    21.860615    9179.9602    3165.8037    1621.6718     2301.131   -134.60112    283.49494    415.29103   -4058.4812 
30017000    108.16992   -4561.5326   -4376.1331   -4561.5326            0    3077.6201    17.878633    23.423991    21.789823    9125.3369    3485.8458    2912.2777    2834.7367     237.6436   -390.15437   -4.4246487   -3966.5521 
30018000    98.220721   -4560.3781   -4392.0312   -4560.3781            0    2370.2234    17.910821    23.367268    21.913613    9171.4376    1898.7581     2711.149    2500.7631    767.93459   -74.958258    556.02414   -4074.9995 
30019000    102.48343    -4557.242   -4381.5889    -4557.242            0    1674.0089    17.999329    23.287155    21.938516    9195.5983    1823.5883    1612.2423     1586.196    425.54356   -193.46505   -906.70929   -4157.0903 
30020000    102.39118    -4562.629    -4387.134    -4562.629            0    1785.4551    18.072264    23.211877    21.888209    9181.9106    1135.2379     2066.396    2154.7314    163.04334   -148.81848    531.51166    -4148.046 
30021000    106.78337   -4572.0802   -4389.0572   -4572.0802            0    1631.4003    17.962561    23.361812    21.913197    9195.6099    1261.8128      1072.47    2559.9182   -620.11189    132.87938    104.51365   -4170.2725 
30022000    105.53033   -4550.9352   -4370.0598   -4550.9352            0     2651.564    17.841493    23.451185    21.853093    9143.4245    2670.3673    2666.2475    2618.0771    181.41598    299.63483    737.56642   -4016.4805 
30023000    97.818338   -4559.1598   -4391.5026   -4559.1598            0    1271.5691    18.010683    23.403236    21.854855    9212.0024    1575.6105    636.15633    1602.9404   -134.98121    158.39624    211.69214   -4220.6703 
30024000    104.84462   -4538.9585   -4359.2584   -4538.9585            0    1875.4299    18.190334    23.127113    21.885509    9207.0126    2158.9964    1684.9897    1782.3036    235.19635   -54.788452   -201.77667   -4107.4354 
30025000    101.96941   -4552.4491    -4377.677   -4552.4491            0    1581.5078    18.073142    23.338173    21.814598    9201.2691    2565.3862    1586.3486    592.78867     231.0718   -56.217085    310.28714   -4165.4527 
30026000    101.28792    -4542.933    -4369.329    -4542.933            0    1536.5162    18.035537    23.277891    21.946936    9213.9661    2030.9109    2189.9911    388.64666    170.36778   -235.21594    -46.09373   -4162.8577 
30027000    108.36506   -4557.8705   -4372.1365   -4557.8705            0    1284.2914    17.848368    23.623056    21.832569    9205.3319    1432.5733    143.54525    2276.7556   -222.04668     13.24435    699.01523     -4199.72 
30028000    99.526578    -4558.869   -4388.2838    -4558.869            0    1801.1184    17.904777    23.417878     21.95405    9205.1553    1814.4122     1030.782     2558.161    367.29606    68.265322   -112.12871   -4146.4877 
30029000     102.3775   -4569.2246   -4393.7531   -4569.2246            0    1942.8442    17.984112    23.366357    21.870265    9190.3921    1401.3742    2245.2644     2181.894   -444.94676    439.84481    114.71757    -4133.349 
30030000     107.1824    -4556.304    -4372.597    -4556.304            0    1546.8866    18.059961    23.210849    22.001232    9222.6311     538.5706    2762.4312    1339.6581    758.20333    269.57946    316.58025   -4164.5367 
30031000    105.26713   -4547.5388   -4367.1146   -4547.5388            0     2520.761    17.971269    23.261698    21.941803    9172.5999    2562.1843    3130.0446    1870.0541   -753.20522    115.21418     -137.522   -4029.9049 
30032000    109.99907   -4564.3996    -4375.865   -4564.3996            0    1294.1817    17.943261    23.427822    21.924854    9216.5843    1805.2367    1040.2214     1037.087    192.08316    74.702363    247.46271   -4201.9083 
30033000    103.81451   -4553.2836   -4375.3491   -4553.2836            0    1583.4216     17.86133    23.456658    21.937628    9191.1445    2744.5147    709.91579    1295.8343    31.710229   -362.89987    -606.0085   -4163.1018 
30034000    100.07232   -4559.6396   -4388.1191   -4559.6396            0    2629.3992    17.845307    23.449196    21.906953     9167.142    1779.1969    2732.6869    3376.3139    180.16695     25.64652    839.76856   -4036.5858 
30035000    99.917867   -4564.3765   -4393.1207   -4564.3765            0    2307.7211    17.890176    23.212197    22.057885    9159.9839    2249.4437    3397.4158    1276.3038   -64.070369   -133.98606   -580.30719   -4084.8346 
30036000    99.342874   -4556.7272   -4386.4569   -4556.7272            0    1581.3518    17.916071    23.337367    21.984639    9192.0832    1924.1654    1595.3858    1224.5041    1339.6606    138.68193    351.57455   -4174.4655 
30037000    102.69834   -4552.2583   -4376.2369   -4552.2583            0     1743.714    17.966321    23.301635    21.978856    9201.3304    1699.2483    1686.2568    1845.6369     429.6219   -245.90116    14.815826   -4142.2444 
30038000    105.00005   -4562.4367   -4382.4702   -4562.4367            0    1940.4433    17.989135    23.329066    21.903528    9192.2474    897.85592    1553.0262    3370.4479   -1143.5805   -560.66862    260.94889   -4122.3353 
30039000    104.27294   -4554.8496   -4376.1294   -4554.8496            0    1870.4581    17.832999    23.456514    21.946711     9180.309    1846.7495    1431.5684    2333.0563    376.36446   -258.35235   -628.89936   -4125.7023 
30040000    107.57057   -4566.8278   -4382.4556   -4566.8278            0    2122.1104    17.871741    23.380313    21.923101    9160.4995     3268.157    1786.8238    1311.3505   -1.6089274   -172.92888    259.89202   -4098.9491 
30041000    99.277943   -4554.7699   -4384.6109   -4554.7699            0    2211.9614    17.950241    23.332804    21.956412    9195.9923    1882.1549    2341.0786    2412.6509   -106.19968   -865.44836    -201.6401   -4087.9557 
30042000    100.20235   -4555.6983   -4383.9549   -4555.6983            0    1802.3142    17.941572    23.138846    22.137874    9190.4782    1950.0331    2599.5619    857.34768   -898.35663    33.059897      -66.045   -4142.3841 
30043000    103.58185   -4550.4784   -4372.9426   -4550.4784            0    3004.1472    17.939642    23.312338    21.846365    9136.4776    3333.6898    2587.1632    3091.5885   -120.49059   -137.59048    403.21282   -3972.6516 
30044000    101.58625   -4551.6223   -4377.5069   -4551.6223            0    1793.2951     17.89763    23.379422    21.976776    9195.8794    1857.9161    1686.5342    1835.4351    278.61395   -354.12995   -456.67404   -4137.0037 
30045000    98.001372   -4565.9304   -4397.9594   -4565.9304            0     2150.984    17.880136    23.280772    21.981637    9150.1502    2605.2628    2438.8228    1408.8664   -494.78887    30.665215    311.39438   -4110.9201 
30046000    107.78828   -4557.3519   -4372.6065   -4557.3519            0    1762.1366    18.015185    23.070268    22.116336    9191.8841    1473.3983    2719.3286     1093.683    349.55416   -530.14444   -337.97272   -4136.3847 
30047000    99.694751   -4556.5136   -4385.6403   -4556.5136            0    2221.4993    17.918414    23.276843    21.976209    9165.9278    2181.1044    2294.6365     2188.757   -111.27353   -267.73846     107.4758   -4088.6799 
30048000    104.41035   -4555.3351   -4376.3793   -4555.3351            0    2769.9538    17.964996    23.247979    21.899012    9146.1195    1415.3171    2773.7855    4120.7589   -614.61857   -225.27827   -609.33573   -4006.9042 
30049000    105.11252   -4553.4447   -4373.2855   -4553.4447            0    2438.0301    17.748173     23.47254    21.966697    9151.2093    2329.9692    2425.2172    2558.9038    193.97306   -627.88083    317.39462   -4047.9035 
30050000    101.81392     -4561.98   -4387.4744     -4561.98            0    844.34083    17.861831    23.521856    22.001301    9243.7016     911.1221    412.70537     1209.195    62.046724    191.82333   -227.43368   -4273.6489 
30051000    100.15725   -4541.3277   -4369.6616   -4541.3277            0    1300.6951    17.930419    23.421874    21.892033    9193.8664    1530.5913     1554.587    816.90677     41.86473     464.1731    258.95028   -4195.2604 
30052000    100.65367   -4553.4766   -4380.9597   -4553.4766            0    2138.3839     17.89247    23.335075    21.901051    9144.1733    2714.5328    1852.6676    1847.9512   -1042.4296    175.55559   -450.95677   -4095.7883 
30053000    103.44691   -4564.1942   -4386.8897   -4564.1942            0    2181.9136    17.902775    23.346595    21.908947    9157.2569    2120.8353    2171.8325     2253.073    156.66383    91.290568    51.944887   -4095.4969 
30054000    106.96654   -4554.5286   -4371.1916   -4554.5286            0    2248.6103     17.91596    23.445992    21.790487    9153.2563    2462.4342    1284.6578    2998.7387   -669.45743   -316.52417   -645.20623   -4071.0227 
30055000    103.39502   -4557.6346   -4380.4191   -4557.6346            0    2134.5311    17.979936    23.372342    21.776301    9151.1248    2307.7637    1840.7798    2255.0496   -324.22834    38.099825    250.57342   -4095.5451 
30056000    105.66658   -4551.1573   -4370.0484   -4551.1573            0    1267.5324    18.005428    23.376421    21.948802    9238.3046    1822.6829    1525.7485    454.16596   -409.83113   -86.541546    114.76633   -4199.2723 
30057000    106.08801   -4561.3445   -4379.5133   -4561.3445            0    2123.7986     17.99615    23.268233    21.903958    9172.0328    1103.8257    3445.0133    1822.5568    855.01456   -258.96638    1148.5487    -4095.424 
30058000    106.25806   -4561.1615   -4379.0388   -4561.1615            0    3227.0701     17.93403     23.24406    21.879494    9120.6787    3498.1293    3159.4915    3023.5894    521.89138    588.38585    244.53186   -3949.7877 
30059000    102.66094   -4550.8549   -4374.8976   -4550.8549            0    3734.5254    18.000794    23.328601     21.65351    9093.0311    3557.9775     3561.146    4084.4527   -550.38134   -937.05837    57.140812   -3879.6527 
30060000    98.799895   -4561.7028   -4392.3631   -4561.7028            0    2540.4791    17.997815    23.394285    21.716592    9143.6848    2150.9561     2430.896    3039.5851   -1259.4457     132.8048    188.61904    -4053.587 
30061000    100.99667   -4550.9495   -4377.8447   -4550.9495            0     2762.215    18.032437    23.144441    21.894222    9137.5686    2493.1999    2392.9345    3400.5105    -599.1283   -539.75301    298.74454   -4009.7462 
30062000    98.942553   -4541.3806   -4371.7965   -4541.3806            0    2457.1056    17.886643    23.337099    21.867292     9127.897    2141.0659    2242.6827    2987.5682   -771.13742    703.32881   -37.308066   -4044.7041 
30063000    110.90675   -4553.7339   -4363.6435   -4553.7339            0    2191.9246    17.859545    23.369791    21.911875    9145.4435    3176.1002    1536.7016    1862.9718   -522.71233   -172.21924   -53.203142   -4071.2914 
30064000    104.16792    -4558.108   -4379.5678    -4558.108            0    1916.1533    17.852603    23.391209    21.996312    9185.5273    2353.7864    1851.4011    1543.2723    100.46105    191.81547    617.93549    -4122.877 
30065000    100.61952   -4563.2197   -4390.7613   -4563.2197            0    2597.9384    17.861245    23.314993    21.942018      9137.42    2701.6045    2253.8822    2838.3286   -293.61526    119.99733     155.0342   -4044.5602 
30066000    104.22812   -4546.7193   -4368.0759   -4546.7193            0    2752.6276    17.809987    23.513881    21.864103    9156.2913    3251.8582    1477.7221    3528.3024   -651.35535    11.292951    156.08429   -4000.5034 
30067000    99.582013   -4563.8477   -4393.1675   -4563.8477            0    2316.1016    17.749606    23.462969    21.938947    9136.6598     2656.966    842.42248    3448.9162     295.7639   -143.62877   -167.09275   -4084.5498 
30068000    103.71201   -4560.1518    -4382.393   -4560.1518            0    1653.5325    17.948854    23.242602    22.008491    9181.4597    1058.0377    2121.2678    1781.2918   -275.48218    -354.0599    214.89439   -4160.9814 
30069000    98.925022   -4565.4881    -4395.934   -4565.4881            0    1778.4241    17.969925     23.35846    21.895192    9190.5018    1238.9367    2574.7221    1521.6134    682.27005    397.79957    84.428216   -4157.5647 
30070000    98.188206   -4546.8106   -4378.5194   -4546.8106            0    1555.8854    17.913741    23.369391    21.934406    9182.4712    1316.1767    1576.7215    1774.7581    316.18257    56.948293    137.99249     -4170.16 
30071000    104.85361   -4560.8128   -4381.0974   -4560.8128            0    1718.6638    17.955917     23.38987    21.815022    9162.0164    1391.2899    1128.2153    2636.4862   -67.644048    -71.60451    98.871668   -4151.4519 
30072000    108.15278   -4544.0485   -4358.6783   -4544.0485            0    1862.5141    17.844927    23.384158    21.980756    9172.3187    1520.6995    1563.5726    2503.2702   -204.26885   -114.36795    68.121047    -4109.532 
30073000    98.944766   -4562.1667   -4392.5788   -4562.1667            0    1804.9407    17.791005    23.401069    22.022198    9168.4694    1722.9983    2132.9352    1558.8886    353.27546    4.0060165   -100.28354   -4151.2353 
30074000     104.1624   -4562.3355   -4383.8047   -4562.3355            0    2121.9761    17.979493    23.225655    21.981171    9179.0186    1474.2307    2770.6835    2121.0141   -210.95452    467.99449    757.71814    -4099.743 
30075000    102.65058   -4559.2292   -4383.2896   -4559.2292            0    1741.7938    18.050817     23.13264    22.035696    9201.2926    1625.1242    1716.4436    1883.8136    48.692258    8.6020308   -158.91338   -4149.5559 
30076000    100.20709    -4553.052   -4381.3005    -4553.052            0    1737.4814    17.963582    23.424506    21.849539    9194.0244    1931.3264    1110.7463    2170.3716    -891.1962   -67.606596    162.55729   -4148.3296 
30077000    95.578542   -4552.8644   -4389.0461   -4552.8644            0     1309.802    18.020177    23.463009    21.774602    9206.4669    784.25203    1626.5158    1518.6383    500.81582    36.005534   -137.63429    -4213.183 
30078000    105.84297   -4543.7572   -4362.3459   -4543.7572            0     2286.479    18.001967    23.342568     21.82951    9173.0252    1759.0832    2662.3489    2438.0049    24.670625    65.822523    514.51896   -4056.4627 
30079000    99.300665   -4552.4465   -4382.2486   -4552.4465            0    2284.8904    17.928826    23.325634    21.946504     9178.055    3273.1103     2466.825    1114.7359   -308.58669    279.97107     116.2944   -4076.4102 
30080000    106.44839   -4548.2017   -4365.7528   -4548.2017            0    1135.2301    18.072572    23.236141    21.959317    9221.5257    1029.3778    2355.8511    20.461476   -202.52884   -120.47073    126.10688   -4213.0797 
30081000    99.770159   -4551.3491   -4380.3465   -4551.3491            0     1544.729     17.97058    23.356339    21.899056     9191.624    1586.0016    1084.4377    1963.7478    158.48597   -79.058829    355.31723   -4173.2749 
30082000    99.399929   -4560.8607   -4390.4926   -4560.8607            0    2083.0246    18.017541     23.30586    21.870264    9183.6363    1327.5876    1557.3607    3364.1255    460.54659   -192.07519   -137.59273    -4111.505 
30083000    98.730003   -4559.4659    -4390.246   -4559.4659            0    1835.3589    17.943212      23.3805    21.893481    9184.7811    1904.0167    1995.6147    1606.4453    93.679799    70.108057   -724.16058   -4144.3986 
30084000    114.03249   -4560.0459   -4364.5981   -4560.0459            0    1199.2339    17.909931    23.533752    21.883057    9223.4435    1980.0895    301.42051    1316.1916    405.91891    92.052614    458.11829   -4203.2838 
30085000    99.560335   -4550.4693   -4379.8263   -4550.4693            0    1666.3803    18.034455    23.478508    21.662883    9172.5434    1089.2118    1548.0225    2361.9067    220.97356    175.88834   -81.598112    -4156.911 
30086000     101.5619   -4555.6231   -4381.5495   -4555.6231            0    1311.4455    18.060892    23.365604    21.826522    9210.8724    621.29027    1186.6988    2126.3473    30.144383  -0.98952074   -132.62385   -4205.3816 
30087000    96.737774   -4552.9417   -4387.1365   -4552.9417            0    1574.7821    17.957023    23.379974    21.936902    9209.8731    1633.2476    2124.4797    966.61893   -739.81737     344.2201     386.2714   -4175.6172 
30088000    105.59945   -4548.9952   -4368.0014   -4548.9952            0    2197.2977    17.863018    23.493142    21.860854    9174.0913    1939.9363    2226.7445    2425.2122    187.55684    97.602242   -437.73414   -4074.0146 
30089000    98.089334   -4560.2171   -4392.0953   -4560.2171            0    1787.4046    17.899889    23.429468    21.858345    9167.0595    2260.2875    1203.2269    1898.6996   -763.62988   -55.503512   -44.295014   -4153.1333 
30090000    101.42617   -4551.7951   -4377.9541   -4551.7951            0    2045.1539    17.896036     23.38932     21.95058    9187.9882     2092.964    1859.7108    2182.7869   -1511.1777   -259.35658    684.44548   -4103.9088 
30091000    95.397532   -4556.7806   -4393.2725   -4556.7806            0    2441.7633    18.014415    23.169595    21.941364    9158.0333    3328.5161    2188.2333    1808.5404   -35.670902   -334.02616    614.79388   -4067.1493 
30092000    108.53052   -4560.1993   -4374.1817   -4560.1993            0     1383.054    18.005584    23.323514    21.942872    9214.9858    1175.9195    2226.8746    746.36783    261.86245    250.72242    209.94317   -4188.3115 
30093000    101.38498   -4562.4519   -4388.6816   -4562.4519            0    1902.3873    17.919739    23.288155    22.034572    9195.4162    2119.6667    1922.2728    1665.2224   -914.98891    79.672878    282.16796   -4133.5605 
30094000    100.45204   -4550.6785   -4378.5071   -4550.6785            0    2924.1493    17.912979    23.295166    21.936447    9153.7679    2193.2464    3868.1925    2711.0091    258.65114   -427.30375   -254.52128   -3988.1381 
30095000    99.154128   -4555.4066   -4385.4598   -4555.4066            0    2971.3853    17.770944    23.383429    21.987227    9136.6955    3402.2558    2735.1741     2776.726    23.607553   -618.90389   -73.272572   -3989.5247 
30096000    105.43417   -4550.7134   -4370.0028   -4550.7134            0    2605.0379     17.96234    23.247278    21.942502    9162.6515    2842.1552    2564.2854     2408.673   -308.45968   -423.04278     232.6013   -4021.8972 
30097000    105.49956   -4559.2223   -4378.3996   -4559.2223            0    2335.6623    17.948735    23.173398    22.028395    9162.3406    2636.6897    3406.3303     963.9668   -445.16112    260.43683   -454.94236   -4066.3006 
30098000    103.52887   -4570.6062   -4393.1613   -4570.6062            0    2627.5617    17.952689    23.267996    21.930115    9160.7155    2884.2695    2633.5169    2364.8988    80.080357   -621.38614     181.7065     -4042.12 
30099000    101.38179    -4550.437   -4376.6721    -4550.437            0    2224.5458    17.999214    23.225657    21.918489    9162.8833    2366.6325    1662.9424    2644.0626    13.907712    187.72266    166.45718   -4079.4033 
30100000    100.02761   -4559.9696   -4388.5256   -4559.9696            0    2259.8918    17.833991    23.360144    22.023982     9175.292    2332.1788    2635.8304    1811.6663    465.81058    84.813935   -44.857269   -4086.1245 
30101000    99.793049   -4562.8569    -4391.815   -4562.8569            0    2656.1296    17.841909    23.366923    21.944363    9148.8358    1796.7853    3516.6131    2654.9904   -702.58664   -362.92589    96.138124   -4037.4173 
30102000    108.80384   -4559.7666   -4373.2805   -4559.7666            0    2533.0648    17.951119    23.253456    21.975545    9173.1541    3252.6488     1959.932    2386.6136    616.35109   -263.25411   -17.319746   -4034.4045 
30103000    103.03435   -4549.0227   -4372.4254   -4549.0227            0    2796.4365    17.845406      23.3945    21.925791    9153.6747    2863.3551    2417.4738    3108.4805   -161.70112    249.43083    128.99671   -3999.1096 
30104000    104.05414   -4557.5876   -4379.2423   -4557.5876            0    2646.6445    17.853567    23.440509    21.886729     9159.524    2513.3834    1328.3881     4098.162    -426.9692    237.80728   -297.38138   -4025.6976 
30105000     106.5983   -4555.1834   -4372.4776   -4555.1834            0    2137.5058    17.939104    23.535873    21.746475    9181.6329    2677.1158    1523.0842    2212.3173   -662.92197   -325.41355   -254.50783   -4086.2555 
30106000    99.964946   -4563.1446   -4391.8081   -4563.1446            0    1498.0497    17.932351    23.388424    21.912288      9190.22    1102.1891    2133.2129    1258.7473   -154.02891   -122.35543    275.83622   -4191.0246 
30107000    100.80723   -4563.4125   -4390.6324   -4563.4125            0    1366.9847    17.866576    23.358744    22.054974    9204.4397    2007.4325    1150.0981    943.42343    0.1134642   -242.67828    -88.68251   -4207.1321 
30108000    100.83045   -4552.6242   -4379.8042   -4552.6242            0    2266.9235    17.948473    23.392537    21.830462    9165.7447    2273.1996    2701.3875    1826.1834   -350.96299   -330.10558    401.33825   -4076.7778 
30109000    106.70381   -4568.1556   -4385.2689   -4568.1556            0    1305.1034    17.887153    23.429065    21.944722    9196.5784     662.0238    999.79074    2253.4958    335.99395   -37.985476    747.22662    -4210.225 
30110000    100.97523   -4557.2595   -4384.1914   -4557.2595            0    2558.3505     17.89354    23.302004    21.952302    9153.1295    2748.9915    2858.2264    2067.8337    134.13481   -279.69707   -487.12478   -4042.6798 
30111000    101.12421   -4550.2777   -4376.9543   -4550.2777            0     1806.874    18.029082    23.273316    21.869005    9176.1584    1639.9635    1878.6658    1901.9926   -259.44912   -143.02613   -211.30071   -4135.1496 
30112000    107.59415   -4564.6145   -4380.2018   -4564.6145            0    1809.2658    18.112935    23.121584    21.890217    9167.6176    1405.6176    2402.3213    1619.8585   -260.89931   -105.99245   -80.419078   -4138.3024 
30113000    103.09427   -4561.0882   -4384.3882   -4561.0882            0    1241.4139    18.081123    23.265306    21.927139    9223.9327    799.96804     662.2314    2262.0423   -354.75314   -639.19831    556.23231   -4217.3912 
30114000    105.78307   -4546.7625   -4365.4539   -4546.7625            0    2233.2007    17.925195    23.334417    21.929678    9172.6131    2811.9662    2324.3403    1563.2957    1315.8486   -435.09155   -135.91702   -4066.7116 
30115000    103.41717   -4546.9605    -4369.707   -4546.9605            0    2726.9087    17.938425    23.353207    21.812781    9137.8047     2394.182    3478.8302    2307.7139   -360.74627    140.15189    14.173871   -4006.3041 
30116000    103.32716   -4564.2592     -4387.16   -4564.2592            0    2275.3477    17.863635    23.449744    21.835447    9146.8178    2122.1101    2566.9201     2137.013   -418.82745   -238.92559    61.720768   -4083.6355 
30117000     101.9202   -4568.0075   -4393.3198   -4568.0075            0    2366.4808    17.875085    23.429662    21.855083     9153.066    1743.7147    2928.9581    2426.7695    158.19897    1.6387494    235.08971   -4077.4228 
30118000     103.3396    -4567.813   -4390.6925    -4567.813            0    1150.3495    18.013081    23.356888    21.895889    9212.2468    1232.4063    1032.5275    1186.1146    439.70607   -816.50418   -71.000193   -4236.1417 
30119000    106.03303   -4556.3574   -4374.6204   -4556.3574            0    1456.1157    18.176538    23.048001    21.974684     9205.917    2044.8079    1598.2178    725.32142     152.5416    130.46688    84.483981    -4179.124 
30120000    100.37527   -4557.7367   -4385.6969   -4557.7367            0    1552.1189    17.962498    23.411928    21.826063    9178.6607    963.50656    2032.2572    1660.5929   -251.12168    56.916423    528.70325   -4177.9282 
30121000    99.319695   -4555.6398   -4385.4092   -4555.6398            0    1369.3786    18.002557    23.347584    21.866692    9190.9252    896.14137    1767.2015    1444.7928    317.97318   -711.44046   -16.885566   -4201.8574 
30122000     110.7214   -4560.2369   -4370.4643   -4560.2369            0    1421.3086    17.872775     23.21053    22.171407    9197.5104    1720.6962    1536.9856     1006.244    444.47325   -130.61212    21.605247   -4179.8152 
30123000    99.866601   -4565.2777   -4394.1098   -4565.2777            0    2034.2102    18.007815    23.195362    21.939332    9164.0105    2161.7763     2035.858    1904.9965    462.05926    127.98276     102.7519   -4122.2423 
30124000    105.64157   -4553.6804   -4372.6144   -4553.6804            0    1580.2873    18.069599    23.330768    21.744966     9167.191    809.68701     1815.397     2115.778   -943.27211    306.03274   -285.39501   -4161.3393 
30125000    111.01694   -4557.3797   -4367.1004   -4557.3797            0    2165.3198    17.950646    23.447501    21.817057    9182.7509    2813.4529    1048.7562    2633.7501   -689.98563   -31.696539    329.30347   -4077.1187 
30126000    104.70029   -4559.3004   -4379.8477   -4559.3004            0    2457.7829    17.868008    23.529813    21.781531    9157.6283    3090.4641    1485.7807    2797.1039   -26.053795    265.41786   -370.32305   -4051.5995 
30127000    106.35244    -4558.956   -4376.6716    -4558.956            0    2028.8248    17.960471    23.313852    21.909557    9174.1396    1925.5737    1631.3239    2529.5766   -486.41895   -396.43122    -25.48988   -4105.2241 
30128000    99.981511   -4548.9162   -4377.5513   -4548.9162            0    1913.6593    18.020382    23.217266    21.918939    9170.5337     897.7362    2615.1544    2228.0874   -45.434575    100.46993    459.81948   -4121.6131 
30129000    103.63527   -4550.6491   -4373.0218   -4550.6491            0    1450.9132    17.932317    23.354973    21.957206     9195.871    1032.6447    1216.8666    2103.2282   -370.71007   -201.54076   -249.46113   -4178.4364 
30130000    100.87268   -4563.8802   -4390.9879   -4563.8802            0    1753.1429    17.901468    23.432242    21.901178    9186.9205    2207.4737    1613.1595    1438.7954    174.88564    93.926169    194.67207   -4156.0986 
30131000    100.00006   -4565.8188   -4394.4221   -4565.8188            0    2045.5672    17.893819    23.486998    21.851786    9183.6959    1376.0133    2194.6983    2565.9899   -276.67255    109.16354   -26.761878   -4120.4495 
30132000    101.23248   -4541.9127   -4368.4037   -4541.9127            0    1741.0422    17.965966    23.346528    21.976518    9217.8949    912.94988     2351.459    1958.7177   -15.728485   -133.85206    459.61462   -4134.3492 
30133000    99.344062   -4557.8123     -4387.54   -4557.8123            0    1297.1394     18.04336    23.363675    21.854662    9213.0337    838.53346    1259.2257    1793.6589   -139.79631    255.01836    751.40274   -4213.2529 
30134000    103.26314   -4570.2716   -4393.2822   -4570.2716            0    1896.1098    18.135016    23.224234    21.771376    9169.4911    1147.5871    1521.8286    3018.9138     251.4037   -206.32038     450.8943   -4139.7199 
30135000    98.645398   -4564.1158    -4395.041   -4564.1158            0    1926.2898    17.924345    23.208136    22.069585    9180.7405    1777.7992    1853.5553    2147.5149     -36.4815    49.007606   -146.95343   -4137.1268 
30136000    102.12324   -4555.7424   -4380.7067   -4555.7424            0    2360.6069    17.851699    23.327752    22.029871    9174.1199    2184.2158    2079.7427    2817.8621     238.4033   -126.46409    99.823413    -4064.869 
30137000    96.506415   -4554.0495   -4388.6408   -4554.0495            0     1903.462    17.894065    23.356465    21.961622    9178.6864    1984.7607    1793.6964    1931.9287    768.09914    344.51767    45.668628   -4133.8401 
30138000    106.20927   -4562.1054   -4380.0664   -4562.1054            0    1612.2671     17.84403    23.280122    22.129483    9192.8349    1998.6764    2231.8592    606.26573    211.96716    249.52989    29.536845   -4163.9128 
30139000    95.167656   -4562.7614   -4399.6472   -4562.7614            0    2057.8021    17.922327     23.26728    21.998786    9173.5776    1850.0509     2583.276    1740.0794   -246.21075     118.1283    510.52628   -4124.3396 
30140000    101.54987   -4554.0849   -4380.0319   -4554.0849            0    2207.1192    18.021253    23.197008    21.928207    9166.8489    2547.9242    1806.6705    2266.7628   -181.47937   -70.639368    274.47345   -4084.9642 
30141000    101.21979   -4565.7497   -4392.2624   -4565.7497            0    2871.3569    17.998518    23.238553    21.824238    9128.1953    3352.1436    1864.4126    3397.5146    144.97918   -542.36949    44.345655   -4010.0119 
30142000    99.058818    -4558.829   -4389.0456    -4558.829            0     1595.402    17.937147    23.339777    21.941022    9185.5874    995.57151    2468.9086    1321.7259   -690.51895    94.070205    445.34477   -4175.3218 
30143000    97.093853   -4551.7784   -4385.3628   -4551.7784            0    2367.3406    17.783867    23.504716    21.892054    9150.9825    1392.6176    1893.7434    3815.6607    198.73924   -341.17614   -352.75938    -4069.423 
30144000    104.10925   -4561.1696   -4382.7299   -4561.1696            0    2407.2405    17.960672    23.264914    21.878191    9141.8785    2195.8812    2549.5753    2476.2651    -45.62757   -229.73112    386.82917   -4061.7847 
30145000    107.41308   -4554.4617   -4370.3593   -4554.4617            0    2112.3613    18.072969    23.177726    21.879331    9165.0399    1427.7316    2791.6706    2117.6816   -13.855228   -13.179989   -56.741007   -4088.0154 
30146000    100.75145   -4559.3867   -4386.7022   -4559.3867            0    1972.6957    18.012162    23.226725    21.907151    9165.1529    2238.7292    2730.3745    948.98325   -181.19066    409.51077    190.93349   -4123.0231 
30147000    97.877301   -4560.1125   -4392.3542   -4560.1125            0    2912.6361    17.979189    23.225253    21.866478    9130.8114    3149.6995    3424.2022    2164.0065   -642.83925    -161.9023    570.95736   -4004.4973 
30148000    95.782251    -4558.768   -4394.6005    -4558.768            0    2031.3666    17.932655    23.303273    21.924221    9161.9028    1725.9563    2019.0005    2349.1431   -300.67972    459.90467    69.824086   -4123.1755 
30149000    108.59972   -4552.7835   -4366.6473   -4552.7835            0    2569.1038    17.905955    23.225334     22.02447    9159.3556    2077.3099     3031.293    2598.7085   -329.57765    36.982812    278.37839   -4023.4669 
30150000    101.91292   -4561.8693    -4387.194   -4561.8693            0    2419.7312    17.946526    23.280692    21.920439    9158.5248    1527.0301    2308.9775    3423.1859   -147.88949   -344.90778   -355.32163   -4063.9961 
30151000    104.36577    -4550.969   -4372.0897    -4550.969            0    1117.4875    17.932338    23.391551    22.001744    9228.9656    1343.9582      748.446    1260.0583     420.3998   -692.63234    184.57563   -4221.6814 
30152000    99.648856   -4565.9357    -4395.141   -4565.9357            0    1837.4804    17.957768    23.410737      21.8573    9188.9092    1502.2782    1915.9681    2094.1948   -411.82673    26.902401    332.83477   -4148.8988 
30153000    101.50127   -4551.6097     -4377.64   -4551.6097            0    2628.6939    17.905462    23.373802    21.853862    9146.2504    1303.1825    2797.2307    3785.6683   -891.40773    374.74572   -319.22906    -4027.002 
30154000    95.593412   -4552.5012   -4388.6574   -4552.5012            0    2639.9281    17.823098    23.367095    21.953509    9143.0665    2854.0533    1204.9074    3860.8235   -143.36005   -85.432545    180.62756   -4036.6434 
30155000    102.00692   -4558.2231   -4383.3867   -4558.2231            0     841.3459    17.951408     23.37727    21.973931    9221.4678    358.36324     486.0669    1679.6075    90.767121    137.94091   -353.51431   -4270.2378 
30156000    96.251658   -4565.8009   -4400.8289   -4565.8009            0    2356.1769    17.862518    23.463053    21.856267    9160.1627    1985.9339    1704.2151    3378.3818   -378.10538   -142.87041    92.461959   -4086.0635 
30157000    102.34004    -4563.915   -4388.5077    -4563.915            0    1645.1732    17.915077    23.329475    22.028798    9206.9217    1430.8978    1557.2254    1947.3962    35.785549   -88.946974   -561.95245   -4167.6045 
30158000    99.397345   -4557.9815   -4387.6179   -4557.9815            0    2732.0127    17.909807    23.278248     21.94458    9148.8918    2804.3014    2124.4949    3267.2417   -590.59829    303.62716   -308.58321   -4023.0931 
30159000    98.211501   -4552.3852   -4384.0541   -4552.3852            0      2020.27     17.85368    23.517427    21.907548    9198.3793    2076.8736    1245.6219    2738.3145    376.17033     32.60811    63.744524    -4113.037 
30160000      109.094   -4556.8388   -4369.8554   -4556.8388            0    1881.4595    17.857551     23.45157    21.943259    9189.5645     2377.492    1282.6895    1984.1971    387.66923    470.63769    121.74923   -4117.7015 
30161000    98.993922   -4564.6397   -4394.9675   -4564.6397            0    2414.9334    17.913534    23.308237    21.944052    9162.3633    3510.0935    2529.7426     1204.964   -290.24514   -666.68433    303.80345   -4072.2753 
30162000    98.755225   -4555.7114   -4386.4483   -4555.7114            0    1773.5055    17.917696    23.510127    21.848418    9203.5873    2742.3149    1018.1149    1560.0868    518.99999   -533.27356    18.986756   -4148.3997 
30163000    105.82211   -4561.2367   -4379.8612   -4561.2367            0    1984.9068     17.90454    23.529376     21.77554    9173.6571    2693.2579    1097.9112    2163.5513   -407.62024    -318.9331   -263.31751   -4114.3037 
30164000    102.10143   -4562.2691   -4387.2707   -4562.2691            0    1983.1753    18.009584    23.419748    21.788591    9189.9897    2782.8495    1491.6147    1675.0617   -99.880507   -187.51766    110.65769   -4121.4725 
30165000    99.941079   -4554.5472   -4383.2516   -4554.5472            0    2535.0257    17.997878    23.323719    21.876973    9183.4598    1752.5948     3246.817    2605.6652    474.64207     93.87687    600.04162   -4043.7322 
30166000    106.02021   -4558.2491   -4376.5341   -4558.2491            0    2315.8393    17.899372    23.344969    21.941525    9168.4921    1813.6837    2445.7125    2688.1216    361.86416   -128.86976    267.38166   -4066.8762 
30167000    104.67362   -4571.9115   -4392.5045   -4571.9115            0    2646.0426    17.830729    23.417511     21.93415    9158.6325    2527.6476    2197.9914    3212.4889    141.83135    4.7125159    414.98723   -4039.0746 
30168000    106.86453   -4550.5524   -4367.3902   -4550.5524            0     520.9425    17.898001     23.61542    21.930673    9269.4112    412.06597   -135.74489    1286.5064   -1028.7504   -152.33751    397.21091   -4296.9667 
30169000    102.86728   -4546.4884   -4370.1774   -4546.4884            0    990.76883     17.95693    23.388236    21.995385    9237.6419    1237.6773    1116.3492    618.28005    1026.0365    410.03735     36.65081   -4236.6995 
30170000    102.23515   -4560.3542   -4385.1266   -4560.3542            0    1186.6894    17.963026    23.357977     22.00457    9232.6762    557.97181    1384.1191    1617.9773    158.79447   -411.80124    240.07288     -4225.34 
30171000    101.59542   -4556.5616   -4382.4305   -4556.5616            0    2456.2419    17.939952    23.459725    21.743559    9151.1319    2587.6523    2051.4005    2729.6728    574.19228    239.64283    265.93848   -4054.6208 
30172000    99.599187   -4556.3403   -4385.6308   -4556.3403            0    2389.2421    17.967076    23.320714    21.885268    9170.0376      2562.98     1618.757    2985.9892   -203.17101    6.4048208   -53.395831    -4066.104 
30173000     102.3457   -4562.8148   -4387.3978   -4562.8148            0     1910.064    17.977194    23.403111    21.841861    9189.3574    1254.4009    1678.1096    2797.6814   -321.02033    561.40612   -253.96826   -4131.4161 
30174000    98.529072   -4560.5149   -4391.6394   -4560.5149            0    1549.3296    17.964899     23.44838    21.856439    9206.9766    967.38036    2201.5048    1479.1038   -759.21527    190.44556    269.11857   -4183.6043 
30175000    102.22877   -4554.0816    -4378.865   -4554.0816            0    1220.5889    17.895833    23.402302    22.044333    9232.2478    1638.4313    503.31132     1520.024   -785.39492   -350.03086     159.4514   -4214.5215 
30176000    103.41444   -4564.4348   -4387.1859   -4564.4348            0    835.36929    17.986537    23.344072    22.030971    9250.3423    910.51745    535.78379    1059.8066   -141.53724   -274.18845    191.19585    -4274.489 
30177000    107.17879   -4555.7743   -4372.0735   -4555.7743            0    2036.5021    17.961781    23.398748    21.830736    9175.0911    753.08547    1841.7654    3514.6553    161.81748   -298.69274    2.0640938   -4099.5706 
30178000    106.12131   -4556.7852   -4374.8969   -4556.7852            0    2457.0122    17.928566    23.419274    21.834578    9167.7717    999.17881    2852.9246    3518.9332    27.108667    166.64295   -545.26263   -4046.3881 
30179000    101.05465   -4555.5204   -4382.3162   -4555.5204            0    1810.2629    18.036691    23.177628    21.990684    9193.1553     1695.209    1263.0915    2472.4882   -177.61228   -674.35018    275.47797   -4139.6093 
30180000    99.367475   -4554.5375    -4384.225   -4554.5375            0    1454.0823    18.005638    23.191262    22.024943    9197.0317    569.86612    2817.8617    974.51903   -514.32715   -181.09375    191.02352     -4189.19 
30181000    102.99792   -4555.5919    -4379.057   -4555.5919            0    1656.9292    17.979014    23.254607    22.073217    9228.6996    1066.4456    2260.6925    1643.6494    438.47992   -150.70631   -54.614167    -4156.049 
30182000    108.36314   -4554.8528    -4369.122   -4554.8528            0    1736.1717    17.987809     23.28662    21.952834    9195.4992    17.477853    1963.1839    3227.8535    107.17354   -274.87837   -63.424795   -4136.2894 
30183000    103.94477   -4568.2315   -4390.0738   -4568.2315            0    1817.9187    17.970375    23.238728    21.997843    9186.4899    1897.2405     2282.808    1273.7076    211.52057    473.33213    557.22155   -4146.5171 
30184000    98.356035   -4560.7928    -4392.214   -4560.7928            0    1839.6532    18.008507    23.218891    22.020002    9207.3901    1153.8515    3397.1356    967.97237    171.66766   -304.52143    190.22924   -4145.1847 
30185000    106.52181   -4557.5887    -4375.014   -4557.5887            0    1886.0237    18.024365    23.318469     21.86074    9188.0823    1770.2281    2187.7471     1700.096    332.97868     176.6017    46.715785   -4122.2891 
30186000    107.72693   -4557.8851   -4373.2448   -4557.8851            0    2459.5082     18.03726     23.33555    21.780983    9167.8198    2440.5884    1957.6885    2980.2477     94.08077     262.4156   -131.12417   -4044.4006 
30187000    98.457039   -4552.9546   -4384.2026   -4552.9546            0    2426.1664    17.984667     23.31336    21.856962    9164.2527    2001.7322    2196.4906    3080.2764   -331.90095    317.47695   -192.82352   -4059.9425 
30188000    104.82301   -4547.8989   -4368.2359   -4547.8989            0    1880.3712    17.833784    23.457621    22.002684    9204.5622    2332.8874      1520.57    1787.6563    424.93372   -186.55942     104.4185   -4115.8165 
30189000    104.07559   -4571.6562   -4393.2742   -4571.6562            0    1267.0009    17.849647    23.412539    22.101692    9236.4199    867.13261    1448.6056    1485.2643   -256.34874   -21.954525   -70.449666   -4222.6045 
30190000    108.32181   -4552.0691   -4366.4092   -4552.0691            0    783.80097    18.003435    23.374777    21.959924    9241.3131   -266.78976    1123.3946    1494.7981   -67.826667   -455.11204    639.17049   -4260.7724 
30191000    107.00353   -4562.1983   -4378.7979   -4562.1983            0    2515.4085    17.856669    23.486936    21.791142     9139.171    2826.4444    2410.2062    2309.5748   -534.84811    566.92864   -893.17778   -4043.5306 
30192000    106.61701   -4560.4783   -4377.7404   -4560.4783            0    3057.0321      17.8259    23.453995    21.841688    9131.7601    4058.2662    2913.1151    2199.7151    102.92865    79.162967    3.5211966   -3970.6129 
30193000    101.63071   -4552.9142   -4378.7227   -4552.9142            0    2396.0408    17.977461    23.242138    21.917435    9157.8631    2071.8098    2625.4988    2490.8139   -442.44812   -546.78275    406.71575   -4058.7122 
30194000    102.44973   -4546.3968   -4370.8015   -4546.3968            0    1686.2976    18.062135    23.357399    21.776271    9187.0709    857.59578    1250.6196    2950.6774     216.4614   -108.41935    -57.13029   -4144.8646 
30195000    100.01586   -4556.8192   -4385.3954   -4556.8192            0    2289.6696    18.030032    23.270257     21.91532    9194.8678     1362.081     2712.341    2794.5869   -235.53949   -556.07077    467.77776    -4078.356 
30196000    100.97378   -4556.3499   -4383.2843   -4556.3499            0    1085.2756    17.921687    23.446738    21.995341     9242.554    1139.6766    939.77006    1176.3801   -297.56454   -157.21706   -38.370536   -4236.9966 
30197000    95.520143   -4544.5706   -4380.8524   -4544.5706            0    1214.5613    17.890668    23.363332    22.079269    9228.8172    1153.3448    1372.5882    1117.7509     347.6782   -156.29804    205.85761   -4217.3811 
30198000    101.37869    -4553.282   -4379.5224    -4553.282            0    2030.5535    17.825997    23.317603    22.080982    9178.1706    1898.4427    1982.4586    2210.7594    860.58922   -169.15645    241.44576   -4107.7243 
30199000    102.24418   -4543.5864   -4368.3434   -4543.5864            0    3124.9992    17.963351    23.175082    21.935055      9131.61    3462.8329    3717.2613    2194.9034   -891.49667   -42.514177    381.50544   -3952.1711 
30200000    97.449048   -4554.1447   -4387.1204   -4554.1447            0    1584.9073    17.967404    23.337137    21.991089    9221.0346     1567.289     1856.445    1330.9879   -666.78425   -497.52296   -246.92835   -4173.9831 
30201000    99.077051   -4551.6623   -4381.8476   -4551.6623            0    1690.1047    18.002208    23.307387    21.933316    9202.8775    1380.7016    1830.1915    1859.4211   -17.746329    19.391815    387.39383    -4155.011 
30202000    102.08084   -4554.1295   -4379.1665   -4554.1295            0    2409.4009    17.949228    23.229076    21.954357    9153.7369    2623.3434    2858.2175    1746.6418   -172.82636   -597.44133   -224.81458   -4057.5166 
30203000    102.09141   -4563.6541   -4388.6729   -4563.6541            0    2243.5515     18.01035     23.23748      21.9023    9166.4444    2459.5892    2577.0569    1694.0083   -543.29909    707.27861   -112.21704   -4088.7478 
30204000    100.10081   -4562.0454   -4390.4761   -4562.0454            0    1714.3051    18.064552    23.325641    21.811576    9190.6839    958.41574    1271.5422    2912.9573   -456.44611   -514.09585    441.75226   -4160.6963 
30205000    95.914651   -4558.1982   -4393.8037   -4558.1982            0    2223.9735     18.00908    23.291793    21.888182    9181.2994    1627.3229    2414.7391    2629.8585   -182.18742    71.432666   -246.70959    -4096.014 
30206000    102.72024   -4565.3585   -4389.2995   -4565.3585            0    2443.8861    17.990551    23.372904    21.789973    9162.4968    1847.9467    2960.0903    2523.6214     -621.253   -95.701648    839.95892   -4062.7338 
30207000    98.279191   -4552.1207   -4383.6735   -4552.1207            0    2440.4141    17.880069    23.367434    21.915799    9156.6694    1655.5419    3024.6711    2641.0294    250.67675   -82.349925    204.74907   -4057.7791 
30208000     107.0079   -4553.7138   -4370.3059   -4553.7138            0    2013.7825    17.786644    23.257896    22.137212    9157.7196    2247.3595    1660.4752    2133.5128    423.00511    -37.98995    -78.11894   -4101.3533 
30209000    108.96175   -4566.2494   -4379.4927   -4566.2494            0    3111.1241     17.94657     23.10318    21.940376    9096.9809    2344.7257    4091.6086    2897.0379    -461.5504    145.31775    541.86309   -3966.7394 
30210000    109.86818   -4558.1848   -4369.8745   -4558.1848            0     3116.635    17.795932    23.294611    22.007447    9123.1723    3158.2664    3152.9651    3038.6735    249.83492    609.16719    331.53607   -3955.1996 
30211000    100.58043   -4556.5166   -4384.1252   -4556.5166            0    1812.0025     17.83919    23.401099    21.997581    9183.0364    2100.0468    1268.8773    2067.0833    302.92685   -107.76814   -183.27345   -4141.4525 
30212000    107.90896   -4562.3469   -4377.3946   -4562.3469            0    2515.5779    17.938116    23.282612    21.863738    9131.3067     2783.381    1982.6283    2780.7245    258.54084     61.39666    436.37066   -4042.3932 
30213000    108.29196   -4559.3687     -4373.76   -4559.3687            0    1931.7284    17.907719    23.209769    22.091127    9181.8244    2154.9684    2866.7088    773.50792   -605.01133     117.6413   -283.24352   -4115.0871 
30214000    103.22322   -4561.5143   -4384.5933   -4561.5143            0    2733.4858    17.854083    23.235268    22.031277    9139.5521    3550.0707    2907.3193    1743.0675   -179.74704    -106.1909    226.08364   -4020.2442 
30215000    101.39686   -4574.7261   -4400.9353   -4574.7261            0    2987.7121    17.812536    23.341229    21.947893     9125.198    3995.0681    2981.3078    1986.7603    352.47495    392.86219    131.33931   -4003.3257 
30216000    101.78262   -4563.7792   -4389.3273   -4563.7792            0    2185.9721    17.917115    23.402298    21.844308    9159.3544    2426.7269    2080.2597    2050.9297    432.15469   -289.81336    248.91759   -4097.3256 
30217000    97.543334   -4561.9341   -4394.7482   -4561.9341            0    1887.1571    17.875167    23.511986    21.861731    9188.0631    1369.5014    1526.3542    2765.6157   -41.133356    -362.2114   -385.92719    -4141.872 
30218000    97.481945   -4546.2048   -4379.1241   -4546.2048            0    1399.3074    18.049567    23.178505    22.031826    9217.2781    1255.0841    2936.2817    6.5562632    177.37202    52.992892    803.92569   -4191.0228 
30219000    103.52724   -4554.0233   -4376.5812   -4554.0233            0    1591.3088    18.051081    23.165614    21.991875    9196.2187    1822.6351    2404.1337    547.15748   -427.83807   -15.176455    661.07872   -4163.1589 
30220000    97.932121    -4558.604   -4390.7517    -4558.604            0    1940.9317      17.8891    23.328227    21.993311    9178.2699    3439.3902    1227.8252    1155.5798    -144.4035   -485.82064    83.215413    -4130.947 
30221000    101.55966   -4555.4289   -4381.3592   -4555.4289            0    3015.6569    17.857376    23.345674    21.874927    9119.4925    3051.8089    2319.5106     3675.651    47.607912    248.68437    214.01201   -3980.2815 
30222000     103.8112   -4567.0776   -4389.1488   -4567.0776            0    2091.0091    17.874784    23.466054    21.824449    9154.2795    3007.2572    1172.8095    2092.9608    -209.1749   -262.51919   -174.15876    -4109.987 
30223000    100.68827   -4559.8716   -4387.2954   -4559.8716            0    2025.8539    18.009318      23.4165    21.766206    9179.1398    1269.2568    1241.6151    3566.6899    639.04122   -50.124974    225.36875   -4116.0977 
30224000    99.232824   -4552.1354   -4382.0537   -4552.1354            0     2240.475    17.973933    23.339598    21.888115    9182.1599    2914.1701    1915.2404    1892.0146   -221.53814   -401.16022   -785.29409   -4082.0264 
30225000    100.67022   -4561.1469   -4388.6016   -4561.1469            0    2200.1643     17.97232    23.389636    21.833228    9177.9471    2578.6103    2891.1193    1130.7633   -463.10275   -176.74445    114.96551   -4094.1075 
30226000    106.58131   -4564.9681   -4382.2914   -4564.9681            0     2107.162    17.902766    23.374942    21.880961    9156.6597    2009.1661    2099.4414    2212.8785    282.64052   -280.01539    589.56621   -4100.8999 
30227000    107.72739   -4541.9974   -4357.3563   -4541.9974            0    2312.9769    17.914596    23.214944    22.022831    9158.9947    3349.4472    2694.9109    894.57267   -388.78725    66.630784   -38.027121   -4048.4015 
30228000    104.81084   -4551.1237   -4371.4815   -4551.1237            0    2543.8613    18.016644    23.390363    21.711342    9149.5034    2012.5226     2383.015    3236.0464   -1004.0453    302.30166    156.85011   -4032.0385 
30229000    104.71613   -4556.7696   -4377.2897   -4556.7696            0    1982.4068    17.989476    23.327778    21.851229    9169.9667    1194.8794    2143.8596    2608.4813   -29.346568    680.18694    24.346175   -4112.1734 
30230000    107.64965   -4552.1674   -4367.6596   -4552.1674            0    2626.3863    17.906048    23.153283    22.035144    9135.4138    2244.4699    3399.5073    2235.1818   -419.22236    205.69923     19.69953   -4017.7445 
30231000    107.60303   -4558.8552   -4374.4273   -4558.8552            0     2675.449    17.828796    23.232812    22.101444    9154.7072     3206.982     2191.096     2628.269    301.21197   -358.36801   -250.17998   -4017.2227 
30232000    104.11003   -4558.7451    -4380.304   -4558.7451            0    1367.6217    18.000461    23.374764    21.886526    9208.8986    1380.3342     636.2251    2086.3057    149.64725    387.36615    341.73452   -4196.6293 
30233000     101.9271   -4564.1005   -4389.4009   -4564.1005            0    2086.0352    18.010784    23.261759    21.893681    9172.6318    2435.7758    2563.8227    1258.5071   -270.51414   -440.89711    304.41513   -4110.3448 
30234000    107.09142   -4556.0321    -4372.481   -4556.0321            0    2017.1453    17.967661    23.199617     21.98062    9162.4647    2182.9681    2258.7892    1609.6785    474.29606   -374.27252    168.36461   -4102.9397 
30235000    102.47492   -4564.3179   -4388.6794   -4564.3179            0    1406.8499    17.905751    23.360005    21.968318    9188.8734    2218.9479    876.73904    1124.8627    230.00375       240.08    430.96883   -4200.1471 
30236000    103.81204   -4562.7972   -4384.8669   -4562.7972            0    1617.5689    18.034705    23.253039    21.947831      9204.08    1241.1068    1543.2556    2068.3442    819.06388   -115.48626    95.023734   -4167.7373 
30237000    102.40535    -4556.276   -4380.7567    -4556.276            0    2208.6352    18.112356    23.049552    21.941895    9160.3397    2662.5594    2404.6848    1558.6615   -98.503378    493.27563   -282.92801   -4085.6959 
30238000    100.41448   -4547.1704   -4375.0634   -4547.1704            0    2553.1241    17.944168     23.22129     21.92985    9137.8779    4065.8463    2576.3568    1017.1691    -281.7819   -257.97087    37.496054   -4034.8173 
30239000    103.53161   -4555.4055   -4377.9558   -4555.4055            0    2538.2902    17.943319     23.14714     22.01163    9142.2339    3397.4434     2301.491     1915.936   -158.61343   -477.83523   -157.55075   -4039.5253 
30240000    106.15913   -4560.1273   -4378.1741   -4560.1273            0    1735.4899     18.03358    23.140688    21.960217    9164.2058    2610.7484    1122.7416    1472.9797    519.16855    372.37798    236.37563    -4146.225 
30241000    98.231424   -4557.2519   -4388.8866   -4557.2519            0    2699.9068     17.96139    23.186322    21.881143    9112.5895    3177.9839    2417.7318    2504.0045   -28.797773    432.39247   -16.598169    -4030.075 
30242000    104.66802   -4560.5707   -4381.1733   -4560.5707            0    2671.6366    17.924041    23.236355    21.964306    9147.8999    3526.9654    3000.2053    1487.7392    309.36754    -250.2672    180.53761   -4024.7429 
30243000      107.255   -4552.2547   -4368.4233   -4552.2547            0    2159.7441    18.109664    23.231777    21.841178    9189.0134    2114.1293     2172.644     2192.459   -1000.0322   -131.41801    331.36666    -4078.991 
30244000    100.59259   -4547.8126   -4375.4003   -4547.8126            0    1856.2041    17.991491    23.342631     21.85317    9177.6483    1144.3299    1776.8131    2647.4693   -190.58262   -287.53755    259.79275   -4126.9537 
30245000    106.96676   -4553.4227   -4370.0854   -4553.4227            0    3427.3861    17.876836    23.301065    21.898387    9121.7582    3459.8253    3631.6575    3190.6756    451.83225    440.39785    474.38341   -3914.1351 
30246000    101.40644   -4556.8055   -4382.9983   -4556.8055            0    1755.3618     17.97331    23.281653     21.94731     9183.816    1393.0298    2184.1675    1688.8883   -360.28444   -391.78408    107.26909   -4147.8912 
30247000    104.61115   -4560.4688   -4381.1688   -4560.4688            0    1835.1829    18.036631      23.3196    21.817444    9176.5704    1971.0826    1423.7622    2110.7038   -261.24237    191.21877    333.04052   -4135.5647 
30248000    104.25032   -4552.0874   -4373.4059   -4552.0874            0    1427.1716    18.057532    23.439386    21.806348    9229.6999    487.87486    1247.7022    2545.9376    873.72718   -270.91384   -93.869398   -4181.3005 
30249000    99.980986   -4561.5421   -4390.1781   -4561.5421            0    1489.5635    18.042022    23.389698    21.835695    9214.6078    1438.5818    1473.6803    1556.4283   -596.12245    179.06947    362.26855   -4190.0022 
30250000    109.38352   -4549.7428   -4362.2632   -4549.7428            0    2243.9308    17.969787    23.364374    21.862296    9178.9465    1702.6136    2640.8083    2388.3705    68.656103    148.29309    85.307048   -4061.8783 
Loop time of 411.912 on 64 procs for 250000 steps with 864 atoms

Performance: 104.877 ns/day, 0.229 hours/ns, 606.925 timesteps/s
193.5% CPU use with 32 MPI tasks x 2 OpenMP threads

MPI task timing breakdown:
Section |  min time  |  avg time  |  max time  |%varavg| %total
---------------------------------------------------------------
Pair    | 17.469     | 25.157     | 35.981     | 115.0 |  6.11
Bond    | 0.9977     | 1.1899     | 1.7451     |  12.5 |  0.29
Kspace  | 203.3      | 216.27     | 227.04     |  44.9 | 52.50
Neigh   | 0.50776    | 0.58114    | 0.65686    |   5.1 |  0.14
Comm    | 64.343     | 69.165     | 74.279     |  31.9 | 16.79
Output  | 0.57568    | 0.57598    | 0.57761    |   0.0 |  0.14
Modify  | 74.9       | 77.442     | 81.102     |  18.0 | 18.80
Other   |            | 21.53      |            |       |  5.23

Nlocal:        27.0000 ave          37 max          18 min
Histogram: 3 7 3 3 1 2 4 1 1 7
Nghost:        2151.06 ave        2266 max        2047 min
Histogram: 9 7 0 0 0 0 0 3 7 6
Neighs:        6616.97 ave        9032 max        4264 min
Histogram: 2 7 3 4 1 1 4 2 2 6

Total # of neighbors = 211743
Ave neighs/atom = 245.07292
Ave special neighs/atom = 2.0000000
Neighbor list builds = 1964
Dangerous builds = 0

unfix		3
unfix		2
unfix		1

write_data	data.final.${pid} nocoeff
write_data	data.final.0 nocoeff
System init for write_data ...
PPPM initialization ...
  extracting TIP4P info from pair style
  using 12-bit tables for long-range coulomb (../kspace.cpp:340)
  G vector (1/distance) = 0.37204181
  grid = 24 27 25
  stencil order = 5
  estimated absolute RMS force accuracy = 0.0031175098
  estimated relative force accuracy = 9.388288e-06
  using double precision FFTW3
  3d grid and FFT values/proc = 4410 672
Last active /omp style is kspace_style pppm/tip4p/omp

write_restart   restart.lmp.${pid}
write_restart   restart.lmp.0
System init for write_restart ...
PPPM initialization ...
  extracting TIP4P info from pair style
  using 12-bit tables for long-range coulomb (../kspace.cpp:340)
  G vector (1/distance) = 0.37204181
  grid = 24 27 25
  stencil order = 5
  estimated absolute RMS force accuracy = 0.0031175098
  estimated relative force accuracy = 9.388288e-06
  using double precision FFTW3
  3d grid and FFT values/proc = 4410 672
Last active /omp style is kspace_style pppm/tip4p/omp
Total wall time: 0:06:52
