LAMMPS (30 Jul 2021)
  using 1 OpenMP thread(s) per MPI task
package omp 0
using multi-threaded neighbor list subroutines
echo both

include		in.partitions
variable        pid world 0
include		in.temp
variable        temperature equal 257.88
variable	tempDamp equal 100.0
include		in.pressure
variable        pressure equal 6875.0
variable        pressureDamp equal 1000.0 # This is 1 ps
include		in.seed
variable        seed world 745823

units		real
atom_style	full
read_restart    restart.lmp.${pid}
read_restart    restart.lmp.0
Reading restart file ...
  restart file = 30 Jul 2021, LAMMPS = 30 Jul 2021
  restoring atom style full from restart
  triclinic box = (-3.2233950 -0.18617898 -0.032418788) to (14.833394 22.766178 19.262417) with tilt (-0.27749740 -6.6742735 0.26230403)
  4 by 4 by 4 MPI processor grid
  restoring pair style lj/cut/tip4p/long/omp from restart
  restoring bond style harmonic/omp from restart
  restoring angle style harmonic/omp from restart
  1008 atoms
  672 bonds
  336 angles
Finding 1-2 1-3 1-4 neighbors ...
  special bond factors lj:    0        0        0       
  special bond factors coul:  0        0        0       
     2 = max # of 1-2 neighbors
     1 = max # of 1-3 neighbors
     1 = max # of 1-4 neighbors
     2 = max # of special neighbors
  special bonds CPU = 0.088 seconds
  read_restart CPU = 0.112 seconds

include 	in.setup
variable	out_freq equal 1000
variable	out_freq2 equal 10000
variable	out_freq3 equal 1000

timestep	2.0

neigh_modify    delay 7 every 1

include		in.tip4p
# This is TIP4P/Ice

# create groups ###
group ox type 2
336 atoms in group ox
group hy type 1
672 atoms in group hy

# set charges - beside manually ###
set group ox charge -1.1794
Setting atom values ...
  336 settings made for charge
set group hy charge 0.5897
Setting atom values ...
  672 settings made for charge

# ### TIP3P Potential Parameters ###
pair_style lj/cut/tip4p/long/omp 2 1 1 1 0.1577 8.5
pair_coeff 1 1*2 0.000 0.000
pair_coeff 2 2 0.21084 3.1668
bond_style  harmonic
bond_coeff  1 450 0.9572
angle_style harmonic
angle_coeff 1 55 104.52
kspace_style pppm/tip4p/omp 1.0e-5
pair_modify tail yes

thermo          ${out_freq}
thermo          1000
thermo_style    custom step temp pe etotal epair emol press lx ly lz vol pxx pyy pzz pxy pxz pyz enthalpy

restart 	${out_freq3} restart.lmp.${pid} restart2.lmp.${pid}
restart 	1000 restart.lmp.${pid} restart2.lmp.${pid}
restart 	1000 restart.lmp.0 restart2.lmp.${pid}
restart 	1000 restart.lmp.0 restart2.lmp.0


include         in.dump
dump            myDump all atom ${out_freq2} dump.water.${pid}
dump            myDump all atom 10000 dump.water.${pid}
dump            myDump all atom 10000 dump.water.0
dump            myDump2 all dcd ${out_freq2} dump.dcd
dump            myDump2 all dcd 10000 dump.dcd
dump_modify     myDump append yes
dump_modify     myDump2 append yes


variable natoms 	equal  "count(all)"                        # NUMBER ATOMS
variable H      	equal  "enthalpy/v_natoms"                 # ENTHALPY-per-atom
variable Vol      	equal  "vol/v_natoms"                 # volume-per-atom
fix AVG all 		ave/time ${out_freq} 1 ${out_freq} v_Vol v_H file vol_enthalpy.dat
fix AVG all 		ave/time 1000 1 ${out_freq} v_Vol v_H file vol_enthalpy.dat
fix AVG all 		ave/time 1000 1 1000 v_Vol v_H file vol_enthalpy.dat



fix 		1 all shake 1e-6 200 0 b 1 a 1
       0 = # of size 2 clusters
       0 = # of size 3 clusters
       0 = # of size 4 clusters
     336 = # of frozen angles
  find clusters CPU = 0.001 seconds
fix             2 all nph tri ${pressure} ${pressure} ${pressureDamp}
fix             2 all nph tri 6875 ${pressure} ${pressureDamp}
fix             2 all nph tri 6875 6875 ${pressureDamp}
fix             2 all nph tri 6875 6875 1000
fix             3 all temp/csvr ${temperature} ${temperature} ${tempDamp} ${seed}
fix             3 all temp/csvr 257.88 ${temperature} ${tempDamp} ${seed}
fix             3 all temp/csvr 257.88 257.88 ${tempDamp} ${seed}
fix             3 all temp/csvr 257.88 257.88 100 ${seed}
fix             3 all temp/csvr 257.88 257.88 100 745823


run             250000
PPPM initialization ...
  extracting TIP4P info from pair style
  using 12-bit tables for long-range coulomb (../kspace.cpp:340)
  G vector (1/distance) = 0.37923823
  grid = 24 27 32
  stencil order = 5
  estimated absolute RMS force accuracy = 0.0024429082
  estimated relative force accuracy = 7.3567456e-06
  using double precision FFTW3
  3d grid and FFT values/proc = 3825 384
Last active /omp style is kspace_style pppm/tip4p/omp
Neighbor list info ...
  update every 1 steps, delay 7 steps, check yes
  max neighbors/atom: 2000, page size: 100000
  master list distance cutoff = 10.8154
  ghost atom cutoff = 10.8154
  binsize = 5.4077, bins = 5 5 4
  1 neighbor lists, perpetual/occasional/extra = 1 0 0
  (1) pair lj/cut/tip4p/long/omp, perpetual
      attributes: half, newton on, omp
      pair build: half/bin/newton/tri/omp
      stencil: half/bin/3d/tri
      bin: standard
Per MPI rank memory allocation (min/avg/max) = 9.311 | 9.326 | 9.337 Mbytes
Step Temp PotEng TotEng E_pair E_mol Press Lx Ly Lz Volume Pxx Pyy Pzz Pxy Pxz Pyz Enthalpy 
11750000     262.0164   -4808.4641    -4284.399   -4808.4641            0    7080.3098    18.056789    22.952357    19.294836    7996.6649    7273.5474    6211.2386    7756.1434    646.96808   -961.23766    1531.1629   -3458.6709 
11751000    244.40161   -4810.0694    -4321.236   -4810.0694            0    5915.1468     18.07324    22.888693    19.416995    8032.2833    4349.4012    6518.3796    6877.6595    798.32764    430.60541   -969.83651   -3628.3202 
11752000    255.99861   -4815.4319   -4303.4031   -4815.4319            0    7795.3307    18.060771     22.79094    19.372856    7974.2926    7797.6276    8859.7989    6728.5656   -831.53387   -756.18721   -3037.9765   -3396.8304 
11753000    255.13532   -4827.3143   -4317.0121   -4827.3143            0    7282.7339    17.920002    23.007883    19.401232    7999.1534    8089.7381    6422.6792    7335.7844   -690.70849   -885.73809    833.03696   -3467.4124 
11754000    238.43117     -4830.52   -4353.6282     -4830.52            0    7290.7815    18.209313    22.696404    19.371498    8005.9672    7608.9959    7220.7517     7042.597     1478.443   -435.77756    310.73011   -3502.3652 
11755000    260.08271   -4833.4681   -4313.2705   -4833.4681            0    6105.2429    18.076143    22.741417    19.499509    8015.8018    7769.1768    4996.4898     5550.062     677.3883   -499.52753    65.126644   -3599.5539 
11756000    255.03201   -4796.1947   -4286.0992   -4796.1947            0    6804.3759    18.140788    22.984263    19.211098    8010.1179    4653.2701    7375.2123    8384.6454    1227.4987    37.521568   -318.32851   -3491.2164 
11757000    257.87304   -4830.8576   -4315.0797   -4830.8576            0    6874.0808    17.821995    23.122166    19.317803    7960.5407    7902.8007    6388.6851    6330.7564    112.26542    533.55908    -685.9001   -3517.0242 
11758000    262.36825    -4831.138   -4306.3691    -4831.138            0    5735.2625     18.05851    23.095962    19.232251    8021.3615    4903.3823    5432.3655    6870.0398    434.34032     237.5292    -277.9676    -3635.439 
11759000    267.14963   -4810.1287   -4275.7965   -4810.1287            0    6859.8255    17.814222     23.04094    19.471488    7992.1971    7407.9201    7374.2792    5797.2773   -716.76681    275.71378    2490.0058   -3476.2289 
11760000    264.76908   -4808.0071   -4278.4362   -4808.0071            0    9618.7607    17.993013    23.119166    19.118092      7952.81    8307.0951    9614.3341    10934.853    -20.87883    1173.2437    1385.0097   -3162.8179 
11761000     264.9514   -4854.9564   -4325.0208   -4854.9564            0    6024.7228    17.976717     23.05776    19.359567    8024.5952    8171.7348    4906.6529    4995.7807   -316.52017    519.70274   -577.14705   -3619.9446 
11762000    269.31353   -4803.8955   -4265.2351   -4803.8955            0    7663.0977    17.942668    22.920832    19.411326    7983.1189    7440.4924    7274.0875    8274.7132     175.4132    593.83973    1387.5021   -3373.0544 
11763000    277.64791   -4821.4324   -4266.1022   -4821.4324            0    7858.9358    18.107188    22.884799    19.220425    7964.5477    7742.8954    7468.1196    8365.7926    2.4088347    480.29604   -1106.1925   -3353.2494 
11764000    261.87437   -4840.4606   -4316.6795   -4840.4606            0    7168.7356    17.953514    22.846564    19.499701    7998.3114    7909.2662    6444.1385    7152.8021    782.08649   -642.43462    117.04252   -3480.4668 
11765000    265.09401   -4828.9817   -4298.7609   -4828.9817            0    7887.9867    18.141837    22.792661    19.264614     7965.932    7200.9736    7967.9016    8495.0848    1646.2418    184.82395    133.13368   -3382.3745 
11766000    252.42169   -4804.8456    -4299.971   -4804.8456            0    5225.7276     18.13727    22.709015    19.534149    8045.7162      3464.49    6455.1546     5757.538   -845.46862    546.69331   -186.76245   -3686.7919 
11767000    254.52509   -4805.3117   -4296.2301   -4805.3117            0    10037.407    18.184193    22.511524    19.346244    7919.4602    9445.0592    10051.222    10615.941    427.52175   -45.002501    832.67091   -3136.9376 
11768000    256.36416   -4850.9676   -4338.2076   -4850.9676            0    6306.5914    18.021599    22.750739    19.566284    8022.2681    4606.6849    7580.1581    6732.9313    -74.72095    10.866942   -415.15165   -3600.3581 
11769000    248.19327   -4800.0701   -4303.6529   -4800.0701            0    9146.9391    18.065853    23.002167    19.179803    7970.2391    7695.0501    8575.8096    11169.958   -1199.2804   -251.64342   -175.46928   -3240.4332 
11770000    273.66605   -4862.8829    -4315.517   -4862.8829            0    6764.4515    17.868291     22.97002    19.448056    7982.1631    6488.8812    7785.7801    6018.6933    643.13843    1325.8796    619.50346   -3528.0559 
11771000    253.98424   -4848.1002   -4340.1003   -4848.1002            0    6433.4545    18.103748    23.118707    19.156137    8017.5184    5443.8318    5587.7994    8268.7322    11.656677   -488.33951   -469.22159    -3587.854 
11772000    257.99437   -4822.8681   -4306.8475   -4822.8681            0    7591.3234    17.834485    23.085511    19.336598    7961.2294    9064.6911    7331.6473    6377.6319   -167.86287    351.48123    959.81437   -3425.4465 
11773000    253.37577   -4854.0257   -4347.2428   -4854.0257            0    5424.0521    18.071282    23.012696    19.307792    8029.5104    3966.9352    6244.3297    6060.8914    530.52887    462.61663   -1372.8089   -3712.0745 
11774000    268.17435   -4796.1916   -4259.8098   -4796.1916            0    7063.3005    17.911504    23.200864    19.291406    8016.7824    7304.6667    7474.3351    6410.8997    554.69065    1326.1621   -841.58553   -3433.9931 
11775000    270.19169   -4802.4967   -4262.0799   -4802.4967            0    7690.7485    17.843127    23.136145    19.312067    7972.4299    8574.1746    8686.7385    5811.3325    1500.8603   -228.02802    480.80096   -3367.8788 
11776000    251.92139   -4792.7412   -4288.8673   -4792.7412            0      6100.64    17.962075    23.221278    19.249661    8029.0786    5524.4232    6506.8393    6270.6574   -1306.4172    -599.5312   -1437.2501   -3574.5075 
11777000    265.95369   -4808.2374   -4276.2971   -4808.2374            0    6499.8107    17.964174    23.109218    19.316081    8018.8396     6094.478    5496.4426    7908.5115    886.65596   -501.71702   -381.65541   -3516.1667 
11778000    254.51773   -4835.8893   -4326.8224   -4835.8893            0    5707.0051    18.034413    23.028295    19.249438    7994.3263    5700.3429    5856.8355     5563.837   -646.59664    391.18319    243.25506   -3661.4481 
11779000    257.27028   -4819.3244   -4304.7521   -4819.3244            0    6173.3119    17.988371     23.14049    19.272001    8022.1576    5483.4267    6672.4306    6364.0784    -355.8486    336.92011   -985.88909   -3582.5058 
11780000     267.2661   -4812.5057   -4277.9405   -4812.5057            0    6686.6144    18.017358    23.085301     19.19022    7981.9058      4872.76    6884.3328    8302.7504    1485.2885    -218.4827    1448.0117   -3499.5657 
11781000    260.15656   -4796.2982   -4275.9529   -4796.2982            0    4799.5509    18.039936    23.063388    19.449358    8092.1394    6714.0141     3612.173    4072.4657     919.2952   -1455.1292    275.41761   -3709.5313 
11782000    267.32688   -4821.6766   -4286.9898   -4821.6766            0    7859.4857    18.085731    22.787869    19.330772    7966.8927    7582.0308    8089.1279    7907.2984    997.47325    877.94171   -130.24085   -3373.8043 
11783000    261.26138   -4827.4291   -4304.8741   -4827.4291            0    7243.7104    18.035592    22.640402    19.602391    8004.3037    8440.8613    7736.0085    5554.2613   -228.21189    65.052361   -800.78824   -3459.2828 
11784000    246.33465   -4830.6417    -4337.942   -4830.6417            0    8456.4705    18.236881    22.436805    19.436735    7953.0715    7289.7321    9582.1735     8497.506     420.1111       565.13    2.4957289    -3357.098 
11785000    252.35235   -4850.9728   -4346.2369   -4850.9728            0    5844.6574    18.184333    22.579192     19.55612    8029.4992    5331.4049    7072.6621    5129.9053    1427.4421    1964.3699   -573.84713   -3661.8158 
11786000    247.26807   -4831.4906   -4336.9239   -4831.4906            0    6678.2256    18.067086    22.793827    19.398563     7988.678    6851.3086    7606.6543    5576.7138   -644.16134    332.63823   -1259.2043   -3558.8661 
11787000    266.28961   -4835.0214   -4302.4093   -4835.0214            0    8436.6656    18.094925    22.757466    19.346452    7966.7652    8279.1796    8585.6169    8445.2003    154.25999    100.94092    54.660357   -3322.1776 
11788000    257.50508   -4828.8934   -4313.8515   -4828.8934            0    6147.4966    17.993686    22.862953    19.487091     8016.771    7071.5741    5510.2323    5860.6835    1211.0056   -853.59422    647.56802   -3595.1084 
11789000    250.53061   -4821.8027   -4320.7105   -4821.8027            0    5353.4812    18.167743     22.95054    19.305725     8049.706     5354.981     5386.971    5318.4914    428.96959    851.30784   -1434.1228   -3692.2294 
11790000    267.01681   -4835.7754   -4301.7088   -4835.7754            0     6589.794    18.097139    22.764948    19.416407    7999.1799    4749.5895    6918.2755    8101.5171   -548.86205    1907.7706   -1556.2792   -3532.9445 
11791000    258.24856   -4818.5505   -4302.0215   -4818.5505            0     6924.841     18.06976    22.877329    19.371544    8007.9608    6162.3446    8469.4983      6142.68    266.14158    77.787294    1177.5346   -3493.2839 
11792000    254.66681   -4806.2205   -4296.8554   -4806.2205            0    8610.5576    17.932865    22.792521    19.439926    7945.7821    8797.9502    8874.3999    8159.3227   -486.70321   -1358.2957   -2594.2063   -3299.0546 
11793000     263.0092   -4814.0303   -4287.9794   -4814.0303            0    5958.3805    17.902209    23.081349    19.446093    8035.2647    6093.4425    6359.0427    5422.6563   -153.07992   -262.31512   -33.015736   -3589.7401 
11794000     245.5589   -4834.7515   -4343.6034   -4834.7515            0    7636.8251    18.047577    22.858066    19.292257    7958.6869     7030.201    7329.0032     8551.271    520.17459    61.347947    2309.7749   -3457.2025 
11795000    254.18244   -4852.6475   -4344.2513   -4852.6475            0    6587.4744    18.080986    22.943931    19.369786    8035.5345    6145.0839    7252.3117    6365.0275   -42.192556    867.05115   -1301.6904   -3572.2649 
11796000    243.34575   -4815.4511   -4328.7295   -4815.4511            0    6291.3917    17.808557    22.934855    19.580896    7997.5562    6969.8648    7290.4443    4613.8661    1041.0573   -115.51999    1183.4688   -3594.9258 
11797000    265.39142   -4835.3877   -4304.5721   -4835.3877            0    6418.7855    18.117186    23.004986    19.204002    8003.9515    7667.2561    5608.0034    5981.0971   -1153.1732    -532.4186   -1463.4857    -3555.311 
11798000    252.30412   -4839.7712   -4335.1318   -4839.7712            0    6339.2061    17.930995    22.966632    19.447919    8008.9361    6141.3374    7224.9726    5651.3083   -706.67486    785.99498   -2391.2438   -3594.6991 
11799000    261.58392   -4804.1686   -4280.9685   -4804.1686            0    9001.1837    18.053246     22.98466    19.187051    7961.6232    7662.3673    9307.4354    10033.749   -332.16205    166.33206   -767.19455   -3235.8221 
11800000    250.63618   -4837.8252   -4336.5218   -4837.8252            0     7650.872    17.906374     22.91274    19.415009    7965.6693    8517.4533    8155.5905    6279.5721   -1023.7627   -791.12369   -805.30147   -3447.7115 
11801000    273.91361   -4802.1291    -4254.268   -4802.1291            0    6230.2096    18.046844     22.97846    19.459717     8069.724    8463.2877    5470.5251    4756.8161   -465.50239    101.90856   -662.51293   -3521.0431 
11802000    253.98232   -4842.6541   -4334.6581   -4842.6541            0     7445.328    17.935837    22.945233    19.341547    7959.8579    5181.8138    6690.8035    10463.367    296.36341   -197.82843    1285.9301   -3470.3571 
11803000    252.72756   -4849.4816   -4343.9953   -4849.4816            0    8525.4398     17.91037    22.985194    19.264673    7930.7523     8785.907    7832.0109    8958.4015   -581.60634   -454.64484   -1002.8264   -3357.9268 
11804000    266.74407   -4812.6125   -4279.0914   -4812.6125            0    9074.5597    17.805275    23.100555    19.317189    7945.3865    11084.941    7391.1219    8747.6158    2552.2087    92.573058    2195.4667    -3227.574 
11805000    260.51242   -4805.8176   -4284.7606   -4805.8176            0    7437.9378    18.045739    22.954311    19.338271    8010.4438    8014.1975    7689.3253    6610.2907   -424.13484   -193.59916   -1031.5421   -3415.8302 
11806000    264.99787     -4799.37   -4269.3415     -4799.37            0    7594.9465    18.007173    22.901377    19.474341     8031.005    7436.4515    7998.7656    7349.6224   -520.58301     1462.708   -26.267173   -3379.7912 
11807000    243.18973   -4828.1024   -4341.6929   -4828.1024            0    7810.4351    18.200144    22.472417    19.529528    7987.6009    6595.9045    8505.8269    8329.5739    1536.9533   -441.61354    742.63711   -3431.8478 
11808000    256.46807   -4818.9127   -4305.9448   -4818.9127            0    6917.2034    18.194171    22.632263    19.456947    8011.8896     7196.628    6327.1285    7227.8537   -660.09213   -238.51974   -1465.9353   -3497.7029 
11809000    271.09821   -4860.8773   -4318.6474   -4860.8773            0    5988.7762     18.06436    22.672593    19.606694    8030.2327    7389.5603    6531.8883    4044.8799     729.3467   -357.33014   -360.69704   -3617.2856 
11810000    259.58333   -4833.6326   -4314.4338   -4833.6326            0    8142.9153    18.300658       22.466    19.395865     7974.466      7037.51    9465.7227    7925.5131   -2389.6544    595.39718    1286.6802   -3367.4176 
11811000    265.22697   -4819.7421   -4289.2554   -4819.7421            0    6244.4624     18.13176    22.773036    19.405339      8012.76    7482.2602    5548.5319    5702.5952   -378.98357   -294.73417    1584.3717   -3559.5407 
11812000    271.50275   -4809.6991   -4266.6601   -4809.6991            0    6963.4582    18.061967    22.995817    19.292871    8013.2879    6649.1862    6437.2038    7803.9845    525.54386    900.80742   -266.80708   -3452.8715 
11813000    266.57301   -4819.0612   -4285.8822   -4819.0612            0    7394.1865    17.986777    23.112005    19.222057    7990.8106    7486.9193    6228.4497    8467.1904    582.09037   -856.72467    928.33671   -3424.1802 
11814000    249.96148    -4820.373   -4320.4191    -4820.373            0     7038.267    17.864903    23.106106    19.377118    7998.6483    7990.1156    6055.5745    7069.1108   -323.71036    188.33252   -118.23519   -3499.3907 
11815000    240.00894      -4812.5   -4332.4525      -4812.5            0     7456.667     18.01325    23.096418    19.186019    7982.1812    7597.9701    6782.2288    7989.8022   -96.680258    1740.6884   -189.41675   -3464.4075 
11816000    265.66505   -4803.2699    -4271.907   -4803.2699            0    7749.9229    17.819198     23.33542    19.247489    8003.4616    9816.6532    6869.6334     6563.482    1097.6981    539.26167     337.4684   -3367.3183 
11817000    248.83689   -4820.8891   -4323.1846   -4820.8891            0    6838.6563    17.956102    23.150348    19.214089    7987.1046    6013.5691    6394.7837    8107.6161    814.63855   -1053.0737    203.90551   -3526.5924 
11818000    247.93499    -4803.598   -4307.6974    -4803.598            0    7547.1418    18.083366    22.957257    19.246938    7990.2598    6568.4458    8286.7737     7786.206   -300.04248   -534.84763    1433.0928   -3428.2309 
11819000    255.36048   -4864.5548   -4353.8023   -4864.5548            0    6147.6596    18.002473    22.937619     19.36501    7996.4687    4133.0055    6082.8636    8227.1097   -1495.1926   -612.52812     550.7312   -3636.8604 
11820000    256.69053   -4813.3234   -4299.9106   -4813.3234            0    7739.8324    18.025587    22.933464    19.303704    7979.9415    8170.1226    7074.4833    7974.8914   -192.17677   -218.23151    1672.8413   -3399.1547 
11821000    262.39231   -4835.8857   -4311.0687   -4835.8857            0    7528.0506    18.010773    23.047991    19.245836    7989.1801    6621.5129    8679.6162    7283.0228    19.960475    1321.5616    574.16401   -3433.9454 
11822000    265.48061    -4779.149   -4248.1549    -4779.149            0    6719.1164    17.908355    23.188436    19.444965     8074.847    8353.1834    6255.9872    5548.1785   -372.77643    -290.3834    1181.9411   -3456.8892 
11823000    259.10016   -4868.2403    -4350.008   -4868.2403            0    6130.7131    18.010129    22.934909    19.352361    7993.6993    5722.4987    6602.0745    6067.5662   -289.32457    16.098069   -120.21045     -3635.29 
11824000    246.33077   -4843.7293   -4351.0374   -4843.7293            0    5772.8703     18.05489    22.933649    19.382974    8025.8014    6967.3431    5622.7866    4728.4812    212.56519   -415.27205   -1174.6705    -3675.334 
11825000    250.83981   -4827.3032   -4325.5925   -4827.3032            0    5940.7394    17.909816    22.990821    19.431206    8001.0202    5942.9861    6529.4962     5349.736    1018.0309   -852.22435   -636.00898   -3632.3874 
11826000    263.37276   -4837.4464   -4310.6683   -4837.4464            0    6994.0552    18.068958     23.06972    19.228487    8015.3142      6356.35    7818.5566    6807.2591    211.35118     1342.815    285.70697   -3493.0973 
11827000    246.59672   -4849.5282   -4356.3043   -4849.5282            0    7628.6748    17.862584    23.022058    19.379564    7969.5248    8452.6382    6811.8754     7621.511       1141.1    1650.5265     1173.292   -3469.6437 
11828000    267.89166   -4794.8205   -4259.0041   -4794.8205            0    6777.3948     18.01693    23.186246    19.139003    7995.2223    4345.3301      7334.61    8652.2442    -75.86274   -65.715271    503.18347   -3468.7456 
11829000    264.73377   -4847.3823    -4317.882   -4847.3823            0    6943.2174    17.869024    23.040226    19.363873    7972.2293    7811.3999    6332.1549    6686.0973   -622.15487   -1602.6561   -175.15094   -3510.6165 
11830000    259.81111   -4795.4824   -4275.8281   -4795.4824            0    7468.2654     17.94705     23.00066    19.376724    7998.5952    6408.3376    9024.4651    6971.9936    26.452351    583.51364   -2756.0244   -3404.6452 
11831000    261.11954   -4828.4219   -4306.1506   -4828.4219            0    5798.6565    18.104827    22.920218    19.322558    8018.2158    6155.5162    6231.9168    5008.5366   -808.91207    117.34921   -1180.1275   -3628.0705 
11832000    250.76699   -4846.3864   -4344.8215   -4846.3864            0    7334.2575    18.029041    22.824149    19.353437    7963.8912    5758.8604    8815.5111     7428.401   -846.32652    1559.8531    319.38687   -3492.9828 
11833000    262.45218   -4811.0359   -4286.0992   -4811.0359            0    7018.7716    17.990206    23.035666    19.305342    8000.4498    7482.6524    6787.1424    6786.5201    1022.5237   -98.983767    849.18344   -3467.1604 
11834000    260.25951   -4800.6049   -4280.0538   -4800.6049            0    5560.0312    18.185503    22.881477    19.439512     8088.998    4812.7449    5508.2656    6359.0831   -389.49046   -894.64615   -62.006706   -3624.1383 
11835000    255.32682   -4834.2782    -4323.593   -4834.2782            0    8432.1591    17.905845    22.748648    19.498182    7942.2679    7511.3967     9594.893    8190.1876     931.5575    54.553283   -245.21141   -3346.8974 
11836000    255.02752   -4833.7578   -4323.6712   -4833.7578            0    6941.1705      18.1264    23.093158     19.07312    7983.9281    5770.0463    6112.7986    8940.6665   -776.78192   -639.61499    309.64354   -3515.4594 
11837000    259.83572   -4842.7699   -4323.0663   -4842.7699            0    6902.6587    17.896652    23.059061    19.393664    8003.3769     6790.394     6680.563    7237.0191    646.24062    237.31176    1546.4121   -3517.3808 
11838000     266.9168   -4840.0276    -4306.161   -4840.0276            0    5048.9273    18.084682    23.184338    19.185901    8044.2913    4779.8254    5004.2204    5362.7363   -314.49404    351.44794    -1087.676   -3713.8323 
11839000    253.03496   -4861.7094   -4355.6082   -4861.7094            0    7291.5154    17.731673    23.284545    19.280874    7960.5704    7042.1549    6482.5436    8349.8479    336.79024   -403.98996   -125.34823   -3509.0869 
11840000     246.7088   -4820.6601    -4327.212   -4820.6601            0     7708.124    18.008613    23.059854    19.222245    7982.5367    6698.2776    7262.7683    9163.3261   -1435.2536    664.77123   -1018.9445   -3429.8545 
11841000    254.78237   -4830.4882   -4320.8919   -4830.4882            0    7896.7195    17.939982    23.043682    19.256374    7960.6475    6065.8768    7420.5525    10203.729    -56.52289    333.65128    867.24488   -3404.0996 
11842000    259.44256   -4839.2893   -4320.3722   -4839.2893            0    6367.0435    17.867842    23.094068    19.385183    7999.1247    6981.8414    6899.3414    5219.9477    1289.5721   -146.15458    436.86764   -3577.5991 
11843000    270.86527   -4824.5203   -4282.7563   -4824.5203            0    8309.8575    18.055419    22.989219      19.1603     7953.057    8844.7599    7954.4471    8130.3656    -648.8387   -1641.2043   -1439.0679   -3318.9194 
11844000    252.60304   -4818.3247   -4313.0874   -4818.3247            0    8372.0189    17.896701    22.969116    19.385096    7968.6585    9393.3932     8710.978    7011.6856   -889.51194    894.60945   -1534.0514   -3340.1357 
11845000    247.69248   -4848.6347   -4353.2191   -4848.6347            0    6851.0868    18.086865     22.88148    19.284247    7980.8673    6749.3695    5919.3276    7884.5632    1064.8942    1159.4811      196.316   -3555.8022 
11846000    262.41758   -4819.1954   -4294.3278   -4819.1954            0    6680.7459     17.79191     23.29402    19.262108    7983.0864    5680.8694    5831.0167    8530.3517      870.715   -656.91943   -489.59323   -3516.5211 
11847000    242.37787   -4794.8045   -4310.0188   -4794.8045            0    7800.3776    17.969229    23.184281    19.088447    7952.3165    6649.2621    7098.2149    9653.6559    309.75315   -1367.6642   -1244.4619   -3405.3592 
11848000    261.02727    -4838.581   -4316.4943    -4838.581            0    6696.0553    17.848581    23.119347    19.424587    8015.5081    7093.9422     6615.264    6378.9598   -1397.0867     170.5147   -835.10584    -3533.739 
11849000    248.88027   -4819.9122   -4322.1209   -4819.9122            0    7303.6124    18.069755    22.965454    19.243719     7985.761    6588.6553    7382.7761    7939.4057   -457.62099   -279.85685   -878.59863    -3471.512 
11850000    253.85632   -4818.6759   -4310.9319   -4818.6759            0    6746.1658    18.046018    22.905829    19.393413    8016.4419     7924.432     6478.871    5835.1945   -11.252667     1009.585   -1537.7757    -3522.227 
11851000     248.3582   -4847.6932   -4350.9461   -4847.6932            0    6675.5267    18.045115    23.038598    19.223929    7992.0438    4044.2883    8057.2484    7925.0434    644.48856    615.47051   -591.38797    -3572.875 
11852000     249.7287   -4815.8985   -4316.4102   -4815.8985            0    5444.2535    18.081218    23.175187    19.234462    8059.9247    3801.1823    5000.6029    7530.9754   -407.17666    809.59333    19.750988   -3676.4615 
11853000    261.72677   -4810.6632   -4287.1773   -4810.6632            0    7950.6921    17.830862    23.210621     19.22223    7955.4155    9411.5961    7447.8012     6992.679    377.79893   -1537.5916    1081.5654   -3364.7255 
11854000    269.51777   -4824.9762   -4285.9073   -4824.9762            0    8561.6047    17.896184    23.039158    19.255559    7939.3177    8141.5699    7993.6865    9549.5578   -676.21013   -297.76649   -501.60701   -3294.5865 
11855000    262.08075   -4792.4258    -4268.232   -4792.4258            0    6520.9116    17.978161    23.035604    19.348855     8013.092     6506.612    6752.9119    6303.2109   -472.54801    848.16424      710.024   -3506.1805 
11856000    253.27484   -4856.2316   -4349.6506   -4856.2316            0     4534.705    18.157994    22.960341    19.305462    8048.7122    6134.5051    3563.9914    3905.6184    600.81164     61.18687    786.33311   -3817.3569 
11857000    255.52716   -4816.5716   -4305.4857   -4816.5716            0    4816.2038    18.070186    22.966613    19.387844    8046.1679    3417.3644    5202.2925    5828.9545    637.10415    717.77261    940.34375   -3740.3277 
11858000    247.74349   -4782.7466    -4287.229   -4782.7466            0    7316.3254    18.043945    23.067422    19.331752    8046.4028    6956.0124    7906.7096    7086.2544   -579.51289    344.00922    388.86427   -3428.6689 
11859000    260.49234   -4836.9069     -4315.89   -4836.9069            0    8470.8238    17.872634    22.946813    19.348421     7935.174    6549.9886    9607.8975    9254.5853     536.2025    636.20497     1664.299   -3335.5923 
11860000    256.12768   -4807.3016   -4295.0146   -4807.3016            0    5700.2684    18.055265    22.972602    19.425314    8057.1624    6042.5028    5336.5014    5721.8009    -35.02261   -1110.8589   -149.32815    -3625.202 
11861000    266.90573   -4802.9469   -4269.1024   -4802.9469            0    7532.9176    18.104965    22.964865    19.170726    7970.7678    4904.1045    8210.1774     9484.471   -1445.7366    1464.9528   -1208.8183   -3393.4349 
11862000    242.98315   -4789.5985   -4303.6022   -4789.5985            0    6984.3208    17.842534    23.095986    19.453966    8016.8023    7896.9525    7553.2281    5502.7819   -256.68605    1762.5175    1112.0825   -3487.0175 
11863000    260.02354   -4843.8149   -4323.7357   -4843.8149            0    8197.9754    18.003269    22.973411    19.158407      7923.85    6716.8381     9273.352     8603.736   -635.64072    1443.3383   -305.68735   -3376.3676 
11864000    266.44051   -4824.2667   -4291.3528   -4824.2667            0    6541.7066    17.810981    23.232886    19.330785    7999.0883    7646.0997    5846.6801      6132.34    114.09385    469.60719    368.63757   -3528.2071 
11865000     243.4724   -4803.1365   -4316.1616   -4803.1365            0     5316.285    18.067167    23.173607    19.241567    8056.0868    3223.0965    6266.6701    6459.0884   -85.039998    85.502514    848.25453   -3691.5526 
11866000    249.11046   -4843.7908   -4345.5391   -4843.7908            0    6885.4151    17.904446      23.0237    19.353426    7977.9966    8095.3253    6194.2223    6366.6976   -1510.3421    138.14766   -35.416187   -3544.4148 
11867000    246.07859   -4835.2629   -4343.0753   -4835.2629            0    7639.6432    17.962927    23.028315     19.18811    7937.2758    7287.0673    6853.1847    8778.6777   -791.28456   -452.72344    824.80472   -3458.7329 
11868000    249.42341   -4831.6024   -4332.7248   -4831.6024            0    6714.7933    17.983436    22.958815    19.369367    7997.1928    7466.6042    5575.9797    7101.7959   -918.45231    945.55682    1639.2598   -3549.5727 
11869000    256.05667   -4847.3353   -4335.1903   -4847.3353            0    7730.9601    17.991661    23.065379    19.212517    7972.8963    6958.4631    7608.7264    8625.6908    59.548256    2.1237949     445.4883   -3436.2612 
11870000    262.55916   -4843.8945   -4318.7437   -4843.8945            0    5727.3572    18.011823    22.984184    19.437826    8047.0084    5017.1058    6286.5219     5878.444    839.08181   -190.76008    340.68737   -3646.5962 
11871000    268.41372   -4868.8181   -4331.9575   -4868.8181            0    5400.5895    18.033686    22.822294    19.445696    8003.2663    4154.8484     5601.224    6445.6961    156.80387   -266.54424    286.17499   -3701.6038 
11872000    262.95762   -4805.6959   -4279.7482   -4805.6959            0    7082.4669    18.094387    22.762545    19.467941    8018.3447    6921.0309    8506.5437    5819.8261    94.074673   -226.53897   -272.15673   -3451.5293 
11873000    257.59788   -4832.2807   -4317.0531   -4832.2807            0    8006.2822    18.150938    22.600675    19.411843    7963.1931    7397.1154    8838.8825    7782.8488   -466.44181    950.69012   -1675.9486   -3387.2435 
11874000    263.87799   -4823.7253   -4295.9368   -4823.7253            0    7097.5997     18.13276    22.740301    19.408962    8003.1773       7261.3    7022.7761     7008.723   -395.10089    877.03227   -486.98869   -3467.5182 
11875000    261.68421   -4802.9385   -4279.5378   -4802.9385            0    6352.6751    18.141859    22.888545    19.337987    8029.9205    4976.1753    6464.4994    7617.3505    501.88017   -80.063497    733.20345   -3535.5877 
11876000    254.60053   -4830.3914   -4321.1589   -4830.3914            0    7731.4944    18.050853     22.70687    19.400215    7951.7284    7469.6012     7696.092    8028.7898   -1157.4129   -1018.3108   -1948.2547   -3424.5545 
11877000    243.50734     -4809.41   -4322.3652     -4809.41            0    7944.0608    18.081295    22.656207    19.407152     7950.209    8276.0847    7381.1625    8174.9351    761.73034   -2459.7403    198.46954   -3401.2859 
11878000    255.00638   -4842.8191   -4332.7749   -4842.8191            0    6622.4368    18.111972    22.670736    19.500623    8007.1849    5897.5285    7803.3278    6166.4543   -1385.6832    366.08631   -31.441173   -3559.4293 
11879000    269.99283   -4801.7093   -4261.6903   -4801.7093            0     6893.652     18.29253    22.552441     19.41324    8008.7618    5940.5521    7238.1892    7502.2148   -602.43632   -302.89922   -1817.6791   -3456.5147 
11880000    243.54099   -4835.4982   -4348.3862   -4835.4982            0    6368.6234     18.13055     22.45441    19.612245    7984.3567    5718.3098    7159.9249    6227.6356    1075.9585   -1186.9034   -282.41054   -3606.8004 
11881000    244.05108   -4828.1101   -4339.9778   -4828.1101            0    7886.8281    18.045843    22.561331    19.455648    7921.1383    8638.1994    8329.9496    6692.3352    -809.9679    189.16934    -324.3275   -3428.8782 
11882000    257.81767   -4800.8346   -4285.1675   -4800.8346            0    5121.7103     18.21617    22.669271    19.531704    8065.5642     5359.527    4964.6435    5040.9605    588.13048     220.3069    902.35512    -3682.711 
11883000    268.65552   -4828.6795   -4291.3353   -4828.6795            0    6097.7274    18.406011    22.551131    19.374105    8041.7332    3810.4685    7048.1007    7434.6129    -214.7783    159.22163   -587.65011   -3576.1912 
11884000    258.02095   -4860.0357   -4343.9619   -4860.0357            0    6678.7044    18.005351    22.810388    19.392628    7964.7277    6717.0773    6627.5654    6691.4703    2372.5344    996.17009    728.54041   -3568.1811 
11885000    259.85543     -4843.23    -4323.487     -4843.23            0    8722.9156    17.988252    22.816108    19.334265    7935.2056      8845.23     9856.369    7467.1477   -484.33143    331.48639   -2040.6905   -3314.0116 
11886000    279.25154   -4838.2162   -4279.6786   -4838.2162            0    8419.1018    17.990893    22.775038    19.359821    7932.5565     8914.689    7559.1485    8783.4679      1015.74   -32.080142    1914.4462   -3305.6878 
11887000    250.71692   -4831.2027   -4329.7379   -4831.2027            0    5102.2202    18.151417    23.008111    19.278436    8051.2497    6185.5051    4387.8376    4733.3178     450.4725   -151.22946   -205.09645   -3730.6392 
11888000    259.45349   -4842.6644   -4323.7253   -4842.6644            0    5576.4807    18.012008    22.844911    19.535613    8038.5671    4895.7157    6554.9027    5278.8237   -269.30898    987.43434    37.219489   -3669.9708 
11889000    259.03728   -4859.0967   -4340.9901   -4859.0967            0     8505.312    17.989874     22.84491    19.261728    7916.1281    9302.8129    6974.6554    9238.4675   -1848.4178   -1601.3642    328.88713   -3359.0637 
11890000    254.10323   -4803.2118   -4294.9739   -4803.2118            0    5217.9005    17.928012    22.961162    19.518819    8034.8825    4610.8018    5945.7918    5097.1078   -13.320791   -646.08581   -1499.5925   -3683.5376 
11891000    256.30731   -4834.5079   -4321.8617   -4834.5079            0     7097.484    18.092423    22.950097    19.160731    7955.9734    6706.1612    6259.7145    8326.5764    1404.7637   -36.625462    1386.8884   -3498.3426 
11892000    265.19556   -4840.9825   -4310.5586   -4840.9825            0    8592.1732    17.990923    22.908502    19.321917    7963.4329    9503.9509    9856.1825     6416.386    836.92566    657.64797   -181.52688   -3312.6765 
11893000    259.68013   -4850.0234   -4330.6311   -4850.0234            0     6910.037    17.984204    22.931158    19.379041    7991.8901    7223.0298    6878.3063     6628.775    786.70871    4.2969953   -379.89848   -3525.2419 
11894000    251.80281    -4813.732   -4310.0952    -4813.732            0     10225.18    18.013687    22.736139    19.326616    7915.4415    12182.646    9993.8195    8499.0727   -359.98461    932.96588  -0.73968264   -3129.7149 
11895000    263.92467   -4844.0881   -4316.2061   -4844.0881            0    6006.9173     18.09019    22.948473    19.384522    8047.3337    6215.4229    4808.7234    6996.6056   -614.67771   -21.658965    543.48285   -3611.2216 
11896000    252.23276   -4832.4466   -4327.9499   -4832.4466            0    7361.2676    18.041935    22.907035    19.349721    7996.9926     7804.445    7036.3813    7242.9765    382.06337   -680.01222    211.13759   -3469.4205 
11897000    253.93752   -4844.3602   -4336.4538   -4844.3602            0    8980.4393    18.101887     22.74983    19.273905    7937.2802    7238.2091    8545.0875    11158.021    -482.2485     1429.102    375.14082   -3296.9043 
11898000    255.72581   -4834.1375   -4322.6543   -4834.1375            0    7806.1837    18.097334     22.88391     19.31998    8001.1331    8990.4198    7167.5997    7260.5314   -763.84804    758.66773    1753.4628   -3411.7638 
11899000    264.21968   -4804.1689   -4275.6969   -4804.1689            0    6786.8232    18.011586    23.037915    19.311074    8013.1182     6655.007    6697.1558    7008.3067    1599.3926   -231.24224    426.77471   -3482.5676 
11900000    247.86584   -4826.7377   -4330.9754   -4826.7377            0    7397.0462    17.897129    22.921513    19.436401    7973.3808     9123.547    7116.7038    5950.8877   -1166.0662    26.058724    347.85408   -3470.8204 
11901000    274.67621   -4819.8531   -4270.4667   -4819.8531            0     5881.695    18.225072    22.907536    19.263741    8042.4477    3424.5713    6338.2561    7882.2574   -621.41901   -53.465862   -1531.3404   -3580.5977 
11902000    257.09644   -4820.4983   -4306.2737   -4820.4983            0     7259.395    18.005333    22.705359    19.563892    7998.0624    8687.3249    7123.5005    5967.3595   -2084.0027   -790.62402    412.46174   -3459.5122 
11903000    274.15173   -4848.0601   -4299.7227   -4848.0601            0    5235.1381    18.157909    22.938704    19.266517    8024.8684    2489.7913    5659.9224    7555.7007   -807.31049   -81.376029    245.28673   -3687.0311 
11904000     259.8032   -4838.9942   -4319.3557   -4838.9942            0    6941.8972    17.931867    22.965122    19.409249    7992.8744    7803.3331    5970.6772    7051.6813    477.62881    401.89895   -363.12749   -3510.1535 
11905000    258.55873   -4844.6886   -4327.5392   -4844.6886            0    6776.3161     18.05764    22.977917    19.279886    7999.7443    5518.7989    7493.2552    7316.8943   -2108.4258    909.96068   -1227.5616   -3536.9595 
11906000    250.65424   -4848.6722   -4347.3327   -4848.6722            0    5294.8977    18.005996    23.104806    19.305908     8031.741    5474.7317    5635.0547    4774.9068   -1342.0588    1385.4585   -89.534016   -3727.1164 
11907000    260.60596   -4847.2263   -4325.9822   -4847.2263            0    6146.5157    17.973094    22.993225    19.364048    8002.3744     7023.303    5712.5224    5703.7217   -1618.0974   -800.46071    1768.3207   -3608.6443 
11908000    252.39589   -4848.3228   -4343.4998   -4848.3228            0    6021.4272     18.16121    22.894273    19.277714    8015.4362     5312.716    6080.8044    6670.7611   -848.21433    -115.1883    2069.6492   -3639.6136 
11909000    262.44042     -4858.95   -4334.0368     -4858.95            0    7145.5378     17.89325    22.735207     19.57415    7962.8961    8294.8605    7377.3067    5764.4462   -158.23222   -1063.1436     8.434047   -3504.2207 
11910000    256.68403   -4819.4875   -4306.0877   -4819.4875            0    5997.2062    18.190122    22.857977    19.344443    8043.2141    5850.1282    6141.2816    6000.2088   -506.69738   -1064.1827   -1260.3905   -3602.6033 
11911000    250.56445   -4847.0616   -4345.9018   -4847.0616            0    6707.4186    18.079795      22.7826    19.443221     8008.755    6534.6558     6843.287    6744.3131    11.642001      259.084   -201.30216   -3562.4788 
11912000    259.08139   -4832.1219   -4313.9271   -4832.1219            0    6252.3206    18.271563    22.882281    19.248147    8047.5552    4426.9327    6584.0392    7745.9898    1429.1366    1147.3717    3386.3553   -3580.1214 
11913000     256.8947    -4841.888   -4328.0669    -4841.888            0    6336.9965    17.958205    22.839523    19.507302    8001.0531    6670.0637     7332.503    5008.4227    -76.57557    619.06354     1026.145   -3588.6208 
11914000    259.05721   -4850.4564     -4332.31   -4850.4564            0    6043.0603    18.262335    22.727649    19.361272    8036.0884    7153.2956    5771.9921    5203.8932   -208.91833   -28.129119    738.18024   -3624.0747 
11915000    250.44218   -4824.9502   -4324.0349   -4824.9502            0    8485.3032    18.076845    22.526019    19.538258    7955.9661    9459.7253    8531.6126    7464.5719   -569.07949    294.92398   -31.283409   -3339.4886 
11916000    264.75186   -4798.0622   -4268.5258   -4798.0622            0    6208.8805    18.082553    22.823785    19.487135    8042.5806    6866.6257    6873.4148    4886.6009    974.86966    1574.0408    288.20079   -3540.2689 
11917000    252.15048   -4841.7323   -4337.4001   -4841.7323            0    4699.6237    18.318705    22.878889    19.286561    8083.2218    4348.5509     4409.826    5340.4942   -892.35421    1739.2408   -1205.2378   -3783.3827 
11918000    254.46019   -4814.9092   -4305.9574   -4814.9092            0    4595.2358    18.067298    23.013918    19.420486     8075.025    4715.6216    4187.3927    4882.6933    731.82739   -310.84858   -192.76072   -3764.7951 
11919000     260.6488   -4795.5136   -4274.1838   -4795.5136            0    9722.9648    18.054003    22.882827    19.198178    7931.2785    9391.6843    10081.446    9695.7638   -1258.2805     537.6523   -1557.3287   -3149.5327 
11920000    261.64532   -4829.2964   -4305.9734   -4829.2964            0    6786.4208    17.831033    23.247623    19.315084    8006.6654    6618.0963    7131.8736    6609.2925    907.56947    1990.7654    852.86809   -3513.5298 
11921000    256.45601   -4812.8015   -4299.8578   -4812.8015            0    7943.2416     17.89369    23.140996     19.27052    7979.4949    8147.4819    7783.7482    7898.4947    1606.3725    1005.5983    1044.0802   -3375.4809 
11922000    255.11549   -4834.0792   -4323.8167   -4834.0792            0    7814.7541    17.922174    23.253176    19.100472    7960.0735    7206.0958    8188.4545    8049.7121    1158.5796    584.25714     1609.906   -3416.6058 
11923000    257.29696   -4850.8787    -4336.253   -4850.8787            0    8364.5553    17.737454    23.220168    19.232117    7921.0678    9170.3187    7256.8133     8666.534    199.34218   -252.13709   -238.87233   -3369.9741 
11924000    258.18404   -4842.2636   -4325.8636   -4842.2636            0    5870.5718    17.963552    23.279524    19.259832     8054.133    6637.3611    4616.8963    6357.4579    313.30511    92.169716     677.7912   -3636.2988 
11925000    252.72965   -4825.8903   -4320.3998   -4825.8903            0      8210.21    17.871849    23.093625    19.222923     7933.796    7145.5081      9055.92     8429.202   -505.58109   -308.34396   -317.66688   -3370.4269 
11926000    259.69462   -4848.4211   -4328.9998   -4848.4211            0    7702.8169    18.005304    22.949595    19.319814    7983.2259    6429.1227    7777.9966    8901.3314    20.425222    1170.4679    122.11575   -3432.1827 
11927000     275.9892   -4844.0833   -4292.0708   -4844.0833            0    6928.6981    18.085297    23.016814    19.194559    7990.0408    6181.1589    5928.4065    8676.5288   -726.11254   -25.711881   -1288.4584   -3484.6935 
11928000    259.98127   -4819.5221   -4299.5274   -4819.5221            0     6816.096     18.00761    22.861863    19.416357    7993.4716    5964.4605    6638.6423     7845.185    998.86192    196.92992    197.48754   -3504.9302 
11929000    261.80636   -4819.4934   -4295.8483   -4819.4934            0    6465.3017    18.195768    22.865299      19.2358     8003.087    4776.9962    6202.7292    8416.1797    121.90191    -169.6424    857.05206   -3541.2389 
11930000    253.75788   -4814.4503   -4306.9032   -4814.4503            0    6604.2612    17.867427    22.901634     19.55654    8002.4044    7079.1069    6455.2869    6278.3899     157.3319    64.789739   -310.38379   -3536.1406 
11931000    249.95292     -4824.63   -4324.6933     -4824.63            0    9072.4479    17.926115    22.940673     19.24674    7914.9742    7326.8467    9267.7683    10622.729   -630.97269   -190.93453   -1594.9708   -3277.4445 
11932000    246.88141   -4796.2539   -4302.4606   -4796.2539            0    7210.1311    17.924347    23.110171    19.420463    8044.6302    7727.8283    8321.4511    5581.1139    1843.5077    1119.2522    2623.4619   -3456.5487 
11933000    257.74205   -4853.4892   -4337.9733   -4853.4892            0    7965.1699    17.963432    23.007338    19.264503    7961.8412    9770.3343    6913.7006    7211.4748   -396.07349   -1003.0913   -47.389895   -3413.0953 
11934000    250.94869    -4846.473   -4344.5446    -4846.473            0     5423.211    17.969705      23.2068    19.346163    8067.7241    5319.8498    5206.1642     5743.619    934.62451   -192.55808    773.43962   -3706.4524 
11935000    257.79849   -4813.9332   -4298.3043   -4813.9332            0    5946.6142    17.816541    23.060189    19.484636    8005.3173     7200.785     5928.933    4710.1247    1123.9034   -192.16871    1970.1882    -3604.041 
11936000    260.48552    -4809.451   -4288.4478    -4809.451            0    7878.1456    18.053199     22.97182    19.205496    7964.8042    7423.1245    7040.5515    9170.7607    368.69831    128.77849    976.63132   -3373.3342 
11937000    252.71437   -4840.0961   -4334.6361   -4840.0961            0    5681.8385    17.962859    23.026907    19.386736     8018.918    6435.7029     5093.171    5516.6416    72.744542   -206.49247    416.00068   -3670.1582 
11938000     268.1725   -4834.8882   -4298.5101   -4834.8882            0    6951.2512    17.960648    23.132527    19.195552    7975.2751     6999.554    6528.4737     7325.726    2116.4357    504.73905    837.75742   -3490.0017 
11939000    242.08564   -4830.2327   -4346.0315   -4830.2327            0    7598.5808    18.024543     23.02026    19.145159    7943.8946    5704.7142    7970.2752    9120.7531    1051.6451   -85.575888    1277.1344   -3465.7089 
11940000    256.09716    -4774.517    -4262.291    -4774.517            0    7326.6242    17.890998    23.045773    19.461581    8024.2414    9174.9931    6054.5723    6750.3073    553.56759   -643.76006    -335.2404   -3404.8904 
11941000    258.65542   -4818.1178    -4300.775   -4818.1178            0    7322.9383     18.07745    22.987235    19.182423    7971.2672    6675.2726    7617.9835    7675.5589   -189.27324    -162.5274   -2545.6909   -3449.4632 
11942000    262.23623   -4819.0198   -4294.5149   -4819.0198            0    8012.9173    17.913806    22.796031    19.459309    7946.4751    8545.2583    8567.4026    6926.0911    431.11856    711.07252    1976.7008   -3365.8884 
11943000    258.69168   -4834.0471   -4316.6318   -4834.0471            0    8719.6455     18.07006    22.618699    19.508078     7973.366    9892.1877    8533.0656    7733.6833   -2771.0313    1033.2618   -666.52041   -3302.6821 
11944000    271.68092   -4848.5753   -4305.1799   -4848.5753            0    6527.9009    18.243638    22.615851     19.39661    8002.9523    6390.1748    6117.0955    7076.4323    966.77978   -384.84199   -17.833862   -3543.2769 
11945000    255.46606   -4821.4818   -4310.5181   -4821.4818            0    5362.4324    18.088286    22.789671    19.530558    8051.0057    6343.3012    5146.9171    4597.0788    386.12512   -784.44631    1296.1993   -3680.8846 
11946000    262.98438   -4846.0953   -4320.0941   -4846.0953            0    6925.1239    18.073768    22.623207    19.564421    7999.6295    7121.4765    6701.5863    6952.3088   -117.41835   -333.27864     615.3338   -3512.1649 
11947000    259.39619    -4826.428   -4307.6036    -4826.428            0    6707.8871    18.166873    22.870029    19.184705     7970.802    5322.7386    8141.4875    6659.4352      24.6802    1519.9018    892.75626   -3527.8387 
11948000    245.68303   -4800.8546   -4309.4581   -4800.8546            0    7612.8096    17.897832    22.975825    19.458433    8001.6475    8479.0787    7358.9067    7000.4434   -1078.3668   -498.48583   -1518.7675   -3421.0751 
11949000    258.26752   -4805.7871   -4289.2202   -4805.7871            0    4987.2988    17.913077    23.309262    19.286563    8052.9236    4565.0817    4157.7259    6239.0886   -1514.7879   -1278.5897   -15.754292   -3703.4937 
11950000    245.47664    -4808.298   -4317.3144    -4808.298            0    6981.0305     17.96005    23.130435    19.263869    8002.6691    8810.4531    4876.8839    7255.7544    432.46465   -559.22387   -729.67463   -3502.5533 
11951000      261.571   -4838.1532   -4314.9789   -4838.1532            0    4222.0317    17.884831    23.301024     19.31987     8051.264    5207.8987    3224.0609    4234.1357    1793.1187   -240.50804    929.79325   -3819.2303 
11952000    253.51492   -4831.6288   -4324.5676   -4831.6288            0    4865.6904    18.109867    23.129366    19.250921    8063.6286     4442.458    5009.7827    5144.8306    1557.2546    598.59426   -755.22535   -3752.3636 
11953000    247.37944   -4845.5019   -4350.7124   -4845.5019            0    7242.4629    17.936416    23.039094    19.241309    7951.2549      6384.42    7247.2168     8095.752   -658.08925    435.30726    215.93781   -3510.8699 
11954000    254.98159   -4860.1711   -4350.1764   -4860.1711            0    6153.1769    17.907489    23.073865      19.3515    7995.9425    5820.1292    6637.6803    6001.7214    421.15342    378.08871     -111.157   -3632.6383 
11955000     255.8762   -4850.6078   -4338.8238   -4850.6078            0    7777.1461    17.892471    23.065487    19.284605    7958.7287    9172.8229     7020.243    7138.3725    174.68491   -1036.2239     776.9502   -3436.1312 
11956000    262.41477   -4850.0873   -4325.2254   -4850.0873            0    8579.4415    17.937346    22.994562    19.200901    7919.6305    9503.5141    6669.9612    9564.8492    906.14528   -1082.0919    312.12514   -3334.3026 
11957000    255.68687   -4834.3976   -4322.9923   -4834.3976            0    5628.8539    18.077059    23.062918    19.304333    8048.1643    5191.2627    4678.8718    7016.4271    720.61994    316.62904    503.45708     -3662.31 
11958000    271.02901   -4836.0135    -4293.922   -4836.0135            0    6976.6303    18.002462    22.957898    19.366603    8004.1915    7788.7657    6872.1491    6268.9761    613.74822   -119.03851   -481.74832   -3479.5196 
11959000     263.3213   -4832.6026   -4305.9274   -4832.6026            0     5636.319    17.920621    23.110592    19.392131    8031.3706    6853.9596    5598.7559    4456.2414    317.43812    6.0804154    51.267046   -3645.7493 
11960000    252.10192   -4799.4364   -4295.2014   -4799.4364            0    7118.0723    17.886183    23.120682    19.335974     7996.213    8194.7099    6165.6659    6993.8413   -1047.6618   -362.85252   -2604.6154   -3465.1163 
11961000    259.49375   -4832.4521   -4313.4326   -4832.4521            0    5794.6131    18.037257    23.001793    19.334365    8021.6201    5541.5098     5374.948    6467.3814   -57.757713    822.36978   -564.72734   -3635.5376 
11962000    260.77912    -4830.859   -4309.2686    -4830.859            0    7290.2685    17.786237    23.179163    19.365537    7983.8317     7355.625    6221.1864    8293.9939    925.54428   -417.46375    1251.9812   -3460.4189 
11963000    252.58766   -4829.5427   -4324.3362   -4829.5427            0    5990.0699    18.027489    23.120056     19.22868    8014.4476    6936.8436    5259.6655    5773.7005   -237.52754    1016.9068    -31.05047   -3624.2018 
11964000    257.55803   -4841.0118   -4325.8639   -4841.0118            0    6419.9745    17.893725    23.177409     19.35413    8026.7422    5098.9116    7391.2509     6769.761   -614.48239   -9.2311102    1169.0476   -3574.3301 
11965000    246.66282   -4857.5721    -4364.216   -4857.5721            0    6175.3132    17.985637    23.116257    19.283422    8017.2868    4700.1811    6252.1237    7573.6348   -112.42071    350.87602   -474.97149   -3642.1743 
11966000    246.85365   -4814.1668   -4320.4291   -4814.1668            0    7889.1659    17.851094    23.331695    19.114686    7961.1956    7049.6797    7782.0774    8835.7405   -489.85935   -112.42421    1283.8317   -3404.4506 
11967000    252.29195   -4845.6249   -4341.0098   -4845.6249            0    7000.3113    17.856439    23.401982    19.078078    7972.2724    7378.7361    5311.3203    8310.8775   -491.91005   -384.40301   -259.67371   -3527.1017 
11968000    260.60227   -4818.5059   -4297.2691   -4818.5059            0    7661.8751    17.970781    23.145535    19.249763    8006.8109    6734.9781    7744.3768    8506.2703   -110.28452    230.91342    88.548731   -3402.5834 
11969000    257.88893   -4843.4389   -4327.6292   -4843.4389            0    7442.7093    17.909648    23.100616    19.275573    7974.7651    8712.7749    6216.8773    7398.4757   -10.764209    449.29666   -509.03348    -3462.014 
11970000     254.5399   -4845.5954   -4336.4841   -4845.5954            0    7224.7254    17.881763    23.217382    19.136619    7944.9064    6896.9707    6802.7702    7974.4352    1344.2915    184.54607    1203.3247   -3499.3674 
11971000    252.98542   -4832.1833   -4326.1812   -4832.1833            0    6219.4092    17.801417    23.218295     19.42561    8028.9654    7122.8212    4967.8898    6567.5166    109.04375   -496.75042    252.04155   -3597.9243 
11972000    246.33532   -4850.8327   -4358.1316   -4850.8327            0    5896.4315    18.241732    22.861176    19.266142    8034.5096    4851.7987    6052.9651    6784.5308   -263.10483   -366.59304   -657.12066   -3667.2168 
11973000    246.32048   -4836.1606   -4343.4892   -4836.1606            0    7727.9663    17.966001      22.8461    19.396141    7961.2054    8412.2743    7447.7446      7323.88    1432.1479    101.48453    1341.3364   -3446.2258 
11974000    253.14156   -4811.5859   -4305.2715   -4811.5859            0    6982.7453    18.055377    22.951031    19.358976    8022.1565    5816.7896    7293.5152    7837.9313   -359.36253    -136.1194   -676.28612   -3488.3257 
11975000     254.7555   -4848.1795    -4338.637   -4848.1795            0     6616.696    17.940974    22.840976    19.496768    7989.5683    5815.6811     6824.728    7209.6789   -320.77711   -1267.8763    365.99783   -3567.6618 
11976000    263.35959   -4848.7972   -4322.0455   -4848.7972            0    6740.5376    18.167327    22.942344    19.237792    8018.3323    5835.6573    7255.8193     7130.136    768.29983    940.07467    791.68524   -3533.8128 
11977000    269.57689   -4787.8779   -4248.6908   -4787.8779            0    7909.4648    18.173351     22.74549    19.384868    8012.9635    7474.1689    9233.0053    7021.2203   -664.80822     727.1635    1668.9837    -3324.384 
11978000    266.79913   -4824.2983   -4290.6671   -4824.2983            0    7612.4135    17.995592    22.758245    19.500547    7986.4121    7985.8722    6838.0452    8013.3231   -599.95657    869.77042    35.397881   -3404.0216 
11979000    253.85578   -4803.5382   -4295.7952   -4803.5382            0    7319.4811    18.097262    22.708739    19.501279    8014.3624    7358.8111    7707.9009    6891.7314    966.13852     167.9329    895.08588   -3440.2851 
11980000    277.89604   -4818.5927   -4262.7663   -4818.5927            0    8405.6564    17.947805    22.733324    19.480038    7948.1141    9127.4774    8397.3483    7692.1435   -1647.8744   -1224.2654   -1002.9735   -3288.4239 
11981000    264.24062   -4817.3452   -4288.8314   -4817.3452            0      7085.95    18.001256    22.920276    19.424611    8014.4732    6816.2363    7941.9611    6499.6526   -898.80698    1099.2284   -783.16277   -3460.6052 
11982000    257.68018   -4831.3366   -4315.9444   -4831.3366            0    6510.7505    18.069352    22.941458     19.30708    8003.5045    6234.2583    6799.9728    6498.0204   -78.844614    -291.3483    36.388599   -3555.9907 
11983000    259.12691   -4846.3145   -4328.0287   -4846.3145            0    7394.0788    18.013184    22.897575    19.293802    7957.8875     6669.094    7488.7271    8024.4151    26.492744    1060.7941    -1340.774   -3469.8894 
11984000    261.67083    -4815.461    -4292.087    -4815.461            0    6593.4331    18.129032    22.909186    19.317355    8022.9101    5355.1839    7511.8564    6913.2592   -46.971385   -170.51108    875.77845   -3520.6163 
11985000    252.59833   -4844.0454   -4338.8176   -4844.0454            0    6272.8855    17.872102    22.809992    19.598976    7989.7677      7476.63    5434.3227    5907.7036   -739.78061    139.17782   -1589.4216   -3607.8848 
11986000    256.22974   -4837.0161    -4324.525   -4837.0161            0    6522.6678    18.193735    22.902644    19.240291    8017.1337     5424.531     6612.727    7530.7453   -449.73209   -933.97592    161.13235   -3561.8838 
11987000    252.45498   -4829.9665   -4325.0253   -4829.9665            0    6247.8039    17.997057    22.879482     19.47736    8020.0631    6802.5236    5542.8773    6398.0109    972.75655   -72.713093   -167.93238   -3594.2547 
11988000    261.87657    -4822.879   -4299.0935    -4822.879            0    5907.0689    18.201165    22.946662    19.318051    8068.2997    5036.9681    5837.5278    6846.7108   -514.30369    758.49401    -71.29418   -3604.0213 
11989000    263.84516   -4835.6149   -4307.8919   -4835.6149            0    8429.7264    17.855076     22.88249    19.417532    7933.3937    10109.931    7665.0309    7514.2174    1780.0312   -351.70771   -1356.6212   -3332.5691 
11990000    252.67495   -4800.1359   -4294.7548   -4800.1359            0     9064.037    17.937826    22.823801    19.413011    7947.8686    8779.6958    10658.878    7753.5375   -841.07452     617.0043    2232.0763   -3244.1285 
11991000    252.11974   -4838.3495   -4334.0788   -4838.3495            0    5634.9295    18.111596    22.935505    19.367581    8045.2662    6315.7212    5271.5436    5317.5235   -963.35813   -371.44431   -1165.6485   -3672.9216 
11992000    262.92051   -4847.9007   -4322.0272   -4847.9007            0    5390.2286    17.916765    22.909959    19.479134    7995.6459    4503.1759    6939.3927    4728.1172    989.79292    261.28837    1782.7012   -3693.4819 
11993000    260.26541   -4806.6903   -4286.1273   -4806.6903            0    6029.2721    18.232616    22.871625    19.264587    8033.5171    8083.5666     4696.746    5307.5037    335.95831   -61.854135    490.10925   -3579.7342 
11994000     262.4161   -4818.6134   -4293.7488   -4818.6134            0    5914.9275    18.062358    22.903918    19.372228     8014.267    4947.4834    5625.1949    7172.1041     1021.962    1477.4171    1313.7792   -3602.4128 
11995000    258.60925   -4794.1966   -4276.9462   -4794.1966            0    6388.6392    18.041134    22.926936    19.413136    8029.8151    5880.6183    7058.2524    6227.0468    1268.6206    706.16989   -698.11813   -3528.7943 
11996000    246.88477   -4813.6584   -4319.8584   -4813.6584            0    6260.7549    17.918072    23.127841    19.299135    7997.6834    8302.1649    4732.5632    5747.5366   -395.78641    118.93767    -445.4163   -3589.6164 
11997000    262.02999   -4840.6244    -4316.532   -4840.6244            0    7380.6508    17.869808    23.000344    19.428803    7985.4659    7933.7074    6876.8481     7331.397    1184.6305   -183.62014    73.517685   -3456.9827 
11998000    264.80686   -4816.5587   -4286.9123   -4816.5587            0     8076.598    18.102588     22.92036    19.181979    7958.9449    8297.1398    8533.7928    7398.8614    816.54358    689.01377    1105.8657    -3349.437 
11999000    255.36693   -4826.8362   -4316.0708   -4826.8362            0    6622.3697    17.723946    23.506184    19.218649    8006.9185    9450.6768    4520.6554    5895.7769    1627.5534   -977.17339    782.78395   -3542.7588 
12000000    264.92149   -4803.4563   -4273.5806   -4803.4563            0     8564.727     17.82233    23.063207    19.330642    7945.6686    8992.4209      7769.28      8932.48    137.27024    365.54704   -167.13553    -3281.105 
Loop time of 457.08 on 64 procs for 250000 steps with 1008 atoms

Performance: 94.513 ns/day, 0.254 hours/ns, 546.950 timesteps/s
99.2% CPU use with 64 MPI tasks x 1 OpenMP threads

MPI task timing breakdown:
Section |  min time  |  avg time  |  max time  |%varavg| %total
---------------------------------------------------------------
Pair    | 28.494     | 32.372     | 35.984     |  31.6 |  7.08
Bond    | 0.2771     | 0.2842     | 0.29284    |   0.8 |  0.06
Kspace  | 207.48     | 213.56     | 226.35     |  31.2 | 46.72
Neigh   | 4.319      | 4.7289     | 5.4707     |  15.8 |  1.03
Comm    | 84.254     | 96.29      | 101.97     |  47.6 | 21.07
Output  | 1.1466     | 1.149      | 1.1542     |   0.1 |  0.25
Modify  | 98.266     | 101.44     | 105.94     |  22.5 | 22.19
Other   |            | 7.258      |            |       |  1.59

Nlocal:        15.7500 ave          20 max          13 min
Histogram: 8 10 12 0 12 10 0 7 4 1
Nghost:        2503.41 ave        2516 max        2487 min
Histogram: 1 3 5 8 10 10 8 9 4 6
Neighs:        5257.33 ave        6697 max        4310 min
Histogram: 8 10 9 3 12 10 1 6 4 1

Total # of neighbors = 336469
Ave neighs/atom = 333.79861
Ave special neighs/atom = 2.0000000
Neighbor list builds = 9388
Dangerous builds = 0

unfix		3
unfix		2
unfix		1

write_data	data.final.${pid}
write_data	data.final.0
System init for write_data ...
PPPM initialization ...
  extracting TIP4P info from pair style
  using 12-bit tables for long-range coulomb (../kspace.cpp:340)
  G vector (1/distance) = 0.38382145
  grid = 24 30 32
  stencil order = 5
  estimated absolute RMS force accuracy = 0.0019035794
  estimated relative force accuracy = 5.732573e-06
  using double precision FFTW3
  3d grid and FFT values/proc = 4080 384
Last active /omp style is kspace_style pppm/tip4p/omp
WARNING: Not all mixed pair coeffs generated from mixing. Use write_data with 'pair ij' option to store all pair coeffs. (../write_data.cpp:312)

write_restart   restart.lmp.${pid}
write_restart   restart.lmp.0
System init for write_restart ...
PPPM initialization ...
  extracting TIP4P info from pair style
  using 12-bit tables for long-range coulomb (../kspace.cpp:340)
  G vector (1/distance) = 0.38382145
  grid = 24 30 32
  stencil order = 5
  estimated absolute RMS force accuracy = 0.0019035794
  estimated relative force accuracy = 5.732573e-06
  using double precision FFTW3
  3d grid and FFT values/proc = 4080 384
Last active /omp style is kspace_style pppm/tip4p/omp
Total wall time: 0:07:37
