LAMMPS (30 Jul 2021)
  using 1 OpenMP thread(s) per MPI task
package omp 0
using multi-threaded neighbor list subroutines
echo both

include		in.partitions
variable        pid world 0
include		in.temp
variable        temperature equal 251.94
variable	tempDamp equal 100.0
include		in.pressure
variable        pressure equal 10875.0
variable        pressureDamp equal 1000.0 # This is 1 ps
include		in.seed
variable        seed world 745823

units		real
atom_style	full

read_restart	restart.lmp.${pid}
read_restart	restart.lmp.0
Reading restart file ...
  restart file = 30 Jul 2021, LAMMPS = 30 Jul 2021
  restoring atom style full from restart
  orthogonal box = (0.12233119 0.17705150 0.029259945) to (19.877670 19.822950 20.670738)
  4 by 4 by 4 MPI processor grid
  restoring pair style lj/cut/tip4p/long/omp from restart
  restoring bond style harmonic/omp from restart
  restoring angle style harmonic/omp from restart
  972 atoms
  648 bonds
  324 angles
Finding 1-2 1-3 1-4 neighbors ...
  special bond factors lj:    0        0        0       
  special bond factors coul:  0        0        0       
     2 = max # of 1-2 neighbors
     1 = max # of 1-3 neighbors
     1 = max # of 1-4 neighbors
     2 = max # of special neighbors
  special bonds CPU = 1.073 seconds
  read_restart CPU = 1.333 seconds
include 	in.setup
variable	out_freq equal 1000
variable	out_freq2 equal 10000
variable	out_freq3 equal 1000

timestep	2.0

neigh_modify    delay 7 every 1

include		in.tip4p
# This is TIP4P/Ice

# create groups ###
group ox type 2
324 atoms in group ox
group hy type 1
648 atoms in group hy

# set charges - beside manually ###
set group ox charge -1.1794
Setting atom values ...
  324 settings made for charge
set group hy charge 0.5897
Setting atom values ...
  648 settings made for charge

# ### TIP3P Potential Parameters ###
pair_style lj/cut/tip4p/long/omp 2 1 1 1 0.1577 8.5
pair_coeff 1 1*2 0.000 0.000
pair_coeff 2 2 0.21084 3.1668
bond_style  harmonic
bond_coeff  1 450 0.9572
angle_style harmonic
angle_coeff 1 55 104.52
kspace_style pppm/tip4p/omp 1.0e-5
pair_modify tail yes

thermo          ${out_freq}
thermo          1000
thermo_style    custom step temp pe etotal epair emol press lx ly lz vol pxx pyy pzz pxy pxz pyz enthalpy

restart 	${out_freq3} restart.lmp.${pid} restart2.lmp.${pid}
restart 	1000 restart.lmp.${pid} restart2.lmp.${pid}
restart 	1000 restart.lmp.0 restart2.lmp.${pid}
restart 	1000 restart.lmp.0 restart2.lmp.0


include         in.dump
dump            myDump all atom ${out_freq2} dump.water.${pid}
dump            myDump all atom 10000 dump.water.${pid}
dump            myDump all atom 10000 dump.water.0
dump            myDump2 all dcd ${out_freq2} dump.dcd
dump            myDump2 all dcd 10000 dump.dcd
dump_modify     myDump append yes
dump_modify     myDump2 append yes


variable natoms 	equal  "count(all)"                        # NUMBER ATOMS
variable H      	equal  "enthalpy/v_natoms"                 # ENTHALPY-per-atom
variable Vol      	equal  "vol/v_natoms"                 # volume-per-atom
fix AVG all 		ave/time ${out_freq} 1 ${out_freq} v_Vol v_H file vol_enthalpy.dat
fix AVG all 		ave/time 1000 1 ${out_freq} v_Vol v_H file vol_enthalpy.dat
fix AVG all 		ave/time 1000 1 1000 v_Vol v_H file vol_enthalpy.dat


timer           timeout 02:55:00 every 1000
New timer settings: style=normal  mode=nosync  timeout=02:55:00

fix 		1 all shake 1e-6 200 0 b 1 a 1
       0 = # of size 2 clusters
       0 = # of size 3 clusters
       0 = # of size 4 clusters
     324 = # of frozen angles
  find clusters CPU = 0.108 seconds
fix             2 all nph aniso ${pressure} ${pressure} ${pressureDamp}
fix             2 all nph aniso 10875 ${pressure} ${pressureDamp}
fix             2 all nph aniso 10875 10875 ${pressureDamp}
fix             2 all nph aniso 10875 10875 1000
fix             3 all temp/csvr ${temperature} ${temperature} ${tempDamp} ${seed}
fix             3 all temp/csvr 251.94 ${temperature} ${tempDamp} ${seed}
fix             3 all temp/csvr 251.94 251.94 ${tempDamp} ${seed}
fix             3 all temp/csvr 251.94 251.94 100 ${seed}
fix             3 all temp/csvr 251.94 251.94 100 745823


run             250000
PPPM initialization ...
  extracting TIP4P info from pair style
  using 12-bit tables for long-range coulomb (../kspace.cpp:340)
  G vector (1/distance) = 0.37218358
  grid = 24 24 24
  stencil order = 5
  estimated absolute RMS force accuracy = 0.0035142666
  estimated relative force accuracy = 1.0583109e-05
  using double precision FFTW3
  3d grid and FFT values/proc = 2197 216
Last active /omp style is kspace_style pppm/tip4p/omp
Neighbor list info ...
  update every 1 steps, delay 7 steps, check yes
  max neighbors/atom: 2000, page size: 100000
  master list distance cutoff = 10.8154
  ghost atom cutoff = 10.8154
  binsize = 5.4077, bins = 4 4 4
  1 neighbor lists, perpetual/occasional/extra = 1 0 0
  (1) pair lj/cut/tip4p/long/omp, perpetual
      attributes: half, newton on, omp
      pair build: half/bin/newton/omp
      stencil: half/bin/3d
      bin: standard
Per MPI rank memory allocation (min/avg/max) = 9.226 | 9.228 | 9.230 Mbytes
Step Temp PotEng TotEng E_pair E_mol Press Lx Ly Lz Volume Pxx Pyy Pzz Pxy Pxz Pyz Enthalpy 
27500000    253.41079   -4678.0902   -4189.3662   -4678.0902            0     10512.57    19.755339    19.645898    20.641478    8011.1923    10800.059    9951.3412     10786.31     -326.262      278.048   -1178.6106   -2961.1298 
27501000    253.02236   -4729.2421   -4241.2672   -4729.2421            0    9248.9717    19.983329    19.535218    20.463285    7988.4303    7500.1258    10487.136     9759.653    242.71872   -175.78447    551.42865   -3163.7337 
27502000       257.43   -4721.9669   -4225.4915   -4721.9669            0    10984.321    19.732434    19.806307    20.432144    7985.4261    11292.587     10612.19    11048.186   -334.54234   -451.71113   -10.640238   -2946.2657 
27503000    248.50667    -4715.204   -4235.9379    -4715.204            0    11421.235    19.980431    19.635421    20.362924    7988.8671    8463.6135    14083.589    11716.504    551.19254    826.35027   -233.94303   -2905.2563 
27504000    237.85398   -4729.2053   -4270.4839   -4729.2053            0    9484.5964     19.62505    19.980484    20.297604    7959.0557    10357.032    8262.4708    9834.2862    117.77771   -734.96432    950.85046   -3169.5625 
27505000    242.36911   -4695.2366   -4227.8074   -4695.2366            0    10023.861    19.762947    19.781828     20.46633    8001.2548    8883.6683    10694.852    10493.064   -342.80444    1640.8805   -1101.7021   -3058.1221 
27506000    259.65616   -4715.8012   -4215.0324   -4715.8012            0    9097.3924    20.064996    19.516493    20.412649    7993.5599    8048.8595    9497.7561    9745.5615    959.85247    826.35283   -412.60963   -3154.4778 
27507000    254.01093   -4708.6771   -4218.7957   -4708.6771            0    10711.706    19.758735    19.824525      20.2745    7941.6746    10629.171    10024.966    11480.983    437.76991    650.17567   -328.55388   -2978.1532 
27508000    250.76159   -4701.9891   -4218.3743   -4701.9891            0    10611.087    19.850243    19.347902    20.673095    7939.7205    9048.4686    12277.768    10507.023   -211.96261    1079.6302   -336.53108   -2989.6881 
27509000    259.68355   -4692.8556   -4192.0341   -4692.8556            0    12191.286    19.626556    19.780881    20.354703    7902.3178    12616.457    12253.732    11703.669    752.70046   -226.04869    687.63953   -2787.0225 
27510000    255.04388   -4710.5962   -4218.7226   -4710.5962            0    9878.6479    20.002988    19.595789    20.429518    8007.8469    9036.3125    9851.4075    10748.224   -559.89451    1897.7551   -350.10732   -3065.0326 
27511000     262.3283   -4736.1282    -4230.206   -4736.1282            0    10394.468    19.779111    19.584556    20.460243    7925.5843    10636.233    9329.3561    11217.814    274.20049    1102.8444    985.01395   -3028.7457 
27512000    261.84395   -4696.5995   -4191.6114   -4696.5995            0    10050.822    19.621893    19.814557    20.519378    7977.9162    9797.3554    10771.129    9583.9808    160.24193   -111.75026    724.31913   -3022.2011 
27513000     263.3596   -4701.2142   -4193.3031   -4701.2142            0    9762.6212    19.697238    19.616173    20.677159    7989.3322    9561.4701    11088.576     8637.818    966.92473    703.19242    292.30355   -3055.7994 
27514000    243.44305    -4705.972   -4236.4716    -4705.972            0    11741.521    19.648984    19.847258    20.367443    7942.8639    10952.032    12572.501     11700.03    18.921466   -1509.1647   -472.79332   -2876.3511 
27515000    253.13945   -4727.3009   -4239.1001   -4727.3009            0    9632.0139    20.024789    19.664235    20.401568    8033.5691    8861.8177    11046.891    8987.3328   -105.50894     1169.758     110.5479   -3110.6003 
27516000    255.88276   -4708.7158   -4215.2244   -4708.7158            0    12446.955    19.651436    19.872899    20.246727     7906.975    12950.144    11308.652    13082.069    365.82909    747.99169    512.47514   -2779.9022 
27517000    246.73031   -4707.0317   -4231.1915   -4707.0317            0    11154.251    19.955156    19.889512    20.196592     8015.993    10438.507    10851.098    12173.149   -75.698222     163.3678   -972.86242   -2927.2034 
27518000    245.66729   -4723.6415   -4249.8515   -4723.6415            0    9126.9831    19.585113    19.833373    20.515539    7969.0324    9230.2493    8705.6982    9445.0018    -68.53758   -874.26476    2176.0732    -3189.112 
27519000    238.98845   -4694.5684   -4233.6591   -4694.5684            0    9923.0532    19.729146    19.744799    20.485306      7980.01    10649.758    8722.5471    10396.854    154.75224   -40.670783   -1098.9611   -3078.8116 
27520000    245.53465   -4704.5341   -4230.9999   -4704.5341            0    10244.392    19.907676    19.897822    20.105158    7964.0428    9699.4859     10222.69        10811    206.01422    1276.7149     252.9262   -3041.1404 
27521000    241.82398   -4714.4171   -4248.0392   -4714.4171            0    12028.439    19.671627    19.717061    20.508254    7954.4683    11772.635    12520.318    11792.365   -505.18733   -446.28036   -346.98424   -2852.6469 
27522000    249.12821   -4700.4315   -4219.9668   -4700.4315            0    11597.727    19.761343    19.877647    20.172745     7924.036    11649.236    11296.226     11847.72    569.10643   -738.55761   -164.40676   -2879.6878 
27523000    237.75717    -4717.212   -4258.6773    -4717.212            0    9388.5014    19.772256    19.826932    20.446799    8015.6193    7698.5086    12080.152    8386.8434   -217.88051    204.62904   -1910.1238   -3161.1653 
27524000    263.48695   -4693.8323   -4185.6756   -4693.8323            0    12181.234    19.783159    19.794635    20.406937    7991.3651    12436.293    11314.234    12793.176    723.38006    2401.8226   -624.54348   -2766.0031 
27525000    271.21617   -4727.6075   -4204.5443   -4727.6075            0    9699.2467    19.653134    19.844365    20.575138    8024.3853    11335.459    8864.1377    8898.1439    902.69216    303.31112    279.89854   -3069.4664 
27526000    262.23358   -4702.4151   -4196.6755   -4702.4151            0    9341.6509    19.761231    19.594366    20.613131    7981.5854    8040.0862    11197.399    8787.4679   -861.71291   -685.40559    127.60165   -3109.2771 
27527000    257.98649    -4668.835   -4171.2864    -4668.835            0    11385.489    19.537221    19.857994    20.266065    7862.6256    14195.147    8943.3674    11017.954   -648.70244    172.54641   -1132.4728   -2865.7313 
27528000    249.57678   -4722.6364   -4241.3065   -4722.6364            0    10029.016    19.540533     20.07025    20.406192    8002.9694    11547.885    8926.9874    9612.1756    692.41762     602.6627    -1338.886   -3070.7689 
27529000    252.43191   -4708.2209   -4221.3847   -4708.2209            0    9791.9504    19.623482    19.865329    20.507967    7994.5581    10686.006    9443.8001    9246.0448   -745.12452   -730.81384   -983.29719   -3079.7174 
27530000    246.08892   -4685.5449   -4210.9417   -4685.5449            0    9158.8211    19.872926    19.692479    20.485159     8016.809    8038.4701    9506.3465    9931.6468    795.79671    149.64084    682.66314   -3140.1204 
27531000    253.01726   -4688.8526   -4200.8876   -4688.8526            0     11096.46    19.722551    19.863186    20.378914     7983.495    11670.346    10986.623     10632.41   -136.58348    1598.1115    899.28377   -2908.9147 
27532000    242.94767   -4677.6584   -4209.1134   -4677.6584            0     11659.58    19.919005    19.948731    20.124999    7996.8468    10912.921    11096.207    12969.611   -258.11106    892.50807    -95.17217   -2849.3055 
27533000    258.61637   -4703.4755   -4204.7121   -4703.4755            0    11206.461    19.666258    19.678937    20.412351    7899.8059    13103.856    10627.593    9887.9356   -796.72009    673.75807    1240.0552   -2913.6094 
27534000    254.34519   -4726.0782   -4235.5521   -4726.0782            0    10577.481    19.768532    19.576306        20.43    7906.3045    11086.111    9503.0652    11143.266    1160.4022   -881.14819    80.282015   -3015.9121 
27535000    244.23845   -4751.1133    -4280.079   -4751.1133            0    11041.369     19.94566    19.731758    20.283428    7982.8056    8503.1957     13751.29    10869.621    589.53199    393.05881    280.59746   -2994.6314 
27536000    240.06108   -4723.6318   -4260.6538   -4723.6318            0    10212.221    19.474311    19.932545    20.525592    7967.4718    13361.015    7164.1017    10111.545    117.06991    835.61095   -617.48486   -3074.0203 
27537000    257.64862   -4731.0221    -4234.125   -4731.0221            0    10502.677    19.751315    19.786885    20.383906     7966.377    8437.8458    12651.455    10418.731    454.27044    118.46896     958.2809   -3013.9089 
27538000    257.02774   -4702.3735   -4206.6739   -4702.3735            0    11193.088    19.646396     19.91437    20.409955    7985.3048    11704.699    10145.032    11729.535    295.74847    1162.6971    416.75982    -2903.155 
27539000    244.30189   -4719.1152   -4247.9584   -4719.1152            0    9339.0814    19.636465    19.595203    20.696305     7963.535    9860.7387    9362.0714    8794.4341    603.97638   -1437.4621   -2.5590088   -3163.3176 
27540000    242.43653   -4698.3241   -4230.7649   -4698.3241            0    10589.224    19.483412    19.817155    20.530275    7926.8581    9806.2104    12308.968    9652.4949   -1230.6904   -351.09204     408.3855   -3006.5966 
27541000    248.84269   -4688.3668   -4208.4527   -4688.3668            0    11618.667    19.643717    19.666554    20.441073    7896.8816    11910.038    10969.958    11976.005    402.97381    1973.8947   -33.918665    -2870.355 
27542000    260.55009   -4739.2569   -4236.7642   -4739.2569            0    9926.8196    19.576488    19.900718    20.396393    7946.1527    10013.416     9365.197    10401.845    457.51549   -194.90922   -10.593803   -3086.3799 
27543000    258.81049   -4712.6437   -4213.5059   -4712.6437            0    11250.119     19.95327    19.666514    20.279993    7958.0977    9883.0596    12551.552    11315.745   -16.289061    1006.9551     1784.442   -2907.8094 
27544000     237.9328   -4702.1098   -4243.2363   -4702.1098            0    13066.129    19.585776    19.796288    20.296685    7869.5456    12946.346    12473.433    13778.607     755.6514   -581.39631    2293.0406   -2743.6466 
27545000    238.34519   -4723.8878   -4264.2191   -4723.8878            0    10773.879    19.919139    19.874485    20.157311    7979.9295    10586.831    11206.125    10528.681   -149.04639   -1446.9507   -517.02135   -3010.3649 
27546000    241.42685   -4709.6913   -4244.0794   -4709.6913            0    10581.584    19.874571    19.544488     20.47104    7951.7365    10892.996    9642.8443    11208.912     577.9263    1064.1695    194.19009    -3016.955 
27547000    256.37712   -4720.4646   -4226.0197   -4720.4646            0    9993.8992    19.722543    19.625895    20.517858    7941.8998    10626.086    8153.6559    11201.956    294.06967    1790.8512    2128.3704   -3068.4817 
27548000    242.20057   -4728.4408   -4261.3366   -4728.4408            0    12003.879    19.900374    19.879141    20.173156    7980.5476    11029.719     10349.86    14632.059   -457.07269   -78.872269   -323.80805   -2864.2279 
27549000      257.836    -4708.163   -4210.9046    -4708.163            0    11226.854    19.577199    19.763236    20.515537    7937.6419    11183.753    12715.802    9781.0069    842.29917   -378.80065   -1314.6083   -2911.2574 
27550000     237.9092   -4706.1477   -4247.3198   -4706.1477            0    11654.437    19.432648    19.683302    20.714012    7923.0821    11938.021    11758.947    11266.343   -95.242176    521.76174    93.589957   -2900.6493 
27551000     268.5226   -4679.7563   -4161.8879   -4679.7563            0     10976.75    19.899737    19.584462    20.538467    8004.3672    9914.2701    12090.402    10925.578    -151.1228    456.52781   -446.27362   -2880.5117 
27552000    249.27489   -4731.0945   -4250.3469   -4731.0945            0    11510.675    19.898365    19.772621    20.139204    7923.6255     11763.08    11195.074    11573.869    326.50666    915.59231   -1700.9811   -2920.1969 
27553000    246.57407   -4734.8682   -4259.3294   -4734.8682            0    12196.062    19.939936    19.606167    20.271506    7925.0587    11565.092    11238.666    13784.428   -140.11576    278.91825   -738.66463   -2849.7226 
27554000    249.32357   -4691.9725    -4211.131   -4691.9725            0    9566.4698    19.729793     19.93279    20.399922    8022.6736    9885.3082    9727.9657    9086.1353    -251.6162   -1181.7104   -1265.4822   -3091.8305 
27555000    249.04513   -4699.4148   -4219.1103   -4699.4148            0    12839.775    19.530691    19.931695    20.409898     7945.161    13252.175    12577.929    12689.222    445.51324    447.03472    225.56916   -2731.3396 
27556000     259.4709   -4686.3181   -4185.9066   -4686.3181            0    10929.747    19.922657    19.608432    20.506819    8011.0312    9121.0427    13468.623    10199.574     929.7433    782.45602   -524.84887   -2908.9551 
27557000    235.06141    -4721.494   -4268.1583    -4721.494            0    11261.349    19.571612    19.959129     20.46384    7993.8375    12605.663    11988.859    9189.5244   -1040.0959    1843.9844    240.89662   -2955.2887 
27558000    254.61641   -4717.2643   -4226.2151   -4717.2643            0    11454.889    19.762614    19.677012    20.485785    7966.2903     12603.91    10756.094    11004.662   -148.57324   -639.31767    946.40867   -2895.3842 
27559000    244.31603   -4713.9576   -4242.7736   -4713.9576            0    9587.4881    19.919149    19.988477    20.201021    8043.1059    8120.2483    9758.9467    10883.269   -1048.0089   -153.07196    582.26683   -3118.1569 
27560000    252.88489   -4721.9714   -4234.2616   -4721.9714            0    10416.021    20.109911    19.574786    20.279976    7983.1558    10552.148    9463.2714    11232.645    219.02734    756.05343    241.49918   -3021.5644 
27561000     249.4914   -4705.8659   -4224.7007   -4705.8659            0    9761.7404    19.836345    19.611012    20.600239    8013.7154    10957.756    8989.0618    9338.4033   -45.126119     975.1398   -1207.7228   -3083.8284 
27562000    262.93952   -4698.2243   -4191.1233   -4698.2243            0    10344.698    19.756832    19.921848    20.385632    8023.6339    11657.956    8830.8699    10545.269   -607.99186    187.66458   -1258.9877   -2980.6232 
27563000     257.8013   -4692.0779   -4194.8864   -4692.0779            0    10253.554    19.955591    19.636519    20.370963    7982.5317    10922.613     9959.191    9878.8572    54.178928    768.20165     2321.346   -3001.1981 
27564000    255.23334   -4713.9298   -4221.6908   -4713.9298            0      12225.7    19.768633    19.747747     20.27672    7915.7471    11885.289    11471.353    13320.457    518.86111    -989.9022    1677.8641   -2810.3187 
27565000    251.34101   -4729.1567   -4244.4244   -4729.1567            0    12439.935    19.789358    19.701106    20.461222    7977.2624    13947.122    12015.484    11357.197   -340.67523    69.602301    -749.7416   -2797.1601 
27566000    262.08876   -4685.6931   -4180.2329   -4685.6931            0    12288.584      19.9169    19.646344    20.304673    7945.1024    11399.376    13025.172    12441.205    287.25715   -2100.3379   -542.72037   -2756.3403 
27567000    256.49911   -4733.1939   -4238.5138   -4733.1939            0    9416.4149    19.815028    19.697366    20.308087    7926.3249    7030.3783    11020.996     10197.87   -359.00731    1163.1083   -240.10312   -3150.0015 
27568000    256.00213   -4730.4895   -4236.7679   -4730.4895            0    9179.2162    19.917151     19.66277    20.520934    8036.5387    10552.837    9343.6615    7641.1507   -159.86967   -301.23261    417.89552   -3160.9208 
27569000    239.13271   -4720.7899   -4259.6023   -4720.7899            0    11191.097    19.741293    19.505085    20.615817    7938.2358     10572.81    11733.296    11267.186   -212.90318    337.41834    440.35408   -2963.9975 
27570000    253.72435   -4705.5746   -4216.2458   -4705.5746            0    8646.9151    19.610043    19.881997    20.482039    7985.6771     9671.914    8139.4298    8129.4015    -504.1385   -804.57641   -420.35116   -3209.2009 
27571000    257.29603    -4719.366   -4223.1489    -4719.366            0    10694.113     19.39271    19.787168    20.727636    7953.7496    12474.059    8928.0552    10680.225   -616.69964    27.340047    455.25657   -2982.6609 
27572000    271.52395   -4702.4901   -4178.8334   -4702.4901            0    8669.6295    19.749814      19.9639    20.435187    8057.2534    9782.2543    8135.7936    8090.8407   -391.50862   -685.30754    1245.2961   -3160.0931 
27573000    240.66591   -4721.4535   -4257.3091   -4721.4535            0    11939.066    19.820408    19.627472    20.360693    7920.8084    11948.252     12314.61    11554.338    1330.0347   -1669.6851    451.59777   -2878.1455 
27574000    247.95663   -4729.7455   -4251.5403   -4729.7455            0    11173.216    19.536651    19.908191    20.391792     7931.171    10097.622    12720.472    10701.555     186.9459    989.22513   -382.42258   -2959.1568 
27575000    247.63194   -4708.6078   -4231.0288   -4708.6078            0    12554.449    19.651996     19.72956    20.321122    7879.0117    13312.166    11634.415    12716.767    110.50233   -189.25722    1476.8677   -2788.4308 
27576000    250.58722   -4719.1358   -4235.8573   -4719.1358            0    9916.9045    19.559748    19.799391    20.555143    7960.4128     7608.237    11521.224    10621.252   -287.10292    488.31568   -672.15358   -3084.5596 
27577000    238.32486   -4714.3223   -4254.6928   -4714.3223            0    13342.594    19.547729    19.559209    20.482793    7831.3527    11821.765    14665.886     13540.13    157.16415    205.57338    41.616931   -2730.8051 
27578000    261.10672   -4714.7082   -4211.1419   -4714.7082            0    9872.0797    19.918075     19.84637    20.402126    8064.9905    9337.6197    9763.7524    10514.867    36.322013   -893.52907    675.42475   -3049.9917 
27579000    250.25085   -4721.6228    -4238.993   -4721.6228            0    9244.5907    19.542279    19.442689    20.898939     7940.645    10410.294    9552.3065    7771.1712     299.3698     424.9312    320.41874   -3168.4124 
27580000    253.13855   -4687.9257   -4199.7267   -4687.9257            0    10351.633    19.796326    19.783287     20.36265    7974.7553    10679.728    9035.1103    11340.061    531.05822     297.1504    394.85386   -2995.7942 
27581000    257.30306    -4706.201   -4209.9704    -4706.201            0    12456.548    19.790029    19.593238    20.349287    7890.4513    10607.883    13847.848    12913.912   -258.65784   -28.473471   -2425.2103   -2776.5439 
27582000    243.12477   -4714.6011   -4245.7145   -4714.6011            0    10423.762    19.874972    19.532022    20.439681    7934.6518    10064.546    10419.745    10786.994    970.77107   -119.16806    923.20546   -3039.4898 
27583000    251.52131   -4687.9475   -4202.8675   -4687.9475            0    12078.197    19.476919    19.598636    20.651242    7883.0138    12490.838    13541.861    10201.892    259.08922    913.82695    410.08618   -2814.2895 
27584000    255.97283    -4697.731   -4204.0659    -4697.731            0    9375.5658    19.818746      19.7971    20.506469    8045.7887    9926.7007    9059.8659    9140.1309    647.13781    1593.2205    330.49264   -3103.9409 
27585000    247.61882   -4721.6544   -4244.1006   -4721.6544            0    13022.036    19.620207    19.737999    20.432044    7912.5873    11750.017    14402.179    12913.913   -213.36764   -276.32891   -137.64707   -2741.3971 
27586000    250.62673   -4724.1669   -4240.8122   -4724.1669            0    10375.276    19.672205    19.635642    20.498363    7918.0333    10263.454    11068.861     9793.512    901.07316   -905.76541    567.67087   -3042.7128 
27587000    245.85442   -4709.9604   -4235.8095   -4709.9604            0    11014.742    19.726283    19.515879    20.549113    7910.9106    10452.717     11305.67    11285.838    169.65288   -419.65192   -51.501682   -2965.0111 
27588000    262.65394   -4732.0207   -4225.4705   -4732.0207            0    11641.524    19.720106      19.8894    20.294582    7959.9631    11066.247    11618.375    12239.949     109.2565   -284.18499   -228.75682   -2874.0305 
27589000    244.68392   -4738.7553   -4266.8617   -4738.7553            0    12336.911    19.774601    19.610712    20.316761    7878.7183    12760.523    12279.762    11970.449    222.65982   -1746.8865   -1211.5517   -2849.3133 
27590000    255.60118   -4723.8122   -4230.8639   -4723.8122            0    11814.104    19.669375    19.663823    20.510072    7932.7858    10848.562    13408.309    11185.442   -483.78943   -254.89762    91.302248   -2864.0719 
27591000    250.81868   -4720.1605   -4236.4356   -4720.1605            0    10757.674    19.736293    19.652394    20.461961    7936.4868    12248.995     9808.895    10215.133     229.0756   -668.16091    948.50546    -2991.283 
27592000    245.47618   -4708.3031   -4234.8816   -4708.3031            0    12241.224    19.549873    19.869568     20.42072    7932.3782    12029.268    12850.424     11843.98    310.80337    1986.9635     1444.466   -2818.7483 
27593000    266.25096   -4714.9828   -4201.4955   -4714.9828            0    10444.566    19.651918    19.842009    20.335669    7929.5593    12573.322     8951.155    9809.2229   -103.70474    793.15336    453.37938   -2993.6389 
27594000     264.5127   -4736.2712   -4226.1362   -4736.2712            0    10422.675    19.950863    19.420354    20.472956    7932.3046    10628.191    10238.935      10400.9    273.98777    2781.6613   -579.75288    -3020.394 
27595000    241.15474   -4735.0916   -4270.0044   -4735.0916            0    11017.695    19.828851    19.635137    20.428445     7953.656    9862.1184    10537.104    12653.863    67.739819    1001.2624   -1259.0037   -2991.9968 
27596000    251.63688   -4700.6211   -4215.3183   -4700.6211            0    11815.386    19.924132    19.764836    20.244634      7972.28    10549.794    13157.183    11739.181   -934.54863    2535.1866    491.86487   -2841.5725 
27597000    256.21104   -4721.7824   -4227.6578   -4721.7824            0    10708.295    19.612207    19.816269    20.562967    7991.6076    11573.335    9478.5715    11072.978   -42.072847   -1055.6054    999.53436   -2979.6125 
27598000    252.83712   -4716.4423   -4228.8246   -4716.4423            0    10138.603    19.771663    19.696484    20.440569    7960.2165    9906.1435    10265.354     10244.31   -505.04906    590.07828    20.142179   -3051.8181 
27599000    254.81471   -4727.6057   -4236.1741   -4727.6057            0    11036.324     19.63079    19.729054     20.55338    7960.2606    12409.697    10259.682    10439.593   -331.00909    695.25998    662.88471   -2954.9425 
27600000    245.73028   -4710.3352   -4236.4237   -4710.3352            0    11205.021    19.720304    19.796217    20.425944    7974.0313    10608.477    11218.004     11788.58   -246.50116    833.03932   -69.380081   -2933.3575 
27601000    252.46078   -4753.7725   -4266.8806   -4753.7725            0    9833.0922    19.740269    19.852925    20.282438    7948.7297      10611.5    10443.311    8444.4663    378.61116    209.54204    85.055891   -3126.9886 
27602000    252.85004   -4709.5575   -4221.9149   -4709.5575            0    11779.219     19.57781    19.919305    20.469779    7982.7298    11887.304    11475.052      11975.3    25.212986   -466.62726    26.316741   -2850.5791 
27603000    257.49434   -4712.1567   -4215.5572   -4712.1567            0    8478.2014    19.640215    19.887688    20.473272    7996.8287    7282.6094    9471.7225    8680.2722   -299.47062   -855.31846    312.47954   -3226.7824 
27604000    267.92313   -4725.5629   -4208.8506   -4725.5629            0    10247.844    19.662398    19.786181    20.337265     7912.086    11152.316    9612.0599    9979.1562   -456.09373    707.77206   -725.83581   -3026.3554 
27605000     257.3112   -4668.6993    -4172.453   -4668.6993            0    12420.574    19.711067    19.800564    20.234205    7897.2128    16134.707    9082.0249    12044.991   -1067.5533    887.03306   -1866.6754   -2741.9413 
27606000    247.90747   -4732.8749   -4254.7645   -4732.8749            0    10265.049    19.642498    19.835614    20.405984    7950.6004     10574.93    9151.4775     11068.74    1278.6605   -99.230657   -238.00119   -3064.5182 
27607000    250.32622   -4705.9506   -4223.1754   -4705.9506            0    12027.078    19.788364    19.804141    20.262511    7940.7069    13366.171     12069.13    10645.934   -651.46478    62.753624    398.45751   -2830.3548 
27608000    252.27477   -4692.1183   -4205.5852   -4692.1183            0    10926.359    19.735383    19.687689    20.469266    7953.2122    11104.689    11048.989      10625.4    635.63712    577.10276   -628.61889   -2938.2429 
27609000    254.07909   -4721.1866   -4231.1737   -4721.1866            0    10469.775    19.878877    19.587201     20.42841    7954.2416    10645.692    10133.058    10630.576   -136.03177     205.8747    160.93238   -3016.6331 
27610000    256.66179   -4693.5517   -4198.5579   -4693.5517            0     11684.63    19.973158    19.758806    20.160474    7956.2455     9477.078    13306.012      12270.8    366.03643   -151.24351   -1112.4165   -2842.7472 
27611000    265.02987   -4717.0053   -4205.8729   -4717.0053            0    8552.8003    19.812131    19.823384    20.413524    8017.2788    9282.6842    8051.9716    8323.7452    517.15163   -963.82052    422.96635   -3205.8471 
27612000    255.78737   -4707.8008   -4214.4933   -4707.8008            0    10442.233    19.713191    19.835271    20.268305    7925.2415    10145.678    10663.799    10517.223    912.95118    158.76241    48.635196   -3007.5641 
27613000    255.03911   -4748.4544     -4256.59   -4748.4544            0    11086.171    19.658394    19.665254    20.602039    7964.4872    11001.116    10340.696      11916.7    110.58622     162.0347    958.92248   -2968.8883 
27614000    250.26433   -4709.9542   -4227.2984   -4709.9542            0    9764.8112    19.729386    19.807001    20.464699    7997.1945    8601.7431    11735.965    8956.7257    388.47602    227.37227   -430.07765   -3088.4199 
27615000    252.43229   -4737.7607   -4250.9238   -4737.7607            0    7661.0022    20.111119    19.692294    20.439969     8094.924    4733.9642    9493.2541    8755.7884    693.76905   -620.58642   -175.06838   -3346.4953 
27616000    244.99924   -4723.5674   -4251.0657   -4723.5674            0    9264.1709    19.740175     19.79561    20.356867    7954.8282    9628.2743     8751.345    9412.8934    885.98046    527.08693   -464.78054   -3176.3014 
27617000    234.19719   -4713.3712   -4261.7023   -4713.3712            0    11222.085    19.852874    19.544782    20.483143     7947.871    13710.592    9768.9237     10186.74    505.18427    -1212.774    164.48999    -2960.933 
27618000    253.80965   -4734.8684   -4245.3752   -4734.8684            0    11324.488     19.96978    19.897636     20.03122    7959.4335     10666.25    11403.855    11903.358    239.74392     790.7482     685.5494   -2930.8267 
27619000    247.09157   -4730.5323   -4253.9955   -4730.5323            0    11180.084    19.897803    19.451961    20.594998    7971.3206    11918.303    12195.814    9426.1368    268.41997   -411.25659    145.08068   -2954.2712 
27620000    249.59871   -4708.3829   -4227.0108   -4708.3829            0    11324.331    19.741634    19.680308    20.487069    7959.6653    12523.964     10387.43    11061.599    171.19152   -709.03208    111.11552   -2912.4422 
27621000    246.49125   -4741.4334   -4266.0543   -4741.4334            0      10106.8    19.872044     19.74217    20.312893    7969.0989    8778.4628    11510.994    10030.944    776.90092    621.18073     -294.149   -3091.4305 
27622000    265.73099    -4712.022   -4199.5374    -4712.022            0    11435.933     19.66907    19.580987    20.546794    7913.3884    11146.673    12438.328    10722.798    87.059813    555.56461    310.60744   -2879.7318 
27623000      256.941   -4728.5246   -4232.9923   -4728.5246            0    9593.1028    19.672151    19.953762     20.35905     7991.607     8733.938    9424.9907     10620.38    538.69703    706.89389   -387.87356    -3114.922 
27624000    239.48592   -4678.5172   -4216.6485   -4678.5172            0    12402.585    19.716188    19.747805    20.363368    7928.5066    12477.004    13110.468    11620.282   -285.04704   -842.98057   -318.62763   -2782.5483 
27625000    270.17256   -4720.3399   -4199.2894   -4720.3399            0    10995.791    19.735998    19.544828    20.670675    7973.4379    11918.532    11843.025    9225.8158    120.30552   -1369.1774    -363.4133   -2920.6503 
27626000    246.55538   -4729.9816   -4254.4788   -4729.9816            0     11451.84    19.797667    19.544777    20.440885    7909.4164    11790.996    11665.878    10898.647   -870.49847    406.70734    2216.0797   -2933.5008 
27627000     246.2574   -4688.1795   -4213.2514   -4688.1795            0    12906.924    19.667343    19.272215     20.71862    7853.0462    12158.089    13048.948    13513.735    471.25142   -30.390176    940.47477   -2735.0391 
27628000     241.8844   -4717.8376   -4251.3432   -4717.8376            0    8797.4402    19.838194    19.879429    20.293738    8003.2819     7706.909    10426.624    8258.7874    1154.5582    850.40226   -2208.2136    -3224.509 
27629000       262.17   -4698.2683   -4192.6514   -4698.2683            0    11291.719    19.894058    19.784545    20.271354     7978.701      10520.3    11337.098     12017.76   -220.11679   -107.66237   -652.95011   -2878.7337 
27630000    242.88082   -4736.5136   -4268.0975   -4736.5136            0    10768.054    19.573555    19.786302    20.471159    7928.2397      11444.4    11259.523    9600.2373    664.12736   -1163.2761    268.36764   -3023.0387 
27631000    240.74311   -4732.7907   -4268.4974   -4732.7907            0    10385.832    19.959648    19.771229     20.14228     7948.683    9790.9539    10968.921    10397.619   -343.53649     439.1608    690.47948   -3064.5366 
27632000    254.73459   -4692.7747   -4201.4977   -4692.7747            0    11434.591    19.807641    19.678005    20.371579    7940.3293    12561.708    10732.393    11009.672   -160.20431   -1661.0194   -908.36722   -2877.3542 
27633000    257.54929   -4690.5484   -4193.8429   -4690.5484            0    10292.043    19.915157    19.670222    20.339301    7967.6276    9157.9646    11069.122    10649.042    52.578598    912.99075    1306.2215   -2997.9108 
27634000    239.33566   -4710.1957   -4248.6168   -4710.1957            0    11849.448    19.655816    19.937153    20.312804    7960.2018    12839.218    10548.625    12160.501   -142.68205    452.10103  -0.57131886    -2872.998 
27635000    254.41172   -4724.5999   -4233.9455   -4724.5999            0    11021.656    19.785411     19.73731    20.255168    7909.8618    10110.169    11458.109     11496.69   -62.532343   -1195.6208   -55.718331   -2962.5179 
27636000    261.79086   -4724.6294   -4219.7437   -4724.6294            0    11294.447    19.558066    19.813829     20.47552    7934.6776    12584.885    9497.8347     11800.62    136.45214   -295.34068    821.80149   -2912.7601 
27637000    249.99852   -4731.8982    -4249.755   -4731.8982            0    9193.2372     19.76533    19.618319    20.564521    7974.1508    7358.1719    11182.428    9039.1118    43.544125    890.04671    482.83991   -3180.6292 
27638000     249.9494   -4727.2722   -4245.2238   -4727.2722            0    10123.525    19.763787    19.948343    20.193014    7961.1925    9230.6745    10394.293    10745.608   -528.84286    1737.3467   -1724.9531   -3069.8236 
27639000    237.71772   -4733.6414   -4275.1828   -4733.6414            0    10812.896    19.756455    19.801137    20.367309    7967.6966    9805.9238    11535.707    11097.058   -788.74537   -1360.8081   -772.91245   -3018.7168 
27640000    250.80669   -4700.9286   -4217.2268   -4700.9286            0    10823.114    19.815342    19.951498    20.165664    7972.4097    9414.4004    9612.1619     13442.78     -575.881    400.30416   -223.74243   -2958.8296 
27641000    247.05078   -4717.2232    -4240.765   -4717.2232            0    8744.7712    19.592237     19.78302    20.596376     7983.024    9311.7951    8915.0357    8007.4829    154.05659   -162.95803   -614.75359   -3222.6618 
27642000    246.49379   -4698.7172   -4223.3332   -4698.7172            0    10299.731    19.543002    19.709845    20.541877     7912.516    9669.1881    10740.649    10489.355    160.22988   -1474.3529    659.38056   -3034.7862 
27643000    256.99438   -4731.7831   -4236.1479   -4731.7831            0    11902.362    19.433757    19.853871    20.527705    7920.3133    13924.899    10051.626     11730.56   -19.526899    -933.2801   -592.19077   -2861.3103 
27644000    249.29329   -4704.1654   -4223.3823   -4704.1654            0    10947.503     19.85024    19.618726    20.303336    7906.8584    8039.2527    14186.909    10616.348   -176.59487    463.76814   -1395.0325   -2960.9883 
27645000    247.91054   -4712.6557   -4234.5394   -4712.6557            0    10119.957    19.716125    20.043345    20.184676    7976.5216    10746.781    9093.7762    10519.314    572.29279     1133.138     669.3343    -3057.291 
27646000    243.40134   -4721.4276   -4252.0077   -4721.4276            0    9359.8636    19.834613    19.586431    20.466319    7950.9453    8924.9896    10331.096    8823.5052    535.10116   -1594.6235   -574.75221   -3166.6718 
27647000    244.03049   -4724.9124    -4254.279   -4724.9124            0    8260.2487    19.776511    19.692635    20.549057    8002.8639     6326.811    10018.754    8435.1809    312.29562    253.54462   -2175.7212    -3290.196 
27648000     258.1741   -4743.5786   -4245.6682   -4743.5786            0    10626.844    19.945213    19.683148    20.207331    7933.0861    11031.438    10633.209    10215.885    743.06422    -1099.636    349.33315   -3016.1857 
27649000    246.69186   -4687.3145   -4211.5485   -4687.3145            0    10802.615    19.750896    19.810634    20.405815    7984.3418    12325.334    10292.759    9789.7523   -332.82616   -85.090679    436.70395   -2953.6548 
27650000    240.28425   -4697.6379   -4234.2295   -4697.6379            0    10211.607    19.773549    19.456315    20.602748    7926.2975    11180.043    9292.8124    10161.965   -202.30681   -964.90965    480.00753   -3053.7992 
27651000    258.79884   -4680.5269   -4181.4116   -4680.5269            0    9961.1474    19.893209    19.537385    20.427528    7939.3893    9761.6416    9985.0718    10136.729    470.55798   -358.16744    420.77868   -3028.0318 
27652000    252.08117   -4704.5371   -4218.3773   -4704.5371            0    9314.5371    19.876549    19.606448    20.577961    8019.4071    8011.4611    8857.0683    11075.082    -87.75658    360.14467   -541.57672   -3128.9973 
27653000    248.76145   -4699.6175   -4219.8601   -4699.6175            0    11852.427    19.556556    19.647072     20.56196    7900.5028    13786.832    10234.839    11535.609    122.61441   -303.20278   -763.28515   -2854.2149 
27654000    252.28368   -4712.1325   -4225.5822   -4712.1325            0    13809.839    19.896666    19.484286      20.3446    7887.0386    14821.761    13664.922    12942.834     872.5329     1384.065   -1300.4577   -2637.1143 
27655000    245.98058   -4702.3339   -4227.9397   -4702.3339            0    11747.387    19.755895    19.820086    20.191883    7906.4052    12468.236    11273.577    11500.347   -74.873485     504.7673    265.12051    -2873.386 
27656000    236.25877   -4716.7825   -4261.1376   -4716.7825            0    9638.3212    19.842247    19.817781    20.404655    8023.7085    11087.312    8285.8192    9541.8328    58.819217   -605.55765   -732.58671   -3133.2847 
27657000    265.14908    -4728.079   -4216.7167    -4728.079            0    11890.904     19.63048    19.792488    20.308755    7890.6831    10800.143    13590.393    11282.175    345.05159    252.88476   -1642.7767    -2848.341 
27658000     233.9757   -4704.3775   -4253.1357   -4704.3775            0    10063.549    19.640011    19.877711    20.395689    7962.4458    11051.799    9273.0673    9865.7826    -337.7831    116.14197    2108.1669    -3084.515 
27659000    243.24739    -4717.122   -4247.9989    -4717.122            0    11167.304    19.763093    19.697837     20.33146    7914.8376    13233.241    8850.1606     11418.51     334.5855   -349.72978    971.27863   -2958.9594 
27660000    248.25774   -4706.4096   -4227.6236   -4706.4096            0    10208.608    19.489228    19.940099    20.556349    7988.5496    10496.757    9749.1178     10379.95    175.98144    818.75041    1912.9276   -3038.2718 
27661000    236.56895   -4703.6544   -4247.4113   -4703.6544            0    11054.743    19.620704    19.726118    20.447506    7914.0095    11657.333    11590.014    9916.8807   -643.23256    658.74935    850.92822   -2971.4983 
27662000    259.24111   -4721.5475   -4221.5792   -4721.5475            0    11625.463    19.698542    19.639566    20.534917    7944.3599    11592.355    12625.001    10659.034    258.49067   -206.03118   -1013.1407   -2874.6491 
27663000    259.11444   -4713.0038   -4213.2798   -4713.0038            0    11471.978    19.747226    19.943854    20.096958    7914.9016    9395.4107     11989.83    13030.692   -662.36475    141.83103    2067.1032   -2889.0612 
27664000    249.45609   -4706.6418   -4225.5447   -4706.6418            0    14186.059    19.583273    19.729464    20.291939    7840.1453    13954.666    14022.227    14581.282   -733.80526   -1357.9077    695.64013    -2603.504 
27665000    263.70771   -4742.6784   -4234.0959   -4742.6784            0    11069.328    19.827842    19.773744    20.269936    7947.2473    9591.8504    12522.823    11093.312    797.44519    330.43872     535.7778   -2951.1336 
27666000    245.71839   -4692.8573   -4218.9687   -4692.8573            0    11580.337    19.463468    19.885371    20.644616     7990.257    14730.397    9753.6213    10256.993   -739.17974   -626.10375    842.82781   -2869.5154 
27667000    247.97638   -4708.3303    -4230.087   -4708.3303            0    10533.147     19.74776    19.761602    20.377115    7952.1156     9106.563    10003.666    12489.212    132.43034    728.99168   -777.93567   -3008.5216 
27668000    252.76448   -4698.0064   -4210.5288   -4698.0064            0    11084.023    19.748069    20.021844    20.227874    7997.9548    10485.674    10781.175    11985.219    598.41473    469.34792    1162.8561   -2917.6666 
27669000    250.87039   -4687.9592   -4204.1346   -4687.9592            0    10254.256     19.66584    19.723384    20.585153    7984.5059    9944.3573    9566.2082    11252.204    516.30137    21.628189   -1440.7831   -3010.0692 
27670000    256.59898   -4712.3641   -4217.4914   -4712.3641            0    11264.298    19.678732    19.728931    20.387314    7915.1781    9969.3383    13151.136    10672.419    314.95651    590.91692   -200.45261      -2917.2 
27671000    253.40289   -4697.3144   -4208.6056   -4697.3144            0    10346.147    19.793521    19.922578     20.20358    7967.0385    11056.495    9839.2892    10142.657   -626.11604    153.11911      492.543   -3006.4756 
27672000    252.92897    -4733.453   -4245.6582    -4733.453            0    11160.904    19.770496    19.731672    20.424267    7967.6072    6406.3558    15287.127     11789.23   -109.09423    654.82673    2272.7231    -2948.768 
27673000    241.87752   -4731.3656   -4264.8844   -4731.3656            0      9047.46    19.778714    19.757136    20.373591    7961.4033    8773.6726    8254.9049    10113.802   -279.27398    291.43067    387.06791   -3214.3938 
27674000    260.29721   -4745.2236   -4243.2186   -4745.2236            0    8992.3103    19.860368    19.906178    20.267391     8012.592    7529.7322        10012    9435.1989   -614.88692   -264.40623   -535.64524   -3192.4183 
27675000    240.68091   -4705.7183   -4241.5449   -4705.7183            0     11514.12    19.657396    19.755946    20.597917    7999.2106    13216.289    10149.866    11176.204   -867.34814   -1006.6863   -111.98641   -2898.3045 
27676000     231.4896   -4705.4144   -4258.9673   -4705.4144            0    11374.229    19.488408    19.864573    20.534019    7949.3124    12566.596    10034.488    11521.602   -283.79242    1967.2427    876.29776   -2940.3237 
27677000     250.9275   -4695.3892   -4211.4544   -4695.3892            0    11522.238    19.848758    19.718054    20.189757    7901.8448    8362.9477    13687.746     12516.02    446.90813   -49.320017   -793.48228   -2883.6282 
27678000    245.62779   -4697.1935   -4223.4796   -4697.1935            0    11983.727    19.760327    19.759305    20.251316    7907.1332    9900.3326    13313.006    12737.842   -151.04113   -1462.8804   -820.36736   -2841.5471 
27679000    246.29517   -4667.1393   -4192.1383   -4667.1393            0    13170.308    19.782529    19.858943    20.158876    7919.6182    10477.324    14411.563    14622.037   -587.95322   -2197.7999    1705.4158   -2670.9742 
27680000    257.98658    -4714.587   -4217.0382    -4714.587            0    10224.275    19.537997    19.698625     20.65891    7951.0295     10912.66    10062.545    9697.6201    72.896828    724.29345    1161.2988   -3031.4557 
27681000    249.97148   -4723.4364   -4241.3453   -4723.4364            0    10529.407    19.893032    19.651637    20.510706    8018.2635    10163.194    11753.962    9671.0658   -478.21217   -280.52248    -501.1748    -3010.056 
27682000    260.46862   -4724.9986    -4222.663   -4724.9986            0    13033.035    19.648698    19.849368     20.19126    7874.8789     13410.39    12035.149    13653.564    225.25096    2401.7842    1384.3317   -2725.8576 
27683000    246.36182     -4736.23   -4261.1005     -4736.23            0    11148.896    19.918773    19.696513    20.216478    7931.5383    10229.561    11356.699    11860.429    596.23478     375.9919   -1004.7352   -2971.4703 
27684000    236.58073   -4723.3524   -4267.0866   -4723.3524            0    9847.3356    19.716038    19.877069    20.380783    7987.1687    8054.3478     11204.33    10283.329   -1288.4827    576.87223   -1130.0647    -3120.023 
27685000     257.7444   -4699.0598    -4201.978   -4699.0598            0    12439.801    19.685054    19.508814    20.609519    7914.7159    13066.121    12709.864    11543.418    -614.8433    1683.7776   -717.18315   -2766.0765 
27686000    251.02072   -4683.6868   -4199.5722   -4683.6868            0    9598.3329    19.732338    19.394686    20.812009    7964.8082    8514.7788    11179.639    9100.5811    33.437714    776.41191   -2699.9096   -3084.6437 
27687000    242.50754   -4708.2449   -4240.5487   -4708.2449            0    11543.054    20.038946    19.679347    20.145227    7944.3383    10309.623    11798.853    12520.684    296.73805     555.4915   -556.67442   -2903.1702 
27688000    256.46531    -4705.714   -4211.0991    -4705.714            0    11593.606    19.633565    19.823885    20.362993    7925.5524    11107.283    12187.107    11486.429   -220.86585   -783.32306    1181.7512   -2871.0399 
27689000    242.56714   -4732.6249   -4264.8137   -4732.6249            0    10366.539    19.684677    19.804211    20.579636    8022.7545    10760.176    11070.221    9269.2196   -91.554367   -1841.1272   -1531.1192   -3051.8909 
27690000     257.0132   -4681.0568   -4185.3853   -4681.0568            0    11697.716    19.807372    19.853003    20.203135    7944.5964     12814.57    9961.6635    12316.915   -386.12511   -725.44075    -745.7395   -2830.0435 
27691000    254.47015   -4725.1182   -4234.3511   -4725.1182            0    8992.3955    19.761664    19.842186    20.519942    8046.1688    9337.9122    10953.362    6685.9125   -518.94412    1568.8517    22.586166   -3179.1374 
27692000    261.94014   -4727.3611   -4222.1875   -4727.3611            0    9784.4153    19.809232    19.686492    20.400289    7955.5884    7705.1662    11134.442    10513.638   -244.84961    392.66777   -158.29322   -3086.9595 
27693000    253.58119   -4708.7368   -4219.6841   -4708.7368            0    10669.296    19.758186    20.008671    20.194953    7983.7726    10455.053    10748.741    10804.095    447.74377    -342.1647    166.83223   -2977.4032 
27694000    251.60281   -4689.8306   -4204.5934   -4689.8306            0    11055.958    19.568171     19.75108    20.486822    7918.0034    12069.821    10762.996    10335.059    810.20307   -83.088455    957.91341    -2927.896 
27695000    244.80448    -4702.409    -4230.283    -4702.409            0    10658.871    19.698886    19.775859    20.502858    7987.1422    10258.045    10494.358    11224.208    4.1554521   -1172.6779    1264.3321   -2988.6922 
27696000    255.13536   -4735.9316   -4243.8816   -4735.9316            0    8529.2216    19.658386    20.064357    20.420267    8054.4247    10999.797    6076.7231    8511.1448    779.85408   -118.32465   -698.23348   -3241.9922 
27697000    255.00808   -4719.8458   -4228.0413   -4719.8458            0      12086.7    19.844046    19.570511    20.441923    7938.7871      11080.4     13253.16    11926.541   -5.3110443   -295.14095   -453.29334   -2828.6545 
27698000    250.79089   -4706.5739   -4222.9026   -4706.5739            0    12421.384    19.857511    19.831827    20.244519    7972.5086    12087.527    12488.582    12688.043   -244.67263    1901.5253   -668.84116   -2778.6576 
27699000    262.36671   -4712.1432    -4206.147   -4712.1432            0    10285.327    19.785264    19.750182    20.392032    7968.4429    10746.018     9644.003     10465.96    12.827048    284.85618    428.02994    -3010.873 
27700000    242.47118    -4711.238    -4243.612    -4711.238            0    9068.0629    19.484143    19.784609    20.654465    7962.0105     11517.72    7433.4477    8253.0209    279.12757    480.31436    1593.7655   -3190.6489 
27701000    244.22282   -4697.9497   -4226.9455   -4697.9497            0    12787.748    19.648631    19.746991    20.368942    7903.1767    11868.567    12236.497    14258.179   -676.25491      1763.42    350.68973   -2753.0332 
27702000    245.94752   -4702.2881   -4227.9576   -4702.2881            0    10282.653    19.744188    19.837666    20.414645    7995.9798    12283.193    8678.1884    9886.5775    330.27932    603.80423   -340.77363   -3028.8649 
27703000    237.00027   -4718.6502   -4261.5753   -4718.6502            0    10238.848    19.738915    19.717399    20.507445    7981.4991    10107.413    8607.8915    12001.239    153.43348    120.75102      249.282   -3069.7531 
27704000    236.11506   -4715.6684   -4260.3007   -4715.6684            0     9691.174    19.627179    19.829558    20.478506    7970.1995    10076.224    9371.0517    9626.2466   -535.96137   0.36863892   -491.77915   -3133.8259 
27705000    256.29685   -4742.8479   -4248.5578   -4742.8479            0    12142.197    19.336117    19.770633    20.483877    7830.7252    13779.879    11674.571    10972.141    595.71415   -977.70254    904.55396   -2861.8813 
27706000    250.84186   -4736.1543   -4252.3847   -4736.1543            0    10728.199     19.56398    19.714836    20.476542    7897.8156    12148.029    9680.7626    10355.805     84.21432    736.49967    165.04657   -3016.6942 
27707000    242.43824   -4710.5259   -4242.9634   -4710.5259            0     10469.09    19.592616     19.85667    20.552828    7995.9568    11475.576    10467.308    9464.3864     1133.653   -1884.9081   -146.14931   -3022.1332 
27708000    262.93235   -4720.7219   -4213.6347   -4720.7219            0    11644.161     19.80357    19.786697    20.331092    7966.6825    10854.254     12905.93      11172.3    214.86257    789.26954     -18.5062   -2860.7474 
27709000    249.91186   -4715.9701   -4233.9941   -4715.9701            0    11198.975    19.542764    19.711176    20.647681    7953.7111    12985.542    10445.438    10165.947   -120.84829    316.43614   -628.54923   -2934.9497 
27710000    256.86284   -4691.3495   -4195.9679   -4691.3495            0    11020.472    19.801535    19.577321    20.421732    7916.7094    11931.813    9999.0778    11130.524    92.646792   -503.99138    -2331.803   -2923.5763 
27711000    265.45411   -4730.5532   -4218.6027   -4730.5532            0    11340.129      19.5396    19.532877    20.668775    7888.5394    11253.225    13393.833    9373.3289    317.12377    1298.1819   -903.12108   -2913.9633 
27712000    251.53668   -4708.6562   -4223.5465   -4708.6562            0    11001.257    19.616727    19.702297    20.426202    7894.6163    10375.673    11260.668    11367.429   -368.77878    1551.4292    631.09628   -2956.9182 
27713000    262.36688   -4709.0961   -4203.0995   -4709.0961            0    9595.7515    19.616098    19.779452    20.603234    7993.9657    10917.494    9274.8916    8594.8686    582.06943   -85.260237   -495.58339   -3084.3905 
27714000    253.07512   -4716.4726    -4228.396   -4716.4726            0    10716.475    19.679746    19.850763    20.356645    7952.4856    11167.343    10720.588    10261.495     674.5923   -791.03675    1953.3423   -2985.5115 
27715000    255.10894    -4758.996   -4266.9969    -4758.996            0    13112.783    19.613381    19.804372    20.298224    7884.4535    13963.159    13443.469     11931.72    70.561085    941.15668     399.4355   -2759.2017 
27716000    240.09276   -4708.0807   -4245.0416   -4708.0807            0    9776.1413      19.6375    19.725461    20.569166    7967.6463    10221.342    9961.0808    9146.0009   -535.96671    727.31483    592.92126   -3109.0545 
27717000    232.72286   -4725.2194   -4276.3938   -4725.2194            0    11169.699    19.831733    19.894931    20.244558    7987.5095    10207.327    11186.836    12114.935   -193.52703   -1468.1569    402.57058   -2975.2396 
27718000    248.28533   -4696.1063   -4217.2672   -4696.1063            0    10586.737    19.714706    19.904052     20.38503    7999.1376    12818.425    8583.9985    10357.786    83.523377    1891.2339    -1699.258   -2982.2268 
27719000    259.45532    -4709.893   -4209.5116    -4709.893            0    12237.469    19.690392    19.598584    20.427001    7882.8574    13248.075    10472.288    12992.044    393.86734    459.91797    -1141.564   -2802.6506 
27720000    254.50879   -4743.7115   -4252.8698   -4743.7115            0    11606.357     19.63699    19.821868    20.283854    7895.3242    11154.321    10760.322    12904.429   -482.79833    433.34809    681.43591   -2916.4534 
27721000    250.16457   -4717.6531   -4235.1897   -4717.6531            0    11296.426    19.599556    19.710569    20.614147    7963.6245     13666.85    10567.568    9654.8598    443.66136    1538.2586    913.81558   -2923.2082 
27722000     256.8076   -4734.7308   -4239.4557   -4734.7308            0    11115.485    19.362006    19.675753    20.651567    7867.4634    11228.243     11595.63    10522.581   -203.34179   -470.36694    465.79492   -2964.0774 
27723000    258.04851   -4743.2446   -4245.5764   -4743.2446            0    9909.3817    19.787637    19.756952    20.285859    7930.6229    9826.9609    9927.8034    9973.3808   -325.40082    -67.67589    1841.0612   -3099.4573 
27724000     246.2046   -4709.1636   -4234.3373   -4709.1636            0    10081.164    19.704544    19.848089    20.324846    7948.9975    8584.3597    10910.239    10748.894    356.62096    1153.2165    -927.0365   -3065.6484 
27725000    247.56185   -4720.2414   -4242.7975   -4720.2414            0    12452.957    19.545945    19.564535    20.750815    7935.2634    12593.184    14125.239    10640.447    165.95333    1318.3289    693.53227   -2801.6458 
27726000    250.96772   -4711.7708   -4227.7585   -4711.7708            0    11582.449    19.720476    19.812928    20.244213    7909.8266    11923.154    11211.206    11612.987   -66.323148    1002.8301   -413.44312   -2891.6453 
27727000    267.82465    -4673.323   -4156.8007    -4673.323            0    12524.627    19.550535    19.754424    20.417728    7885.5216    11349.758    13507.485    12716.637     318.1523   -805.42312   -443.26877   -2716.4405 
27728000    255.53893    -4703.535   -4210.7067    -4703.535            0    10484.578    19.893632    19.670469    20.414181    7988.4175    10330.019    10595.586    10528.128    401.95728       798.46   -546.09466   -2989.2232 
27729000    267.61944   -4737.4003   -4221.2737   -4737.4003            0    10504.388    19.652844    20.007127    20.352873    8002.6874    9240.7092     11542.91    10729.546   -131.73759    350.62063   -101.99094   -2995.2962 
27730000     252.8581   -4689.5721    -4201.914   -4689.5721            0    10457.977    19.857732    19.837857    20.339364    8012.3842    10628.098    9919.9995    10825.832   -455.37869   -923.65383     330.8472   -2979.8743 
27731000    253.84009   -4700.7169    -4211.165   -4700.7169            0    12373.419     19.53668     19.85386    20.495863    7949.9046    13142.395    11534.583     12443.28   -147.25056   -2.6737723    900.42499   -2776.5759 
27732000    253.58666   -4710.0245   -4220.9613   -4710.0245            0    11032.741    19.555894       19.785    20.468777    7919.6433      12270.2    9421.9254    11406.098   -165.12362   -332.98482   -659.18003   -2946.6811 
27733000     248.8992   -4721.9037   -4241.8807   -4721.9037            0    10757.373    19.874293    19.889735     20.09542    7943.6073    8533.1087    11899.079    11839.931   -54.069993    502.96328   -281.09289   -2995.6458 
27734000    247.15525   -4682.5778   -4205.9181   -4682.5778            0    11171.279    19.688947    19.780472    20.361478    7929.9131    9479.7881    11582.249      12451.8    214.71304    59.176092   -211.73995   -2913.9636 
27735000    240.40362   -4717.6807   -4254.0421   -4717.6807            0    10992.884    19.659646    19.781598    20.456938    7955.6872    11519.599    9077.8253    12381.229    505.21562    895.17072   -62.899609   -2978.5868 
27736000    233.83835      -4689.7   -4238.7231      -4689.7            0    11825.687    19.892687    19.466077    20.482693     7931.566    11374.235    13002.682    11100.145    375.61518   -447.86026   -183.32286   -2870.8014 
27737000    255.09558    -4722.163   -4230.1898    -4722.163            0    10715.902    19.733544    19.812679    20.366552    7962.7998    10339.209    10590.617    11217.879    601.91394    1076.9296   -229.43241     -2985.76 
27738000    252.98315   -4714.2638   -4226.3645   -4714.2638            0    9078.4586    19.832469    19.796547    20.484834    8042.6409    9329.5573    8690.3543    9215.4643     340.2015    244.78202   -1693.4398   -3161.5188 
27739000    247.46836   -4705.8079   -4228.5444   -4705.8079            0    9116.5971    20.090439    19.611473    20.220531    7966.9521    7153.7817    9749.2698     10446.74     769.6335   -91.951399    1203.4303   -3169.2885 
27740000    247.84426   -4689.3237   -4211.3352   -4689.3237            0    12400.688    19.825763    19.603079    20.371297    7917.2232    14048.494    9618.1145    13535.457   -30.361066    14.794382   -504.72459   -2779.4949 
27741000    233.08234   -4712.7738   -4263.2549   -4712.7738            0    10264.586    19.679441    19.780169     20.56262    8004.2601    11280.372    9712.3343    9801.0516   -1375.1616    1743.4679    307.80483   -3065.0295 
27742000    254.07133   -4724.1209    -4234.123   -4724.1209            0    11241.735    19.784721    19.608024    20.505104    7954.7354    9176.5007    14739.198    9809.5054   -54.500375    310.48759   -554.58192   -2929.9507 
27743000     248.1503   -4694.9438   -4216.3651   -4694.9438            0     10709.76    19.864721    19.840018    20.240322    7977.0434    12098.894     8576.676     11453.71   -421.50617    2043.6956   -668.13691   -2970.4238 
27744000     249.0864    -4697.926   -4217.5419    -4697.926            0    10626.915    19.674374    19.755218    20.517525     7974.578    9265.9092    11204.303    11410.533    1293.9313    804.25626    760.62905   -2981.6207 
27745000    259.97868   -4702.2425   -4200.8518   -4702.2425            0    9230.3897    19.737183    19.758458    20.670416    8060.9723    10372.433    9069.9245    8248.8114   -259.91894    384.31341    358.18702   -3115.7178 
27746000    252.85352   -4714.2171   -4226.5679   -4714.2171            0    10567.728    19.855247    19.687447    20.463009    7998.9721    8008.7281    12364.496    11329.959   -1358.1772    76.770192     1542.045   -2993.7705 
27747000    252.31372   -4719.3536   -4232.7454   -4719.3536            0    11045.157    19.983663      19.6376    20.254536    7948.5115    8641.0441    10929.052    13565.376     24.65833   -611.25171   -2145.7769    -2952.381 
27748000    251.43713   -4671.3536    -4186.436   -4671.3536            0    12028.836    19.722091    19.532261    20.409979    7862.2716    12330.972    10581.812    13173.724   -725.51635   -1553.4447    839.52577   -2807.1715 
27749000    254.23923   -4731.2326   -4240.9109   -4731.2326            0    12085.157    19.728134    19.588073    20.536493    7936.0428    11095.537    14472.084     10687.85    343.42841   -1093.4351   -474.15947   -2842.1864 
27750000    263.46522   -4682.2381   -4174.1233   -4682.2381            0    11662.665    19.640636    19.848451    20.304508    7915.4322    12176.512    9984.6368    12826.847    237.08508    307.08549    92.027103   -2827.8031 
Loop time of 479.551 on 64 procs for 250000 steps with 972 atoms

Performance: 90.084 ns/day, 0.266 hours/ns, 521.321 timesteps/s
99.0% CPU use with 64 MPI tasks x 1 OpenMP threads

MPI task timing breakdown:
Section |  min time  |  avg time  |  max time  |%varavg| %total
---------------------------------------------------------------
Pair    | 21.251     | 29.46      | 38.748     |  79.8 |  6.14
Bond    | 0.2616     | 0.28125    | 0.30274    |   1.2 |  0.06
Kspace  | 194.55     | 209.1      | 223.15     |  47.6 | 43.60
Neigh   | 3.0749     | 3.6411     | 4.2585     |  17.4 |  0.76
Comm    | 97.535     | 108.54     | 118.53     |  50.7 | 22.63
Output  | 0.89073    | 0.89204    | 0.89327    |   0.1 |  0.19
Modify  | 119.07     | 121.3      | 123.43     |  10.4 | 25.30
Other   |            | 6.329      |            |       |  1.32

Nlocal:        15.1875 ave          20 max          10 min
Histogram: 1 3 5 6 6 12 11 13 4 3
Nghost:        2323.52 ave        2359 max        2296 min
Histogram: 5 7 5 12 6 15 8 2 1 3
Neighs:        4949.14 ave        6527 max        3231 min
Histogram: 5 1 3 12 9 9 10 4 6 5

Total # of neighbors = 316745
Ave neighs/atom = 325.86934
Ave special neighs/atom = 2.0000000
Neighbor list builds = 7207
Dangerous builds = 0

unfix		3
unfix		2
unfix		1

write_data	data.final.${pid}
write_data	data.final.0
System init for write_data ...
PPPM initialization ...
  extracting TIP4P info from pair style
  using 12-bit tables for long-range coulomb (../kspace.cpp:340)
  G vector (1/distance) = 0.37260376
  grid = 24 24 24
  stencil order = 5
  estimated absolute RMS force accuracy = 0.00345629
  estimated relative force accuracy = 1.0408515e-05
  using double precision FFTW3
  3d grid and FFT values/proc = 2197 216
Last active /omp style is kspace_style pppm/tip4p/omp
WARNING: Not all mixed pair coeffs generated from mixing. Use write_data with 'pair ij' option to store all pair coeffs. (../write_data.cpp:312)

write_restart   restart.lmp.${pid}
write_restart   restart.lmp.0
System init for write_restart ...
PPPM initialization ...
  extracting TIP4P info from pair style
  using 12-bit tables for long-range coulomb (../kspace.cpp:340)
  G vector (1/distance) = 0.37260376
  grid = 24 24 24
  stencil order = 5
  estimated absolute RMS force accuracy = 0.00345629
  estimated relative force accuracy = 1.0408515e-05
  using double precision FFTW3
  3d grid and FFT values/proc = 2197 216
Last active /omp style is kspace_style pppm/tip4p/omp
Total wall time: 0:08:02
