#include		in.partitions
include		in.temp
variable        temperature equal 229.50
variable	tempDamp equal 100.0
include		in.pressure
variable        pressure equal 2645.0
variable        pressureDamp equal 1000.0 # This is 1 ps
include		in.seed
variable        seed equal 745823

units		real
atom_style	full
read_restart	restart.lmp.${pid}
read_restart	restart.lmp.1
Reading restart file ...
  restart file = 30 Jul 2021, LAMMPS = 30 Jul 2021
  restoring atom style full from restart
  orthogonal box = (0.32088158 1.4694874 0.39147477) to (17.886691 22.159690 21.821721)
  2 by 4 by 4 MPI processor grid
  restoring pair style lj/cut/tip4p/long/omp from restart
  restoring bond style harmonic/omp from restart
  restoring angle style harmonic/omp from restart
  864 atoms
  576 bonds
  288 angles
Finding 1-2 1-3 1-4 neighbors ...
  special bond factors lj:    0        0        0       
  special bond factors coul:  0        0        0       
     2 = max # of 1-2 neighbors
     1 = max # of 1-3 neighbors
     1 = max # of 1-4 neighbors
     2 = max # of special neighbors
  special bonds CPU = 0.002 seconds
  read_restart CPU = 0.007 seconds
include 	in.setup
variable	out_freq equal 1000
variable	out_freq2 equal 10000
variable	out_freq3 equal 1000

timestep	2.0

neigh_modify    delay 7 every 1

include		in.tip4p
# This is TIP4P/Ice

# create groups ###
group ox type 2
288 atoms in group ox
group hy type 1
576 atoms in group hy

# set charges - beside manually ###
set group ox charge -1.1794
Setting atom values ...
  288 settings made for charge
set group hy charge 0.5897
Setting atom values ...
  576 settings made for charge

# ### TIP3P Potential Parameters ###
pair_style lj/cut/tip4p/long/omp 2 1 1 1 0.1577 8.5
pair_coeff 1 1*2 0.000 0.000
pair_coeff 2 2 0.21084 3.1668
bond_style  harmonic
bond_coeff  1 450 0.9572
angle_style harmonic
angle_coeff 1 55 104.52
kspace_style pppm/tip4p/omp 1.0e-5
pair_modify tail yes

thermo          ${out_freq}
thermo          1000
thermo_style    custom step temp pe etotal epair emol press lx ly lz vol pxx pyy pzz pxy pxz pyz enthalpy

restart 	${out_freq3} restart.lmp.${pid} restart2.lmp.${pid}
restart 	1000 restart.lmp.${pid} restart2.lmp.${pid}
restart 	1000 restart.lmp.1 restart2.lmp.${pid}
restart 	1000 restart.lmp.1 restart2.lmp.1


include         in.dump
dump            myDump all atom ${out_freq2} dump.water.${pid}
dump            myDump all atom 10000 dump.water.${pid}
dump            myDump all atom 10000 dump.water.1
dump            myDump2 all dcd ${out_freq2} dump.dcd
dump            myDump2 all dcd 10000 dump.dcd
dump_modify     myDump append yes
dump_modify     myDump2 append yes


variable natoms 	equal  "count(all)"                        # NUMBER ATOMS
variable H      	equal  "enthalpy/v_natoms"                 # ENTHALPY-per-atom
variable Vol      	equal  "vol/v_natoms"                 # volume-per-atom
fix AVG all 		ave/time ${out_freq} 1 ${out_freq} v_Vol v_H file vol_enthalpy.dat
fix AVG all 		ave/time 1000 1 ${out_freq} v_Vol v_H file vol_enthalpy.dat
fix AVG all 		ave/time 1000 1 1000 v_Vol v_H file vol_enthalpy.dat


timer           timeout 23:50:00 every 1000
New timer settings: style=normal  mode=nosync  timeout=23:50:00

fix 		1 all shake 1e-6 200 0 b 1 a 1
       0 = # of size 2 clusters
       0 = # of size 3 clusters
       0 = # of size 4 clusters
     288 = # of frozen angles
  find clusters CPU = 0.000 seconds
fix             2 all nph iso ${pressure} ${pressure} ${pressureDamp}
fix             2 all nph iso 2645 ${pressure} ${pressureDamp}
fix             2 all nph iso 2645 2645 ${pressureDamp}
fix             2 all nph iso 2645 2645 1000
fix             3 all temp/csvr ${temperature} ${temperature} ${tempDamp} ${seed}
fix             3 all temp/csvr 229.5 ${temperature} ${tempDamp} ${seed}
fix             3 all temp/csvr 229.5 229.5 ${tempDamp} ${seed}
fix             3 all temp/csvr 229.5 229.5 100 ${seed}
fix             3 all temp/csvr 229.5 229.5 100 745823

run             250000
PPPM initialization ...
  extracting TIP4P info from pair style
  using 12-bit tables for long-range coulomb (../kspace.cpp:340)
  G vector (1/distance) = 0.3730012
  grid = 24 24 25
  stencil order = 5
  estimated absolute RMS force accuracy = 0.003214585
  estimated relative force accuracy = 9.6806272e-06
  using double precision FFTW3
  3d grid and FFT values/proc = 3822 576
Last active /omp style is kspace_style pppm/tip4p/omp
Neighbor list info ...
  update every 1 steps, delay 7 steps, check yes
  max neighbors/atom: 2000, page size: 100000
  master list distance cutoff = 10.8154
  ghost atom cutoff = 10.8154
  binsize = 5.4077, bins = 4 4 4
  1 neighbor lists, perpetual/occasional/extra = 1 0 0
  (1) pair lj/cut/tip4p/long/omp, perpetual
      attributes: half, newton on, omp
      pair build: half/bin/newton/omp
      stencil: half/bin/3d
      bin: standard
Per MPI rank memory allocation (min/avg/max) = 10.20 | 10.20 | 10.21 Mbytes
Step Temp PotEng TotEng E_pair E_mol Press Lx Ly Lz Volume Pxx Pyy Pzz Pxy Pxz Pyz Enthalpy 
 8250000    242.10398   -3978.2935   -3563.3355   -3978.2935            0    1958.0827    17.565809    20.690203    21.430246    7788.6121    3615.1849    2066.9048    192.15848     177.8062    516.68249   -15.310119    -3340.919 
 8251000    230.58676     -3993.19   -3597.9722     -3993.19            0    2356.0933    17.619678    20.753653    21.495965    7860.4871     2685.122    2995.0053    1388.1526    867.62233    106.08887    659.34693   -3327.8764 
 8252000    229.87794   -3993.3174   -3599.3145   -3993.3174            0    3540.8439    17.602826    20.733804    21.475407    7837.9556    3399.6821    3206.0769    4016.7726   -7.3607169   -1012.5661    216.42778   -3194.5658 
 8253000    228.15535   -3993.6433   -3602.5928   -3993.6433            0    3677.7674     17.62783    20.763255    21.505911    7871.4031    1690.6567     5478.727    3863.9185   -204.13158    189.05961   -3.1799792   -3180.3986 
 8254000    208.28972   -3995.9685   -3638.9671   -3995.9685            0     1523.525    17.646175    20.784863    21.528292    7896.0032    2611.4547    128.57218    1830.5481   -835.36181   -256.35761    432.30228   -3463.5254 
 8255000    229.42602   -3973.3638   -3580.1355   -3973.3638            0    2958.1684    17.571791    20.697249    21.437544    7796.5718    3353.7758    4052.0282    1468.7011    557.84586   -279.25277    779.38052   -3243.7769 
 8256000    237.25241   -3979.5389   -3572.8964   -3979.5389            0    3697.3067    17.548005    20.669232    21.408525    7764.9533     4164.698    1795.0011    5132.2209    428.90885    794.49145    1116.0521   -3154.1991 
 8257000    226.03679   -3986.4094   -3598.9901   -3986.4094            0    3292.3611    17.563788    20.687822     21.42778    7785.9236    4268.8257    1950.4958    3657.7619   -247.96852    425.57846     584.8807   -3225.1435 
 8258000    237.89667   -4000.3256   -3592.5788   -4000.3256            0    3195.3848    17.534859    20.653747    21.392487    7747.5145    2938.4583    3712.8642    2934.8319   -767.61751    906.92519    114.01723   -3231.5337 
 8259000     233.7139   -3981.5243   -3580.9466   -3981.5243            0    3326.2721    17.568493    20.693364    21.433521    7792.1829    3298.9071    3595.6035    3084.3058    1043.2585   -1438.3683   -596.73272   -3202.9458 
 8260000    237.28713   -4006.9829   -3600.2809   -4006.9829            0    1140.0351    17.571847    20.697314    21.437612    7796.6458    207.03331     1330.799    1882.2729   -1196.4294    1200.0902   -1552.1182    -3470.652 
 8261000    238.38408   -4015.3047   -3606.7226   -4015.3047            0    3047.3017    17.557169    20.680026    21.419705    7777.1247    2500.7339    3179.5091    3461.6622    -992.3162    1264.6699    -883.6351   -3261.0934 
 8262000    241.93629   -3974.6268   -3559.9562   -3974.6268            0    2981.8539    17.547174    20.668253    21.407511    7763.8495    1944.9858    2734.1036    4266.4725    446.52263    4.2644447   -1116.4663   -3222.3275 
 8263000    225.58391   -3959.0013   -3572.3582   -3959.0013            0    2038.8404    17.572497     20.69808    21.438405    7797.5111    2892.3093    955.06839    2269.1436    -80.81699    2.8316575   -337.44945   -3340.5039 
 8264000    224.77864    -3999.639   -3614.3761    -3999.639            0    2268.1481    17.498267    20.610647    21.347845    7699.1132    2271.2484    656.79471    3876.4011    1472.8266   -197.41604    -49.35271   -3359.7001 
 8265000    222.41242   -3987.8143    -3606.607   -3987.8143            0    3055.6228    17.523233    20.640054    21.378303    7732.1145    2899.4358    2579.0127    3688.4198   -539.08863   -142.25889    452.03439   -3262.0398 
 8266000    230.82699   -3995.1147   -3599.4852   -3995.1147            0    3432.9557    17.542722    20.663009     21.40208    7757.9419     2733.698    5318.9256    2246.2436   -803.00988    1864.0041    268.59551    -3211.075 
 8267000    230.71972   -4004.7648   -3609.3191   -4004.7648            0    1666.3852      17.6481    20.787131    21.530641    7898.5882    3340.0863    777.40311    881.66636   -1217.4682   -842.70547   -426.71617   -3417.3635 
 8268000    212.87397   -3981.3672   -3616.5085   -3981.3672            0   -511.45618    17.587343    20.715567    21.456518    7817.2916   -1309.3575    -270.5011    45.490015   -515.54576    608.49351    501.41444   -3674.8181 
 8269000    229.25994   -3980.4982   -3587.5545   -3980.4982            0    1970.4045    17.627234    20.762553    21.505184    7870.6041    596.82455    2835.7666    2478.6224   -1793.8913    188.68483   -92.481665   -3361.3823 
 8270000    220.80442   -3999.4441   -3620.9929   -3999.4441            0    203.99652    17.619015    20.752872    21.495157    7859.6005    963.79077   -715.90278    364.10157    674.37765     967.8528    440.26559     -3597.61 
 8271000    231.14217   -4030.5287   -3634.3589   -4030.5287            0    2224.7317     17.55019    20.671806    21.411191    7767.8545     1660.465    3855.2126    1158.5173   -675.39318    72.991155    119.85544   -3382.3275 
 8272000     241.2628   -4016.5229   -3603.0067   -4016.5229            0    1654.6687    17.561344    20.684943    21.424798    7782.6734    996.67169    1633.0237    2334.3107   -46.504547    1049.4549   -353.15708    -3415.198 
 8273000      219.313   -4023.6714   -3647.7764   -4023.6714            0    3936.2713    17.512316    20.627195    21.364985    7717.6724    3994.6487    4584.6768    3229.4885    382.53834    529.66143    675.42463    -3204.732 
 8274000    253.79336   -4000.9393   -3565.9462   -4000.9393            0    2036.7239    17.585491    20.713385    21.454257    7814.8213    1923.7551    2198.7997    1987.6169   -895.54984   -290.91197    972.57419   -3333.8184 
 8275000    227.73437   -3992.4158   -3602.0869   -3992.4158            0    3041.8395     17.50692    20.620839    21.358401    7710.5401    2734.4058     4529.189    1861.9238    257.51429    1119.2672   -268.78772    -3260.031 
 8276000    224.47484    -3961.404   -3576.6618    -3961.404            0    5277.0031    17.491704    20.602917    21.339838    7690.4538    6968.1909    4172.9369    4689.8813   -299.24808   -272.57949   -675.12877    -2984.807 
 8277000    242.77361   -4009.0033   -3592.8976   -4009.0033            0    2606.2658    17.543941    20.664445    21.403567    7759.5592    2475.4494    2491.5032    2851.8449    86.167247   -330.87849    808.05594    -3297.959 
 8278000    228.35209   -4011.6242   -3620.2365   -4011.6242            0    3211.9364    17.493043    20.604494    21.341472    7692.2201    2888.5239    4237.0616    2510.2237    645.00736   -1719.7296    136.14266   -3259.9114 
 8279000    215.19333    -4014.432    -3645.598    -4014.432            0    1835.7457    17.584341    20.712031    21.452855    7813.2886    -131.7233    2191.3455    3447.6149    439.46148    49.069441   -223.97582   -3436.4169 
 8280000      243.164   -3996.1773   -3579.4025   -3996.1773            0    2468.2837    17.539799    20.659566    21.398514    7754.0645    1310.9752    3681.6989    2412.1771    122.64045   -138.77818    -568.8943   -3300.2765 
 8281000    236.19525   -3971.6066    -3566.776   -3971.6066            0    1730.9682    17.596034    20.725804    21.467121    7828.8862    375.61339    2583.3966    2233.8946   -163.48005   -1302.5533     527.7685   -3369.1405 
 8282000    234.82078    -3985.763   -3583.2882    -3985.763            0    392.97602    17.583738    20.711321    21.452119    7812.4849   -473.96237    1434.9005    217.98993   -1588.9487   -842.33902   -325.36423   -3538.5136 
 8283000    233.56796   -3998.7936   -3598.4662   -3998.7936            0    2679.9336    17.556514    20.679255    21.418907    7776.2548    1946.9746    3077.3734    3015.4529     816.4967   -1366.1444   -780.37335   -3294.5384 
 8284000    224.55367   -4009.5153    -3624.638   -4009.5153            0    2862.3699    17.530303    20.648381    21.386929    7741.4775    2770.7314    2728.8947    3087.4837    210.92507    200.04957   -1150.8342   -3301.4721 
 8285000    215.71105   -3985.1492   -3615.4278   -3985.1492            0    4347.4057    17.457031    20.562077    21.297537    7644.8107    4092.7317    4978.5417    3970.9437    920.94391   -1416.0846   -411.53743   -3130.7281 
 8286000    224.03795   -3988.8793   -3604.8859   -3988.8793            0    1614.5895    17.586205    20.714226    21.455129    7815.7734    2724.2999    442.28645    1677.1822    686.00807    357.32897   -791.46242   -3420.8468 
 8287000     230.0941     -3978.94   -3584.5666     -3978.94            0    3189.5313    17.513294    20.628347    21.366178     7718.966    1989.1912    5048.8396    2530.5631   -108.15154   -686.96237    36.156334   -3225.5108 
 8288000    232.58706   -3991.8123   -3593.1661   -3991.8123            0    2876.8978    17.557799    20.680768    21.420473    7777.9615    1983.3993    3240.7861    3406.5079   -1226.8172   -502.49431   -277.27505   -3266.8292 
 8289000    234.90638   -3990.9105    -3588.289   -3990.9105            0    2555.3308    17.528962    20.646802    21.385293    7739.7017    3177.6393    3193.7213    1294.6318    824.70918   -1821.6782    136.20372   -3299.8545 
 8290000    221.53774   -3983.2903   -3603.5822   -3983.2903            0    1799.9137     17.57081    20.696093    21.436347    7795.2656    2573.9462    1677.6999    1148.0951   -48.468697    -688.9921    -249.2136   -3398.9573 
 8291000     229.5449   -3985.3568   -3591.9247   -3985.3568            0    4373.6269    17.522144    20.638771    21.376975    7730.6734    4999.6562    4977.4799    3143.7447    220.10231   -79.191513    378.74082   -3098.8248 
 8292000    226.71981   -3986.5993   -3598.0093   -3986.5993            0    1691.1559    17.594663    20.724189    21.465448    7827.0568    1332.7417    1737.8022    2002.9237   -329.07323    889.88683    493.44995   -3404.9646 
 8293000    248.64002   -3997.9075    -3571.747   -3997.9075            0    2092.3947    17.535236    20.654191    21.392947    7748.0143    1978.7035    1600.9379    2697.5426     277.4514   -486.63155   -569.98275    -3335.313 
 8294000    231.81458   -3978.6834   -3581.3612   -3978.6834            0    4831.2077    17.438955    20.540785    21.275484    7621.0877    4740.1217    4960.0515    4793.4497   -765.54689    327.04128   -138.90139    -3044.393 
 8295000    225.32908   -4015.9197   -3629.7134   -4015.9197            0    1408.1678    17.571548    20.696963    21.437248    7796.2486    1526.3014    1298.2564    1399.9456     741.1647     695.5386   -101.20709   -3469.6043 
 8296000    237.50931   -3982.4428     -3575.36   -3982.4428            0    2612.1917     17.54479    20.665445    21.404602    7760.6855    3862.3242    2005.3813    1968.8697    29.360706    620.94971    9.4367363   -3279.7079 
 8297000    222.94421   -3994.3964   -3612.2776   -3994.3964            0    2043.7974    17.546932    20.667968    21.407216     7763.529    512.90327    3634.8127    1983.6761   -511.87265    1228.4395    171.94127   -3380.8725 
 8298000    241.54644   -4004.9246   -3590.9223   -4004.9246            0    2209.6729    17.543332    20.663728    21.402824    7758.7516    2418.4235    1839.6509    2370.9444    85.188867   -901.93024   -553.93821   -3340.8902 
 8299000    239.50572   -4008.4579   -3597.9533   -4008.4579            0    1095.2504    17.567512    20.692208    21.432323    7790.8771    2357.2989    740.38861    188.06372    12.734929    1166.8182    395.37114   -3473.5088 
 8300000    216.53602   -3987.0029   -3615.8676   -3987.0029            0    1806.8531    17.586938     20.71509    21.456024    7816.7518    2437.8179    353.47189    2629.2695     804.5764    219.32372    401.59845   -3409.8876 
 8301000     235.4875   -3987.5673   -3583.9498   -3987.5673            0    1752.2068    17.547999    20.669225    21.408517    7764.9447    2567.3121    1609.0739    1080.2346   -1896.7387    -690.0655   -576.27729   -3385.5233 
 8302000    226.20581    -4003.735   -3616.0259    -4003.735            0    2843.5265    17.535241    20.654198    21.392954    7748.0218     1577.222    3615.1517    3338.2059   -128.47412   -231.01992    -1051.052   -3294.7161 
 8303000    229.35214   -4002.6012   -3609.4995   -4002.6012            0     1142.074    17.556502    20.679241    21.418892    7776.2389    284.43472    156.81362    2984.9737   -220.45612    292.96048    751.28962   -3479.9786 
 8304000    237.18746   -3988.6274   -3582.0962   -3988.6274            0     2896.092    17.534963     20.65387    21.392613    7747.6523    1107.6037    3099.3879    4481.2844    1079.3774    611.74412   -557.48518   -3254.8623 
 8305000    230.00977   -4005.2826   -3611.0537   -4005.2826            0    2179.5679    17.510493    20.625048    21.362761    7715.2627    2446.0412    486.06231    3606.6002   -531.19127   -975.15956     145.9485   -3365.8105 
 8306000    237.48527   -3977.8242   -3570.7825   -3977.8242            0     4341.228    17.481645    20.591069    21.327567    7677.1938    3239.3528    4642.6399    5141.6912    769.68378    1142.6225   -610.33159   -3084.7213 
 8307000    245.03663   -4030.8261   -3610.8417   -4030.8261            0    2477.5843    17.511262    20.625953    21.363699    7716.2789    2289.9491    2192.6121    2950.1918   -1467.0754   -742.50364   -632.46986   -3332.0292 
 8308000    230.28035   -3993.3306    -3598.638   -3993.3306            0    343.94951    17.588993     20.71751     21.45853    7819.4914   -147.35828    683.72112    495.48569   -581.23361    432.48385     204.1357   -3559.4142 
 8309000    233.67381   -4005.6115   -3605.1026   -4005.6115            0    2471.6452     17.56121    20.684786    21.424635    7782.4962    2391.7581    3276.9341    1746.2435    903.14452    360.41066    1063.5582   -3324.5715 
 8310000    227.31768   -4021.0952   -3631.4804   -4021.0952            0    3306.2053    17.573365    20.699103    21.439464    7798.6671    2732.5136    4245.5044    2940.5978   -410.59794    434.32147   -19.126913   -3255.4473 
 8311000    233.73435    -4022.202   -3621.5893    -4022.202            0     2713.812    17.594666    20.724193    21.465452    7827.0607    2576.4269    2150.5898    3414.4192    601.55131    929.33442   -145.98506   -3311.8086 
 8312000    230.82262   -3988.7792   -3593.1571   -3988.7792            0    2260.1773    17.645491    20.784058    21.527458    7895.0859    2573.4337    1334.6915    2872.4068   -614.88622   -461.95899    948.86257   -3332.9164 
 8313000    237.54945    -3978.681   -3571.5294    -3978.681            0    3444.7261     17.59253    20.721676    21.462845    7824.2093    2562.9595    5316.9612    2454.2576    -294.4071    652.63072   -487.86232   -3178.4583 
 8314000    238.80487   -4017.6114    -3608.308   -4017.6114            0    1782.5253    17.606321    20.737921    21.479671    7842.6251    2632.2646   -262.64767    2977.9589   -125.90903   -779.31554    52.903721   -3404.4287 
 8315000     223.9395   -4013.5701   -3629.7455   -4013.5701            0    2550.3215    17.618022    20.751702    21.493945    7858.2713    2690.8304    1736.8221    3223.3118   -39.843518   -54.162807   -95.203693   -3337.4663 
 8316000    226.48505   -3959.8845   -3571.6969   -3959.8845            0    3024.9032    17.607559    20.739379    21.481181    7844.2792    1779.3235    3620.5944    3674.7917    271.41621   -35.901462      169.365   -3225.6456 
 8317000     220.7089   -4012.2085    -3633.921   -4012.2085            0    1759.0251    17.608956    20.741024    21.482885    7846.1464    2886.3901    1350.9072    1039.7779    423.74657    1105.3151    -11.19471   -3432.6393 
 8318000    231.78821   -3987.5616   -3590.2846   -3987.5616            0    1184.1123    17.661902    20.803388    21.547479    7917.1342    2411.8436    1310.2222   -169.72893    217.70972   -1495.1625    21.689281   -3453.5631 
 8319000     214.6113   -3995.3851   -3627.5486   -3995.3851            0    1834.3017    17.541673    20.661774    21.400801    7756.5511    2068.8056    2395.4609    1038.6385    235.30895   -554.78028   -198.00581     -3420.05 
 8320000     227.6765   -3982.3776   -3592.1479   -3982.3776            0    1893.0235    17.530551    20.648673    21.387231    7741.8055    2284.1191    2784.6176    610.33363    -881.7272    987.33883   -44.507875   -3378.4136 
 8321000     225.7077   -3993.1781   -3606.3229   -3993.1781            0    1554.1947     17.52053     20.63687    21.375006    7728.5373    396.32593    2657.7374    1608.5207    1581.8815    629.36855   -242.75936   -3431.1453 
 8322000    237.45118   -3944.5917   -3537.6085   -3944.5917            0    2806.1742    17.616724    20.750174    21.492362    7856.5344    4419.8772    1205.5926    2793.0527    285.04372   -744.16305    283.05018   -3216.0785 
 8323000    218.69135   -3993.7048   -3618.8753   -3993.7048            0    3674.3411    17.570192    20.695365    21.435593    7794.4431    2554.4691    5252.0899    3216.4643   -732.57021    1927.9014   -443.00913   -3201.1984 
 8324000     230.6435   -3994.2505   -3598.9354   -3994.2505            0    3400.2021     17.50485    20.618402    21.355877    7707.8064     3708.664    2710.5285    3781.4138    -757.1611    870.48405   -437.88535   -3216.7172 
 8325000    227.10278   -3978.0724    -3588.826   -3978.0724            0     1844.587    17.568627    20.693522    21.433684    7792.3611    3991.4923    1289.1481    253.12052   -1874.9107    670.72557    231.81823   -3379.2005 
 8326000    223.86648   -3970.6388   -3586.9393   -3970.6388            0    2594.7211    17.555404    20.677947    21.417552    7774.7792    1666.6435    2308.5937    3808.9259   -1431.1383   -476.58795    1506.0402   -3292.7312 
 8327000    223.11292   -3972.7957   -3590.3878   -3972.7957            0    1358.1925    17.540126    20.659952    21.398913     7754.499    883.55378    1342.7756    1848.2482    41.786205    844.49614     189.7309   -3436.7879 
 8328000     244.3932   -3960.9507   -3542.0691   -3960.9507            0     2349.604    17.434158    20.535136    21.269632    7614.8007    2852.9134    1669.5824    2526.3162   -377.26738   -711.15289   -543.48677    -3281.136 
 8329000    225.08957   -3977.2846   -3591.4888   -3977.2846            0     3318.525    17.413091    20.510322    21.243931    7587.2295      3320.75     3062.079    3572.7459   -1117.8482    943.36894   -518.07956   -3224.2875 
 8330000    232.97515   -3941.2222   -3541.9108   -3941.2222            0    3217.9373    17.451752    20.555858    21.291096    7637.8772    3727.6111    3345.6408    2580.5601    154.57901   -777.00728    -390.4443   -3183.4628 
 8331000     223.2844   -3947.9469   -3565.2451   -3947.9469            0    2691.5382    17.467972    20.574963    21.310885    7659.1933     2653.845    4840.4464    580.32309    33.635305   -1148.4394    1203.4639   -3264.5963 
 8332000    225.33087   -3995.4122   -3609.2028   -3995.4122            0    2411.1805    17.444681     20.54753     21.28247    7628.5968    3801.0205    847.38877    2585.1322   -270.66746   -1387.4827    224.83186   -3340.9463 
 8333000    216.40872    -3982.632   -3611.7149    -3982.632            0    1940.5996      17.4585    20.563807     21.29933    7646.7412    2900.3171    1956.6468    964.83489    56.599192    600.72632   -1212.5741   -3395.2994 
 8334000    232.26484   -3964.1252   -3566.0312   -3964.1252            0    650.15296    17.523534    20.640408     21.37867    7732.5131   -377.89376    955.53776    1372.8149    1035.7262    258.85054   -62.172836   -3492.7129 
 8335000    236.93532   -4014.4426   -3608.3436   -4014.4426            0    2380.5177    17.505536    20.619209    21.356713    7708.7117    3007.9086    2210.3878    1923.2569    1108.5377    1763.4896    569.65493   -3340.7171 
 8336000    226.70013   -3988.7266   -3600.1703   -3988.7266            0     2582.634    17.442691    20.545186    21.280043    7625.9873    3098.1063    1404.8962    3244.8994   -88.556846   -580.32861    1182.3509    -3312.937 
 8337000    225.91639   -4004.4896   -3617.2767   -4004.4896            0    2410.9358     17.49749    20.609732    21.346897    7698.0872    3252.3131    1788.8487    2191.6457    1353.8167    -1283.497     1275.699    -3346.604 
 8338000    237.33134   -3983.4748   -3576.6971   -3983.4748            0    4505.2248    17.445592    20.548603    21.283582     7629.793    5133.9217     3922.705    4459.0477   -1203.0483   -1328.0171    1988.5085   -3075.3885 
 8339000    214.36788   -4003.1708   -3635.7516   -4003.1708            0    2767.6856    17.465522    20.572078    21.307896     7655.971    1934.9019    3712.9009    2655.2539    443.47121     290.3906    4.1495055   -3326.7271 
 8340000    235.03387   -4006.7097   -3603.8696   -4006.7097            0    1424.3152    17.448403    20.551914    21.287011    7633.4817    1713.3582    2058.9761    500.61128   -1643.3958   -589.82905   -140.47047   -3445.3056 
 8341000     224.7857   -4019.3271   -3634.0521   -4019.3271            0    3808.7487    17.417851    20.515928    21.249738     7593.453    2348.9183     4556.824    4520.5037     -294.706   -545.88467    632.98185   -3212.2609 
 8342000    237.39265   -4004.7359    -3597.853   -4004.7359            0    2099.9804    17.487937     20.59848    21.335242    7685.4861    1454.8239    2267.1145    2578.0028    314.76217   -286.33579    814.52738   -3362.4769 
 8343000    227.62553   -4009.1978   -3619.0555   -4009.1978            0    1993.4705    17.480813    20.590089    21.326551    7676.0978    2301.1703    2338.6443    1340.5969    191.96726    601.68521    1442.1639   -3395.8904 
 8344000    224.06167   -3998.0155   -3613.9815   -3998.0155            0    1216.0414    17.575983    20.702186    21.442658    7802.1524    774.75023    1686.1814    1187.1926    66.393206     1848.267    93.406973   -3475.6125 
 8345000    228.11772   -4019.5532   -3628.5673   -4019.5532            0    3820.9739     17.44555    20.548554    21.283531    7629.7378    3918.1374    2476.4958    5068.2886    122.92541    255.90582    980.40467   -3203.4002 
 8346000    237.56328   -4002.2082   -3595.0328   -4002.2082            0    3456.8785    17.486791     20.59713    21.333844    7683.9746    3421.7968    3944.5111    3004.3276    799.39818    458.96717    486.31708    -3207.645 
 8347000    234.95464    -4011.169   -3608.4648    -4011.169            0    2706.2148    17.505311    20.618945    21.356439    7708.4155    2495.0698    3204.9978    2418.5768    1248.6388    185.03874     531.2752   -3304.2339 
 8348000    216.87194   -3996.4528   -3624.7417   -3996.4528            0    2797.6348    17.494626    20.606359    21.343403    7694.3084    2774.5349    3041.2332    2577.1361    29.149013     193.0456    424.26491   -3310.8091 
 8349000    228.07768   -3994.5927   -3603.6754   -3994.5927            0    2955.8016    17.491848    20.603086    21.340013    7690.6428    2399.3277     4015.157    2452.9202    857.46022   -839.47288   -583.05626   -3272.1523 
 8350000    220.59224   -3985.3947   -3607.3071   -3985.3947            0    3155.5253    17.496068    20.608057    21.345162    7696.2114    2286.6222    4179.0545    3000.8993    998.17366    -885.2365   -257.42502   -3253.1267 
 8351000    219.25812   -4009.5855   -3633.7846   -4009.5855            0    3655.1758    17.478957    20.587902    21.324287    7673.6524    3529.7872     4749.901     2685.839    415.98235      166.196   -64.358754   -3224.7253 
 8352000     229.2255   -3990.9816   -3598.0969   -3990.9816            0    3199.0792    17.492496    20.603849    21.340804    7691.4979    3428.7167    2689.5733    3478.9477   -101.36911    885.39671   -285.44335   -3239.2479 
 8353000     224.4307   -3971.8913   -3587.2247   -3971.8913            0     1909.921    17.559217    20.682438    21.422204    7779.8464    1246.8386    2206.9361    2275.9884   -126.37452    636.19386   -863.03229    -3370.523 
 8354000    233.49371   -4003.3253    -3603.125   -4003.3253            0    3080.3805    17.487678    20.598175    21.334926    7685.1446    4031.2139    3338.6734    1871.2542    556.63306   -13.524218   -13.038754   -3257.8761 
 8355000     235.9172   -3981.8084   -3577.4544   -3981.8084            0    1522.6136    17.550732    20.672444    21.411852    7768.5739     1508.216    2358.8019    700.82289   -76.245994    952.76029   -153.61609   -3404.9473 
 8356000    220.77745   -4000.2332   -3621.8282   -4000.2332            0    2514.3377    17.541675    20.661776    21.400803    7756.5533    1276.7985    2393.0073    3873.2072    785.80305   -951.33619   -665.40934   -3337.4029 
 8357000    223.98253   -4006.6364    -3622.738   -4006.6364            0    1538.3281    17.522344    20.639007    21.377219    7730.9384    1464.9437    1141.7854    2008.2551   -441.54583    721.55826    182.41099   -3449.2948 
 8358000    227.25647   -3993.1637   -3603.6538   -3993.1637            0    1868.8772    17.582413     20.70976    21.450503    7810.7193    2351.0387    2166.1277    1089.4652   -1140.5512   -109.28907   -18.529486   -3390.7676 
 8359000    231.92588   -3999.0892   -3601.5762   -3999.0892            0    1341.8665    17.548974    20.670373    21.409707    7766.2394    1192.9159    1052.1819    1780.5018   -203.28614    459.45884   -175.54945   -3449.5928 
 8360000    221.84544   -3984.7958   -3604.5603   -3984.7958            0    3173.0503    17.515683    20.631161    21.369093    7722.1253    4412.1467    3153.5948    1953.4095     1484.246   -173.88427    271.80596   -3247.2137 
 8361000    239.56468   -4000.7269   -3590.1212   -4000.7269            0     1361.145    17.526847    20.644311    21.382712    7736.8997    1153.2104    2354.7624    575.46225   -1033.9958   -850.07995   -110.54387   -3436.5367 
 8362000    223.62564   -3985.4878   -3602.2011   -3985.4878            0    2706.8868    17.519089    20.635172    21.373247    7726.6301    3514.6744    2189.9127    2416.0733   -795.42223   -52.034465    238.54348   -3297.1756 
 8363000    221.67521   -3997.8305   -3617.8868   -3997.8305            0     3166.638    17.473333    20.581278    21.317425    7666.2472    3881.1114     3233.082    2385.7205    1316.3375    -127.9479   -536.86209   -3263.8429 
 8364000    238.92211   -3991.2509   -3581.7466   -3991.2509            0     3752.293    17.496557    20.608633    21.345759    7696.8566    2656.5281    3769.0197    4831.3313   -230.78518    493.33686   -895.79213   -3160.5489 
 8365000    231.11574   -3978.4577   -3582.3332   -3978.4577            0    2877.3936    17.509411    20.623774    21.361441    7713.8331    3455.1315    1832.6722    3344.3772   -475.66297    45.728703   -766.80532   -3258.6312 
 8366000    219.56889   -3982.4858   -3606.1522   -3982.4858            0     2059.399    17.471019    20.578552    21.314602     7663.202    1437.5309    2299.1523    2441.5138    323.24782    381.88625   -1304.8767   -3375.9939 
 8367000    215.42255   -4003.6203   -3634.3934   -4003.6203            0    1591.2243    17.611526    20.744052    21.486021    7849.5827    1708.2151    2968.3365    97.121341   -549.07664    944.38733    312.03626    -3452.233 
 8368000    219.48121   -4003.9792   -3627.7959   -4003.9792            0    3635.6209    17.529913    20.647922    21.386453    7740.9613    5664.6078    2937.0437    2305.2112   -446.13975   -340.39983    770.06088   -3217.3562 
 8369000    231.85486   -3992.1336   -3594.7423   -3992.1336            0    3049.4627    17.501425    20.614367    21.351698    7703.2828     2252.691    3974.1206    2921.5766    953.34888   -214.15192    203.36335    -3252.152 
 8370000    222.84867   -4016.5174   -3634.5624   -4016.5174            0    2543.6129    17.539166     20.65882    21.397741    7753.2249    2782.6218    1791.1915    3057.0254   -541.49391    132.78517    971.28018   -3346.9489 
 8371000    232.69653   -4035.2082   -3636.3743   -4035.2082            0    2140.1467    17.500757     20.61358    21.350883    7702.4005    1989.2737    2648.0328    1783.1335   -480.26832   -170.97662   -305.47128   -3395.9682 
 8372000    239.43091   -4008.6665   -3598.2901   -4008.6665            0     3485.042    17.434265    20.535261    21.269763    7614.9408    2518.7384    3831.2469    4105.1406   -608.01773   -562.48291    231.37713    -3211.255 
 8373000    225.62412   -4045.0231   -3658.3111   -4045.0231            0    1599.0705     17.51959    20.635762    21.373858     7727.293    2647.3094    2388.6629   -238.76082   -176.90006    1678.2449    1035.3512   -3478.1044 
 8374000    230.07338   -3997.1275   -3602.7896   -3997.1275            0     3169.136    17.499484    20.612081     21.34933    7700.7197    3442.5275     2883.686    3181.1946    445.28031   -678.20607   -491.78681   -3246.8732 
 8375000    242.37453   -3991.6668   -3576.2451   -3991.6668            0    2144.8428     17.50373    20.617082     21.35451    7706.3268    1399.3956    2710.9586     2324.174    60.251272   -1330.5341    249.17015   -3335.1887 
 8376000    224.09335   -3995.2373    -3611.149   -3995.2373            0    2622.6267    17.485355    20.595439    21.332093    7682.0828    2665.3441    1325.6527    3876.8833   -25.769536    494.72416   -1482.4141   -3317.3223 
 8377000    234.29615   -3997.1526   -3595.5771   -3997.1526            0    3590.8496    17.512399    20.627293    21.365086    7717.7823    3314.8777    3031.8601    4425.8108   -916.06939    840.43308     801.6466   -3191.4056 
 8378000    239.96921   -4022.5245   -3611.2255   -4022.5245            0    3274.4783    17.449182    20.552831    21.287961    7634.5032    2850.9774    2138.6621    4833.7955   -836.67751   -479.88078    570.55183   -3246.6405 
 8379000    230.20247   -3977.8706   -3583.3114   -3977.8706            0    1831.2903    17.475863    20.584259    21.320513    7669.5789    1264.7044    2119.6778    2109.4889   -279.21124   -156.05524    587.91524   -3378.4762 
 8380000    223.30316   -4016.9687   -3634.2347   -4016.9687            0    3458.1263    17.527243    20.644777    21.383195    7737.4237    4116.5633    2267.2757    3990.5399    1017.1028   -924.11463   -987.83947   -3244.0114 
 8381000    232.10564   -4042.1599   -3644.3388   -4042.1599            0    1551.4279    17.507302     20.62129    21.358868     7711.046    2335.1971    912.09057    1406.9962   -803.99622    492.68389    1512.4569   -3469.8688 
 8382000    229.78294   -3993.4613   -3599.6212   -3993.4613            0    1613.3114    17.599263    20.729607    21.471059    7833.1962    2899.4332    731.03794    1209.4632   -488.48828   -25.854013    1345.6683   -3415.3179 
 8383000    228.97928    -4020.129   -3627.6664    -4020.129            0    1719.1922    17.534742     20.65361    21.392345    7747.3604     1449.983    2761.0673    946.52648    1173.6854   -438.94203   -437.09734   -3433.4195 
 8384000    217.61347    -4014.707   -3641.7249    -4014.707            0    963.93123      17.6221    20.756506    21.498921    7863.7297     1611.923    72.116005    1207.7547   -338.59956    39.163542    29.255786    -3531.177 
 8385000     218.6959   -4025.7696   -3650.9323   -4025.7696            0    1543.2533     17.54876    20.670121    21.409446    7765.9556    2263.2679    1256.9934    1109.4986    76.593626   -248.56853    1127.7808   -3476.1458 
 8386000     225.4526   -4010.9239   -3624.5059   -4010.9239            0    2030.4206    17.541256    20.661282    21.400291    7755.9967    2471.1344    933.45449    2686.6729   -816.03383    465.60001     1315.936   -3394.8384 
 8387000    236.81629   -4046.3166   -3640.4216   -4046.3166            0     3165.545    17.470345    20.577759     21.31378    7662.3155    3531.6088    5032.9641    932.06215    317.40915   -123.47508    -82.91695   -3286.6814 
 8388000    232.11967   -4012.3232   -3614.4781   -4012.3232            0    3211.8104    17.478827    20.587749    21.324128    7673.4808    866.14628    3748.6326    5020.6524   -7.0933316    288.25749    1412.0766   -3255.0449 
 8389000    218.78588   -4040.3008   -3665.3093   -4040.3008            0    2348.9743    17.531975    20.650351    21.388969    7743.6929    2213.6043    2073.4807     2759.838    160.94302   -308.54832    257.48269   -3400.0307 
 8390000    227.35601   -4012.2358   -3622.5554   -4012.2358            0    1296.2327    17.574926    20.700941    21.441368    7800.7451    1339.7626    668.44582    1880.4898   -927.03658   -239.82847    722.41039   -3475.0884 
 8391000    231.28566   -4031.4749   -3635.0592   -4031.4749            0    4571.2983    17.393225    20.486922    21.219694    7561.2911    5192.0396    3279.4182    5242.4373   -102.19918    -67.68468   -751.38699   -3130.9653 
 8392000    227.44935    -4027.358   -3637.5176    -4027.358            0    1619.8106     17.52967    20.647635    21.386156    7740.6385    933.49284    2075.9145    1850.0246    508.26141   -893.49756   -203.54744   -3454.6584 
 8393000     227.4116     -4013.34   -3623.5643     -4013.34            0    3237.2311    17.472617    20.580435    21.316552    7665.3052    1855.5198    3062.4999    4793.6738    106.07828   -138.41719   -78.128372   -3261.6722 
 8394000     234.9239   -4022.3078   -3619.6563   -4022.3078            0    2687.2762    17.489904    20.600797    21.337643      7688.08    3305.9656    2815.9373    1939.9256   -797.10913   -587.34401   -791.79328   -3318.3514 
 8395000    228.99982    -3990.067   -3597.5692    -3990.067            0    3042.3075    17.491375     20.60253    21.339437    7690.0199    1643.0806    4359.3067    3124.5353    110.64048    208.68227   -983.95355   -3256.3712 
 8396000     228.7043   -4021.5032   -3629.5118   -4021.5032            0    1651.4769    17.453103     20.55745    21.292745    7639.6513    1556.2082    2270.9327    1127.2899   -557.89723   -934.45029   -496.68244   -3445.5101 
 8397000    224.14287   -4035.3531   -3651.1799   -4035.3531            0     2686.341    17.492437     20.60378    21.340732      7691.42    3275.3334    3691.8708    1091.8188    408.73143   -417.61682   -796.81496   -3349.8491 
 8398000     222.3612   -4019.0521   -3637.9326   -4019.0521            0    3133.6482    17.438259    20.539965    21.274635     7620.175     3150.779     3220.763    3029.4024   -651.02327   -1333.8322    748.65577   -3289.6827 
 8399000    247.91031   -4002.3389   -3577.4291   -4002.3389            0    3032.2501    17.434929    20.536043    21.270572      7615.81    4958.1844    1827.5282    2311.0377   -950.31686   -413.46775    729.78057   -3240.6408 
 8400000    223.39797   -4006.2711   -3623.3746   -4006.2711            0    3399.1048    17.421815    20.520597    21.254574    7598.6386    4624.3746    2811.7436    2761.1962   -1553.7167   -135.84039    456.03259   -3246.6914 
 8401000    224.81799   -3981.8238   -3596.4935   -3981.8238            0    1084.3488    17.529654    20.647616    21.386136    7740.6171    1383.9766     1120.976    748.09398   -1816.9983   -954.60836   -1460.5372   -3474.0825 
 8402000    209.03728   -4014.4157    -3656.133   -4014.4157            0    2205.9944    17.490127    20.601059    21.337914    7688.3735    3351.9919    1490.1683     1775.823   -172.48429   -573.15567   -419.02985   -3408.7814 
 8403000    235.10604   -4017.0792   -3614.1154   -4017.0792            0    1115.5901    17.546558    20.667528     21.40676     7763.033     324.2023    577.53949    2445.0284   -246.09177   -610.78975   -247.14602   -3487.8129 
 8404000    222.79182   -4015.7314   -3633.8738   -4015.7314            0    3547.6036    17.482016    20.591505    21.328018    7677.6816    3222.5494    3468.0508    3952.2105     1127.747    -1187.144    383.32644   -3236.6447 
 8405000    230.98741   -4019.0967   -3623.1922   -4019.0967            0    1006.4003    17.555135     20.67763    21.417224    7774.4222    2343.9604    874.22474   -198.98406    378.86553   -708.21964    919.40672   -3509.0845 
 8406000    210.82619   -4024.4985   -3663.1496   -4024.4985            0    3388.2666    17.438778    20.540576    21.275268    7620.8551     3769.622    3309.6619    3085.5159    175.26012   -251.69331   -166.28422   -3286.5697 
 8407000     224.7865   -4021.2721   -3635.9958   -4021.2721            0    2409.9547    17.493738    20.605313     21.34232    7693.1369    2782.6571    2545.5003    1901.7066    1852.5998   -354.77525    2116.9008   -3365.6073 
 8408000    225.52819   -4031.3715   -3644.8238   -4031.3715            0    2628.3387    17.488603    20.599264    21.336055    7686.3638    2430.6853    2659.9827    2794.3483   -255.49735   -413.97217    1029.5902    -3350.193 
 8409000    227.10257   -4023.4051   -3634.1591   -4023.4051            0    1764.8244    17.581441    20.708615    21.449317    7809.4235    2738.1797    1891.8094    664.48397   -271.68715   -338.74638    120.03336   -3433.1589 
 8410000    238.07732    -4004.447   -3596.3906    -4004.447            0    1868.1341    17.557919     20.68091    21.420621    7778.1219    3229.0094    747.94899    1627.4438    410.36899   -662.15171     419.9454   -3384.4771 
 8411000    216.10315   -4032.3758   -3661.9824   -4032.3758            0    3620.3213    17.480462    20.589676    21.326123    7675.6353     3826.555    3737.8051    3296.6037    744.63265   -562.38388    1480.0518    -3256.719 
 8412000    220.15167   -4014.6741   -3637.3417   -4014.6741            0    2441.4711    17.574192    20.700077    21.440473     7799.768    1220.5415    3201.0596    2902.8123    -289.2388    -1037.255   -494.40896   -3359.6204 
 8413000    243.73948    -4032.971   -3615.2099    -4032.971            0    2268.3464    17.452644    20.556909    21.292185    7639.0485    2620.2438    2719.4913    1465.3041   -283.29708   -448.92062    -16.26838   -3362.4987 
 8414000    223.99671   -4009.1826   -3625.2599   -4009.1826            0    4239.5514    17.387275    20.479914    21.212435    7553.5339    4060.0661    4787.1258    3871.4625    537.75774   -2540.9496   -412.46184   -3158.2286 
 8415000    225.87505   -4003.5826   -3616.4405   -4003.5826            0    2602.1893    17.523946    20.640894    21.379173    7733.0585    2428.1502    2923.5813    2454.8363   -111.81994    -586.3634    1379.4267   -3322.9689 
 8416000    239.78468   -4007.7395   -3596.7568   -4007.7395            0    2604.6423    17.492911    20.604338     21.34131     7692.045    3740.6974    2244.4191    1828.8104    828.65401   -448.93743    1245.2805   -3304.5664 
 8417000    217.70023   -4012.6854   -3639.5547   -4012.6854            0    2073.7329    17.528064    20.645745    21.384198    7738.5121    2584.7173     2283.488    1352.9935    189.00157     149.7009   -32.143197   -3405.5168 
 8418000    249.50834   -4002.3455   -3574.6967   -4002.3455            0    3192.1955     17.44904    20.552665    21.287789    7634.3178    2025.4337    4268.8837    3282.2691   -200.74942   -204.22581    1530.5512   -3219.2818 
 8419000    241.16673   -3994.3078   -3580.9563   -3994.3078            0     3113.498    17.521818    20.638388    21.376578    7730.2425    2580.3558     3046.281     3713.857    39.841778   -631.57434    267.36083   -3229.9478 
 8420000     215.8116   -3983.3436   -3613.4499   -3983.3436            0    2540.3788    17.541371    20.661418    21.400431    7756.1494    2872.9779    2875.3106    1872.8478    1401.0867    237.35855    537.37869   -3326.0938 
 8421000    222.24518   -4008.9551   -3628.0344   -4008.9551            0    3829.5862    17.499689    20.612322     21.34958    7700.9908    3425.0388    4739.9549    3323.7647    814.68296    818.46014   -317.01895   -3197.9296 
 8422000    229.03639   -4017.9491   -3625.3886   -4017.9491            0    3171.4871    17.556485     20.67922    21.418871    7776.2158    3734.0537    2211.5716     3568.836    438.47464    1289.9346    87.130747   -3265.7161 
 8423000    234.52835   -4031.1504   -3629.1768   -4031.1504            0     2293.849    17.482526    20.592106     21.32864    7678.3536    2876.3971    2517.5659    1487.5841    250.51398    1158.2729   -125.94923   -3372.3095 
 8424000    217.07799   -3999.5598   -3627.4956   -3999.5598            0    2957.2824    17.498576    20.611011    21.348222    7699.5209    3103.4705    2701.7875    3066.5892    726.55648    425.89269   -677.34885   -3295.4235 
 8425000    233.91353   -3999.0198   -3598.1001   -3999.0198            0    2411.8511    17.475655    20.584013    21.320258    7669.3044    1591.2295    3029.1073    2615.2164   -189.12529    966.84377     -404.127   -3328.3371 
 8426000    226.49577   -4008.0545   -3619.8485   -4008.0545            0    3394.4753    17.452937    20.557254    21.292542    7639.4329    3886.5799    2594.8336    3702.0124   -612.99704   -978.81486    1230.2773   -3241.6588 
 8427000    234.90467   -3985.2638   -3582.6452   -3985.2638            0    4246.8494    17.427754    20.527592    21.261819    7606.4121    5080.5559    3788.5058    3871.4866   -674.31069   -999.54661    13.000822   -3111.5349 
 8428000    233.73772   -3994.4705   -3593.8521   -3994.4705            0    1762.9476    17.528252    20.645965    21.384426    7738.7603    1536.0303    1323.9418    2428.8706   -374.41843   -308.45664    449.74736   -3394.8825 
 8429000       229.57   -4009.9197   -3616.4446   -4009.9197            0    2095.4721    17.424181    20.523383     21.25746    7601.7345    2584.6424    2030.0299    1671.7439   -1339.2989    896.24519   -1410.0748   -3384.1332 
 8430000    224.87212   -4022.3257   -3636.9026   -4022.3257            0    2194.0818     17.45223    20.556422     21.29168    7638.5052    4168.3266   -206.41615    2620.3351   -389.45868    243.64025    467.88126   -3392.4824 
 8431000    230.46703   -4011.0404   -3616.0278   -4011.0404            0    4813.2876    17.418174    20.516309    21.250132    7593.8759    4934.2681    4575.8005    4929.7942   -681.34254   -853.14737    106.36297   -3082.9615 
 8432000    245.05796   -4014.3447   -3594.3237   -4014.3447            0    1686.8366    17.459418    20.564889     21.30045    7647.9476    1345.2794    1927.0097    1788.2206    -994.7027   -313.68642    106.01622   -3406.1782 
 8433000    214.34402   -4013.5659   -3646.1876   -4013.5659            0    2169.2047    17.507664    20.621715    21.359309    7711.5236    3296.6537    2808.6389     402.3215    481.04651    1333.2756   -1037.0401   -3402.2287 
 8434000    231.60443    -4043.241   -3646.2789    -4043.241            0    1979.0582    17.410113    20.506813    21.240297     7583.337    2856.3593    2833.1914    247.62375     118.5955    47.615949    694.14505   -3427.4046 
 8435000    236.38497    -4027.942   -3622.7862    -4027.942            0    3609.9019    17.453727    20.558185    21.293506    7640.4706    3421.2374    3825.5854    3582.8829    -272.7959    732.14676    727.88647   -3220.5405 
 8436000    229.62894   -4007.6692   -3614.0931   -4007.6692            0    1823.4514     17.53454    20.653372    21.392098    7747.0927    133.32702    4365.6836    971.34338   -1142.7657    507.31543    721.31263   -3408.0733 
 8437000    222.52526   -4029.6151   -3648.2144   -4029.6151            0    710.27855    17.517614    20.633436    21.371448    7724.6794    207.37158    337.34271    1586.1214    439.75476    529.41771    713.44519   -3568.1968 
 8438000    246.44825   -4012.7121   -3590.3082   -4012.7121            0    1597.8663    17.480497    20.589716    21.326165    7675.6806    1276.0799     1042.848     2474.671    314.55249    762.29404    747.54115     -3411.44 
 8439000    219.54375   -4035.7504   -3659.4599   -4035.7504            0    1645.9851    17.498123    20.610477    21.347669    7698.9229    1884.9766    1781.2727     1271.706   -611.89675   -59.207685    -834.1157   -3474.6472 
 8440000     240.0669   -3998.5971   -3587.1306   -3998.5971            0    2590.5936    17.487711    20.598214    21.334967    7685.1884    1721.8953    3651.4766    2398.4088   -192.10737    1902.4816   -362.07184   -3296.7754 
 8441000    233.73646   -4009.3278   -3608.7116   -4009.3278            0    1877.3135    17.496617    20.608704    21.345832    7696.9356    2434.8703    1537.5618    1659.5085   -133.11425   -232.45368   -1066.1209   -3397.9795 
 8442000    242.32083   -4019.3525   -3604.0229   -4019.3525            0    2372.0346    17.524985    20.642117     21.38044    7734.4337     2074.479      2252.99    2788.6348   -602.35373    373.03471   -513.78948   -3336.4603 
 8443000     228.8676    -4008.184   -3615.9127    -4008.184            0    150.43329    17.542762    20.663056    21.402129     7757.995   -324.19086    809.70153   -34.210809   -854.55856   -140.06288    433.48502   -3598.8924 
 8444000     239.6299   -4001.5084   -3590.7909   -4001.5084            0    1954.7356    17.449796    20.553555    21.288711    7635.3102    2236.1562    2821.5146    806.53597   -602.27845   -255.18698    885.42946   -3373.1249 
 8445000     221.3493   -4010.0716   -3630.6865   -4010.0716            0    696.90423    17.540649    20.660568    21.399551    7755.1923    448.34205    416.01353    1226.3571   -1010.8241   -1558.7113    978.74416   -3551.8656 
 8446000     237.6328   -4034.5169   -3627.2224   -4034.5169            0    2722.7216    17.513239    20.628282    21.366111    7718.8931    2713.7361    3225.2279    2229.2007    131.16564   -549.30923   -744.84594   -3320.7198 
 8447000    218.86708   -3996.1476   -3621.0169   -3996.1476            0    2384.3846    17.552187    20.674158    21.413627    7770.5062     2949.583    2077.9719    2125.5988    1171.3457    156.99819    352.07384   -3350.8068 
 8448000    231.98668     -4030.44   -3632.8227     -4030.44            0    480.52118    17.628573    20.764131    21.506818    7872.3988    2492.1036   -1476.6336     426.0935   -81.845041     1403.891    -161.0416   -3577.6537 
 8449000    241.31689   -4033.8956   -3620.2867   -4033.8956            0    3292.5811    17.514131    20.629333    21.367199     7720.072    3860.7943    2015.1931    4001.7559    666.80061   -375.33815   -1578.1211   -3249.5772 
 8450000     228.6575   -4033.1257   -3641.2146   -4033.1257            0    1907.5071    17.573752    20.699558    21.439936    7799.1818    3306.1929    209.86203    2206.4663   -205.78801     858.9531   -144.81679   -3424.2489 
 8451000    220.65131   -4016.6724   -3638.4837   -4016.6724            0     3292.078    17.551053    20.672823    21.412244    7769.0006    3048.5711    3306.8193    3520.8435    -776.4375   -55.559406     226.2937   -3265.4817 
 8452000    233.40148   -4020.8013   -3620.7591   -4020.8013            0    3971.7406    17.525271    20.642454    21.380789    7734.8126    3868.5541    3297.3854    4749.2824    731.18614   -1425.7816    1294.4259   -3172.7297 
 8453000    223.11194   -4046.9291   -3664.5228   -4046.9291            0    2708.1103    17.547046    20.668103    21.407355    7763.6803    2335.7923    1701.1901    4087.3483   -190.08898    959.48683   -1029.4798   -3357.8962 
 8454000    215.43202   -4035.4929   -3666.2498   -4035.4929            0    851.27524    17.604053    20.735249    21.476904    7839.5947     1798.211   -1025.3508    1780.9655   -12.827897   -222.14849    231.66291   -3568.9214 
 8455000    222.64447   -4060.1664   -3678.5614   -4060.1664            0    1519.1059    17.601912    20.732727    21.474291    7836.7337    2058.7161    1783.9392    714.66249    471.78625   -1176.8995   -558.48952   -3504.9417 
 8456000    223.91083   -4049.3479   -3665.5724   -4049.3479            0    4019.2431    17.541256    20.661282    21.400291    7755.9967    4908.8938    4805.9351    2342.9005    782.05185   -62.288442    1399.0768   -3210.9427 
 8457000    240.58734    -4061.671   -3649.3125    -4061.671            0    4170.4588    17.505682    20.619381    21.356891    7708.9049    3763.2298    5080.5126    3667.6341    1134.7364   -419.53772    78.665532   -3180.4425 
 8458000    238.68475   -4040.7382   -3631.6407   -4040.7382            0    3681.6581    17.512216    20.627077    21.364862    7717.5399    2877.3449     2621.953    5545.6765    1121.7662    261.60235    399.62833   -3217.2612 
 8459000    230.96919   -4055.2428   -3659.3695   -4055.2428            0    3049.0375    17.548504     20.66982    21.409134    7765.6162    3623.3669    1548.8762    3974.8693    911.11706    368.46413   -251.57585   -3314.0552 
 8460000    241.94194   -4029.2719   -3614.5917   -4029.2719            0    3824.8973    17.478907    20.587843    21.324226    7673.5865    4859.2636    4148.5825    2466.8457    216.53554   -922.96725    276.38912   -3186.5421 
 8461000    228.55025   -4046.4592   -3654.7319   -4046.4592            0    3741.9052    17.471258    20.578835    21.314894    7663.5175    3552.0436     4957.828    2715.8439    -453.5913    1508.4166    689.61125   -3236.5196 
 8462000    225.80379   -4028.0149   -3640.9949   -4028.0149            0    1123.2107    17.557272    20.680148    21.419831    7777.2619    2338.6778    101.95534    928.99892   -483.77099   -750.55196   -699.50532   -3513.5965 
 8463000    233.64909   -4016.5982   -3616.1317   -4016.5982            0    3822.9475    17.467526    20.574438    21.310341    7658.6069    4743.9267    3657.0773    3067.8384   -247.77172     1096.617     842.2906   -3189.1355 
 8464000    227.56375   -4050.0419   -3660.0054   -4050.0419            0    1421.8945    17.549886    20.671447    21.410819    7767.4498    1794.4901    972.55013    1498.6434    576.34959    1312.0409    727.07305   -3498.9328 
 8465000    208.06318   -4044.4137   -3687.8006   -4044.4137            0    2134.1187    17.474296    20.582412      21.3186    7667.5151    3832.6616    1479.8113    1089.8831    905.36141    923.08323   -48.855217   -3449.1574 
 8466000    234.25381   -4063.2362   -3661.7332   -4063.2362            0    4332.3059    17.455461    20.560227    21.295621    7642.7479    3728.6765    3574.2038    5694.0374   -34.440849    1109.2547   -72.062817   -3178.8473 
 8467000    222.17406    -4052.021   -3671.2223    -4052.021            0    2775.4373    17.536259    20.655397    21.394195    7749.3712    3195.3217    1652.2089    3478.7813    215.81125    80.246109    140.89242   -3357.5517 
 8468000    235.90239   -4044.0898   -3639.7612   -4044.0898            0    2469.3202    17.502584    20.615732    21.353111    7704.8128    3528.5713    1752.5478    2126.8415    748.96812   -126.87701    207.66243   -3362.2916 
 8469000    232.35536   -4019.1318   -3620.8827   -4019.1318            0    2260.4622    17.537869    20.657294     21.39616     7751.506    2355.6649    2635.5362    1790.1854   -298.47636   -453.01095    -232.9915   -3365.3425 
 8470000    218.12626   -4041.2317   -3667.3708   -4041.2317            0    2551.4967    17.576516    20.702815    21.443309    7802.8634    1777.1757    1856.7639    4020.5506    487.11238   -816.04276    482.44865   -3377.0187 
 8471000    237.42662   -4061.6336   -3654.6925   -4061.6336            0    2717.5648    17.483177    20.592873    21.329435    7679.2122    3629.1371    1441.8934    3081.6639    875.09087    345.41225    -752.3265   -3350.3431 
 8472000    216.86645   -4018.4305   -3646.7288   -4018.4305            0    2511.3877    17.543004    20.663342    21.402424    7758.3168    1767.0232     2086.745    3680.3949     127.4423    1136.6513   -660.31286   -3362.5726 
 8473000    224.26095    -4021.484   -3637.1084    -4021.484            0    2621.0288    17.508587    20.622802    21.360435    7712.7431    1807.4963    2141.4552    3914.1349    662.01652    158.10029    745.09852   -3342.2887 
 8474000      232.479   -4037.6336   -3639.1725   -4037.6336            0    2433.4909    17.588823     20.71731    21.458323    7819.2652    2335.7665    1744.7746    3219.9316   -747.35978   -137.18676    -1619.001   -3361.6671 
 8475000    218.48573   -4026.9159   -3652.4389   -4026.9159            0    2622.7352    17.505843    20.619571    21.357088    7709.1177    3735.5166    449.15831    3683.5307    63.888788    75.497964    1818.7789   -3357.5659 
 8476000    221.39365   -4016.6406   -3637.1795   -4016.6406            0    2692.0461    17.553851    20.676118    21.415657    7772.7162    2773.2604    3352.9899    1949.8881   -26.479917     2310.633    939.52055   -3332.0169 
 8477000    232.39806   -3974.3177   -3575.9954   -3974.3177            0    3630.3291    17.543618    20.664065    21.403173    7759.1313    3897.2402    3305.1375    3688.6096    318.75027    742.87563    657.30042    -3165.191 
 8478000     239.4424   -4026.3999   -3616.0038   -4026.3999            0    1832.9136    17.579909    20.706811    21.447448    7807.3827    1751.6321    2185.0498    1562.0589   -37.549068   -180.56644    1798.6171   -3407.3033 
 8479000    231.14416   -4009.4688   -3613.2956   -4009.4688            0    1358.8584    17.565736    20.690116    21.430156    7788.5141    1083.0359    880.82605    2112.7132   -621.52327   -810.35513    1005.9568   -3458.9463 
 8480000    230.37242   -3993.4365   -3598.5861   -3993.4365            0    1696.6751    17.577419    20.703878     21.44441    7804.0657    1708.9109    2210.2414    1170.8731    763.35832    434.47363    1031.8047   -3405.4802 
 8481000    242.80254   -4029.6295   -3613.4742   -4029.6295            0    3120.7698    17.530524    20.648642    21.387199    7741.7705    4590.2587    2165.8988     2606.152    455.68116   -415.99415    571.21546   -3261.1212 
 8482000    225.13218   -4006.3364   -3620.4675   -4006.3364            0    3050.7479    17.504143    20.617568    21.355014    7706.8721    3621.0377    2471.0435    3060.1626    345.86699   -1320.5889   -174.78394   -3277.5731 
 8483000     215.8763    -4009.249   -3639.2445    -4009.249            0    4264.6422    17.556886    20.679692    21.419359    7776.7481    3920.5676    5193.5677    3679.7913    978.08452   -278.30995   -568.31105   -3155.5663 
 8484000    235.54948   -4017.1916   -3613.4678   -4017.1916            0    3514.4636    17.585715    20.713649    21.454531    7815.1202    3828.5512    3349.9585     3364.881   -733.31227   -406.79643    -473.4354    -3212.905 
 8485000    227.59135   -4035.5961   -3645.5123   -4035.5961            0    1235.2447    17.544436    20.665028    21.404171    7760.2161      1732.64    706.99576    1266.0985   -116.05047    85.166735   -611.61603   -3505.7137 
 8486000    230.11599   -4030.6394   -3636.2284   -4030.6394            0    2988.0678     17.56829    20.693125    21.433273    7791.9122     3304.148    3283.3295    2376.7261    317.92274   -440.76253    897.55398   -3296.6732 
 8487000    224.89632   -4014.4691   -3629.0045   -4014.4691            0    3043.6282    17.578251    20.704858    21.445425    7805.1736    3527.0414    1489.8744    4113.9687   -732.33087    1522.8317   -365.68726   -3282.5469 
 8488000    237.19811   -4027.6305   -3621.0811   -4027.6305            0    2886.7484    17.555441     20.67799    21.417596    7774.8279    1810.7041    5076.2537    1773.2874     107.2372   -443.83587     14.85183   -3293.7588 
 8489000    233.42996   -4032.2083   -3632.1173   -4032.2083            0    3068.1627    17.567958    20.692734    21.432868    7791.4709    3149.1613     2485.397    3569.9296    245.90758    214.42131   -73.483358   -3283.4801 
 8490000    228.44925   -4032.4089   -3640.8547   -4032.4089            0    3655.0556    17.558354    20.681422    21.421151    7778.6999    3581.2784    2607.5967    4776.2918    -178.2305   -466.66478    1309.6907   -3226.2093 
 8491000    223.69029   -4042.2842   -3658.8867   -4042.2842            0    1552.1258    17.549719    20.671251    21.410616    7767.2287    794.01612    1825.2708    2037.0904   -18.282736     1203.322    322.42867   -3483.0664 
 8492000    225.13712   -4011.3939   -3625.5166   -4011.3939            0    3895.5489    17.494631    20.606365    21.343409    7694.3153    2812.7257    3734.4632    5139.4577   -89.433735   -130.02171   -6.9806114   -3188.3826 
 8493000    229.21092   -4006.4305   -3613.5709   -4006.4305            0    1876.6416    17.609932    20.742173    21.484076    7847.4509    1473.8834    1764.9452    2391.0962   -152.63477    229.19281    282.20205   -3398.7948 
 8494000    242.38003   -4037.4734   -3622.0423   -4037.4734            0    2944.4421    17.589516    20.718127    21.459169    7820.1896    2750.3009    2803.4626    3279.5628    141.21954   -391.50326    691.20537   -3286.2303 
 8495000    234.88497    -4002.937   -3600.3522    -4002.937            0    1280.9744    17.602017     20.73285    21.474419     7836.874    1991.6757    223.06828    1628.1791    1172.9813   -1002.5033    -138.9492   -3453.9461 
 8496000     229.7449   -4019.5272   -3625.7523   -4019.5272            0    1318.9705    17.631088    20.767093    21.509886    7875.7684     1264.082    2342.0273    350.80203   -455.85812    936.00757    -1577.996   -3474.2554 
 8497000    219.67954   -4002.9742    -3626.451   -4002.9742            0    3951.0262    17.506577    20.620435    21.357982    7710.0868    2406.2964    5879.4883     3567.294    449.28211   -812.07476    938.70861   -3182.1829 
 8498000    239.52024   -4009.6805   -3599.1511   -4009.6805            0    1825.3276    17.564911    20.689144     21.42915    7787.4167    2043.8341    862.94479    2569.2041   -118.07749    35.855713    1538.2207   -3391.8459 
 8499000    228.90781   -4033.7353   -3641.3951   -4033.7353            0    2279.0374    17.542393    20.662622    21.401678    7757.5055    1506.7199    2628.2299    2702.1625    1045.3343    1169.6413    177.18785   -3383.5556 
 8500000    242.56138   -4008.9151   -3593.1732   -4008.9151            0    1327.9516    17.578532    20.705189    21.445768    7805.5485    1562.9896    1151.4865    1269.3788    1360.8447    404.93265    404.68998   -3442.0046 
Loop time of 402.494 on 64 procs for 250000 steps with 864 atoms

Performance: 107.331 ns/day, 0.224 hours/ns, 621.127 timesteps/s
190.1% CPU use with 32 MPI tasks x 2 OpenMP threads

MPI task timing breakdown:
Section |  min time  |  avg time  |  max time  |%varavg| %total
---------------------------------------------------------------
Pair    | 24.509     | 30.962     | 36.049     |  50.3 |  7.69
Bond    | 0.86439    | 1.0475     | 1.6091     |  12.3 |  0.26
Kspace  | 187.33     | 192.39     | 198.6      |  19.7 | 47.80
Neigh   | 2.9004     | 2.9742     | 3.1029     |   3.7 |  0.74
Comm    | 74.656     | 77.885     | 80.412     |  17.5 | 19.35
Output  | 0.73806    | 0.73842    | 0.74042    |   0.0 |  0.18
Modify  | 72.705     | 75.318     | 80.254     |  19.5 | 18.71
Other   |            | 21.18      |            |       |  5.26

Nlocal:        27.0000 ave          34 max          23 min
Histogram: 5 6 4 4 6 3 0 2 0 2
Nghost:        2405.06 ave        2452 max        2357 min
Histogram: 3 0 3 3 7 2 8 2 2 2
Neighs:        7919.66 ave       10948 max        6229 min
Histogram: 6 5 4 5 2 4 2 3 0 1

Total # of neighbors = 253429
Ave neighs/atom = 293.32060
Ave special neighs/atom = 2.0000000
Neighbor list builds = 9798
Dangerous builds = 0

unfix		3
unfix		2
unfix		1

write_data	data.final.${pid}
write_data	data.final.1
System init for write_data ...
PPPM initialization ...
  extracting TIP4P info from pair style
  using 12-bit tables for long-range coulomb (../kspace.cpp:340)
  G vector (1/distance) = 0.37294125
  grid = 24 24 25
  stencil order = 5
  estimated absolute RMS force accuracy = 0.0032215201
  estimated relative force accuracy = 9.7015121e-06
  using double precision FFTW3
  3d grid and FFT values/proc = 3822 576
Last active /omp style is kspace_style pppm/tip4p/omp
WARNING: Not all mixed pair coeffs generated from mixing. Use write_data with 'pair ij' option to store all pair coeffs. (../write_data.cpp:312)

write_restart   restart.lmp.${pid}
write_restart   restart.lmp.1
System init for write_restart ...
PPPM initialization ...
  extracting TIP4P info from pair style
  using 12-bit tables for long-range coulomb (../kspace.cpp:340)
  G vector (1/distance) = 0.37294125
  grid = 24 24 25
  stencil order = 5
  estimated absolute RMS force accuracy = 0.0032215201
  estimated relative force accuracy = 9.7015121e-06
  using double precision FFTW3
  3d grid and FFT values/proc = 3822 576
Last active /omp style is kspace_style pppm/tip4p/omp
Total wall time: 0:06:42
