#include		in.partitions
include		in.temp
variable        temperature equal 125.22
variable	tempDamp equal 100.0
include		in.pressure
variable        pressure equal 1958.3
variable        pressureDamp equal 1000.0 # This is 1 ps
include		in.seed
variable        seed equal 745823

units		real
atom_style	full

read_restart	restart.lmp.${pid}
read_restart	restart.lmp.1
Reading restart file ...
  restart file = 30 Jul 2021, LAMMPS = 30 Jul 2021
  restoring atom style full from restart
  orthogonal box = (-0.0036422461 0.017018898 -0.088938202) to (20.003643 19.982982 20.788936)
  4 by 2 by 4 MPI processor grid
  restoring pair style lj/cut/tip4p/long/omp from restart
  restoring bond style harmonic/omp from restart
  restoring angle style harmonic/omp from restart
  972 atoms
  648 bonds
  324 angles
Finding 1-2 1-3 1-4 neighbors ...
  special bond factors lj:    0        0        0       
  special bond factors coul:  0        0        0       
     2 = max # of 1-2 neighbors
     1 = max # of 1-3 neighbors
     1 = max # of 1-4 neighbors
     2 = max # of special neighbors
  special bonds CPU = 0.002 seconds
  read_restart CPU = 0.008 seconds
include 	in.setup
variable	out_freq equal 1000
variable	out_freq2 equal 10000
variable	out_freq3 equal 1000

timestep	2.0

neigh_modify    delay 7 every 1

include		in.tip4p
# This is TIP4P/Ice

# create groups ###
group ox type 2
324 atoms in group ox
group hy type 1
648 atoms in group hy

# set charges - beside manually ###
set group ox charge -1.1794
Setting atom values ...
  324 settings made for charge
set group hy charge 0.5897
Setting atom values ...
  648 settings made for charge

# ### TIP3P Potential Parameters ###
pair_style lj/cut/tip4p/long/omp 2 1 1 1 0.1577 8.5
pair_coeff 1 1*2 0.000 0.000
pair_coeff 2 2 0.21084 3.1668
bond_style  harmonic
bond_coeff  1 450 0.9572
angle_style harmonic
angle_coeff 1 55 104.52
kspace_style pppm/tip4p/omp 1.0e-5
pair_modify tail yes

thermo          ${out_freq}
thermo          1000
thermo_style    custom step temp pe etotal epair emol press lx ly lz vol pxx pyy pzz pxy pxz pyz enthalpy

restart 	${out_freq3} restart.lmp.${pid} restart2.lmp.${pid}
restart 	1000 restart.lmp.${pid} restart2.lmp.${pid}
restart 	1000 restart.lmp.1 restart2.lmp.${pid}
restart 	1000 restart.lmp.1 restart2.lmp.1


include         in.dump
dump            myDump all atom ${out_freq2} dump.water.${pid}
dump            myDump all atom 10000 dump.water.${pid}
dump            myDump all atom 10000 dump.water.1
dump            myDump2 all dcd ${out_freq2} dump.dcd
dump            myDump2 all dcd 10000 dump.dcd
dump_modify     myDump append yes
dump_modify     myDump2 append yes


variable natoms 	equal  "count(all)"                        # NUMBER ATOMS
variable H      	equal  "enthalpy/v_natoms"                 # ENTHALPY-per-atom
variable Vol      	equal  "vol/v_natoms"                 # volume-per-atom
fix AVG all 		ave/time ${out_freq} 1 ${out_freq} v_Vol v_H file vol_enthalpy.dat
fix AVG all 		ave/time 1000 1 ${out_freq} v_Vol v_H file vol_enthalpy.dat
fix AVG all 		ave/time 1000 1 1000 v_Vol v_H file vol_enthalpy.dat


timer           timeout 02:55:00 every 1000
New timer settings: style=normal  mode=nosync  timeout=02:55:00

fix 		1 all shake 1e-6 200 0 b 1 a 1
       0 = # of size 2 clusters
       0 = # of size 3 clusters
       0 = # of size 4 clusters
     324 = # of frozen angles
  find clusters CPU = 0.000 seconds
fix             2 all nph aniso ${pressure} ${pressure} ${pressureDamp}
fix             2 all nph aniso 1958.3 ${pressure} ${pressureDamp}
fix             2 all nph aniso 1958.3 1958.3 ${pressureDamp}
fix             2 all nph aniso 1958.3 1958.3 1000
fix             3 all temp/csvr ${temperature} ${temperature} ${tempDamp} ${seed}
fix             3 all temp/csvr 125.22 ${temperature} ${tempDamp} ${seed}
fix             3 all temp/csvr 125.22 125.22 ${tempDamp} ${seed}
fix             3 all temp/csvr 125.22 125.22 100 ${seed}
fix             3 all temp/csvr 125.22 125.22 100 745823


run             250000
PPPM initialization ...
  extracting TIP4P info from pair style
  using 12-bit tables for long-range coulomb (../kspace.cpp:340)
  G vector (1/distance) = 0.37233415
  grid = 24 24 25
  stencil order = 5
  estimated absolute RMS force accuracy = 0.0034162648
  estimated relative force accuracy = 1.028798e-05
  using double precision FFTW3
  3d grid and FFT values/proc = 3458 576
Last active /omp style is kspace_style pppm/tip4p/omp
Neighbor list info ...
  update every 1 steps, delay 7 steps, check yes
  max neighbors/atom: 2000, page size: 100000
  master list distance cutoff = 10.8154
  ghost atom cutoff = 10.8154
  binsize = 5.4077, bins = 4 4 4
  1 neighbor lists, perpetual/occasional/extra = 1 0 0
  (1) pair lj/cut/tip4p/long/omp, perpetual
      attributes: half, newton on, omp
      pair build: half/bin/newton/omp
      stencil: half/bin/3d
      bin: standard
Per MPI rank memory allocation (min/avg/max) = 10.19 | 10.20 | 10.21 Mbytes
Step Temp PotEng TotEng E_pair E_mol Press Lx Ly Lz Volume Pxx Pyy Pzz Pxy Pxz Pyz Enthalpy 
25750000     130.3558   -4985.6941    -4734.292   -4985.6941            0    1628.3099    20.007285    19.965963    20.877874    8339.9744    685.72386    2318.6383    1880.5674   -522.60638   -1116.8339    878.00432   -4536.2407 
25751000    127.22369   -5006.1801   -4760.8186   -5006.1801            0    2120.3142    20.073196    20.030843    20.516875    8249.4872    2242.4522    1249.3236    2869.1669   -322.26539    -749.4304   -94.300654   -4505.7229 
25752000    126.42489    -4999.485    -4755.664    -4999.485            0    2616.1581    19.916668    19.887964    20.913227    8283.7708    2645.1227     3207.406    1995.9454    723.61703   -213.31838    326.36942   -4439.6051 
25753000    124.70711    -5004.926   -4764.4179    -5004.926            0    1559.0321     19.98854    19.925223    20.880709    8316.2877    1594.0844    2555.2038    527.80791   -86.377131    679.89462    831.98682   -4575.3314 
25754000    115.04285   -4994.3947   -4772.5249   -4994.3947            0    2012.7657     19.95208    19.835644    20.967854    8298.2871    1949.1434    2774.8257    1314.3281   -489.27571   -40.090043    368.64507   -4528.9359 
25755000    124.67744   -4996.7065   -4756.2555   -4996.7065            0    2220.4319    20.010811    20.011043    20.734525    8302.8753    2623.3088     2031.817    2006.1699   -239.83122   -33.434468    733.36544   -4487.3858 
25756000    133.71982   -5006.2128   -4748.3229   -5006.2128            0    1904.1468     20.03624    19.972408     20.74712    8302.4155    2492.9381    1384.2035    1835.2988   -153.85045    1271.2504   -542.68251   -4517.7646 
25757000    124.89989   -4997.9912   -4757.1113   -4997.9912            0    3069.3913    20.060516    19.893762    20.683059    8254.1775    2838.5058    3604.3186    2765.3494   -186.96868    768.50019    969.50517   -4387.6219 
25758000    121.25565   -4990.9236   -4757.0718   -4990.9236            0    1900.1445    19.992678    20.011812    20.845887    8340.2251    2565.6113    1593.3301    1541.4922    61.084578    374.56237    165.20041   -4525.9504 
25759000    132.09618    -4997.901   -4743.1424    -4997.901            0    1406.2525    19.799394    20.156351    20.883284    8334.1749    2710.1329    341.70359    1166.9209   -45.652353   -219.19294   -529.45434   -4572.2189 
25760000    125.76386   -4993.1064   -4750.5602   -4993.1064            0    676.84719     19.93633     19.96355      20.9224    8327.1135    1511.1707    897.52132   -378.15051    79.261917    104.12145   -588.74189   -4668.3623 
25761000    128.59494   -5007.2481   -4759.2419   -5007.2481            0    2003.7543    19.971958    19.982365    20.811853    8305.7395    657.12198    3117.8973    2236.2437    360.84866    783.49876    255.96929   -4516.5258 
25762000    125.85678   -4976.2683   -4733.5429   -4976.2683            0    1004.4378    19.967958    20.084505    20.818221    8349.0759   -276.08874    1444.5708    1844.8312    146.81744   -301.58421    1143.1121   -4611.2399 
25763000    124.88749   -4976.8492   -4735.9932   -4976.8492            0    1767.7102    20.057854    20.103456    20.616761    8313.3414    1059.0068    1879.5232    2364.6004    151.47179    463.80027    542.39804   -4521.6732 
25764000     126.8554   -5008.6563    -4764.005   -5008.6563            0    1390.2436    19.988561    20.091414    20.809272    8356.9714    2580.1999    355.39353    1235.1374    216.19187   -495.35942   -344.81059    -4594.565 
25765000    123.49567   -4999.5058    -4761.334   -4999.5058            0    2771.8971    19.968824    20.084603    20.778473    8333.5367    4688.1722    1187.2437    2440.2755   -14.223803    629.87823   -622.90295   -4424.4485 
25766000    125.50078   -5000.3421   -4758.3033   -5000.3421            0    2238.4533    19.832205    20.068136    20.953034    8339.2107    1694.6639    2281.0622    2739.6339   -98.736431   -413.86388   -451.55226   -4486.0652 
25767000     125.7224   -5000.1111   -4757.6449   -5000.1111            0    2336.5579    20.018429    19.911878    20.900147     8330.893    1592.7707      3226.27    2190.6331   -327.59893    1115.2988     233.3378   -4473.7589 
25768000    120.65044   -5003.2774   -4770.5928   -5003.2774            0    2344.2348    20.019784    19.945865    20.814641    8311.5339    1138.4406    3394.0684    2500.1954    147.21228   -624.67348     482.9903    -4486.436 
25769000    122.49439   -4997.0252   -4760.7845   -4997.0252            0    935.91784    19.995187    19.985276    20.873411    8341.2101    727.43359     1454.925    625.39494   -240.72622    74.504165    167.06988    -4646.932 
25770000    123.58507   -4999.9478   -4761.6036   -4999.9478            0    1500.4956     19.86618    20.098285    20.931044    8357.2665    1746.2587    2330.6979    424.53004    205.04769    328.59114    863.57747   -4578.7199 
25771000    122.71959   -5006.6086   -4769.9336   -5006.6086            0    1354.8768    20.022551     20.11167    20.653143     8316.751    1929.8958    746.35484    1388.3798    245.82748    607.14712   -758.11779   -4605.5988 
25772000    127.72517   -5001.7935   -4755.4648   -5001.7935            0    2534.6529    20.120472    19.985825    20.663381    8309.2464    2145.8836    2011.0966    3446.9785   -288.87686     116.9652   -210.78293   -4448.3109 
25773000    121.90143   -5003.9564   -4768.8592   -5003.9564            0    2197.8624    19.849409    20.019703    20.879668    8297.1475    3762.0471    811.70266    2019.8376   -412.32312     449.5043   -106.32145    -4502.906 
25774000    134.66292   -4990.7128   -4731.0041   -4990.7128            0    1584.5493    20.064375    19.854763     20.81671    8292.8236    1125.7344    2579.1621    1048.7513    59.497556    1115.9547   -191.28485    -4539.365 
25775000    128.50201   -4993.9179    -4746.091   -4993.9179            0    2171.8529    20.133409    19.929725    20.719143    8313.6244    1535.9742     2973.638    2005.9466    229.49779   -1051.8911   -154.24213   -4482.7632 
25776000    134.22335   -5000.6177   -4741.7567   -5000.6177            0    2499.8289    20.093763    19.775124     20.97683    8335.2829    3620.9754    1968.5914    1909.9199    378.42777   -289.35173   -446.21104   -4437.8736 
25777000      128.571   -4987.6071   -4739.6471   -4987.6071            0    1291.1956    20.207504    19.839384    20.909729     8382.803    535.25956    2690.7559    647.57136    134.14324    374.11633    795.93643   -4581.7925 
25778000    122.08999   -4996.6446   -4761.1838   -4996.6446            0     1537.494    20.085838     20.05278    20.659213    8321.0535    1001.2316    1651.9253    1959.3251    200.78704    998.65484    75.732596   -4574.6027 
25779000     127.5023   -4997.3202   -4751.4213   -4997.3202            0    853.98422    20.169189    20.019167    20.658757    8341.3938    571.02652    191.19881    1799.7273   -23.021965    680.04515     265.9716   -4647.5336 
25780000    130.06036   -4998.0091   -4747.1767   -4998.0091            0    1693.6616    19.957106     19.96939    20.892389    8326.2692    2437.3342      1475.05    1168.6005     -535.982    126.41818   -479.46483   -4541.5152 
25781000     125.6136   -4984.2442   -4741.9878   -4984.2442            0    2583.5488    19.852092    19.935926    21.086402    8345.3618    3607.3671    2377.7367    1765.5424    44.118061       314.07   -512.51424   -4427.5478 
25782000    126.93289   -4998.3937   -4753.5929   -4998.3937            0    1537.1281    20.068712    19.929366    20.844316    8336.8239     781.3353    1704.0764    2125.9725   -23.708007    386.64915    -407.0041   -4566.7027 
25783000    126.35277   -5000.7722   -4757.0902   -5000.7722            0    2001.4717    19.978383    19.964565    20.807083    8299.1075    1759.2013    2085.6044    2159.6094   -61.343775    158.30046    558.26732   -4514.8441 
25784000    125.40577    -5006.134   -4764.2784    -5006.134            0    2641.1706    20.156212    19.945711    20.559207    8265.4175    1859.3443    2539.2275    3524.9401    167.50621    556.93198   -718.72899   -4445.9048 
25785000    126.33337    -5024.262   -4780.6175    -5024.262            0    2912.7731    20.070427    19.926116    20.634858    8252.4091    1434.0668    3639.9428    3664.3096   -264.64719    257.14233    137.22049   -4430.0568 
25786000    124.22771   -5010.0562   -4770.4726   -5010.0562            0    1908.1626    20.133413    19.916678    20.638423    8275.8155    1147.3161    1610.2916      2966.88   -124.24196    744.40652   -808.40226   -4540.1683 
25787000    122.69724   -4995.2543   -4758.6223   -4995.2543            0    1793.7841    20.089815    19.856149     20.88029    8329.2802    1612.1642    1748.3986    2020.7896    60.297986    886.72026   -688.86592   -4540.7242 
25788000    127.93954   -4994.3103   -4747.5681   -4994.3103            0     1168.692    19.937651    19.963378    20.919591    8326.4755    762.09761    1968.5538    775.42458   -136.93115     338.6388    282.53916   -4605.6502 
25789000     118.6446   -4996.0617   -4767.2457   -4996.0617            0    771.81064    20.096649    19.921519    20.811117    8331.8511   -372.54232    1971.0577    716.91652    305.97416   -208.62951   -50.936202   -4673.4618 
25790000    125.16891   -4999.3046   -4757.9059   -4999.3046            0    1915.6201    20.099908     20.05109    20.566784    8288.9294    2016.3308    407.07594    3323.4534   -352.20524   -835.76261   -136.58444   -4526.3351 
25791000    125.75022   -4996.8477   -4754.3278   -4996.8477            0    2874.6274    20.135145     19.85762    20.636835    8251.3508    2454.0491    3518.8174    2651.0157   -72.469823    208.94332   -75.456323   -4408.4024 
25792000    120.69139   -4993.7486   -4760.9851   -4993.7486            0    2966.1065    19.917291    19.982389    20.787674    8273.3915    3035.3425    2093.6445    3769.3326    122.30158    1047.9242   -321.73355   -4403.0979 
25793000    125.09978   -4989.0863   -4747.8208   -4989.0863            0    1316.5395    20.101278    20.043663    20.828299    8391.7894   -71.038101    2506.1981    1514.4585    24.901071   -589.43445    687.98318   -4586.6953 
25794000    123.68104   -5008.9662    -4770.437   -5008.9662            0    2508.7495    20.033564    19.987177    20.789811    8324.5398    1767.4857    1776.9228    3981.8401   -539.87837    -237.4735   -374.01709   -4465.8625 
25795000    121.99735   -5008.0222   -4772.7401   -5008.0222            0    1489.1344    20.115576    19.812106    20.804344    8291.1953    948.68989    2782.5311    736.18227   -180.01344   -247.51337    382.79884   -4592.6761 
25796000    127.83632   -5008.8551    -4762.312   -5008.8551            0    3369.4082    20.019064     19.80734    20.761066    8232.2694    4303.8336    2871.8306    2932.5603   -365.93753   -1113.9614    84.468593   -4357.7835 
25797000    129.39547    -5007.075    -4757.525    -5007.075            0    2532.8163    19.862659    20.010248    20.996027     8345.012    3035.0993    1887.9302    2675.4192    22.231114    391.15275   -180.84783   -4449.2725 
25798000    124.46945   -5011.5903   -4771.5405   -5011.5903            0    2275.3551    20.001706    19.930673    20.821536    8300.4526    2614.6125     2215.423    1996.0298   -44.491018    134.32827    547.84298   -4496.1006 
25799000    126.86039   -4998.4013   -4753.7404   -4998.4013            0    926.20411    20.057637    20.023591    20.852129    8374.7554    1847.8017    683.69643    247.11415   -253.32118    876.09663    130.20592   -4640.6164 
25800000    123.24476   -5009.2851   -4771.5973   -5009.2851            0    1777.7067    20.169212    19.857302     20.78631    8325.0447   -55.452697    3084.0288    2304.5441   -194.12882   -358.14624    14.924922   -4555.7619 
25801000     138.9556   -4994.8671   -4726.8795   -4994.8671            0    927.34224    20.048702    20.049476    20.884645    8394.9164    997.72673    839.01883    945.28116    203.92652   -106.84748    659.23491   -4613.3439 
25802000    121.96967   -5003.8297    -4768.601   -5003.8297            0    2547.7564    19.897148    19.931752     20.98717    8323.1973    4357.7857    1586.9747    1698.5089    23.963324    179.90164    832.78298   -4459.3408 
25803000    121.51172   -5009.1128   -4774.7672   -5009.1128            0    2800.7836    19.878154    20.057687    20.715205    8259.3552     3366.601    2184.2684    2851.4813    29.339401    505.07709   -624.12016    -4437.401 
25804000    129.80523   -4995.5301   -4745.1898   -4995.5301            0    2046.2383    20.087975    20.077383    20.637366    8323.3378     2473.978    452.90001    3211.8369    55.011495   -417.90255    375.73219   -4496.8023 
25805000    127.79297    -4998.949   -4752.4896    -4998.949            0    2982.7104    20.004632    19.939619    20.770674    8285.1051    1932.0217    4065.6267    2950.4829   -26.132784    1364.0241   -730.71612   -4392.0894 
25806000    132.75431   -4991.4766   -4735.4487   -4991.4766            0    2183.3725    19.830716    20.050602    20.846239    8288.8357    4951.4651   -343.17059     1941.823    460.36357    819.45061    143.64232   -4471.5136 
25807000    120.07651   -5005.5942   -4774.0166   -5005.5942            0    713.84009    19.995973     19.98036    20.987531      8385.08     1002.135    999.18871    140.19659    75.183894    624.13016    179.59968   -4686.7226 
25808000    124.09378   -4995.0002   -4755.6749   -4995.0002            0    2266.7528    19.968275    19.829581    20.968039     8302.558    1666.7851    3179.3911    1954.0822    278.22806   -92.904711   -866.68985   -4481.2068 
25809000    126.47229   -5006.6832   -4762.7707   -5006.6832            0     2065.303    20.040646    19.877935    20.939046    8341.4177    408.58738    3305.2589    2482.0628   -25.580956    524.20015    492.58745   -4511.5245 
25810000    128.25768   -5006.8194   -4759.4636   -5006.8194            0    2580.6512    20.003969    20.030595    20.799512     8334.186    2818.7691    1147.6036    3775.5809    271.79777   -425.26114    455.16234    -4445.797 
25811000    132.92348   -5007.2247   -4750.8706   -5007.2247            0    925.49295    20.183474    20.077063    20.537173    8322.1734    1274.7961   -388.29133    1889.9741    -134.5236   -195.08356   -120.94765   -4638.5432 
25812000    136.21331    -4998.563   -4735.8642    -4998.563            0    1889.8071    20.105275    20.051931     20.63429    8318.7053    1517.4771    1613.7467    2538.1973   -191.60767   -654.73628    19.683364   -4506.5932 
25813000    129.48781   -4992.6666   -4742.9385   -4992.6666            0    1276.2957     19.94833    20.166914    20.660758    8311.7455    1655.1651   -282.03735    2455.7593    2.9083359    422.23526    576.06719   -4588.2281 
25814000    120.84483   -4993.6406   -4760.5812   -4993.6406            0    1546.9303    20.058767    19.918853    20.989971    8386.4933    2359.9426    973.58824    1307.2601    57.384337    793.37012   -9.1280683   -4571.3786 
25815000    124.61767   -5002.0624   -4761.7268   -5002.0624            0     2676.821    20.010169    19.912067    20.817086    8294.4391    2137.3775    3790.7328    2102.3527     445.1156    306.91192   -293.27068   -4437.9227 
25816000    124.81708   -4980.4149   -4739.6946   -4980.4149            0    1490.0848    20.059342    20.076922    20.782621    8369.7818    987.11812    1740.8498    1742.2865    355.36098    8.4863079   -714.40037   -4557.8079 
25817000    121.85536   -5000.7373    -4765.729   -5000.7373            0    2588.5793    20.043449     19.98402    20.741554    8308.0024    3536.0486    2251.4655    1978.2236   -418.73735    908.94002    776.16282   -4452.0872 
25818000     121.3877   -4993.1069   -4759.0005   -4993.1069            0    943.57482    20.175119    19.994694    20.805421    8392.8099    866.54419     523.2094    1440.9709    55.192168   -1345.9312    1399.1488   -4643.5064 
25819000    121.96103   -5007.5124   -4772.3003   -5007.5124            0    1186.4547    20.025915     19.92463    20.861931    8324.0972    605.29627    1557.0649     1397.003    316.34219    547.48133    190.27525   -4628.2666 
25820000     123.0635   -4987.8895   -4750.5512   -4987.8895            0    2055.0663    19.944585    19.951967    20.917733    8323.8711    1841.0299    2474.8405    1849.3286   -136.00212   -681.07458   -308.23002   -4501.0762 
25821000    126.82021   -4996.3011   -4751.7177   -4996.3011            0    3216.1469    20.001469    19.871713    20.865251    8293.1745    4760.0333    2406.0975    2482.3101   -109.73784    512.19592   -306.49628   -4362.7329 
25822000    134.27874   -4988.6304   -4729.6625   -4988.6304            0    1809.0373    20.068072    19.830313    20.902278    8318.1902    2128.6222    2571.2149    727.27466   -170.86375    282.75998    538.05868   -4510.2041 
25823000    117.92339   -5000.2745   -4772.8494   -5000.2745            0    2184.3524    20.125207    19.905309    20.732034     8305.221    2409.0674     1344.391    2799.5987   -76.406234    18.196416    81.828058   -4508.2738 
25824000    122.31067   -5008.5458   -4772.6594   -5008.5458            0    1642.8271    19.956147    20.098138    20.806472    8345.0887    1939.1651    1133.6683     1855.648    249.32623     1009.908   -325.69678   -4572.7199 
25825000    125.27872    -5005.529   -4763.9185    -5005.529            0    1634.2411    20.164394    19.845927     20.81518    8329.8413    1125.3484    2046.1256    1731.2493    175.92796    92.261968     529.2461   -4565.3873 
25826000    126.47139    -5005.332   -4761.4213    -5005.332            0    1376.4803    20.090898    19.927629    20.844487    8345.3816    146.68815    2372.3132    1610.4396   -306.89071   -1029.2898   -1397.1891   -4593.8915 
25827000    111.58367   -4993.9942   -4778.7958   -4993.9942            0    2386.7759    20.092978     19.69765    20.913476    8277.2283    1224.8037    3366.2894    2569.2345    154.87676   -295.31319   -726.44992   -4490.6764 
25828000    126.31108   -4981.3255   -4737.7239   -4981.3255            0    2243.3253    20.127954     19.81284    20.830783     8307.148    2438.6758    1924.1589    2367.1412   -221.33446   -577.49631   -527.84446   -4465.9423 
25829000    123.95931    -5006.881   -4767.8151    -5006.881            0    1867.6661    20.044909     19.84735    20.875024    8304.8843    3401.8769     781.9006    1419.2209   -327.85429    5.8033992   -511.58561   -4541.6067 
25830000    128.89288   -4992.9315   -4744.3508   -4992.9315            0    3627.3698    20.086521    19.791564    20.800503    8269.1078    3511.5194    3493.4608    3877.1291   -209.89336   -744.58747   -578.66283   -4306.9028 
25831000    123.38057   -4990.2295   -4752.2797   -4990.2295            0    2174.0859    19.941547    19.976819    20.860593    8310.2068    3848.8226    827.38076    1846.0543   -202.49762    277.98868   -112.65362   -4488.7895 
25832000    123.28982   -5006.4127   -4768.6379   -5006.4127            0    1573.1463     20.03263    19.944354    20.759798    8294.3251    1326.6108    1327.9245    2064.9038    859.83258    198.82804   -714.80532   -4578.3435 
25833000    126.49497   -4997.2735   -4753.3174   -4997.2735            0    1842.8042    20.006115    19.988535     20.78937    8313.5224    1617.2993    1430.4726    2480.6408   -187.64478    298.63051   -16.571813    -4529.888 
25834000    128.78057   -4984.9503   -4736.5862   -4984.9503            0    1599.1912    19.948076    19.867039    20.966211    8309.1022    1431.4363    2366.6196    999.51768   -558.11279   -178.86938    159.26733   -4542.7966 
25835000    130.63441   -5019.0266   -4767.0872   -5019.0266            0     2096.321    20.021537    19.926764    20.788649     8293.932    1547.1434    2890.7392    1851.0804    66.478504    571.08442   -92.854168   -4513.5194 
25836000    119.66155   -4995.1191   -4764.3417   -4995.1191            0    1702.6546    19.892914    20.108608    20.722328    8289.3209    3000.8008    1176.2499    930.91313   -389.58122    336.97104    301.54352   -4558.5057 
25837000    122.61458   -4999.6289   -4763.1564   -4999.6289            0    1314.4543    20.000603    19.896898    20.981626    8349.6369    508.73004    2647.3103    787.32247    90.170091    -262.1439   -1178.5916   -4603.0941 
25838000    125.62948   -4998.7845   -4756.4975   -4998.7845            0    3261.5237    19.964788    19.889667    20.872069     8288.152     3925.528    2578.8252     3280.218    58.994536   -235.10848   -780.48707   -4362.2635 
25839000    123.57189   -5020.3524   -4782.0336   -5020.3524            0    2189.5842    20.054032    19.928886      20.7327    8285.9171    864.64695     3397.183    2306.9226    97.775818   -269.20263    -1023.972   -4517.4407 
25840000    120.41634   -4992.9868   -4760.7537   -4992.9868            0    2292.9706    19.967462    20.026372    20.725864    8287.7714    2028.9801    2363.7211    2486.2106   -442.52816    318.32221   -362.54438   -4483.6055 
25841000    122.10416   -5001.9505   -4766.4623   -5001.9505            0     2613.157    20.036959    19.900187    20.823719    8303.2337    2740.0055    2052.4875     3046.978    263.90986   -105.43111    -474.1435   -4450.0243 
25842000    125.15041   -5002.5548   -4761.1917   -5002.5548            0     1077.279    20.036095    19.939246     20.87228    8338.5727    1416.7417    1724.8068    90.288658   -147.37266    1240.4785   -400.57785   -4630.1843 
25843000    127.18364    -4989.889   -4744.6046    -4989.889            0    3260.6779     19.96691    19.984914     20.73157    8272.6629    3488.6645    2810.1019    3483.2672   -197.03201   -950.01168   -367.76024   -4351.2094 
25844000    125.22787    -4998.206   -4756.6936    -4998.206            0    2435.3269    20.128779    19.953019    20.666369    8300.2315    1566.6938    2178.4471      3560.84    -462.9568    749.71941   -161.19982   -4461.8964 
25845000    116.52634   -5003.3444   -4778.6135   -5003.3444            0    2174.7151    20.131032    19.853127    20.825121    8323.0495    1632.3027    2424.9378    2466.9048   -160.05665   -170.89684    340.30807   -4514.6398 
25846000    128.57422   -4997.4218   -4749.4556   -4997.4218            0    2238.9632    19.983793    20.075553     20.71933    8312.2986     2886.504    1062.0335     2768.352   -210.64206   -429.49064   -233.41646   -4478.0343 
25847000    133.67461   -5013.6298    -4755.827   -5013.6298            0    1552.6321    19.913497    20.116473    20.795296    8330.3736    2609.1744    208.84407    1839.8777   -267.71475    969.29919    126.39362   -4567.1978 
25848000     124.4597   -4998.2758   -4758.2448   -4998.2758            0    2532.6962    20.072973     19.85834     20.85449    8312.9319    1599.2008    3495.9468    2502.9409   -560.53358   -952.88993   -465.02501   -4451.1919 
25849000     121.0926   -4991.4218   -4757.8846   -4991.4218            0    2445.4644    20.080844    19.866018    20.866326    8324.1288    3328.4273    1881.6653    2126.3005   -253.00827    755.86749   -580.15761   -4461.0079 
25850000    129.27131    -5010.379   -4761.0684    -5010.379            0    2624.0051    19.893814    20.000519    20.836118    8290.4122    3734.2133    1609.0781    2528.7239     60.80657    347.82577    80.054105   -4443.8074 
25851000    121.17232    -5013.742   -4780.0509    -5013.742            0    2018.4111    20.061109    20.010016    20.788091    8344.8201    1117.9582    2507.0131    2430.2621   -266.72589    297.84502   -253.57481    -4534.409 
25852000    119.97002    -4987.642   -4756.2698    -4987.642            0    1234.9787    20.059038    20.039194    20.810921    8365.3025    3017.3276   -806.83402    1494.4424     354.5527    543.85132    651.56658   -4605.6031 
25853000    131.99959   -5003.3961   -4748.8237   -5003.3961            0    1532.6116    20.007931    19.948162    20.826017    8312.1103    1717.0536    1899.1694    981.61189   -319.66119   -206.66807    -113.1505    -4563.035 
25854000    129.47609   -4999.3147   -4749.6092   -4999.3147            0    107.62287    20.221096     19.95627    20.779759     8385.415   -1746.9275     983.9402    1085.8559   -240.00258   -112.06057    242.64166   -4736.4477 
25855000    128.22745   -4981.0842   -4733.7868   -4981.0842            0    1247.0394    20.230368    19.927374    20.706817     8347.707    224.00154    1913.0456     1604.071   -191.16713   -24.567118   -592.89457   -4581.9688 
25856000    125.26695    -5013.834   -4772.2461    -5013.834            0    1436.4956    20.076732    19.972673    20.825285    8350.6477     1255.075    1570.0455    1484.3663    204.93708   -466.03042    56.223059   -4597.3016 
25857000    128.63916   -5003.7011   -4755.6096   -5003.7011            0    1192.2539     19.94461    20.010513    20.910249    8345.3196    1395.4604    1232.7563    948.54489   -98.651851   -173.74906    670.06159   -4610.5029 
25858000    121.93242   -4983.9315   -4748.7746   -4983.9315            0     2013.178    20.042273    20.086207    20.823158    8382.8462    2851.0091    911.62469    2276.9001   -110.55392    517.42574   -671.54868   -4502.6531 
25859000    131.08132   -5009.1253    -4756.324   -5009.1253            0    1460.5792    20.047226    19.916906     20.86785    8332.0882     1410.002     1060.072    1911.6634   -791.65397   -74.539528    60.999102   -4578.8418 
25860000    128.90644    -4995.054   -4746.4471    -4995.054            0    1831.0789    20.098604    19.930656    20.806218    8334.5207    2079.6692     1607.826    1805.7416   -221.34279    295.06502    328.37858   -4523.8787 
25861000    131.45624   -4998.7622   -4745.2378   -4998.7622            0    2358.1621    19.906815    20.042619    20.869827    8326.7417     2717.596    1895.9638    2460.9265   -636.58913    529.26338    950.68026   -4458.8697 
25862000    124.50846   -4991.2015   -4751.0764   -4991.2015            0    1794.3803    20.058983    19.887845    20.748708    8277.2809    1365.1064    3265.6696    752.36487    34.350168    380.56712   -500.55344   -4534.4666 
25863000    126.11933   -5014.9499   -4771.7182   -5014.9499            0    2044.7679    20.103894    19.953509    20.641297    8280.1168    1730.4707    1266.1203    3137.7126    -381.3997    1135.7636    376.28136   -4524.7982 
25864000    127.26231   -4994.2688   -4748.8327   -4994.2688            0    2160.3113    20.042407    19.912153    20.794061    8298.6489    2125.4426    2030.7691    2324.7223   -182.47529    968.63798   -242.28975   -4487.3761 
25865000    126.92258   -5001.4012   -4756.6204   -5001.4012            0    1102.3014    19.995529    19.956973    20.903291    8341.4632    1919.5445    904.10591    483.25382   -266.18762   -494.22407    1882.3166   -4622.5235 
25866000    120.05334   -5004.1139   -4772.5809   -5004.1139            0    2184.4189     20.04722    19.789372    20.991664    8327.8526     1532.395    3271.7474    1749.1142    295.01645   -1001.8193   -101.02844   -4507.2763 
25867000    119.79512   -5003.6648   -4772.6298   -5003.6648            0    2047.2247    19.944867    19.972049    20.818285    8292.7525    3035.9366    1046.5808    2059.1567   -144.95504    821.85806    -473.9746   -4525.0358 
25868000    122.66729   -5000.8223   -4764.2482   -5000.8223            0    2530.1831    19.898001    20.048314    20.710985    8262.0549     3335.177    1157.9212     3097.451     634.3315    423.26366   -348.59396   -4459.3773 
25869000    120.85088   -5003.8204   -4770.7493   -5003.8204            0    2223.0651    20.128342     19.93951    20.757212    8330.8917    2150.6999    2121.4751    2397.0204   -61.124958    837.67246   -1298.9584   -4500.6525 
25870000    129.50978   -5004.6684   -4754.8979   -5004.6684            0    1932.7847    19.929636    20.053484     20.87895    8344.4525    1991.6869    2428.9758    1377.6916   -99.654033   -784.54428    426.34119   -4519.6871 
25871000    124.30252   -5015.9432   -4776.2153   -5015.9432            0    1594.0889    19.919742    19.896875    21.079122    8354.5121    2139.3181     1771.283    871.66571    221.93243   -286.18201     511.7201   -4581.9884 
25872000    127.51982   -4994.0584   -4748.1257   -4994.0584            0    1259.2851    19.976606    20.002051    20.898512    8350.4829    1586.0018    1473.1949    718.65862    -270.6053   -402.42613    308.80795   -4594.7659 
25873000    126.75654   -5000.7082   -4756.2475   -5000.7082            0    1520.9089    20.067756    19.983315    20.699573    8300.9489   -110.25599     1804.924    2868.0586    435.35734   -1047.2726    -410.5995    -4572.125 
25874000    126.62621   -5000.9257   -4756.7164   -5000.9257            0    2022.9347    19.991292    19.956837    20.760801    8282.7902     1585.806    1961.7511     2521.247    14.542428    595.68382     58.93608    -4512.354 
25875000    127.05518   -4986.2224   -4741.1857   -4986.2224            0    2018.8538    20.000638    20.114355    20.672276    8316.4551    2353.0875    1362.3351     2341.139    40.509363    894.35186    832.48378   -4496.3251 
25876000    119.16836   -5003.4717   -4773.6455   -5003.4717            0    2462.7518    19.906728    19.977449    20.841769    8288.4723    2286.1294    2959.9424    2142.1836   -122.06915    -166.3835    461.36929   -4475.9509 
25877000    126.54793   -5009.1449   -4765.0865   -5009.1449            0    1552.2246    19.852334    19.989559    21.136777     8387.906    2133.2359    1490.1749     1033.263    -240.9953   -1368.3498   -33.086915   -4575.2045 
25878000    124.77552   -5002.4238   -4761.7837   -5002.4238            0    2670.3202    19.991865    19.923659    20.799117    8284.5194    2696.7302     2575.979    2738.2515    126.82838    582.51447   -228.07099   -4439.1524 
25879000    131.73367   -4988.6665   -4734.6071   -4988.6665            0    2724.3197    19.902502    20.195663    20.667418    8307.1489    2765.4626    1260.8818    4146.6148   -246.38583    192.37582   -1112.1738   -4404.5523 
25880000    120.37637   -5010.9565   -4778.8005   -5010.9565            0    980.20029    20.010139    19.985516    20.810966    8322.5748      1232.45    781.67821    926.47271   -21.650654    -6.950883     685.3909   -4659.8275 
25881000    118.01685   -5001.4216   -4773.8162   -5001.4216            0    2108.9078    20.054742    19.883806    20.811504    8298.8911    501.06679    3910.7547     1914.902    181.99859    523.14073    301.67544   -4518.5733 
25882000    127.96672    -4988.699   -4741.9044    -4988.699            0    2769.8934    19.891531    20.053473    20.840655     8313.218    1949.1915    3807.9266    2552.5619    -24.86755    -46.86891   -502.33419   -4406.0832 
25883000    130.68897   -4997.0614   -4745.0168   -4997.0614            0    1461.2232    19.945168     20.09936    20.739864    8314.3028    971.08303    1117.0344    2295.5521    -49.54486    171.19561    408.71367   -4567.8353 
25884000    122.09835   -5003.4908   -4768.0138   -5003.4908            0    2151.5649    19.927684    20.027058    20.774905    8291.1168    2616.8784    2027.3542     1810.462   -69.081489    392.79129   -1071.3202   -4507.8521 
25885000    124.39405   -5002.5785   -4762.6742   -5002.5785            0    1768.8634     19.93909    19.986693    20.903482    8330.3816    2306.5453    1542.1054    1457.9395    40.882891   -223.36966    638.46268   -4547.7748 
25886000    131.47526   -5004.9414   -4751.3803   -5004.9414            0    2869.1204    19.846035    19.980512    20.965026    8313.3444    2384.4139    3769.7803    2453.1671   -328.82149    -310.4686    286.84338   -4403.5236 
25887000     120.9066   -4999.0119   -4765.8333   -4999.0119            0    2341.0581      19.9603    19.909481    20.837018    8280.6144    2079.4589    2461.6339    2482.0815    -149.2808   -584.44357    563.36885   -4483.1172 
25888000    124.82214   -5009.3688   -4768.6388   -5009.3688            0    926.55437    20.104501    19.997385    20.789712    8358.2427    773.19086    1119.4833    886.98891    198.84689    492.85389   -400.12661   -4655.6952 
25889000    118.45563   -5009.3278   -4780.8761   -5009.3278            0    3016.3859     20.12293    19.859701    20.660858    8256.8096    1999.9171    3348.7478    3700.4929   -282.16184    347.02586    390.49549   -4417.6517 
25890000     128.9671   -5001.9937   -4753.2698   -5001.9937            0    2229.1685    19.939936    19.941354    21.008093    8353.4335    1610.5342    3207.3713       1869.6    102.22807    194.13042    504.79235   -4481.6986 
25891000    126.23817   -5010.6562   -4767.1953   -5010.6562            0    1290.6266    20.051685    19.978346    20.841262     8348.999    1824.5808    772.63922    1274.6597    153.99959   -182.42829    719.05196   -4610.0465 
25892000    124.52826   -5001.2865   -4761.1232   -5001.2865            0    966.06447    20.064456     20.03861    20.655096    8304.6665   -624.19247    1757.9396    1764.4463   -291.84751    23.686084    501.04691   -4644.1183 
25893000    127.60452   -5010.5218   -4764.4258   -5010.5218            0    2077.8455    19.930676    19.972868     20.82634     8290.399    2010.5131    2132.5766    2090.4466   -197.63933   -561.52651    158.30822   -4513.1998 
25894000    124.91874   -4995.5895   -4754.6732   -4995.5895            0     1897.154      19.8192    19.934209    21.097889    8335.3558    2492.0384    2108.4274    1090.9961   -429.18414    380.92067   -53.926775   -4524.0502 
25895000    128.07035   -5004.6894   -4757.6949   -5004.6894            0    2399.9339    19.859335    19.926598    20.957355    8293.4326    2832.0153    2417.9172    1949.8691   -479.04683    764.85845    -49.94688     -4467.42 
25896000    118.12108   -4995.1753   -4767.3688   -4995.1753            0    1043.6643     20.05556    19.952196    20.813131    8328.4258   -784.09051    2611.9858    1303.0977   -164.38996   -646.42942   -8.2548006   -4640.6037 
25897000    119.46139   -5002.1717   -4771.7804   -5002.1717            0      1615.04    20.120785     19.84538    20.939552    8361.2596     107.5195    2833.2707    1904.3298   -190.37624    655.03747    527.63825   -4574.8417 
25898000     124.3444   -5010.2056   -4770.3969   -5010.2056            0    1433.4927     20.08621     19.94364    20.806765    8335.0266    602.67221    2617.4443    1080.3617    320.86679   -625.59813    505.73162   -4596.1447 
25899000    132.75935   -5005.0112   -4748.9736   -5005.0112            0    889.80431    19.884387    20.203975    20.770865     8344.563    2423.1764   -1041.7582    1287.9947   -216.28143   -624.76863   -164.66538   -4640.6872 
25900000    123.51683     -5003.25   -4765.0374     -5003.25            0    2169.3017    19.987506    20.056661     20.68181    8290.9788    2069.3294    1662.2281    2776.3476   -226.24479   -644.30757   -161.93699   -4502.7353 
25901000    132.17753   -4994.2595   -4739.3441   -4994.2595            0    878.64023    20.052125    19.952441    20.880007    8353.8576    779.64287    917.19569    939.08212    18.263898   -96.416521    650.05088   -4632.2972 
25902000    128.85852   -4997.0477   -4748.5332   -4997.0477            0    1410.3603    19.897343    19.957226    20.963192    8324.3946    2238.7502    1548.2763    444.05436    35.879036   -743.48401   -247.71289   -4577.3116 
25903000    122.37028   -4999.6534    -4763.652   -4999.6534            0     2607.062    19.925291    20.124705    20.764261    8326.2736     1790.293    2729.2478    3301.6452   -53.733487   -685.59134   -250.36583    -4447.076 
25904000    126.16771   -5001.4163   -4758.0913   -5001.4163            0    2954.6227    19.954924    19.924631    20.788332    8265.3261    3443.2299    2846.1624    2574.4759    -200.1779   -40.076858    1.6084732   -4401.9372 
25905000    120.00798   -4994.5259   -4763.0805   -4994.5259            0    456.86057    19.971313    20.127497    20.734153    8334.5602    1084.7005   -741.07236    1026.9535   -35.308841    -414.4633    359.12852   -4707.5486 
25906000    123.47017   -5010.2042   -4772.0816   -5010.2042            0    2007.6819    19.919336    20.055213    20.779621    8301.1784    1902.8058    1989.7278    2130.5122    149.90005    189.32854    80.151228   -4529.0232 
25907000    126.06862   -4994.6381   -4751.5042   -4994.6381            0    2940.9174    19.954176    19.967521    20.696799    8246.3383    2456.8388    4010.7468    2355.1665   -32.205256   -486.61675    649.19551   -4397.8166 
25908000    124.43794   -5015.2517   -4775.2627   -5015.2517            0    2001.9941    19.920517    20.087065    20.870388    8351.1755    433.79523    3141.3895    2430.7977    52.314322   -139.94251   -773.57297   -4531.4332 
25909000    124.83206   -5009.3747   -4768.6256   -5009.3747            0    2892.1508    19.904507    19.900332    20.928839    8290.0451    4098.4597    2077.5272    2500.4655   -172.82006    295.37219   -657.04792   -4418.9594 
25910000    126.87747   -5004.2883   -4759.5944   -5004.2883            0    2114.7402    20.090939    19.931604    20.852703    8350.3533     2414.012    1679.7277    2250.4808    143.31372   -66.134638    779.57746   -4502.0585 
25911000    123.13482   -5008.4514   -4770.9755   -5008.4514            0    1826.8549    20.066311    20.068351    20.762194    8360.8896    2460.7101    1694.7995    1325.0552   -93.471423    86.085296   -359.13913    -4548.218 
25912000    123.12054   -4993.1255   -4755.6772   -4993.1255            0      1603.63    20.005215    19.932892    20.825405    8304.3756    1192.5981     2273.606    1344.6858   -140.83335   -61.370423    213.53792   -4561.4603 
25913000    127.87615   -5003.1414   -4756.5215   -5003.1414            0    1223.5576    20.072135    19.847547    20.847802    8305.4022    770.20538      1269.41    1631.0574    -162.6336   -211.45694    -186.9732   -4608.3172 
25914000    119.74481   -5000.1117   -4769.1737   -5000.1117            0     1438.191     20.13289    19.972255    20.776875    8354.3651    1693.7366    1446.8911    1173.9453    -302.6097    123.57344   -230.38372   -4593.9448 
25915000    122.94745   -4994.0135    -4756.899   -4994.0135            0    2303.8808    19.975839     19.99812    20.742048    8286.0174    3006.6868    1803.1156      2101.84    114.77113   -59.070833    30.768321    -4478.491 
25916000    124.98346   -4990.7861    -4749.745   -4990.7861            0    842.49043    20.179426     19.95839     20.79376     8374.663    260.19179    678.77765    1588.5019    507.42862    615.89016    409.37099   -4646.8467 
25917000    128.07142   -5003.3032   -4756.3067   -5003.3032            0    1247.4347    20.090393    20.016928    20.801067    8365.1065    86.737917    1694.8273    1960.7387   -182.36259    878.74159   -29.457546    -4604.124 
25918000    131.26336   -4995.3314   -4742.1789   -4995.3314            0      1644.18    20.060159    19.914199    20.745539    8287.4693    1951.7279    1347.9761    1632.8361    250.70366   -1188.3954     101.2994   -4543.4564 
25919000    127.35816   -4989.6029    -4743.982   -4989.6029            0    1478.9684    20.015406    19.990463    20.889712    8358.3339    2551.9219    287.21039    1597.7729   -148.00575    1098.1843   -982.42152   -4563.6991 
25920000    121.97573   -4988.6904     -4753.45   -4988.6904            0    1273.6502     20.06658    19.940576    20.835326    8337.0302    22.459498    3189.1101     609.3811   -138.58016   -769.40596    276.25642   -4598.5906 
25921000    125.48666   -4988.6064   -4746.5948   -4988.6064            0    1515.7505    20.132489    19.790499    21.001952    8367.8498    651.05303    2228.2556     1667.943   -266.57905    961.22231   -997.55127   -4561.6179 
25922000    123.05763   -5001.0135   -4763.6866   -5001.0135            0    2976.0432    19.930713    19.945371     20.87252    8297.3584    2102.3973    4240.1793     2585.553    -306.2521   -103.07909    538.92179   -4403.5601 
25923000     126.2605   -5016.3268   -4772.8228   -5016.3268            0    2004.0303      20.0875    20.033191    20.636801    8304.5939    1183.9675     2129.249    2698.8744    405.03958    1141.3793    688.23275   -4530.1067 
25924000    126.58263    -5000.436   -4756.3108    -5000.436            0    3368.1069    20.018431    19.974304    20.642377    8253.9415    2357.3791    3690.4043    4056.5373   -347.69064    566.00174   -176.05167    -4350.874 
25925000    121.70903   -4995.5768   -4760.8507   -4995.5768            0    2077.9431    20.026597    19.925273    20.979728    8371.6546     2075.089     2729.682    1429.0583   -539.07134    686.85127   -892.97332   -4507.1505 
25926000    124.25579    -5011.497   -4771.8593    -5011.497            0    3516.0372    19.947766    19.896423    20.893643    8292.4611    3555.2744     3902.894    3089.9433   -78.152166   -1279.3327   -485.89605   -4346.6401 
25927000    125.58777   -5000.3441   -4758.1376   -5000.3441            0    2139.9972    20.004388    19.970757    20.796648    8308.3183    3358.5734    1710.5288    1350.8895    63.211242   -693.99444    219.35363   -4498.8377 
25928000    122.93158   -4995.8938   -4758.8099   -4995.8938            0    1119.9819     20.03878    19.955887    20.865087    8343.7739    1117.9359    983.32482    1258.6849    140.10214    710.98686    33.062577   -4622.5245 
25929000    129.84108   -4995.2581   -4744.8486   -4995.2581            0    1556.6376    20.139355    19.925338    20.796565    8345.3176   -16.465235    2521.7337    2164.6443   -75.278319   -385.64363    724.60822   -4555.3935 
25930000    126.42648   -4994.2282   -4750.4041   -4994.2282            0    1457.1897    20.046525    19.844929    21.011832     8358.966    1567.8062     1640.245     1163.518   -83.291736   -221.05784   -618.39449   -4572.7626 
25931000    124.86161   -5004.3938   -4763.5877   -5004.3938            0    1040.7713    20.029991    19.933362    20.925752    8354.9217    1588.2467     804.0562    730.01111    307.44697   -43.426671   -222.97638   -4636.7718 
25932000    120.87456   -4993.7472   -4760.6304   -4993.7472            0     3302.897    19.967089    19.869084    20.874244    8281.3921    3296.9119    3459.7088    3152.0702   -44.539363    1142.9641     1150.811    -4361.721 
25933000    126.77848   -5017.7956   -4773.2926   -5017.7956            0    1581.3187    19.899472    20.034622    20.792279    8289.4321    1499.0822    1739.2195    1505.6544   -678.11713    671.03038    71.386403   -4582.1225 
25934000    120.53947    -5003.319   -4770.8485    -5003.319            0    2730.2579    19.888661    20.071276    20.678346    8254.6056    3508.1141    2415.7657    2266.8939    10.519411    -833.1004   -205.64748   -4442.1665 
25935000    123.25234   -4983.7583   -4746.0558   -4983.7583            0    2723.9498    20.001834     19.96416    20.777427    8296.8383    2045.5321     3276.239    2850.0783   -172.20863    -335.5182    526.89543   -4416.4555 
25936000    126.77937   -4992.3651   -4747.8604   -4992.3651            0    1340.3171    20.137799    20.053156    20.712118    8364.1004    172.59148    1369.3639    2478.9959   -323.83969   -631.77722    -677.4233    -4584.366 
25937000    125.21178   -5003.0367   -4761.5553   -5003.0367            0    1996.7657    20.064804    19.926779    20.831018    8328.8015    1751.9315    2006.2154    2232.1502    53.005993   -284.11812   -210.50359   -4519.0141 
25938000     127.8626   -4996.4529   -4749.8592   -4996.4529            0    2453.5038     19.86776    19.892635     21.02856    8310.9518    2502.2102    3477.3446    1380.9566   -263.13609    1040.5351    121.29817   -4452.4781 
25939000     123.3696   -5011.0786     -4773.15   -5011.0786            0    1705.4374    20.050971    19.782227    20.904325    8291.7604    1565.2389    1806.7712    1744.3022    72.303812   -207.31685     545.4023   -4566.9169 
25940000    126.52369   -4982.8488   -4738.8372   -4982.8488            0    2384.4197    19.979527    19.977835    20.809753    8306.1648    3014.0276    756.52755    3382.7039   -21.885905    775.23762     378.1228    -4449.996 
25941000    122.40847   -4993.9801   -4757.9051   -4993.9801            0    1953.2596    19.992649    20.118181     20.62834    8297.0426    2687.9951    333.45118    2838.3326   -22.149835   -673.76413    854.03272   -4521.5532 
25942000    126.96905   -5000.8375    -4755.967   -5000.8375            0    853.23168    20.115793    20.059624    20.789218    8388.7662    1030.8165     231.5836    1297.2949    115.61653   -725.83378   -913.20234   -4651.5813 
25943000    123.13786   -4991.8429   -4754.3612   -4991.8429            0    2402.2937    20.029285    20.031199    20.699756    8304.9614    3823.9993   -208.30941    3591.1912   -482.58392     709.0132   -1010.5022    -4463.397 
25944000    128.87265   -4993.2686   -4744.7269   -4993.2686            0    2062.4843    19.967013    19.888403    20.936502    8314.1363    1555.3051     2264.263    2367.8848   -108.95068    -360.8384    384.83057   -4494.6442 
25945000    122.88607   -4995.9002   -4758.9041   -4995.9002            0    1903.5675    19.992555    19.909657    20.861941    8303.9892    2592.7576    2466.4544    651.49046   -315.22801   -50.457549   -695.85742   -4528.3722 
25946000    124.47998   -4998.9835   -4758.9134   -4998.9835            0    1795.3928    19.984064    19.974022    20.813327    8307.8918    1170.4641    2102.7083    2113.0062    -274.9837   -244.24083    869.72448   -4541.3798 
25947000    120.20138   -4988.3428   -4756.5243   -4988.3428            0    2316.4073     20.03652    19.979288    20.774061    8316.1771    2313.2276    2088.8146    2547.1795   -81.218308   -415.80237    596.77421   -4475.5837 
25948000     125.9012   -4998.8761    -4756.065   -4998.8761            0    812.19094    19.904944    19.924897    21.080765    8360.7148    1782.3389    545.90618    108.32777   -46.185097   -855.86715    615.60619   -4657.0326 
25949000    126.96697    -4993.677   -4748.8106    -4993.677            0    1877.5188    20.017124    19.992647    20.884538    8357.8938    1044.0551       1658.6    2929.9012    -763.1446    269.93993    141.39925   -4519.9574 
25950000    120.68658   -4998.5694   -4765.8151   -4998.5694            0    2803.8666    20.032906    20.020757    20.764955    8328.2828    2857.7151    3036.3193    2517.5654   -33.600935    303.04029    287.61799    -4425.259 
25951000    124.33628   -5002.1159   -4762.3229   -5002.1159            0    1424.0959    19.932286    20.086998    20.775615    8318.1364    1291.5012    1289.0961    1691.6903     59.42582    230.80471   -829.45682   -4589.5637 
25952000     126.9891   -4998.6499   -4753.7407   -4998.6499            0    1716.4126    20.044158    19.934963    20.784683    8305.1341     90.96425    3314.4551    1743.8184   -613.60481   -644.67252   -490.94886   -4545.8456 
25953000    128.04106   -5016.5633   -4769.6253   -5016.5633            0    2943.5959    19.888281     19.99494    20.757551    8254.5513     3186.207    2015.4226    3629.1581   -202.85147   -993.45173   -807.51061    -4415.263 
25954000    121.60031   -5003.4279   -4768.9114   -5003.4279            0    1953.6182    19.968409    20.034743    20.754429    8303.0572     1699.386    2142.6416     2018.827   -548.79063    1353.8569    45.906445   -4532.3447 
25955000    122.20225   -5011.6839   -4776.0066   -5011.6839            0    1896.0537    20.022541      19.9942    20.719778     8294.846    1040.0873    2336.5119    2311.5618   -563.76106    411.37947   -540.28419   -4546.6375 
25956000    121.15424   -5003.4163   -4769.7601   -5003.4163            0    2872.9486    20.052613    19.880753    20.717216    8259.1469    3394.2765    3012.7836    2211.7858   -519.79992     1261.843   -400.01721     -4423.71 
25957000    120.83591   -4992.0407   -4758.9985   -4992.0407            0     1922.852    20.005937    20.038741    20.704381    8300.2578    2538.7248    1345.0261     1884.805     213.6191    419.65596    647.52751   -4526.2358 
25958000    125.72358   -4993.9885     -4751.52   -4993.9885            0    1948.3669    19.928172    19.953835    20.908768    8314.2348    2518.4301     1633.929    1692.7416   -589.83742     1073.727    380.91995   -4515.2716 
25959000    124.58525   -4999.6516   -4759.3785   -4999.6516            0     2879.143    19.892085    19.946023    20.864379    8278.3175    4371.6586    1790.9298    2474.8405    8.5144815   -581.97611    36.901497   -4411.7773 
25960000    126.82432   -4986.8468   -4742.2554   -4986.8468            0    2083.2546    20.196407    19.790171    20.791515    8310.1679    873.08555    2562.7319    2813.9464   -217.36924    763.89427   -379.86983   -4489.7748 
25961000    127.90427   -5004.5077   -4757.8335   -5004.5077            0    1501.7085      19.9984    20.037213    20.782411    8327.7657    1859.6601    629.89755    2015.5678   -415.76331    779.38682   -658.62288   -4575.4481 
25962000    125.61165   -5001.5225   -4759.2699   -5001.5225            0    2090.8842    19.937391    19.871715    20.927513    8291.2742    3044.4958    1856.3637    1371.7931   -71.137352    379.52722   -1163.5917   -4506.4407 
25963000    129.32761   -4994.7475   -4745.3283   -4994.7475            0    2242.9146    19.980791    19.818836    20.986877    8310.7198    2485.5781    3198.0048     1045.161   -539.65417    425.29864   -195.24815   -4473.4796 
25964000    125.19723   -4995.3677   -4753.9143   -4995.3677            0    1640.2492    19.985611    19.919507    21.050168     8380.146    1481.8776    2122.3714    1316.4987   -160.32471    628.91444   -326.09613   -4553.4499 
25965000    119.26548   -5014.0509   -4784.0374   -5014.0509            0    1141.2445    20.049415    20.081405    20.687884    8329.3648    1872.8825     1050.955    499.89599   -730.13188    695.92527   -707.03366   -4645.4045 
25966000    121.79007   -5001.7177   -4766.8353   -5001.7177            0     1605.864    19.911816    20.122506    20.706629     8296.642    2095.4914    258.71179     2463.389   -414.61788    193.76765    271.25011    -4572.529 
25967000    118.50973   -5006.9291   -4778.3731   -5006.9291            0    2206.8045     20.07534    20.032863    20.657077    8307.5851    1690.5928     1743.491    3186.3298   -119.74653    113.20998     13.08913    -4511.002 
25968000    130.12787    -5003.392   -4752.4294    -5003.392            0    786.20242    20.087146    19.964555    20.912474     8386.549     429.5667    961.44703    967.59354    284.79695    165.07193   -218.75742   -4656.2696 
25969000    122.80358   -4990.4058   -4753.5688   -4990.4058            0    486.78771    19.947283    20.140235    20.837846    8371.4581    1533.4513   -325.12672    252.03854   -1.6492272    89.799012    16.225604   -4694.1373 
25970000     121.7994   -5005.5724    -4770.672   -5005.5724            0     3291.066    19.969971    19.965047       20.766    8279.4336    3278.2331    3191.9078     3403.057    40.166934    683.75418     1632.216   -4373.2855 
25971000    128.59694   -5008.4447   -4760.4347   -5008.4447            0    2077.8946    19.889602    19.880028    20.957554    8286.7391    3140.5577    1595.2318    1497.8944   -552.48243   -617.35192   -167.39569   -4509.3137 
25972000      124.572   -5008.8211   -4768.5735   -5008.8211            0    3109.9565    19.976159    19.811273    20.918219     8278.451    4391.1799     2608.772    2329.9176    37.174035   -27.362934   -19.604979      -4393.1 
25973000    126.52632   -5008.7104   -4764.6937   -5008.7104            0    2553.3954    20.075783    19.814902      20.8307    8286.4453     4106.219    1082.1434    2471.8237    -78.03095    331.40937    417.18373   -4456.1177 
25974000    124.21501   -5001.0397   -4761.4806   -5001.0397            0    1462.2841    20.117843     20.02903    20.644755    8318.6162    481.51782    2679.0501    1226.2844    289.48502    877.35243    1172.7569   -4584.0785 
25975000    119.65469   -4999.4441     -4768.68   -4999.4441            0    3091.1707    20.012951    19.895954    20.656245    8224.8368    2359.1699    3598.9513     3315.391   -223.81366    -395.4075   -1042.8183   -4397.8915 
25976000    127.80151   -5003.7443   -4757.2683   -5003.7443            0    2406.9791    19.877471    20.014341    20.965031    8340.6121     2687.587    2589.8541    1943.4962   -28.895264    442.74599   -500.39017   -4464.4851 
25977000    131.27606   -4982.3557   -4729.1788   -4982.3557            0    1510.5424    20.087881    19.882421    20.938248    8362.6464    1262.0282    802.93186     2466.667    -413.7898    400.40742    218.88644   -4544.9521 
25978000    129.80468   -4995.7872   -4745.4479   -4995.7872            0    2055.7618    19.985821    19.993467    20.713616    8276.8677    1743.5359      1940.22    2483.5295   -145.41437    197.22575   -794.65824   -4497.2977 
25979000    126.09569   -4994.7895   -4751.6033   -4994.7895            0    2810.4339    20.107593    20.014059    20.716848    8337.1754    3689.1258    2061.4076    2680.7684    -241.2978    319.57955   -322.27666    -4409.885 
25980000    132.70225    -5000.588   -4744.6605    -5000.588            0    1694.9696    20.083502    19.872704    20.818839    8309.0796     1087.175    1792.2864    2205.4474   -284.45362   -730.22601    56.122799   -4539.2651 
25981000    125.29241   -4992.6868   -4751.0499   -4992.6868            0    1816.7153     19.92937    19.897302    20.985735     8321.698    2833.5767    1529.7932     1086.776    145.59647    338.16751    680.63201   -4530.5671 
25982000    124.52935   -4995.4969   -4755.3316   -4995.4969            0    1541.2785    20.024737    19.937274    20.839759    8320.0376    1043.7684    2953.7165    626.35048   -141.44125   -131.29801    652.67021   -4568.3141 
25983000    121.82174   -5000.4041   -4765.4606   -5000.4041            0    2280.5918    20.083411    19.938529    20.744079    8306.6277    2655.9048    2316.5876     1869.283    20.316816    1046.6954   -534.16418   -4489.1814 
25984000    123.36128   -4986.8293   -4748.9167   -4986.8293            0    1938.7534    20.060228    20.081391    20.599622    8298.2958    1098.9226    2652.4583    2064.8792    274.81524    31.359579   -106.31283   -4514.2846 
25985000    127.35667   -5015.1925   -4769.5745   -5015.1925            0    1385.3987    20.109805    19.889704    20.841845    8336.2808    809.01136     2306.584    1040.6007    293.35264    675.14075    17.892487   -4601.1431 
25986000      124.276   -5007.2311   -4767.5543   -5007.2311            0     2055.181    19.970576    19.924582    20.859352    8300.0482    2119.4561    2124.0886    1921.9982    574.06399    580.51272   -499.42652   -4518.7794 
25987000    128.47621   -5007.9126   -4760.1354   -5007.9126            0    824.03707    19.943303    20.064812    20.868124    8350.5597    514.38186    849.18231    1108.5471   -41.360125    -859.6095    432.08646   -4659.7806 
25988000    125.60491   -4992.6355   -4750.3959   -4992.6355            0      2302.62     19.94097    19.955115     20.77565    8267.1372    2827.5398    2178.8733     1901.447    204.73364    573.29711    793.58024   -4472.7743 
25989000    124.66394   -5001.3196   -4760.8947   -5001.3196            0    1929.1425      19.9794    20.022017    20.770313    8308.7044    1328.0242    2142.2351    2317.1684    201.52532   -1033.5586    498.71855    -4527.133 
25990000    129.67978   -5000.9706   -4750.8722   -5000.9706            0    2281.7578    19.833118    19.940157     21.04257    8321.8207    3585.4189    1855.8747    1403.9799    186.41736     587.8916    747.23682   -4473.9461 
25991000    119.41032   -4998.9796   -4768.6868   -4998.9796            0    2139.9566    20.129859    19.808072     20.87588    8323.9167    1454.4973    3174.7937    1790.5787    39.537773    283.97354   -96.828267   -4508.9051 
25992000    126.21394   -5003.0766   -4759.6624   -5003.0766            0     3024.804    20.062384    19.920728    20.673802    8262.4361    1800.0422    2991.4907    4282.8792   -54.232567   -229.04762    986.24963    -4395.176 
25993000    120.04065   -4978.3882   -4746.8797   -4978.3882            0      2919.05    19.998019    19.933724    20.875012      8321.51    2779.5593    3170.4531    2807.1375   -123.60873    -95.00546    843.12904   -4392.6218 
25994000    125.79636   -4992.6586   -4750.0497   -4992.6586            0    2311.2957    20.042839    19.938684    20.742494    8289.2781    3328.5167    1781.5479    1823.8225    -91.92985   -166.89759   -1160.3383   -4470.6358 
25995000    128.35605   -4984.5545   -4737.0091   -4984.5545            0    1996.6823    20.016961    19.917861    20.841233    8309.2964    1379.2291    3164.9184    1445.8993    324.08829    110.08729    1385.9889    -4495.046 
25996000    132.48788   -5003.2846   -4747.7706   -5003.2846            0    4192.4072     19.87543    19.947708    20.776225    8237.1351     5822.074    3477.8678    3277.2798    77.054436    123.57377    378.78972    -4244.136 
25997000    121.53893   -4995.9994   -4761.6013   -4995.9994            0    2580.7197    20.032637    19.876174    20.935077    8335.7654    3240.9185    1805.7017    2695.5389   -332.68122   -1067.9241    1010.5409   -4447.8669 
25998000    127.71415   -4994.4301   -4748.1227   -4994.4301            0    1077.9205    19.934644    20.136655    20.825968     8359.899    947.48318    410.05589    1876.2225   -128.81235   -182.29758    435.41282    -4616.702 
25999000    124.65323   -5004.7867   -4764.3825   -5004.7867            0    2554.1428    19.861054    20.064784    20.745881    8267.3948    2375.7036    2307.0349      2979.69    204.47307    211.16595   -278.09481   -4456.4257 
26000000    135.82121   -5000.0397   -4738.0971   -5000.0397            0    2106.7817    20.065041    19.958679    20.728428    8301.1488    2140.0918    2015.7438    2164.5096   -327.73075   -616.97055    155.95274   -4483.0422 
Loop time of 342.858 on 64 procs for 250000 steps with 972 atoms

Performance: 126.000 ns/day, 0.190 hours/ns, 729.165 timesteps/s
195.3% CPU use with 32 MPI tasks x 2 OpenMP threads

MPI task timing breakdown:
Section |  min time  |  avg time  |  max time  |%varavg| %total
---------------------------------------------------------------
Pair    | 25.932     | 35.063     | 44.983     |  82.0 | 10.23
Bond    | 1.0594     | 1.2379     | 1.7674     |  11.9 |  0.36
Kspace  | 152.15     | 163.91     | 176.98     |  44.0 | 47.81
Neigh   | 0.83019    | 0.87801    | 0.98676    |   4.9 |  0.26
Comm    | 54.448     | 59.966     | 62.867     |  25.6 | 17.49
Output  | 0.62707    | 0.62739    | 0.62907    |   0.0 |  0.18
Modify  | 64.736     | 66.681     | 70.713     |  17.6 | 19.45
Other   |            | 14.49      |            |       |  4.23

Nlocal:        30.3750 ave          35 max          25 min
Histogram: 3 1 2 4 1 4 3 5 5 4
Nghost:        2607.06 ave        2635 max        2586 min
Histogram: 4 4 4 2 5 3 4 4 1 1
Neighs:        9499.22 ave       12231 max        7184 min
Histogram: 2 3 4 3 6 6 4 1 1 2

Total # of neighbors = 303975
Ave neighs/atom = 312.73148
Ave special neighs/atom = 2.0000000
Neighbor list builds = 2741
Dangerous builds = 0

unfix		3
unfix		2
unfix		1

write_data	data.final.${pid}
write_data	data.final.1
System init for write_data ...
PPPM initialization ...
  extracting TIP4P info from pair style
  using 12-bit tables for long-range coulomb (../kspace.cpp:340)
  G vector (1/distance) = 0.37244643
  grid = 24 24 25
  stencil order = 5
  estimated absolute RMS force accuracy = 0.003403582
  estimated relative force accuracy = 1.0249786e-05
  using double precision FFTW3
  3d grid and FFT values/proc = 3458 576
Last active /omp style is kspace_style pppm/tip4p/omp
WARNING: Not all mixed pair coeffs generated from mixing. Use write_data with 'pair ij' option to store all pair coeffs. (../write_data.cpp:312)

write_restart   restart.lmp.${pid}
write_restart   restart.lmp.1
System init for write_restart ...
PPPM initialization ...
  extracting TIP4P info from pair style
  using 12-bit tables for long-range coulomb (../kspace.cpp:340)
  G vector (1/distance) = 0.37244643
  grid = 24 24 25
  stencil order = 5
  estimated absolute RMS force accuracy = 0.003403582
  estimated relative force accuracy = 1.0249786e-05
  using double precision FFTW3
  3d grid and FFT values/proc = 3458 576
Last active /omp style is kspace_style pppm/tip4p/omp
Total wall time: 0:05:43
