#include		in.partitions
include		in.temp
variable        temperature equal 228.97
variable	tempDamp equal 100.0
include		in.pressure
variable        pressure equal 7624.6
variable        pressureDamp equal 1000.0 # This is 1 ps
include		in.seed
variable        seed equal 745823

units		real
atom_style	full
read_restart    restart.lmp.${pid}
read_restart    restart.lmp.0
Reading restart file ...
  restart file = 30 Jul 2021, LAMMPS = 30 Jul 2021
  restoring atom style full from restart
  triclinic box = (-3.2333794 -0.035773145 -0.13272446) to (14.843378 22.615772 19.362722) with tilt (0.10749227 -6.4766120 -0.00054298409)
  2 by 4 by 4 MPI processor grid
  restoring pair style lj/cut/tip4p/long/omp from restart
  restoring bond style harmonic/omp from restart
  restoring angle style harmonic/omp from restart
  1008 atoms
  672 bonds
  336 angles
Finding 1-2 1-3 1-4 neighbors ...
  special bond factors lj:    0        0        0       
  special bond factors coul:  0        0        0       
     2 = max # of 1-2 neighbors
     1 = max # of 1-3 neighbors
     1 = max # of 1-4 neighbors
     2 = max # of special neighbors
  special bonds CPU = 0.002 seconds
  read_restart CPU = 0.007 seconds

include 	in.setup
variable	out_freq equal 1000
variable	out_freq2 equal 10000
variable	out_freq3 equal 1000

timestep	2.0

neigh_modify    delay 7 every 1

include		in.tip4p
# This is TIP4P/Ice

# create groups ###
group ox type 2
336 atoms in group ox
group hy type 1
672 atoms in group hy

# set charges - beside manually ###
set group ox charge -1.1794
Setting atom values ...
  336 settings made for charge
set group hy charge 0.5897
Setting atom values ...
  672 settings made for charge

# ### TIP3P Potential Parameters ###
pair_style lj/cut/tip4p/long/omp 2 1 1 1 0.1577 8.5
pair_coeff 1 1*2 0.000 0.000
pair_coeff 2 2 0.21084 3.1668
bond_style  harmonic
bond_coeff  1 450 0.9572
angle_style harmonic
angle_coeff 1 55 104.52
kspace_style pppm/tip4p/omp 1.0e-5
pair_modify tail yes

thermo          ${out_freq}
thermo          1000
thermo_style    custom step temp pe etotal epair emol press lx ly lz vol pxx pyy pzz pxy pxz pyz enthalpy

restart 	${out_freq3} restart.lmp.${pid} restart2.lmp.${pid}
restart 	1000 restart.lmp.${pid} restart2.lmp.${pid}
restart 	1000 restart.lmp.0 restart2.lmp.${pid}
restart 	1000 restart.lmp.0 restart2.lmp.0


include         in.dump
dump            myDump all atom ${out_freq2} dump.water.${pid}
dump            myDump all atom 10000 dump.water.${pid}
dump            myDump all atom 10000 dump.water.0
dump            myDump2 all dcd ${out_freq2} dump.dcd
dump            myDump2 all dcd 10000 dump.dcd
dump_modify     myDump append yes
dump_modify     myDump2 append yes


variable natoms 	equal  "count(all)"                        # NUMBER ATOMS
variable H      	equal  "enthalpy/v_natoms"                 # ENTHALPY-per-atom
variable Vol      	equal  "vol/v_natoms"                 # volume-per-atom
fix AVG all 		ave/time ${out_freq} 1 ${out_freq} v_Vol v_H file vol_enthalpy.dat
fix AVG all 		ave/time 1000 1 ${out_freq} v_Vol v_H file vol_enthalpy.dat
fix AVG all 		ave/time 1000 1 1000 v_Vol v_H file vol_enthalpy.dat



fix 		1 all shake 1e-6 200 0 b 1 a 1
       0 = # of size 2 clusters
       0 = # of size 3 clusters
       0 = # of size 4 clusters
     336 = # of frozen angles
  find clusters CPU = 0.001 seconds
fix             2 all nph tri ${pressure} ${pressure} ${pressureDamp}
fix             2 all nph tri 7624.6 ${pressure} ${pressureDamp}
fix             2 all nph tri 7624.6 7624.6 ${pressureDamp}
fix             2 all nph tri 7624.6 7624.6 1000
fix             3 all temp/csvr ${temperature} ${temperature} ${tempDamp} ${seed}
fix             3 all temp/csvr 228.97 ${temperature} ${tempDamp} ${seed}
fix             3 all temp/csvr 228.97 228.97 ${tempDamp} ${seed}
fix             3 all temp/csvr 228.97 228.97 100 ${seed}
fix             3 all temp/csvr 228.97 228.97 100 745823


run             250000
PPPM initialization ...
  extracting TIP4P info from pair style
  using 12-bit tables for long-range coulomb (../kspace.cpp:340)
  G vector (1/distance) = 0.37874508
  grid = 24 27 32
  stencil order = 5
  estimated absolute RMS force accuracy = 0.0025119511
  estimated relative force accuracy = 7.564666e-06
  using double precision FFTW3
  3d grid and FFT values/proc = 5355 672
Last active /omp style is kspace_style pppm/tip4p/omp
Neighbor list info ...
  update every 1 steps, delay 7 steps, check yes
  max neighbors/atom: 2000, page size: 100000
  master list distance cutoff = 10.8154
  ghost atom cutoff = 10.8154
  binsize = 5.4077, bins = 5 5 4
  1 neighbor lists, perpetual/occasional/extra = 1 0 0
  (1) pair lj/cut/tip4p/long/omp, perpetual
      attributes: half, newton on, omp
      pair build: half/bin/newton/tri/omp
      stencil: half/bin/3d/tri
      bin: standard
Per MPI rank memory allocation (min/avg/max) = 10.31 | 10.32 | 10.33 Mbytes
Step Temp PotEng TotEng E_pair E_mol Press Lx Ly Lz Volume Pxx Pyy Pzz Pxy Pxz Pyz Enthalpy 
 6750000     230.4902   -4880.1985   -4419.1896   -4880.1985            0    6360.5461    18.076758    22.651545    19.495447    7982.7324    4897.6437    7499.8008    6684.1939   -271.39698   -139.49528   -106.27051   -3678.6951 
 6751000    217.81001   -4886.4115   -4450.7646   -4886.4115            0    6797.3303    18.126359    22.733789    19.355662    7976.0969    5890.9184    7099.1005    7401.9721    1060.2139   -1174.2714    1267.5104   -3660.0774 
 6752000    232.50209   -4902.2801   -4437.2472   -4902.2801            0    6538.2621    18.147669    22.934858    19.088973    7945.1018    5139.6232    5725.7061    8749.4571   -428.73094    39.199506   -925.24215   -3679.6512 
 6753000    229.88484   -4903.2144   -4443.4163   -4903.2144            0     7561.309    17.778656    23.010947    19.378435    7927.7898    7704.1668    7589.3533    7390.4067    -140.9042    258.98063    291.52532   -3569.1877 
 6754000    225.94311   -4929.7356   -4477.8214   -4929.7356            0    6345.4505    17.967084    23.019018    19.180519    7932.7679    6632.9321    5431.4871    6971.9322   -624.72597   -381.25506    808.87013   -3743.7081 
 6755000    226.02602   -4891.6651   -4439.5851   -4891.6651            0     8088.229    17.956408    22.970545     19.22312    7928.9309    7718.0617    8130.1811    8416.4441    495.47132    673.42136   -1023.8656   -3504.3001 
 6756000     235.0864   -4895.0451   -4424.8433   -4895.0451            0    6791.7829    18.049135    22.789861    19.274921    7928.4937    6098.2784     7771.187    6505.8832   -238.45005   -1021.0618    163.39529   -3639.5166 
 6757000    230.81278   -4905.3892   -4443.7352   -4905.3892            0    7846.3272    18.159615    22.620848    19.226006    7897.7716    9119.6266     6415.351    8004.0041   -804.30823   -1087.2562   -351.05971   -3539.9882 
 6758000    228.61531   -4887.7116   -4430.4527   -4887.7116            0    8088.6508    18.012048    22.773177     19.25604    7898.6652    7813.7169     8288.439    8163.7963    1337.7713    962.11471    39.233557   -3498.6893 
 6759000    234.86162   -4885.4173    -4415.665   -4885.4173            0    7088.7059    18.005394    22.612571    19.463977    7924.7237    7224.4456    8604.1976    5437.4745     194.7771    823.21873   -471.46823   -3596.3952 
 6760000    230.84231   -4882.5039   -4420.7907   -4882.5039            0    7956.0547    18.121376    22.661481    19.288199    7920.8382    7328.7275    7623.4343    8916.0021    627.69435   -1066.8232   -323.26723   -3501.7288 
 6761000      223.344   -4888.7543   -4442.0387   -4888.7543            0    8391.6258    17.860838    22.862652    19.373762    7911.2005    8113.5029    9732.0974    7329.2772   -424.49204    61.447064    387.08948   -3473.8403 
 6762000    244.26445   -4884.8689   -4396.3099   -4884.8689            0    7372.0286    17.842953    23.163269    19.195361    7933.4642    7085.8228    7712.4894    7317.7735   -144.72586    -104.7455   -1533.7911   -3543.3556 
 6763000    236.83051   -4885.0986   -4411.4083   -4885.0986            0    6384.6006    17.750649    23.346676    19.215545      7963.28    7761.3203    5377.9675    6014.5141     870.6855    19.111647   -689.48731   -3669.9246 
 6764000    213.93502   -4875.2172   -4447.3207   -4875.2172            0    6498.8746    17.833967    23.123044    19.281549    7951.2403     7415.857    6867.9737     5212.793    5.8732875    774.51498   -834.29094   -3693.7068 
 6765000    235.29818   -4911.7568   -4441.1313   -4911.7568            0    5539.7779    17.994201    22.942377    19.329894    7979.9552    6004.9761    5017.0913    5597.2664    -573.4246    346.72253   -939.43961    -3796.415 
 6766000    239.14539   -4908.3462   -4430.0258   -4908.3462            0     9007.235    18.018059    22.732243    19.264653    7890.6263    8115.1629    9822.9501    9083.5919   -808.48644   -422.25716    198.43699    -3393.503 
 6767000     232.7999   -4899.1714   -4433.5429   -4899.1714            0    8294.0528    17.885734    22.702525    19.452796    7898.8337    9067.3086    7566.2613    8248.5885      -902.82   -114.18763   -503.60781   -3478.0979 
 6768000    220.19341   -4907.0026   -4466.5886   -4907.0026            0    6664.9222    18.155629    22.701566    19.365631    7981.7616    6397.7547    6575.7799     7021.232   -882.01341   -884.88397   -68.398106   -3690.7529 
 6769000    218.48567   -4875.4997   -4438.5013   -4875.4997            0    8282.7332    17.999788    22.483775    19.575382    7922.2196    8498.3848    9076.2371    7273.5776    416.87145    1549.5135   -160.25633   -3481.5355 
 6770000    235.44205   -4917.4191   -4446.5059   -4917.4191            0    6212.4246    18.039979     22.74622    19.402046    7961.4615    5163.1626    6298.1486    7175.9626   -1528.9727   -357.45894   -331.40499   -3725.1828 
 6771000    221.18529    -4910.361    -4467.963    -4910.361            0    5546.1583    18.020832    22.921388    19.313938     7977.863    4942.0518    4558.3047    7138.1185   -1516.4076   -204.81982    557.21343   -3822.6733 
 6772000    237.60109   -4913.3022   -4438.0707   -4913.3022            0    6388.9629    17.978412    22.936368    19.304972    7960.5881    7191.1179    6996.1824    4979.5882   -716.57708    989.43504   -113.46338   -3696.3312 
 6773000    231.09449   -4930.9996   -4468.7821   -4930.9996            0    5955.4327    17.923347    22.992561    19.291015    7949.8979    6056.7127    6381.3426    5428.2428    294.69332    27.107619    226.04621   -3778.3026 
 6774000    231.97742   -4864.7158   -4400.7323   -4864.7158            0    7219.9947    17.876206    23.060925    19.314529     7962.257    10702.419    4989.0963    5968.4688   -631.95458   -1476.7412   -2403.4072   -3562.3367 
 6775000    241.79052   -4898.1494   -4414.5385   -4898.1494            0    7557.9579    17.776907    23.107083    19.291349    7924.3555    7172.6109    7109.0984    8392.1643    646.11375   -158.32035    37.527785   -3541.0759 
 6776000    227.04998   -4878.8794   -4424.7514   -4878.8794            0    6400.3456    18.003543    22.974462    19.285628    7976.9545     8039.849    4749.9446    6411.2432   -744.36571   -1015.8661   -1337.8084   -3680.1627 
 6777000    233.13448      -4880.2   -4413.9022      -4880.2            0    7385.8129    18.111472    22.695038    19.334921    7947.4366    6305.0444    8869.6486    6982.7457   -410.36038    902.63747   -546.94264    -3557.848 
 6778000    226.07155   -4910.2239   -4458.0529   -4910.2239            0    5939.4438    17.925921    22.811806    19.479683     7965.683    5731.1512    5852.5141     6234.666   -382.32229    316.77184   -147.78722   -3768.0599 
 6779000    232.34408   -4895.5998    -4430.883   -4895.5998            0    8555.9975    18.183309    22.844746     19.05748    7916.3455    8784.1429     8522.438    8361.4118    550.17025    2284.1297    165.54583   -3443.0778 
 6780000    233.07731   -4885.3371   -4419.1537   -4885.3371            0    5859.6485    18.022113    23.088139    19.194609    7986.8199    4165.1456    7070.0261    6343.7739   -2053.1267     1833.358   -1282.2552   -3736.6243 
 6781000    242.19472   -4898.4531   -4414.0338   -4898.4531            0     7016.904    17.847418    23.085553    19.281333    7944.2466    8478.7933    5934.3016    6637.6173   -912.97659   -521.59752   -929.96665   -3601.0645 
 6782000    242.16232   -4914.3596    -4430.005   -4914.3596            0    7113.8913    17.996453    22.981079    19.150569    7920.2526    6415.7848    7244.7497    7681.1395   -1514.6182     744.3721   -1738.4302   -3608.2882 
 6783000    230.73632   -4900.1284   -4438.6272   -4900.1284            0    6719.4209    18.001733    22.865446    19.279665    7935.8508    7279.3938    6305.0848    6573.7841    1711.4638   -403.37971   -209.22502   -3660.9467 
 6784000    233.44648   -4930.5838    -4463.662   -4930.5838            0    7571.3956     17.96434    22.680525    19.406578    7907.0295    8467.5633    8100.2638    6146.3598   -1755.1545    346.55313    572.18771   -3590.5596 
 6785000    227.89041   -4926.0308   -4470.2218   -4926.0308            0    6581.5624    18.169976    22.569785    19.354886    7937.2925    6763.0597     7138.686    5842.9416     -810.375   -23.369722   -1019.1928   -3708.3581 
 6786000    214.36648   -4905.0932   -4476.3337   -4905.0932            0    5574.8024    18.093339    22.745589    19.360612    7967.7372    4169.5639    7093.9292     5460.914   -441.96301    478.62881    1065.8553   -3828.5346 
 6787000    224.83489   -4884.3173   -4434.6197   -4884.3173            0    7217.1143    17.852717    23.197328    19.187662    7946.2886    6878.3513    6330.6105    8442.3811     -811.923   -554.49076    137.47119   -3598.2394 
 6788000    234.07731   -4906.1312   -4437.9476   -4906.1312            0    5492.6874    17.932131    22.956099     19.35009    7965.4989    4599.5451    5413.1464    6465.3707   -421.22825    -401.7761    746.02987   -3799.8697 
 6789000     223.1736   -4889.9631   -4443.5883   -4889.9631            0    5340.4473    18.015573    22.905331    19.377604    7996.2199    4604.0556    5015.3197    6401.9666   -326.63541   -1713.3138   -1959.6945   -3820.8032 
 6790000    227.26024   -4894.3623   -4439.8138   -4894.3623            0    5837.1596    18.076047    22.789681     19.39237    7988.6356    6891.9394     6011.526    4608.0133    840.51169     282.9316   -1213.1434   -3759.7494 
 6791000     234.2443   -4913.6578   -4445.1403   -4913.6578            0    5287.4138    17.980235    22.808117    19.481688    7989.3488    5611.6576    4685.9282    5564.6555   -674.53797   -1223.6332    1726.3554   -3829.0696 
 6792000    226.65182   -4882.5459   -4429.2142   -4882.5459            0     9396.958    18.121982    22.889655    19.001894    7882.0979    8426.5445    8018.0542    11746.275   -343.67567    269.19812   -1439.4924   -3349.0122 
 6793000    236.98704   -4897.5294   -4423.5261   -4897.5294            0    7805.3515     17.94822    22.827258    19.347227     7926.726    8074.3094    7071.3323    8270.4128   -1692.7975   -732.42044   -609.64878   -3521.2027 
 6794000     228.4018    -4918.256   -4461.4242    -4918.256            0    8087.0804    17.840976    22.905035    19.309919    7890.9634     7955.389    6919.7706    9386.0817     680.2492    300.73655    560.71985     -3530.75 
 6795000    226.22783    -4919.129   -4466.6454    -4919.129            0    6918.8543    17.818336    23.261224    19.122083    7925.6504     5673.935    7419.2371    7663.3908   -26.511319    232.36954   -1153.8924   -3666.9124 
 6796000    225.34557   -4907.7764   -4457.0574   -4907.7764            0    6051.5271    17.757065    23.346098    19.146885    7937.4975    6344.5288    4848.1026    6961.9498    1059.9383    654.53021    1375.3217   -3756.5311 
 6797000    225.75379   -4886.9529   -4435.4175   -4886.9529            0    7914.8049    17.973067    23.113055    19.086613    7928.8173    4782.7057    8588.0769    10373.632   -622.17155    1668.3816    864.40911   -3520.1995 
 6798000    225.95091   -4907.1253   -4455.1956   -4907.1253            0    8602.6396    17.790364    22.943423    19.342299    7894.9815    9414.1711    8566.6193    7827.1283    348.92105    560.20316   -1221.7702   -3464.6859 
 6799000    230.10406   -4879.8121   -4419.5756   -4879.8121            0     8108.455    17.953744    22.847299     19.30384    7918.3303    8199.3592    7771.8354    8354.1703    202.15015    1225.0544    504.56689   -3483.2053 
 6800000    224.43973   -4911.6327   -4462.7255   -4911.6327            0    7413.9438    17.893848    22.797397    19.424874      7924.05    8411.4805    8180.2641    5650.0868   -550.05106   -547.90368   -1812.1347   -3605.9395 
 6801000      234.259   -4859.4801   -4390.9332   -4859.4801            0    6407.2832    18.040556    22.884563    19.411093    8013.8747    6741.6648    5900.7552    6579.4298   -881.45422    29.658344    -1151.975   -3642.0874 
 6802000    232.07089   -4930.9494   -4466.7789   -4930.9494            0    6323.8465    18.004951    22.819803    19.366055    7956.9198    6033.4624    5778.7456    7159.3315    950.81749   -679.73388   -921.82018   -3732.9376 
 6803000    221.82446   -4914.8484   -4471.1721   -4914.8484            0    8291.6538    17.893319    22.826192    19.276121    7873.0682    9305.5941    7089.4767    8479.8907   -1496.5421   -423.83641    417.46976   -3519.1192 
 6804000    238.31594   -4894.0885   -4417.4272   -4894.0885            0    6084.2107     18.07718    22.957296    19.262443    7993.9749    7254.6019    5041.5906    5956.4397   -270.54148   -1007.9506     -72.9823    -3708.106 
 6805000    246.41082   -4918.3093   -4425.4572   -4918.3093            0    8161.3561    17.865385    22.909407     19.28769    7894.1691    8968.3514    8789.5214    6726.1955    291.03349   -170.93889    457.11957   -3485.8536 
 6806000    252.98269   -4901.2386    -4395.242   -4901.2386            0    8582.4532    17.804748     23.17354    19.117892    7888.0237    9418.2367    7282.4088     9046.714   -2293.7715    97.367741    2166.9272   -3407.9275 
 6807000    219.35397   -4905.7518   -4467.0167   -4905.7518            0    8112.1653    17.867981    22.782188    19.421653    7906.0056    7726.8278    8846.3785    7763.2895   -1012.0708    430.64637   -1027.5782   -3531.6761 
 6808000    221.41561   -4877.8214   -4434.9628   -4877.8214            0    7988.9366    18.073878    22.757833    19.235542    7912.0074    8199.4968     7971.038     7796.275    82.557917    545.96292     469.0001   -3513.1313 
 6809000    222.86625   -4887.2965   -4441.5365   -4887.2965            0    7883.0519    18.065685    22.719898    19.280912    7913.8604    8391.8079    6943.6112    8313.7365    273.74637   -237.69108      322.001   -3531.7098 
 6810000    238.44158   -4916.2671   -4439.3545   -4916.2671            0    8655.2227    17.989244    22.447173    19.508816    7877.8094    8024.3661     9662.329    8278.9731    1380.1845    907.82838    61.296614   -3444.9579 
 6811000    236.09288   -4893.6553   -4421.4404   -4893.6553            0    6808.9569     18.08732    22.848143     19.26141    7960.0025    5021.6799    8213.6001    7191.5906    527.36466   -715.33364    103.29113    -3630.999 
 6812000     239.5946   -4878.4978    -4399.279   -4878.4978            0    7039.8494    18.034193    22.896779    19.270475    7957.2597     5683.819     7098.441    8337.2882   -739.35703   -509.40731   -780.37835   -3582.3152 
 6813000    228.61221   -4868.9627     -4411.71   -4868.9627            0    8518.1667    18.003724    22.916476    19.207323    7924.5938    9117.5509    8726.6918    7710.2575   -563.62338    1179.0226    82.032395   -3427.2479 
 6814000    222.70569    -4894.368   -4448.9291    -4894.368            0    6637.0019    17.876859    22.719364    19.571049    7948.7986    6795.8605    6794.9014    6320.2436   -752.87761    8.2129111    335.80657   -3679.5342 
 6815000    224.60786   -4913.3695   -4464.1261   -4913.3695            0    8292.1879    17.986031    22.851516    19.289392    7928.0961    8702.6622    8926.3922    7247.5092    35.574158    114.87917    1362.4745   -3505.3572 
 6816000    232.86409   -4877.2184   -4411.4615   -4877.2184            0    6207.4514    18.021346     22.96237    19.223492    7954.9272    6128.3452    6950.0872    5543.9217   -1060.5591    1218.6507    1255.6155   -3691.3074 
 6817000    233.06345   -4908.7374   -4442.5817   -4908.7374            0      8839.14    17.747937    22.866216    19.382896    7866.1253    11559.807    9153.6571    5803.9559   -725.30256    234.80559    949.79006   -3428.5612 
 6818000    241.40488   -4916.3893   -4433.5497   -4916.3893            0    7820.5806    17.890134    23.025644    19.178326    7900.1634    8891.1163    7164.8486     7405.777   -396.42696   -395.01925    444.57272   -3532.4954 
 6819000    224.05764   -4920.8901   -4472.7471   -4920.8901            0    6446.8027    17.929088    22.885923    19.294505    7916.9934    6683.5287    5926.7054    6730.1741    497.86913    673.37337   -56.676357   -3728.3914 
 6820000    226.66649   -4886.5841   -4433.2231   -4886.5841            0      8218.42     18.01123    22.695565    19.354125    7911.4831    6792.6997    9115.7523     8746.808   -511.08624    473.59168   -1409.4395   -3484.9747 
 6821000    233.27085   -4904.9523   -4438.3818   -4904.9523            0    6244.5687    18.068611    22.752453    19.334032    7948.3218    6675.6359    6552.8716    5505.1985    285.46503    270.35726    554.14944   -3714.5231 
 6822000     241.2602   -4876.3154   -4393.7652   -4876.3154            0     7269.091    18.020278     22.78691    19.396633    7964.7704    6765.9728    7677.3426    7363.9576    321.57292    317.57142   -1490.0749   -3549.4021 
 6823000    223.89284   -4921.4079   -4473.5945   -4921.4079            0    7612.5407    17.872549    22.750379    19.465818    7914.9426    7330.2592     8278.991    7228.3719    1270.5503   -204.88774   -836.53485   -3594.8689 
 6824000    209.60258   -4888.9418   -4469.7107   -4888.9418            0    8270.6254    18.012345    23.023037    19.089677     7916.468    7345.4866    7299.9192    10166.471    800.76853   -371.79058   -691.98122   -3514.8376 
 6825000    221.88855   -4891.6323   -4447.8278   -4891.6323            0    7667.4281    17.863609    23.072313    19.266355    7940.7201    7832.3835    7560.2043    7609.6964    88.918971    954.18746    1253.2813   -3559.8839 
 6826000    237.05845   -4902.7429   -4428.5968   -4902.7429            0    7631.4113    17.831187    23.125218    19.174276    7906.5144    7811.8663    7661.1353    7421.2325   -881.19433    756.36565    1159.1118   -3548.6309 
 6827000      231.096    -4936.491   -4474.2705    -4936.491            0    9366.5116    17.855023    22.995084    19.133092    7855.6218    10171.479    7791.5509    10136.505   -1.6698563  -0.56795878    2054.2565    -3401.185 
 6828000    247.02049   -4895.6666   -4401.5951   -4895.6666            0    6672.4765    17.921483    22.936468     19.36161    7958.6966    6561.9971    6436.5577    7018.8747    377.66629    -887.9207    103.22571   -3627.1246 
 6829000    227.44269   -4909.4317   -4454.5182   -4909.4317            0    7507.7706    17.892729     22.91296    19.322027    7921.5555    7368.8029    6912.1738    8242.3351    184.91539   -685.50958   -292.62929   -3587.1623 
 6830000    241.74315   -4889.2451   -4405.7289   -4889.2451            0    8102.5401    17.837092    23.236984    19.052463    7896.8695    7450.6456    7797.5474    9059.4274    1088.9922   -517.24474    2534.2337   -3472.5777 
 6831000    225.42137    -4884.416   -4433.5454    -4884.416            0    8575.3946    17.910578    22.781664    19.392539    7912.7915    7374.5818    9989.5786    8362.0235    919.60872    708.06581   -1221.5347   -3443.9454 
 6832000    227.51726   -4929.4396    -4474.377   -4929.4396            0    7367.9818    18.026195    22.631764    19.402828    7915.6666    7725.6788    8411.7014    5966.5651    1280.2908    393.52037   -726.36451   -3623.8034 
 6833000    230.17289   -4896.0307   -4435.6565   -4896.0307            0     6594.769    18.191133    22.484588    19.456464    7958.0852    6597.5519    6620.1034    6566.6517   -30.435442    188.26222   -281.34988   -3670.2642 
 6834000    241.55544   -4888.0488    -4404.908   -4888.0488            0    7720.4254    18.132879    22.519983    19.390692    7918.2304    7895.1364    7902.0793    7364.0605   -65.084641   -1718.6474   -979.98712    -3513.359 
 6835000    226.94212   -4909.9486   -4456.0364   -4909.9486            0    7846.7545    17.988705    22.778157    19.322853    7917.5304    8338.0346    7622.2086    7580.0203    81.755514   -202.36505   -1017.7074    -3549.979 
 6836000    220.65408   -4896.8775    -4455.542   -4896.8775            0    8003.8086    17.893273     22.95603    19.297656    7926.6764    7939.6001     7978.772    8093.0536   -500.06784   -444.70602   -1928.8716   -3530.2822 
 6837000    227.86737   -4913.6502   -4457.8873   -4913.6502            0    6151.1233    17.876862    23.182241    19.201418    7957.5618    8369.1312     5034.561    5049.6776    643.53123   -90.906508     1427.916   -3744.0318 
 6838000    233.48319   -4908.7523   -4441.7571   -4908.7523            0    6395.8662    17.767954    23.142795    19.365343    7963.0316    6726.2337    5554.7813    6906.5835   -762.05094    854.29926   -2283.5259   -3698.9883 
 6839000    222.68132   -4917.7199   -4472.3298   -4917.7199            0    8619.1122    18.013458    22.951466    18.988461    7850.4996    6935.2637    8760.1902    10161.883    143.66772   -925.89883    2374.8786   -3485.5148 
 6840000    221.96185   -4895.7553   -4451.8042   -4895.7553            0    5807.4049    17.987608    22.943708    19.318533     7972.805    5187.4698    5431.4355    6803.3094    541.35797     359.5433    409.47255   -3776.5472 
 6841000    216.75246   -4883.2684   -4449.7367   -4883.2684            0    8001.3026    17.874046    22.732321    19.490297    7919.2695    11143.556    7231.2329    5629.1183     553.5127   -568.20347    2686.0249   -3525.6308 
 6842000    228.89628   -4903.9552   -4446.1343   -4903.9552            0     9268.805    18.090635    22.529457    19.310592    7870.4601    7906.4304    10532.096    9367.8887    64.118772   -25.838851    455.11476   -3382.2369 
 6843000    242.17183   -4907.7676    -4423.394   -4907.7676            0    7374.5868    18.078295    22.685638    19.361513    7940.4983    6029.0394    8636.5579     7458.163    58.617247    64.448523   -63.026812   -3569.3872 
 6844000    234.02315   -4913.2121   -4445.1369   -4913.2121            0    7713.0677    17.868822    22.851942    19.391889    7918.4313    10150.323    6593.6408    6395.2394   -1501.8022    377.59318    106.33144   -3554.4149 
 6845000    221.02216   -4919.4492   -4477.3776   -4919.4492            0    8771.5761    17.879399    23.064476    19.107129    7879.3783    7347.7411    8602.2251    10364.762   -156.04402    1131.7802    134.63063   -3469.4125 
 6846000    227.65831   -4889.4967   -4434.1519   -4889.4967            0    5498.4638    17.976933    23.230339    19.114886    7982.5724    6112.0708    4953.9616    5429.3592   -901.89557   -321.30392   -185.71133   -3794.0338 
 6847000    225.30079   -4897.9724    -4447.343   -4897.9724            0    6839.9062    17.898119    22.924387    19.352072    7940.2207    6325.9819    7091.5895    7102.1471    1096.5634    777.67179   -10.661511    -3655.282 
 6848000    219.03271   -4884.8178   -4446.7253   -4884.8178            0    6565.5235     18.07416    22.940033    19.212012    7965.7194    5979.7138    6659.1943    7057.6625    256.22817    418.83197   -857.29758   -3683.9963 
 6849000    227.97934   -4906.3819   -4450.3951   -4906.3819            0    6351.2264    17.922033     22.68429     19.52409    7937.4918    6606.7961    7014.0926    5432.7904    958.61487   -274.41632   -205.25358    -3715.176 
 6850000    214.73564   -4871.6616   -4442.1638   -4871.6616            0    6961.9529    18.133185     22.64243    19.287028    7918.8558    6273.3287     7391.009    7221.5209    252.11822   -931.79177    -1351.345   -3638.1391 
 6851000    212.36806   -4903.8413    -4479.079   -4903.8413            0    6507.1581    18.071479    22.992307    19.105529    7938.4428    4736.5115    6458.9827    8325.9802    401.64723   -1196.2761   -767.56939   -3725.7189 
 6852000    225.34382   -4889.5126   -4438.7971   -4889.5126            0    6170.5969    17.869199    22.996149    19.390664    7968.0647    6291.0239    6461.7032    5759.0637    169.45173    258.53622    1171.6757   -3721.7364 
 6853000     231.8848   -4893.2728   -4429.4746   -4893.2728            0    6885.1622    18.022983    23.095364    19.149148    7970.7822    5263.4072    6450.1784    8941.9012    1226.2616    731.76873    1033.5526   -3629.1042 
 6854000    238.64092   -4901.7495   -4424.4382   -4901.7495            0    8600.3399    17.836909    22.996496    19.240856    7892.3375    9598.7481    7725.2372    8477.0345    -654.7071    268.67544   -402.21071   -3434.5249 
 6855000    240.05081   -4879.5385   -4399.4073   -4879.5385            0    6833.7455    17.954035    23.039222    19.214483    7948.0134    7680.7508    6101.2963    6719.1894    389.42594   -1015.7406    1155.3458   -3607.2831 
 6856000    218.97879   -4908.1014   -4470.1167   -4908.1014            0    7307.3829    17.903208    23.074215    19.245649    7950.4251    7582.7723    6218.6861    8120.6904    226.97643   -1034.7504   -735.58232   -3622.8345 
 6857000    233.77452   -4902.2537   -4434.6758   -4902.2537            0    8004.0108    17.885617    22.969486    19.190489    7883.9024    6845.3752    9123.1853    8043.4718   -1018.8461    205.16274    570.37051   -3514.3856 
 6858000    226.76707   -4869.1097   -4415.5475   -4869.1097            0    8385.9132    17.868285    22.999339    19.210656    7894.7867    9205.6351    8595.7947    7356.3097    465.92591    685.34124    1195.9782   -3450.0156 
 6859000    225.77306   -4894.9224   -4443.3484   -4894.9224            0    6036.4552    17.844486    23.116338    19.212647     7925.201    6382.5297    5784.1229    5942.7131   -1074.3527   -2046.5035    449.20564   -3745.6493 
 6860000    236.87499   -4895.2845   -4421.5052   -4895.2845            0    7050.9241    18.039622     22.88383    19.223321    7935.6875    5382.5678    7859.3888    7910.8155    274.91414   -377.47586    944.27782   -3605.4746 
 6861000    242.87807    -4884.336   -4398.5498    -4884.336            0    6923.1123    17.853627    22.850699    19.465674    7941.3695    6878.5222    7590.2715    6300.5432    1013.1106    607.21497   -734.32001   -3596.7376 
 6862000    233.85346   -4900.9615   -4433.2257   -4900.9615            0    7741.1515    18.004915    22.948718    19.102799    7893.0802     7233.254    6490.6474    9499.5531   -862.06258    130.08805    87.535655   -3542.1226 
 6863000    229.77535   -4914.7481    -4455.169   -4914.7481            0    8753.1987    17.923164    22.827333    19.249587    7875.7382    6962.0925    10061.056    9236.4471      190.235    470.31456   -695.85778   -3449.7804 
 6864000    232.57663   -4889.7718   -4424.5898   -4889.7718            0    7500.6521    17.993947    22.647043    19.475754    7936.5582    6797.3945    7831.5837    7872.9781    443.05932   -692.06574    1964.5281   -3556.4151 
 6865000    228.12088   -4900.5406   -4444.2707   -4900.5406            0    6000.0728    18.202039    22.615924    19.388409    7981.3535    5841.8362    6373.1591    5785.2231   -75.298325   -717.79837   -969.31688   -3745.8631 
 6866000    220.96954   -4908.7869   -4466.8206   -4908.7869            0    8622.6445    17.974711     22.74462    19.330894    7903.0103    7879.1682    9109.3503    8879.4151   -260.63133    1000.2587    418.79321   -3472.9978 
 6867000    217.55373   -4904.7357   -4469.6014   -4904.7357            0    8192.0938     17.93769    22.749862    19.323458     7885.516    9012.5965     7918.795      7644.89   -417.27658   -612.32657   -1415.5241   -3527.4929 
 6868000    222.21975   -4898.2749   -4453.8079   -4898.2749            0    8399.3778    17.986823    23.166681     18.96052    7900.7538    7103.4781    7688.1902    10406.465    137.40474    950.51744    1339.7462   -3485.9947 
 6869000    224.40789   -4919.6959   -4470.8524   -4919.6959            0    6725.4215    17.754629    23.203441    19.249298    7930.1042    7543.5667    6235.6667     6397.031   -28.314728    1.1133608   -386.88093   -3693.0411 
 6870000    227.83266    -4904.056   -4448.3626    -4904.056            0    6534.2905    17.967924    22.905493    19.322318    7952.3735    6077.9591    6349.8391    7175.0734   -278.57682    430.38171    952.26504   -3690.5338 
 6871000    225.63507   -4917.3068   -4466.0088   -4917.3068            0    7785.7306    18.070864    22.730609    19.291887    7924.3691    7250.2928    8046.7849     8060.114   -1068.5873   -756.79828    513.15321   -3566.2213 
 6872000    232.52606   -4886.0199    -4420.939   -4886.0199            0    6716.8265    18.131952    22.559244    19.474808    7966.0363    7094.0643    8247.9828    4808.4323    -1135.238    -12.66465    550.60897   -3640.6019 
 6873000    233.03317   -4911.2054   -4445.1103   -4911.2054            0    7282.5389    18.114678    22.725571    19.336038    7959.9971    6661.2402     7893.718    7292.6584    -1134.197    863.26425   -923.59556   -3599.6921 
 6874000    234.04896   -4894.8374   -4426.7106   -4894.8374            0    6477.7692    17.656625    23.106386    19.520395    7963.9461    8371.1467    5860.1188    5202.0421   -331.25657    704.90284     456.3095   -3674.3437 
 6875000    238.49305   -4894.3309   -4417.3153   -4894.3309            0    7681.5858    18.094369    22.987314    19.058679     7927.285    7509.6811    7758.5752     7776.501   -683.02055   -206.79102   -278.90799    -3529.237 
 6876000    231.17131   -4929.0043   -4466.6332   -4929.0043            0    5681.1337    17.981153    22.880969    19.376882    7972.1572    5850.7813    5491.2363    5701.3835    838.46442    286.17357    504.75174    -3806.112 
 6877000    223.02124   -4899.2336   -4453.1636   -4899.2336            0    6430.0374      17.8314    22.889468    19.479364     7950.527     8277.528    6605.3333    4407.2509     385.5147    -464.5516    26.949804   -3707.5989 
 6878000    216.49686   -4894.4491   -4461.4286   -4894.4491            0    7528.2907    18.159952    22.741252    19.252297    7950.8144    7418.7083    7248.1411    7918.0228   -32.669469   -179.37681    1601.1979   -3588.4896 
 6879000    246.25476   -4894.8429   -4402.3029   -4894.8429            0    7518.4051     18.02441    22.771904    19.316003    7928.2562    8231.5636    7920.0622    6403.5894    574.83655   -865.38573    1045.1561   -3532.9837 
 6880000    223.03236   -4919.1877   -4473.0954   -4919.1877            0    7724.4151     17.84367    22.698581    19.508992    7901.6488    7900.6844    8692.8558     6579.705   -629.11035   -47.056111   -1214.9075   -3582.9536 
 6881000    223.21288   -4919.0194   -4472.5661   -4919.0194            0    8437.5212    18.075196    22.696628    19.199981    7876.7153    7501.6121     9335.034    8475.9175   -626.90317   -425.63341    469.15982   -3503.3159 
 6882000    235.71627    -4887.342   -4415.8803    -4887.342            0    6025.4088    18.077619    22.891537    19.205099    7947.5405    4248.4234    6950.6993    6877.1038    1013.2437   -1111.7878   -619.97178   -3717.4949 
 6883000    231.48342   -4887.5025   -4424.5071   -4887.5025            0    7173.8497    17.922712    22.896454     19.33365    7933.8832    7726.8036    6771.3979    7023.3475    827.66337   -536.19923   -483.32151   -3594.4385 
 6884000    222.26046   -4914.2428   -4469.6945   -4914.2428            0    7190.3384    18.022969    22.938125    19.225737    7948.1719    6606.9543    7831.1602    7132.9008    139.30188    634.99445    635.86559   -3636.2197 
 6885000    226.29418   -4910.0616   -4457.4453   -4910.0616            0    6693.0687    17.953739    22.976125     19.22158    7929.0427    6471.2806    6574.6946    7033.2309   -235.80028    68.933779    419.03348   -3683.4792 
 6886000    234.68752   -4892.7615   -4423.3575   -4892.7615            0    7435.2886    17.937128    22.793443    19.360974    7915.7129    7923.8482    7127.5464    7254.4712    839.64602    1945.6275    215.11886   -3565.0088 
 6887000    232.88725   -4916.1325   -4450.3293   -4916.1325            0    8613.8546    17.987828    22.796338    19.195078    7871.0683    8944.3338    9190.0261    7707.2038    1127.5438    451.98587    1615.1586   -3461.5324 
 6888000     219.8115   -4870.0418   -4430.3917   -4870.0418            0    7763.5715    17.866146    23.005985    19.299478    7932.6316    7321.9542    7675.7285    8293.0319   -1376.9115   -176.27343    50.230936   -3532.2295 
 6889000    217.56372   -4896.8419   -4461.6876   -4896.8419            0    8101.1378    17.810086    23.056942     19.23038    7896.8805    8778.0157    7659.8548     7865.543   -1668.6432   -957.69928   -317.58677   -3528.6965 
 6890000    236.84202   -4901.5211   -4427.8078   -4901.5211            0    6571.2557    17.904331    22.868789    19.351475    7923.4688    5410.8727     7090.287    7212.6074   -446.44237   -164.73145   -715.61016    -3668.462 
 6891000    224.31102   -4896.2284   -4447.5786   -4896.2284            0    8508.8871    18.024291    22.709882    19.314915    7906.1652    6855.6783    9766.4957    8904.4872    -691.5223    402.21956    448.54876   -3466.4758 
 6892000    232.99618   -4905.4455   -4439.4243   -4905.4455            0    7847.3946    17.957278    22.505875    19.567527    7908.1037    8320.9075     8223.975    6997.3012   -1686.4365    649.98642   -2646.4701   -3534.3719 
 6893000    230.92198   -4919.3359   -4457.4634   -4919.3359            0    6207.6353    18.095604    22.728323    19.384935     7972.689    6526.5086    6050.4782    6045.9191   -387.11943    203.83702   -143.42533     -3735.68 
 6894000    231.88239   -4907.1605    -4443.367   -4907.1605            0    8473.8413    17.963638    22.902186    19.221742    7907.9512    9011.2407     8282.912    8127.3711    296.97987    735.73523   -483.45689   -3466.0844 
 6895000    236.74218   -4915.7333   -4442.2197   -4915.7333            0    7320.6937    17.665977    23.331002    19.154364    7894.7571    9347.2337    6405.8755     6208.972    793.16696    679.10986   -803.64837   -3599.3374 
 6896000    227.66506   -4905.9536   -4450.5953   -4905.9536            0    8093.0716    18.011196      22.9266    19.125413    7897.5619    7769.8698    8266.6754    8242.6696   -319.43819    697.93449    230.13502   -3518.4528 
 6897000    220.00483   -4911.3448    -4471.308   -4911.3448            0    8532.4419    18.062556    22.741686    19.221039    7895.4836    9433.3266      7250.35    8913.6492    83.880148   -183.00727   -395.75478   -3488.8184 
 6898000    232.70673   -4914.5417   -4449.0995   -4914.5417            0    9426.4706    17.970121    22.273532    19.678661    7876.5429    10518.459    11623.906     6137.047   -1037.1724    267.98339    1316.9255   -3366.2686 
 6899000     230.2619    -4879.925   -4419.3728    -4879.925            0    6953.4419    18.124694    22.770094     19.26777    7951.8277    6890.9815    6357.8265    7611.5178   -187.72848   -756.83744     127.3569   -3612.9873 
 6900000    225.38234    -4909.776   -4458.9835    -4909.776            0    7332.6664    18.088941    22.733583    19.256683    7918.8576    7550.5645    7244.2735    7203.1611   -864.48008    897.85359   -122.72725   -3612.1454 
 6901000    231.51143    -4861.685   -4398.6335    -4861.685            0    9234.8322     17.77628    22.828544    19.469046    7900.6674    9185.0613    10422.054    8097.3815    178.61421    968.79385     493.1079   -3334.5673 
 6902000    225.79518   -4889.9799   -4438.3616   -4889.9799            0    7809.8383    18.004228    22.939706      19.1431    7906.3244     7688.912    8068.8832    7671.7197    187.67225    174.09811   -229.32095   -3537.8433 
 6903000     229.4895   -4887.6291   -4428.6218   -4887.6291            0    8031.8191    17.895615     22.82328     19.28293    7875.8554    9246.0943    7793.3807    7055.9822   -403.73931    315.65545   -577.52451   -3506.0768 
 6904000    220.04677    -4889.737   -4449.6163    -4889.737            0    8145.3573    18.059954    22.723272    19.327678    7931.7165    8589.6509    8310.8305    7535.5906    -804.5334    921.98272   -838.28617   -3507.3943 
 6905000    229.08359   -4912.9555     -4454.76   -4912.9555            0    7996.5404    17.931896    22.815053    19.294961    7893.8995    7699.5257    7488.8992    8801.1962   -684.84754    177.65066    1166.7663   -3534.1629 
 6906000    220.64606   -4908.0793   -4466.7599   -4908.0793            0     7455.472    17.991142    22.889589    19.232756    7920.2385    7147.8379    6546.8601    8671.7178    910.15132   -594.32063    157.97723   -3605.5891 
 6907000    223.89922    -4900.638   -4452.8119    -4900.638            0    7506.4139    17.942582    22.901152    19.306318     7933.078    7320.8146    6491.4192     8707.008    516.46156   -1477.8189    277.68069   -3584.3513 
 6908000    218.66849   -4912.4433   -4475.0793   -4912.4433            0    6003.3768    18.128277    22.556783    19.395621    7931.1722    5098.1836    6755.3507     6156.596   -432.45067   -731.93761    352.82363   -3780.6807 
 6909000    219.11346   -4906.2318   -4467.9779   -4906.2318            0    7587.2066    17.963327    22.720181    19.402139    7918.5958    7987.2623    7673.3649    7100.9927    360.99503   -264.22151   -289.01511   -3591.7724 
 6910000    233.85029   -4906.1305    -4438.401   -4906.1305            0      5498.35    18.057163    22.807926    19.353032    7970.4773    6648.2331    4667.5347    5179.2821   -174.10204    -37.55419   -1012.8456    -3799.266 
 6911000    220.58005   -4913.6576   -4472.4702   -4913.6576            0    6817.9252    17.950451    22.993581    19.230721    7937.3867    6022.9893    6445.3122    7985.4741    1146.3678    218.47961    2169.5792   -3683.2364 
 6912000    229.71315   -4897.2832   -4437.8285   -4897.2832            0    7481.0635     17.92227    23.002704    19.162167     7899.808    6828.8262    7270.3726    8343.9917   -1289.9419    301.15152   -157.48082   -3575.9307 
 6913000      222.317    -4887.211   -4442.5496    -4887.211            0    8847.8812     17.79766     23.03879    19.239524    7888.9081    8636.1556    7849.5652    10057.923   -2103.8365    1002.4725   -966.39849   -3424.5864 
 6914000    236.09391   -4918.5408   -4446.3238   -4918.5408            0    8809.0447    17.854744     23.13753    19.054036    7871.5022    8153.7262    7882.7287    10390.679   -701.51465    711.79925   -199.17155    -3435.065 
 6915000    224.66007   -4896.9334   -4447.5855   -4896.9334            0    8120.0108        17.76    23.102785    19.246437    7896.9185    8739.1513    7542.7404    8078.1406   -1044.7741   -296.78191     324.2259   -3512.4164 
 6916000    248.51815   -4902.0149   -4404.9479   -4902.0149            0    7661.4114    18.009472     22.82491     19.28004    7925.3415    7725.2495    8172.0488    7086.9358    940.40007    1146.6006    2481.2704   -3519.4191 
 6917000    229.64601   -4908.1423   -4448.8219   -4908.1423            0    8593.8556    17.953942    22.675102      19.3777    7888.8064    7311.6485    8880.7835    9589.1347     2440.426    330.39391    1458.6559   -3460.0976 
 6918000    223.42252   -4856.0352   -4409.1625   -4856.0352            0    9692.1632    18.024015     22.72347    19.194671    7861.5259    8123.9546    11139.338     9813.197   -74.128817   -267.02937   -77.029512   -3297.9338 
 6919000    244.37996   -4897.1655   -4408.3754   -4897.1655            0    7527.9527    18.025882     22.74357    19.302925    7913.6764    6980.8299    7827.8757    7775.1526    137.12315   -705.55471    404.94882   -3539.5529 
 6920000    237.36363   -4904.5123   -4429.7557   -4904.5123            0    8312.0282    17.894074    22.890296    19.331718     7918.284    10438.034    7935.3037    6562.7469    334.23581   -318.83742    177.07804   -3469.8822 
 6921000    232.51459   -4895.3314   -4430.2735   -4895.3314            0    7185.2744    18.149436    22.785263    19.121682    7907.5741    7685.1654    6904.1378    6966.5199   -229.36988    425.97361   -245.44826     -3601.64 
 6922000    228.57765    -4916.138   -4458.9545    -4916.138            0    8317.2324    17.891349    22.736807    19.382659    7884.7133    8959.2375    8730.2132    7262.2466    898.90887   -203.73104   -1567.5521   -3502.5521 
 6923000      221.772   -4913.5398   -4469.9684   -4913.5398            0    8246.8181     18.06651    22.788179    19.219641    7912.7815    5274.1154    8913.7895    10552.549     1120.137    340.07699    622.66863   -3518.2873 
 6924000    234.09508   -4921.0975   -4452.8784   -4921.0975            0    6904.5981    18.109943    22.714404    19.286569    7933.6565    7182.5402    7205.6128    6325.6413     38.80041   -1013.8444    150.03527   -3653.9871 
 6925000    226.04514   -4901.6702    -4449.552   -4901.6702            0    9134.1882      17.8279    22.879853    19.308832    7876.0676    8514.9789    9367.4316    9520.1541    1099.1217   -1027.2669   -140.32822   -3400.3593 
 6926000    226.73706   -4891.7563   -4438.2542   -4891.7563            0    10670.388    17.923327    22.996852    18.956844    7813.6338    9845.6073     10047.94    12117.617    1038.4862   -819.26413    1437.6493   -3222.3225 
 6927000    239.53165    -4890.596   -4411.5031    -4890.596            0    10426.051    17.749992    23.056853    19.144941     7835.239    10004.907    9870.0608    11403.184   -647.73681    11.647751   -718.21162   -3220.1295 
 6928000    244.69423   -4920.5137    -4431.095   -4920.5137            0    8530.1145    18.002592    22.805771    19.232542    7896.1701    8470.1545    7591.2482    9528.9409    569.24917   -1908.7288    166.77626    -3448.788 
 6929000    232.12654   -4890.8489   -4426.5671   -4890.8489            0    8669.7632    17.999782    22.617724    19.423696    7907.6606    9198.1445    7864.9014    8946.2436   -637.23052   -231.52832   -8.8167396   -3426.7256 
 6930000    232.89053   -4901.5353   -4435.7255   -4901.5353            0    7618.6984    17.990462    22.676817    19.357835    7897.3466    8097.8423     8152.879    6605.3741   -982.61589   -609.15489   -724.97509   -3558.2441 
 6931000    226.73982   -4908.2585   -4454.7508   -4908.2585            0    7792.3023    18.204947    22.450197    19.342939    7905.5491    5936.4213    9038.1131    8402.3726   -987.94367    1258.0601   -1334.0969   -3556.3426 
 6932000    231.61702   -4903.6174   -4440.3548   -4903.6174            0    8192.2874     17.96339    22.797069    19.310899     7908.057    7719.1724    8375.8349     8481.855   -222.45488     245.9853    209.40493   -3495.5309 
 6933000    225.28117   -4913.9742    -4463.384   -4913.9742            0    7606.9808    17.899417    23.041259    19.172627    7907.2727    8023.8629    6761.9171    8035.1624    -1286.927    177.02723   -999.00253   -3586.1511 
 6934000    219.40738   -4903.2842   -4464.4423   -4903.2842            0    7827.7189    17.825928    23.174695    19.128738     7902.281    8710.0172    6886.3082    7886.8312   -44.286591   -732.59617    1979.7092   -3562.3238 
 6935000    231.05475   -4876.0454   -4413.9074   -4876.0454            0    8814.5735    17.850105    23.041055     19.22992    7908.9824    9921.0815    8591.7282    7930.9107   -654.57762    -268.7736    1276.7469   -3397.1957 
 6936000    242.54177   -4902.6705    -4417.557   -4902.6705            0    9477.2465    17.845267    22.807206    19.292326      7851.99    10111.441    9067.4948    9252.8039   -1729.9091   -883.56338   -281.40745    -3332.287 
 6937000    217.99946   -4892.7528   -4456.7269   -4892.7528            0    8382.4854    17.909294    22.758297    19.340853    7883.0424    9578.3372    7519.5277    8049.5912   -290.44364   -210.70446   -396.30516   -3493.0253 
 6938000    237.76989   -4889.0875   -4413.5184   -4889.0875            0    10213.204    18.041252    22.594424    19.204341    7828.2981     9779.049    10982.671    9877.8932   -1149.3964   -249.19071    -1077.464   -3247.5004 
 6939000    227.36939   -4920.4434   -4465.6766   -4920.4434            0    7489.4901    17.935311    22.671484    19.405593    7890.7043    8336.9417    7461.3814     6670.147   -383.05132   -564.86607    14.619159   -3603.8023 
 6940000    231.60795   -4865.9892   -4402.7447   -4865.9892            0     7868.912    18.089825    22.708438    19.305214    7930.4214    7631.8246    7492.9529    8481.9586   -551.28612   -468.37673    2001.1019   -3492.6495 
 6941000    238.20279    -4906.943    -4430.508    -4906.943            0    7609.9451     18.01883    22.818071    19.253254    7916.0705    8430.9945    6977.0849    7421.7559    182.95726   -85.912408    174.39737   -3551.9568 
 6942000    235.23592   -4899.8342   -4429.3332   -4899.8342            0    8887.4568    17.884824    22.855175    19.284182    7882.6177    9716.0731    8108.1929    8838.1044    916.10053    345.30751    402.52079   -3407.6322 
 6943000    229.28251   -4896.8526   -4438.2592   -4896.8526            0    9483.2824    17.999663    22.676413    19.271996     7866.208    9749.1265    8596.4388    10104.282    1142.3765    112.72949   -528.93939   -3350.3316 
 6944000    232.18467   -4902.2827   -4437.8847   -4902.2827            0    6739.3886     17.91266      22.8382    19.333438    7909.1729    5944.1254    7300.2728    6973.7676    1082.0157   -917.62056   -2769.1922   -3660.5153 
 6945000    229.35087    -4899.604   -4440.8739    -4899.604            0    6210.9346    17.983187    22.853033    19.328611     7943.486    5090.4679    6776.0104    6766.3254    205.18771   -1122.1643   -2192.5985   -3721.3521 
 6946000    222.66206   -4894.7672   -4449.4156   -4894.7672            0    7105.0721    17.926555    22.992691     19.29998    7955.0604    9053.2739    5902.6834    6359.2591   -50.828873   -259.80017   -385.50902   -3625.1107 
 6947000    227.25816   -4901.0674    -4446.523   -4901.0674            0    5510.6774    17.949226    22.984707    19.320146     7970.675    5664.3531    5923.3029    4944.3761   -1555.0925    372.58648    203.93284   -3805.9392 
 6948000    221.68176   -4887.8187   -4444.4278   -4887.8187            0    6214.4837    18.031075     23.01143    19.179301    7957.8917    5845.1981    5317.8376    7480.4155   -960.32015    8.1514161   -384.21843   -3723.1892 
 6949000    229.11645   -4877.8697   -4419.6085   -4877.8697            0     7809.301    17.882405    23.040541    19.225723    7921.3877    9118.9708    6409.6084    7899.3238    1114.3447    22.532376    1133.6616   -3517.4366 
 6950000    223.17391   -4896.9058   -4450.5304   -4896.9058            0    7109.0819    17.946662    22.878365    19.326381     7935.224    7418.3502    6284.4829    7624.4127   -756.94089   -461.87502   -949.12911   -3627.8169 
 6951000    226.15235   -4891.7503   -4439.4176   -4891.7503            0    7893.8631    18.111108    22.561294    19.373701    7916.2885    6756.3797    8804.9785    8120.2311   -502.77998   -1296.3283     1156.119   -3528.0636 
 6952000    241.23976   -4920.0743    -4437.565   -4920.0743            0    7691.3178    18.038985    22.466921    19.478767    7894.3634    8411.1903     8271.508     6391.255    224.42963   -1127.2837     1792.089   -3552.0544 
 6953000     230.3464    -4927.521   -4466.7998    -4927.521            0    7048.1662    18.100203     22.54175    19.436052    7930.1085    6307.3826    7909.4275    6927.6883   -980.99573    -834.5518   -298.83291   -3651.6618 
 6954000    218.85901   -4917.1889   -4479.4439   -4917.1889            0    7831.7926    17.931328    22.803524    19.325032    7901.9566     7626.673    8902.5953    6966.1094   -398.71785    585.42598   -1324.5298    -3576.893 
 6955000    227.41626   -4922.3931   -4467.5325   -4922.3931            0    7115.4852    17.978227    22.883476    19.238641    7914.8601    6311.0801    6968.8035    8066.5721    115.79817    946.46395    1036.3627   -3646.1912 
 6956000    224.26821   -4908.1158   -4459.5516   -4908.1158            0    8209.4142    17.961127    22.847603    19.258977    7903.2813    6808.3017    8707.8943    9112.0467   -708.28013    -154.1192    952.68252   -3513.3243 
 6957000    231.56473   -4904.4338   -4441.2758   -4904.4338            0    8116.2954    17.847286    22.883224    19.374569    7912.6407    9040.9761    7670.0393    7637.8708   -2124.9619   -859.52782    -1146.864   -3504.6736 
 6958000    238.78889   -4895.0641   -4417.4569   -4895.0641            0    7330.0818     18.05115    22.823977    19.225025    7920.6916     5189.086    8371.8988    8429.2607    156.14667    51.053741    2602.7305   -3570.7213 
 6959000    237.69727   -4914.2875   -4438.8636   -4914.2875            0    8010.9525    17.858188    22.886083    19.350568     7908.654     9138.383    7653.6029    7240.8716    260.08625   -854.77376    296.93381   -3514.8835 
 6960000    223.79102   -4881.8226   -4434.2129   -4881.8226            0    6925.1073    18.028869    22.770959    19.384724    7958.1009    5731.1177    8049.4389    6994.7654   -649.05987   -104.72387    331.30404   -3630.4799 
 6961000    230.99533    -4902.851   -4440.8318    -4902.851            0    7431.1598    18.026155    22.793209    19.315426    7936.2044    8909.5149    6488.8782    6895.0862    1074.5379   -773.32964   -1852.5492    -3580.739 
 6962000    231.56805   -4912.0254   -4448.8607   -4912.0254            0    8726.2622    18.017597    22.628088    19.381044    7901.7247    9594.0991    9230.5408    7354.1468    991.09608    746.56321    85.496749   -3443.2588 
 6963000    227.19895   -4899.3433   -4444.9174   -4899.3433            0    8017.1146    18.013007    22.805144    19.262801    7912.9512    8167.7125    6879.2346    9004.3966   -365.41323   -565.65113   -1116.9949   -3519.7241 
 6964000     230.2541   -4906.5959   -4446.0593   -4906.5959            0    8016.8423    17.921506    23.018375    19.155298    7902.0191    9039.3624    7859.0532    7152.1114     1216.425   -527.01228    173.61486   -3522.1756 
 6965000    211.53898   -4906.3131    -4483.209   -4906.3131            0    8195.8803      17.8416    23.203351    19.084752    7900.7993     8409.059    7745.9722    8432.6096    527.69684     58.25919   -2074.0942   -3538.8383 
 6966000    223.67742   -4898.2439   -4450.8615   -4898.2439            0    7351.0734    17.898119    23.105783    19.184037    7933.5595    5489.2375    7319.8376     9244.145   -127.61129   -139.01157   -782.46762   -3600.3215 
 6967000    226.78225   -4929.1569   -4475.5644   -4929.1569            0    7168.5337    17.752042    23.053412    19.330497    7910.9121    8673.7814    5205.8821    7625.9376    445.83674   -2082.0613    1063.2928   -3648.5125 
 6968000    227.50439    -4883.261   -4428.2241    -4883.261            0    7608.0322    17.932431    23.222838    19.070162     7941.615    8268.5412    6312.0218    8243.5337     199.6871   -580.25324   -1273.2216   -3547.0594 
 6969000    228.69222   -4909.6994   -4452.2867   -4909.6994            0    7510.5451    17.874783    23.074444    19.195157    7917.0557    8487.2568    7274.7703    6769.6083    1778.5298    583.26166    257.57559   -3585.1031 
 6970000    221.29679   -4915.8629    -4473.242   -4915.8629            0    8700.5895     18.01389    22.711626    19.227812    7866.5735    7227.9099    9941.8534    8932.0053    776.30635    925.74698    547.86943    -3475.059 
 6971000    220.36003   -4890.0316   -4449.2843   -4890.0316            0    7943.8996    18.048617    22.680011    19.326256     7911.064     6658.061    8870.5807     8303.057    604.63695    274.48918   -922.81722   -3532.7589 
 6972000    214.91871   -4912.2023   -4482.3383   -4912.2023            0    5860.6315    18.025807    22.774854    19.380539    7956.3918    5477.1739    6365.7759    5738.9447    262.00072   -195.74847    2103.2694   -3802.2952 
 6973000    226.81665   -4931.3723    -4477.711   -4931.3723            0    7003.7771     17.98892    22.705964    19.423611    7933.6862    7708.6821    7368.7102    5933.9389   -1616.1085    675.36991   -1121.6758   -3667.3413 
 6974000    231.38408   -4907.2545   -4444.4578   -4907.2545            0    7389.1935     18.06129    22.743732    19.274737    7917.6982    5086.2936    8516.9379    8564.3489    508.11684    433.88382   -1894.6451   -3591.2165 
 6975000    226.69891   -4914.0071   -4460.5813   -4914.0071            0    8758.3633    18.022257    22.770375    19.200204     7879.256    7274.1337    9907.3705    9093.5858    682.71272    1012.3503    916.95592   -3454.1501 
 6976000    229.42183   -4894.0307   -4435.1587   -4894.0307            0     9499.007    17.702174    22.788349    19.500707    7866.6498    10297.784    9523.5734    8675.6632   -1401.1375    -862.9771   -1751.2936   -3345.3659 
 6977000      238.731   -4867.5233   -4390.0319   -4867.5233            0    8485.2862    17.922744    22.927944     19.30034     7931.121    9841.7191    7904.6727    7709.4667    -571.6267   -369.30834    894.42257    -3408.562 
 6978000    228.00972   -4880.7431   -4424.6955   -4880.7431            0    8206.2235    17.977813    22.953999    19.208364    7926.5753    9967.2426    6921.4672    7729.9609   -1302.9899    751.67632   -754.25711   -3476.0481 
 6979000    234.29338   -4905.4799   -4436.8642   -4905.4799            0    8153.1288    17.960244    22.795045    19.345272     7920.043    8486.7253    7548.4991    8424.1619    227.26113    213.37944    1087.8103   -3495.1314 
 6980000    236.74849   -4889.2426   -4415.7164   -4889.2426            0    6238.1412    18.064057    22.913532    19.315746    7995.0067    6093.6498    6915.0378    5705.7359   -460.12134    921.82242   -2943.9093   -3688.3555 
 6981000     241.7146   -4906.1398   -4422.6808   -4906.1398            0     8442.868    18.041192    22.890881    19.145538    7906.7005    7153.0131    8543.7685    9631.8224   -211.15376    279.25974    1055.6395   -3449.1242 
 6982000    232.03066   -4901.7975   -4437.7076   -4901.7975            0    7635.0877       17.842    22.840789    19.386328    7900.4203    7939.7307    8253.1194    6712.4132   -503.33269    228.76771   -1687.4354   -3557.9964 
 6983000     223.4708   -4900.2642    -4453.295   -4900.2642            0    7881.8773     17.78965    22.796681    19.493857    7905.6359    11266.699    7459.7668    4919.1659    87.006725   -744.46545   -806.75979   -3544.5493 
 6984000    231.71964   -4884.3992   -4420.9313   -4884.3992            0    8590.3743    18.033376    22.846303    19.153657    7891.2296    8187.5966    8481.8759    9101.6502    78.613152   -1001.9073   -754.33985   -3432.3038 
 6985000    217.53207   -4895.6284   -4460.5374   -4895.6284            0    7255.6571    17.894441    22.980227    19.258743    7919.5478    8082.9134    6113.4464    7570.6117    638.70955   -135.28228    -240.7752     -3622.52 
 6986000    227.94522    -4904.483   -4448.5644    -4904.483            0     8399.694    17.878686    22.763169    19.405397     7897.522    10569.797    7983.4677    6645.8171    74.231996   -233.61146    705.08209   -3481.1107 
 6987000    229.36631   -4912.2965   -4453.5355   -4912.2965            0    5832.6205    18.092895    22.901635    19.250242    7976.4701    6300.8802    5985.9963    5210.9851     -382.708    532.28981    1416.4489   -3775.0347 
 6988000    228.75319   -4889.3346      -4431.8   -4889.3346            0    6798.5983    18.064406    22.842347    19.289405     7959.453    7870.7339    5988.4148    6536.6461     1715.399    1243.8278    2460.7021   -3642.6156 
 6989000    227.30379   -4896.4691   -4441.8334   -4896.4691            0    8066.7852    17.834847    22.753984    19.448805    7892.5938    8127.9603    8102.2588    7970.1365    193.99133    1157.2356   -433.46235    -3513.303 
 6990000    240.06656   -4903.2249   -4423.0621   -4903.2249            0    8507.8339    17.974592    22.850984    19.220202    7894.4501    8932.7628    8567.3892    8023.3496   -1216.2324    91.015244   -467.99164   -3443.5343 
 6991000    223.84815   -4906.3752   -4458.6513   -4906.3752            0    8227.0493    17.906019    22.876721    19.241057    7881.7337    7748.9874    8336.5407    8595.6198   -393.71858    663.41236   -680.32674   -3512.9766 
 6992000    225.44594   -4899.7069   -4448.7872   -4899.7069            0    6970.7056    17.672465    23.030571    19.491767    7933.2849    8352.8183    6669.1351    5890.1633    1346.4427   -356.36779    2045.9258   -3642.2848 
 6993000    236.56609   -4885.2091   -4412.0477   -4885.2091            0    7370.1929    17.974218     22.88768    19.256882    7922.0529    7711.4146    7108.6183    7290.5459   -466.43381   -633.95589   -203.96006   -3560.5324 
 6994000    230.17347   -4879.4952   -4419.1198   -4879.4952            0    7902.2943    17.990631    22.806522     19.27373    7908.0833    7935.6152    7933.5708     7837.697    863.30061   -957.85779   -161.98251   -3507.7381 
 6995000    236.09324   -4890.4326    -4418.217   -4890.4326            0     6723.951    17.926936    22.843987    19.474121    7975.0944    6230.4101    6480.7233    7460.7196   -220.51592   -737.65308   -1312.7662   -3636.1638 
 6996000    221.34323   -4890.1984   -4447.4846   -4890.1984            0    6941.4084    18.110534    22.879754    19.230731    7968.5333    6250.8647    7520.2183    7053.1422    932.74024    987.26739   -1978.8356   -3640.8035 
 6997000    230.67122   -4908.3493   -4446.9784   -4908.3493            0    6498.4045    18.004281    22.819313    19.335157    7943.7586    7342.8175    6564.3948    5588.0011    588.27563    636.55465   -641.69413    -3694.128 
 6998000    232.76999   -4879.7088   -4414.1401   -4879.7088            0    8038.2632    17.969896    22.756067     19.33149    7905.1131    8536.5321    8355.7985    7222.4592     1296.822    367.25712    -794.5014   -3487.4251 
 6999000    219.05402   -4894.6565   -4456.5214   -4894.6565            0    7648.8168     18.00852    22.843094     19.25054    7919.1008    8099.3683    6819.3916    8027.6905    182.58524   -590.20611    786.76107   -3573.1445 
 7000000    228.14265   -4878.8541   -4422.5406   -4878.8541            0    5145.5542    18.177266    23.009749    19.190007    8026.3033    4984.9331    5115.3445    5336.3849    -1749.101   -1160.6668    -49.29445   -3820.2257 
Loop time of 442.6 on 64 procs for 250000 steps with 1008 atoms

Performance: 97.605 ns/day, 0.246 hours/ns, 564.844 timesteps/s
193.5% CPU use with 32 MPI tasks x 2 OpenMP threads

MPI task timing breakdown:
Section |  min time  |  avg time  |  max time  |%varavg| %total
---------------------------------------------------------------
Pair    | 36.845     | 40.151     | 43.263     |  25.0 |  9.07
Bond    | 0.95356    | 1.2265     | 1.4989     |   9.1 |  0.28
Kspace  | 210.25     | 216.92     | 224.41     |  23.9 | 49.01
Neigh   | 2.7908     | 3.0752     | 3.3618     |   9.9 |  0.69
Comm    | 69.119     | 77.743     | 84.102     |  41.7 | 17.57
Output  | 0.48044    | 0.48075    | 0.48234    |   0.0 |  0.11
Modify  | 86.351     | 88.643     | 91.986     |  14.5 | 20.03
Other   |            | 14.36      |            |       |  3.25

Nlocal:        31.5000 ave          36 max          26 min
Histogram: 1 0 6 1 4 6 2 2 3 7
Nghost:        2879.56 ave        2906 max        2860 min
Histogram: 4 7 5 1 1 2 3 2 5 2
Neighs:        10425.0 ave       11931 max        8647 min
Histogram: 1 5 2 4 3 4 3 2 3 5

Total # of neighbors = 333599
Ave neighs/atom = 330.95139
Ave special neighs/atom = 2.0000000
Neighbor list builds = 7193
Dangerous builds = 0

unfix		3
unfix		2
unfix		1

write_data	data.final.${pid}
write_data	data.final.0
System init for write_data ...
PPPM initialization ...
  extracting TIP4P info from pair style
  using 12-bit tables for long-range coulomb (../kspace.cpp:340)
  G vector (1/distance) = 0.38310836
  grid = 24 30 32
  stencil order = 5
  estimated absolute RMS force accuracy = 0.0019703379
  estimated relative force accuracy = 5.9336141e-06
  using double precision FFTW3
  3d grid and FFT values/proc = 5712 768
Last active /omp style is kspace_style pppm/tip4p/omp
WARNING: Not all mixed pair coeffs generated from mixing. Use write_data with 'pair ij' option to store all pair coeffs. (../write_data.cpp:312)

write_restart   restart.lmp.${pid}
write_restart   restart.lmp.0
System init for write_restart ...
PPPM initialization ...
  extracting TIP4P info from pair style
  using 12-bit tables for long-range coulomb (../kspace.cpp:340)
  G vector (1/distance) = 0.38310836
  grid = 24 30 32
  stencil order = 5
  estimated absolute RMS force accuracy = 0.0019703379
  estimated relative force accuracy = 5.9336141e-06
  using double precision FFTW3
  3d grid and FFT values/proc = 5712 768
Last active /omp style is kspace_style pppm/tip4p/omp
Total wall time: 0:07:22
