LAMMPS (30 Jul 2021)
  using 1 OpenMP thread(s) per MPI task
package omp 0
using multi-threaded neighbor list subroutines
echo both

include		in.partitions
variable        pid world 0
include		in.temp
variable        temperature equal 262.70
variable	tempDamp equal 100.0
include		in.pressure
variable        pressure equal 3875.0
variable        pressureDamp equal 1000.0 # This is 1 ps
include		in.seed
variable        seed world 745823

units		real
atom_style	full

read_restart	restart.lmp.${pid}
read_restart	restart.lmp.0
Reading restart file ...
  restart file = 30 Jul 2021, LAMMPS = 30 Jul 2021
  restoring atom style full from restart
  orthogonal box = (0.011779507 -0.098105931 -0.068619552) to (19.988221 20.098107 20.768618)
  4 by 4 by 4 MPI processor grid
  restoring pair style lj/cut/tip4p/long/omp from restart
  restoring bond style harmonic/omp from restart
  restoring angle style harmonic/omp from restart
  972 atoms
  648 bonds
  324 angles
Finding 1-2 1-3 1-4 neighbors ...
  special bond factors lj:    0        0        0       
  special bond factors coul:  0        0        0       
     2 = max # of 1-2 neighbors
     1 = max # of 1-3 neighbors
     1 = max # of 1-4 neighbors
     2 = max # of special neighbors
  special bonds CPU = 0.119 seconds
  read_restart CPU = 0.343 seconds
include 	in.setup
variable	out_freq equal 1000
variable	out_freq2 equal 10000
variable	out_freq3 equal 1000

timestep	2.0

neigh_modify    delay 7 every 1

include		in.tip4p
# This is TIP4P/Ice

# create groups ###
group ox type 2
324 atoms in group ox
group hy type 1
648 atoms in group hy

# set charges - beside manually ###
set group ox charge -1.1794
Setting atom values ...
  324 settings made for charge
set group hy charge 0.5897
Setting atom values ...
  648 settings made for charge

# ### TIP3P Potential Parameters ###
pair_style lj/cut/tip4p/long/omp 2 1 1 1 0.1577 8.5
pair_coeff 1 1*2 0.000 0.000
pair_coeff 2 2 0.21084 3.1668
bond_style  harmonic
bond_coeff  1 450 0.9572
angle_style harmonic
angle_coeff 1 55 104.52
kspace_style pppm/tip4p/omp 1.0e-5
pair_modify tail yes

thermo          ${out_freq}
thermo          1000
thermo_style    custom step temp pe etotal epair emol press lx ly lz vol pxx pyy pzz pxy pxz pyz enthalpy

restart 	${out_freq3} restart.lmp.${pid} restart2.lmp.${pid}
restart 	1000 restart.lmp.${pid} restart2.lmp.${pid}
restart 	1000 restart.lmp.0 restart2.lmp.${pid}
restart 	1000 restart.lmp.0 restart2.lmp.0


include         in.dump
dump            myDump all atom ${out_freq2} dump.water.${pid}
dump            myDump all atom 10000 dump.water.${pid}
dump            myDump all atom 10000 dump.water.0
dump            myDump2 all dcd ${out_freq2} dump.dcd
dump            myDump2 all dcd 10000 dump.dcd
dump_modify     myDump append yes
dump_modify     myDump2 append yes


variable natoms 	equal  "count(all)"                        # NUMBER ATOMS
variable H      	equal  "enthalpy/v_natoms"                 # ENTHALPY-per-atom
variable Vol      	equal  "vol/v_natoms"                 # volume-per-atom
fix AVG all 		ave/time ${out_freq} 1 ${out_freq} v_Vol v_H file vol_enthalpy.dat
fix AVG all 		ave/time 1000 1 ${out_freq} v_Vol v_H file vol_enthalpy.dat
fix AVG all 		ave/time 1000 1 1000 v_Vol v_H file vol_enthalpy.dat


timer           timeout 02:55:00 every 1000
New timer settings: style=normal  mode=nosync  timeout=02:55:00

fix 		1 all shake 1e-6 200 0 b 1 a 1
       0 = # of size 2 clusters
       0 = # of size 3 clusters
       0 = # of size 4 clusters
     324 = # of frozen angles
  find clusters CPU = 0.050 seconds
fix             2 all nph aniso ${pressure} ${pressure} ${pressureDamp}
fix             2 all nph aniso 3875 ${pressure} ${pressureDamp}
fix             2 all nph aniso 3875 3875 ${pressureDamp}
fix             2 all nph aniso 3875 3875 1000
fix             3 all temp/csvr ${temperature} ${temperature} ${tempDamp} ${seed}
fix             3 all temp/csvr 262.7 ${temperature} ${tempDamp} ${seed}
fix             3 all temp/csvr 262.7 262.7 ${tempDamp} ${seed}
fix             3 all temp/csvr 262.7 262.7 100 ${seed}
fix             3 all temp/csvr 262.7 262.7 100 745823


run             250000
PPPM initialization ...
  extracting TIP4P info from pair style
  using 12-bit tables for long-range coulomb (../kspace.cpp:340)
  G vector (1/distance) = 0.37209639
  grid = 24 24 25
  stencil order = 5
  estimated absolute RMS force accuracy = 0.0034465432
  estimated relative force accuracy = 1.0379163e-05
  using double precision FFTW3
  3d grid and FFT values/proc = 2366 288
Last active /omp style is kspace_style pppm/tip4p/omp
Neighbor list info ...
  update every 1 steps, delay 7 steps, check yes
  max neighbors/atom: 2000, page size: 100000
  master list distance cutoff = 10.8154
  ghost atom cutoff = 10.8154
  binsize = 5.4077, bins = 4 4 4
  1 neighbor lists, perpetual/occasional/extra = 1 0 0
  (1) pair lj/cut/tip4p/long/omp, perpetual
      attributes: half, newton on, omp
      pair build: half/bin/newton/omp
      stencil: half/bin/3d
      bin: standard
Per MPI rank memory allocation (min/avg/max) = 9.225 | 9.230 | 9.238 Mbytes
Step Temp PotEng TotEng E_pair E_mol Press Lx Ly Lz Volume Pxx Pyy Pzz Pxy Pxz Pyz Enthalpy 
  500000    278.44191    -4668.976   -4131.9774    -4668.976            0    3897.7068    19.976442    20.196213    20.837237    8406.7515    1715.8489    6659.2948    3317.9768    500.43696    1023.0988    1141.3972   -3654.1035 
  501000    265.53849   -4702.2426   -4190.1293   -4702.2426            0    2341.8867    19.834394    20.173965    21.133314    8456.2496    3309.3035    2335.1885    1381.1682    140.28825   -1133.0263   -1429.6436   -3901.3144 
  502000    262.69071   -4677.3428   -4170.7216   -4677.3428            0    4112.4944     20.07203     19.92074    20.924837    8366.7899    4020.5501    3963.3493    4353.5839   -49.445188    425.14838     846.0605   -3668.9107 
  503000    268.71441   -4700.7261   -4182.4878   -4700.7261            0    3883.1972    20.195375    20.092091    20.707149    8402.2842    2473.4637    6362.8736    2813.2543    251.71139    111.74426   -310.40122   -3706.6458 
  504000    253.65735   -4708.1277   -4218.9282   -4708.1277            0    4303.4276    20.030322    20.008708    20.806818    8338.9745    3830.1962    5292.9258     3787.161   -602.19054    831.04701   -1141.2116   -3695.5651 
  505000    257.11503   -4676.3598   -4180.4918   -4676.3598            0    3725.7975    19.971602    20.095174    20.930055    8399.9179     3889.998     3619.415    3667.9796   -292.50822    854.21853    709.83618    -3724.066 
  506000    277.73966   -4687.4138   -4151.7695   -4687.4138            0    3468.2022    20.256814    19.851227    20.772464    8353.0774    5078.6673    2067.0889    3258.8504    449.97791   -605.06228   -720.99972   -3729.2694 
  507000    269.88753    -4689.832   -4169.3312    -4689.832            0    5468.4887    20.129256    20.052431    20.743697     8372.997    5002.4763    5855.8729    5547.1168    763.50905   -1624.3476   -1278.2807   -3501.5654 
  508000    270.36825   -4687.3061   -4165.8782   -4687.3061            0    4578.9723    20.136462    20.157161    20.628854     8373.126    3147.1866    5470.5465    5119.1836   -885.27695    581.62231    147.08708   -3606.7241 
  509000    263.30257   -4649.6184   -4141.8172   -4649.6184            0    7155.6054    20.050576    19.929934    20.687872    8267.0112    7458.7233    7781.7912    6226.3017   -189.07182    838.75042    87.930801   -3279.0954 
  510000    265.84993   -4678.2782   -4165.5643   -4678.2782            0    2603.6564    20.061382    20.197937    20.928075    8480.0249    2688.8215    2163.0012    2959.1464   -219.60373   -1617.3174    427.89551   -3843.5637 
  511000    261.83552   -4682.9203   -4177.9484   -4682.9203            0    5347.6159    19.971321    20.046817     20.87417    8357.2118    4104.9005    8074.8448    3863.1025    297.49329    81.173998    463.27093   -3526.1737 
  512000    275.91981   -4662.2193   -4130.0847   -4662.2193            0    5952.1629    20.228276    19.857142    20.842889     8372.083    5046.3447    6565.8166    6244.3275    70.413102    469.50136   -532.07557   -3403.3361 
  513000    269.31906   -4652.1607   -4132.7563   -4652.1607            0    3607.7997    19.910311    20.211927    20.670992    8318.5392    4136.1136    2695.7974    3991.4882    418.84636    1188.4159    705.28942   -3695.0675 
  514000    260.43348   -4691.0735   -4188.8056   -4691.0735            0    3723.4085    19.997754    20.266325    20.701412    8389.8887    4145.9933    2514.0135    4510.2185    -269.6621   -876.77162   -922.13219   -3733.2171 
  515000    264.66562   -4688.1842   -4177.7543   -4688.1842            0    4124.3831    19.966562    20.235366    20.735735    8377.8735    3880.9547    4319.3583    4172.8364    450.71207    958.17348    769.18613   -3673.8261 
  516000    258.51907   -4676.6162   -4178.0404   -4676.6162            0     2243.014    20.247371    20.044709    20.872775    8471.2715    2420.5664    1987.5334    2320.9422    437.13764   -1211.2338   -567.73717   -3900.9277 
  517000    259.29695   -4672.6027   -4172.5267   -4672.6027            0     7275.327     20.01202    19.831928    20.731508    8227.8575    6654.7944    7052.8954    8118.2912   -124.71452   -987.63571   -443.93437   -3299.5248 
  518000    257.66986    -4704.369    -4207.431    -4704.369            0    3051.9553    19.940334    20.107516    20.934124    8393.5488    2998.6017    2595.4655    3561.7986    893.74704   -705.99787   -239.69297   -3833.8372 
  519000    255.49639   -4672.8371   -4180.0908   -4672.8371            0    4442.0892    20.302802    19.929392      20.7435    8393.2868     3876.391    4605.4954    4844.3812   -820.63603   -81.760362    -987.3219   -3636.3459 
  520000    257.85855   -4685.4369    -4188.135   -4685.4369            0    4458.0655    20.051143    20.029119    20.840749    8369.7852    2244.0031    5549.8231    5580.3703   -243.57531   -662.89524    370.55112   -3643.9624 
  521000    251.59402   -4686.0395   -4200.8192   -4686.0395            0    3252.7649    20.155403    20.132831    20.861686    8465.3657    2912.9322    3139.7188    3705.6436    239.14602    355.23275   -1847.9708   -3799.2372 
  522000    260.45188   -4683.3334     -4181.03   -4683.3334            0    3618.6471    20.083403    19.810469    21.092842    8392.0323    5494.1731    2910.8053    2450.9629    138.64585   -1096.5085   -610.08924   -3738.1467 
  523000    257.62045   -4706.8336   -4209.9909   -4706.8336            0    4167.3847    20.151126    19.868176    20.995471    8405.8749     2038.691    6527.5178    3935.9453       -372.8    532.90493    923.61255   -3699.1068 
  524000     263.8959   -4625.9705   -4117.0251   -4625.9705            0    3996.2721    20.292111      20.2783    20.319228     8361.149    3796.9716    1974.2138    6217.6311   -178.70213    577.17221    1830.5463   -3629.7245 
  525000    273.61991   -4667.6579   -4139.9589   -4667.6579            0    4827.2211    20.077193    19.962138    20.843208    8353.6178    4259.3612    5210.7127    5011.5894    209.53246    779.75699   -623.73078   -3551.8636 
  526000    266.09609   -4658.0598   -4144.8711   -4658.0598            0    2334.1337    19.957865    20.257755    21.024709    8500.3222    3447.4703    697.80637    2857.1243   -509.19575    1311.3631    1336.9228   -3855.5121 
  527000    275.58188   -4670.5185   -4139.0356   -4670.5185            0      3867.21    20.037279    20.160274    20.734634    8375.9012    3380.4595     4420.734    3800.4365    124.60031    481.71586   -191.82134   -3666.6407 
  528000    252.38954   -4678.4123   -4191.6579   -4678.4123            0    4253.2854    20.157031    20.119318    20.648777    8374.0233      4146.63    4324.5296    4288.6966   -762.92265    508.64709   -1452.1499   -3672.2188 
  529000     262.4761   -4672.5536   -4166.3463   -4672.5536            0    5005.0899    20.244308     20.06018    20.566855    8352.2914    3865.6297    6602.8935    4546.7464   -57.326461    1180.1331   -716.45637   -3556.6783 
  530000    267.72233    -4669.342    -4153.017    -4669.342            0    4297.0566    20.126665    20.116431    20.716307    8387.5496    3246.3291    5077.3553    4567.4854    133.79059    1605.1075    582.05439   -3627.3846 
  531000    271.79997   -4661.4187   -4137.2296   -4661.4187            0    4617.3087    19.984755    20.075263    20.850613    8365.2492    2988.7811    6824.2706    4038.8744    565.79123   -1123.7583    69.682242   -3573.9245 
  532000    266.69293   -4669.0249   -4154.6852   -4669.0249            0    4726.2084     19.89569    20.064635    21.086938    8417.9006    4869.1727    4704.1385     4605.314   -113.15001   -104.13907   -268.53909   -3574.4654 
  533000    267.54804   -4687.4613   -4171.4724   -4687.4613            0    1236.3671    20.361939    20.040722    20.908385    8532.0422   -2161.1297    5782.5735    87.657638   -127.32916   -828.24612   -224.83164   -4017.6299 
  534000    267.92356   -4718.8631     -4202.15   -4718.8631            0    3138.4618    20.095918    20.369365    20.550462    8412.1484    2708.5397    2064.8062    4642.0395    -406.0425    64.040952    301.27269   -3817.1154 
  535000    253.47399   -4712.4697   -4223.6238   -4712.4697            0    4434.8345    20.010834    20.111704    20.634002    8304.1946    6013.3195    3608.2124    3682.9717    521.92476   -949.14611    1161.8634   -3686.5291 
  536000    256.29282   -4694.7139   -4200.4316   -4694.7139            0    3021.2135    20.173914    19.909565     21.06499    8460.8343    3392.3977    4541.2951    1129.9477    -237.0722   -1211.9252   -263.99095   -3827.6362 
  537000     262.9044   -4679.7494   -4172.7162   -4679.7494            0    5612.0758    20.129109    19.871854    20.830087     8332.091    6077.6469    5729.2495    5029.3308   -350.32232   -514.64537    435.11153   -3490.7648 
  538000     264.4365   -4662.4202   -4152.4322   -4662.4202            0    4663.0163    20.149449    19.990981     20.77772    8369.4164    5120.6001    5536.7928    3331.6561   -27.913543     524.6129   -1154.5223   -3583.2674 
  539000    248.30418   -4666.7635    -4187.888   -4666.7635            0    4163.4671    20.196008    20.104475    20.647597    8383.5466     4506.161    3942.5809    4041.6593   -477.13715    592.43336   -114.76831   -3678.8399 
  540000    257.88018   -4679.7996    -4182.456   -4679.7996            0     4483.815     19.90242     20.14673    20.921247    8388.7645    3779.9742    4964.2376    4707.2332   -405.96538    372.58828    999.23614   -3633.8992 
  541000    267.20614   -4687.0882   -4171.7587   -4687.0882            0    3725.9206    20.054675    19.976095    20.997839    8412.0299    3290.3678    3631.1195    4256.2746    350.27958    303.52274   -234.08087   -3714.6596 
  542000    252.30368   -4670.2058   -4183.6169   -4670.2058            0    4769.6751    19.991941    20.014531    20.895053    8360.7237     6509.826    3885.0559    3914.1434   -307.41346    309.88805    1649.3245   -3602.0381 
  543000    276.61602   -4687.5963   -4154.1191   -4687.5963            0    4316.0683    20.357881    20.018643    20.613792    8400.8862    3155.7634    4634.1529    5158.2885    143.11268    318.12498   -858.99996   -3625.3217 
  544000     253.0303   -4691.8442    -4203.854   -4691.8442            0    6951.7423    20.111691     20.02706    20.490491    8253.1201    7109.7724    5387.6654     8357.789    67.005156   -297.78285   -1006.9713   -3367.1195 
  545000    260.90443   -4713.6098   -4210.4336   -4713.6098            0    4739.4064    19.974781    19.980534    20.821926    8310.1722    4370.0632    5776.1074    4072.0488   -428.56306   -1054.5376    351.78132   -3636.0397 
  546000    249.97211   -4667.4915   -4185.3992   -4667.4915            0    4089.6223    20.197247    19.779558    21.133936    8442.8511     6241.251     4125.369     1902.247    -248.1674    612.17318   -595.94736   -3681.8427 
  547000    257.87523   -4677.5805   -4180.2464   -4677.5805            0    2270.5724    20.101586    20.258783    20.991884     8548.602    1297.1072    3274.8026    2239.8075    78.284182   -2052.6766   -1406.9446   -3897.1683 
  548000    251.43869    -4690.005   -4205.0844    -4690.005            0    3912.0304    20.089632    19.980463    20.784384    8342.8551    4126.2278    3120.9203     4488.943   -33.204378    177.50203    1522.6424   -3729.0999 
  549000    264.46142   -4672.4879   -4162.4518   -4672.4879            0    3501.7568    20.454518    19.918223    20.671793    8422.0536     976.3702    5407.8293    4121.0708   -599.41668    923.25255   -782.15063   -3732.3415 
  550000    253.49432   -4684.0093   -4195.1242   -4684.0093            0    5225.1046    19.965504    20.093045    20.795496    8342.4828    7056.4964    4323.6827    4295.1348    335.78347   -188.31673   -1193.3329   -3559.4037 
  551000     275.0011   -4635.9305   -4105.5677   -4635.9305            0    3192.3487      20.2567     19.98998    20.811455    8427.2041    1534.1121    4280.0674    3762.8665    123.53367    279.37189    749.52688   -3713.2213 
  552000    257.72648   -4697.1958   -4200.1486   -4697.1958            0    4199.6554    19.848382    20.129745    20.996042    8388.8192    4786.1752    5804.9231    2007.8678   -162.53444   -1338.4475    106.63545   -3686.3531 
  553000    259.14533   -4709.9041   -4210.1205   -4709.9041            0    4680.1739    20.178565    19.965943      20.7664     8366.452    3475.7785    4927.1265    5637.6167   -521.48049   -254.24441    51.250729   -3639.0638 
  554000    262.63012    -4652.624   -4146.1197    -4652.624            0    5006.1959    20.077392    20.104386    20.683873    8348.9138     3609.689    5920.1887      5488.71    385.50478    531.95999   -1921.2548   -3536.5636 
  555000    259.43748   -4672.7834   -4172.4364   -4672.7834            0    2864.8992    20.085368    20.076123    20.886326    8422.1252    3584.1355    1801.9932    3208.5688   -281.28531    462.35822   -86.952036   -3820.5464 
  556000     279.2026   -4674.3792   -4135.9135   -4674.3792            0    5468.7871    20.046838    20.057822     20.81533    8369.7588    4983.0919    5378.8903     6044.379    519.58154    934.21461    183.52696   -3468.3696 
  557000    248.69703   -4686.3591   -4206.7259   -4686.3591            0    4770.6818    20.026714    19.927355    20.948471    8360.1039    5153.9273    3932.8514    5225.2668   -356.66111    768.21049   -26.572796   -3625.0675 
  558000     265.3731   -4683.9266   -4172.1323   -4683.9266            0    4559.1546    19.923728    20.145227    20.907715    8391.6882    5228.9944    3453.4459    4995.0235    428.57704   -2017.0345    566.81505    -3614.164 
  559000    262.81379    -4681.935   -4175.0765    -4681.935            0    4897.0368    20.008479      20.0636    20.741022    8326.3197    5616.7569    4809.7747    4264.5788   -423.63119    964.78434    764.93667   -3580.4253 
  560000    269.78914   -4695.4772   -4175.1662   -4695.4772            0    3481.9438    20.179548    19.958501    20.802356    8378.2226    3835.6054    2653.3169    3956.9089   -323.37904     1278.924    132.31872   -3749.7152 
  561000    263.92302   -4673.6948    -4164.697   -4673.6948            0    4495.2459    19.957742    20.132472    20.967816    8424.8411    5356.6828    3923.6711    4205.3837   -39.900564    533.23678   -195.11413   -3612.3767 
  562000    278.47745   -4672.1891    -4135.122   -4672.1891            0     4923.995    20.040908     20.03468    20.865528    8377.7844    5856.0128    5032.8639    3883.1084    229.63155    -81.64617   -272.15263   -3533.5014 
  563000    271.81828   -4668.6856   -4144.4612   -4668.6856            0    5365.8412    20.139162    20.165151    20.557284    8348.5033     2619.786    6598.8489    6878.8888    71.135311    1207.2873    43.423379   -3491.1467 
  564000    262.11197   -4669.0625   -4163.5575   -4669.0625            0     4558.901    20.120317    20.188577    20.579581    8359.4375    5742.8509    3951.2221    3982.6301    340.73457    -440.0077   -768.63188   -3607.7645 
  565000    266.59229   -4697.9365   -4183.7909   -4697.9365            0    3433.0217    20.066642    20.037972    20.869767    8391.6249    2733.4146    4410.7488    3154.9018    59.060113   -17.816762    140.28851   -3763.6465 
  566000    268.99801   -4650.0207   -4131.2354   -4650.0207            0    3769.6127    20.094303    19.673153    21.427572    8470.7115    4274.6484    4175.3381    2858.8517    299.76788    1380.3864   -839.12799   -3665.5501 
  567000    258.03077   -4692.9927   -4195.3587   -4692.9927            0    3725.7154    19.972374    20.144516    20.966763    8435.6377    5071.8236    1885.2437    4220.0788   -406.70321   -949.32248   -331.64943   -3737.0021 
  568000    256.07056   -4674.9137   -4181.0601   -4674.9137            0    2970.6456    20.208447    20.099223    20.752344    8429.0643    2972.9146    3382.4625    2556.5598    106.07531    945.16508   0.90140577   -3815.8808 
  569000    247.43554   -4688.6253    -4211.425   -4688.6253            0     4069.615     19.97992    20.225245    20.568717    8311.7936    3422.3344    3964.3571    4822.1535    -46.24164   -111.28006    104.14767   -3718.1104 
  570000    268.26843   -4691.3876   -4174.0094   -4691.3876            0    2944.8898      19.9515    20.257226    20.814415    8412.3968    4980.1793    381.92384    3472.5663    746.88701   -135.02846   -1141.2675   -3812.7121 
  571000    271.34256   -4695.5899    -4172.283   -4695.5899            0    5321.2534    20.145949    19.898295    20.917459    8385.1822    3736.1283     6834.345    5393.2868   -4.1222235    557.27135    548.28744   -3521.5507 
  572000    281.53601   -4659.7135   -4116.7477   -4659.7135            0    3450.9721    20.024882    19.888997    21.135974    8417.9261    4160.2172    3335.6399    2857.0592   -66.221947    1364.6728   -75.355523   -3693.0828 
  573000    254.30247   -4705.8532   -4215.4095   -4705.8532            0    2162.9178    20.183779    20.067929     20.93625    8480.1578    1786.4132    2343.0715    2359.2688    254.18992    1390.7267    780.23791   -3947.9119 
  574000    252.33537    -4690.353    -4203.703    -4690.353            0    4871.3795    19.884613    20.358014    20.725267    8389.8209    4123.7823    4837.4863      5652.87   -226.92035    1423.9215   -288.58375   -3607.6559 
  575000    252.44202   -4675.9372   -4189.0815   -4675.9372            0    4824.0879     20.07874    20.057696     20.78172    8369.4901     5227.582    4215.2871    5029.3947     82.66114    2029.1642    62.755955   -3600.2513 
  576000    257.84373   -4684.3707   -4187.0974   -4684.3707            0    4064.1358    20.042051    20.051308    20.841255    8375.4611    3546.4115    4146.5255    4499.4705    341.09746   -1229.7904    797.67747   -3690.6733 
  577000      245.989   -4702.9659   -4228.5554   -4702.9659            0    2497.5195    20.205309    20.177129    20.790257    8475.8783    2349.9122     2188.545    2954.1011   -418.54841      155.944     -1080.78   -3919.8321 
  578000    266.83355   -4654.6958   -4140.0848   -4654.6958            0    4194.4998    20.106529    20.042763    20.882194     8415.324    5467.3344    2838.2602    4277.9049   -181.77778   -318.01442   -910.26361   -3625.2986 
  579000    259.57887   -4695.2061   -4194.5865   -4695.2061            0    4241.4584    19.969446    19.867389    21.201137    8411.3551    4768.9541    4222.6816    3732.7395   -693.39453    686.70351    -498.0827   -3674.2826 
  580000     259.5369   -4650.1875   -4149.6488   -4650.1875            0    2609.2407    19.910692    20.148964    21.018725    8432.2881    4813.1682    1060.2853    1954.2685    242.49714    161.77819    578.40897   -3828.7741 
  581000     267.7772   -4671.5193   -4155.0885   -4671.5193            0    3803.4025    20.084149    19.952068    20.821164    8343.4634    2763.6507    4507.0982    4139.4586   -275.16438   -714.05808   -187.12361   -3692.2872 
  582000    257.94401   -4696.2642   -4198.7975   -4696.2642            0    2529.1123    19.998923    20.334879    20.847498    8478.1707    4526.6347    49.272538    3011.4298    1190.5812   -188.08716   -136.63668   -3886.0843 
  583000    267.37577   -4682.8949   -4167.2382   -4682.8949            0    5067.8066    20.137819    19.996722    20.761278    8360.3668    4269.3568    6110.9289    4823.1343    60.170934     122.1016    650.76673   -3549.3339 
  584000    264.54031    -4643.945   -4133.7567    -4643.945            0    4826.2004    20.037403    20.159493     20.61442    8327.0688    4262.5774     4172.427    6043.5966    288.92431    153.67183   -321.61513   -3547.6545 
  585000    260.29419   -4707.9891   -4205.9899   -4707.9891            0    2315.1088    20.212469    19.972578    20.970775    8465.7994    1755.7626     2588.336    2601.2277   -638.21739   -1348.4094    432.16317    -3920.155 
  586000    247.41522   -4672.1546   -4194.9935   -4672.1546            0    2317.6132    19.978348     20.20655    20.888502    8432.5522    3135.9834    2165.4964    1651.3597    757.94438    488.18532    175.42479   -3909.9732 
  587000    261.09418   -4682.2993   -4178.7572   -4682.2993            0    4771.1977     20.09449    19.869912    20.721467    8273.5791    4571.9853    5316.5693    4425.0385    57.769947   -304.50345     474.4904   -3603.0565 
  588000    270.33788   -4700.5471   -4179.1778   -4700.5471            0    2793.3861    20.065949    20.313436    20.767637    8465.0622    3654.8993    1965.4728    2759.7861    220.51591    276.82945    731.08394   -3834.3224 
  589000    260.12453   -4738.1627   -4236.4907   -4738.1627            0    3930.5871    20.073442    20.110846    20.780898    8389.1216    4443.9599    2052.5146    5295.2867   -32.181867     1254.925    551.60986   -3755.5962 
  590000    265.33621   -4709.8116   -4198.0884   -4709.8116            0    4722.2365    19.810124    20.320714    20.935795    8427.8269    6863.2182    2736.9502     4566.541   -25.715422    2089.9992   -561.00795   -3617.6726 
  591000    252.88827   -4676.0148   -4188.2985   -4676.0148            0    3950.1189    20.228391    19.859309    20.734289    8329.4172    3396.9645    6289.8833    2163.5089   -174.03646    905.52297    137.02359   -3708.4539 
  592000    261.89371   -4684.5205   -4179.4365   -4684.5205            0    3922.6244    20.053669    20.153061    20.669606    8353.4729    2793.0739    4365.4911    4609.3082    94.191075   -1296.0389    220.65407   -3701.5556 
  593000    281.72708    -4689.522   -4146.1876    -4689.522            0    4671.6233    20.098922    19.916399    20.855555    8348.4401    5787.7012    4661.2414    3565.9273    165.01167    456.74969    669.50075   -3577.4015 
  594000    259.33404   -4682.4489   -4182.3014   -4682.4489            0     5241.195    20.025442    20.058345    20.871026    8383.4155    3473.4429    7579.8903    4670.2516   -509.16094    583.23985    327.00932   -3541.4944 
  595000    259.19964   -4721.5984   -4221.7101   -4721.5984            0    3998.0766    20.105676    19.735251    20.973986    8322.2798    6008.5673    3269.2821    2716.3805   -679.93952   -130.96148    320.80268   -3736.4559 
  596000    260.78626   -4670.8792   -4167.9309   -4670.8792            0    5257.2914    20.206626    20.097538    20.708211    8409.6757     6740.134    4158.4589    4873.2811    359.46867    405.08017   -5.9777401   -3523.1426 
  597000    254.27868   -4664.1139    -4173.716   -4664.1139            0    3821.0798    19.909437    20.335973    20.865036    8447.7895    4315.1819    3010.1149    4137.9426    304.92051     906.9349   -425.29546   -3702.9501 
  598000    264.34816   -4685.7759   -4175.9582   -4685.7759            0    4206.5234    20.012564    20.031756    20.938033    8393.7812    5573.0767    2760.2417    4286.2519    67.996442    487.39059    141.45701    -3661.018 
  599000    252.05581   -4676.6807   -4190.5698   -4676.6807            0    4731.4452    20.139612    19.981417    20.701697    8330.7354    6157.8718    3766.5817    4269.8822    780.39465    -793.2809    180.96657   -3615.7218 
  600000    264.03292   -4677.1124   -4167.9027   -4677.1124            0    5974.0279    19.833116    20.186418    20.853528    8348.9097    7272.2985    4940.3062     5709.479     504.3056   -507.43824   -617.57209   -3440.5033 
  601000    247.10316    -4693.333   -4216.7738    -4693.333            0    3580.3591    20.164033    19.765741    21.200871    8449.7565    2613.4884    5910.1621    2217.4268   -404.43523    679.31318    104.20165   -3775.5624 
  602000     260.0279   -4672.0531   -4170.5674   -4672.0531            0    2637.1055    20.019095    19.949438    21.018479    8394.1437    4084.3772    1894.2099    1932.7295   -300.10873   -313.09617    1237.6033    -3847.733 
  603000    266.55772   -4667.8205   -4153.7415   -4667.8205            0    3847.4543     20.14065     19.89891    20.924911    8386.2229     4497.783    4737.9818    2306.5981   -33.498914    443.77997   -1408.8509   -3683.1807 
  604000    266.37405    -4675.481   -4161.7562    -4675.481            0    6714.8824    20.098885    19.857156    20.821864    8310.1454    6119.3214    7032.7948     6992.531   -293.56394    817.52629   -5.4338156   -3347.9464 
  605000     275.5419   -4663.2458   -4131.8401   -4663.2458            0    1365.3157    20.108118    20.229584    20.849565    8481.1622    1942.8632    600.34242    1552.7414   -143.32026   -218.47944   -511.12167   -3962.9655 
  606000     257.0153    -4701.781   -4206.1054    -4701.781            0    3179.2384    19.926324    20.144939     20.92577    8399.9095    1858.2591     4104.546    3574.9102    591.70577   -1128.4257    916.44299   -3816.6357 
  607000    259.66635   -4674.6285   -4173.8401   -4674.6285            0    3307.4524    20.154322    20.048521    20.755492    8386.5543    4309.4248    2045.1538    3567.7785    620.41201    575.77432    -436.7285   -3769.3079 
  608000    275.75965    -4684.735   -4152.9093    -4684.735            0    5195.4568    19.992568    20.286157    20.566114    8341.0477    4393.2235    4696.1966    6496.9505    37.880354    218.74411    1346.8048   -3520.9047 
  609000    264.08956   -4685.0279    -4175.709   -4685.0279            0    4862.0514    19.956533    20.365684    20.496504    8330.3623    4665.3337    3587.8814    6332.9391   -294.75808    289.28787    1112.5823   -3585.0194 
  610000    269.66984   -4669.9153   -4149.8343   -4669.9153            0     4856.495    19.957325    20.114296    20.891179    8386.2947    5824.0564     4690.073    4055.3557   -620.46921    192.83791    1686.8288   -3555.8582 
  611000    263.02539   -4655.0965     -4147.83   -4655.0965            0    3572.0069    19.843606    20.188184     21.08312     8446.032    3297.6304    4118.3581    3300.0323   -834.37201    757.10554    319.64135   -3707.8419 
  612000    260.79583   -4665.3617   -4162.3951   -4665.3617            0    5441.2323    20.057072    19.853093    20.890255    8318.3934    5391.1277    6185.7597    4746.8094    87.201677   -901.12242   -213.18994   -3502.2907 
  613000    251.08579   -4693.7412   -4209.5011   -4693.7412            0    4689.0637    20.065411    20.229968    20.693967    8400.1497    5059.8387    3129.5521    5877.8002   -278.05983    299.07602    1970.8392   -3635.0554 
  614000    264.75524   -4676.3963   -4165.7935   -4676.3963            0    3547.0272    20.050644    20.392822    20.504346    8384.0061    4288.9407    1726.9702    4625.1707   -508.78748    312.27971   -687.15787    -3732.091 
  615000    252.88567   -4670.3142   -4182.6029   -4670.3142            0     3448.138    20.287733    19.889684    20.870631    8421.6461    2411.0509    4404.2895    3529.0737   -290.50626   -313.58613   -902.10722   -3759.0989 
  616000    248.07503   -4682.0456    -4203.612   -4682.0456            0    3875.5278    19.918884    20.133819    20.898195    8381.0788    3781.8716    3993.1307    3851.5811    135.49898    857.17476   -126.10628   -3729.9084 
  617000    262.40629   -4711.4291   -4205.3565   -4711.4291            0    4191.8561    20.092587    19.819358    21.129587    8414.2704    3163.5821    5735.3451     3676.641   -92.411402     860.6787   -187.64215   -3690.9592 
  618000    249.39456    -4674.613   -4193.6346    -4674.613            0     3105.841    20.270379    19.846829    20.823059    8377.1741    1609.1663    4057.9583    3650.3983    452.04066    535.44105    1202.6839   -3814.1863 
  619000    257.83833   -4701.4908   -4204.2279   -4701.4908            0    3792.2236    20.170637    19.995694    20.835472     8403.485    2593.3121    5188.4207    3594.9379    820.71731   -3.0830465    1609.0622   -3739.4674 
  620000    267.58666   -4687.8717   -4171.8083   -4687.8717            0    6223.0367    20.004797    19.746499    21.197087     8373.373    5850.6703    6290.3425    6528.0974    619.67461    1733.7002    712.45415   -3411.8694 
  621000    255.41266   -4701.5441   -4208.9593   -4701.5441            0    5125.7667    19.967781    20.047353    20.878231    8357.5802    6223.1246    4204.4331    4949.7424    851.15919    1470.1641   -738.53154   -3584.1963 
  622000    265.58435    -4666.678   -4154.4762    -4666.678            0    1868.0747     20.08902    20.328017    20.752825      8474.83    3652.6764   -918.12304    2869.6707    734.91889   -1067.3835    879.03089   -3923.5884 
  623000    254.42996   -4670.9298   -4180.2402   -4670.9298            0    4417.1096    20.144181    19.958788    20.894636    8400.7603    4433.3625    4765.2062      4052.76   -753.55814    1346.6134    132.01368   -3639.0716 
  624000    261.66196   -4681.6759   -4177.0388   -4681.6759            0    5153.3511    20.005632    19.898245    21.019731    8367.4704     4982.855     6715.942    3761.2565    580.98341    277.51936   -695.77861   -3548.1703 
  625000    279.16759   -4684.9263   -4146.5281   -4684.9263            0     4942.503    20.018936    20.071887    20.827219    8368.7473    3722.3677     5509.176    5595.9655   -933.36197   -530.33543    749.36707   -3543.2976 
  626000    255.88859   -4706.8476   -4213.3449   -4706.8476            0    2529.5635    20.112611    20.156796    20.719251    8399.7044    3595.3715   -99.912117    4093.2311   -117.43086    1851.3652    1418.6093   -3903.4707 
  627000    257.36728   -4685.3791   -4189.0246   -4685.3791            0     4974.865    19.885479    20.107798    20.799435    8316.7205    5228.2676    4246.8024     5449.525   -107.39334     996.3209   -9.2590818   -3585.6191 
  628000    256.57663   -4684.3077   -4189.4781   -4684.3077            0    2658.0855     20.06811    20.048052    21.045476    8467.1528    2742.3587    2593.1239    2638.7738   -798.98719    582.67916     951.5381   -3861.2451 
  629000    274.14327   -4661.4783   -4132.7699   -4661.4783            0    3021.1158    20.159907    20.016873    20.864066    8419.4495    2657.0112    3354.7323    3051.6039    272.98838   -858.23709     1819.454     -3761.81 
  630000    240.25167   -4680.1674   -4216.8219   -4680.1674            0    3509.8196    20.220435    19.970085    20.686271    8353.1947    3698.4388    2035.3099    4795.7101   -502.44567   -528.08912    817.73179   -3789.2459 
  631000    258.82199   -4707.8263   -4208.6664   -4707.8263            0    4348.1661    20.127565    20.015599    20.736212    8353.8993    2034.3104    5088.3351    5921.8527   -1204.7174    120.22133    257.79331    -3678.916 
  632000    271.19746   -4667.4667   -4144.4396   -4667.4667            0    3724.5207    19.965105    20.086281    20.883312    8374.7243     4946.112    2179.6073    4047.8428   -1065.2745     25.87665    1844.7359   -3689.5387 
  633000    271.45497   -4673.1171   -4149.5933   -4673.1171            0     2986.909    20.304724     19.89615    20.811551    8407.5718    1457.4911    4419.8144    3083.4215   -629.28572   -460.01041    388.78417   -3783.3511 
  634000    255.58921   -4688.1949   -4195.2696   -4688.1949            0     3294.436    20.172699     20.17519    20.723648     8434.277    2864.7826    3722.9746    3295.5508    -400.0221   -152.86237    1301.8966   -3790.0366 
  635000    265.78718   -4694.4221   -4181.8292   -4694.4221            0    4699.6318    20.046975    19.900192    20.878357    8329.1832    6024.1285    3907.0835    4167.6833   -21.516944   -564.95892   -512.10708   -3610.9527 
  636000    265.71716   -4685.2711   -4172.8132   -4685.2711            0    2193.9537    20.087816    20.089667    21.130527    8527.3836    3594.1029    879.72326    2108.0349   -748.36965   -469.94594    74.218177   -3899.9662 
  637000    258.74787    -4687.478    -4188.461    -4687.478            0    3622.8454    20.154829    19.870354    20.974048    8399.7622    2557.5969    3922.2215    4388.7177    59.445904   -61.960835    963.78197   -3744.6555 
  638000    264.65086   -4697.5594    -4187.158   -4697.5594            0    3081.6183    20.164943    20.266543    20.672012    8448.1073    3092.9321    1226.2499    4925.6728   -418.11766    939.58594   -750.44439   -3807.4811 
  639000    256.83416   -4726.0923    -4230.766   -4726.0923            0    3461.6211    20.207066    20.049002    20.784596     8420.495    2719.8182    4282.4037    3382.6414    236.17846    349.01263    72.947249   -3805.6641 
  640000    275.19764   -4692.7584   -4162.0166   -4692.7584            0    4565.1348    20.036717    19.897129    21.189299    8447.6046    2888.8041    6405.2442    4401.3561    194.99231    371.92393    621.56814   -3599.5936 
  641000    256.69507   -4675.8819   -4180.8239   -4675.8819            0    3879.2447    20.096103    19.941684    20.969319    8403.4572    3370.3297     5005.774    3261.6303     104.7667     1514.507    1176.4992      -3705.4 
  642000    270.64492    -4702.288   -4180.3265    -4702.288            0    3995.9632    20.257451    19.866989    20.762005    8355.7636    4392.4862    4176.0289    3419.3745   -279.86048    597.57756   -246.35672   -3693.3775 
  643000    262.40938   -4703.2687   -4197.1902   -4703.2687            0    2925.5439    20.158199    20.049603    20.788771    8402.0704    2630.1315    2932.9588    3213.5414    270.66491    516.43293   -144.10203    -3838.707 
  644000       259.49   -4678.3114   -4177.8632   -4678.3114            0    3318.5097    19.930562    20.080344     21.07242    8433.4472    4570.0181    2891.8808    2493.6303   -1017.9754   -527.47845     1086.523   -3769.7091 
  645000    261.08057   -4696.9398   -4193.4239   -4696.9398            0    3644.3737    20.181903     19.90288    20.957858    8418.3106    3135.7273    4179.1689    3618.2247    -531.6458    307.77789    498.22427   -3745.9954 
  646000    262.92589   -4709.5561   -4202.4814   -4709.5561            0    3904.3113    19.984596    20.191573    20.744355    8370.7709    4584.9943    2684.1907    4443.7488    126.50479    417.33151    481.75434   -3725.8465 
  647000    271.44849   -4729.5659   -4206.0546   -4729.5659            0    2786.2484    20.083731    20.085968    20.713205    8355.7313    2324.6168    3310.5391    2723.5895   -479.34122   -566.75366     997.5925    -3866.523 
  648000    255.18042    -4687.603   -4195.4661    -4687.603            0    3269.0385    19.930501    20.059516    21.012653    8400.7793     4130.244    3085.5216      2591.35   -472.12227    610.79834   -531.89283   -3794.9541 
  649000    277.05954   -4696.4826     -4162.15   -4696.4826            0    5878.5202     20.02235    19.931558    20.904929    8342.6688    7211.2676     5748.805     4675.488    455.14296    730.10586   -663.20879   -3446.9148 
  650000    255.82528   -4677.3512   -4183.9707   -4677.3512            0    4143.7601    20.121475    19.934547    20.869707    8371.1001    3476.7297    4036.6737     4917.877    1140.3809    59.392157   -121.44211   -3678.0842 
  651000    273.12294   -4661.0709   -4134.3304   -4661.0709            0    3635.3222    20.110841    20.180248       20.745    8419.1876    4928.5642     3020.986    2956.4166    431.74005   -423.13876   -424.86711   -3687.9666 
  652000    265.45454   -4663.7399   -4151.7885   -4663.7399            0    2964.1521    20.045577    20.174866     20.77572    8402.0507    3103.1936    2890.2516    2899.0112   -877.21287   -131.93929    70.448263   -3788.5752 
  653000    253.96414   -4682.8683   -4193.0771   -4682.8683            0    3414.7968    20.047444     19.97276    21.032544    8421.4893     4420.385    3949.5381    1874.4672    184.74059   -7.8746661   -1079.3686   -3773.6759 
  654000    261.56054   -4683.5953   -4179.1538   -4683.5953            0    3806.3077    19.958654    20.144818    20.837353    8377.9381    3587.0293    4190.6036    3641.2901    70.528312    615.87407   -252.62908   -3714.0853 
  655000    256.17239   -4678.4861   -4184.4361   -4678.4861            0    4494.4588    20.107254    20.137218    20.596755    8339.7117    4327.9096    3948.2024    5207.2642   -836.67338   -425.51112    332.78681   -3637.7924 
  656000    253.84379   -4687.9877   -4198.4286   -4687.9877            0    3330.0811     20.03223    19.996594    20.916435    8378.6295    3267.5399    2929.2238    3793.4797   -97.943356    281.80614   -950.41887   -3791.5136 
  657000     266.0699   -4686.4583   -4173.3201   -4686.4583            0    3861.2083    20.205064    19.930823    20.796497    8374.8231     2430.161    5686.0545    3467.4094   -210.53148    660.36142   -621.74626   -3701.7191 
  658000    251.06097   -4696.8953   -4212.7031   -4696.8953            0    3321.2698    20.227057    20.187842    20.688596     8447.994    2124.2933    3840.3353    3999.1808   -386.80632    200.55715   -355.70587   -3803.5049 
  659000    268.35915   -4718.7408   -4201.1876   -4718.7408            0    4448.8994    20.235585    20.047119    20.577633    8347.6293    5455.7251     3660.782    4230.1911    9.7734795    936.57423   -946.62052   -3659.5714 
  660000    264.53691   -4678.0299   -4167.8482   -4678.0299            0    3480.4098    19.893822    20.185271    20.846217    8371.0525    2439.9087    2791.2159    5210.1049    806.85954    642.45009   -100.03291   -3742.9486 
  661000     264.3457   -4714.1006   -4204.2877   -4714.1006            0    4754.3855     19.86763    19.944008    21.192635    8397.3734    3158.4942    6241.2986    4863.3638   -386.29003    44.606194   -150.27143    -3622.032 
  662000    268.58298   -4684.9878   -4167.0029   -4684.9878            0    3872.0602    20.084798    19.998462     20.82593    8365.0482    4735.2182    3162.3261    3718.6363    292.61268   -1043.5857    336.88694   -3694.6284 
  663000    275.00027   -4705.2197   -4174.8586   -4705.2197            0    1706.1441    19.900337    20.361579    20.933129    8482.1519    4290.4086    359.82384    468.19981   -781.82701    -304.7096    230.57508   -3963.8026 
  664000    250.13112   -4676.3079    -4193.909   -4676.3079            0    2183.8723    20.179235    20.011255    20.885682    8433.8853    161.05581    4918.0928    1472.4684   -266.74767   -341.41186   -100.35654   -3925.2936 
  665000    261.13656   -4694.1568    -4190.533   -4694.1568            0    4821.5471    19.807498    20.126788    21.074521    8401.5961     3275.424    6135.7535    5053.4638   -1191.5877     476.5233    766.27962   -3599.7553 
  666000    280.67754   -4694.7992    -4153.489   -4694.7992            0    2646.6875    20.245682    19.969262    20.859243    8433.2108     2954.849     3837.931    1147.2826   -169.26057   -1565.8635    993.55341   -3827.9736 
  667000    265.21405   -4686.2616    -4174.774   -4686.2616            0    4675.8053    20.030644    20.221972    20.628376    8355.7118    4904.0944    2983.7133    6139.6082    601.49684    1285.7104    841.65884   -3604.9828 
  668000    271.66584   -4669.2317   -4145.3013   -4669.2317            0    5292.6391    20.080491    20.094492    20.763919    8378.3924    3706.7485    5638.5442    6532.6247   -2.6472495    1114.9378   -630.22873   -3498.5923 
  669000    276.09537   -4676.9365   -4144.4634   -4676.9365            0    4556.5541    20.078539    20.102439    20.767845    8382.4757     5756.418    3232.5873    4680.6571     669.6387   -751.23095   -1831.1409   -3587.4255 
  670000    265.94485   -4679.5264   -4166.6294   -4679.5264            0     5068.655    20.062447    19.949655    20.884677      8358.86    1378.6214      8076.72    5750.6235   -414.27231    627.48824   -1879.4315    -3548.733 
  671000    260.35041   -4667.1727   -4165.0651   -4667.1727            0    2482.4395    19.895723    20.180491    21.035977    8446.0598    3387.1683    2522.5748    1537.5755   -419.28517    190.40117      1165.98   -3859.2853 
  672000    264.92707   -4698.6751    -4187.741   -4698.6751            0    4512.4198    20.184033    19.870241    20.798674    8341.5494     5881.274    3283.9118    4372.0736   -445.69188   -277.17427     2146.535   -3638.7918 
  673000    250.86239   -4685.4053   -4201.5961   -4685.4053            0    4869.9319     20.05833    20.096394    20.772216    8373.2821    5351.7591    4277.0503    4980.9863    507.79498    606.12204    204.30495   -3606.9008 
  674000    266.94865   -4690.4432   -4175.6103   -4690.4432            0     5212.749    20.180283    20.166403    20.478025    8333.8129    5238.7142    3293.8646    7105.6684   -50.304672    -837.2372    40.445187   -3542.0522 
  675000    277.29054   -4719.8832   -4185.1051   -4719.8832            0    4715.9339    19.954343    20.049594    20.713306    8286.9064    4116.7883    5604.6614    4426.3519   -1337.7446    -1818.379   -734.79482    -3615.156 
  676000     267.4995   -4723.7085   -4207.8132   -4723.7085            0     4709.067    19.784802    20.009553     20.93391    8287.4219    5956.5332    3630.5596    4540.1081   -259.24819    602.00615    2034.8204   -3638.6586 
  677000     256.2675   -4679.8589   -4185.6255   -4679.8589            0    2492.3175    20.243752    19.901282    20.967006    8447.1165     2676.224    2437.6638    2363.0645   -85.784105   -1387.1816   -471.06802   -3878.5906 
  678000    257.24148   -4672.0818   -4175.9699   -4672.0818            0    3062.4334     20.08461    20.141818    20.947176    8473.9822    2957.3596    3293.3523    2936.5882    552.63836    1039.6339   -1810.2652   -3797.5011 
  679000    259.57234   -4640.2718   -4139.6647   -4640.2718            0     3590.831    20.122211    20.031261     20.81675    8390.6756     3031.792    3971.8108    3768.8903    183.63289   -216.84216   -609.73122   -3700.2568 
  680000    264.41131   -4675.7489   -4165.8094   -4675.7489            0    2760.9394    20.138731    20.318889      20.7488    8490.3391    1781.0113    2144.2414    4357.5656   -40.671253    324.56083   -515.57829   -3823.9419 
  681000    250.51043   -4676.4185    -4193.288   -4676.4185            0    3555.4482    20.014063    20.030834    21.033593    8432.3332    4863.2997    2312.3482    3490.6968   -451.93563   -566.49468    -907.7782   -3756.0499 
  682000    272.09015   -4709.1038   -4184.3551   -4709.1038            0    3704.1395    20.025578      19.9335    21.003606    8384.2167    4286.9581    3931.2923     2894.168   -12.115568   -683.69266    899.71321   -3731.4307 
  683000    271.12155   -4728.8111   -4205.9304   -4728.8111            0    4324.6856    20.088299    20.080317    20.660036    8333.8335    3823.0726    5365.2126    3785.7715    282.21331   -53.886874   -766.20547   -3680.3063 
  684000    258.14767     -4712.54   -4214.6805     -4712.54            0    3008.4809    20.219967    20.127477    20.696387    8422.9518    1872.3199    3271.2206    3881.9022   -390.02127    790.90458   -38.243447   -3845.1184 
  685000    250.79564    -4646.265   -4162.5845    -4646.265            0    5044.0412    20.040647    20.098021    20.840277    8393.9914    6732.1472    4526.4315    3873.5447   -915.76915    478.75146   -1142.3851   -3545.1043 
  686000    272.78473   -4671.3699   -4145.2816   -4671.3699            0    4719.6118    19.999028    19.802645    21.019686    8324.5029    5225.3987    5765.9047     3167.532   -4.7925322   -362.69063    1033.5856   -3572.3002 
  687000    258.01264   -4686.6922   -4189.0932   -4686.6922            0    3650.5945     20.12972    19.996519    20.970831    8441.2697    2917.0305    4587.6003    3447.1527   -119.69459   -395.78928     444.2631   -3739.6785 
  688000    270.39938   -4680.3272   -4158.8392   -4680.3272            0    4030.2575    20.170867    20.054556    20.663609     8358.797     3730.298    4580.0694     3780.405    521.61151     975.8801    498.47463   -3667.5328 
  689000     250.3374    -4700.104   -4217.3072    -4700.104            0    3068.3082    20.321532     20.06361    20.729201     8451.778     3190.154    3138.2411    2876.5293    -1034.688    1126.7661    104.81381    -3839.106 
  690000    262.81279   -4633.4167   -4126.5602   -4633.4167            0    4704.3514    19.984098    20.117387    20.918544    8409.8371    6334.4353    4498.0012    3280.6177    1017.3134   -613.23228    1278.9142   -3549.5769 
  691000    256.09465   -4662.2983   -4168.3982   -4662.2983            0    3774.0455     20.26594    19.953702    20.734349     8384.567     1996.298    5040.4505    4285.3882   -54.599376    638.07924     1714.049   -3706.9067 
  692000     263.8672    -4673.496   -4164.6059    -4673.496            0    5067.1343    20.074481    19.991789    20.868847    8375.1857    5358.2671    3940.5811    5902.5546    149.97415   -280.26507   -1111.5181   -3545.6884 
  693000    265.94085   -4680.5559   -4167.6666   -4680.5559            0    2167.0946     19.97549     19.83767    21.235468    8414.9191    2339.4313    2541.9797    1619.8728   -568.20519   -989.68029   -267.31547   -3901.7144 
  694000    257.65782   -4649.7844   -4152.8696   -4649.7844            0     3008.553    20.106489    20.155325    20.923593    8479.3449    1657.4108    4088.7319    3279.5164   -49.327653    1212.6064   -517.28051   -3780.8242 
  695000    261.79548   -4678.5434   -4173.6488   -4678.5434            0    5280.3438    20.270528    20.001786    20.592373    8349.1109    4306.7634    5898.5742    5635.6937    491.00034   -2032.6053    1562.6151   -3530.6972 
  696000    249.17376   -4653.9102   -4173.3576   -4653.9102            0    3639.8198    20.198725    20.206288    20.680403    8440.5256     4808.147    2630.9956    3480.3169   -288.62802    1561.1133   -480.33966   -3725.3089 
  697000    262.19297   -4682.8452    -4177.184   -4682.8452            0    3019.0122    20.130752    20.094696    20.786527    8408.5941    3129.8529    2765.8044    3161.3793    183.44723    697.55912   -179.70548   -3806.9604 
  698000    269.31682    -4690.815   -4171.4149    -4690.815            0    3684.6672    20.140938    20.041875    20.862646    8421.4608    3191.4983    4338.0544     3524.449    751.93254   -1568.7094    289.98107   -3718.8701 
  699000    270.58456   -4674.7135   -4152.8684   -4674.7135            0    4474.5948    19.764857     20.28965    20.842158    8358.1646    4413.4422    5091.7989    3918.5431   -8.9295695    652.12743    1499.7413   -3607.4365 
  700000    247.10545   -4665.7929   -4189.2293   -4665.7929            0    3141.1507    20.076379    20.140646    20.867469    8437.7871    2791.9131    2839.5226    3792.0164    187.88106    1158.2561    376.80065   -3802.6904 
  701000    252.98818   -4675.5265   -4187.6175   -4675.5265            0    2948.0134    20.288163    20.140503     20.56272    8402.2113    2947.0204    2590.0597    3306.9602    246.07052   -1602.2661    1290.4057   -3826.3749 
  702000    268.80325   -4688.0869   -4169.6772   -4688.0869            0    3925.7803    20.042041    20.376516    20.610526    8417.0702    3326.1706    3825.3524    4625.8181    96.884365    546.80048    431.26554   -3687.7706 
  703000     262.9234   -4717.9567   -4210.8868   -4717.9567            0    3656.3682    20.051129    20.004724    20.866045    8369.7319    3690.8141    5063.8044     2214.486    299.29693    1102.9019   -42.053147   -3764.5761 
  704000    251.07945   -4689.3523   -4205.1245   -4689.3523            0    4203.4723    20.032904    19.866029    21.172311    8426.0347    4003.7743    4752.1932    3854.4495   -158.94857    253.80023    2130.9157   -3688.5805 
  705000    252.31086   -4700.6474   -4214.0447   -4700.6474            0    4554.2854    20.107007    19.946769    20.775893    8332.5841    3963.5757    5625.2616    4074.0189   -272.12056   -1372.7007    1055.5479    -3660.598 
  706000    254.57767   -4701.2044   -4210.2299   -4701.2044            0    4561.7653    20.154071    20.074221    20.612254    8339.2493     4727.718    4066.6827     4890.895    294.38927    1116.9638   -1481.1962   -3655.4308 
  707000    261.13286    -4682.591   -4178.9743    -4682.591            0    4606.2075    20.170579    20.192651    20.554129    8371.6449    4336.1724    3670.6704    5811.7795    194.98217   -867.11542    599.94821   -3616.5939 
  708000     259.6968   -4657.5272   -4156.6801   -4657.5272            0    3743.4581     20.04455    20.118876    20.750348    8368.0722    5049.8419    2259.3394    3921.1931    14.837517   -626.09716   -1755.4727   -3699.8294 
  709000    252.30764   -4672.1114   -4185.5149   -4672.1114            0    3253.1363     20.13638    19.992376    20.834085    8387.2627    4289.3058    2010.2426    3459.8604    452.17962    961.36538    473.58694   -3787.5925 
  710000    261.55735   -4638.9222   -4134.4869   -4638.9222            0    5285.1522    20.052365    20.066478     20.73486    8343.2999    5137.8351    5489.9994    5227.6221    306.13738    200.36688    664.58799   -3491.3976 
  711000     266.8489   -4697.3313   -4182.6908   -4697.3313            0    1746.3071    19.982389    20.369946    20.845957    8485.1423    1214.6627     2542.554    1481.7045     439.0406   -486.53892   -1356.8881   -3966.5904 
  712000    257.80537   -4675.9588   -4178.7594   -4675.9588            0    4673.6492    20.069607    20.072485    20.699821    8338.8581    3635.8918    6163.8358    4221.2201   -638.73651     145.1661   -553.46313   -3610.3797 
  713000    280.55886    -4686.855   -4145.7736    -4686.855            0    3160.6487    19.988183    19.998985     21.12032     8442.708    3941.3203    2421.4719    3119.1539    409.81562   -696.08495    288.56947   -3756.6085 
  714000    261.90491    -4666.205   -4161.0994    -4666.205            0     4004.176    20.073448    19.861836    21.024535    8382.3884     3831.581    4391.4976    3789.4494    323.04943    165.64717   -808.21699   -3671.5947 
  715000    252.84698   -4703.9093   -4216.2726   -4703.9093            0    5422.5755    20.145259     19.94447    20.507739    8239.7329    5936.9439    4128.7608    6202.0218     235.8121   -774.75991   -547.40673   -3564.6523 
  716000    253.12205   -4683.9063   -4195.7391   -4683.9063            0    3258.1071    19.922529    20.103054     20.95277    8391.6609    3754.7917    3246.1441    2773.3855     356.4445    285.67232   -434.00008   -3796.9997 
  717000      256.024   -4711.5636   -4217.7998   -4711.5636            0    4051.5304    19.818102    20.022715    21.017868    8340.1471    4364.2117    4450.2335    3340.1459   -39.551617   -286.64268    29.446105   -3725.0021 
  718000    267.69098   -4672.8714   -4156.6068   -4672.8714            0    3790.3312    20.083567    20.174091    20.799996    8427.4868    5190.2636    2369.3744    3811.3557   -207.63754   -965.52684   -851.12929   -3690.7514 
  719000    274.08168   -4701.9458   -4173.3562   -4701.9458            0    4302.5574    20.281204     20.06931    20.724059    8435.3091    3962.7324    3808.7326    5136.2072   -370.30687   -558.43544   -500.32598   -3644.0542 
  720000    265.94241   -4724.2721   -4211.3798   -4724.2721            0    3756.6147    20.084248    20.266643    20.484912    8338.1844    5279.0357     1638.271    4352.5375    216.31893    191.68812    918.70277    -3754.561 
  721000    265.76933   -4705.4804   -4192.9219   -4705.4804            0    1869.2522    20.131749    20.198186    20.992896    8536.2323    1790.5051     2097.404    1719.8474   -493.97105    559.93227    -2158.052   -3960.2146 
  722000    260.65335   -4709.9291   -4207.2372   -4709.9291            0    6086.3751    20.083499    19.915701    20.789503    8315.3219    6548.5807    7091.8219    4618.7227    19.135687   -30.637016   -687.72624   -3469.1398 
  723000     257.5394   -4690.3321   -4193.6457   -4690.3321            0    3452.3958    20.118432    20.267101    20.511034     8363.216     2872.432    3624.6696    3860.0859    375.79006   -938.48921    812.81679   -3772.5607 
  724000    244.37127   -4654.1661   -4182.8755   -4654.1661            0    4260.7908    20.118219    20.341051    20.689386    8466.6293    3245.5906    4266.3485    5270.4332    57.489637    797.29172    843.85865   -3656.7654 
  725000    266.21198   -4713.5344   -4200.1222   -4713.5344            0    3685.9413    20.096154     19.99081    20.818478    8363.5818    3280.1025    4568.8834    3208.8381   -160.50683    99.551365    747.84307   -3750.5322 
  726000    254.10457   -4672.3064   -4182.2444   -4672.3064            0    3920.6697    20.061014    20.032433    20.927558    8410.1769    4238.4195     4545.556    2978.0337    215.95714    211.66594    -573.9592   -3701.3593 
  727000     269.2445   -4623.5361   -4104.2754   -4623.5361            0    4299.0913    20.120406    19.712541    20.972713    8318.2883    4027.2906    4605.2576    4264.7255   -668.63011    94.639015   -833.24453   -3582.7368 
  728000    276.29977   -4695.6277   -4162.7603   -4695.6277            0    2962.6777    20.116372    20.105503    21.040541    8509.8419    2353.0362    3220.0294    3314.9675    449.72926   -241.54708    111.96432   -3795.0704 
  729000    268.54441   -4689.7419   -4171.8314   -4689.7419            0    2692.4944    19.976721    20.215607    20.853855    8421.6527    3662.5961    1274.9989    3139.8881   -231.18241   -705.52569   -241.76134   -3841.1361 
  730000    264.32126   -4653.6749   -4143.9091   -4653.6749            0    3074.3106    20.171396    20.027318    20.935683    8457.5758    2122.5998    3691.7828    3408.5492   -554.59108    965.12592   -782.08845   -3764.7081 
  731000    276.97542   -4689.3681   -4155.1977   -4689.3681            0    3786.3144    20.095772    20.159094    20.687684    8380.8405    3161.7711    3749.7769    4447.3951    332.42503   -1989.7601    661.04788   -3692.4117 
  732000       265.51    -4684.168   -4172.1097    -4684.168            0    2678.3585    20.158636    20.125498    20.852939    8460.0917    1764.7632    3865.5021    2404.8102    305.18923    274.05029    1117.5499   -3841.6491 
  733000    269.54658   -4704.4577   -4184.6144   -4704.4577            0    3389.4153    19.765989    20.266027    20.819321    8339.7633      6349.67      1260.82     2557.756   -350.24061   -1081.9349   -281.29613   -3772.3704 
  734000    264.50192    -4674.426   -4164.3118    -4674.426            0    5400.1868    20.091278    19.982057    20.866975    8377.3615    3629.2609    6143.3252    6427.9743    697.99473     909.8874    1201.4506   -3504.5428 
  735000    252.25007   -4692.7772   -4206.2917   -4692.7772            0    1905.9418    20.004177    20.151437    21.034011    8479.0813    2806.4284    1441.0326    1470.3644   -467.44909    5.3429065   -444.60912   -3970.6054 
  736000    256.64605   -4688.3261   -4193.3626   -4688.3261            0    3590.5693    20.160961    19.868005    20.886684    8366.3298    2344.0354    5430.9023    2996.7701    48.856328      352.044    88.809885   -3755.2616 
  737000    250.46561   -4665.3008   -4182.2568   -4665.3008            0    5039.7339    19.911725    20.239609    20.806566    8385.1613    5487.3732    5415.4431    4216.3854   -548.98897    107.76834    1389.3708   -3565.9529 
  738000    264.02407    -4668.589   -4159.3963    -4668.589            0    4566.7008    20.179767    19.919827    20.856542    8383.8602    5435.7007    3066.9387    5197.4628   -380.58165    673.28197    420.56607   -3601.0258 
  739000    252.77937   -4673.3056   -4185.7993   -4673.3056            0    3529.1812     20.03096    20.234839    20.803836    8432.2788    4122.3948    2812.2775    3652.8714   -169.79154    130.08403    314.32615   -3751.7942 
  740000      259.593   -4667.4221   -4166.7752   -4667.4221            0    2575.9087    20.301381    20.014318    20.720947    8419.2998    2168.5051    1988.8423    3570.3789    733.09055   -954.09047   -443.13258   -3850.4874 
  741000    242.86485   -4670.0702   -4201.6849   -4670.0702            0    3662.9572    20.040855    19.974648    20.901337     8366.994    4762.8309    2215.5057    4010.5349    12.659198    366.53133    417.14894   -3754.7161 
  742000    259.91654   -4685.3049    -4184.034   -4685.3049            0    4116.0463    19.965861    20.075125    20.987275      8412.06     5031.988    3937.8745    3378.2765   -572.02165   -502.98512    737.61142   -3679.0722 
  743000    270.23498   -4664.7442   -4143.5733   -4664.7442            0    4811.4329    20.022146     20.06109     20.73766    8329.6144    5055.4534    3639.2789    5739.5666    30.985413   -1283.1177   -543.66795   -3559.0859 
  744000    264.20896   -4675.2105   -4165.6613   -4675.2105            0    2117.4761    20.181573    20.167288    20.868265    8493.5422    880.16935    4388.1445    1084.1146   -653.03639    527.20937    64.786147   -3903.3704 
  745000    271.99284   -4650.9334   -4126.3723   -4650.9334            0     7154.175    19.988751    20.213934    20.488172    8278.2725    7765.5728    6426.9252    7270.0269   -198.85908   -1084.4739    451.81219    -3262.648 
  746000    268.71012    -4679.834    -4161.604    -4679.834            0    3133.2235    20.086671    20.051452    20.840843    8394.0026    1871.8681    4845.6384    2682.1639   -42.612463   -245.38544    1287.1913   -3778.0413 
  747000    252.92742   -4671.3259   -4183.5341   -4671.3259            0    2926.2972    19.937147    19.983801    21.227658    8457.5232    4382.0086    2994.0148    1402.8681   -396.06131   -61.494375    493.50764    -3822.592 
  748000    280.63757   -4697.9924   -4156.7593   -4697.9924            0       2849.9    20.053878    20.122722    20.814661    8399.5195    2144.9582    2318.1706    4086.5711   -1184.6096   -354.12336   -21.471196   -3807.6512 
  749000    258.91286   -4706.6268   -4207.2916   -4706.6268            0    2261.0278    20.007337    20.450569    20.706681    8472.3751    3000.7223    1391.6511    2390.7099    376.44976    1299.8267    1398.7847   -3927.9169 
  750000    265.89694   -4645.8933   -4133.0887   -4645.8933            0    3821.8651    20.179385    19.997021    20.800472    8393.5641    2558.4571    4613.6024    4293.5357    124.66814    -267.4687    734.93722   -3665.2483 
Loop time of 401.732 on 64 procs for 250000 steps with 972 atoms

Performance: 107.534 ns/day, 0.223 hours/ns, 622.305 timesteps/s
99.1% CPU use with 64 MPI tasks x 1 OpenMP threads

MPI task timing breakdown:
Section |  min time  |  avg time  |  max time  |%varavg| %total
---------------------------------------------------------------
Pair    | 20.143     | 28.019     | 36.351     |  78.4 |  6.97
Bond    | 0.26577    | 0.27892    | 0.29207    |   0.9 |  0.07
Kspace  | 163.57     | 174.04     | 184.46     |  38.8 | 43.32
Neigh   | 3.0689     | 3.55       | 4.139      |  15.9 |  0.88
Comm    | 80.983     | 89.552     | 97.836     |  44.8 | 22.29
Output  | 1.2762     | 1.2777     | 1.2796     |   0.0 |  0.32
Modify  | 95.369     | 97.966     | 101.56     |  13.8 | 24.39
Other   |            | 7.044      |            |       |  1.75

Nlocal:        15.1875 ave          19 max          10 min
Histogram: 1 4 5 9 3 7 11 16 6 2
Nghost:        2209.34 ave        2255 max        2179 min
Histogram: 6 7 11 10 10 6 8 2 3 1
Neighs:        4693.70 ave        5987 max        3207 min
Histogram: 5 3 7 9 5 7 5 10 7 6

Total # of neighbors = 300397
Ave neighs/atom = 309.05041
Ave special neighs/atom = 2.0000000
Neighbor list builds = 8475
Dangerous builds = 0

unfix		3
unfix		2
unfix		1

write_data	data.final.${pid}
write_data	data.final.0
System init for write_data ...
PPPM initialization ...
  extracting TIP4P info from pair style
  using 12-bit tables for long-range coulomb (../kspace.cpp:340)
  G vector (1/distance) = 0.37213739
  grid = 24 24 25
  stencil order = 5
  estimated absolute RMS force accuracy = 0.0034416403
  estimated relative force accuracy = 1.0364398e-05
  using double precision FFTW3
  3d grid and FFT values/proc = 2366 288
Last active /omp style is kspace_style pppm/tip4p/omp
WARNING: Not all mixed pair coeffs generated from mixing. Use write_data with 'pair ij' option to store all pair coeffs. (../write_data.cpp:312)

write_restart   restart.lmp.${pid}
write_restart   restart.lmp.0
System init for write_restart ...
PPPM initialization ...
  extracting TIP4P info from pair style
  using 12-bit tables for long-range coulomb (../kspace.cpp:340)
  G vector (1/distance) = 0.37213739
  grid = 24 24 25
  stencil order = 5
  estimated absolute RMS force accuracy = 0.0034416403
  estimated relative force accuracy = 1.0364398e-05
  using double precision FFTW3
  3d grid and FFT values/proc = 2366 288
Last active /omp style is kspace_style pppm/tip4p/omp
Total wall time: 0:06:42
