#include		in.partitions
include		in.temp
variable        temperature equal 172.60
variable	tempDamp equal 100.0
include		in.pressure
variable        pressure equal 2085.6
variable        pressureDamp equal 1000.0 # This is 1 ps
include		in.seed
variable        seed equal 745823

units		real
atom_style	full
#include		in.box
read_restart	restart.lmp.${pid}
read_restart	restart.lmp.1
Reading restart file ...
  restart file = 30 Jul 2021, LAMMPS = 30 Jul 2021
  restoring atom style full from restart
  orthogonal box = (0.11019334 0.10346955 0.16635114) to (18.097379 23.525708 22.046845)
  2 by 4 by 4 MPI processor grid
  restoring pair style lj/cut/tip4p/long/omp from restart
  restoring bond style harmonic/omp from restart
  restoring angle style harmonic/omp from restart
  864 atoms
  576 bonds
  288 angles
Finding 1-2 1-3 1-4 neighbors ...
  special bond factors lj:    0        0        0       
  special bond factors coul:  0        0        0       
     2 = max # of 1-2 neighbors
     1 = max # of 1-3 neighbors
     1 = max # of 1-4 neighbors
     2 = max # of special neighbors
  special bonds CPU = 0.002 seconds
  read_restart CPU = 0.007 seconds
include 	in.setup
variable	out_freq equal 1000
variable	out_freq2 equal 10000
variable	out_freq3 equal 1000

timestep	2.0

neigh_modify    delay 7 every 1

include		in.tip4p
# This is TIP4P/Ice

# create groups ###
group ox type 2
288 atoms in group ox
group hy type 1
576 atoms in group hy

# set charges - beside manually ###
set group ox charge -1.1794
Setting atom values ...
  288 settings made for charge
set group hy charge 0.5897
Setting atom values ...
  576 settings made for charge

# ### TIP3P Potential Parameters ###
pair_style lj/cut/tip4p/long/omp 2 1 1 1 0.1577 8.5
pair_coeff 1 1*2 0.000 0.000
pair_coeff 2 2 0.21084 3.1668
bond_style  harmonic
bond_coeff  1 450 0.9572
angle_style harmonic
angle_coeff 1 55 104.52
kspace_style pppm/tip4p/omp 1.0e-5
pair_modify tail yes

thermo          ${out_freq}
thermo          1000
thermo_style    custom step temp pe etotal epair emol press lx ly lz vol pxx pyy pzz pxy pxz pyz enthalpy

restart 	${out_freq3} restart.lmp.${pid} restart2.lmp.${pid}
restart 	1000 restart.lmp.${pid} restart2.lmp.${pid}
restart 	1000 restart.lmp.1 restart2.lmp.${pid}
restart 	1000 restart.lmp.1 restart2.lmp.1


include         in.dump
dump            myDump all atom ${out_freq2} dump.water.${pid}
dump            myDump all atom 10000 dump.water.${pid}
dump            myDump all atom 10000 dump.water.1
dump            myDump2 all dcd ${out_freq2} dump.dcd
dump            myDump2 all dcd 10000 dump.dcd
dump_modify     myDump append yes
dump_modify     myDump2 append yes


variable natoms 	equal  "count(all)"                        # NUMBER ATOMS
variable H      	equal  "enthalpy/v_natoms"                 # ENTHALPY-per-atom
variable Vol      	equal  "vol/v_natoms"                 # volume-per-atom
fix AVG all 		ave/time ${out_freq} 1 ${out_freq} v_Vol v_H file vol_enthalpy.dat
fix AVG all 		ave/time 1000 1 ${out_freq} v_Vol v_H file vol_enthalpy.dat
fix AVG all 		ave/time 1000 1 1000 v_Vol v_H file vol_enthalpy.dat


timer           timeout 23:50:00 every 1000
New timer settings: style=normal  mode=nosync  timeout=23:50:00

fix 		1 all shake 1e-6 200 0 b 1 a 1
       0 = # of size 2 clusters
       0 = # of size 3 clusters
       0 = # of size 4 clusters
     288 = # of frozen angles
  find clusters CPU = 0.000 seconds
fix             2 all nph aniso ${pressure} ${pressure} ${pressureDamp}
fix             2 all nph aniso 2085.6 ${pressure} ${pressureDamp}
fix             2 all nph aniso 2085.6 2085.6 ${pressureDamp}
fix             2 all nph aniso 2085.6 2085.6 1000
fix             3 all temp/csvr ${temperature} ${temperature} ${tempDamp} ${seed}
fix             3 all temp/csvr 172.6 ${temperature} ${tempDamp} ${seed}
fix             3 all temp/csvr 172.6 172.6 ${tempDamp} ${seed}
fix             3 all temp/csvr 172.6 172.6 100 ${seed}
fix             3 all temp/csvr 172.6 172.6 100 745823


run             250000
PPPM initialization ...
  extracting TIP4P info from pair style
  using 12-bit tables for long-range coulomb (../kspace.cpp:340)
  G vector (1/distance) = 0.37192242
  grid = 24 27 25
  stencil order = 5
  estimated absolute RMS force accuracy = 0.0031309658
  estimated relative force accuracy = 9.4288107e-06
  using double precision FFTW3
  3d grid and FFT values/proc = 4410 672
Last active /omp style is kspace_style pppm/tip4p/omp
Neighbor list info ...
  update every 1 steps, delay 7 steps, check yes
  max neighbors/atom: 2000, page size: 100000
  master list distance cutoff = 10.8154
  ghost atom cutoff = 10.8154
  binsize = 5.4077, bins = 4 5 5
  1 neighbor lists, perpetual/occasional/extra = 1 0 0
  (1) pair lj/cut/tip4p/long/omp, perpetual
      attributes: half, newton on, omp
      pair build: half/bin/newton/omp
      stencil: half/bin/3d
      bin: standard
Per MPI rank memory allocation (min/avg/max) = 10.21 | 10.22 | 10.23 Mbytes
Step Temp PotEng TotEng E_pair E_mol Press Lx Ly Lz Volume Pxx Pyy Pzz Pxy Pxz Pyz Enthalpy 
13750000    184.44982   -4419.6613   -4103.5206   -4419.6613            0    2562.7108    17.987186    23.422239    21.880494    9218.2554    537.65048    4288.9748    2861.5071    477.82063   -324.99213   -108.06783   -3758.9928 
13751000     175.2298   -4420.4397   -4120.1019   -4420.4397            0    2933.3004    18.043655    23.028219    22.086797    9177.3567    2373.7036    4997.7951    1428.4023    1058.6589   -248.89759   -239.15445   -3727.5021 
13752000    169.31747   -4413.8181   -4123.6137   -4413.8181            0    2528.8467    17.861832    23.443501    21.957229    9194.4553    3146.1425    2029.6315     2410.766    340.45872    75.336213    340.17373   -3784.5164 
13753000    175.55578   -4430.9208   -4130.0242   -4430.9208            0    1495.6555     18.03385    23.349073    21.943907    9240.0017    1194.9052    1498.1225    1793.9389   -584.21292    101.55401   -275.64205   -3928.4757 
13754000    161.27589    -4429.232   -4152.8106    -4429.232            0    1617.9795     17.88616    23.531317    22.019063     9267.491    2349.1019    1507.3032    997.53336    60.485581   -115.79738    552.52094   -3934.1296 
13755000    167.00478   -4404.3783   -4118.1379   -4404.3783            0    806.61492    18.222302    23.074561    22.100422    9292.6005    513.82165    1045.6642    860.35887   -487.66346   -100.60175    182.11457    -4008.823 
13756000    176.15618   -4414.3948   -4112.4691   -4414.3948            0    2328.9283    18.003929     23.37346    21.912453    9221.0697    1925.7531    2820.5737    2240.4582   -182.51968    171.07245   -414.75587   -3799.2752 
13757000    169.51914    -4411.817    -4121.267    -4411.817            0    2346.3423    17.901236    23.440665     21.98383    9224.7861    1799.9282    2801.5475    2437.5513   -619.19933   -136.16737   -351.77851   -3805.6041 
13758000    176.50087   -4415.6214    -4113.105   -4415.6214            0    2699.5163    18.054167    23.225784    21.981008    9217.1244    3179.5189    2074.7618    2844.2681   -343.10762    684.36783   -231.47788   -3750.2298 
13759000    179.18622   -4407.5922   -4100.4732   -4407.5922            0    2542.0285    17.886358     23.66618    21.817142    9235.2346    3570.3318    1782.7319    2273.0217   -663.22451    108.19104    368.32979   -3758.0965 
13760000    172.87441   -4415.8102   -4119.5093   -4415.8102            0    1576.2913    18.149392    23.058731    22.127334    9260.3323    1778.6804    3512.2583   -562.06496    770.77699   -110.99285   -235.06592   -3906.6273 
13761000    171.56049   -4417.5392   -4123.4904   -4417.5392            0    1851.8546    17.801315    23.643398    22.012847    9264.8454    3529.1927    535.79482    1490.5762    394.73639   -296.23423   -755.49911    -3873.271 
13762000    181.15208   -4407.0195    -4096.531   -4407.0195            0    1888.7728        18.12    23.220587    22.009044    9260.4602    2448.8141    362.32782    2855.1764    44.698779    73.419934   -25.764927   -3841.4441 
13763000    180.06376    -4412.846   -4104.2228    -4412.846            0    2413.0832    17.898834    23.475429    21.958316    9226.5066    2267.9313    2694.2277    2277.0906   -938.14821   -960.48899   -476.60009   -3779.5205 
13764000    169.96191   -4427.6356   -4136.3267   -4427.6356            0    2995.7103    17.943661    23.313236    21.975068    9192.7159    3171.9921    2728.6031    3086.5356   -242.35547    229.61274    291.38135   -3734.7028 
13765000    172.03826   -4415.0462   -4120.1785   -4415.0462            0    1731.2241    18.010508     23.19541    22.160608    9257.8405    1816.9713    3638.5819   -261.88098   -733.00137   -918.82514    176.33891   -3886.4353 
13766000    175.73657   -4420.5457   -4119.3392   -4420.5457            0    2782.7389    18.067459    23.435479    21.733858    9202.5406    2437.9798    2392.5015    3517.7354    197.74666    -955.8669   -318.14615   -3745.8689 
13767000    175.85378   -4424.4198   -4123.0125   -4424.4198            0    1722.5661    17.908695    23.300169    22.144966    9240.5549    1566.1185     2732.415    869.16473   -126.18896   -261.58999    803.67809   -3890.8725 
13768000    165.53483   -4428.7262   -4145.0052   -4428.7262            0    520.97144    18.028885    23.539128    21.921235    9303.0264    572.06266    687.35583    303.49584   -193.46063    667.58304   -399.05302   -4074.3223 
13769000    175.21128   -4422.6319   -4122.3257   -4422.6319            0    1829.0459    17.979135    23.188114    22.067151    9199.8443    1987.7453    2863.0264    636.36606   -369.82192    221.88219    -101.4251   -3876.9221 
13770000    172.92408   -4432.8602   -4136.4743   -4432.8602            0    2150.3445    17.921014    23.417688    21.926553    9201.8883    2041.1301    2040.0398    2369.8636    -306.3883   -78.960314   -123.46192   -3847.8978 
13771000    170.55571   -4431.2879   -4138.9612   -4431.2879            0    2990.1431    17.931747    23.403717    21.871646    9178.8633    2177.0497    4909.0088    1884.3707   -519.21115   -209.69432    761.97572   -3738.6878 
13772000    173.18886    -4408.128   -4111.2882    -4408.128            0    2345.4353    17.986566    23.312607    21.954869    9205.9784    2253.5518    2452.2321     2330.522   -27.640439    495.06914    506.84684   -3796.3907 
13773000    167.57787   -4425.3897    -4138.167   -4425.3897            0    1157.6589    17.967967    23.285825    22.132889    9260.3774    147.38442    2576.4164    749.17599    313.17948    736.77816   -347.53575   -3981.8216 
13774000    187.52381   -4408.5115   -4087.1021   -4408.5115            0    2835.9269    17.951694    23.488018    21.816246    9198.8137    1741.4405    2245.4472    4520.8928    -483.8934   -165.83114    249.54031   -3706.6476 
13775000    174.92877   -4419.9994   -4120.1774   -4419.9994            0    1722.7296    17.999459      23.2336    22.168191    9270.5655    1346.0731    2075.9412    1746.1745   -390.75974    661.40938    920.37617   -3887.2615 
13776000    184.18486   -4417.7117   -4102.0251   -4417.7117            0    2486.7908    17.822919    23.566379    21.892877    9195.4829    2857.1054    2197.7583    2405.5086    301.02859   -177.25748   -542.61347   -3768.5298 
13777000    172.79935   -4403.4028   -4107.2306   -4403.4028            0    1488.3297     18.15215    23.301617    21.937175    9278.8648    982.39851    1350.5793    2132.0114    91.850297   -117.01428   -220.81728   -3905.8258 
13778000     179.0116   -4439.2726   -4132.4529   -4439.2726            0    2488.8191    17.842872    23.302404    22.121077    9197.5415    2533.5468    3259.6038    1673.3066    1.7421933    95.237392     800.9751   -3798.6109 
13779000    167.63288      -4434.8   -4147.4829      -4434.8            0    1734.0418     18.00622    23.445583    21.956503    9269.2959     745.0611    1651.6722    2805.3922   -1250.7417    43.054506    395.48555   -3913.0697 
13780000    180.51127    -4416.828   -4107.4378    -4416.828            0    2312.6769    18.037542    23.305004    21.973865    9237.0432    2378.4099    2527.4495    2032.1713   -458.93299   -120.67553    382.51251   -3795.8907 
13781000    177.60706   -4401.4379   -4097.0254   -4401.4379            0    3618.9207     17.89903    23.323003    21.959427    9167.1638    3936.8794    3981.1166    2938.7662    54.479129    89.497955   -90.706134   -3613.1986 
13782000    175.89365   -4415.5324   -4114.0567   -4415.5324            0    2278.3158     17.99611    23.440823    21.952224     9260.406     2304.242     2019.447    2511.2583   -813.16664   -404.68616   -190.52041   -3806.3621 
13783000    173.03654   -4411.2691   -4114.6904   -4411.2691            0    3822.4072    17.819127     23.35195    22.001451    9155.0538    3607.5365    4565.4314    3294.2536   -312.21776   -580.01484     808.2441   -3604.3338 
13784000    169.22488   -4428.4985   -4138.4528   -4428.4985            0     1881.411     18.00577    23.273517    22.002621    9220.3653     1428.368    2782.9277    1432.9375    542.70325     106.3892   -676.98853   -3885.4603 
13785000    167.60339   -4434.6545   -4147.3881   -4434.6545            0    1838.0954    17.849085    23.578044    21.974077    9247.7138    2604.3915    1583.1661    1326.7287    211.93168   -65.231358   -308.67567    -3899.487 
13786000    172.03726   -4432.3749   -4137.5089   -4432.3749            0    2390.5248    18.136907    23.175132    21.959065    9229.9486    2070.3237    2175.8858    2925.3648   -314.63104    313.61609   -144.86758   -3815.7219 
13787000    170.79976   -4411.5416   -4118.7966   -4411.5416            0     2364.024    17.831358    23.639103    21.876729    9221.4198     2512.484    2477.3986    2102.1894    -334.8423   -189.99848    428.66344    -3800.871 
13788000    179.68323     -4434.63   -4126.6591     -4434.63            0    788.09637    18.023125    23.340148    22.112953    9302.0878    443.47753    1474.0708    446.74075    -264.8381   -155.21811    131.06515   -4019.7448 
13789000    172.03301   -4415.3288   -4120.4701   -4415.3288            0    1179.5093    18.054885      23.4239    21.929508    9274.3356    1970.2305   -118.19031    1686.4878   -254.24097    -170.8095   -216.14919   -3960.9336 
13790000    169.76048   -4426.4423   -4135.4786   -4426.4423            0    1507.3347     17.93667    23.531261    21.966625    9271.5075    1497.7969    377.01387    2647.1932    866.07354    394.77714    39.242069   -3931.6637 
13791000    178.51487     -4431.57   -4125.6016     -4431.57            0    1491.5815    18.171882    23.089481    21.998525    9230.1257    1193.1615    1625.3597    1656.2233    522.91139   -233.83391    263.16747    -3924.817 
13792000    172.31503   -4425.2629   -4129.9208   -4425.2629            0    2305.7614    17.796362    23.537928    21.991888     9212.171    3032.2584    2262.9893    1622.0365   -704.12966    36.058899   -118.12606   -3820.1416 
13793000    174.02061     -4410.85   -4112.5846     -4410.85            0    2354.3202    18.272789    22.976873     21.91287     9200.152    539.02122    2733.6326    3790.3069   -142.31806     114.0052   -358.35061   -3796.6942 
13794000    174.11742   -4417.1961   -4118.7648   -4417.1961            0    1499.6426    17.901586    23.528554    22.014447    9272.4504    1989.6525    1181.7433    1327.5319    126.81251    196.14307     121.5682   -3915.9693 
13795000    164.85511   -4435.9494   -4153.3934   -4435.9494            0    2065.2581    18.099254    23.282927    21.839099    9203.0754    736.06352     2748.158    2711.5528   -550.83707    237.57988     303.3311   -3876.1998 
13796000    177.56626   -4411.4778   -4107.1353   -4411.4778            0    2690.8729    17.926793    23.185462    22.164801    9212.5996    2063.8056    3093.6621    2915.1512   -195.23114   -261.96571    673.26704   -3745.5995 
13797000    161.72419   -4412.7037    -4135.514   -4412.7037            0    713.60953    18.035458    23.541873    21.914503    9304.6451    1146.3304   -27.855502    1022.3537   -289.98238    62.544647    468.97785   -4038.6781 
13798000    161.97405   -4396.1638   -4118.5458   -4396.1638            0    825.29285    18.070429    23.378147    21.957457    9275.9965   -190.20932   -45.948167     2712.036   -1050.9418   -484.85881      530.461   -4006.8995 
13799000     178.5432   -4422.9376   -4116.9207   -4422.9376            0    2047.7733    17.898283    23.445127    21.989642    9227.4591    2345.8352    1305.6014    2491.8832    271.32724    369.76905     241.6163   -3841.3457 
13800000    163.46848   -4409.5627   -4129.3833   -4409.5627            0    2073.9622    18.174237    23.264873    21.871369    9247.6811    1660.4154    1158.1921    3403.2792   -501.18915   -41.948851   -300.07574   -3849.6723 
13801000     178.0851   -4412.8108   -4107.5791   -4412.8108            0    2402.0878    17.792089    23.626468    21.933998    9220.2676    2842.5914    2236.3164    2127.3555    -751.7764    414.11039    236.84026   -3784.5748 
13802000    167.90627   -4418.7136    -4130.928   -4418.7136            0     1505.053    18.061108    23.249312    22.067481    9266.3193    1473.7604    707.33369    2334.0648    338.99521    29.596396    237.15014   -3927.5355 
13803000     170.7248   -4427.4588   -4134.8423   -4427.4588            0    2839.0452    17.966494       23.294    21.893462    9162.6656    2535.8026    2722.9099     3258.423   -214.88062    352.70112    31.444103   -3755.4661 
13804000      170.995   -4401.4037   -4108.3241   -4401.4037            0    1690.2904    17.877666     23.41469    22.082654    9243.7989    2614.1021    1281.3475    1175.4216   -484.33185   -40.009925   -403.18196   -3880.4538 
13805000    174.03267   -4423.7923   -4125.5062   -4423.7923            0    1385.3104    18.064675    23.487648    21.820562    9258.3928    680.27931    690.87216    2784.7796    -455.2879   -546.32614    680.25993   -3938.4559 
13806000    180.47136   -4411.0723   -4101.7505   -4411.0723            0     1502.365    17.844059    23.517493    22.083096    9267.1165    1538.9439    447.77724    2520.3738    940.68057    384.52888    499.19203   -3898.7038 
13807000    171.73216   -4415.8008   -4121.4577   -4415.8008            0    2900.5721    18.001012    23.294486     21.98302    9218.0149    3379.1198    3488.4223    1834.1741   -195.72516     279.3317   -193.76218   -3731.5185 
13808000    172.09639   -4417.1337   -4122.1664   -4417.1337            0    1358.9462    17.918816     23.54928    21.988834    9278.7426    1728.3283    1533.8467    814.66357    749.61104    591.42156   -407.38325   -3938.2725 
13809000    169.45933   -4412.4706   -4122.0231   -4412.4706            0    1987.5335    18.049255    23.113493    22.122708    9229.1809    2204.0776    3133.5373    624.98567   -349.83978   -333.01738   -32.858253   -3854.5048 
13810000    166.17711   -4431.8817   -4147.0598   -4431.8817            0    2031.7028     17.94467    23.483333    21.918719    9236.5627    3201.9233    2063.9076    829.27764   -446.68471    188.78767    55.164032   -3873.3776 
13811000    172.04211   -4418.5978   -4123.7235   -4418.5978            0    1110.8589    17.981397    23.422784    22.058524    9290.4848    227.48883    1092.5048     2012.583   -1343.9491    77.853628    214.02723   -3973.2108 
13812000    175.09609   -4416.2792   -4116.1705   -4416.2792            0    1523.3828    18.151783    23.341114    21.948455    9299.1837    1551.5816    1398.5828     1619.984   -546.07261   -1046.1993    321.65216   -3909.5708 
13813000    174.50567   -4398.6452   -4099.5485   -4398.6452            0    2747.3469    18.044604    23.371746    21.922324    9245.3875     1865.535    2944.0261    3432.4796    528.99216    551.96147    338.31191   -3729.1114 
13814000    172.19664    -4417.925   -4122.7859    -4417.925            0    2671.7849    17.897745    23.270086    22.187475    9240.6852    3480.5296    2967.8283    1566.9967    304.72837    95.991442    547.16631   -3762.7204 
13815000    162.71923   -4424.0166   -4145.1214   -4424.0166            0    2022.2377    17.980911    23.505048    21.911338    9260.6558    1156.8341    3094.2966    1815.5823   -823.89644   -216.39155   -544.67742   -3872.0037 
13816000    175.27825   -4406.7483   -4106.3273   -4406.7483            0     1992.096    18.065963    23.139331    22.221353    9289.2876    1853.5509    2401.4362    1721.3009      1334.39   -334.79248    834.44201   -3836.4487 
13817000    159.44699   -4421.6235   -4148.3368   -4421.6235            0     2851.246    17.875162    23.497934     21.89615    9197.0259    2976.2673    1398.1849    4179.2859    241.15896   -168.41305    334.16969   -3765.9015 
13818000    174.28015   -4427.5581   -4128.8479   -4427.5581            0    1587.2019    17.956302    23.423577    21.947912    9231.3101     2136.161    346.53263    2278.9121   -1101.7265    -803.7679    385.56991   -3915.1642 
13819000    158.78498    -4422.907    -4150.755    -4422.907            0    3243.6352    17.995425     23.28696    21.881018    9169.4324    3416.6395    1783.1786    4531.0873     219.3091    233.07985    486.07844   -3716.9942 
13820000    175.49378   -4429.7812   -4128.9909   -4429.7812            0    1818.7886    17.824274    23.560884    21.941821     9214.592    2801.1917    666.23792    1988.9362   -779.94579    416.79842    77.254941   -3884.5723 
13821000    176.28142   -4428.4606   -4126.3203   -4428.4606            0    1327.6761    18.151433    22.920848    22.247851    9256.1346    758.10527    3074.5544    150.36868   -147.30345   -336.75387    175.37599   -3947.0957 
13822000    181.20331   -4393.6483    -4083.072   -4393.6483            0    3205.5733    17.961857     23.47756    21.812754    9198.4507    3852.3103    3126.7168    2637.6929    815.20755    287.46648   -344.94337   -3653.0444 
13823000    159.84418   -4421.2959   -4147.3284   -4421.2959            0    2010.6322     18.05887    23.174712    22.104374    9250.8818    1225.4335    2063.4598    2743.0032    257.82977   -580.50281    428.42061   -3876.0647 
13824000    178.86782   -4438.5245   -4131.9511   -4438.5245            0    2071.7327    18.005629    23.409475    21.930429    9243.7267    531.44784     2693.334    2990.4162     1932.997    600.57228    374.95776   -3852.6603 
13825000    168.00478   -4419.0972   -4131.1427   -4419.0972            0    2869.7141    17.911835    23.411152     21.97716    9215.8293     2978.939    1872.2517    3757.9516     742.5329    592.73782    424.00743   -3745.4433 
13826000    176.73649   -4433.2095   -4130.2892   -4433.2095            0    793.00856    18.005535    23.327076    22.100345    9282.5089    78.444869    1826.4037    474.17711   -8.3941555    -113.2131    70.219645    -4022.935 
13827000    170.54742   -4432.6567   -4140.3443   -4432.6567            0    1620.1266    18.069485    23.441701    21.871673    9264.3914    595.67602    1655.0512    2609.6525   -305.67342    -693.7035    768.92124   -3921.4463 
13828000    179.51862   -4403.6274   -4095.9386   -4403.6274            0    1125.7037    17.915507    23.265636    22.316449    9301.8451    1011.7142    1314.6584    1050.7384   -260.26729    100.46266    8.7476007   -3943.2281 
13829000    174.70949   -4430.3076   -4130.8615   -4430.3076            0    460.56679    18.041178    23.574439    21.871733    9302.2806    1125.6949   -236.26524    492.27069    369.97694   -400.18163    190.52401    -4068.379 
13830000    181.70026   -4414.1284   -4102.7003   -4414.1284            0    2030.8003    18.037525    23.364323    21.949431    9250.2488    2408.1416    1880.1478    1804.1116   -286.71228    178.19116    -261.1208   -3828.7344 
13831000    174.37548   -4421.9891   -4123.1155   -4421.9891            0    2168.4452    17.798741    23.304523    22.219358    9216.3937    2715.8491    2594.0644    1195.4221    553.14648    174.24253   -564.39391   -3831.6512 
13832000    177.26337   -4443.5231   -4139.6997   -4443.5231            0    2647.7225    18.150054    23.324976    21.776359    9219.0123     3493.418    2592.5969    1857.1526   -135.50904   -817.42667    430.27414   -3783.7139 
13833000     165.8299   -4425.9153   -4141.6885   -4425.9153            0    1894.9575     17.89956    23.531266     21.92276    9233.8515    1028.8988    2253.4022    2402.5714   -783.90119    370.86985    738.34473   -3886.5017 
13834000    183.26695   -4409.4866   -4095.3733   -4409.4866            0     1007.533    18.123342    23.282564    22.016334    9289.9652    323.08797    1130.5649    1568.9461    -104.3501   -73.560932     249.3265   -3958.8681 
13835000    166.69552     -4414.99   -4129.2796     -4414.99            0      2288.35    18.020945    23.414738    21.899115     9240.457    2606.8267    658.71471    3599.5084   -1207.1572      211.356    40.888375   -3820.8957 
13836000    175.82392   -4423.1236   -4121.7675   -4423.1236            0    2267.7723     17.82355    23.291218    22.185595     9209.955    2892.6134      2414.72    1495.9834    767.29622    587.68922   -310.42046   -3817.1654 
13837000    162.33333   -4417.4376   -4139.2038   -4417.4376            0    1034.3214    18.134582     23.38112    21.955252    9309.1769    1060.3357    1176.4029    866.22557     217.7956   -102.63902    754.76182   -3998.7794 
13838000    173.73162   -4403.3311    -4105.561   -4403.3311            0    2714.9926    17.947857    23.374079    21.921398    9196.3473    1328.1198    2468.5502    4348.3077    492.71246    95.530482    462.55116   -3741.4282 
13839000    170.15186   -4435.2772   -4143.6428   -4435.2772            0    2865.7573    17.959466     23.12577    22.105789    9181.1195    1958.8363    4039.6025    2598.8332   -387.51604   -214.25062   -82.215547   -3759.9259 
13840000    178.14402   -4423.6163   -4118.2836   -4423.6163            0    2284.9592     17.92975    23.435422    21.843319    9178.3718    1934.1408    1892.5874    3028.1495    -900.9573    802.07782   -774.85957   -3812.4255 
13841000    170.27409   -4435.9656   -4144.1216   -4435.9656            0    3184.9618    17.959092    23.095784    22.175897     9198.103    1478.2431    2760.5564    5316.0859   -223.45994   -583.03412    652.59433   -3716.8753 
13842000    176.42017   -4413.0762    -4110.698   -4413.0762            0    2721.9722    18.057219     23.47892    21.752322    9222.2015    2555.6025    2838.3786    2771.9354   -802.89571   -178.83652    169.02327   -3744.6027 
13843000    168.69644   -4431.3853   -4142.2453   -4431.3853            0    1749.9504    17.940481    23.372819    22.061919    9250.9951    382.64679    1710.9215    3156.2829   -718.81023    -56.13086   -120.98881   -3906.1486 
13844000    174.89095   -4433.5024   -4133.7453   -4433.5024            0    1340.6436    18.038764    23.101944    22.219317    9259.4678    1130.5177    1785.8376    1105.5755   -804.25461   -142.57791    83.827449    -3952.705 
13845000    168.26858   -4427.4483   -4139.0417   -4427.4483            0    1933.4492    17.943228    23.467285     21.95091    9243.0637    3265.4405    1279.6308    1255.2763   -162.87659    686.87923   -48.299385   -3878.4116 
13846000    183.96886    -4427.082   -4111.7657    -4427.082            0    2970.1015    17.978529    23.243135     21.97211    9181.6475    3574.1156    3468.9037    1867.2852   -841.77104   -714.69491    405.52124   -3714.0545 
13847000      176.179   -4423.2833   -4121.3185   -4423.2833            0    1771.9118    17.903815    23.695424    21.800362    9248.5526    1853.7884    1517.9348    1944.0123   -886.15595   -363.88862    -517.9474   -3882.3219 
13848000    164.78167   -4430.6508   -4148.2206   -4430.6508            0    1898.8341    18.001336    23.193531    22.124456    9237.2822    1641.0327    3248.2147    807.25488   -199.33654    107.65694    218.45508   -3892.4168 
13849000    177.38594   -4424.9863   -4120.9529   -4424.9863            0    1804.5892    17.947832    23.386003     22.11216     9281.094    2146.1653    1950.8635    1316.7388    792.52692    202.17694   -614.33705   -3876.6923 
13850000    179.95554   -4444.3424   -4135.9048   -4444.3424            0    3172.6085    18.000453    23.432986    21.781933    9187.7142    2370.1873    3818.3571     3329.281   -204.85897   -687.46549    211.44013   -3710.7962 
13851000    167.05414   -4435.6689   -4149.3438   -4435.6689            0    1822.9109      17.9158    23.382991    21.994842    9214.1892    1594.6877    730.77273    3143.2723   -71.815418   -613.78302    140.28264    -3904.382 
13852000     182.4088   -4422.9703   -4110.3279   -4422.9703            0    2657.0519    17.967953    23.447195    21.847042    9204.1173    2806.5892    2165.4839    2999.0825    52.514248    19.046712     -411.686   -3753.6649 
13853000    178.49407   -4417.7232   -4111.7905   -4417.7232            0    2056.0795    18.116184    23.166581    21.977673    9223.8105    729.61377    2251.8416    3186.7831   -483.45923   -57.930476   -510.39156   -3835.2071 
13854000    178.62976   -4430.5008   -4124.3355   -4430.5008            0     2096.476    17.920099    23.342736    21.986911    9197.2158    1834.7817    2346.0517    2108.5947   -638.96172    634.17185   -144.62742   -3843.1311 
13855000    185.67174   -4431.9385   -4113.7035   -4431.9385            0    1723.8084     17.95845    23.473697    21.922912    9241.6298    796.54347    2119.4211    2255.4605   -437.30174   -657.93563   -392.76274   -3881.3691 
13856000    163.07571   -4418.9171   -4139.4109   -4418.9171            0    3946.8394     17.88555    23.186495     21.98717    9118.1503    4678.2989    4254.4328    2907.7864   -857.75412   -684.52041   -6.4920517   -3614.5647 
13857000    178.19076   -4445.2219   -4139.8091   -4445.2219            0    1650.9424     17.99266     23.48903     21.82353    9223.2817    1573.8072    1704.0118    1675.0083    906.70388    -117.3545     551.9253   -3917.7373 
13858000     173.3981   -4420.8696   -4123.6712   -4420.8696            0    1252.9997      18.0304    23.231142    22.130312    9269.6528    901.79819    2339.0373    518.16369    337.23536    22.514781    1.8068184   -3954.2802 
13859000    170.78753   -4424.5358   -4131.8118   -4424.5358            0    2926.8737    17.947364    23.342904    22.009144    9220.5899    2781.5154    3084.4633    2914.6424   -727.17195    53.054761    878.77888   -3738.2268 
13860000    162.41079   -4412.2841   -4133.9176   -4412.2841            0      1954.45    18.055421    23.450723    21.868283    9259.3087    479.30485    3437.9784    1946.0668     160.4576    417.25199   -777.57483   -3869.9935 
13861000     165.3792    -4400.499   -4117.0447    -4400.499            0    2307.2011    17.962333    23.361919    22.026411    9243.0432    2316.4572    1726.9778    2878.1683    482.18536   -474.67145   -306.64865   -3806.0333 
13862000    169.77276   -4413.7596   -4122.7749   -4413.7596            0    1218.9162    17.976164    23.446252    22.059434    9297.4703    1832.6867    801.82209    1022.2397    291.53465    25.989551    521.68475   -3957.4971 
13863000    170.13948   -4422.2036   -4130.5904   -4422.2036            0    526.39488    18.012731    23.398726    22.095242    9312.5909    1079.2917    1194.3517   -694.45867   -892.64099    193.44642    457.88672   -4059.0983 
13864000     175.7036   -4401.4305   -4100.2805   -4401.4305            0    2787.3164     18.13049    23.154151    21.926393    9204.6141    2738.3682    3511.4127    2112.1682    42.607649    797.62718   -813.37857   -3726.1116 
13865000    187.92633   -4434.3939   -4112.2946   -4434.3939            0    2493.5942    17.855702    23.494618     21.92272    9196.8639    2704.8869    2134.7497     2641.146    303.53247    422.96071    52.520405   -3777.8368 
13866000    166.32157   -4418.3741   -4133.3046   -4418.3741            0    3259.1833    18.136359    22.973984    22.005841    9169.0508    3265.1135    2920.3924     3592.044    559.47624    1014.5833    882.20763   -3697.4827 
13867000    161.94088   -4426.3369   -4148.7757   -4426.3369            0    1329.9969    17.966466    23.510931    21.884331     9244.124     451.0319    2108.3609     1430.598    126.98497   -365.85144    199.55347   -3969.4708 
13868000    173.57915   -4435.9509   -4138.4421   -4435.9509            0    1422.1808    17.875326    23.280406    22.238753    9254.5425    2197.1147    1764.0342    305.39363    589.04291    111.19901   -509.25731   -3946.4932 
13869000    177.18042   -4422.8219   -4119.1407   -4422.8219            0    2181.1031    18.086393    23.425761    21.865155    9263.9932    967.60319    2353.9263    3221.7798    799.87542    501.38772    -166.5778   -3824.4609 
13870000     170.8925   -4424.9464   -4132.0426   -4424.9464            0    1560.6395    17.736979    23.605506    22.104647    9255.0025    1289.3463    1681.7349    1710.8374   -507.94723    422.88765   -285.50247   -3921.3957 
13871000    161.93067   -4412.2538   -4134.7102   -4412.2538            0    2271.0332    18.053773    23.221055    21.936432    9196.3586    983.59201    2063.7979    3765.7096   -112.68299   -296.99091    225.54928   -3830.1205 
13872000    174.09132   -4407.6348   -4109.2483   -4407.6348            0    2210.5363    17.962146    23.345084    22.009577    9229.2275     2320.935    1945.6268     2365.047     366.3912   -404.58444   -17.322548   -3811.7127 
13873000    161.93024   -4426.1861   -4148.6432   -4426.1861            0    2207.2213    17.869814    23.260009    22.204497    9229.3444    3136.8758    1842.9539    1641.8344   -171.72723     -288.249   -136.26654   -3851.5501 
13874000    168.54831   -4402.1838   -4113.2978   -4402.1838            0    1621.6226    18.157423    23.399525    21.852391    9284.5361     741.5858    2418.4409     1704.841    681.74372   -2.8858907    173.16279   -3893.7213 
13875000    180.90583   -4408.9105   -4098.8441   -4408.9105            0    3314.8602    17.838803    23.353132     22.00872     9168.655    3425.7186    3196.0212    3322.8407    663.41743    98.517661    380.02304   -3655.5962 
13876000     171.9398   -4421.4995   -4126.8006   -4421.4995            0    2683.3776    18.000626    23.156783    22.106086     9214.626    2960.5329    3377.5314    1712.0687   -432.48203    252.34359    79.109425   -3766.1926 
13877000    170.17628   -4413.5276   -4121.8512   -4413.5276            0     1126.661    17.817158    23.821851    21.833542     9266.978    1758.9136   -300.34466    1921.4141    489.04588   -311.22054     163.7142   -3969.5837 
13878000    171.41766   -4418.5393   -4124.7353   -4418.5393            0    2426.6439    18.009511    23.169541    22.037873    9195.7899    2423.8273    2073.7806    2782.3239   -585.05928   -183.84057    66.961315   -3799.2952 
13879000    179.15645   -4412.5097   -4105.4417   -4412.5097            0      1796.04    17.933875    23.562372    21.871104    9241.9549     1286.008    2363.4156    1738.6964   -317.95827   -410.76821   -45.561842   -3863.3634 
13880000    164.66419   -4426.3753   -4144.1465   -4426.3753            0    1909.6964    18.054786     23.33508    21.986425    9263.0982    1637.2653    1464.1666    2627.6573    116.99257     207.3601    681.57414   -3886.1603 
13881000     165.6846   -4431.5386   -4147.5609   -4431.5386            0    1617.0819    17.811047    23.455155    22.122218    9241.7971     1379.769    2327.6051    1143.8716    66.839709    364.30118   -785.80191   -3929.6072 
13882000    176.97619   -4409.4441    -4106.113   -4409.4441            0    2076.4874    18.062456    23.326284    22.004317    9271.0783    1898.9018    2747.2586    1583.3018     13.32325     94.22232   -163.39105   -3825.3528 
13883000    163.01992    -4416.122   -4136.7115    -4416.122            0    1871.0685    18.050444    23.379576    21.916479    9249.0115    1403.2637    2252.4421    1957.4997    -606.0974    -346.8712    165.61325    -3884.328 
13884000    168.85276   -4431.1442   -4141.7363   -4431.1442            0    2348.6341    17.765938    23.478635    22.101791    9219.0985    2720.7181    2113.8739    2211.3102   -1313.4856   -247.99638    665.78256   -3825.9599 
13885000    163.57545   -4436.3385   -4155.9758   -4436.3385            0    1851.4502    18.102782    23.399433    21.880387    9268.4192    1950.0483    1995.0758    1609.2264   -795.49472    162.50611   -77.655114   -3905.7145 
13886000    169.99105   -4418.8904   -4127.5316   -4418.8904            0      1182.78     18.01917    23.389615    22.060092    9297.4779    996.62265    797.76607    1753.9513   -378.13641   -394.66419    703.49182   -3967.1535 
13887000    174.74095   -4434.8917   -4135.3917   -4434.8917            0    3222.7422    17.832908    23.415299    21.910401    9148.9703    5001.9773    3034.6813    1631.5681    -502.0084   -87.714861   -521.58421   -3705.3865 
13888000    171.89295   -4414.3171   -4119.6985   -4414.3171            0    3596.2716    17.954207    23.387973    21.774652    9143.4486    2571.7782    3462.8693    4754.1674    1358.6291   -180.33258    881.49313   -3640.1435 
13889000    165.59031   -4445.4563   -4161.6402   -4445.4563            0    1280.4298    17.905301    23.260504    22.239396    9262.4045    686.56378    1939.0608    1215.6648    381.86719    175.39074    220.35443   -3988.6763 
13890000    167.18109   -4417.6352   -4131.0925   -4417.6352            0    2916.0171    18.027553    23.593403    21.602922    9188.3992    2633.0928    2401.4274    3713.5311   -1057.5477    190.60714     634.5776   -3740.3364 
13891000    170.12423   -4435.4546   -4143.8675   -4435.4546            0    2287.6592    17.982071    23.203445    22.071658    9209.3111    2193.0566    2521.2015    2148.7194   -988.63729   -20.233248    380.91973   -3836.6158 
13892000    172.76194   -4435.6762   -4139.5681   -4435.6762            0    2534.2127    17.875179    23.416703    22.009651    9212.7507    2599.1699    2802.0302    2201.4379   -461.82788   -295.92403   -79.330491    -3799.075 
13893000    166.58706   -4423.1216    -4137.597   -4423.1216            0    1715.9403    18.062594    23.319032    21.813392    9187.8485    1066.4355    2116.6652    1964.7201   -243.96372   -195.58549    769.04627    -3907.669 
13894000    170.40181   -4422.0275   -4129.9647   -4422.0275            0    2786.9976    17.934935    23.259942    22.045298    9196.5388    3482.1271    3325.7589    1553.1069    -216.7206   -336.85565    -685.6323   -3756.1667 
13895000    174.09223   -4404.6492   -4106.2611   -4404.6492            0    2146.2294    17.951351    23.242412    21.992597    9176.0305    2015.4425    2170.0729    2253.1729     312.6552   -105.44899    -237.0608   -3819.0462 
13896000    169.02884   -4430.0787    -4140.369   -4430.0787            0    1119.3594     17.98371    23.398244    21.989816     9253.034    913.62955     780.3177     1664.131   -222.42902   -368.79644    38.189912    -3989.316 
13897000    165.15299   -4434.2554   -4151.1888   -4434.2554            0    2338.6879    17.945297      23.3852    21.964936    9217.6814    3114.4697    1306.0705    2595.5234   -443.26776    623.41721   -164.61551    -3836.798 
13898000    169.02754   -4441.2623   -4151.5549   -4441.2623            0    1139.7457    18.077704    23.344544    21.940653    9259.3015    845.65281    1139.7485    1433.8358    135.21639   -43.426756    107.73722   -3997.6466 
13899000    182.55515    -4417.168   -4104.2747    -4417.168            0    1946.7247    17.869642    23.477651    22.010338     9234.156    1931.3184    1002.4834    2906.3724    106.94695    264.56038   -150.87569    -3842.108 
13900000    169.90371   -4424.7813   -4133.5722   -4424.7813            0    1707.5279    18.165866     23.09915     22.01419    9237.5077    1448.9921    2756.5784    917.01322   -405.25016   -573.27375    119.99662   -3903.5348 
13901000    174.35777   -4414.4824   -4115.6391   -4414.4824            0     2106.379    17.833482    23.571386    22.007511    9251.0753    2635.2613    2207.3778    1476.4977    -281.7109   -199.49431    129.58836   -3831.4519 
13902000    164.88589   -4430.7901   -4148.1813   -4430.7901            0    2340.1097    18.064235    23.294418    21.883317    9208.4088    140.66582    2122.3942    4757.2692   -277.41833     99.90497   -85.551986   -3833.9158 
13903000    171.28108   -4416.8062   -4123.2363   -4416.8062            0    1978.1115    17.834417    23.565544    21.941842    9221.6679    2628.5627    1070.8112    2234.9607    156.59364    -498.7855    438.84728   -3857.2029 
13904000     163.4624   -4427.2044   -4147.0355   -4427.2044            0    1230.2852    18.089723    23.346916    21.980052    9283.0386    1746.1674    1072.9088    871.77935   -89.825917    13.065502    209.90792    -3980.475 
13905000    178.81837    -4438.792   -4132.3034    -4438.792            0    1582.9719    18.014897    23.330707    22.023077    9256.3053    2158.2467    1563.6172    1027.0519   -5.0593926   -55.445291    998.14769   -3918.6122 
13906000    165.09944   -4445.1188    -4162.144   -4445.1188            0    2607.8594    17.904215    23.486461    21.908826     9212.807    3101.4576    1654.3386     3067.782   -213.15034    -633.4669    204.62108   -3811.7537 
13907000    169.90093   -4423.7502   -4132.5458   -4423.7502            0    1566.4904    18.040461    23.166288    22.122251    9245.5639    1303.4972    2493.4274    902.54672    889.79999   -60.278635   -610.02808   -3921.3249 
13908000    167.69329   -4425.4011   -4137.9805   -4425.4011            0    2450.2228    17.872279    23.426131    22.007263    9213.9649    1995.9712    1398.6126    3956.0845    255.96571    157.22249   -48.950845   -3808.7288 
13909000    169.94529   -4415.2648   -4123.9844   -4415.2648            0    4185.1362     18.15488    23.223092    21.710253     9153.313    3987.5258    3478.6304    5089.2524   -32.806128    206.51021    848.20245   -3565.3035 
13910000     173.3042   -4407.2431   -4110.2056   -4407.2431            0    2970.6095    17.903191    23.278797     22.15591    9233.8021    3036.4441    2864.2294     3011.155   -977.89976    83.158033   -1083.2177   -3710.1669 
13911000    161.94709    -4430.731   -4153.1592    -4430.731            0    1401.1259    18.121665    23.536561    21.758271    9280.3739    1652.3842    1101.4948    1449.4989    163.21149   -22.161649   -399.79542   -3963.5242 
13912000    169.61759   -4421.5762   -4130.8574   -4421.5762            0    3333.8828    17.938724    23.204175    22.003963    9159.2221    3284.1464    3998.9393    2718.5626    202.71525   -295.04022    389.25462   -3685.5245 
13913000    173.52745    -4425.847   -4128.4269    -4425.847            0    1541.3393    18.040734    23.357769     21.90505    9230.5978     335.0755    1346.3968    2942.5456   -92.450823    1012.3045   -302.10997   -3920.9337 
13914000    176.59143   -4436.3214   -4133.6497   -4436.3214            0    2496.4541    17.907759    23.455049    21.875949    9188.4974    2901.5853    1406.8557    3180.9214    835.97257   -337.01841    217.12761   -3799.1128 
13915000    169.95791   -4418.3241   -4127.0221   -4418.3241            0    2547.7933    17.821174    23.360628    22.115934    9207.1688     3483.794    2355.3184    1804.2673    251.02939    412.34174    1059.0586   -3784.9118 
13916000    177.28635   -4423.0434   -4119.1806   -4423.0434            0    2941.9705    18.061447    23.364532    21.840201    9216.5048    3051.0181      2536.86    3238.0333   -441.79619    568.89481    384.34258   -3723.7408 
13917000    167.54795   -4431.3522   -4144.1808   -4431.3522            0    3420.3792    17.895246    23.340697    21.903033    9148.6237     4082.922    3822.7571    2355.4584   -51.672058    477.02112   -172.42242   -3687.8225 
13918000    185.99152   -4419.8131     -4101.03   -4419.8131            0    1874.7188    17.979151    23.266762    22.038418    9219.0367    1494.9588    1964.0111    2165.1864   -474.20857    505.64783    319.42076   -3848.9737 
13919000    177.96143   -4410.2823   -4105.2625   -4410.2823            0     2448.594    17.949988    23.441094    21.818376    9180.4603    2451.9439    1718.5506    3175.2875   -542.42834   -148.22168   -326.37942   -3777.4261 
13920000    174.69443    -4427.321   -4127.9007    -4427.321            0    1557.2194    17.942308    23.274341    22.071505    9216.9589    1219.8277    1785.1166    1666.7139    -799.1912    216.28872   -341.98503   -3918.5795 
13921000    172.43263   -4423.0109   -4127.4672   -4423.0109            0    2176.8516    18.047665    23.370986    21.845494    9214.2486    2543.5063    1174.1773    2812.8711   -691.76506    391.65795   -61.817328   -3834.9411 
13922000     178.3533   -4439.2336   -4133.5422   -4439.2336            0    2041.1592     17.88783    23.449027    21.962609    9212.2648    1575.4478    4011.4226    536.60728   -18.120596    224.23088    108.40107   -3859.3095 
13923000    165.85881   -4418.8324    -4134.556   -4418.8324            0    2481.4968    18.006237    23.181496    22.082886     9217.651    2884.6239    3038.6664       1521.2    -210.4848   -906.99333   -597.96415   -3800.9685 
13924000    165.17969   -4425.5569   -4142.4446   -4425.5569            0    2096.1378    17.883715    23.686264    21.868102    9263.2933    3000.5192    520.75051    2767.1436     -135.491   -297.95507    262.05062   -3859.2655 
13925000    179.30252   -4429.3609   -4122.0425   -4429.3609            0    1147.6231    18.104049    23.318795     21.98567    9281.5717   -169.60325     1208.904    2403.5685    89.845258     787.1254   -744.53211   -3966.6977 
13926000    177.78573   -4439.6039   -4134.8852   -4439.6039            0    1745.3892     17.94626    23.446987    21.922312    9224.5963    1199.2336    1697.2428    2339.6912    -116.5054    822.83166   -945.91963   -3900.0758 
13927000    175.64999   -4412.4837   -4111.4256   -4412.4837            0    2618.4817    18.043204    23.203594     22.07951    9243.9658    1530.8241    4084.5287    2240.0923   -1288.7749   -322.79696     297.2742   -3758.4183 
13928000    178.12238   -4421.4698   -4116.1741   -4421.4698            0    2215.0989    18.005377    23.372979    21.999343    9258.1885    3417.2633    2528.2684    699.76515     638.8263    737.77086   -251.40988   -3817.0888 
13929000    165.58338   -4411.5038   -4127.6995   -4411.5038            0    1404.3465    17.966662    23.493786    21.977786    9276.9319    1505.9936    892.37288     1814.673    1112.6378   -36.125648   -294.44533   -3937.6991 
13930000    171.89383   -4430.0067   -4135.3866   -4430.0067            0    1905.7076    18.092922    23.305605    21.879814    9225.9849    1305.7596     1874.194    2537.1691    552.08543   -194.39005   -192.30346   -3878.9707 
13931000    181.48451   -4433.1027   -4122.0445   -4433.1027            0    2877.4634     17.93212    23.428001    21.959385    9225.4389    3272.0798    3484.7787    1875.5316   -795.10416   -408.97558   -431.32284   -3734.9003 
13932000    181.53092   -4412.1442   -4101.0064   -4412.1442            0    2453.0521    18.098982    23.030186    22.111582    9216.6142    1668.8992      2346.36    3343.8971    485.09309   -667.42161   -147.96467   -3771.2797 
13933000    174.73782    -4445.169   -4145.6744    -4445.169            0    999.92242    17.889411    23.620789     22.02492    9306.8942    809.64751    179.28842    2010.8313    295.09759    267.52665    123.63673   -4009.9534 
13934000    164.23781   -4421.8216   -4140.3236   -4421.8216            0    1196.0536    18.086634    23.451981    21.931122    9302.4673    815.07231    1623.8937    1149.1949    523.52744    -555.8078   -347.85925   -3978.0587 
13935000     172.2258   -4408.7715   -4113.5824   -4408.7715            0    2428.8723    18.026976    23.255775    22.081685    9257.3332    1716.9322     3418.309    2151.3756   -833.42585    102.19529   -8.4377321   -3785.6635 
13936000    173.75213   -4406.1048   -4108.2996   -4406.1048            0    1453.7874    17.836616    23.676244    21.959343      9273.52      1467.25    1071.7982    1822.3141   -584.71879   -73.413604    437.50973   -3911.6825 
13937000     172.7593   -4432.8707   -4136.7671   -4432.8707            0    2026.5022    18.096601    23.309546    21.965138    9265.4124    1323.1159     1308.189    3448.2015    761.50803    -588.9618   -589.36374   -3862.9329 
13938000    172.55217    -4403.183   -4107.4345    -4403.183            0    1731.1913    17.808668      23.6217    22.069467    9283.9849    2082.4842    239.11247    2871.9772   -680.75399    561.73229    732.63022   -3873.0357 
13939000    174.00083   -4449.2262   -4150.9947   -4449.2262            0    1657.3453    18.135223    23.155484    21.964979    9223.7508    2096.5021    1733.7316    1141.8023    708.62536   -184.00572   -295.39239   -3928.0504 
13940000    181.77888   -4412.3183   -4100.7556   -4412.3183            0    1436.8148    17.818132    23.764457    21.922418    9282.7896    2632.9017     181.6644    1495.8783   -408.37249    -255.6084   -38.700272   -3906.2396 
13941000    176.43243   -4423.1276   -4120.7285   -4423.1276            0    2168.0937    18.057359    23.216116    22.036152    9238.0343    1447.1633    2699.2872    2357.8305    -391.5571   -374.88186     45.30108   -3828.6272 
13942000    171.41113   -4414.0172   -4120.2244   -4414.0172            0    999.59732    18.037241    23.582461    21.895769    9313.6397   -11.842331    2048.8065    961.82774    52.201303   -107.02734   -589.38105   -3984.4492 
13943000    170.58269   -4415.5676   -4123.1947   -4415.5676            0    2502.4134    17.900372    23.273572    22.127884    9218.6001    2698.3692    2968.5897    1840.2815    169.55349   -307.64514   -185.24236   -3786.7607 
13944000    178.66598   -4416.7709   -4110.5435   -4416.7709            0    847.99857    18.156088    23.464878    21.894465    9327.7074    358.48367     1666.133    519.37905   -211.62626   -373.52793   -750.94362    -3995.186 
13945000    173.66733   -4428.7149    -4131.055   -4428.7149            0    1099.1981    17.882859    23.410348     22.10349    9253.4925    1310.1371    1165.5127    821.94466    101.67001    96.085613    -37.61681   -3982.7153 
13946000    167.49397   -4416.2167   -4129.1378   -4416.2167            0    1509.9146     17.99117    23.376765    22.018772    9260.5527    1442.0093    1224.8027    1862.9318    524.44586   -445.19085    134.92633   -3925.2153 
13947000    172.76174   -4420.0714   -4123.9637   -4420.0714            0    1289.3528    18.105544    23.472623    21.825633    9275.5584    1341.0678    1345.4276     1181.563    686.75307    -61.20395    151.57559   -3949.5472 
13948000    174.13818   -4416.3237   -4117.8568   -4416.3237            0    1878.9777    17.899486    23.294568    22.157185    9238.6774    1841.1572    1652.9289     2142.847   -29.318674   -813.57105    382.51002   -3864.6897 
13949000    175.92797   -4413.6643   -4112.1298   -4413.6643            0    1838.1892    18.053721    23.374364    21.898712    9241.1301    1707.9198    2417.1322    1389.5155    -877.7657    -382.3511    369.55754   -3864.3926 
13950000    171.99333   -4419.4655   -4124.6748   -4419.4655            0    1451.6642    17.975622    23.421262    21.937388    9235.8978    1893.3342    655.00196    1806.6564   -389.18713    106.02984    493.52531   -3929.1413 
13951000    175.47178   -4422.7852   -4122.0326   -4422.7852            0    1832.1165    17.805421    23.247823    22.312131    9235.8226    3135.3176    1412.3209    948.71091   -544.01778    441.64654   -53.491995   -3875.2556 
13952000    178.13046   -4426.9599   -4121.6504   -4426.9599            0    1194.0205    18.158625     23.42271    21.819676    9280.4362    1044.0318    2181.2145    356.81501    393.47913   -161.67106     240.9108   -3960.0449 
13953000    165.90726   -4425.6073   -4141.2479   -4425.6073            0     1859.541    17.958963    23.278806    22.069541    9226.4636    2074.1162    2368.6765    1135.8301    309.75061   -297.99697    431.95866   -3891.0309 
13954000    169.33573   -4434.5251   -4144.2894   -4434.5251            0    1763.8443    17.931469    23.539437    22.010515    9290.5651    3135.9975    1395.9595    759.57594   -125.45197    305.54836    418.06101   -3905.3002 
13955000    162.73434   -4422.4871    -4143.566   -4422.4871            0    2865.6012    18.052013    23.315472    21.895312    9215.5439    2925.3096    2370.1159    3301.3783    -501.0258    14.785438    8.7530759   -3758.4313 
13956000    176.52814   -4444.1874   -4141.6242   -4444.1874            0    1185.2503    17.891699    23.401859    22.173296    9283.9374     894.2176    1887.7302    773.80309    471.66948   -242.23806    785.52573   -3981.1452 
13957000    167.64365   -4421.4437   -4134.1082   -4421.4437            0    2069.0347    18.120916    23.325635    21.873702    9245.6172       1497.2    3008.9307    1700.9734    171.25484   -109.48899    238.53888   -3855.1241 
13958000     172.3493   -4410.6447   -4115.2439   -4410.6447            0    2109.5117     17.95005    23.427458    22.013515    9257.2124    2650.7211    1557.1527    2120.6613    72.086355    -448.3165    829.51022   -3830.4452 
13959000    174.23905   -4429.1421   -4130.5024   -4429.1421            0    1637.5185    18.011444    23.402639    21.983956    9266.5742    2610.4544    266.55836    2035.5426    766.54346   -138.05646    113.02543   -3909.2024 
13960000    179.39115   -4417.9839   -4110.5136   -4417.9839            0    2781.6041    18.091388    23.303714    21.861107    9216.5668    2640.1589     1951.083    3753.5704   -27.553979   -334.58004   -469.16246   -3736.6265 
13961000    168.37083   -4423.2724   -4134.6906   -4423.2724            0    2708.6878    17.806174    23.490177    22.111125    9248.4241    3905.1264    2001.2995    2219.6375    566.83053   -652.15319    45.922915   -3769.3461 
13962000    178.16567    -4428.796   -4123.4261    -4428.796            0    2180.6094    18.183106    23.214353    21.892042    9240.8286    2035.8836    2666.9241    1839.0204   -357.81322   -184.45847   -211.69728   -3829.5497 
13963000    173.75094   -4411.7461   -4113.9429   -4411.7461            0    2393.2238    17.853279    23.492946    21.982943    9220.2206    3340.2639    1753.8448    2085.5628    542.66576    364.47597    491.57085   -3792.1322 
13964000     165.9972   -4418.9008   -4134.3873   -4418.9008            0    2947.4036    18.039033    23.294087    21.933611     9216.565    3347.3166    2336.9108    3157.9834    525.29289    371.23559    173.73636   -3738.2145 
13965000    162.01638   -4436.2035   -4158.5129   -4436.2035            0    2926.3696    17.983523      23.3203    21.963131    9210.9234    2534.7013    3518.5314    2725.8763    33.423258   -105.54163    524.30039   -3765.4082 
13966000    165.69623   -4419.2347   -4135.2371   -4419.2347            0    2033.6233    17.848267    23.446788     22.04446    9225.2655    1968.9355      2782.85    1349.0844    927.55674   -501.65099   -233.03039   -3861.6313 
13967000    162.38328   -4422.5176   -4144.1983   -4422.5176            0    2871.3799     18.10268    23.230745    21.824749    9178.1519    1258.0902    3279.8306     4076.219   -36.484806   -529.92683    777.78068   -3759.8528 
13968000    167.25722   -4409.5764   -4122.9033   -4409.5764            0    2195.5286    17.820609    23.568927     21.98068    9232.1632    1566.5965    1668.6927    3351.2965   -905.38579    693.62329   -16.162318   -3827.2937 
13969000    176.90918   -4421.4622    -4118.246   -4421.4622            0    1205.5954    18.164037    23.253494    22.020761    9301.0704    2527.0197     1354.798    -265.0315   -465.15706   -754.18815   -188.29223   -3954.7111 
13970000    164.54189    -4423.507   -4141.4879    -4423.507            0    2447.2754     17.85938    23.516748    21.899832    9197.8099    2569.7317    1874.2863    2897.8082   -308.01891    161.09376    3.9362949   -3813.2088 
13971000    174.14939   -4428.6098   -4130.1237   -4428.6098            0    2361.0716    18.045733    23.065868    22.144638    9217.4947     3676.682    3303.8252    102.70751    -220.6041    -18.28715   -18.580248   -3812.7303 
13972000      170.148   -4431.6244   -4139.9966   -4431.6244            0    1291.2926    17.990164    23.485564    21.927857    9264.7201    980.43816    1079.1417    1814.2981    355.46812   -193.50225   -50.970535   -3965.5217 
13973000    168.68643   -4425.8834   -4136.7606   -4425.8834            0    2252.4293    17.923242    23.308804    22.066745    9218.8091    2663.5657    1090.0082     3003.714   -425.60331   -559.19299    26.016793   -3833.9285 
13974000    167.55667   -4418.8447   -4131.6583   -4418.8447            0    1549.7332    18.054997    23.423753    21.938025    9277.9374    1653.5472     1478.913    1516.7393   -798.98145   -91.990922    421.41104   -3921.9651 
13975000    168.59459   -4429.1162   -4140.1508   -4429.1162            0    2515.4771    17.942491    23.438507    21.881747    9202.2639     1563.143    2940.9663    3042.3218   -446.45537    26.220029    315.18728   -3802.5598 
13976000    170.98573    -4420.935   -4127.8713    -4420.935            0    1977.8901    18.082928    23.217682    22.035748    9251.5693    2136.7241    1810.0743    1986.8718   -458.39593    152.14528    706.22504   -3861.0052 
13977000    180.34696   -4397.5679   -4088.4594   -4397.5679            0    1973.0823     17.98477    23.566999    21.843786     9258.424    2343.2282    346.30075    3229.7181    198.65385    -102.4183    10.084026   -3822.0447 
13978000    178.62965   -4414.0157   -4107.8506   -4414.0157            0    3163.1625    17.939279    23.119757    22.103237    9167.3565    3356.3402     2288.513    3844.6344   -334.48597    295.83221    757.53339   -3684.9468 
13979000    181.04001   -4426.0967   -4115.8003   -4426.0967            0    2990.4376    17.949568    23.441577    21.875706    9204.5572    2939.1086    2658.1436    3374.0606     -678.718    601.82102    323.72115   -3714.3669 
13980000    164.73594   -4388.5836   -4106.2318   -4388.5836            0    857.98275    17.918649    23.611296    22.051287    9329.5141    1491.9956   -53.214476    1135.1671    552.87741   -88.605543    489.26165   -3989.4935 
13981000    171.96757   -4412.1542   -4117.4076   -4412.1542            0    1585.7834    18.142908    23.189654    22.069268    9285.1538    626.15811    1142.1807    2989.0112    112.13693    4.1338713    232.56539   -3902.6697 
13982000    175.78913   -4425.3831   -4124.0865   -4425.3831            0    1064.8678    17.868006    23.601299    21.902824    9236.5993    189.50864    1383.1033    1621.9915    135.08099    43.379247   -504.43132   -3980.6421 
13983000    170.48873   -4428.4012   -4136.1894   -4428.4012            0    1980.6557    18.153425    23.045386    22.101669    9246.2928    682.53615    3783.0183    1476.4126   -368.35623    147.66332   -254.07826   -3869.1025 
13984000    171.40989   -4406.2239   -4112.4332   -4406.2239            0    1722.9852    17.909296    23.521071    21.905937    9227.7842    1892.5921     2181.702    1094.6614   -57.145598     -188.224     855.5774   -3880.5577 
13985000    161.44241   -4416.5057    -4139.799   -4416.5057            0    2707.3468    17.989762     23.19717    21.968154    9167.5646    2951.5567    3143.6991    2026.7845    375.74071    27.845813    -550.5592    -3777.828 
13986000    169.98313   -4420.5989   -4129.2536   -4420.5989            0    3113.1206    17.855929    23.466055    21.914042    9182.1636    4563.1899     1587.243    3188.9288    301.70938    -48.00644    -1135.508   -3712.3681 
13987000    178.84626   -4435.6327   -4129.0963   -4435.6327            0    2589.0802    18.001859    23.310364    21.950221    9210.9688    1906.3824    3057.9619    2802.8963   -76.598581   -288.51077    759.36666   -3781.2986 
13988000     173.5603   -4412.1072   -4114.6308   -4412.1072            0     3783.238    18.026193    23.198638    21.933007    9172.0139    4243.1336    3296.5331    3810.0473   -211.55753   -85.519323    419.30933   -3608.5682 
13989000    165.44098   -4403.8662    -4120.306   -4403.8662            0    2793.0516    17.927701    23.418568    21.860631    9177.9911    1419.9612    2930.2739    4028.9197    305.45755   -663.65357   -625.26171   -3746.4516 
13990000    179.40421   -4429.1079   -4121.6152   -4429.1079            0    1152.8135    18.125008    23.274087    21.982766    9273.2758    56.083459    2032.3366    1370.0203    264.28175    25.785263    5.7839639   -3965.7073 
13991000     162.1752   -4423.5844   -4145.6217   -4423.5844            0    2827.0508    17.846934    23.455099    22.011993    9214.2554    3223.1473    2980.1395    2277.8657   -754.27297    703.00072   -73.460836   -3765.7213 
13992000    170.28529   -4421.8915   -4130.0284   -4421.8915            0    1041.1922    18.107605    23.213823    22.079087    9280.8723    90.503732    1815.9986    1217.0742   -206.17829   -553.79283   -221.03625   -3989.1009 
13993000    178.50065   -4415.7453   -4109.8013   -4415.7453            0    1398.8706    18.030631    23.388356    22.015284    9283.9954    640.83405     1616.723    1939.0546    247.49951    4.4237446   -40.211652   -3920.3977 
13994000    172.45447   -4415.1275   -4119.5464   -4415.1275            0    2231.3352    17.986118    23.451092    21.935751    9252.3702    2702.0928    1913.2527    2078.6601   -941.07272     38.79548   -257.69778   -3818.4582 
13995000    183.01863   -4419.7567    -4106.069   -4419.7567            0    2524.1233    18.048465     23.03836    22.143733    9207.5199    2190.3538    2889.8732    2492.1427   -1011.7802    814.88812   -83.144386   -3767.1241 
13996000    170.11563   -4421.0965   -4129.5242   -4421.0965            0    703.84488    17.856962     23.66635    21.889865    9250.8564    918.14384   -24.398926    1217.7897    561.36284    178.25619    -1152.143   -4034.5655 
13997000    171.29721     -4427.93   -4134.3324     -4427.93            0    1089.6331    18.091467    23.287429    22.001887    9269.4777    619.87772    1281.2142    1367.8072    492.11866    -286.4038   -268.76089   -3987.0295 
13998000    185.06672   -4422.5875   -4105.3895   -4422.5875            0    2032.3291    17.926981    23.383552    21.996938    9221.0391    2161.4048    1972.8833     1962.699    305.14004    -131.9428   -101.52797   -3832.0831 
13999000    172.74743   -4440.0066   -4143.9234   -4440.0066            0     2159.828    18.006438     23.35565    21.942766    9228.0755    1931.7082    2752.6964    1795.0794    146.24232   -342.54111   -137.40189   -3853.2494 
14000000    186.27352   -4421.6941   -4102.4276   -4421.6941            0    1645.8194    18.034288    23.415878    21.887447    9242.8214    1807.6968    623.64403    2506.1174    -213.0973   -45.580173    280.17473    -3880.576 
Loop time of 336.434 on 64 procs for 250000 steps with 864 atoms

Performance: 128.406 ns/day, 0.187 hours/ns, 743.089 timesteps/s
194.8% CPU use with 32 MPI tasks x 2 OpenMP threads

MPI task timing breakdown:
Section |  min time  |  avg time  |  max time  |%varavg| %total
---------------------------------------------------------------
Pair    | 16.792     | 24.595     | 32.526     |  99.6 |  7.31
Bond    | 0.76222    | 0.96033    | 1.3305     |  11.0 |  0.29
Kspace  | 164.96     | 175.05     | 185.36     |  41.8 | 52.03
Neigh   | 0.89288    | 0.96542    | 1.0778     |   5.4 |  0.29
Comm    | 50.818     | 55.353     | 58.447     |  28.5 | 16.45
Output  | 0.55706    | 0.55742    | 0.55956    |   0.1 |  0.17
Modify  | 61.064     | 63.96      | 67.86      |  18.9 | 19.01
Other   |            | 14.99      |            |       |  4.46

Nlocal:        27.0000 ave          39 max          18 min
Histogram: 6 5 5 0 5 1 2 0 4 4
Nghost:        2132.66 ave        2246 max        2030 min
Histogram: 10 5 1 0 0 0 0 3 10 3
Neighs:        6574.84 ave        9674 max        4325 min
Histogram: 5 4 6 3 3 2 1 1 5 2

Total # of neighbors = 210395
Ave neighs/atom = 243.51273
Ave special neighs/atom = 2.0000000
Neighbor list builds = 3669
Dangerous builds = 0

unfix		3
unfix		2
unfix		1

write_data	data.final.${pid} nocoeff
write_data	data.final.1 nocoeff
System init for write_data ...
PPPM initialization ...
  extracting TIP4P info from pair style
  using 12-bit tables for long-range coulomb (../kspace.cpp:340)
  G vector (1/distance) = 0.37187732
  grid = 24 27 25
  stencil order = 5
  estimated absolute RMS force accuracy = 0.0031344096
  estimated relative force accuracy = 9.4391813e-06
  using double precision FFTW3
  3d grid and FFT values/proc = 4410 672
Last active /omp style is kspace_style pppm/tip4p/omp

write_restart   restart.lmp.${pid}
write_restart   restart.lmp.1
System init for write_restart ...
PPPM initialization ...
  extracting TIP4P info from pair style
  using 12-bit tables for long-range coulomb (../kspace.cpp:340)
  G vector (1/distance) = 0.37187732
  grid = 24 27 25
  stencil order = 5
  estimated absolute RMS force accuracy = 0.0031344096
  estimated relative force accuracy = 9.4391813e-06
  using double precision FFTW3
  3d grid and FFT values/proc = 4410 672
Last active /omp style is kspace_style pppm/tip4p/omp
Total wall time: 0:05:36
