LAMMPS (30 Jul 2021)
Processor partition = 0
  using 4 OpenMP thread(s) per MPI task
using multi-threaded neighbor list subroutines
variable        pid world 0 1
variable        phase world IceII IceIh

shell cd ${phase}
shell cd IceII
include Restart.lmp
echo both
log log.lammps
#include		in.partitions
include		in.temp
variable        temperature equal 102.60
variable	tempDamp equal 100.0
include		in.pressure
variable        pressure equal 2051.4
variable        pressureDamp equal 1000.0 # This is 1 ps
include		in.seed
variable        seed equal 745823

units		real
atom_style	full
box tilt large
read_restart	restart.lmp.${pid}
read_restart	restart.lmp.0
Reading restart file ...
  restart file = 30 Jul 2021, LAMMPS = 30 Jul 2021
  restoring atom style full from restart
  triclinic box = (-10.660978 -9.2297359 0.14119735) to (12.640978 12.219734 21.718802) with tilt (-9.0693362 1.8759960 2.9445937)
  2 by 2 by 4 MPI processor grid
  restoring pair style lj/cut/tip4p/long/omp from restart
  restoring bond style harmonic/omp from restart
  restoring angle style harmonic/omp from restart
  1296 atoms
  864 bonds
  432 angles
Finding 1-2 1-3 1-4 neighbors ...
  special bond factors lj:    0        0        0       
  special bond factors coul:  0        0        0       
     2 = max # of 1-2 neighbors
     1 = max # of 1-3 neighbors
     1 = max # of 1-4 neighbors
     2 = max # of special neighbors
  special bonds CPU = 0.001 seconds
  read_restart CPU = 0.006 seconds
include 	in.setup
variable	out_freq equal 1000
variable	out_freq2 equal 10000
variable	out_freq3 equal 1000

timestep	2.0

neigh_modify    delay 7 every 1

include		in.tip4p
# This is TIP4P/Ice

# create groups ###
group ox type 2
432 atoms in group ox
group hy type 1
864 atoms in group hy

# set charges - beside manually ###
set group ox charge -1.1794
Setting atom values ...
  432 settings made for charge
set group hy charge 0.5897
Setting atom values ...
  864 settings made for charge

# ### TIP3P Potential Parameters ###
pair_style lj/cut/tip4p/long/omp 2 1 1 1 0.1577 8.5
pair_coeff 1 1*2 0.000 0.000
pair_coeff 2 2 0.21084 3.1668
bond_style  harmonic
bond_coeff  1 450 0.9572
angle_style harmonic
angle_coeff 1 55 104.52
kspace_style pppm/tip4p/omp 1.0e-5
pair_modify tail yes

thermo          ${out_freq}
thermo          1000
thermo_style    custom step temp pe etotal epair emol press lx ly lz vol pxx pyy pzz pxy pxz pyz enthalpy

restart 	${out_freq3} restart.lmp.${pid} restart2.lmp.${pid}
restart 	1000 restart.lmp.${pid} restart2.lmp.${pid}
restart 	1000 restart.lmp.0 restart2.lmp.${pid}
restart 	1000 restart.lmp.0 restart2.lmp.0


include         in.dump
dump            myDump all atom ${out_freq2} dump.water.${pid}
dump            myDump all atom 10000 dump.water.${pid}
dump            myDump all atom 10000 dump.water.0
dump            myDump2 all dcd ${out_freq2} dump.dcd
dump            myDump2 all dcd 10000 dump.dcd
dump_modify     myDump append yes
dump_modify     myDump2 append yes


variable natoms 	equal  "count(all)"                        # NUMBER ATOMS
variable H      	equal  "enthalpy/v_natoms"                 # ENTHALPY-per-atom
variable Vol      	equal  "vol/v_natoms"                 # volume-per-atom
fix AVG all 		ave/time ${out_freq} 1 ${out_freq} v_Vol v_H file vol_enthalpy.dat
fix AVG all 		ave/time 1000 1 ${out_freq} v_Vol v_H file vol_enthalpy.dat
fix AVG all 		ave/time 1000 1 1000 v_Vol v_H file vol_enthalpy.dat


timer           timeout 10:00:00 every 1000
New timer settings: style=normal  mode=nosync  timeout=10:00:00

fix 		1 all shake 1e-6 200 0 b 1 a 1
Finding SHAKE clusters ...
       0 = # of size 2 clusters
       0 = # of size 3 clusters
       0 = # of size 4 clusters
     432 = # of frozen angles
  find clusters CPU = 0.000 seconds
fix             2 all nph tri ${pressure} ${pressure} ${pressureDamp}
fix             2 all nph tri 2051.4 ${pressure} ${pressureDamp}
fix             2 all nph tri 2051.4 2051.4 ${pressureDamp}
fix             2 all nph tri 2051.4 2051.4 1000
fix             3 all temp/csvr ${temperature} ${temperature} ${tempDamp} ${seed}
fix             3 all temp/csvr 102.6 ${temperature} ${tempDamp} ${seed}
fix             3 all temp/csvr 102.6 102.6 ${tempDamp} ${seed}
fix             3 all temp/csvr 102.6 102.6 100 ${seed}
fix             3 all temp/csvr 102.6 102.6 100 745823


run             250000
PPPM initialization ...
  extracting TIP4P info from pair style
  using 12-bit tables for long-range coulomb (../kspace.cpp:340)
  G vector (1/distance) = 0.36727393
  grid = 30 40 32
  stencil order = 5
  estimated absolute RMS force accuracy = 0.0045458914
  estimated relative force accuracy = 1.3689817e-05
  using double precision FFTW3
  3d grid and FFT values/proc = 11832 2400
Last active /omp style is kspace_style pppm/tip4p/omp
Neighbor list info ...
  update every 1 steps, delay 7 steps, check yes
  max neighbors/atom: 2000, page size: 100000
  master list distance cutoff = 10.8154
  ghost atom cutoff = 10.8154
  binsize = 5.4077, bins = 7 5 4
  1 neighbor lists, perpetual/occasional/extra = 1 0 0
  (1) pair lj/cut/tip4p/long/omp, perpetual
      attributes: half, newton on, omp
      pair build: half/bin/newton/tri/omp
      stencil: half/bin/3d/tri
      bin: standard
Setting up Verlet run ...
  Unit style    : real
  Current step  : 27750000
  Time step     : 2
  Walltime left : 9:59:59.96
Per MPI rank memory allocation (min/avg/max) = 12.76 | 12.76 | 12.77 Mbytes
Step Temp PotEng TotEng E_pair E_mol Press Lx Ly Lz Volume Pxx Pyy Pzz Pxy Pxz Pyz Enthalpy 
27750000     104.2434    -6736.043   -6467.8832    -6736.043            0    1716.2073    23.301956     21.44947    21.577604    10784.802    1348.7318    490.17967    3309.7106   -138.05287    41.813226    455.06581   -6197.9491 
27751000    101.92909   -6749.4713    -6487.265   -6749.4713            0    2050.0615    23.237807    21.385393    21.682191    10774.957    2861.1307    1919.8262    1369.2277   -593.34867   -1162.5606   -1395.9597   -6165.1148 
27752000    101.14999   -6746.3029   -6486.1007   -6746.3029            0    2054.6341    23.253019    21.350171    21.745724    10795.794    1752.1118    2477.7014    1934.0891    1365.4985    496.05523   -347.07515   -6162.6076 
27753000    102.89764   -6753.6449    -6488.947   -6753.6449            0    1855.3365    23.339258    21.346274    21.601622    10762.062    1063.7452    2541.0375    1961.2269    648.57174    315.81932    21.729649   -6197.7452 
27754000    99.736077   -6758.4722   -6501.9072   -6758.4722            0    2243.2556    23.176528    21.402563    21.683532    10755.836    2288.2796    2173.3267    2268.1606   -536.58137    348.66071     809.9653   -6150.0238 
27755000    106.27685   -6763.9566   -6490.5659   -6763.9566            0    1721.6411    23.194479    21.370555    21.759519    10785.734     2958.197    1286.9106    919.81573     256.5603   -189.82826    -217.4976   -6219.7537 
27756000     106.5574   -6753.0783   -6478.9658   -6753.0783            0    2800.9967    23.314811    21.252727    21.644485    10724.914    2827.4304    2324.7169    3250.8427    179.40073    344.46458    549.01648   -6040.8567 
27757000    105.00831   -6763.0407   -6492.9132   -6763.0407            0    1905.2215    23.310956    21.451615    21.511108    10756.794    1956.7435    1612.8351    2146.0858    291.49604    9.8486612     269.3159   -6194.0282 
27758000    103.46292   -6750.6013   -6484.4493   -6750.6013            0    2397.5391     23.14138    21.443949    21.673578    10755.352    2716.3137    2168.5508    2307.7529   -543.87245    569.06351    102.00739   -6108.3814 
27759000    105.79426   -6741.3023    -6469.153   -6741.3023            0    3131.0142    23.209549    21.294218    21.761034    10754.938    3324.4445     3620.245    2448.3532   -501.09372   -184.37807   -271.94092   -5978.0542 
27760000    102.54894    -6744.592   -6480.7911    -6744.592            0    2354.8037    23.312921    21.338645     21.63479    10762.575    2710.9927    2537.4469    1815.9714   -350.96051    40.710631   -242.27015   -6111.1785 
27761000    102.32279   -6747.4467   -6484.2276   -6747.4467            0    2477.4089    23.203343    21.487829    21.532765     10736.01    2172.7699    1944.2609    3315.1958    1071.3772    -37.00785   -186.44228   -6096.3305 
27762000    104.10736     -6736.55   -6468.7401     -6736.55            0    1168.2351    23.175033    21.474451    21.741074    10819.905    1120.0242    965.33436    1419.3466    -218.5097   -89.961478    439.38572   -6284.3959 
27763000    104.38964   -6747.0069   -6478.4709   -6747.0069            0    1770.7442    23.310816    21.285129    21.754501    10794.011    1431.7851    1972.2817     1908.166   -640.13742   -89.347957    599.33244    -6199.721 
27764000     99.76436   -6755.6115   -6498.9737   -6755.6115            0    2163.7982     23.31275    21.381118    21.565238     10749.25    2298.4562       1421.2    2771.7383   -471.56622   -16.595323     55.31002    -6159.762 
27765000    106.87479   -6761.9621   -6487.0332   -6761.9621            0    2345.2442    23.192243    21.390609    21.709398     10769.95    2992.6475    2114.3331    1928.7521    54.490902    52.334768   -424.37881   -6118.6688 
27766000    103.16831   -6754.3183   -6488.9241   -6754.3183            0    2573.9202    23.267939    21.217446    21.765124    10745.142     2880.894    2500.4816    2340.3849    509.96359   -221.05911    161.57384   -6085.5731 
27767000    102.50771   -6750.5687   -6486.8739   -6750.5687            0    2115.0653    23.256445    21.358174     21.71612    10786.727    2485.4208    2341.1705    1518.6045   -194.95871     39.26902   -464.50925   -6154.1459 
27768000    103.62689   -6768.9698    -6502.396   -6768.9698            0    2376.0859    23.114687    21.517757    21.606437    10746.528    3292.3359    1317.2804    2518.6414     415.1563   -571.46344   -259.15252    -6129.999 
27769000    106.46752   -6766.3708   -6492.4896   -6766.3708            0    2115.6494    23.273373     21.34757    21.666787    10764.709    2721.8399    1467.1191    2157.9892    520.66546   -794.73896   -406.01434   -6160.3491 
27770000    100.52902   -6753.6488    -6495.044   -6753.6488            0    2210.6202     23.32609    21.291368    21.699617    10776.993    2148.8944    2129.7466    2353.2197   -329.54998     154.5369   -25.601846   -6147.5977 
27771000    101.94076   -6759.9051   -6497.6687   -6759.9051            0    2890.6937    23.131813    21.462877    21.600322    10724.026    3288.9475    1967.2336    3415.9001   -488.79475    708.56343    270.38904   -6045.5674 
27772000    105.08475   -6754.1866   -6483.8625   -6754.1866            0     1799.297    23.266617    21.414221     21.64207    10782.869    1813.1433    1739.4946    1845.2531    1009.4893   -333.67349   -720.40758   -6200.9103 
27773000    103.69758   -6761.1019   -6494.3462   -6761.1019            0    2332.4816    23.359507    21.219662    21.705308    10758.905    1771.8418    3345.9472    1879.6558    297.42402   -709.78472   -570.73771   -6128.3621 
27774000    110.89105   -6743.9499   -6458.6894   -6743.9499            0     2284.054    23.196805    21.406418    21.716607    10783.609    2561.7164    2091.3385    2199.1071   -555.95854    223.03986    142.12061   -6099.4811 
27775000    107.99818   -6748.0837    -6470.265   -6748.0837            0     2660.118    23.166608     21.48784    21.587352    10746.192    3775.8676    1306.7918    2897.6947   -97.403729   -872.67408    347.87963   -6053.3654 
27776000    105.31388   -6740.2672   -6469.3536   -6740.2672            0    3021.9544    23.311456    21.215832     21.70824    10736.286    2093.3273    4363.8733    2608.6627    554.79972    43.485794     25.05425   -5996.1829 
27777000    104.28154    -6745.598   -6477.3401    -6745.598            0    2286.4584    23.278286    21.272768    21.721848    10756.519     1866.015    3133.9498    1859.4104    599.82603    13.849495    227.35957    -6118.657 
27778000    101.68725   -6761.5985   -6500.0143   -6761.5985            0    1922.4876    23.166614    21.438989    21.676362    10765.972    1873.0338     2045.218    1849.2109    429.79489    66.204573    819.99495   -6198.1632 
27779000    101.86093   -6758.6853   -6496.6543   -6758.6853            0    751.85768    23.248029      21.3947    21.773598    10829.853    135.55168    1703.5718     416.4496     1597.346    431.97715   -113.04139   -6377.9042 
27780000    109.48669   -6753.8017   -6472.1539   -6753.8017            0    1319.2653    23.309898    21.364161    21.695308    10804.185     1070.201    626.12769    2261.4672    208.89016   -38.449825    347.76385   -6264.2799 
27781000    106.74305   -6751.8717   -6477.2817   -6751.8717            0    1969.0412    23.401921     21.41938    21.500764    10777.357    602.25937    1899.5862    3405.2782   -257.66347   -497.23183    126.76261   -6167.7943 
27782000    107.21169    -6757.709   -6481.9135    -6757.709            0    1306.7111    23.219883    21.457254    21.688559    10805.997    1934.0595    510.22924    1475.8446    567.96515   -267.96663   -478.90119   -6275.9831 
27783000     102.3838   -6751.9536   -6488.5776   -6751.9536            0    1275.4029    23.224095    21.401399    21.782098    10826.315    2157.1301    1473.6542    195.42427    -337.9984     -967.478   -542.17905   -6287.2033 
27784000    102.64109   -6758.4833   -6494.4454   -6758.4833            0    2194.7441    23.427678    21.335715    21.515016    10754.201    1207.8129    2129.1615    3247.2579    142.29324    170.34172   -200.89427   -6150.2239 
27785000     98.20427   -6749.8212   -6497.1967   -6749.8212            0    2425.0934    23.219091    21.416327    21.625212    10753.518    2398.1928    2408.1019    2468.9854   -11.273075   -83.156865   -303.05133   -6116.8717 
27786000    101.65963   -6760.1917   -6498.6785   -6760.1917            0    1439.1209    23.206816    21.406434    21.717238    10788.585     1860.583    455.26791    2001.5119    532.49836   -366.17828    305.39368   -6272.2466 
27787000    104.65819   -6750.0974   -6480.8706   -6750.0974            0    2489.8785    23.282967    21.191858    21.808989    10760.759    1906.4922     3942.698    1620.4452   -207.01289   -487.64755   -129.78505   -6090.1224 
27788000    105.86288   -6763.0615   -6490.7357   -6763.0615            0    1683.3686    23.294493    21.355395     21.69532    10792.621    1570.6711     1483.467    1995.9677   -484.90241     413.5963    790.22259   -6225.7746 
27789000    102.91425   -6749.6488   -6484.9082   -6749.6488            0    2609.6261       23.199    21.426803    21.590677    10732.302    2135.5887    2681.3732    3011.9164    721.56053    567.23049   -10.754567   -6076.4505 
27790000    99.364784   -6748.3879    -6492.778   -6748.3879            0    1501.8231    23.251576    21.353437    21.740291    10794.078    910.13073    2163.9679    1431.3707    673.88752    122.17379    26.319224   -6256.3602 
27791000     99.73034   -6753.5046   -6496.9544   -6753.5046            0    1728.5519    23.299232    21.275111    21.745608    10779.162    1294.9972    2459.9743     1430.684   -731.81565    356.54051   -28.400275   -6225.2208 
27792000    100.19176    -6747.033   -6489.2958    -6747.033            0    2002.2629     23.24979     21.42073    21.605486    10760.126    2066.0481    1460.0242    2480.7165   -455.85428    459.94522    64.147165   -6175.0899 
27793000    104.15691   -6750.8522   -6482.9149   -6750.8522            0    1865.2796    23.224821    21.417058    21.676298     10781.95    1855.2555    1877.2594    1863.3238    212.46531    117.53914   -832.53335   -6189.6114 
27794000    104.23992   -6750.1064   -6481.9556   -6750.1064            0    3125.0781    23.211369    21.319652    21.692023    10734.478    2895.7088     3056.733    3422.7924    301.16748    478.70464    -445.8918   -5992.7204 
27795000    97.443973   -6764.9977    -6514.329   -6764.9977            0    1842.3102    23.335672    21.383803    21.601484    10779.257    1541.3505    1670.2153    2315.3647    190.70183    13.832278   -364.11101   -6224.7098 
27796000    104.18501   -6749.8072   -6481.7976   -6749.8072            0    3030.9338    23.286073    21.389557    21.576329    10746.711    2863.1566    3180.8522    3048.7927   -816.03945   -532.34337   -806.65702   -6006.7601 
27797000    99.052868   -6750.1452   -6495.3378   -6750.1452            0     3200.553    23.171286    21.462744    21.581699    10732.997    4070.3803     2068.564    3462.7146    -611.1228   -787.65784    5.2665815    -5994.356 
27798000    104.42698    -6748.472     -6479.84    -6748.472            0    2615.0355    23.187648    21.342775    21.751683    10764.663    3436.4423    2505.5843      1903.08   -721.86687    102.85889   -635.07654   -6069.3014 
27799000    100.18459   -6737.0806   -6479.3619   -6737.0806            0    2430.3797    23.340662    21.266674    21.699086    10770.955    1313.5095    3181.3893    2796.2403   -276.22152    779.17881    217.79641   -6097.5897 
27800000    104.69895   -6756.7872   -6487.4555   -6756.7872            0    1764.4025     23.25714    21.394074    21.629032    10761.849    1739.9893    1840.6254    1712.5927    42.288641   -25.212155    468.14758   -6210.5316 
27801000    105.97217   -6749.4716   -6476.8646   -6749.4716            0    1834.0819    23.178625    21.436348    21.715346    10789.597    2313.8147    1405.3018    1783.1293    281.16573   -617.96449    492.10254   -6188.2623 
27802000    103.17723   -6763.2472     -6497.83   -6763.2472            0    2770.4361    23.201059     21.19755    21.829298    10735.771    2519.9943    3633.2577    2158.0561   -95.466356    563.08773     87.09449   -6064.0623 
27803000    99.868503    -6755.203   -6498.2973    -6755.203            0    2186.6155    23.312372    21.318891    21.664198    10766.975    2023.1254    2309.2277    2227.4934    -583.1173   -83.128266   -120.15758   -6154.9434 
27804000    106.43936   -6754.8606   -6481.0518   -6754.8606            0    3331.9932    23.168062    21.434999    21.576405    10715.002    3598.2108    2377.0679    4020.7009    96.502842   -156.21133    162.15349   -5960.3702 
27805000    106.57989   -6757.8281   -6483.6578   -6757.8281            0    1573.0361     23.17436    21.389733     21.76397    10788.255    1780.3304      1634.04     1304.738   -68.827355    264.06858   -270.00603   -6236.1632 
27806000    105.73989   -6744.9528   -6472.9434   -6744.9528            0    2172.3402    23.318282    21.221041    21.748128    10761.805    1406.1767    2973.0966    2137.7473   -431.12979   -221.85537   -69.165398   -6131.9948 
27807000    104.98148   -6756.5243   -6486.4658   -6756.5243            0    1971.9648    23.243063    21.433603    21.620817    10771.114    2636.5128    1581.4477     1697.934    280.11769   -1016.9109   -95.389922   -6176.6984 
27808000    100.00994    -6746.755   -6489.4855    -6746.755            0    3240.8992     23.11256    21.449286    21.625513    10720.803    3534.4398       3561.6    2626.6578   -128.21841    282.57183   -652.66616   -5982.7648 
27809000    104.50521   -6753.3657   -6484.5324   -6753.3657            0     2671.332    23.300488    21.287743      21.6759    10751.567    2477.0366    2666.6144    2870.3449    203.54528    649.29455   -319.50134    -6065.666 
27810000    100.31659   -6761.3959   -6503.3376   -6761.3959            0    2656.4525    23.298112    21.271436    21.702178    10755.259    3164.7471    3545.9941    1258.6163    288.31031   -1028.9554   -986.71249   -6086.6612 
27811000    106.26375   -6760.8471   -6487.4901   -6760.8471            0    2766.9162    23.180533    21.412846    21.641479     10741.99    3269.7695    2196.9675    2834.0115    54.987416    199.71256   -46.397247   -6054.0225 
27812000    101.73043   -6743.3918   -6481.6965   -6743.3918            0    2654.4649    23.264647    21.434805    21.563484    10753.131    1938.4475    3266.5379    2758.4094     189.0781    468.93575    121.64943   -6065.4143 
27813000    107.25018   -6746.1548   -6470.2603   -6746.1548            0    2526.7311    23.254743    21.298588    21.720292    10757.913     2388.997    2522.3518    2668.8446    286.48687   -686.83582    404.36054   -6073.8335 
27814000    101.36417   -6753.6874   -6492.9343   -6753.6874            0    2103.9116    23.297507    21.280964     21.69174    10754.622    1197.6934    2469.9876    2644.0539    449.71901    18.125359    874.81433    -6162.946 
27815000    101.78198   -6768.2337   -6506.4057   -6768.2337            0    2251.6105    23.136493    21.457396    21.637007    10741.668    2182.4751    2130.9761    2441.3804    486.03436   -238.73976    587.83749   -6153.6769 
27816000    106.43319   -6748.3328   -6474.5399   -6748.3328            0    2227.4668    23.246032    21.312365    21.718022    10759.714    1739.5715    2954.7927    1988.0362    151.93554    277.84719   -266.19877   -6125.0071 
27817000    96.692391   -6753.7265   -6504.9912   -6753.7265            0     1899.521    23.317472     21.24101    21.758109    10776.501    1653.8433    2704.9734    1339.7463   -189.70588    496.66045    -98.48635   -6206.4545 
27818000    99.626127   -6753.5943   -6497.3122   -6753.5943            0    2745.3308    23.196183    21.410693    21.594201    10724.681     2824.092    2819.8705    2592.0298    503.92465    517.71033    538.69716   -6067.9192 
27819000    93.989958   -6752.0361   -6510.2526   -6752.0361            0     2669.314    23.181531    21.354163    21.698471    10741.224    2721.9077    3096.7917    2189.2425    284.73255    53.699578   -199.94391   -6092.1053 
27820000    105.68861   -6764.4747   -6492.5972   -6764.4747            0     2236.505    23.390343    21.293948    21.577992     10747.41    758.48412    2660.6548    3290.3759   -487.00258    1012.8612   -107.93935   -6142.0475 
27821000    105.35839   -6755.8096   -6484.7816   -6755.8096            0    2556.7957    23.301814    21.312093    21.629338    10741.355    2598.7436     2418.066    2653.5774   0.50811879    544.60752   -264.08841   -6084.2553 
27822000    105.05541   -6736.2828   -6466.0342   -6736.2828            0    2025.4352    23.159337    21.421065    21.743506    10786.902     2460.332    1803.7002    1812.2734    165.17978    178.99121   -878.19889    -6147.401 
27823000    103.50986   -6766.3461   -6500.0733   -6766.3461            0    2103.5656    23.206711    21.421875    21.659307    10767.519    2252.9443    2060.6385    1997.1141    -219.7371   -98.932369     -519.119   -6169.7436 
27824000    104.88306   -6759.6794   -6489.8741   -6759.6794            0    2526.1207    23.330763    21.289864    21.635081    10746.335    2937.2678    1445.3139    3195.7806   -377.72495    -1295.926    441.14781   -6093.9697 
27825000    104.94515   -6759.0063   -6489.0413   -6759.0063            0    2432.4624    23.171953     21.39095    21.698599    10755.346    2058.8911    2748.2673    2490.2287   -325.23545    -298.9549    -257.0783   -6107.4958 
27826000    100.15165   -6746.6867   -6489.0527   -6746.6867            0    2191.1572    23.201032    21.424371    21.649396    10761.212    2360.2049    1748.4916    2464.7749    393.21656    529.94463   -53.739288   -6145.1698 
27827000      97.8602   -6749.2385   -6497.4991   -6749.2385            0    1620.9594     23.41078    21.258546    21.666279    10782.855    1170.9827    2298.5323    1393.3632    692.96645    453.68114   -550.70094   -6242.5921 
27828000    105.62077    -6744.036    -6472.333    -6744.036            0    1261.7764    23.240896    21.327887    21.777484    10794.646     1671.762    1358.6268    754.94048   -525.97591    230.89619    64.047985    -6273.693 
27829000    100.92311   -6758.1171   -6498.4986   -6758.1171            0    1181.9606    23.260209    21.433391    21.667878    10802.416    1082.7386    1606.6501    856.49309   -166.84808   -581.42741    569.17433     -6312.29 
27830000    106.60276    -6748.506   -6474.2769    -6748.506            0    2006.9941    23.313578    21.330428    21.640989    10761.817    1638.5935     1607.373    2775.0158   -395.40302    -90.03929    963.93834    -6159.279 
27831000    103.19735   -6760.4173   -6494.9484   -6760.4173            0    2003.5081    23.160445    21.321526    21.817606    10773.884    2979.1213    1782.2074    1249.1955    342.88735    247.55168   -342.32101   -6180.1451 
27832000    100.51525   -6755.6171   -6497.0478   -6755.6171            0    2272.5163    23.202237    21.400278    21.704498    10777.028    2262.5668    1645.3983    2909.5838    210.43831    58.911583     375.5063   -6139.8721 
27833000    103.06852    -6756.569   -6491.4315    -6756.569            0    2122.0393    23.290212    21.381206    21.581914    10747.207    2407.1967     1792.351    2166.5702    632.77206   -800.59262   -70.781797   -6158.8294 
27834000    106.97986   -6743.6067   -6468.4075   -6743.6067            0    1168.0322    23.323807    21.395541    21.690462    10824.093    1475.0371    936.11939    1092.9399   -1427.3124   -515.73655   -126.86125   -6284.0239 
27835000    100.01692   -6752.9238   -6495.6364   -6752.9238            0     1154.875    23.193536    21.452744    21.715631    10804.938    1053.6637    1754.7885    656.17283   -714.45365     477.8621   -810.65914   -6313.6524 
27836000    101.25901    -6757.691   -6497.2084    -6757.691            0    1927.9172    23.237036    21.417274    21.621192    10760.304    2007.5501    1691.5611    2084.6406    361.83947   -395.23652   -399.42091   -6194.6642 
27837000    98.844266   -6757.0727   -6502.8018   -6757.0727            0    1567.5417    23.380503     21.36926    21.586222    10784.996     829.5535    1740.9737    2132.0978    262.97255    -86.60323   -700.41138   -6256.2462 
27838000    101.55552   -6747.6487   -6486.4033   -6747.6487            0    1349.6465    23.287024    21.331683    21.778648    10818.574    628.82925    2431.6986    988.41177   -172.58269   -86.448072   -183.08738    -6273.459 
27839000    100.46823   -6768.5136   -6510.0652   -6768.5136            0    2032.6674    23.160021    21.403744     21.68062    10747.325    2869.8293    1006.4616    2221.7113    13.651907    33.375844    696.84163   -6191.4675 
27840000    102.29533   -6760.2748   -6497.1263   -6760.2748            0    1369.8119    23.296265    21.339854    21.695559    10785.707    1542.3587    1523.3914    1043.6855    276.40611    209.69104    172.35823    -6281.657 
27841000     105.9308   -6777.1153   -6504.6147   -6777.1153            0    1237.4004    23.336603    21.290856    21.719675    10791.556    947.96032    2193.6155    570.62534   -20.176281    92.222691    202.40314    -6309.868 
27842000    101.40901   -6748.3126   -6487.4441   -6748.3126            0     2326.774     23.12863    21.440438    21.724485     10772.91    2989.0046    1989.5648    2001.7525    599.27387   -600.68669   -192.19875   -6121.8803 
27843000     103.2061   -6755.3388   -6489.8474   -6755.3388            0    1881.0798     23.21582    21.539234    21.527619    10764.907    1648.6304    1262.5912    2732.0179   -128.54482    283.86383    514.96514    -6194.527 
27844000     103.5777   -6751.2609   -6484.8136   -6751.2609            0    1744.5366    23.337132    21.359631    21.634141    10784.025    1407.6752     2099.975    1725.9597   -702.76081    -421.6385   -26.579984   -6210.4435 
27845000    98.351334   -6760.2487   -6507.2459   -6760.2487            0    2201.2188    23.263182    21.336414    21.692449    10767.109    1778.6919    3151.1304    1673.8342    392.53914    -502.4586     -228.573   -6161.5945 
27846000    103.70119   -6746.7678   -6480.0028   -6746.7678            0    1795.7971    23.230847    21.451833    21.654973    10791.632    1559.1817    2251.2612    1576.9482    565.32977    563.53222    -646.9298   -6197.3715 
27847000    103.30095   -6755.5662   -6489.8308   -6755.5662            0    2084.0259    23.293236    21.376838    21.597383    10754.108    1392.1347    2297.3184    2562.6246   -341.84469     367.2152   -192.57522   -6162.9771 
27848000    99.806943   -6764.0995   -6507.3522   -6764.0995            0    1617.7115    23.357786    21.290616    21.717164    10799.981    1547.9126    1773.4493    1531.7726   -49.164194    -8.783389    811.17241   -6252.5519 
27849000    99.652789   -6743.0406   -6486.6899   -6743.0406            0     1898.128    23.176624    21.381492    21.740855    10773.698      1592.55    2131.4014    1970.4326   -322.53003    1000.6222    463.31038   -6188.4497 
27850000    102.34082   -6761.3828   -6498.1173   -6761.3828            0    2143.8655    23.167652    21.454406     21.65425    10763.206     2040.326    2144.2888    2246.9816    914.37212   -241.37469    303.99503   -6161.5941 
27851000    101.67696   -6767.3518    -6505.794   -6767.3518            0    1601.3019    23.310258    21.301495    21.683567    10766.831    1354.2702    2186.1193    1263.5162    133.65569    452.89196   -338.31804   -6254.3525 
27852000    98.252472    -6742.772   -6490.0235    -6742.772            0     3030.247    23.263776    21.274951    21.661836    10721.216    2712.9508     3455.419    2922.3713    675.34901    11.642027    22.320821   -6016.2203 
27853000    101.85415   -6739.2695   -6477.2559   -6739.2695            0    1900.3174    23.193003    21.437679    21.674953    10776.876    1525.1308     1390.066    2785.7555   -141.86168    109.91139    244.78986   -6178.5836 
27854000    101.19281   -6747.2495   -6486.9371   -6747.2495            0    1767.2106    23.154612    21.481822    21.665651    10776.565    2939.2214    781.56874    1580.8415   -808.77273    165.49611   -204.46779   -6209.1932 
27855000    100.35976   -6742.9605   -6484.7912   -6742.9605            0    1369.5061    23.389474    21.307999    21.706329    10818.063    1440.4021    1459.6939    1208.4223   -209.67257    85.618447   -210.83126   -6268.7237 
27856000    102.53846   -6764.1152   -6500.3413   -6764.1152            0    1995.4633    23.258887    21.354978    21.682152    10769.374    1539.2998    2145.7652    2301.3248    270.51893   -222.54854    -16.15162   -6186.9333 
27857000    103.16674   -6760.6839   -6495.2937   -6760.6839            0    2091.6569    23.145891    21.482739    21.654386    10767.365    3560.2748    467.48794     2247.208   -921.10998   -395.36164    190.50908   -6166.8388 
27858000    99.866093   -6751.3364    -6494.437   -6751.3364            0    1859.7469     23.30471    21.369627    21.639831    10776.917     2168.135    1940.5809    1470.5246   -795.48112   -850.29116   -349.83538     -6202.14 
27859000    93.975534   -6739.7622   -6498.0158   -6739.7622            0    1606.5408     23.27535    21.411802    21.633473    10781.413    1378.4196    1432.0087    2009.1942   -257.66042   -613.67222   -156.04978     -6245.41 
27860000    100.10218    -6755.231   -6497.7242    -6755.231            0    1168.6941    23.173297     21.46922    21.708167    10800.087     2171.586    593.34342    741.15282    435.46494   -228.02073    199.01138   -6313.6453 
27861000    101.65482   -6749.1628   -6487.6619   -6749.1628            0    1501.9812    23.347777    21.221975    21.789496    10796.389    1098.8191    2539.8302    867.29417    137.05541   -264.40289    375.36702   -6251.1686 
27862000    102.23912   -6751.3635   -6488.3596   -6751.3635            0    2014.7154    23.286848    21.291127    21.725403    10771.525    1781.0755     2335.684    1927.3867   -68.357532    240.48134   -275.83988   -6171.8647 
27863000    105.44289   -6758.8881   -6487.6427   -6758.8881            0    2097.3213    23.090675    21.460628    21.732835    10769.498    1996.9201    2257.3608    2037.6828    683.45633    32.781205     806.1467   -6158.2331 
27864000    102.91823   -6747.7515   -6483.0006   -6747.7515            0    2703.8387    23.221937    21.329237    21.679425    10737.954    2236.5227    3027.7188    2847.2746    299.08884    306.67076    466.35615   -6059.5739 
27865000    102.76897   -6747.7526   -6483.3857   -6747.7526            0    1729.7357    23.350647    21.321252    21.654397    10780.967    881.46056    1827.7415     2480.005   -45.077189    950.60708    258.49286   -6211.4204 
27866000    99.073987    -6763.302   -6508.4402    -6763.302            0    2456.0356    23.212302    21.368464    21.688022    10757.503     2973.284    2008.8803    2385.9425    54.992581    592.03549   -32.981662   -6123.1198 
27867000     95.98406   -6760.5301    -6513.617   -6760.5301            0    2794.0159    23.151438     21.43476    21.625911    10731.761     3751.219    1920.0941    2710.7345   -516.07263    91.157439   -83.986889   -6076.3207 
27868000    100.54885   -6759.5413   -6500.8855   -6759.5413            0    1977.2437    23.370702    21.352071    21.586518    10771.951    2311.6304    1240.6425    2379.4582   -581.32555   -441.06826   -363.60995   -6190.2647 
27869000    104.41787   -6760.7318   -6492.1232   -6760.7318            0    2162.1413    23.286854    21.350591    21.625562    10751.972    2057.8845    1545.0659    2883.4733   -766.47186    534.30452   -270.37471   -6153.0854 
27870000    104.54636   -6762.3224   -6493.3833   -6762.3224            0    1384.3944    23.189486    21.535533    21.629704     10801.83    2667.2322    313.88291    1172.0682    293.43974   -456.44228   -582.26467   -6275.2946 
27871000    101.99554   -6755.5728   -6493.1955   -6755.5728            0    2002.6489    23.242125    21.384764    21.644104    10757.712    1731.0797    2081.6163    2195.2508    907.22038   -391.52309    284.34706   -6178.9995 
27872000    104.14686   -6741.5492   -6473.6377   -6741.5492            0     1986.623    23.274778     21.27502    21.793685    10791.609    1419.4251     2804.198     1736.246    246.09667   -3.2918387    221.94363    -6160.974 
27873000    101.76275   -6756.3571   -6494.5786   -6756.3571            0    2642.9798    23.233171    21.356321    21.626411    10730.486     2226.924     2524.631    3177.3845    1268.4905   -942.24896    151.58795   -6080.9704 
27874000    103.16087   -6750.4841    -6485.109   -6750.4841            0    1847.9412    23.190659    21.439482    21.677676    10778.048    1743.2335    1717.1764    2083.4136    592.36052   -1082.8346    535.90332   -6194.6371 
27875000    103.57797   -6744.4669   -6478.0189   -6744.4669            0    2259.9772    23.220266    21.341121    21.689743    10748.276     2175.604     2714.188    1890.1397   -66.384124   -160.60661    349.77199   -6123.7616 
27876000    99.337314   -6747.9165   -6492.3774   -6747.9165            0    1728.6043    23.276607    21.340236    21.706855    10782.409    2156.8518    1830.4986    1198.4625    281.05864    181.77286    126.14688   -6220.5537 
27877000    106.17805   -6763.2417   -6490.1051   -6763.2417            0    2158.6976    23.183604    21.376444    21.682242    10745.351    2336.6647    2126.6806    2012.7475    772.85363   -488.85984    189.53078   -6151.8158 
27878000    103.17113   -6757.7002   -6492.2988   -6757.7002            0      1564.67    23.289516     21.39357    21.667247    10795.617    1466.6686     1406.379    1820.9624   -555.21311   -133.03568   -66.195667   -6245.9525 
27879000    108.22702   -6751.7267   -6473.3193   -6751.7267            0    1520.8894    23.249201    21.389206    21.690719    10786.403    903.46918    2798.9413    860.25772   -213.92542    20.523681     172.9773   -6234.0703 
27880000    99.089369   -6765.7741   -6510.8727   -6765.7741            0    1139.4307    23.266346    21.405143    21.684062    10799.085    538.85268    2166.7618    712.67762    587.50599   -659.69778   -54.336614   -6331.4197 
27881000    101.31636   -6769.0838   -6508.4536   -6769.0838            0    2339.6718    23.261065    21.321712    21.660335    10742.784     2018.305    2586.9094     2413.801   -75.653863     637.2988    -565.7759   -6141.8914 
27882000    105.72059   -6746.7095   -6474.7497   -6746.7095            0     2291.799    23.267315     21.38065    21.627826    10759.202    2166.1409    2412.1202    2297.1359   -145.17968    450.22944   -943.42335   -6115.1391 
27883000    99.139547   -6741.4431   -6486.4127   -6741.4431            0    873.56117    23.364597    21.399882    21.652595    10826.289    1064.5671    588.53588    967.58056   -397.83157   -417.37888   -212.30701   -6348.4858 
27884000    97.090335   -6756.6894   -6506.9304   -6756.6894            0    1914.2789    23.253625    21.337963    21.696004    10765.231    2200.7418    2199.4066    1342.6883   -776.36335    797.49334    -878.4103   -6206.3889 
27885000    98.249973    -6758.271   -6505.5289    -6758.271            0    1891.7334    23.227258    21.373728    21.703946    10774.991    1842.6166    1568.6639    2263.9198    443.84061     235.7712    274.33498   -6208.2578 
27886000    103.45018   -6745.5922   -6479.4729   -6745.5922            0    2145.8207    23.197676    21.392475    21.678074    10757.868    2643.5409    2151.8922    1642.0291    121.41621   -810.72489   -351.51148   -6142.8098 
27887000    103.07439   -6759.9984   -6494.8458   -6759.9984            0    1421.6516    23.247742    21.349808    21.749622    10795.095    1283.9226     1946.174    1034.8582   -14.116142   -308.64401    349.36785   -6271.0275 
27888000    102.23446   -6766.2247   -6503.2328   -6766.2247            0    1747.2308    23.283999    21.366318    21.653894    10772.668    2055.7298    1266.3135    1919.6492   -364.56447   -465.15008     117.5566   -6228.7283 
27889000    103.29496   -6763.3513   -6497.6313   -6763.3513            0    2521.5143    23.205056       21.363    21.685909    10750.347    2984.1326    2760.7976    1819.6126    611.89662   -115.23546   -266.24673   -6102.3013 
27890000    102.53481   -6754.8939   -6491.1293   -6754.8939            0    2619.2533    23.173962    21.334955    21.714476    10735.972    2662.0211    2826.6478    2369.0909   -125.81324    165.39625   -274.70964   -6081.0246 
27891000    96.277429   -6745.3847   -6497.7169   -6745.3847            0    2181.6942    23.353637    21.343553     21.61314    10773.061    1985.9304    2123.9422    2435.2101    165.40079   -329.23792   -323.46842   -6154.9421 
27892000    103.05545   -6755.9209   -6490.8171   -6755.9209            0    2580.8226    23.270943    21.378201     21.59695    10744.286    1949.9569    2666.2571    3126.2537    475.14841   -286.87137    287.57864   -6086.4166 
27893000    100.82017   -6745.8175   -6486.4638   -6745.8175            0     2089.807    23.126793     21.42337    21.740537    10771.433    2670.2293    2236.5127    1362.6789   -405.86386   -1093.4057   -274.41211   -6158.1754 
27894000     101.4822   -6754.8291   -6493.7723   -6754.8291            0    1835.1587    23.334348    21.262785    21.724537    10778.699    1571.9443    2109.5277     1824.004    829.61551   -426.38468   -203.82209   -6205.2922 
27895000    107.49073   -6751.7288   -6475.2155   -6751.7288            0    1923.5716     23.26216    21.368025    21.693018    10782.871    2553.6842    1169.6738    2047.3569    639.74381    260.03889   -91.095341   -6172.7201 
27896000    101.48886   -6757.0742   -6496.0003   -6757.0742            0    2336.7694    23.133027    21.427344    21.700233    10756.357    2620.6741    2427.8852    1961.7488   -485.28786    496.52239    503.55595   -6129.4303 
27897000    101.14925   -6761.3871   -6501.1868   -6761.3871            0    2115.3571    23.208941    21.337291    21.704783    10748.554    1969.8249    2576.9839    1799.2626    239.42892   -284.75734    312.13951   -6169.5905 
27898000    98.141805   -6754.7961   -6502.3323   -6754.7961            0    2019.2726     23.29752    21.293638    21.668104    10749.307    2083.7422    2314.7997    1659.2758    300.64087   -230.89783    362.33888   -6185.7757 
27899000    106.45015   -6751.1564   -6477.3198   -6751.1564            0    2421.9848    23.200814    21.380063    21.687828    10757.919    2071.4908    2618.9392    2575.5245     985.2974   -238.33742   -470.24173   -6097.3268 
27900000    98.603251   -6750.9261   -6497.2753   -6750.9261            0    1670.1871    23.210327    21.400609    21.711629    10784.495     2404.276    1576.4153    1029.8698     -294.447    344.62669   -15.887758   -6234.5869 
27901000    104.18268   -6746.6088   -6478.6052   -6746.6088            0    1719.9551    23.382682    21.314806    21.631705    10781.184    1810.2278      1556.03    1793.6075   -442.28928   -80.126617   -424.31225   -6208.1724 
27902000    97.712898   -6756.2026   -6504.8422   -6756.2026            0    993.10292    23.237643    21.434111    21.726918    10821.704    640.16824    1532.1901    806.95038    452.74708    83.817981   -389.40585   -6348.1072 
27903000    105.38108   -6749.6495   -6478.5631   -6749.6495            0    1045.2422    23.217826    21.445915    21.745907    10827.885    2578.1522    11.258262    546.31621    269.66583   -592.31653   -583.30682   -6313.5051 
27904000    103.09845     -6755.28   -6490.0655     -6755.28            0    1668.8015    23.377124    21.374165    21.569376    10777.495    1813.9757     1188.977    2003.4519   -616.36999   -412.22382     294.8503   -6227.7655 
27905000    99.515519   -6759.8842   -6503.8866   -6759.8842            0    1506.6962    23.283812     21.37012     21.68009    10787.533    1182.1975    2007.6267    1330.2645   -361.39309    258.92142   -568.96125   -6266.8455 
27906000    97.234481   -6763.1818   -6513.0521   -6763.1818            0     2257.717    23.087058    21.410109    21.736031    10744.043    3003.2701    2122.6258     1647.255    15.350968    171.17892     177.9519   -6159.2885 
27907000    96.756886   -6746.5369   -6497.6357   -6746.5369            0    2158.6305    23.233389    21.349889    21.654634    10741.354    1981.1034    2263.0684    2231.7196   -884.33163    1439.1777    329.97121   -6159.4828 
27908000    99.153571   -6754.2926   -6499.2261   -6754.2926            0    1952.5451    23.308459    21.322486    21.657192    10763.501    2133.9524    1477.5948     2246.088    211.44246   -451.59099    920.04467   -6192.7261 
27909000    101.20533   -6750.6171   -6490.2726   -6750.6171            0    1900.8764    23.184159    21.312721    21.821635    10782.452    3369.2839    1260.7372    1072.6081   -897.10465    352.81585    77.333721   -6191.3578 
27910000    99.295569   -6749.5416   -6494.1098   -6749.5416            0    3205.4587    23.162204    21.382587    21.618474    10706.935     3413.831    3501.5722     2700.973   -450.16826    218.14966    -626.3594   -5993.5785 
27911000    98.615295   -6759.4821   -6505.8002   -6759.4821            0     2233.646    23.323455    21.357745    21.588183     10753.86    1921.5951    2306.4361    2472.9069    896.33029   -24.304201    824.68188   -6155.4885 
27912000    99.747595   -6747.3814   -6490.7868   -6747.3814            0    2042.3612    23.327886    21.277009    21.706013    10773.728    1735.9272    3063.2696    1327.8867   -439.95438   -287.76033   -371.55208   -6169.8833 
27913000    99.947616   -6749.4494   -6492.3402   -6749.4494            0    2122.7035    23.201178    21.399254    21.691599    10769.617     2530.634    1876.7326    1960.7438   -224.29579   -1016.4254   -187.46735   -6158.9403 
27914000    100.66546   -6760.4863   -6501.5306   -6760.4863            0      3221.15    23.262554    21.450778    21.472754    10714.902    3266.7109    2137.3518    4259.3873   -681.77524   -718.13482   -103.31669   -5998.1748 
27915000    99.323137   -6747.9054   -6492.4027   -6747.9054            0    2048.7357     23.33426    21.380714    21.619284    10785.928    1938.6151    1176.3221    3031.2699   -809.84308    95.641504    -319.0334    -6170.133 
27916000    105.04935   -6748.1682   -6477.9352   -6748.1682            0    3122.2714    23.164505    21.290071    21.756753    10729.864    3168.0948    3996.8427    2201.8767    617.50544   -199.73571   -892.54495   -5989.3495 
27917000    103.02984   -6758.2165   -6493.1786   -6758.2165            0    2446.4804    23.316492    21.400532    21.532776    10744.539    1889.2162    2103.9721    3346.2531    735.88999   -156.62501    782.52803   -6109.8198 
27918000    105.78736   -6752.2081   -6480.0766   -6752.2081            0    2030.4009    23.302851    21.387965    21.572283    10751.638    869.46493     2426.823    2794.9147    108.44305   -146.80202    304.37934   -6161.7065 
27919000    107.01105   -6741.4062   -6466.1268   -6741.4062            0     2134.555    23.138402    21.356535    21.805458      10775.3    3256.7167    1440.5235    1706.4247    236.84392   -607.68854    -471.1257   -6130.6885 
27920000     101.4767   -6756.0083   -6494.9656   -6756.0083            0    2015.6328    23.244342    21.356881     21.68226    10763.652    2324.8598    1609.3904    2112.6483    125.91199    241.28594   -132.93622    -6178.558 
27921000    101.53543   -6753.0967    -6491.903   -6753.0967            0    1307.8489    23.371781    21.411172    21.562783    10790.388    651.31087    1491.2362    1780.9997    213.84561   -281.55186   -328.99939   -6286.0911 
27922000    104.70147   -6759.5068   -6490.1687   -6759.5068            0     1644.428    23.197372    21.374229    21.738241    10778.384    1995.3871    1683.0211    1254.8757   -434.60518   -360.55319    129.85122   -6231.6783 
27923000     102.1862   -6762.5882   -6499.7204   -6762.5882            0    2382.7311    23.200573    21.398314    21.662809     10754.57    1542.0145    3174.5251    2431.6538    -168.7201     434.3358    187.64935   -6126.0025 
27924000    100.50541   -6755.3498   -6496.8058   -6755.3498            0    2812.6246    23.321714     21.36994    21.557391     10743.85    2222.6915    3090.2162     3124.966    861.03376   -449.26568   -1054.9877   -6056.1011 
27925000    102.74307   -6750.8935   -6486.5932   -6750.8935            0    2432.6714    23.335895      21.3614    21.616141    10775.373     1927.306    2339.5978    3031.1103   -625.01043   -2.2699971   -871.15209   -6104.3043 
27926000    98.199024   -6754.6377   -6502.0267   -6754.6377            0    1992.5531    23.239098    21.403438    21.649134    10768.206    1627.3157    2006.9985     2343.345    185.55835   -29.848724   -50.908825   -6189.1097 
27927000    109.38757   -6753.3379   -6471.9451   -6753.3379            0    1442.9458    23.206973     21.31975    21.792281    10782.099    1689.3632    2495.0449    144.42948    390.73301   -186.85608    126.78782   -6245.0478 
27928000    102.48196   -6748.7134   -6485.0848   -6748.7134            0    1920.4999    23.223069    21.367557    21.703951     10769.94    1538.2477    2492.5378    1730.7142    359.98186    23.070109   -901.29711   -6183.4346 
27929000    102.56175   -6753.3708    -6489.537   -6753.3708            0     2917.055    23.261785    21.366844    21.589049    10730.425    2224.6072    3382.0693    3144.4886    797.34073    719.15808    149.67445   -6033.0405 
27930000    104.88706   -6757.1654   -6487.3498   -6757.1654            0    2490.6659    23.247228    21.318546    21.701304    10755.103    1976.6746    2465.3445    3029.9788    12.601606   -198.75693    81.286435   -6096.6835 
27931000    101.38602   -6751.2941   -6490.4847   -6751.2941            0    2747.5333    23.120601    21.317212    21.795648     10742.35     3291.015     3401.817    1549.7678   -256.70956    -496.0192   -761.35719   -6060.0393 
27932000    104.60442   -6751.0593   -6481.9708   -6751.0593            0    2084.8422    23.236287       21.411    21.671002    10781.587    1540.5299    2047.7989    2666.1979   -622.56179     851.2389     80.57521   -6154.1536 
27933000    102.23406   -6764.1187   -6501.1278   -6764.1187            0    2487.1137    23.322533    21.310299     21.62393    10747.313    1976.3556    2730.1004    2754.8852    90.444902    1318.6394   -465.87349   -6111.3013 
27934000    98.208558   -6747.8772   -6495.2417   -6747.8772            0    2517.8321    23.276858    21.328707    21.679558    10763.148    2833.9392    2569.7792    2149.7781    1083.0915   -486.96101   -797.34296   -6100.0189 
27935000    100.69498   -6740.5749   -6481.5432   -6740.5749            0     2007.491    23.210372    21.391076    21.730609    10789.135    2095.7841    1672.8229     2253.866   -761.12497   -71.972936   -87.911165   -6165.6676 
27936000    108.63337   -6757.8365   -6478.3837   -6757.8365            0    2713.3221    23.251461    21.355685    21.631999    10741.388    2761.5382    2226.9596    3151.4684   -77.110172   -432.32806    256.06182   -6053.3361 
27937000    100.16357   -6760.2248   -6502.5601   -6760.2248            0    2507.5696    23.276888    21.382333    21.560239    10730.837    3015.0246    1769.8664    2737.8179    215.77053    52.769931    363.00482   -6110.1299 
27938000    105.18753   -6747.1296   -6476.5411   -6747.1296            0    2241.0005    23.266834    21.372486    21.639515    10760.683    1461.1746    2996.5357    2265.2913     737.0084    139.70251    150.98313    -6124.853 
27939000    99.482708    -6764.003   -6508.0898    -6764.003            0    2205.9638    23.209907    21.327118    21.724753    10753.762    3322.2993    2040.5365    1255.0556    425.32559   -295.23948   -390.97693   -6162.1228 
27940000    103.50247   -6734.9086   -6468.6548   -6734.9086            0    1445.8979    23.225188    21.450562    21.715807     10818.67    2175.4253    918.11609    1244.1524   -709.13701   -509.54423   -370.81908   -6240.5222 
27941000    104.31466   -6748.5529   -6480.2098   -6748.5529            0     1453.702       23.342    21.424217    21.572245    10787.937    348.28408    1574.7548    2438.0669    727.38142   -576.74769    59.881193   -6251.4975 
27942000    103.24218   -6751.4314   -6485.8472   -6751.4314            0     1834.581    23.248429    21.377956    21.676123    10773.117    2651.3882     1256.474     1595.881   -659.23722   -170.20338   -468.39627   -6197.6073 
27943000    100.39321   -6757.3291   -6499.0737   -6757.3291            0    1310.6298    23.195198    21.402874    21.795138    10820.064    1927.4571    1327.6975    676.73465    57.860538    339.12212   -742.51659   -6292.2569 
27944000     101.1223   -6746.2417   -6486.1108   -6746.2417            0    2621.2914    23.308177    21.373174    21.564781    10742.921      2544.46    2930.6279    2388.7862    -106.5636    -370.1467    -691.5401   -6075.4213 
27945000     103.8657   -6747.6344   -6480.4462   -6747.6344            0    1991.8695    23.355501     21.34929    21.600343    10770.436    1350.9421    1716.3827    2908.2836   -452.86458   -195.74422    1262.4974   -6167.5718 
27946000    101.84907    -6755.046   -6493.0455    -6755.046            0    2339.2205      23.1338     21.40315    21.713704    10751.241    2732.5459    2272.9635     2012.152   -357.67628    167.09279     397.3345   -6126.2655 
27947000    101.80509   -6748.0305   -6486.1431   -6748.0305            0    1830.5058       23.178    21.405362    21.725109    10778.554    1758.3443    1844.5239     1888.649    -45.53313    425.57747    32.133368   -6198.3983 
27948000     101.9687   -6744.6047   -6482.2964   -6744.6047            0    2879.3299    23.363406    21.229942    21.649535    10738.251    2390.1599    2658.9763    3588.8535   -83.737948    451.89445    1327.7803    -6031.375 
27949000    106.14456   -6756.8918   -6483.8414   -6756.8918            0    2682.8905    23.185555    21.332153    21.709189    10737.317    2662.0354    2836.6553    2549.9808    429.17319   -220.59018    17.480716   -6063.7202 
27950000    100.62748   -6758.6562   -6499.7982   -6758.6562            0    2522.3524     23.13035     21.48071    21.656708    10760.272    3751.7461    1445.5308    2369.7803    2.2219378   -15.015224    358.88555   -6103.9716 
27951000    102.93051   -6750.1178   -6485.3353   -6750.1178            0    2546.6862       23.275    21.276257    21.693104    10742.531    2537.4836    3255.4995    1847.0754    387.74994   -17.584007    258.08759   -6086.3491 
27952000    101.36387   -6752.0036   -6491.2512   -6752.0036            0    1952.6992     23.28659    21.315436    21.715391    10778.735    2039.2085    1713.3181    2105.5709   -498.05297   -138.98285    435.69426   -6184.2932 
27953000    96.862549   -6761.6845   -6512.5115   -6761.6845            0    2107.8206    23.158714    21.367241    21.700224    10738.092    2842.6806    1587.6625    1893.1188     14.84171    552.01693    1068.7452   -6182.4182 
27954000    100.47738   -6751.3036   -6492.8317   -6751.3036            0    1777.6854    23.139823    21.380254    21.755623    10763.275    1776.0792    2205.2124    1351.7646    566.02128    206.71428   -230.35396   -6213.7861 
27955000    100.84013   -6758.4571    -6499.052   -6758.4571            0    2452.6365    23.304267    21.287019    21.690278    10760.078    2123.8265    2991.2985    2242.7846     238.7583    34.763903    433.17992   -6114.1727 
27956000    100.49942   -6762.4307    -6503.902   -6762.4307            0    2445.4158     23.29296    21.338633    21.597593    10734.866    1334.3254    2267.5887    3734.3334    -9.790307    379.00847    658.47969   -6121.0551 
27957000    98.899873   -6758.3264   -6503.9125   -6758.3264            0    1808.6256    23.161145    21.471926    21.673837    10778.711    2403.7257    2005.7445    1016.4067     349.8725   -547.94323   -767.52746    -6219.603 
27958000    105.15878   -6760.8117   -6490.2971   -6760.8117            0    2632.3749    23.168543     21.37679    21.685652    10740.233    2744.8508    2697.4201    2454.8539   -376.65917   -191.36075   -496.64238   -6077.9744 
27959000    98.718838   -6735.5057   -6481.5575   -6735.5057            0    2740.8323    23.373899    21.289198    21.592308    10744.582    2782.7388    2827.4483    2612.3099    -103.1734   -952.83748   -865.40016   -6052.0726 
27960000    104.61865   -6763.2159   -6494.0908   -6763.2159            0    1715.6211    23.247738    21.417071    21.656479    10782.728    1502.9679    1398.5163    2245.3791   -493.35683    91.051338    170.38191   -6224.3007 
27961000    102.42934   -6746.7776   -6483.2843   -6746.7776            0    2488.5707    23.292741    21.398006    21.537521    10734.692    1828.3721    2277.3024    3360.0375   -602.31324    758.36076    -548.4559   -6093.6874 
27962000    99.036693   -6753.0543   -6498.2885   -6753.0543            0    2062.7552    23.335881     21.27028    21.739526    10790.647    2049.9339    2691.9968    1446.3349   -386.66926   -649.34718    67.593126   -6173.6716 
27963000    101.54053   -6755.5076   -6494.3008   -6755.5076            0     1782.988    23.208721    21.385068    21.697067     10768.69    1675.8878    1878.6856    1794.3908    284.83728   -79.450559    405.70148    -6214.282 
27964000    103.75657   -6756.9748   -6490.0673   -6756.9748            0     1661.524    23.126751    21.445966     21.71086    10768.055    2641.4852    1323.8422    1019.2446   -720.26298    53.818431   -133.75035   -6229.1399 
27965000     100.8023   -6767.9272   -6508.6194   -6767.9272            0    829.69258    23.354886     21.34469    21.682512    10808.793    481.67619    921.32352     1086.078    622.98294    80.606147    74.724681   -6377.8307 
27966000    99.278503   -6749.1495   -6493.7616   -6749.1495            0    1936.1401    23.264118    21.342747    21.689636    10769.342    2304.0072    2160.3013    1344.1117   -611.76228    252.51569   -756.40145   -6189.6718 
27967000    102.81132   -6758.8426   -6494.3668   -6758.8426            0    1239.0913    23.186735    21.424734    21.768215    10813.788    1927.6237    1211.6862    577.96381   -793.56735    9.7617003   -160.03011   -6298.9522 
27968000    98.984183   -6737.8849   -6483.2541   -6737.8849            0    2012.9829    23.310284    21.352842    21.630978     10766.62    1879.5363    2671.0181    1488.3942    94.576887    -778.2862   -365.90056   -6167.1753 
27969000    103.09683   -6758.5753    -6493.365   -6758.5753            0    2262.2832    23.269886    21.389186    21.617534    10759.564      1538.86    2307.2194    2940.7701    903.70303    157.11781    191.66244   -6138.3738 
27970000    100.07968   -6766.6326   -6509.1837   -6766.6326            0    1584.5363    23.210206    21.377967    21.750328     10792.23    1812.6061    1584.3414    1356.6613    516.67566    543.71286   -604.31475   -6259.7879 
27971000    100.49591   -6754.3621   -6495.8425   -6754.3621            0    2796.3505    23.230441    21.377842    21.611346    10732.555    1862.0396    3293.9751    3233.0369   -81.318613     1050.688   -590.31885   -6058.1484 
27972000    102.57519    -6762.808   -6498.9395    -6762.808            0    1952.9226     23.30652     21.36965    21.628753    10772.247    1392.3093    2521.9745    1944.4839   -1062.6248    382.36849    289.66881   -6192.1312 
27973000    103.36197   -6764.1432   -6498.2508   -6764.1432            0     1939.089    23.199472    21.380789     21.68586    10756.686    2136.1259     1402.095    2279.0459   -208.63585    689.62864    764.09479   -6194.0558 
27974000    105.53232   -6749.9359   -6478.4605   -6749.9359            0    1735.0945    23.181226    21.361373    21.776682    10783.439    2158.8053    1541.4148    1505.0634    814.27338    582.48563    625.26578   -6205.5902 
27975000    101.75377   -6761.7514    -6499.996   -6761.7514            0    1384.4978    23.247822    21.390067    21.692195    10786.931    1276.0273    1903.8621    973.60396    289.74265   -234.70635    195.51332   -6282.1919 
27976000    102.68234   -6758.9147   -6494.7706   -6758.9147            0     1784.281    23.316578    21.319937    21.680253    10777.427    1179.9662    2212.6441    1960.2329    170.79921   -106.88514    792.16985   -6214.3214 
27977000    110.25122   -6750.5835    -6466.969   -6750.5835            0     2578.782    23.210354    21.320173    21.747995    10761.969     3890.248    2142.5567    1703.5414   -1202.8263   -852.73568   -146.31706   -6062.2233 
27978000    105.43235   -6747.6421   -6476.4238   -6747.6421            0     2151.985    23.222973    21.405619    21.679619    10776.984    1834.6588    3346.6823     1274.614    376.92774    211.11412   -943.02319   -6138.1936 
27979000    105.95711   -6757.3415   -6484.7732   -6757.3415            0    2785.2103    23.303993    21.319533    21.616794    10739.877    2657.5985    2666.6798    3031.3527    761.34876    67.709037   -46.891947   -6048.5255 
27980000    105.95056    -6747.205   -6474.6537    -6747.205            0     2242.065    23.275598    21.403842    21.622771    10772.188    2270.9146    2181.3874    2273.8929   -880.54589   -841.06388   -684.70516   -6122.4223 
27981000     102.0602   -6743.8552   -6481.3115   -6743.8552            0    1761.3133    23.201578    21.384982    21.747884    10790.546    2005.4276    1954.8525    1323.6597   -727.39769   -184.16018   -285.26245   -6204.1354 
27982000    103.83901   -6752.3066   -6485.1871   -6752.3066            0    2108.0954    23.271951    21.318886    21.677141    10754.725    2408.2348    2483.1243    1432.9269    278.80932   -849.38736   -9.1350723   -6154.5394 
27983000    99.984197   -6755.7497   -6498.5465   -6755.7497            0     2290.959     23.28573     21.37849    21.616441    10760.962    1649.7578    2297.2104    2925.9088    872.97255    191.58633    222.27917   -6139.0089 
27984000     99.90869    -6745.865    -6488.856    -6745.865            0    2178.2309    23.155105    21.373087    21.758742    10768.316    2087.0327    2843.2947    1604.3654     628.7218    263.55928    560.23445   -6146.7761 
27985000    101.35216   -6754.4973    -6493.775   -6754.4973            0    2025.9501    23.278883    21.272851    21.757869    10774.676    1984.8086    2865.1196    1227.9221   -8.7234169    161.93928    -212.6118   -6175.4221 
27986000    105.32628   -6765.6608   -6494.7154   -6765.6608            0    1955.1107    23.285554    21.325039    21.686643    10768.835    1886.7376      2255.11    1723.4846   -419.75956    495.58893    734.06502   -6187.6605 
27987000     99.34208   -6755.1902   -6499.6388   -6755.1902            0    2043.2483    23.111852    21.551018    21.608415    10762.804    2203.9648    903.15774    3022.6225    196.41979   -391.67423   -27.584271   -6178.9214 
27988000     104.8579   -6748.4548   -6478.7143   -6748.4548            0     1328.347    23.274669    21.382875    21.717848    10808.524    1395.2685    662.77527    1926.9974    182.11622    260.61772   -22.773385   -6269.3253 
27989000     102.0418   -6757.7163     -6495.22   -6757.7163            0    1422.0262    23.395283    21.251088     21.68225    10779.877    1341.4597     939.8818     1984.737    783.25678   -122.10715    552.36181   -6271.6584 
27990000    103.57929   -6752.8137   -6486.3622   -6752.8137            0    1800.2425    23.238598    21.413943    21.686978    10792.091    1293.6545    1985.8862    2121.1869   -205.38616    134.91376   -289.74167   -6203.0192 
27991000    101.00462   -6755.4096   -6495.5813   -6755.4096            0    1380.7614    23.074101    21.534607    21.705912    10785.487    2531.5649    633.61392    977.10541   -172.70152   -254.04635    283.74487   -6278.3941 
27992000    101.44747   -6757.2264   -6496.2589   -6757.2264            0    2158.1414    23.341561    21.248725    21.686694    10756.132    1727.6271    3551.2281    1195.5692   -261.93813   -196.71837    -643.9048   -6157.7174 
27993000    103.10616   -6751.1702   -6485.9358   -6751.1702            0    2406.3965    23.315754    21.287223     21.69365    10767.159     1937.634    2452.3191    2829.2365   -228.11862    1034.6157    167.09174   -6108.0643 
27994000    102.71158   -6755.5928   -6491.3735   -6755.5928            0      2166.58    23.125012    21.544193    21.618646     10770.62    3015.7757    1175.7318    2308.2324    353.57033    63.461128   -621.49162   -6151.0505 
27995000    106.33193   -6743.7041   -6470.1717   -6743.7041            0    2662.1727    23.218069    21.381027    21.672193    10758.643    2691.7187    2980.9097    2313.8897    331.58328   -229.28899    92.322418   -6052.4667 
27996000    102.47557   -6761.7495   -6498.1373   -6761.7495            0    2083.0246    23.349313    21.251029    21.697555     10766.26    1014.0999    3232.8369    2002.1372   -98.514405    515.16938    11.129339   -6171.0715 
27997000    99.033028   -6743.4888   -6488.7323   -6743.4888            0    2925.2902    23.182053    21.362534    21.679729    10736.396     2845.025    3320.7061    2610.1395   -146.50149    924.30322    149.99564   -6030.6924 
27998000    104.57345   -6754.5626   -6485.5538   -6754.5626            0    2539.4104    23.139928    21.409803    21.693215    10747.281     2678.559    2739.6723         2200    645.72272    504.86243    368.33889   -6087.5315 
27999000    100.66807   -6754.1965    -6495.234   -6754.1965            0    2388.5615    23.330703    21.274048    21.661698    10751.535    2231.9197    2742.4194    2191.3453   -96.866981    382.68814     284.8789   -6120.7074 
28000000    108.59164   -6748.5756   -6469.2302   -6748.5756            0     2491.048    23.225445    21.314909    21.730062    10757.429    2907.0853    2437.3982    2128.6606   -692.01581    86.480876   -49.185587   -6078.4195 
Loop time of 576.849 on 64 procs for 250000 steps with 1296 atoms

Performance: 74.890 ns/day, 0.320 hours/ns, 433.389 timesteps/s
387.7% CPU use with 16 MPI tasks x 4 OpenMP threads

MPI task timing breakdown:
Section |  min time  |  avg time  |  max time  |%varavg| %total
---------------------------------------------------------------
Pair    | 39.521     | 49.08      | 58.847     |  76.1 |  8.51
Bond    | 1.5714     | 1.7437     | 2.094      |  10.8 |  0.30
Kspace  | 296.42     | 310.2      | 321.42     |  38.8 | 53.77
Neigh   | 1.0847     | 1.1515     | 1.2351     |   4.4 |  0.20
Comm    | 55.743     | 62.666     | 68.43      |  45.0 | 10.86
Output  | 0.38317    | 0.38345    | 0.38467    |   0.1 |  0.07
Modify  | 132.65     | 137.01     | 140.22     |  18.8 | 23.75
Other   |            | 14.62      |            |       |  2.53

Nlocal:        81.0000 ave          93 max          65 min
Histogram: 2 0 0 1 4 1 3 1 1 3
Nghost:        3653.62 ave        3693 max        3622 min
Histogram: 2 1 3 2 3 1 0 0 2 2
Neighs:        25969.1 ave       29703 max       20743 min
Histogram: 2 0 0 0 5 1 3 1 0 4

Total # of neighbors = 415506
Ave neighs/atom = 320.60648
Ave special neighs/atom = 2.0000000
Neighbor list builds = 2622
Dangerous builds = 0

unfix		3
unfix		2
unfix		1

write_data	data.final.${pid}
write_data	data.final.0
System init for write_data ...
PPPM initialization ...
  extracting TIP4P info from pair style
  using 12-bit tables for long-range coulomb (../kspace.cpp:340)
  G vector (1/distance) = 0.36776666
  grid = 30 40 32
  stencil order = 5
  estimated absolute RMS force accuracy = 0.0044319184
  estimated relative force accuracy = 1.3346591e-05
  using double precision FFTW3
  3d grid and FFT values/proc = 11832 2400
Last active /omp style is kspace_style pppm/tip4p/omp
WARNING: Not all mixed pair coeffs generated from mixing. Use write_data with 'pair ij' option to store all pair coeffs. (../write_data.cpp:312)

write_restart   restart.lmp.${pid}
write_restart   restart.lmp.0
System init for write_restart ...
PPPM initialization ...
  extracting TIP4P info from pair style
  using 12-bit tables for long-range coulomb (../kspace.cpp:340)
  G vector (1/distance) = 0.36776666
  grid = 30 40 32
  stencil order = 5
  estimated absolute RMS force accuracy = 0.0044319184
  estimated relative force accuracy = 1.3346591e-05
  using double precision FFTW3
  3d grid and FFT values/proc = 11832 2400
Last active /omp style is kspace_style pppm/tip4p/omp
Total wall time: 0:09:36
