#include		in.partitions
include		in.temp
variable        temperature equal 2.72
variable	tempDamp equal 100.0
include		in.pressure
variable        pressure equal 2220.4
variable        pressureDamp equal 1000.0 # This is 1 ps
include		in.seed
variable        seed equal 745823

units		real
atom_style	full
#include		in.box
read_restart	restart.lmp.${pid}
read_restart	restart.lmp.0
Reading restart file ...
  restart file = 30 Jul 2021, LAMMPS = 30 Jul 2021
  restoring atom style full from restart
  orthogonal box = (0.17668141 0.18247627 0.17242760) to (18.030891 23.446702 22.040768)
  2 by 4 by 4 MPI processor grid
  restoring pair style lj/cut/tip4p/long/omp from restart
  restoring bond style harmonic/omp from restart
  restoring angle style harmonic/omp from restart
  864 atoms
  576 bonds
  288 angles
Finding 1-2 1-3 1-4 neighbors ...
  special bond factors lj:    0        0        0       
  special bond factors coul:  0        0        0       
     2 = max # of 1-2 neighbors
     1 = max # of 1-3 neighbors
     1 = max # of 1-4 neighbors
     2 = max # of special neighbors
  special bonds CPU = 0.002 seconds
  read_restart CPU = 0.006 seconds
include 	in.setup
variable	out_freq equal 1000
variable	out_freq2 equal 10000
variable	out_freq3 equal 1000

timestep	2.0

neigh_modify    delay 7 every 1

include		in.tip4p
# This is TIP4P/Ice

# create groups ###
group ox type 2
288 atoms in group ox
group hy type 1
576 atoms in group hy

# set charges - beside manually ###
set group ox charge -1.1794
Setting atom values ...
  288 settings made for charge
set group hy charge 0.5897
Setting atom values ...
  576 settings made for charge

# ### TIP3P Potential Parameters ###
pair_style lj/cut/tip4p/long/omp 2 1 1 1 0.1577 8.5
pair_coeff 1 1*2 0.000 0.000
pair_coeff 2 2 0.21084 3.1668
bond_style  harmonic
bond_coeff  1 450 0.9572
angle_style harmonic
angle_coeff 1 55 104.52
kspace_style pppm/tip4p/omp 1.0e-5
pair_modify tail yes

thermo          ${out_freq}
thermo          1000
thermo_style    custom step temp pe etotal epair emol press lx ly lz vol pxx pyy pzz pxy pxz pyz enthalpy

restart 	${out_freq3} restart.lmp.${pid} restart2.lmp.${pid}
restart 	1000 restart.lmp.${pid} restart2.lmp.${pid}
restart 	1000 restart.lmp.0 restart2.lmp.${pid}
restart 	1000 restart.lmp.0 restart2.lmp.0


include         in.dump
dump            myDump all atom ${out_freq2} dump.water.${pid}
dump            myDump all atom 10000 dump.water.${pid}
dump            myDump all atom 10000 dump.water.0
dump            myDump2 all dcd ${out_freq2} dump.dcd
dump            myDump2 all dcd 10000 dump.dcd
dump_modify     myDump append yes
dump_modify     myDump2 append yes


variable natoms 	equal  "count(all)"                        # NUMBER ATOMS
variable H      	equal  "enthalpy/v_natoms"                 # ENTHALPY-per-atom
variable Vol      	equal  "vol/v_natoms"                 # volume-per-atom
fix AVG all 		ave/time ${out_freq} 1 ${out_freq} v_Vol v_H file vol_enthalpy.dat
fix AVG all 		ave/time 1000 1 ${out_freq} v_Vol v_H file vol_enthalpy.dat
fix AVG all 		ave/time 1000 1 1000 v_Vol v_H file vol_enthalpy.dat


timer           timeout 23:50:00 every 1000
New timer settings: style=normal  mode=nosync  timeout=23:50:00

fix 		1 all shake 1e-6 200 0 b 1 a 1
       0 = # of size 2 clusters
       0 = # of size 3 clusters
       0 = # of size 4 clusters
     288 = # of frozen angles
  find clusters CPU = 0.001 seconds
fix             2 all nph aniso ${pressure} ${pressure} ${pressureDamp}
fix             2 all nph aniso 2220.4 ${pressure} ${pressureDamp}
fix             2 all nph aniso 2220.4 2220.4 ${pressureDamp}
fix             2 all nph aniso 2220.4 2220.4 1000
fix             3 all temp/csvr ${temperature} ${temperature} ${tempDamp} ${seed}
fix             3 all temp/csvr 2.72 ${temperature} ${tempDamp} ${seed}
fix             3 all temp/csvr 2.72 2.72 ${tempDamp} ${seed}
fix             3 all temp/csvr 2.72 2.72 100 ${seed}
fix             3 all temp/csvr 2.72 2.72 100 745823


run             250000
PPPM initialization ...
  extracting TIP4P info from pair style
  using 12-bit tables for long-range coulomb (../kspace.cpp:340)
  G vector (1/distance) = 0.37225617
  grid = 24 27 25
  stencil order = 5
  estimated absolute RMS force accuracy = 0.0030978329
  estimated relative force accuracy = 9.3290318e-06
  using double precision FFTW3
  3d grid and FFT values/proc = 4410 672
Last active /omp style is kspace_style pppm/tip4p/omp
Neighbor list info ...
  update every 1 steps, delay 7 steps, check yes
  max neighbors/atom: 2000, page size: 100000
  master list distance cutoff = 10.8154
  ghost atom cutoff = 10.8154
  binsize = 5.4077, bins = 4 5 5
  1 neighbor lists, perpetual/occasional/extra = 1 0 0
  (1) pair lj/cut/tip4p/long/omp, perpetual
      attributes: half, newton on, omp
      pair build: half/bin/newton/omp
      stencil: half/bin/3d
      bin: standard
Per MPI rank memory allocation (min/avg/max) = 10.21 | 10.22 | 10.23 Mbytes
Step Temp PotEng TotEng E_pair E_mol Press Lx Ly Lz Volume Pxx Pyy Pzz Pxy Pxz Pyz Enthalpy 
50000000    5.3472233   -4730.1696   -4721.0046   -4730.1696            0    2211.0315     17.85421    23.264225    21.868341    9083.3292    2148.0956    2210.5088    2274.4901   -162.87797    21.594922    26.290973    -4428.107 
50001000    2.6957333   -4735.0127   -4730.3923   -4735.0127            0    2220.7552    17.878784    23.244722    21.850812    9080.9213    2191.9189    2204.8039    2265.5429   -30.264298   -66.727705    127.26408   -4436.2846 
50002000    2.5872366   -4734.9861   -4730.5516   -4734.9861            0    2240.2204    17.920977    23.208531    21.834053    9081.2095    2130.3033      2277.52     2312.838   -16.959791   -15.741065    34.267803   -4433.8566 
50003000    2.7121508   -4735.0902   -4730.4416   -4735.0902            0    2233.1115    17.904229    23.209482    21.856944    9082.6071    2179.9909    2298.3775    2220.9661   -19.329728    46.644798    77.219795   -4434.6425 
50004000    2.5375319   -4735.0941   -4730.7449   -4735.0941            0    2212.7244    17.874875    23.247221    21.850018     9079.582    2188.7168    2220.9376    2228.5186   -20.141517   -50.756689     122.8354   -4437.7439 
50005000      2.81655   -4735.0562   -4730.2287   -4735.0562            0    2222.2267    17.859655    23.246783    21.872381    9080.9645    2256.6677    2235.2144     2174.798    11.209454   -141.12236     30.43944   -4435.9247 
50006000    2.7864728   -4734.8544   -4730.0785   -4734.8544            0    2226.0262    17.837249     23.29909    21.849991     9080.674    2345.7677    2123.6255    2208.6854   -68.399359    78.579452    63.669943   -4435.2807 
50007000    2.8242253   -4735.1038   -4730.2632   -4735.1038            0    2205.4981    17.815973    23.302365     21.87522    9081.5921      2332.86    2115.9855    2167.6487   -112.40191    9.7179957    57.769856   -4438.1544 
50008000    2.7559858   -4734.8304   -4730.1068   -4734.8304            0    2218.3823     17.85607    23.269218     21.85881    9082.2656    2299.7497    2174.1336    2181.2634   -64.286012    -53.77791    79.439615   -4436.2698 
50009000    2.7477951   -4734.7904   -4730.0808   -4734.7904            0    2233.0858    17.872324    23.253365    21.850998    9081.0929    2207.8931    2249.8944    2241.4699    63.973772   -64.257049    47.219779   -4434.3344 
50010000    2.7633926   -4735.2105   -4730.4742   -4735.2105            0    2232.0703    17.906331     23.23405    21.831891    9082.8653    2114.0753     2262.421    2319.7146   -227.39726    93.213896    113.66592   -4434.8046 
50011000     2.753881   -4735.2287   -4730.5086   -4735.2287            0    2222.0263    17.921376    23.200267    21.845465    9082.9233    2102.0475    2302.9896    2261.0418   -118.88434   -22.948236    49.266351   -4436.1677 
50012000    2.9599123   -4735.0494   -4729.9762   -4735.0494            0    2213.5524    17.907556    23.206761    21.852361    9081.3246    2153.9974    2226.2233    2260.4364    5.1359287   -55.429344    72.020808   -4436.8093 
50013000    2.7506149   -4734.8717   -4730.1573   -4734.8717            0    2213.2845    17.863227    23.255532    21.866544    9083.7741    2198.1307    2185.2044    2256.5183    8.3425806   -1.5102387    78.642103   -4436.9468 
50014000    2.7025138   -4735.1474   -4730.5154   -4735.1474            0    2208.8513     17.83658    23.275969    21.875486    9081.9073    2308.8969    2105.0783    2212.5788   -148.82595    48.768874    18.748439   -4437.9523 
50015000    2.7251248   -4734.9969   -4730.3261   -4734.9969            0    2223.3607    17.837835    23.280324    21.869408    9081.7214    2331.4465    2158.5846    2180.0509   -54.895328    -31.18773    139.68216   -4435.8474 
50016000    2.7243345   -4734.9357   -4730.2663   -4734.9357            0    2190.4557    17.813824    23.299789    21.882782    9082.6315    2295.5862    2110.8462    2164.9346    -43.11031   -134.32422    191.81338   -4440.1166 
50017000    2.8038551   -4735.0762   -4730.2705   -4735.0762            0    2211.6152    17.864911    23.247008    21.868427    9082.0831    2222.5649    2222.4116    2189.8691   -2.9265445    59.639406    42.957785   -4437.3358 
50018000     2.694875   -4735.3281   -4730.7092   -4735.3281            0    2205.0708    17.917955     23.20643    21.842697    9082.4504    2102.5269    2282.5056    2230.1799   -13.222343    62.177938    32.723893   -4438.6295 
50019000    2.8304762   -4735.3202   -4730.4689   -4735.3202            0    2218.1739    17.904255    23.222629    21.839792    9080.6332    2093.3361    2260.4767    2300.7088   -48.982968   -133.94686    104.47953   -4436.7123 
50020000    2.7171477   -4735.2502   -4730.5931   -4735.2502            0    2226.2904    17.900063    23.203321    21.867734    9082.5649    2134.6574    2283.7432    2260.4707    79.054836   -93.930326      85.6184   -4435.6989 
50021000      2.62309    -4735.058   -4730.5621    -4735.058            0    2217.7552    17.863245    23.252622    21.864831    9081.9356    2213.8289    2207.0111    2232.4257   -128.26964    97.230765   -12.751222   -4436.8189 
50022000    2.8201227   -4734.8789   -4730.0454   -4734.8789            0    2217.0007    17.829717    23.298397    21.865639    9083.0701    2315.5258    2184.1758    2151.3003   -195.64947    5.7157381    101.49766   -4436.3653 
50023000    2.5692556   -4735.0384   -4730.6348   -4735.0384            0    2212.6972    17.825836    23.302024    21.862909    9081.3726    2309.3274    2152.3917    2176.3725   -142.33182   -231.46486    104.55598   -4437.5796 
50024000    2.8698839   -4734.6699    -4729.751   -4734.6699            0    2225.3323    17.846816    23.280594    21.857522    9081.4611    2259.7323    2186.0668    2230.1977   -53.089281    17.679838   -8.6506834   -4435.0195 
50025000    2.6990399   -4734.9035   -4730.2775   -4734.9035            0     2235.181    17.875725    23.254777    21.842787    9079.9591    2228.8236    2235.2357    2241.4836   -125.26759    65.919111   -34.353928   -4434.2906 
50026000     2.914973   -4735.0457   -4730.0496   -4735.0457            0    2203.7483    17.917729    23.212714    21.835944    9081.9867    2089.0863    2274.2295    2247.9291   -85.937432   -33.504194     113.2297   -4438.1599 
50027000    2.7285005   -4734.8118   -4730.1353   -4734.8118            0    2220.2678    17.915785    23.203099    21.845324    9081.1393    2162.1773    2303.8374    2194.7887   -127.67105    -45.05316    84.666898    -4436.085 
50028000     2.600217   -4735.0169   -4730.5603   -4735.0169            0    2219.2033    17.898124    23.235897    21.838964    9082.3656    2170.8245     2245.844    2240.9414   -45.502891    107.52788    63.745085   -4436.6113 
50029000    2.6347571   -4735.3729    -4730.857   -4735.3729            0    2212.4171    17.854419    23.277864    21.856204    9083.7168    2241.6524    2193.1538     2202.445   -55.060309    47.724604    -12.53874   -4437.7633 
50030000    2.8131031   -4734.8632   -4730.0416   -4734.8632            0    2220.9882    17.832947    23.293414    21.863954    9082.0724    2379.3929    2104.9716    2178.6002    26.307448   -160.69519    163.23506   -4435.8657 
50031000    2.8998859   -4734.9098   -4729.9395   -4734.9098            0    2223.6959    17.832734    23.276226    21.877176    9080.7506     2322.145    2145.7594    2203.1832    2.4299827    37.356576    13.500846   -4435.4478 
50032000    2.6792471   -4734.8058   -4730.2136   -4734.8058            0     2248.935    17.857635    23.268456    21.855259    9081.2884    2288.3872     2181.079    2277.3387    19.177472    24.322007   -62.191475   -4432.3618 
50033000    2.8507571   -4735.2231    -4730.337   -4735.2231            0    2210.6728    17.892064    23.228029    21.856214    9083.3851    2158.1774    2282.1979    2191.6431    55.541928    40.254225    125.12624   -4437.4851 
50034000    2.6038733   -4734.9726   -4730.5096   -4734.9726            0    2228.2376    17.920644    23.184638      21.8519     9079.107    2069.0629    2389.9231    2225.7268   -104.81296   -185.13658    56.037942   -4435.4699 
50035000    2.5886864   -4735.1337   -4730.6968   -4735.1337            0    2229.0536    17.905488    23.206797    21.856379    9081.9598    2109.6285      2352.78    2224.7524   -74.598318   -13.375575    33.776973   -4435.4563 
50036000    2.7841728   -4735.3503   -4730.5783   -4735.3503            0    2219.5174    17.896064     23.19923    21.873275    9081.2348     2175.406    2254.9288    2228.2174   -74.535008    91.849305    93.047569   -4436.6243 
50037000     2.806263   -4734.9894   -4730.1796   -4734.9894            0    2233.9367    17.848469    23.263884    21.869536    9080.7719    2276.4371    2244.1095    2181.2634   -76.662706   -66.418505     105.6284    -4434.331 
50038000    2.7575033   -4734.9856   -4730.2593   -4734.9856            0    2214.6013    17.825994    23.293368    21.872098    9081.8953    2341.8223    2165.2328    2136.7487   -65.971963    -58.47277    64.467974   -4436.9351 
50039000    2.6624606    -4734.842   -4730.2787    -4734.842            0    2226.5651    17.814415    23.322741    21.855633    9080.5996    2316.2055    2114.7649    2248.7248     -24.8145    1.6225702    16.868287   -4435.4119 
50040000    2.7242351   -4735.2183    -4730.549   -4735.2183            0    2197.0964    17.860776    23.269586    21.859105    9084.9255    2243.2306    2213.6059    2134.4528   -69.420025    81.369245    123.86445   -4439.4462 
50041000    2.6763315   -4735.1089   -4730.5217   -4735.1089            0      2211.73    17.898712    23.236254    21.835424    9081.3314    2140.0065    2292.8629    2202.3207   -49.108668   -141.22501    74.739745    -4437.596 
50042000    2.6598402   -4734.9259    -4730.367   -4734.9259            0    2231.3103    17.912312    23.208649    21.837757    9078.4047    2127.6716    2288.8821    2277.3771   -147.26623   -51.599492    22.508988   -4434.9433 
50043000    2.7746124   -4735.0704   -4730.3149   -4735.0704            0    2227.6858    17.912987    23.213096    21.839959    9081.4021    2096.4818    2314.3574    2272.2184   -91.348552    52.791681    96.544692   -4435.2736 
50044000    2.7526376   -4734.9569   -4730.2389   -4734.9569            0    2212.7245    17.880156    23.220853    21.870655    9080.5314    2214.5529     2219.549    2204.0716    63.611536    36.114085    27.256592   -4437.2073 
50045000    2.5060922    -4735.094   -4730.7987    -4735.094            0     2223.256    17.837222     23.28199    21.866892    9081.0147    2295.1494     2160.118    2214.5005    38.281826   -47.619507    27.624987   -4436.3567 
50046000    2.7897806   -4734.9099   -4730.1283   -4734.9099            0    2221.1989    17.822848    23.313799     21.85846    9082.5898    2365.6395    2106.9971    2190.9601   -5.0229498   -24.607524    75.682859   -4435.9077 
50047000    2.6094814   -4735.0248   -4730.5522   -4735.0248            0    2219.2053    17.834684    23.292854    21.857531    9080.0706    2302.7306    2142.1262    2212.7591    58.276474    111.64206    9.4687013   -4436.6773 
50048000    2.7430605   -4734.9272   -4730.2256   -4734.9272            0    2225.0882     17.86654      23.2655    21.850169     9082.547    2274.5978    2163.7747     2236.892   -4.0559304   -17.803932    35.818885   -4435.4913 
50049000    2.7743828   -4735.1629   -4730.4077   -4735.1629            0    2227.6919    17.894237    23.241522     21.84088    9083.3887    2167.3989    2267.3455    2248.3312   -3.2586693   -93.120129    69.650532   -4435.3011 
50050000    2.7377957   -4735.1397   -4730.4472   -4735.1397            0    2239.9883    17.922173    23.207529    21.827127    9078.5428    2082.2785    2323.9201    2313.7665   -69.064665   -44.028098    64.250133     -4433.87 
50051000    2.7893985   -4734.8482   -4730.0673   -4734.8482            0    2231.2241    17.897499    23.217307    21.850209    9079.4551    2174.3909    2240.7129    2278.5684    86.878506    159.13165    71.524604   -4434.6208 
50052000     2.780377   -4735.1523   -4730.3868   -4735.1523            0     2219.244    17.872002    23.254172     21.85332    9082.2093    2183.3788    2197.3981     2276.955   -35.696833   -117.88253   -8.5971336   -4436.4375 
50053000    2.6913489   -4735.1231   -4730.5102   -4735.1231            0    2218.8961    17.842206    23.258101    21.885384    9081.9055    2251.5546    2151.0153    2254.1185    70.531617    10.164697    16.568473   -4436.6168 
50054000    2.7532685   -4734.8973   -4730.1783   -4734.8973            0    2218.0338     17.82555      23.3064    21.857908    9080.8547    2342.0806     2142.226    2169.7947   -178.05953    49.427706    65.543945   -4436.4331 
50055000    2.6437596   -4734.8036   -4730.2722   -4734.8036            0    2215.2225    17.822177    23.299079    21.878012    9084.6329    2307.0439     2103.197    2235.4265   -126.12304    9.3160106    33.557915   -4436.7773 
50056000    2.8510034    -4734.915   -4730.0285    -4734.915            0    2221.8938    17.873773    23.247973    21.859834    9083.3948    2272.2048    2229.0532    2164.4233   -179.34554   -124.13883    120.77561   -4435.6898 
50057000    2.7948242   -4735.1769   -4730.3867   -4735.1769            0    2227.0451    17.896316    23.227706    21.841711    9079.3893    2135.7901    2261.6308    2283.7143   -158.06554    -39.76481    22.984011   -4435.4957 
50058000    2.6828315     -4735.09   -4730.4918     -4735.09            0    2221.0185    17.910336    23.215973     21.84089    9081.5707    2134.9108    2290.9097    2237.2349    10.492171    73.079096    27.727728   -4436.3281 
50059000    2.8318638   -4735.1839   -4730.3301   -4735.1839            0    2226.6469    17.902228    23.196874    21.867268    9080.9454    2194.6856    2333.5498    2151.7052   -26.315825    -41.99584    62.807503   -4435.4413 
50060000    2.6957645   -4735.3887   -4730.7683   -4735.3887            0    2218.8799    17.872842    23.234513    21.869522    9081.6864    2265.3673    2192.0224      2199.25   -49.079537   -53.656428    114.41154   -4436.8841 
50061000    2.6351523   -4734.9927   -4730.4762   -4734.9927            0     2215.418    17.819056    23.326928     21.84856    9081.6564    2351.3511      2127.27    2167.6329   -53.629376   -51.965404    44.372696   -4437.0515 
50062000    2.7557557   -4735.0208   -4730.2975   -4735.0208            0    2224.6226    17.827013    23.302651    21.866443     9083.685    2357.8887    2074.8206    2241.1587    -32.13099    71.049074    76.096347   -4435.5879 
50063000    2.9082792   -4734.8923   -4729.9076   -4734.8923            0     2219.456    17.846385    23.269431    21.868918    9081.6199    2272.8868    2207.4185    2178.0629   -8.2673181   -92.716855    96.121749   -4435.9493 
50064000    2.7586111   -4735.2498   -4730.5217   -4735.2498            0    2227.9615    17.890903    23.237913     21.84701    9082.8339     2242.459    2240.1674     2201.258     21.20576   -12.427868    74.795569   -4435.3974 
50065000    2.6856441   -4735.3411    -4730.738   -4735.3411            0    2218.3708     17.90893    23.213922    21.847583    9082.8379     2062.266    2265.3753    2327.4711   -23.015601    7.6656196    15.702125    -4436.884 
50066000    2.7762012   -4734.8929   -4730.1346   -4734.8929            0    2222.2705    17.924233    23.194311    21.842489     9080.802    2099.5648    2317.0189    2250.2278   -51.981397   -8.2373767    40.556084     -4435.83 
50067000    2.6172821   -4735.4058   -4730.9199   -4735.4058            0    2213.2087    17.901325    23.226984    21.842701    9082.0591    2149.6122    2266.3159    2223.6981   -89.471337   -87.182125     67.97008   -4437.7748 
50068000    2.6941245   -4734.9436   -4730.3259   -4734.9436            0    2230.1421    17.847275    23.260946    21.875358    9081.4343    2230.9676     2228.789    2230.6697    93.681443   -80.815936    87.422911   -4434.9583 
50069000    2.5557688   -4735.1732   -4730.7927   -4735.1732            0    2225.0969    17.850666    23.273512    21.860035    9081.7012    2322.8342    2174.8701    2177.5865   -93.599124    72.865998    42.448531   -4436.0846 
50070000    2.8058222   -4735.2183   -4730.4092   -4735.2183            0    2205.9387    17.826934    23.304242    21.864352    9083.3961    2315.3322    2112.1431    2190.3407   -73.921026    -119.3546    107.82456   -4438.1841 
50071000    2.6883494   -4735.0676   -4730.4599   -4735.0676            0    2213.1256    17.847176    23.270413    21.870453    9083.0428    2273.6778    2186.6903    2179.0087    -151.3327   -71.016911    92.425651   -4437.2941 
50072000     2.857856   -4734.7872    -4729.889   -4734.7872            0    2223.5202     17.87942    23.248595      21.8474    9081.3393    2224.2887    2204.0917    2242.1802   -68.871031    44.860038  -0.84691955   -4435.4015 
50073000    2.6461579   -4735.2751   -4730.7396   -4735.2751            0    2220.6076    17.917167    23.205313    21.843782     9082.065    2097.3539    2263.2135    2301.2555   -121.87714   -8.4381052    20.814289   -4436.6144 
50074000    2.7492167   -4735.2581   -4730.5461   -4735.2581            0    2216.2302    17.916722    23.205702    21.846751    9083.2259    2110.2621    2304.9793    2233.4492    20.797327   -52.022518      68.2717   -4436.9631 
50075000    2.6202851   -4734.8956   -4730.4045   -4734.8956            0    2229.2504    17.888324    23.216769    21.865854     9081.088    2229.4687    2278.0193    2180.2631   -51.323789   -26.094849    56.484222   -4435.1662 
50076000    2.6720256    -4735.009   -4730.4292    -4735.009            0    2224.8861    17.845458    23.281407    21.860121     9082.167    2309.3885    2182.4385    2182.8313   -13.926754    39.693911    59.458181   -4435.7339 
50077000    2.6865454   -4735.0986    -4730.494   -4735.0986            0    2223.8628    17.813991    23.318681    21.860173    9080.6893    2371.5473    2113.4622     2186.579   -53.838914   -85.775111    15.874931   -4435.9822 
50078000    2.7928176   -4734.6728    -4729.886   -4734.6728            0    2226.5739    17.825261    23.298573    21.871571    9083.3321    2328.6179    2150.4626     2200.641   -223.74709   -66.669609    109.39057   -4434.9293 
50079000    2.8463471   -4735.2374   -4730.3589   -4735.2374            0    2212.0557     17.84741    23.254205    21.885322    9083.0067    2225.3473    2232.7182    2178.1015    31.866757    53.571397    85.994064    -4437.336 
50080000    2.8627193   -4735.1371   -4730.2305   -4735.1371            0    2229.9202    17.911777    23.220404    21.836736    9082.3072    2171.4958     2288.857    2229.4079    15.833793     32.27706   -30.763912   -4434.8639 
50081000    2.7288427   -4735.1106   -4730.4334   -4735.1106            0    2217.9681    17.925925    23.192901    21.843627    9081.5794    2089.4268    2308.9957    2255.4819   -29.347262   -77.526335    143.23567   -4436.6735 
50082000    2.6443346   -4735.1534   -4730.6211   -4735.1534            0    2217.2851    17.921562     23.20745    21.835255    9081.5825    2119.8316    2277.7136      2254.31   -150.42808   -68.543712    121.28977   -4436.9515 
50083000    2.6110392   -4735.0264   -4730.5511   -4735.0264            0    2216.7757    17.886112    23.237548    21.850389    9081.6636    2149.9715    2231.2676    2269.0879   -10.789915    68.699094    12.464124   -4436.9464 
50084000    2.9034802   -4734.9245    -4729.948   -4734.9245            0    2221.1575    17.845518    23.272936    21.867562    9081.9833    2315.6338    2186.2764    2161.5623    107.37002   -28.979188    24.473721   -4435.7526 
50085000    2.6712206   -4735.0052   -4730.4268   -4735.0052            0    2216.8252    17.838768    23.286298    21.867999    9083.9419    2302.7047    2162.1306    2185.6404   -66.427442   -125.10973    136.09531   -4436.7419 
50086000    2.6941457   -4734.9688   -4730.3511   -4734.9688            0    2239.1726    17.830117    23.296363    21.860953    9080.5346    2344.7074     2168.729    2204.0815   -54.484718   -25.713415    1.5676403   -4433.8168 
50087000    2.7090946   -4735.1373    -4730.494   -4735.1373            0    2225.0734    17.845699    23.271001    21.862473    9079.2066    2215.5175     2230.479    2229.2238   -117.57534     83.97371    96.759564     -4435.87 
50088000    2.7598053   -4734.8753   -4730.1451   -4734.8753            0    2217.6191    17.892727    23.229554    21.848339    9081.0453    2167.0948    2309.7528    2176.0099    39.773289   -153.02743    142.34022   -4436.4486 
50089000    2.5876889   -4735.3018   -4730.8666   -4735.3018            0    2219.8876    17.927989    23.194757    21.842096    9082.7158    2066.1233     2317.764    2275.7754   -148.29676   -13.122824    95.830751   -4436.8157 
50090000    2.7231775   -4734.8319   -4730.1644   -4734.8319            0     2231.105    17.897347    23.205626    21.858632    9078.3087    2152.2975    2334.9701    2206.0473   -119.42528    102.83073   -54.352868    -4434.771 
50091000    2.5939503   -4735.0746   -4730.6286   -4735.0746            0    2218.9484      17.8753     23.22756    21.871877    9081.1952    2186.6563     2238.375     2231.814    3.1762819    18.358713    124.32006   -4436.7513 
50092000    2.8831649   -4735.1858   -4730.2441   -4735.1858            0    2222.6386    17.854569    23.273617    21.858347    9083.0262    2262.5242    2202.9182    2202.4733   -31.525358   -78.922717    66.240411   -4435.8187 
50093000    2.6372078    -4735.106   -4730.5859    -4735.106            0    2215.1292    17.831422    23.307027    21.852168    9081.7047    2320.5962    2107.8929    2216.8985   -193.93612     47.45772    1.9936094   -4437.1979 
50094000    2.7214188   -4734.9879   -4730.3235   -4734.9879            0    2205.7932    17.823529     23.29338    21.876526    9082.4823    2300.8404    2139.6066    2176.9326   -65.371594      68.9988    60.912061    -4438.147 
50095000    2.8041902   -4735.3811   -4730.5748   -4735.3811            0    2225.7075     17.86088    23.264429    21.854531    9081.0638    2214.2303    2229.8619    2233.0302   -1.7839333   -98.470426    103.04386   -4435.8066 
50096000    2.7942598     -4735.04   -4730.2507     -4735.04            0    2220.1593    17.889059    23.225691    21.857319    9081.4047     2179.586    2276.7472    2204.1447   -65.381091   -109.08393    34.601304   -4436.2062 
50097000    2.8337301   -4735.3128   -4730.4559   -4735.3128            0    2222.6789    17.899328    23.213881    21.860628    9083.3726    2147.8872    2312.5816    2207.5679    -59.54401    134.92036    93.756328   -4436.0139 
50098000    2.7034806   -4735.2908   -4730.6571   -4735.2908            0    2209.7871    17.906663    23.195819    21.864648    9081.6939    2125.5804    2315.5379    2188.2431   -71.317731    44.547059    91.252024    -4437.977 
50099000    2.5747045    -4734.789    -4730.376    -4734.789            0    2216.0295    17.897867    23.230595    21.840761    9080.9096    2185.0413    2251.3583     2211.689    -67.64239   -191.90741    31.101338   -4436.8945 
50100000    2.7435678   -4735.3093    -4730.607   -4735.3093            0    2213.9043    17.866766    23.260532    21.851936    9081.4567    2218.3633    2167.9732    2255.3762   -233.51352   -25.764648    46.855258   -4437.3892 
50101000    2.7966334   -4735.5757   -4730.7823   -4735.5757            0     2225.338     17.83514    23.292841     21.86028    9081.4397    2357.8353    2113.8443    2204.3343   -73.947564    102.75232    96.872702   -4436.0508 
50102000    2.8261147   -4735.1196   -4730.2757   -4735.1196            0    2221.3086    17.838345    23.306554    21.844094    9081.6895    2313.5397    2106.4759    2243.9103   -88.188882   -98.893633    48.058082   -4436.0698 
50103000    2.7058097    -4734.786   -4730.1483    -4734.786            0    2227.2808    17.855815    23.265844    21.856356     9079.799     2244.503    2205.8177    2231.5218   -88.512777   -57.219353     143.2527   -4435.2127 
50104000    2.7049386   -4735.1245   -4730.4884   -4735.1245            0     2225.947    17.885428    23.234409    21.857457    9083.0269    2145.3694    2341.5096    2190.9621   -43.200354    13.049985    101.85012   -4435.6247 
50105000    2.8623423   -4735.0812   -4730.1753   -4735.0812            0    2208.4374    17.890949    23.223806    21.859479    9082.5242    2146.9617    2248.4081    2229.9423    11.302787    31.778659    12.510264   -4437.6472 
50106000     2.654083   -4735.1564   -4730.6074   -4735.1564            0    2208.7094    17.917603    23.207396    21.832737    9078.5085    2073.4579    2304.6296    2248.0407   -116.34576     -84.8225    29.566237   -4438.1727 
50107000    2.5709427     -4735.09   -4730.6835     -4735.09            0    2205.3261    17.892196    23.229968    21.855335     9083.845    2152.5344    2285.5789    2177.8648   -120.69443   -18.802146    63.871712   -4438.5251 
50108000    2.5774517   -4734.7253   -4730.3076   -4734.7253            0    2238.0479    17.852284    23.233464    21.892259    9080.2609    2285.4593    2251.1925    2177.4919   -131.66735   -20.419032    106.58662   -4433.9313 
50109000    2.7577967   -4735.1337   -4730.4069   -4735.1337            0    2219.2464    17.821139    23.301971    21.872225     9082.828    2323.6563     2083.292     2250.791   -71.455641   -49.814407    29.154181   -4436.4373 
50110000    2.7386764   -4735.1422   -4730.4482   -4735.1422            0    2221.3576    17.826716    23.294436    21.872454    9082.8273    2322.5291    2163.8873    2177.6564    27.438014    2.8702063    116.52172   -4436.1989 
50111000    2.7565779   -4735.1434   -4730.4188   -4735.1434            0    2210.7113    17.854818    23.273773     21.85449    9081.6112    2270.2814     2163.321    2198.5315    3.9699539   -2.7996876   -2.0917584   -4437.6189 
50112000    2.7278394   -4735.0032   -4730.3278   -4735.0032            0    2217.3162    17.877091    23.233004    21.868049    9082.6437    2194.1526    2316.0271    2141.7689    29.908592   -54.687328    83.361032   -4436.6198 
50113000     2.686318   -4735.0237   -4730.4195   -4735.0237            0    2229.6081     17.92331    23.200885    21.839303    9081.5829    2052.6394     2311.034    2325.1509    -20.59993   -83.059288    5.1422799   -4435.1177 
50114000    2.9068398   -4735.0264   -4730.0442   -4735.0264            0    2212.9004    17.920678    23.199517    21.846537    9082.7216    2122.7515    2347.9809    2167.9688   -82.946647    39.337609    110.48281   -4436.9186 
50115000    2.9352144   -4735.3505   -4730.3196   -4735.3505            0    2224.5467    17.903281    23.232873    21.838731    9083.7034    2146.1097    2252.3838    2275.1468    72.473298     -50.2561    93.645801   -4435.6195 
50116000    2.7886232   -4735.3212   -4730.5416   -4735.3212            0    2224.9886    17.859576    23.265468    21.853755    9080.4847    2281.5996    2174.4063    2218.9599    123.03925    83.220506    82.894572   -4435.8873 
50117000    2.5941883   -4735.1164     -4730.67   -4735.1164            0    2214.0168    17.810762    23.309974    21.872296    9080.6866    2337.3491    2125.1062    2179.5951   -87.415874   -91.855543    91.488411   -4437.4622 
50118000    2.5604788    -4735.097   -4730.7084    -4735.097            0    2219.3057    17.835352    23.297056    21.860611    9083.3281    2299.8923    2141.1659    2216.8588   -71.678276   -111.02788    11.599294   -4436.7147 
50119000    2.8178062   -4735.0385   -4730.2089   -4735.0385            0     2229.214    17.842004    23.288506       21.854    9080.6344    2316.4851    2192.3547    2178.8022   -119.03346    10.720257    26.582451   -4434.9902 
50120000    2.6863497   -4735.2792   -4730.6748   -4735.2792            0    2212.0204    17.872675    23.235031    21.869901    9081.9613    2203.8089     2238.692    2193.5602   -86.066999   -54.170067    113.96904   -4437.6903 
50121000    2.6153423   -4734.9983   -4730.5157   -4734.9983            0    2236.0329    17.912699    23.200115    21.852511    9081.3941    2136.7032    2318.1812    2253.2142   -20.111495    35.725766    106.47461   -4434.3692 
50122000    2.6949897   -4734.7276   -4730.1084   -4734.7276            0    2235.8432    17.918151    23.203977    21.843719    9082.0147    2109.1476    2352.1291     2246.253    -16.35546   -35.308241    19.994884   -4433.9668 
50123000    2.6095777   -4735.4282   -4730.9555   -4735.4282            0    2200.4237    17.910681    23.217802    21.845288    9084.2894    2145.6955    2250.2568    2205.3189    17.722032    5.6350054    109.71279   -4439.4323 
50124000    2.7336617   -4734.7413   -4730.0559   -4734.7413            0    2226.5959    17.846044     23.27265    21.863974    9080.6495    2233.7397    2197.7601    2248.2878    21.871637   -85.742691     60.13003   -4435.1834 
50125000    2.8484912   -4734.8764   -4729.9942   -4734.8764            0    2223.4045     17.82855    23.292857    21.868214    9081.3856    2335.5571    2129.3991    2205.2574   -146.58006   -65.751519    27.814456   -4435.5205 
50126000    2.6516761   -4734.8314   -4730.2865   -4734.8314            0    2231.9404    17.820929    23.317343     21.85582    9081.8954    2341.1574    2130.5079     2224.156   -31.764518    19.543072    58.810897   -4434.6657 
50127000    2.7557589   -4734.8851   -4730.1618   -4734.8851            0    2221.3446    17.849309    23.261527    21.874923    9082.5163     2273.912    2202.5811    2187.5406   -111.74121    9.0459586    49.724362   -4435.9243 
50128000    2.6181393   -4734.8615   -4730.3741   -4734.8615            0    2225.4481    17.889105    23.217604    21.871816    9084.2874     2136.457    2286.6071    2253.2803   -149.28423   -78.996232   -2.2015727   -4435.5355 
50129000    2.8092529   -4735.0543   -4730.2394   -4735.0543            0    2225.1228    17.904788    23.217972    21.843254    9080.5217    2165.2942    2294.8711    2215.2031   -48.804337   -49.348915    62.763996   -4435.5661 
50130000    2.6212663   -4735.1939   -4730.7012   -4735.1939            0    2210.1545    17.891672    23.227424    21.851912     9081.162    2113.1625    2267.9268    2249.3742   -51.097487    35.743862    150.39908   -4437.9896 
50131000    2.6623608   -4735.3468   -4730.7836   -4735.3468            0     2219.886    17.905715    23.232009    21.835177    9083.1221    2117.7889    2284.7886    2257.0803   -79.030483    -9.405115    32.545117   -4436.7197 
50132000    2.6218621   -4734.7048   -4730.2111   -4734.7048            0    2227.4511    17.862838    23.259712    21.857641    9081.5102    2226.1759    2262.6997    2193.4776   -80.914728   -66.166879    56.734143   -4435.1974 
50133000     2.617638   -4735.0217   -4730.5351   -4735.0217            0    2212.2644    17.816868    23.307933    21.868761     9081.536    2324.2533    2121.7866    2190.7533    28.414026   -46.450338    117.59485    -4437.532 
50134000    2.6216649   -4735.1716   -4730.6781   -4735.1716            0    2226.0119    17.820472    23.312669    21.863013    9082.8301    2384.3997    2094.1434    2199.4926    15.290305    23.264453    41.517146   -4435.8122 
50135000    2.6843028   -4735.3825   -4730.7817   -4735.3825            0     2226.645    17.847334    23.280852    21.850865      9079.06    2267.3536     2183.417    2229.1644   -173.71162   -50.494629    27.363893   -4435.9544 
50136000    2.7823762   -4735.2063   -4730.4374   -4735.2063            0     2194.322    17.877157    23.244197    21.855572    9081.8675    2218.7043    2248.4804    2115.7814   -13.397417   -44.874097    37.666046   -4439.8001 
50137000    2.5722789   -4734.9974   -4730.5886   -4734.9974            0     2220.887    17.900062    23.206169    21.863003    9081.7135    2087.0593      2329.45    2246.1518    71.346871    51.799423    60.267986   -4436.4377 
50138000    2.6639474   -4735.0248   -4730.4589   -4735.0248            0    2225.8972    17.912942    23.209947     21.84335    9081.5567    2097.8728     2339.145    2240.6738   -89.372906    30.366803   -74.177862   -4435.6495 
50139000    2.6181915   -4735.2557   -4730.7682   -4735.2557            0     2231.201    17.910008    23.197594    21.856749    9080.8035    2201.6463    2270.6484    2221.3083    -94.87244   -95.791989    62.499463   -4435.2809 
50140000    2.7628313   -4735.1549   -4730.4195   -4735.1549            0    2206.0688     17.86654    23.254789    21.860459    9082.6404    2206.0191    2213.5971    2198.5902    9.4554127    7.3595837    162.11639   -4438.2014 
50141000    2.7381476   -4735.3853   -4730.6922   -4735.3853            0    2211.3518    17.829981    23.308137    21.850945    9080.8956    2310.4506    2092.3516    2231.2532    151.24452     13.33721   -5.2401454   -4437.8306 
50142000    2.7443443   -4735.2347    -4730.531   -4735.2347            0    2210.8402    17.823168    23.311108    21.860303    9082.4707    2364.7237    2055.0304    2212.7665   -45.206621    33.441339    13.124778   -4437.6863 
50143000    2.6165938   -4735.0923   -4730.6076   -4735.0923            0    2230.0912    17.842911    23.283651    21.861193    9082.1913    2278.4113    2185.8764    2225.9859   -40.494163   -100.38503     183.0089   -4435.2221 
50144000    2.6508484   -4735.1467   -4730.6032   -4735.1467            0    2202.3764    17.875342    23.252741    21.855686    9084.3311    2164.0703    2216.3918     2226.667   -1.2330106    27.535896    152.10437   -4438.8199 
50145000    2.7539437   -4734.8427   -4730.1226   -4734.8427            0    2214.5823    17.901663    23.207659    21.861409    9082.4469    2126.7525    2306.8448    2210.1496    58.050639    21.598991   -44.977184    -4436.783 
50146000     2.597057   -4734.9372   -4730.4859   -4734.9372            0    2204.5026    17.902411    23.204714    21.860359    9081.2374    2082.4341     2331.453    2199.6207     -27.5434   -62.432544     48.13337   -4438.5204 
50147000    2.6390422   -4735.3316   -4730.8084   -4735.3316            0    2209.5786     17.90748    23.209687    21.852557    9082.5131    2094.8315    2240.5361    2293.3683   -61.751541   -31.658607    128.03368   -4438.1295 
50148000     2.578763   -4735.2427   -4730.8228   -4735.2427            0    2225.1971    17.863898    23.272515    21.843994    9081.3748    2262.6571    2197.4318    2215.5024    24.437239    3.8593813   -22.769052    -4436.112 
50149000    2.7999459   -4734.7917   -4729.9926   -4734.7917            0     2226.873    17.836118    23.287363    21.863306    9081.0586    2315.5344    2127.9607    2237.1238   -113.82552    64.616634     33.60157   -4435.0702 
50150000    2.6435758   -4734.9496   -4730.4186   -4734.9496            0    2230.4099    17.813462    23.291782    21.891286    9082.8535    2395.7737    2158.6146    2136.8415    19.258782   -90.406844    176.27394   -4434.9693 
50151000     2.891005    -4735.201   -4730.2459    -4735.201            0    2217.6681      17.8465    23.290372    21.849422    9081.7476    2266.5244    2162.1163    2224.3635   -31.052089   -38.152457    64.173667   -4436.5203 
50152000    2.5350015   -4735.0458   -4730.7008   -4735.0458            0    2219.5181    17.879389    23.248809    21.845177     9080.483    2180.6409    2246.8545     2231.059   -96.255424    74.044426   -75.400472   -4436.7711 
50153000    2.7481897   -4735.0889   -4730.3785   -4735.0889            0    2213.8348    17.915028    23.188627    21.858681    9080.6402    2123.9376    2378.7096    2138.8572   -45.143845   -85.328829    162.80007   -4437.1964 
50154000    2.5275597   -4734.9913   -4730.6591   -4734.9913            0    2220.4329    17.918403    23.193843    21.849482     9080.571     2104.466    2331.7966    2225.0361   -13.159276   -66.271433    105.10011   -4436.6054 
50155000    2.7401809   -4735.2037   -4730.5071   -4735.2037            0    2202.1344    17.890336    23.222097    21.857892    9080.8857    2126.7616    2274.2983    2205.3433   -74.783913   -19.343254   -11.111581   -4438.8666 
50156000    2.5236752   -4735.1938   -4730.8683   -4735.1938            0     2235.276    17.850909     23.26955    21.858379    9079.5909    2271.0652    2204.6928      2230.07    21.197322    62.109189    72.652125   -4434.8809 
50157000    2.6377986   -4735.0159   -4730.4948   -4735.0159            0    2233.3159    17.826878    23.302748    21.863836    9082.5711    2379.7094    2128.5629    2191.6754   -107.88763   -97.083299    220.59639   -4434.6698 
50158000    2.7355238   -4735.2541   -4730.5655   -4735.2541            0    2215.2134    17.824989    23.308602    21.861258    9082.8187     2329.047    2118.9856    2197.6076   -186.21708   -70.147516     29.55639   -4437.1304 
50159000    2.7107357   -4735.0414   -4730.3952   -4735.0414            0    2215.9479    17.846074    23.262405    21.875452    9081.4321    2265.5248     2165.398    2216.9211    9.2174877    41.439575    6.3324714   -4436.9076 
50160000    2.9099728    -4735.265   -4730.2774    -4735.265            0    2205.0676    17.897114    23.225214    21.854808    9084.2637    2180.9996    2266.3023    2167.9007   -97.360543   -19.050404    149.08002   -4438.1397 
50161000    2.5628552   -4735.3442   -4730.9516   -4735.3442            0    2224.6121     17.90631    23.226228    21.836928    9081.8914    2143.2813    2279.8291    2250.7259   -172.13375   -34.736694    143.77961   -4436.3016 
50162000    2.5516676   -4734.9171   -4730.5437   -4734.9171            0    2223.7072    17.910997    23.190826    21.865282    9082.2002    2100.5385     2343.803    2226.7803    11.652012    24.560405   -58.835478   -4436.0035 
50163000    2.7156328   -4735.1832   -4730.5287   -4735.1832            0    2211.7592    17.902479    23.213914     21.85985    9084.6608    2144.1616    2304.8508    2186.2651   -19.106964    28.241661    48.283275   -4437.4917 
50164000    2.6177939   -4735.0162   -4730.5294   -4735.0162            0     2223.926    17.848198    23.268541    21.865985    9080.9768    2250.7797    2195.4493    2225.5489   -176.87751   -77.941747    101.76959   -4435.9999 
50165000    2.7921952    -4735.104   -4730.3183    -4735.104            0    2232.1311     17.83117    23.290978    21.865055    9080.6752    2337.6212    2154.0976    2204.6745   -177.28076    -21.93127    34.788443    -4434.712 
50166000    2.7045082    -4734.941   -4730.3055    -4734.941            0    2224.7269    17.819481    23.312572    21.857313    9079.9201    2341.9272    2134.4997    2197.7539    38.591996   -13.326044    86.583922   -4435.7043 
50167000    2.6649655   -4735.3264   -4730.7588   -4735.3264            0    2226.2522    17.854951    23.261799    21.866268    9081.8982    2270.7519    2179.2793    2228.7255    94.137613    45.298084    158.54312   -4435.8913 
50168000     2.875139   -4735.0154   -4730.0875   -4735.0154            0     2213.133    17.873866    23.254848    21.849238     9081.724    2182.2436    2196.5206    2260.6348   -78.513398   -67.818072   -18.777179   -4436.9633 
50169000    2.7222578   -4734.7274   -4730.0615   -4734.7274            0    2221.3982    17.915891    23.203179    21.842443    9080.0265    2101.0567    2324.1516    2238.9862    -27.26567   -45.561085   -17.728265   -4435.8976 
50170000    2.7521672   -4735.1052   -4730.3881   -4735.1052            0    2231.9993     17.90878    23.209127    21.846765    9080.5452    2137.7014     2322.055    2236.2416    57.101242    114.21886    111.42201   -4434.8034 
50171000    2.7857602   -4735.2472   -4730.4725   -4735.2472            0    2224.6442    17.899061    23.224314    21.845345    9080.9658    2142.4192    2269.0779    2262.4356   -75.054222   -94.337436   0.75288574   -4435.8482 
50172000    2.7766056   -4735.2131   -4730.4541   -4735.2131            0    2211.8552    17.852766    23.276126    21.852572    9080.6885    2186.2992    2203.2904     2245.976    23.436701   -22.005935    41.027208   -4437.5325 
50173000    2.6353407    -4734.993   -4730.4761    -4734.993            0    2220.7687    17.836939    23.278971    21.871015    9081.4047    2358.2833    2189.7807     2114.242   -26.508475   -27.754178    85.198922   -4436.3509 
50174000    2.5837313   -4735.1341   -4730.7057   -4735.1341            0    2227.1237     17.82434    23.307197    21.857849    9080.5241    2354.3961    2104.1532    2222.8219   -86.550078   -3.5551988    65.778456   -4435.7674 
50175000    2.7562249   -4734.9585   -4730.2345   -4734.9585            0    2213.1483    17.835013    23.282893    21.868741      9081.01    2305.3484    2158.3326    2175.7638   -49.602327   -68.012253    33.183066   -4437.1313 
50176000    2.6200267   -4735.0538   -4730.5632   -4735.0538            0    2217.7223    17.881916    23.229563    21.866784    9083.2234    2206.0886    2216.8101    2230.2681   -93.793937   -54.315918    30.914752   -4436.7827 
50177000    2.7980793    -4734.949   -4730.1532    -4734.949            0    2219.8542    17.910245    23.209138    21.850892    9083.0086     2122.634    2292.7234    2244.2052    51.729634    112.73452    119.60957   -4436.0972 
50178000    2.7751794   -4734.9275    -4730.171   -4734.9275            0    2206.5527    17.910812     23.19964    21.855565    9081.5205    2116.1431    2316.0587    2187.4561   -159.34989   -53.225854    4.9766704   -4437.9248 
50179000    2.5924931   -4734.9963   -4730.5528   -4734.9963            0    2217.3626    17.896563    23.226932    21.850865    9083.0171    2119.4506     2277.521    2255.1161   -60.235483   -75.607774    70.742944   -4436.8266 
50180000    2.7509595   -4735.3031    -4730.588   -4735.3031            0    2208.0439    17.862674    23.270891    21.850675    9082.8959    2218.2544    2185.5489    2220.3283   -142.02206   -17.200687    90.810259   -4438.1001 
50181000    2.6978056   -4734.8044   -4730.1804   -4734.8044            0     2227.184    17.829406    23.283068    21.874441    9080.5896    2302.3112    2166.1238     2213.117    25.247226    29.270526    39.065107   -4435.2321 
50182000     2.758168   -4734.7996   -4730.0722   -4734.7996            0    2217.9546    17.817416    23.308671    21.868208    9081.8735    2350.7003    2136.0518    2167.1118   -13.212634   -116.95934   -8.9274875   -4436.3045 
50183000    2.8096499   -4735.3625   -4730.5469   -4735.3625            0    2226.4388    17.845454    23.284805    21.857119     9082.243    2257.1771    2206.1841    2215.9553   -25.744826   -62.348781    142.54545   -4435.6435 
50184000    2.8239862   -4735.5636   -4730.7234   -4735.5636            0    2207.7683    17.873637    23.244541    21.862507    9083.0953    2154.2268    2208.4321     2260.646    55.281111    33.515421    96.645431   -4438.2655 
50185000    2.8290244   -4735.1502   -4730.3014   -4735.1502            0    2226.2948    17.921491     23.20477    21.837844    9081.5748    2100.5889    2338.0015     2240.294   -74.879926   -29.463172   -4.2319324   -4435.4387 
50186000    2.7076293   -4734.8678    -4730.227   -4734.8678            0    2238.1436    17.917249    23.207314    21.838292    9080.6071     2120.771    2334.2842    2259.3756    3.9464033   -54.972707    91.351415   -4433.8266 
50187000    2.5993477   -4734.9741   -4730.5189   -4734.9741            0    2219.1826    17.899645    23.215508    21.856792    9082.5755    2161.2848    2261.0223    2235.2408   -117.73165   -29.893312    56.518467   -4436.5659 
50188000    2.7811579   -4734.8083   -4730.0414   -4734.8083            0    2219.1091     17.87098    23.251417    21.858551    9082.7879    2255.1059    2216.3537    2185.8678   -43.799273    56.204966    28.229996   -4436.0913 
50189000    2.6412377   -4735.2221   -4730.6951   -4735.2221            0    2225.2621    17.834862     23.29461    21.860121     9081.922    2316.7924    2139.8573    2219.1367   -3.9648185   -123.43124    68.168122    -4435.958 
50190000    2.8395268   -4734.8804   -4730.0135   -4734.8804            0    2215.5034    17.822581    23.317955    21.852393    9081.5515    2292.1655    2095.1594    2259.1852   -144.09249   -44.892083    50.404025   -4436.5809 
50191000    2.7555444   -4734.9211   -4730.1982   -4734.9211            0    2231.3166    17.852444    23.275946    21.852475    9080.4141    2246.4612    2198.6464    2248.8421   -9.6273858    41.179081    102.14228   -4434.7082 
50192000    2.7943932   -4735.1588   -4730.3693   -4735.1588            0    2207.6649    17.902023    23.210933     21.86172    9084.0401    2163.9616    2290.9702    2168.0628   -31.347612    1.8343924    24.979774   -4437.8948 
50193000    2.7210679   -4734.9991   -4730.3353   -4734.9991            0    2225.1572    17.910672     23.20625    21.845562     9079.879    2098.6067    2357.4245    2219.4406   -118.66791   -101.03396    69.629061   -4435.6784 
50194000    2.9501609     -4735.12   -4730.0635     -4735.12            0    2220.6409    17.909907    23.202285    21.852108    9080.6605    2141.4441    2255.3113    2265.1673   -66.093405   -43.856024    91.812787   -4435.9793 
50195000     2.671492   -4735.0154   -4730.4366   -4735.0154            0     2223.897    17.898228    23.217421    21.851312    9080.3281     2158.108     2310.389    2203.1941     7.028936    32.399039   -63.389164    -4435.932 
50196000    2.7586961   -4735.1469   -4730.4186   -4735.1469            0    2234.2703    17.858183    23.269837    21.851089    9080.3732    2288.9842    2175.3168    2238.5099    69.426953    -23.32679    34.858347   -4434.5388 
50197000    2.6448147   -4734.7841   -4730.2509   -4734.7841            0     2216.041    17.830738    23.286689      21.8729    9082.0403    2332.1481     2146.228    2169.7467   -173.41069   -95.986578    139.02019   -4436.7314 
50198000    2.7908427   -4735.1144    -4730.331   -4735.1144            0    2228.1234    17.834896    23.288607    21.864245    9081.3113    2316.2661    2157.8676    2210.2365   -55.016896   -29.662805    91.604785   -4435.2347 
50199000    2.7835171   -4735.1026   -4730.3318   -4735.1026            0    2233.2065    17.853336    23.277271    21.849127    9079.9932    2291.3944    2166.2216    2242.0036   -155.49333    52.200774   -36.987513   -4434.6052 
50200000    2.5862667   -4735.0414   -4730.6086   -4735.0414            0    2223.9164    17.874589    23.240103    21.865854    9083.2351    2190.1853    2262.7754    2218.7885  0.064598299   -133.64688    20.595924   -4436.0072 
50201000    2.6384387   -4734.9851   -4730.4629   -4734.9851            0    2221.6576    17.930318    23.186448    21.843549    9081.2454    2057.1701    2299.7553    2308.0474   -76.691162   -15.315318    82.531188   -4436.2252 
50202000    2.8257434   -4735.3033   -4730.4601   -4735.3033            0    2204.1005    17.912524    23.202245     21.85615    9083.6518     2143.365    2264.6402    2204.2963   -41.993725    67.222278   -3.7698076   -4438.4702 
50203000    2.7268841   -4735.3412   -4730.6675   -4735.3412            0    2222.2362    17.895284    23.226671     21.85031    9082.0349    2143.6434    2278.8475    2244.2176   -73.400232   -18.741134    75.273493   -4436.3275 
50204000       2.7922   -4735.4159   -4730.6301   -4735.4159            0    2215.6234    17.859029    23.262261    21.861447    9082.1499    2274.3712    2186.1493    2186.3499   -207.83012   -23.005885     169.4958   -4437.1623 
50205000    2.6656035   -4735.1529   -4730.5842   -4735.1529            0    2218.2442    17.824024    23.295041    21.871384    9081.2475    2328.8674    2115.7213     2210.144   -130.06867   -19.881544     10.36094   -4436.7984 
50206000    2.6840747    -4735.233   -4730.6326    -4735.233            0    2205.8748    17.825238    23.305196     21.86242     9082.101    2290.1991    2104.6087    2222.8166    33.241155    18.631414    99.796043   -4438.4576 
50207000    2.7047612   -4735.1898   -4730.5539   -4735.1898            0    2217.2937    17.855879    23.290793     21.83407    9080.3003    2263.4495    2160.3261    2228.1055   -89.595856   -24.456179    102.73559   -4436.9246 
50208000    2.7346424    -4735.006   -4730.3189    -4735.006            0    2211.9449    17.904418    23.213183    21.851149    9081.7424    2167.9586    2263.3938    2204.4824   -77.758218   -44.006796    39.753943   -4437.3515 
50209000     2.767066   -4735.2074   -4730.4647   -4735.2074            0    2217.2026    17.914391    23.192363    21.858129    9081.5507    2116.9038    2346.6297    2188.0744    162.63378    47.983339    117.06369   -4436.8071 
50210000    2.7629493     -4734.85   -4730.1144     -4734.85            0    2218.7473     17.91368    23.202449    21.846253     9080.204    2085.4373    2318.6152    2252.1894     127.3736    9.5742598   0.87114055   -4436.2958 
50211000    2.7975979   -4735.2881   -4730.4931   -4735.2881            0    2217.3894    17.891384    23.231905    21.848941     9081.533    2164.9876    2229.3108    2257.8699   -149.59383   -54.862623    17.407363   -4436.8113 
50212000    2.7539987   -4735.1129   -4730.3927   -4735.1129            0    2238.5916     17.85104    23.266278    21.865709    9081.4248    2302.0433    2214.3417    2199.3899   -80.216662   -68.209179    80.762791   -4433.9063 
50213000    2.8488941   -4735.0962   -4730.2133   -4735.0962            0    2210.5941    17.830729     23.28081    21.882114    9083.5678    2306.9188      2137.79    2187.0735    38.846045    25.012936   -22.529245   -4437.3659 
50214000    2.7181402   -4735.0084   -4730.3496   -4735.0084            0    2219.8806    17.819783    23.301731    21.868337    9080.4283    2333.7539    2130.0246    2195.8633    55.843787    8.4520304    25.197491   -4436.3736 
50215000    2.6479433   -4735.6349   -4731.0964   -4735.6349            0    2216.8091    17.861429    23.280197    21.843141    9082.7623    2263.8348    2138.1151    2248.4773   -172.71958   -60.712647    85.241414   -4437.4517 
50216000    2.6626505    -4735.059   -4730.4953    -4735.059            0     2234.383    17.878976    23.234626    21.856179    9079.3042    2186.9619    2259.8145    2256.3725   -74.243441   -23.324875     63.97057   -4434.6354 
50217000    2.6162141   -4735.0346   -4730.5505   -4735.0346            0    2230.7915    17.914939    23.181811    21.865834    9080.8966    2121.8947    2400.9781    2169.5017   -7.0165135    88.824745    53.252814   -4435.1144 
50218000    2.7926327    -4735.081   -4730.2945    -4735.081            0     2208.367    17.913514    23.189857    21.857938    9080.0457     2133.172    2281.7882     2210.141   -42.058488   -39.351974      101.232   -4437.8556 
50219000    2.7531564   -4735.1313   -4730.4125   -4735.1313            0    2208.7006     17.88303    23.256779    21.836853    9081.9836    2163.2965    2231.7619    2231.0434    25.555568   -43.248309    10.676916    -4437.867 
50220000    2.7419875   -4735.4345   -4730.7348   -4735.4345            0    2226.2195    17.842244    23.279609    21.859665    9079.6407    2292.7885    2178.1676    2207.7025   -157.20098     66.79957    57.400258    -4435.945 
50221000    2.7896925    -4735.172   -4730.3906    -4735.172            0    2227.5695    17.815695    23.297744    21.877922    9080.7709    2374.9612    2153.2614    2154.4858   -17.447146   -19.945134    75.950768   -4435.3853 
50222000    2.7012716   -4735.2354   -4730.6055   -4735.2354            0    2232.1509    17.831813    23.282652    21.875738    9082.1916    2307.3734    2142.8103    2246.2691    -125.9068   -36.722954    66.359649   -4434.9472 
50223000    2.6430344   -4735.0449   -4730.5148   -4735.0449            0    2217.6629    17.854781    23.268314    21.853987    9079.2531    2225.3002    2180.8868    2246.8018    -10.10134   -45.487266    68.031997   -4436.8705 
50224000    2.6296252   -4735.0023   -4730.4952   -4735.0023            0    2199.1021     17.89785    23.221501    21.852033     9082.031    2121.1755    2208.6065    2267.5242   -100.59895    79.498991    25.788353   -4439.2195 
50225000    2.6456683   -4735.1408   -4730.6062   -4735.1408            0    2225.7027    17.905509    23.209306    21.851374    9080.8725    2173.1558    2309.5879    2194.3643   -109.72768    41.302082    57.632355   -4435.8448 
50226000    2.6314517   -4734.9042    -4730.394   -4734.9042            0    2238.3761    17.901422     23.21926    21.850386     9082.283    2114.2957    2336.4907    2264.3418   -153.81862    -35.74437    64.898647   -4433.9081 
50227000    2.9818237   -4735.0738   -4729.9631   -4735.0738            0    2194.5744    17.899729    23.232283    21.848552    9085.7544    2152.2539     2234.202    2197.2672   -24.485217    -23.05419     72.32671   -4439.1679 
50228000    2.7911494   -4734.9886   -4730.2047   -4734.9886            0    2213.9288    17.841862    23.292763    21.850549    9080.7881    2268.7113    2127.0708    2246.0042   -111.19182    66.385472    76.701746   -4437.0053 
50229000    2.8299006   -4735.0448   -4730.1945   -4735.0448            0    2208.9414    17.837405    23.285474    21.872085    9084.6232    2283.6177    2136.5026    2206.7038   -117.94838   -28.216401    91.854456    -4437.532 
50230000    2.9126021   -4734.9317   -4729.9396   -4734.9317            0    2213.1817     17.83339    23.291433     21.86608    9082.4092    2321.2148    2119.2913    2199.0389   -25.779113   -44.675772    42.029404   -4436.7869 
50231000    2.8119532   -4735.0253   -4730.2057   -4735.0253            0    2224.6667     17.85962    23.260312    21.862247    9082.0219     2291.534     2226.993    2155.4732   -24.132872    8.6919808    66.237662   -4435.5442 
50232000    2.7921926    -4735.112   -4730.3263    -4735.112            0    2224.3171     17.89231    23.225928    21.851901    9080.8967    2163.5675    2227.5095    2281.8742   -72.392392   -2.4315094    48.563337   -4435.7476 
50233000    2.7609572   -4735.3492    -4730.617   -4735.3492            0    2227.8341    17.907356    23.207696      21.8522    9081.5222    2144.2218    2312.4586    2226.8219    46.684883     2.929395    52.548478   -4435.5522 
50234000    2.7799959   -4735.0362   -4730.2714   -4735.0362            0    2211.0222    17.909362    23.202365    21.858823    9083.2053    2096.6877    2312.5928    2223.7862   -25.031575   -79.766238    42.184045    -4437.379 
50235000    2.6817726   -4735.3112   -4730.7147   -4735.3112            0    2222.8038    17.893064    23.224141    21.854913     9081.832    2183.5231    2268.9184      2215.97   -167.40408    57.329592    62.808057   -4436.3061 
50236000     2.740659   -4735.1704    -4730.473   -4735.1704            0    2241.3506    17.840136    23.281832    21.863891      9081.19    2311.8314    2213.1939    2199.0265   -30.242919   -8.1720847    69.355589   -4433.6289 
50237000    2.6370063   -4734.7903   -4730.2705   -4734.7903            0    2226.3849    17.833034    23.284152     21.87653    9083.7277    2291.2805    2111.7033    2276.1711   -43.832411   -16.241991   -21.836924   -4435.3261 
50238000    2.6775736   -4734.7901   -4730.2008   -4734.7901            0     2218.075    17.816322    23.318737     21.85663    9080.4271    2314.6597    2104.0226    2235.5426   -201.17971     28.34726    116.98621    -4436.464 
50239000    2.7555784   -4735.0891   -4730.3662   -4735.0891            0    2227.7373    17.855655    23.248709    21.872226    9079.6186    2234.9879    2192.4969     2255.727    62.515941   -23.690959    23.976264   -4435.3761 
50240000    2.8544351   -4735.2667   -4730.3743   -4735.2667            0     2202.242    17.895094    23.220416    21.854448    9081.2122    2183.7101    2259.7154    2163.3007   -150.30585   -87.396944   -20.934701    -4438.709 
50241000    2.6440825    -4735.309   -4730.7772    -4735.309            0    2211.3312    17.911884    23.214896    21.836907    9080.2777    2082.0207    2252.0758     2299.897    10.383062   -86.737931    65.836815   -4437.9382 
50242000    2.8103394   -4735.3026   -4730.4858   -4735.3026            0    2210.8745    17.911799    23.201022    21.854304    9082.0378    2122.0296     2344.676    2165.9181   -100.14221    -5.076414    99.272222   -4437.6506 
50243000    2.7482333   -4734.8119   -4730.1015   -4734.8119            0    2217.4824    17.879265    23.243729    21.849053    9080.0469    2194.5362    2236.9252    2220.9859   -118.45152   -7.6753895   -23.969793   -4436.4555 
50244000    2.7586647   -4734.9411   -4730.2129   -4734.9411            0    2197.8193    17.847903    23.274347    21.866835    9083.4461    2251.8759    2139.5781    2202.0039   -63.203106   -75.461136    57.251784   -4439.0617 
50245000    2.7123637   -4734.8297   -4730.1808   -4734.8297            0    2207.7689    17.819662    23.305162    21.870471    9082.5904    2343.1992    2080.4711    2199.6364   -67.159607   -33.140011    138.55295   -4437.7391 
50246000    2.6926732   -4735.0907   -4730.4756   -4735.0907            0    2213.5622    17.847856    23.280036    21.860901    9083.1769    2277.7246    2122.3317    2240.6305   -73.639743    2.9311258    12.426582   -4437.2476 
50247000    2.5648347   -4734.9202   -4730.5242   -4734.9202            0    2207.3333    17.870359    23.259916    21.849788    9082.1494    2183.7965    2225.3017    2212.9016   -137.31175    0.7716447    -19.27027   -4438.1544 
50248000    2.8555545   -4735.1959   -4730.3015   -4735.1959            0    2215.3587    17.901985    23.229086     21.84134    9082.6502    2156.3183    2272.8171    2216.9407    -45.53895    -6.475945    127.78573   -4436.8526 
50249000    2.5932859   -4735.0952   -4730.6504   -4735.0952            0     2228.344    17.908187    23.211658    21.844775     9080.408    2149.1036      2279.03    2256.8982   -102.37714   -19.555014    84.032088   -4435.5543 
50250000    2.8107544   -4734.9111   -4730.0936   -4734.9111            0    2222.4925    17.929793    23.194967    21.840691    9083.1275    2089.8849    2233.0468    2344.5459   -72.930776    8.3652598    83.502973   -4435.6842 
Loop time of 345.794 on 64 procs for 250000 steps with 864 atoms

Performance: 124.930 ns/day, 0.192 hours/ns, 722.974 timesteps/s
193.7% CPU use with 32 MPI tasks x 2 OpenMP threads

MPI task timing breakdown:
Section |  min time  |  avg time  |  max time  |%varavg| %total
---------------------------------------------------------------
Pair    | 16.819     | 24.249     | 35.688     | 118.2 |  7.01
Bond    | 1.0036     | 1.1891     | 1.645      |  13.3 |  0.34
Kspace  | 169.88     | 182.87     | 193.01     |  47.0 | 52.88
Neigh   | 0.079796   | 0.085185   | 0.090289   |   0.7 |  0.02
Comm    | 48.544     | 52.849     | 55.66      |  20.6 | 15.28
Output  | 0.47465    | 0.47494    | 0.47638    |   0.0 |  0.14
Modify  | 63.936     | 65.833     | 69.504     |  15.8 | 19.04
Other   |            | 18.24      |            |       |  5.28

Nlocal:        27.0000 ave          38 max          18 min
Histogram: 2 6 7 1 0 4 3 1 2 6
Nghost:        2189.62 ave        2303 max        2075 min
Histogram: 8 2 6 0 0 0 0 6 2 8
Neighs:        6697.78 ave        9520 max        4528 min
Histogram: 6 5 5 0 2 4 2 1 3 4

Total # of neighbors = 214329
Ave neighs/atom = 248.06597
Ave special neighs/atom = 2.0000000
Neighbor list builds = 250
Dangerous builds = 0

unfix		3
unfix		2
unfix		1

write_data	data.final.${pid} nocoeff
write_data	data.final.0 nocoeff
System init for write_data ...
PPPM initialization ...
  extracting TIP4P info from pair style
  using 12-bit tables for long-range coulomb (../kspace.cpp:340)
  G vector (1/distance) = 0.37232478
  grid = 24 27 25
  stencil order = 5
  estimated absolute RMS force accuracy = 0.0030863774
  estimated relative force accuracy = 9.2945338e-06
  using double precision FFTW3
  3d grid and FFT values/proc = 4410 672
Last active /omp style is kspace_style pppm/tip4p/omp

write_restart   restart.lmp.${pid}
write_restart   restart.lmp.0
System init for write_restart ...
PPPM initialization ...
  extracting TIP4P info from pair style
  using 12-bit tables for long-range coulomb (../kspace.cpp:340)
  G vector (1/distance) = 0.37232478
  grid = 24 27 25
  stencil order = 5
  estimated absolute RMS force accuracy = 0.0030863774
  estimated relative force accuracy = 9.2945338e-06
  using double precision FFTW3
  3d grid and FFT values/proc = 4410 672
Last active /omp style is kspace_style pppm/tip4p/omp
Total wall time: 0:05:45
