LAMMPS (30 Jul 2021)
Processor partition = 1
  using 2 OpenMP thread(s) per MPI task
using multi-threaded neighbor list subroutines
variable        pid world 0 1
variable        phase world IceIh Liquid

shell cd ${phase}
shell cd Liquid
include Restart.lmp
echo both
log log.lammps
#include		in.partitions
include		in.temp
variable        temperature equal 222.00
variable	tempDamp equal 100.0
include		in.pressure
variable        pressure equal 2930.0
variable        pressureDamp equal 1000.0 # This is 1 ps
include		in.seed
variable        seed equal 745823

units		real
atom_style	full
read_restart	restart.lmp.${pid}
read_restart	restart.lmp.1
Reading restart file ...
  restart file = 30 Jul 2021, LAMMPS = 30 Jul 2021
  restoring atom style full from restart
  orthogonal box = (0.28464944 1.4268107 0.34727165) to (17.922923 22.202367 21.865924)
  2 by 4 by 4 MPI processor grid
  restoring pair style lj/cut/tip4p/long/omp from restart
  restoring bond style harmonic/omp from restart
  restoring angle style harmonic/omp from restart
  864 atoms
  576 bonds
  288 angles
Finding 1-2 1-3 1-4 neighbors ...
  special bond factors lj:    0        0        0       
  special bond factors coul:  0        0        0       
     2 = max # of 1-2 neighbors
     1 = max # of 1-3 neighbors
     1 = max # of 1-4 neighbors
     2 = max # of special neighbors
  special bonds CPU = 0.002 seconds
  read_restart CPU = 0.006 seconds
include 	in.setup
variable	out_freq equal 1000
variable	out_freq2 equal 10000
variable	out_freq3 equal 1000

timestep	2.0

neigh_modify    delay 7 every 1

include		in.tip4p
# This is TIP4P/Ice

# create groups ###
group ox type 2
288 atoms in group ox
group hy type 1
576 atoms in group hy

# set charges - beside manually ###
set group ox charge -1.1794
Setting atom values ...
  288 settings made for charge
set group hy charge 0.5897
Setting atom values ...
  576 settings made for charge

# ### TIP3P Potential Parameters ###
pair_style lj/cut/tip4p/long/omp 2 1 1 1 0.1577 8.5
pair_coeff 1 1*2 0.000 0.000
pair_coeff 2 2 0.21084 3.1668
bond_style  harmonic
bond_coeff  1 450 0.9572
angle_style harmonic
angle_coeff 1 55 104.52
kspace_style pppm/tip4p/omp 1.0e-5
pair_modify tail yes

thermo          ${out_freq}
thermo          1000
thermo_style    custom step temp pe etotal epair emol press lx ly lz vol pxx pyy pzz pxy pxz pyz enthalpy

restart 	${out_freq3} restart.lmp.${pid} restart2.lmp.${pid}
restart 	1000 restart.lmp.${pid} restart2.lmp.${pid}
restart 	1000 restart.lmp.1 restart2.lmp.${pid}
restart 	1000 restart.lmp.1 restart2.lmp.1


include         in.dump
dump            myDump all atom ${out_freq2} dump.water.${pid}
dump            myDump all atom 10000 dump.water.${pid}
dump            myDump all atom 10000 dump.water.1
dump            myDump2 all dcd ${out_freq2} dump.dcd
dump            myDump2 all dcd 10000 dump.dcd
dump_modify     myDump append yes
dump_modify     myDump2 append yes


variable natoms 	equal  "count(all)"                        # NUMBER ATOMS
variable H      	equal  "enthalpy/v_natoms"                 # ENTHALPY-per-atom
variable Vol      	equal  "vol/v_natoms"                 # volume-per-atom
fix AVG all 		ave/time ${out_freq} 1 ${out_freq} v_Vol v_H file vol_enthalpy.dat
fix AVG all 		ave/time 1000 1 ${out_freq} v_Vol v_H file vol_enthalpy.dat
fix AVG all 		ave/time 1000 1 1000 v_Vol v_H file vol_enthalpy.dat


timer           timeout 23:50:00 every 1000
New timer settings: style=normal  mode=nosync  timeout=23:50:00

fix 		1 all shake 1e-6 200 0 b 1 a 1
Finding SHAKE clusters ...
       0 = # of size 2 clusters
       0 = # of size 3 clusters
       0 = # of size 4 clusters
     288 = # of frozen angles
  find clusters CPU = 0.000 seconds
fix             2 all nph iso ${pressure} ${pressure} ${pressureDamp}
fix             2 all nph iso 2930 ${pressure} ${pressureDamp}
fix             2 all nph iso 2930 2930 ${pressureDamp}
fix             2 all nph iso 2930 2930 1000
fix             3 all temp/csvr ${temperature} ${temperature} ${tempDamp} ${seed}
fix             3 all temp/csvr 222 ${temperature} ${tempDamp} ${seed}
fix             3 all temp/csvr 222 222 ${tempDamp} ${seed}
fix             3 all temp/csvr 222 222 100 ${seed}
fix             3 all temp/csvr 222 222 100 745823

run             250000
PPPM initialization ...
  extracting TIP4P info from pair style
  using 12-bit tables for long-range coulomb (../kspace.cpp:340)
  G vector (1/distance) = 0.37266013
  grid = 24 24 25
  stencil order = 5
  estimated absolute RMS force accuracy = 0.0032542252
  estimated relative force accuracy = 9.8000026e-06
  using double precision FFTW3
  3d grid and FFT values/proc = 3822 576
Last active /omp style is kspace_style pppm/tip4p/omp
Neighbor list info ...
  update every 1 steps, delay 7 steps, check yes
  max neighbors/atom: 2000, page size: 100000
  master list distance cutoff = 10.8154
  ghost atom cutoff = 10.8154
  binsize = 5.4077, bins = 4 4 4
  1 neighbor lists, perpetual/occasional/extra = 1 0 0
  (1) pair lj/cut/tip4p/long/omp, perpetual
      attributes: half, newton on, omp
      pair build: half/bin/newton/omp
      stencil: half/bin/3d
      bin: standard
Setting up Verlet run ...
  Unit style    : real
  Current step  : 9750000
  Time step     : 2
  Walltime left : 23:49:59.96
Per MPI rank memory allocation (min/avg/max) = 10.20 | 10.20 | 10.21 Mbytes
Step Temp PotEng TotEng E_pair E_mol Press Lx Ly Lz Volume Pxx Pyy Pzz Pxy Pxz Pyz Enthalpy 
 9750000    236.39167   -4016.9178   -3611.7506   -4016.9178            0    2142.3825    17.638274    20.775556    21.518652    7885.4014    1543.2418    3628.7169    1255.1887   -225.62718   -89.843648   -572.86615   -3365.3756 
 9751000    221.20105   -4006.0223   -3626.8913   -4006.0223            0    473.91346    17.591021    20.719899    21.461005    7822.1968    273.53249    1486.5128   -338.30489   -97.033519   -1120.8127    232.74996   -3572.8279 
 9752000    211.69344   -3996.1511   -3633.3158   -3996.1511            0    2267.9385    17.562892    20.686767    21.426687    7784.7318    2358.2837      2488.75    1956.7818   -156.43101   -869.95239    679.16343   -3375.8315 
 9753000    217.90214   -4003.5613   -3630.0845   -4003.5613            0    2921.2346    17.651875    20.791578    21.535247    7903.6581    1580.8267    3212.2054    3970.6716   -794.15275    11.265376    1107.7265   -3293.3633 
 9754000    209.02129   -4020.3585   -3662.1031   -4020.3585            0    2804.8058    17.594634    20.724154    21.465412    7827.0171    2600.8573    2981.8624    2831.6978   -402.09789   -212.14404    1420.5699   -3341.9373 
 9755000     218.3789   -4004.0998   -3629.8059   -4004.0998            0    863.70585    17.605215    20.736618    21.478321    7841.1471    750.80235    495.51675    1344.7984    671.48964    542.15151   -262.60992   -3531.0367 
 9756000    224.72301   -3995.1459   -3609.9784   -3995.1459            0    3405.3179    17.468618    20.575725    21.311673    7660.0438    3320.8191    2551.5097    4343.6248    246.07758   -76.218663    473.48777   -3229.5571 
 9757000    225.72094   -4020.7622   -3633.8842   -4020.7622            0    3229.0214    17.508934    20.623211    21.360858    7713.2015    3879.5939    2024.2756    3783.1948    -390.0603    129.03577   -211.94218   -3270.6544 
 9758000    228.96989   -4017.5728   -3625.1263   -4017.5728            0    2922.1892    17.530508    20.648623    21.387179    7741.7489    1535.5625    2666.9471    4564.0581    780.95342    -983.2408    122.31849   -3295.1951 
 9759000    227.99029   -4006.1014   -3615.3339   -4006.1014            0    2981.6209    17.547582    20.668734    21.408009    7764.3919    3185.9181    3034.3822    2724.5622    1281.4905    839.53692   -433.64955    -3277.708 
 9760000    227.47546   -4029.9379   -3640.0527   -4029.9379            0    1653.7803    17.572421    20.697991    21.438312      7797.41    3428.9937    818.68765    713.65966   -186.82545   -191.43206    689.12337   -3451.9894 
 9761000    228.34403   -4029.6025   -3638.2287   -4029.6025            0    3198.0186    17.447071    20.550345    21.285386    7631.7333    2524.2044    3339.0513    3730.8002    767.31514    521.00129    1155.8505    -3282.286 
 9762000    231.70871   -4000.0551   -3602.9143   -4000.0551            0    2380.2035    17.485278    20.595347    21.331998    7681.9803    2021.9833    3267.3393    1851.2877   -473.99021   -58.120297     1067.864    -3336.251 
 9763000    224.18765   -4000.1184   -3615.8684   -4000.1184            0    2495.5375     17.47405    20.582123      21.3183    7667.1913    1757.3946    1449.9955    4279.2224    178.13122   -506.34687    1994.6769   -3336.8221 
 9764000    221.49589   -4038.9236   -3659.2872   -4038.9236            0    1871.4447    17.469629    20.576916    21.312907    7661.3738    1986.3368     861.6125    2766.3849    250.90133   -84.817272    114.97109   -3450.1845 
 9765000    220.33069   -4018.5396   -3640.9003   -4018.5396            0    428.08992     17.56435    20.688484    21.428465    7786.6706    1772.2503    725.98396   -1213.9645   -762.65232   -450.69107    217.80652   -3592.2862 
 9766000    227.58652   -4022.7412   -3632.6657   -4022.7412            0     3453.941    17.440054     20.54208    21.276825    7622.5281     3167.104    3935.2058    3259.5133   -601.63382    423.41457    942.09035   -3248.7022 
 9767000    227.61578   -4023.8484   -3633.7227   -4023.8484            0    2630.3157    17.461177    20.566961    21.302596    7650.2595    2497.8342    1499.7833    3893.3297    446.22765   -275.53439    2072.7189   -3340.2553 
 9768000    213.86844   -4041.5983   -3675.0352   -4041.5983            0    2253.1969    17.451335    20.555368    21.290588    7637.3302     3288.819    2275.9168     1194.855    254.23011   -321.64202    -242.4885   -3424.0682 
 9769000    230.80412   -4043.1552   -3647.5648   -4043.1552            0    2679.1766    17.447243    20.550547    21.285596    7631.9586    2950.0048    1882.4254    3205.0998    700.68654    -656.8046   -1223.4589    -3349.361 
 9770000    217.91234   -4047.9329   -3674.4386   -4047.9329            0    3448.3979    17.402088    20.497361    21.230506    7572.8549    3813.8539    3866.6181    2664.7217     807.1725   -169.69365   0.81910452   -3293.5895 
 9771000    226.68938   -4076.9041   -3688.3663   -4076.9041            0    2139.4518    17.479238    20.588233    21.324629    7674.0221    331.81018    2500.5556    3585.9897   -941.65315    -276.3068    551.89336   -3448.9237 
 9772000    233.36182   -4044.2501    -3644.276   -4044.2501            0    2904.2444     17.42386    20.523005    21.257068     7601.314    1952.5475    2914.5596    3845.6261    206.84991    -840.4702    161.26785   -3322.3191 
 9773000    211.90024   -4050.0596   -3686.8699   -4050.0596            0    1525.8038    17.533894    20.652611    21.391309    7746.2357    2084.9387    243.11322    2249.3594    601.66713    -261.3515    864.98919   -3514.4985 
 9774000    229.98391   -4004.3971   -3610.2125   -4004.3971            0    3643.2194     17.52067    20.637035    21.375177    7728.7229    3753.2602    2684.7234    4491.6744   -53.530237    508.42659    1724.1148   -3199.5652 
 9775000    225.62992   -4045.7934   -3659.0714   -4045.7934            0    3412.3211    17.462339    20.568328    21.304012    7651.7859    4136.5305    1340.8027      4759.63   -1766.1906    95.097727   -76.080831   -3278.2787 
 9776000    230.49348   -4028.9804   -3633.9225   -4028.9804            0    2746.1555    17.470419    20.577846     21.31387     7662.413    3270.5822    3887.3426    1080.5416   -440.79534    594.16741    934.89385   -3327.0439 
 9777000    227.54304   -4040.2114   -3650.2104   -4040.2114            0    1964.5537     17.48909    20.599838    21.336649    7687.0061    2166.4692    2175.4697    1551.7222   -359.99438     281.0382    1746.4076     -3429.97 
 9778000    221.17569    -4056.276   -3677.1884    -4056.276            0    1718.8336    17.472702    20.580535    21.316655    7665.4167    2361.3458    202.92938    2592.2255     441.0085   -403.72578    -36.60798   -3485.0362 
 9779000    220.35761   -4072.5232   -3694.8378   -4072.5232            0    2662.6195    17.437627    20.539221    21.273864    7619.3463    2237.7085      3680.05    2070.1002    858.44825    -592.7507    456.74469   -3398.9665 
 9780000    227.48354   -4027.8534   -3637.9544   -4027.8534            0    2809.7623    17.451454    20.555507    21.290733    7637.4859    2510.4275    1653.1367    4265.7227    1239.4657   -145.94723    499.12133   -3324.9894 
 9781000    232.03133   -4033.7685   -3636.0747   -4033.7685            0    4267.8046    17.441473    20.543751    21.278556    7624.3895    4465.6861     3752.904    4584.8238    1054.1224    132.29111    44.242419   -3161.5209 
 9782000    221.40649   -4016.7019   -3637.2188   -4016.7019            0    2131.5717     17.45701    20.562052    21.297512    7644.7837    1086.4895    3036.4988    2271.7267     1198.442    806.35696    602.41887    -3399.567 
 9783000    228.39449   -4042.1544   -3650.6941   -4042.1544            0    2735.2447    17.524958    20.642086    21.380408     7734.399    2138.2494    2381.3568    3686.1279   -144.44696   -274.59675   -1143.7612   -3342.1632 
 9784000    217.56191   -4054.6249   -3681.7313   -4054.6249            0    1288.7827    17.526642    20.644069    21.382462    7736.6282    1863.6055   -135.67353     2138.416    93.144556    -1312.962   -354.98793   -3536.3169 
 9785000    215.40116   -4063.7172   -3694.5269   -4063.7172            0    4130.4086    17.460888    20.566619    21.302242    7649.8787    2738.9705    5979.7543     3672.501   -893.69881   -874.84752    685.16404   -3233.7153 
 9786000    206.94292   -4028.7729   -3674.0799   -4028.7729            0     2082.602    17.517651    20.633479    21.371494    7724.7284    3358.8851    743.79411    2145.1267   -404.15939   -1149.4286    231.33205   -3439.4597 
 9787000    213.81364    -4007.851   -3641.3818    -4007.851            0    3046.9984    17.492567    20.603933    21.340891    7691.5917    1552.5235    4056.9037    3531.5679    1620.4244     1905.369   -81.623682   -3299.5878 
 9788000     216.2268   -4013.7833   -3643.1779   -4013.7833            0    1794.8369    17.452628    20.556891    21.292166    7639.0283    3414.0022    1207.9919    762.51657    260.91552   -301.72791     173.0065   -3443.2198 
 9789000    217.81154   -4027.9796    -3654.658   -4027.9796            0    2477.4074    17.509213    20.623541    21.361199    7713.5713    2819.2777    2726.2643    1886.6802     431.3365   -973.49523    767.38143   -3375.9633 
 9790000     219.7087   -4035.5237   -3658.9505   -4035.5237            0    3553.2661    17.435933    20.537226    21.271798    7617.1268     4589.538    3188.9212    2881.3392    6.6749778     116.3884   -512.34193   -3264.2253 
 9791000     208.4377   -4017.3102   -3660.0551   -4017.3102            0    1880.9092    17.526315    20.643684    21.382063    7736.1954    2390.6145    1962.1763    1289.9368    418.09127   -374.29849   -1250.7378   -3447.8426 
 9792000    212.31727   -4028.8625   -3664.9579   -4028.8625            0    1726.6069    17.538749     20.65833    21.397233    7752.6724    2610.5956    271.55773    2297.6674   -1362.9813   -2436.6662    746.04086   -3469.7395 
 9793000     224.3734   -4032.1864   -3647.6181   -4032.1864            0    2163.7252    17.578276    20.704888    21.445456    7805.2075    2344.7127    2575.1084    1571.3546    1221.4324   -1080.7403    787.63133   -3401.3192 
 9794000     222.5061   -4022.9207   -3641.5528   -4022.9207            0    3829.6602    17.511778    20.626562    21.364328    7716.9615    3566.9694    4453.5027    3468.5087    648.59309   -1476.9851   -174.87889   -3210.5477 
 9795000    203.94012   -4049.6732   -3700.1268   -4049.6732            0     1809.083    17.560795    20.684297    21.424129    7781.9444    2802.0007    949.41781    1675.8304     667.6831   -672.29709   -677.81479    -3494.811 
 9796000    231.17017    -4028.527   -3632.3092    -4028.527            0    3435.4692    17.501259    20.614171    21.351495    7703.0627     3876.668    2802.7258    3627.0137    67.958271    4.9148371    116.47915   -3246.3642 
 9797000    216.75965   -4033.7572   -3662.2386   -4033.7572            0    3117.3516    17.515518    20.630967    21.368891    7721.9068    3464.9164    3424.7338    2462.4047    691.64297   -737.90037   -1340.5112   -3311.1747 
 9798000    220.36491   -4019.1769    -3641.479   -4019.1769            0    5177.7328    17.508476    20.622672      21.3603    7712.5967    5584.1828    5109.3427    4839.6728    1396.5334    758.18914    942.15055    -3059.086 
 9799000    221.30837   -4006.0613   -3626.7463   -4006.0613            0    2624.3304     17.50498    20.618555    21.356035    7707.9781    1897.7962    3369.5459     2605.649    1186.8004   -753.16731   -210.05516   -3331.7376 
 9800000    209.12664   -3997.1795   -3638.7436   -3997.1795            0    3521.7314    17.519131    20.635223    21.373299    7726.6866     4773.529    2531.4784    3260.1866    -253.6631    378.01794    644.90227   -3241.8945 
 9801000     217.0071   -3998.1655   -3626.2228   -3998.1655            0    2046.5788    17.594307     20.72377    21.465013    7826.5809    1673.8392    2647.6778    1818.2194    529.43834    175.84653    1858.5136   -3392.6208 
 9802000    223.63182   -4040.3056   -3657.0083   -4040.3056            0    2994.3501    17.532703    20.651208    21.389857    7744.6574    2150.6653    5033.4893    1798.8959      -1908.6    346.29832    -1216.196   -3318.8028 
 9803000    219.80829   -4031.5717   -3654.8279   -4031.5717            0    2443.5451     17.53333    20.651946    21.390621     7745.488    2573.0549     2896.275    1861.3054   -294.85966   -762.54445    1264.2795    -3378.805 
 9804000    232.03255   -4027.4613   -3629.7655   -4027.4613            0    2590.9832    17.516509    20.632134      21.3701    7723.2178    3627.6815    2502.0994    1643.1686    -720.9403   -760.51767    755.06346   -3337.9295 
 9805000    231.07064   -4036.7534   -3640.7062   -4036.7534            0    2162.8481    17.549076    20.670494    21.409832    7766.3751    819.81998    2564.6782    3104.0461   -489.87628   -1769.4372   -515.76213    -3395.732 
 9806000    218.66507   -3987.3993   -3612.6148   -3987.3993            0    840.89488    17.576309    20.702571    21.443056    7802.5876   -185.63499    1470.7128    1237.6069   -449.64978   -679.22384    247.86292   -3516.9271 
 9807000    221.24784   -4022.2838   -3643.0726   -4022.2838            0    3196.0517    17.466307    20.573002    21.308853    7657.0032    2585.2462    3460.1814    3542.7274   -258.22304   -1032.7884    459.88747    -3286.171 
 9808000    210.91293   -4008.4968   -3646.9993   -4008.4968            0    1955.0295    17.559335    20.682578    21.422348    7780.0039    2388.4356    2910.5548    566.09818    989.61022    -764.9095   -1407.5876    -3425.175 
 9809000    219.16542   -4008.5238   -3632.8818   -4008.5238            0    1617.1739    17.549501    20.670994     21.41035    7766.9392     2609.649    368.02026    1873.8524   -424.64144   -427.31054   -246.12541   -3449.6999 
 9810000    220.43543   -4030.1966   -3652.3778   -4030.1966            0    1328.9779    17.560548    20.684006    21.423828     7781.616    610.19022    982.63082    2394.1126   -699.46367   -646.69876   -742.45634   -3501.5563 
 9811000     225.6712   -4006.3623   -3619.5696   -4006.3623            0    2226.8701    17.516137    20.631695    21.369646    7722.7247    1845.6719    2153.1918    2681.7467   -360.88059    907.24489   -707.95935   -3368.7616 
 9812000    228.86977   -4010.5047   -3618.2297   -4010.5047            0    1518.5466    17.551905    20.673825    21.413283    7770.1309    3007.2055    262.63278    1285.8014   -1038.2236    56.616789    146.59352   -3446.1489 
 9813000    230.80452   -4000.7593   -3605.1682   -4000.7593            0    2086.8671    17.497546    20.609798    21.346966     7698.162    3062.7707    909.95696    2287.8738   -1690.8505   -897.05012   -1517.0163   -3370.8761 
 9814000     226.1287   -4019.2264   -3631.6496   -4019.2264            0    1025.7732    17.529679    20.647647    21.386168    7740.6513    2034.4924    633.58569     409.2414    245.24094   -806.24974    -1210.035   -3515.8506 
 9815000    219.81367   -4044.5227   -3667.7695   -4044.5227            0    3867.0447    17.384485    20.476627    21.209031    7549.8982    2416.1063    3757.4605    5427.5674    -2064.229    435.91111    356.50293   -3241.9788 
 9816000    228.80573   -4000.1185   -3607.9533   -4000.1185            0     2250.619     17.45155    20.555621     21.29085    7637.6123    2387.1799    1443.6481    2921.0289   -431.31808    2200.1809   -61.825496   -3357.2642 
 9817000    216.95788   -4039.7778   -3667.9194   -4039.7778            0    2990.7732    17.354334    20.441113    21.172247    7510.6834    1986.2944    3762.4308    3223.5945   -682.84766    326.53901    -700.5256   -3340.3232 
 9818000    212.89436   -4014.7889   -3649.8952   -4014.7889            0    1097.5601    17.500434      20.6132    21.350489    7701.9746    1815.3955    536.59861    940.68626   -1017.4768    741.82102    1190.8454   -3526.6114 
 9819000    215.36523   -4052.6348   -3683.5062   -4052.6348            0    2422.4596    17.434198    20.535182    21.269681    7614.8526     1698.219    3775.8809    1793.2789    698.79588   -164.69526    -139.1703   -3414.4804 
 9820000    221.44527    -4030.193   -3650.6434    -4030.193            0    2156.9096    17.422327      20.5212    21.255198    7599.3081     3449.513    1460.1034    1561.1125   -122.75249    1557.6184   -1485.4632   -3411.5972 
 9821000    222.02101   -4035.7003   -3655.1639   -4035.7003            0    4617.7795    17.389959    20.483075    21.215709     7557.032    3825.0075    5630.8824    4397.4487    -930.9173   -963.49887    109.34487   -3146.2312 
 9822000    225.21977   -3998.0116   -3611.9926   -3998.0116            0    2555.7202    17.476428    20.584924    21.321201    7670.3222    2348.3228     3702.287    1616.5507   -490.75672    920.74674    366.51014   -3326.1001 
 9823000    215.85145   -4049.9971   -3680.0351   -4049.9971            0    4796.9603    17.395636    20.489761    21.222635    7564.4355    6147.7511    4985.9272    3257.2025    652.81617    58.837546   -235.49645   -3150.8366 
 9824000    221.64485   -4042.4536   -3662.5619   -4042.4536            0    2942.8452    17.425365    20.524778    21.258905    7603.2847    2122.9768    3527.7325    3177.8264   -495.66091   -792.43879   -704.91149   -3336.2412 
 9825000    218.54401   -4041.1867   -3666.6097   -4041.1867            0    3013.2124    17.464639    20.571038    21.306819    7654.8107    2719.3216    3765.8395    2554.4763     284.6652   -497.55261    739.63745    -3330.222 
 9826000    218.12125   -4039.4752   -3665.6229   -4039.4752            0    2968.6549    17.472247        20.58    21.316101    7664.8189     2380.352    4359.3062    2166.3065    373.27977   -863.07373   -486.06088   -3333.7762 
 9827000    221.93589   -4050.0428   -3669.6523   -4050.0428            0     3090.191    17.427846    20.527701    21.261932     7606.533     3887.645    2061.3749    3321.5532     175.3129   -1237.0486   -191.84162   -3326.8466 
 9828000    230.30283   -4007.8601   -3613.1289   -4007.8601            0    3784.8652     17.47556    20.583902    21.320143    7669.1797    2979.9289    2665.2959    5709.3708    99.337729    270.45093   -78.138283   -3189.8027 
 9829000    223.60689   -4048.5415   -3665.2869   -4048.5415            0    3202.9811    17.395369    20.489447     21.22231    7564.0872    3016.1717    4857.2134    1735.5582    505.85355    254.99473    192.22111   -3311.9518 
 9830000    231.92869   -4021.2057   -3623.6878   -4021.2057            0    2216.7633    17.493259    20.604748    21.341735    7692.5045    2882.4682    2289.1104    1478.7113    1661.4756    1538.0367    1295.1074   -3374.9952 
 9831000    215.92599   -4016.7004   -3646.6106   -4016.7004            0    3917.2673     17.45776    20.562936    21.298427    7645.7689    5264.8839    2620.4975    3866.4204    815.01388    1233.9463    981.13603    -3209.813 
 9832000    225.47578   -4037.6845   -3651.2267   -4037.6845            0    4011.2824    17.367874    20.457062    21.188766    7528.2769    4506.3576    3652.2255     3875.264   -859.80425    1692.9529    908.12533   -3210.8192 
 9833000    218.05476   -4033.5514    -3659.813   -4033.5514            0     3357.945    17.392868    20.486501    21.219258     7560.825    3462.4906    3862.2416    2749.1029   -748.68907    591.11167    453.21326   -3289.5429 
 9834000    235.43517   -3996.4125   -3592.8846   -3996.4125            0    3910.4099      17.4533    20.557682    21.292986    7639.9105    4555.9237    5390.1805    1785.1256   -197.48948   -344.48735   -150.65334   -3157.1857 
 9835000    219.02163   -3999.6245   -3624.2289   -3999.6245            0    2729.5381    17.480643    20.589888    21.326343    7675.8728    3467.3494    2479.3018     2241.963   -1931.7259    1510.7863    1516.4413   -3318.6715 
 9836000    221.69743   -4011.8948    -3631.913   -4011.8948            0    2496.4367    17.461359    20.567174    21.302817    7650.4982    3988.3259     576.5954    2924.3889    44.821144    681.90757    1246.3484   -3353.3739 
 9837000    220.51329    -4035.773   -3657.8208    -4035.773            0    4252.0875    17.408363    20.504752    21.238162    7581.0504    4241.0388    5453.2509    3061.9728    425.38723    806.45992    231.49058   -3187.7021 
 9838000    231.63228   -4018.0601   -3621.0503   -4018.0601            0     4234.278    17.507091    20.621041     21.35861    7710.7665    3286.7344    6364.5415    3051.5581   -182.59727    109.07916   -710.29729   -3144.8904 
 9839000    219.69146   -4039.5441   -3663.0004   -4039.5441            0    4895.6892    17.397947    20.492484    21.225455    7567.4509    4447.6215    5134.5566    5104.8896    93.536104    346.46527    182.80455    -3122.695 
 9840000    226.71631   -4025.0327   -3636.4487   -4025.0327            0    3943.5071    17.433441     20.53429    21.268757    7613.8606    3730.8603    2782.9247    5316.7363   -815.08703    734.77744   -129.66204   -3198.5603 
 9841000    206.66219   -4019.2268   -3665.0149   -4019.2268            0    3486.0511    17.472138    20.579871    21.315968     7664.675      2351.31    3847.2505    4259.5929    974.37615   -820.41392   -95.476569   -3275.3392 
 9842000    227.24938   -4013.8019   -3624.3043   -4013.8019            0    2578.7406     17.51583    20.631334    21.369271     7722.319     2239.397    3595.0522    1901.7728    298.16526     1070.057    472.04183   -3333.8811 
 9843000    228.96093   -4065.9119   -3673.4807   -4065.9119            0    1859.0288    17.534385    20.653189    21.391908    7746.8862    1930.7488    2450.2077      1196.13    354.00821    471.74703   -556.38849   -3463.4469 
 9844000    216.48648    -4036.338   -3665.2876    -4036.338            0    3015.2471    17.526053    20.643375    21.381743    7735.8481    4663.9905    2654.4296    1727.3212    99.001016   -1440.4718    590.60194   -3325.1092 
 9845000    212.64807   -4028.1434   -3663.6719   -4028.1434            0    3532.7443    17.531876    20.650234    21.388848    7743.5619    3883.9513    2229.6501    4484.6315    396.46557   -877.62964   -635.84881   -3264.7123 
 9846000    233.23408   -4016.7954   -3617.0402   -4016.7954            0    3136.3682    17.539474    20.659184    21.398117     7753.634    3592.2006    3291.3639    2525.5399   -491.82328   -41.309953    1725.6397   -3262.3834 
 9847000    228.79722   -4027.4183   -3635.2676   -4027.4183            0    3759.7189    17.536393    20.655554    21.394358    7749.5483    4473.7292    2708.0875    4097.3401   -360.74144   -1588.0339    442.02102   -3210.3472 
 9848000     219.5327   -4044.5755    -3668.304   -4044.5755            0    2212.0307    17.523935    20.640881     21.37916    7733.0441    2552.0255    2137.6324    1946.4341    766.22111    879.97343    241.51321   -3418.8345 
 9849000    222.33055   -4010.9641   -3629.8971   -4010.9641            0     3823.111    17.528381    20.646117    21.384584    7738.9313     4003.456    3148.1478    4317.7292   -753.43197   -692.24703    407.00741   -3198.4041 
 9850000    224.23888   -4035.5614   -3651.2236   -4035.5614            0    3077.9738    17.436977    20.538455    21.273071    7618.4943    2277.5519    3665.6924     3290.677   -589.44009    763.56006    451.92052   -3309.2364 
 9851000    214.41824    -4036.937   -3669.4315    -4036.937            0    4496.5353    17.499377    20.611954    21.349199    7700.5783    4721.3706    4401.1245    4367.1109   -524.90765    1078.5874    1892.5921   -3164.4479 
 9852000    212.69505   -3994.3248   -3629.7727   -3994.3248            0    3214.1838    17.503746    20.617101     21.35453    7706.3482    3060.7167    4037.8616    2543.9732   -2051.3238    1643.4609    1726.5738   -3268.5332 
 9853000    229.89924   -4018.3792   -3624.3397   -4018.3792            0    1445.5372    17.508965    20.623248    21.360897    7713.2432     1452.066    1672.5925    1211.9531   -717.38456    254.00151    7.7537134   -3461.7316 
 9854000    217.25406   -4026.1557   -3653.7897   -4026.1557            0    3868.1295    17.412362    20.509463    21.243041    7586.2765    4176.5189    4050.2022    3377.6673    302.22353    1039.0854    65.018776   -3225.8274 
 9855000     227.0993    -4015.957   -3626.7165    -4015.957            0    3598.4408    17.439305    20.541197    21.275911    7621.5463    3103.3464    3365.5889    4326.3871    -1136.489    242.80131    454.05653   -3226.7411 
 9856000    224.64801   -4065.5171   -3680.4781   -4065.5171            0    3339.2296    17.476235    20.584697    21.320966    7670.0686    3237.7759    4606.5325    2173.3803    338.99574    417.81782    1040.3773   -3306.9516 
 9857000    221.77916   -4060.1282   -3680.0063   -4060.1282            0    3493.8782    17.424106    20.523295    21.257368     7601.636    1766.9645    5185.1354    3529.5347   -41.830547    433.73129    1444.2601   -3292.6677 
 9858000    223.20312   -4034.1759   -3651.6134   -4034.1759            0    2773.2776    17.481449    20.590838    21.327327    7676.9357    2633.8361    3501.6435    2184.3532    481.84354   -250.08054   -1199.1304   -3341.1166 
 9859000    212.16854   -4030.1257   -3666.4761   -4030.1257            0    2481.9141    17.476348    20.584829    21.321103    7670.2164    1860.5435    4227.2681    1357.9308   -829.36602   -463.90828     973.5455   -3388.8436 
 9860000    225.09228   -4031.4208   -3645.6203   -4031.4208            0    2123.8332    17.482614     20.59221    21.328749    7678.4705    2347.7177    2196.5266    1827.2552    -182.5953    -1716.135    377.58159   -3407.7879 
 9861000    225.01882   -4020.2886    -3634.614   -4020.2886            0    3306.6988    17.427487    20.527278    21.261494    7606.0627    3486.6512    3284.8549    3148.5904   -19.037227    393.57676    598.73059   -3267.8131 
 9862000     224.6993   -4021.1661   -3636.0392   -4021.1661            0    2499.4057    17.444431    20.547235    21.282165    7628.2692    2611.2674    4363.7162    523.23346     850.3932    -688.5292    1512.4565   -3357.9791 
 9863000    222.65727   -4018.5483   -3636.9213   -4018.5483            0    1757.9977    17.436824    20.538276    21.272885    7618.2945    2723.7282    2396.5231    153.74186    264.37656   -806.73413    925.21763    -3441.599 
 9864000      228.882   -4003.3261   -3611.0302   -4003.3261            0    2281.2242    17.468382    20.575447    21.311386    7659.7334    2372.7549    1977.0114    2493.9064   -9.3964359   -1198.6109    26.230602   -3356.1961 
 9865000    228.69422   -4008.8227   -3616.8487   -4008.8227            0    3233.5365    17.447328    20.550647    21.285699      7632.07     1520.855    5329.3924    2850.3621    574.34942      79.3497   -769.19866   -3256.9369 
 9866000    217.57092   -4040.1253   -3667.2162   -4040.1253            0    3038.0517    17.437962    20.539616    21.274273    7619.7856    3422.9489    2237.4984    3453.7079   -508.69743   -579.51874   -277.46593   -3329.6074 
 9867000    212.68534   -4047.1122   -3682.5768   -4047.1122            0    3246.5602    17.605487    20.736939    21.478654    7841.5109    2343.1433    4304.3221    3092.2151    1697.5391    156.08768   -557.92913   -3311.2989 
 9868000    217.55596   -4040.5531   -3667.6696   -4040.5531            0    2841.2309    17.458499    20.563806    21.299328    7646.7397    2308.2018    2975.1517    3240.3392   -257.28076   -170.73241    898.45454   -3350.8159 
 9869000    226.40097   -4019.9925    -3631.949   -4019.9925            0     2913.364    17.494931    20.606718    21.343775    7694.7104    4084.5049    1232.0381     3423.549    2263.0058   -48.839165    1112.0259   -3305.0129 
 9870000    212.82862   -4034.9912   -3670.2102   -4034.9912            0    2638.5999    17.509055    20.623354    21.361007    7713.3625    3317.6252    2294.5246      2303.65   -602.65576   -67.978518    10.067663   -3373.3902 
 9871000    216.78464    -4038.353   -3666.7915    -4038.353            0    2218.3383    17.546804    20.667817     21.40706    7763.3588    1315.1341     2686.814    2653.0667    1101.8947    294.03626    6.7163453   -3415.6299 
 9872000     226.7568   -4017.0716   -3628.4182   -4017.0716            0    3059.6951    17.501996    20.615039    21.352394    7704.0363    2956.2684    2112.1666    4110.6502   -801.70505    1869.2781   -675.08566   -3284.6447 
 9873000    218.64912     -4056.39   -3681.6329     -4056.39            0    3311.6323    17.413063    20.510288    21.243896    7587.1921    2498.2646    2659.6828    4776.9497    -488.3244    -817.1141    986.88488   -3315.1961 
 9874000    225.78447   -4040.6357   -3653.6489   -4040.6357            0    4057.8834    17.457119    20.562181    21.297645     7644.927     5428.393    4027.1048    2718.1525   -60.382319   -743.17105     563.8115   -3201.2216 
 9875000     237.9285    -4030.869   -3623.0677    -4030.869            0    3700.5244    17.483625    20.593401    21.329981    7679.8019    3343.8748    3021.0445     4736.654    247.85564   -238.66135    1196.3851   -3208.6014 
 9876000    217.14978   -4026.4391   -3654.2518   -4026.4391            0    2092.6883    17.522566    20.639268     21.37749    7731.2319    2801.8651    1862.5606    1613.6392    180.45759   -57.051252    109.87733   -3418.2968 
 9877000    226.09645   -4027.7636    -3640.242   -4027.7636            0    2446.3693    17.513109    20.628129    21.365952    7718.7208    2580.1245    2858.7252    1900.2582    493.47193    238.41295    -118.7952   -3364.8552 
 9878000    222.56391   -4022.6419    -3641.175   -4022.6419            0    3628.6307    17.454179    20.558717    21.294057     7641.064    3395.5052    4307.5366    3182.8503    737.41717    285.35366    1611.4673    -3236.811 
 9879000    221.52496   -4001.3149   -3621.6287   -4001.3149            0     1570.291    17.510803    20.625413    21.363139    7715.6729    1795.8806   -417.81393    3332.8062    1033.2395     383.6661   -576.71349   -3444.9315 
 9880000    220.11784   -4048.0518   -3670.7774   -4048.0518            0    3269.1737     17.40864    20.505078      21.2385    7581.4119     3658.744    3989.7185    2159.0584   -194.09895   -1381.3952   -223.44537   -3309.3143 
 9881000    221.79993   -4063.2963   -3683.1388   -4063.2963            0    3029.2484    17.409046    20.505557    21.238996    7581.9429    3506.7254    3327.1703    2253.8495    636.19508   -347.74043    898.46515   -3348.1801 
 9882000    229.43163   -4015.4687   -3622.2307   -4015.4687            0    3783.5307    17.420727    20.519316    21.253247    7597.2154    2853.8659    3902.9216    4593.8045   -1208.5157   -913.21156    1288.5684   -3203.0246 
 9883000    224.94522   -4050.9341   -3665.3856   -4050.9341            0    1348.6705    17.470117     20.57749    21.313501     7662.015     2546.207   -197.75845    1697.5629   -387.97576   -1109.9645    902.71857   -3514.6817 
 9884000    213.93922   -4046.8657   -3680.1812   -4046.8657            0    2255.5939    17.489095    20.599844    21.336655    7687.0127    2521.5091    2972.6634    1272.6092   -172.91957     747.8488   -905.31971   -3427.3129 
 9885000    213.53357   -4053.9734   -3687.9841   -4053.9734            0    3081.3043    17.441344    20.543599    21.278398    7624.2197    1858.1218    3547.3613    3838.4299    444.85108   -679.70102    1.3973723   -3345.3695 
 9886000    225.44345   -4022.1444    -3635.742   -4022.1444            0    3015.5815    17.441439    20.543712    21.278515    7624.3453    2003.7726    2653.6643    4389.3075   -175.88728   -1084.0248    357.90271   -3300.4297 
 9887000    217.62413   -4038.5725   -3665.5722   -4038.5725            0     3441.265     17.55548    20.678037    21.417645    7774.8805    3742.6761    2389.5064    4191.6125   -671.73174   -989.83574    499.31032   -3275.3718 
 9888000    217.32492   -4015.0557   -3642.5683   -4015.0557            0    2458.6946    17.456193     20.56109    21.296515    7643.7104    2096.5128    3717.2602    1562.3109    105.43766   -1025.7393   -737.83427   -3368.4836 
 9889000    204.08673   -4033.0887    -3683.291   -4033.0887            0    2480.8186     17.51162    20.626375    21.364135    7716.7517    2014.7781     2923.249    2504.4288    195.60547    160.21168     658.0934   -3404.0974 
 9890000    218.39602   -4006.8117   -3632.4884   -4006.8117            0    1790.3224    17.500008    20.612697    21.349968     7701.411    1985.6714    1613.8626    1771.4332    622.59573    717.48638    1077.2403   -3431.4045 
 9891000    207.22894   -4012.5852   -3657.4019   -4012.5852            0    3862.5228    17.454383    20.558957    21.294306    7641.3319    4701.0434    3976.9201     2909.605   -1316.9211   -1032.8745    1385.0516   -3226.9585 
 9892000    210.35632   -4012.3212   -3651.7776   -4012.3212            0    1631.4266    17.486606    20.596912    21.333618     7683.731    1716.9483    368.63212    2808.6995      43.3846   -464.58613   -529.76912    -3468.961 
 9893000     215.5186   -4029.4446   -3660.0531   -4029.4446            0    1099.4975    17.605673    20.737157     21.47888    7841.7585    1528.7289    1363.4349    406.32884   -844.62262    104.80182    191.10404   -3534.3102 
 9894000    219.47441   -4024.4711   -3648.2995   -4024.4711            0    3169.0726    17.501633    20.614611    21.351951    7703.5567    2777.2274    2610.7911    4119.1995    -509.9598   -957.61366    529.34391   -3292.2591 
 9895000    243.48293   -4027.4652   -3610.1437   -4027.4652            0    4378.1562    17.426615    20.526251     21.26043    7604.9209    4352.5904    3875.0177    4906.8607    307.97189    807.20814    -248.1391   -3124.5626 
 9896000    228.93819   -4042.5028   -3650.1106   -4042.5028            0    1402.6525    17.494813    20.606579    21.343631    7694.5552    620.99358    1494.8627    2092.1011    767.58475     389.2607   -355.76365   -3492.7089 
 9897000    214.59759   -4026.9842   -3659.1713   -4026.9842            0    3914.6103    17.447756    20.551152    21.286222    7632.6322    2865.4593    3267.8138    5610.5578    183.07349    59.720901    -979.1874   -3223.4199 
 9898000    216.98102   -4045.7165   -3673.8184   -4045.7165            0    3544.8624    17.405273    20.501112    21.234392     7577.014    3738.4899    2771.7941    4124.3031    128.26268   -163.40273   -229.86677   -3282.1006 
 9899000    230.98912   -4004.6543   -3608.7468   -4004.6543            0     3008.212    17.516231    20.631806    21.369761    7722.8495    4245.2138    1183.2906    3596.1316    1021.0735   -889.96726     1571.499   -3269.9324 
 9900000     221.3801   -4043.7129    -3664.275   -4043.7129            0    1724.1596    17.518616    20.634616    21.372671    7726.0049    2243.6891    795.17558    2133.6142   -569.37776    -473.2788    1525.5668   -3470.0039 
 9901000    224.03029   -4023.7359   -3639.7557   -4023.7359            0    2093.3899    17.507169    20.621133    21.358705    7710.8697    2596.1187    1634.5863    2049.4647   -806.45488   -439.14048    1877.3178   -3404.3432 
 9902000     213.2283   -4051.8741   -3686.4081   -4051.8741            0    1776.4826    17.467956    20.574945    21.310865    7659.1723     1578.018    1601.0686    2150.3613     16.57009   -543.55802   -574.73721   -3487.9729 
 9903000    230.30492    -4058.747   -3664.0122    -4058.747            0    1775.5395    17.512029    20.626857    21.364635    7717.2932    1530.2441    3151.5965    644.77786     100.7242    323.29676    975.46429   -3464.1774 
 9904000    207.35243   -4045.4672   -3690.0722   -4045.4672            0    2067.3735    17.487948    20.598493    21.335256    7685.5008    2069.2732    2105.8356    2027.0118   -1274.5917    276.41006     284.3772   -3458.3504 
 9905000    218.78201     -4052.54   -3677.5551     -4052.54            0    3159.6153    17.472675    20.580503    21.316622    7665.3814    2835.8345    3689.9146    2953.0969   -1528.9515    460.34234   -218.95597   -3324.3363 
 9906000    220.48987   -4097.2143   -3719.3022   -4097.2143            0    1042.4978    17.511281    20.625976    21.363722    7716.3041    -115.2032    1211.3526     2031.344   -1471.1317   -240.42342    450.50596   -3601.9854 
 9907000    215.74692   -4055.2395   -3685.4567   -4055.2395            0    1916.6225    17.494229    20.605891    21.342919    7693.7845    2274.4321    1185.0988    2290.3366    918.12968   -309.45387    48.872744   -3470.4002 
 9908000    215.38617    -4041.045   -3671.8804    -4041.045            0    3691.8036    17.515278    20.630684    21.368598    7721.5894    4158.3673    4253.8852    2663.1583   -1039.8188    118.05557    84.107532    -3256.141 
 9909000    222.34317   -4047.9166    -3666.828   -4047.9166            0    2262.3982    17.509297    20.623639    21.361302    7713.6821    2439.1903    2839.0815    1508.9227   -314.11404   -250.65169    52.903879   -3412.3169 
 9910000    228.19907   -4017.1912   -3626.0658   -4017.1912            0    2700.3412    17.436181    20.537518      21.2721    7617.4518    2569.0739    2139.6459    3392.3037   -818.00023     782.8058    489.30451   -3326.0775 
 9911000    200.40494   -4034.5387   -3691.0515   -4034.5387            0    2102.5657    17.499181    20.611724     21.34896    7700.3202    2979.8347     2904.513    423.34928    40.851071   -1103.3906   -74.344046   -3454.9307 
 9912000    216.74946   -4042.4832    -3670.982   -4042.4832            0    2032.0555    17.555636    20.678221    21.417835    7775.0882    1761.2214    1762.2575    2572.6876   -757.19099    -687.8646   -235.71886   -3440.5638 
 9913000    227.93915   -4042.4664   -3651.7865   -4042.4664            0    2270.0633    17.541589    20.661675    21.400698     7756.439    2613.9719    1678.0427    2518.1753    105.52015    1240.4849    469.53011   -3394.9976 
 9914000    223.45244   -4061.6997   -3678.7099   -4061.6997            0    1809.3071    17.573726    20.699528    21.439905    7799.1479    1711.7514    1585.1243    2131.0456    421.40811    9.3709311    844.81791   -3472.9146 
 9915000    219.49768   -4053.2516   -3677.0401   -4053.2516            0    2790.1484    17.546775    20.667783    21.407024      7763.32    3263.9465    3998.9294    1107.5693    590.37166    854.33213    808.63948   -3361.1394 
 9916000    219.13743   -4022.3244   -3646.7303   -4022.3244            0    2193.9862     17.53906    20.658696    21.397612    7753.0843    3046.4471    1889.4875     1646.024    73.654632    803.61012    1404.1615   -3398.6546 
 9917000    215.84803   -4068.0223   -3698.0661   -4068.0223            0    4307.0005    17.490828    20.601885    21.338769    7689.2981     4784.985    3261.3414    4874.6752    570.10255    658.76353    1079.7891   -3215.0768 
 9918000    242.32636   -4053.9537   -3638.6146   -4053.9537            0    2617.1738    17.551919    20.673842      21.4133    7770.1499    2797.2397     3665.873    1388.4088    223.47057    79.029854   -754.29508   -3342.0374 
 9919000    226.23376   -4025.2877   -3637.5307   -4025.2877            0    1807.5293    17.486474    20.596757    21.333458    7683.5578    1908.4581    1468.4122    2045.7175    1324.9349    317.19681   -328.56234   -3434.9848 
 9920000    223.67124   -4046.9766   -3663.6118   -4046.9766            0    2660.4615      17.5358    20.654856    21.393634    7748.7617    2106.0753    4209.6832    1665.6259   -639.29397    248.48081    768.49514   -3362.9591 
 9921000    213.44871   -4030.3555   -3664.5117   -4030.3555            0    2840.5479    17.561572    20.685212    21.425076    7782.9767    1120.8453    3673.2086    3727.5899    133.28023    449.75625   -583.46847   -3342.0904 
 9922000    230.13476    -4063.529   -3669.0859    -4063.529            0    2519.4548    17.525029    20.642169    21.380494    7734.4919    1372.9056    3606.1428     2579.316    159.16683   -530.14784    1392.2907   -3384.8924 
 9923000    221.70758   -4058.3471   -3678.3479   -4058.3471            0    2468.7179     17.54273    20.663018    21.402089    7757.9522    1393.9657    2894.5305    3117.6574    490.05424    370.87044    1123.5154   -3399.0327 
 9924000    208.80635   -4045.0601   -3687.1732   -4045.0601            0    477.74495    17.587679    20.715963    21.456928    7817.7396    277.38365    1080.9425    74.908719    113.47972     295.7286    1982.0115   -3632.7037 
 9925000    221.66429   -4045.6503   -3665.7253   -4045.6503            0    1140.7163    17.558247    20.681295     21.42102    7778.5567    2456.1997     724.0549    241.89428   -888.83449   -784.22759   -26.996145   -3536.3199 
 9926000    220.67886   -4059.7473   -3681.5113   -4059.7473            0    3269.8972     17.49751    20.609755    21.346921    7698.1136    1691.3459     4348.833    3769.5125    393.72324   -759.52695    104.48728   -3314.4029 
 9927000    220.93698   -4022.7074   -3644.0289   -4022.7074            0     4355.876    17.464202    20.570523    21.306286    7654.2357    5015.6534    3650.8112    4401.1636    244.77958    105.60149   -467.27816   -3157.7861 
 9928000    225.59538   -4034.3779   -3647.7151   -4034.3779            0    4237.1977    17.470467    20.577902    21.313928    7662.4755    5075.6574    5711.6511    1924.2845   -674.94177    22.086987    455.09242   -3174.2111 
 9929000     220.7416   -4045.2955    -3666.952   -4045.2955            0    1231.6462    17.525015    20.642153    21.380478    7734.4743   -113.17762    962.88041    2845.2357   -393.73826     223.3428    1066.9563   -3528.0231 
 9930000    217.25625   -4057.4799   -3685.1102   -4057.4799            0    3642.1607     17.51048    20.625032    21.362744    7715.2448      4171.21    3997.4542     2757.818    1412.5606     902.4514   -785.65468   -3275.2981 
 9931000     224.6717   -4046.0533   -3660.9737   -4046.0533            0    4395.0233    17.476199    20.584654    21.320922    7670.0211    3510.2619    4012.0929    5662.7152   -92.851282    2050.5417    189.41552    -3169.349 
 9932000    236.07317    -4040.279   -3635.6577    -4040.279            0    4460.9451    17.446172    20.549286    21.284289    7630.5529    4209.8793     4749.077    4423.8791     378.0426    893.16912   -209.67432   -3139.2268 
 9933000    214.54274   -4067.7545   -3700.0356   -4067.7545            0    2867.5883    17.528519    20.646281    21.384753    7739.1149    4477.8674    2597.4758    1527.4218    848.62085   -399.21802   -897.98679   -3376.3793 
 9934000    211.56378   -4058.3061    -3695.693   -4058.3061            0    3176.9709    17.465961    20.572595    21.308432     7656.549    3879.1402    3789.9019    1861.8706    822.51353   -743.59115    1494.9594   -3340.9432 
 9935000    223.05797   -4036.9134   -3654.5997   -4036.9134            0    2996.0063    17.453918     20.55841    21.293739    7640.7213    4160.7848    2774.8713    2052.3628    307.87986   -530.32724    1117.0338   -3320.7485 
 9936000    226.61293   -4040.5648    -3652.158   -4040.5648            0    2146.7941    17.453549    20.557976    21.293289    7640.2376    2375.6077    1341.4393    2723.3353    8.9615397   -93.796733    96.782886   -3412.9514 
 9937000    211.29263   -4044.7378   -3682.5894   -4044.7378            0    1645.1229    17.552932    20.675035    21.414536    7771.4956    1094.2827    2581.5198    1259.5662    107.36017    438.74625     1166.296   -3496.1324 
 9938000    232.13397    -4043.588   -3645.7183    -4043.588            0     2331.119    17.528102    20.645789    21.384243    7738.5616    2902.0951    2156.6271    1934.6348   -287.15276   -129.97048     -245.392   -3382.6305 
 9939000    216.09082   -4064.2671   -3693.8949   -4064.2671            0    1870.3819    17.540214    20.660055     21.39902    7754.6152    1474.4158    2371.7532    1764.9767   -840.68571   -557.57068    428.47416   -3482.3676 
 9940000    242.22049   -4049.7871   -3634.6295   -4049.7871            0    4167.9963    17.475872    20.584268    21.320523    7669.5897     3860.315    4606.0185    4037.6553    626.90439   -1055.5931    351.84837   -3168.4262 
 9941000    235.82992   -4058.4126   -3654.2082   -4058.4126            0     3894.477    17.456592     20.56156    21.297002    7644.2342    4195.1604     3530.587    3957.6836    412.60309    -5.726119    1714.9224    -3220.039 
 9942000    229.45617   -4054.0611    -3660.781   -4054.0611            0    2592.6689    17.517408    20.633192    21.371196    7724.4061    4331.6498    830.33489    2616.0219    420.52646    627.05775    239.72062   -3368.7103 
 9943000    224.65147   -4050.7539    -3665.709   -4050.7539            0    4369.6302    17.514814    20.630138    21.368033    7720.9762    4300.2837    4758.5819    4050.0249   -145.90173    195.80339    1692.7405   -3173.6776 
 9944000    231.16272   -4045.4857   -3649.2808   -4045.4857            0    2216.3047    17.531312     20.64957     21.38816    7742.8143    2992.9498    1920.5211    1735.4433   -1403.6674   -1415.3575    43.964069   -3399.0134 
 9945000    201.51073   -4010.6326   -3665.2501   -4010.6326            0    3310.7963    17.463253    20.569406    21.305128    7652.9882    6725.8707    2860.6639    345.85416   -560.79652    55.542307     1063.722   -3295.7289 
 9946000    224.20399   -4045.8433   -3661.5653   -4045.8433            0    1804.7414    17.472415    20.580196    21.316305     7665.039    2558.0327    781.45524    2074.7362   -551.03672   -98.720417     956.9699   -3459.8192 
 9947000     208.4439   -4021.0455   -3663.7798   -4021.0455            0    2069.5567    17.470241    20.577636    21.313653    7662.1785    2556.0141    1420.3551    2232.3009   -782.09607   -180.72843   -499.79594   -3432.5172 
 9948000    215.54583   -4018.3077   -3648.8695   -4018.3077            0    4294.7549    17.416039    20.513793    21.247527    7591.0833    4584.7768     3911.361     4388.127   -1274.6609   -48.352683     1662.442   -3173.4051 
 9949000    226.43414   -4023.8577   -3635.7574   -4023.8577            0    2647.9993    17.501293    20.614212    21.351537    7703.1083    2757.8992    2413.1464    2772.9524    523.09367   -696.36794    492.61075    -3338.276 
 9950000    227.57416   -4061.6312   -3671.5769   -4061.6312            0    4094.3242    17.396956    20.491316    21.224245    7566.1573    3874.1466    3884.4522    4524.3738   -937.11738    366.53963    1143.9692   -3219.7901 
 9951000    216.93443   -4037.0717   -3665.2535   -4037.0717            0    3452.3734    17.459836     20.56538    21.300959    7648.4961    3779.0965    2683.6998     3894.324   -1730.8486    -855.2915    346.31866   -3280.1569 
 9952000    224.97003   -4039.5419   -3653.9509   -4039.5419            0    2373.4409    17.498842    20.611324    21.348546    7699.8723    782.02957    2902.8134    3435.4798   -1000.9572   -321.86239   -852.08201    -3387.426 
 9953000    218.74757   -4045.7901   -3670.8642   -4045.7901            0    4032.9628    17.403301     20.49879    21.231986     7574.439    3403.5791    5295.5972     3399.712   -393.47932    351.21727     331.9027   -3225.3613 
 9954000    225.51032   -4064.7176   -3678.2006   -4064.7176            0     2485.379    17.500232    20.612962    21.350243    7701.7078    2766.8653    1963.1793    2726.0924   -1136.3706    -74.91048   -344.15338   -3399.0391 
 9955000    217.22939   -4063.0338   -3690.7101   -4063.0338            0    2150.8337    17.490277    20.601236    21.338097    7688.5714    868.36742    2390.4122    3193.7214   -890.86143    456.50829     130.2626   -3449.5373 
 9956000    225.12546    -4077.833   -3691.9757    -4077.833            0     2531.165    17.459306    20.564756    21.300312    7647.7998    1418.1191    3136.4913    3038.8845   -471.14381    938.97421    522.83537   -3409.6614 
 9957000    233.18694   -4079.4993   -3679.8248   -4079.4993            0    2752.4247    17.455724    20.560537    21.295942    7643.0935    4149.6008    2616.3565    1491.3167    749.80945    146.31497    53.337676   -3373.0212 
 9958000    231.62835   -4062.6119   -3665.6088   -4062.6119            0    3261.9946    17.452406    20.556629    21.291895    7638.7364    3785.6719     3733.162    2267.1499   -707.52846    462.90506    462.17455   -3302.2124 
 9959000    216.28678   -4048.1747   -3677.4665   -4048.1747            0    3695.7598    17.478195    20.587005    21.323357    7672.6489    2981.2682    4953.8959    3152.1152   -682.81964   -479.33509    453.64094   -3263.9194 
 9960000    219.92051   -4033.5519   -3656.6156   -4033.5519            0    4150.1666    17.479621    20.588684    21.325096    7674.5268    4135.4309    4846.3205    3468.7484   -748.65873   -540.93463   -1008.2687   -3192.1078 
 9961000    216.84907   -4054.4114   -3682.7395   -4054.4114            0    684.42826     17.53116    20.649391    21.387975    7742.6135    882.96463    611.79612    558.52404   -1294.1893    -1162.083    17.465921   -3605.4552 
 9962000    221.48591   -4047.6117   -3667.9924   -4047.6117            0    2569.8051    17.519322    20.635448    21.373532    7726.9394    4853.8014    721.15694    2134.4568    444.49079   -570.76846    153.06935   -3378.4024 
 9963000    224.51274    -4048.997   -3664.1899    -4048.997            0    3864.1964    17.507886    20.621977     21.35958    7711.8167    4990.9437    4140.7089    2460.9366    -161.1177    408.03828   -1157.4065   -3229.5878 
 9964000    213.51943    -4051.722    -3685.757    -4051.722            0    2761.9247    17.500885     20.61373    21.351038    7702.5689    3304.3351    2211.4793    2769.9597     438.7712   -1462.3297   -336.18695   -3375.4988 
 9965000    215.04726   -4089.4164   -3720.8328   -4089.4164            0    3394.8375    17.502946    20.616158    21.353553     7705.291    3356.4714    3056.6999    3771.3412    11.924764   -670.94704   -656.81084   -3339.3421 
 9966000    214.30994   -4043.7012   -3676.3813   -4043.7012            0    2545.7914    17.540236    20.660081    21.399046    7754.6438    2128.5275    3556.4201    1952.4267   -756.25143   -1231.4834   -522.67716   -3388.4688 
 9967000    202.01714    -4036.217   -3689.9665    -4036.217            0    2219.9104    17.533453    20.652092    21.390772    7745.6513    1861.7796    3638.5588    1159.3926   -42.280976    944.33929    399.40703   -3439.2002 
 9968000    215.10095   -4022.8013   -3654.1256   -4022.8013            0    3475.8645    17.545879    20.666728    21.405931    7762.1311    3685.6434    3943.1767    2798.7734    978.36541    615.22373    1281.1809   -3260.6483 
 9969000    225.41961   -4053.9296   -3667.5681   -4053.9296            0     2998.387    17.517888    20.633758    21.371782    7725.0413    2158.7168     5400.048    1436.3962   -288.78344   -1402.3192    67.997565   -3329.7644 
 9970000    217.42535    -4064.846   -3692.1863    -4064.846            0    2040.6199    17.532082    20.650477    21.389099    7743.8344    3802.8454    1608.4071    710.60717    -7.734771    96.885899    265.90382   -3461.7271 
 9971000    229.60226   -4076.9021   -3683.3717   -4076.9021            0    1865.7504    17.609295    20.741423    21.483299    7846.5997    2603.9886    599.42834    2393.8344   -477.21675   -820.73011   -668.79144   -3469.8652 
 9972000    222.04492   -4068.1132   -3687.5358   -4068.1132            0    3235.4148    17.494065    20.605698    21.342719    7693.5682    3445.4819    2763.1495     3497.613    120.57281    788.69761   -457.05575   -3324.5132 
 9973000    222.34163   -4065.9533   -3684.8674   -4065.9533            0    2665.8827    17.468876    20.576028    21.311988    7660.3828    3878.9338    1785.2059    2333.5085    457.91012    122.65008    349.22469   -3387.0381 
 9974000     216.4026    -4055.444   -3684.5374    -4055.444            0    1755.2521    17.567937    20.692709    21.432842    7791.4429    2487.3038    1952.8178    825.63473    554.43286     1530.533   -537.68507   -3485.0877 
 9975000    227.66924   -4082.1277   -3691.9104   -4082.1277            0    4114.1259    17.471568    20.579199    21.315272     7663.925    4954.0547    3394.3036    3994.0193    1972.1561    113.00782   -309.40721   -3232.0726 
 9976000    219.41457    -4041.895   -3665.8259    -4041.895            0    3160.2108    17.445773    20.548817    21.283803    7630.0303    3970.8901    2688.2292     2821.513    97.974944    187.26906    7.1354003   -3314.1698 
 9977000    234.93282   -4027.2414   -3624.5745   -4027.2414            0    1955.3308    17.512017    20.626843     21.36462    7717.2773    2861.8215    2274.9604    729.21047   -307.10269    327.11787    1028.8587   -3404.5049 
 9978000    231.64027   -4048.8832   -3651.8597   -4048.8832            0     3831.325    17.440127    20.542166    21.276914    7622.6242    4452.2422    3373.3946    3668.3382   -315.71092  -0.78710016    1028.7269   -3225.9383 
 9979000    225.95728   -4048.6033   -3661.3202   -4048.6033            0    2370.3342    17.494986    20.606783    21.343842    7694.7833    2898.3009    2195.3509    2017.3508   -1072.1591   -1018.3688    72.356402   -3395.3201 
 9980000    234.20074   -4050.2972   -3648.8852   -4050.2972            0    3659.0125    17.488671    20.599344    21.336138    7686.4534    3911.3325    3713.7519     3351.953   -1648.8167    320.97063    1428.9681   -3238.7134 
 9981000    223.65149   -4038.4576   -3655.1266   -4038.4576            0    4883.8423    17.518492     20.63447     21.37252    7725.8411    5525.1646     2743.323    6383.0392   -599.27461   -115.55913    620.75311   -3104.8471 
 9982000    220.19228   -4033.3732   -3655.9712   -4033.3732            0    4282.8889     17.44632    20.549461     21.28447    7630.7482    5578.9039    2541.1647    4728.5981   -1269.7966   -1423.6823   -535.87766   -3179.3429 
 9983000    218.67407   -4050.6284   -3675.8286   -4050.6284            0    4476.5434    17.454075    20.558595    21.293931    7640.9282    4074.8857    4333.1038    5021.6407   -1605.6481   -739.80581   -557.15761   -3176.9845 
 9984000    225.72825   -4032.6206   -3645.7301   -4032.6206            0    3611.4013    17.513901    20.629062    21.366919    7719.7687     3176.459    4517.7067    3140.0382   -1220.4303    133.09788   -775.92558   -3239.1409 
 9985000    210.47777   -4042.9334   -3682.1817   -4042.9334            0    3782.5183    17.516095    20.631646    21.369595    7722.6694    3581.9136    4899.4741    2866.1672   -1760.3767   -988.85596    33.799469   -3256.1672 
 9986000    225.71112   -4053.6899   -3666.8288   -4053.6899            0    1307.5005     17.51428    20.629508     21.36738     7720.269    780.31629    1375.1924    1766.9928    3.2398008   -47.848533    284.74349   -3519.6144 
 9987000    207.00646   -4015.4965   -3660.6945   -4015.4965            0    3126.9548    17.490459     20.60145    21.338319    7688.8115    4747.7185    2672.3025    1960.8434    1903.6986     516.0279    1183.2507   -3310.0583 
 9988000     224.5319   -4029.1118   -3644.2718   -4029.1118            0    2541.2292    17.510416    20.624957    21.362667    7715.1611    3112.0204    1797.1359    2714.5313    635.59392   -43.234927   -305.69263   -3358.3385 
 9989000    229.63211   -4056.2951   -3662.7135   -4056.2951            0    1293.7235    17.497571    20.609827    21.346995    7698.1941    1689.7014    727.65254    1463.8166    286.48028    -820.3273   -628.81227   -3517.4669 
 9990000    208.72435   -4003.7404    -3645.994   -4003.7404            0    5128.1575    17.398469    20.493098    21.226092    7568.1319    5592.5532    5849.4263    3942.4931    174.49153   -144.02833   -219.44376   -3079.9817 
 9991000    210.79318   -4047.5109   -3686.2186   -4047.5109            0    3990.7211    17.389634    20.482692    21.215313    7556.6086    4137.7045    4451.4783    3382.9804   -1031.0845     720.2202    493.11426   -3246.4197 
 9992000     219.7364   -4035.0503   -3658.4296   -4035.0503            0    4468.4861    17.393241     20.48694    21.219713    7561.3112    2816.0514    5787.1742    4802.2326     358.1031   -556.61974   -107.70857   -3165.6719 
 9993000    239.60716   -4023.0961   -3612.4177   -4023.0961            0    1139.2573    17.534177    20.652945    21.391655    7746.6114    1641.5104    808.57563    967.68596    1422.3098     218.6255    844.78938   -3483.7085 
 9994000    221.80706   -4021.8906   -3641.7209   -4021.8906            0    4030.7409    17.485893    20.596072    21.332748    7682.7907    4219.1696    3809.7736    4063.2794   -872.18632   -1048.1026      450.785    -3190.094 
 9995000    224.32443   -4011.6414    -3627.157   -4011.6414            0    856.26141    17.523944    20.640891     21.37917    7733.0557    163.68985    573.49982    1831.5946   -57.868182   -113.69911    544.49649    -3530.589 
 9996000    221.95492   -4030.0048   -3649.5817   -4030.0048            0    2310.8864    17.439095     20.54095    21.275655    7621.2709    3177.7204    2335.1737    1419.7652    -1430.815    2289.7955     23.51089   -3392.7303 
 9997000    221.77687    -4011.685   -3631.5671    -4011.685            0    2975.0993    17.475841    20.584232    21.320485    7669.5488    4255.1083    2417.5878    2252.6019   -536.53597    248.75658   -596.74249   -3298.7948 
 9998000    229.42478   -4011.1238   -3617.8976   -4011.1238            0    3503.1699    17.460382    20.566023    21.301625    7649.2137    4526.9652    1822.9641    4159.5804   -58.078087   -663.38118   -490.49085   -3227.0982 
 9999000    225.45619   -4052.4863   -3666.0621   -4052.4863            0    3281.9474     17.40136    20.496504    21.229619    7571.9056    1797.9494    4239.5969     3808.296   -885.14082   -620.69621    162.93594   -3303.6417 
10000000    236.44585   -4021.1075   -3615.8474   -4021.1075            0    2875.2044    17.483698    20.593487     21.33007    7679.8981    2214.6358    4005.0863     2405.891   -917.89897   -2598.8984    126.87074   -3293.8147 
Loop time of 426.563 on 64 procs for 250000 steps with 864 atoms

Performance: 101.275 ns/day, 0.237 hours/ns, 586.080 timesteps/s
189.5% CPU use with 32 MPI tasks x 2 OpenMP threads

MPI task timing breakdown:
Section |  min time  |  avg time  |  max time  |%varavg| %total
---------------------------------------------------------------
Pair    | 25.967     | 31.572     | 40.922     |  59.7 |  7.40
Bond    | 0.78587    | 1.0715     | 1.5839     |  13.9 |  0.25
Kspace  | 194        | 204.21     | 211.24     |  25.7 | 47.87
Neigh   | 2.9434     | 3.1052     | 3.277      |   6.1 |  0.73
Comm    | 76.719     | 82.501     | 87.353     |  23.0 | 19.34
Output  | 0.49162    | 0.49193    | 0.4935     |   0.0 |  0.12
Modify  | 75.418     | 78.793     | 83.939     |  22.6 | 18.47
Other   |            | 24.82      |            |       |  5.82

Nlocal:        27.0000 ave          34 max          21 min
Histogram: 3 1 2 9 2 6 6 2 0 1
Nghost:        2437.62 ave        2468 max        2394 min
Histogram: 2 2 5 0 3 0 4 7 4 5
Neighs:        8051.50 ave       10346 max        5881 min
Histogram: 2 3 1 9 1 3 6 3 3 1

Total # of neighbors = 257648
Ave neighs/atom = 298.20370
Ave special neighs/atom = 2.0000000
Neighbor list builds = 8957
Dangerous builds = 0

unfix		3
unfix		2
unfix		1

write_data	data.final.${pid}
write_data	data.final.1
System init for write_data ...
PPPM initialization ...
  extracting TIP4P info from pair style
  using 12-bit tables for long-range coulomb (../kspace.cpp:340)
  G vector (1/distance) = 0.37338871
  grid = 24 24 25
  stencil order = 5
  estimated absolute RMS force accuracy = 0.0031700817
  estimated relative force accuracy = 9.5466069e-06
  using double precision FFTW3
  3d grid and FFT values/proc = 3822 576
Last active /omp style is kspace_style pppm/tip4p/omp
WARNING: Not all mixed pair coeffs generated from mixing. Use write_data with 'pair ij' option to store all pair coeffs. (../write_data.cpp:312)

write_restart   restart.lmp.${pid}
write_restart   restart.lmp.1
System init for write_restart ...
PPPM initialization ...
  extracting TIP4P info from pair style
  using 12-bit tables for long-range coulomb (../kspace.cpp:340)
  G vector (1/distance) = 0.37338871
  grid = 24 24 25
  stencil order = 5
  estimated absolute RMS force accuracy = 0.0031700817
  estimated relative force accuracy = 9.5466069e-06
  using double precision FFTW3
  3d grid and FFT values/proc = 3822 576
Last active /omp style is kspace_style pppm/tip4p/omp
Total wall time: 0:07:06
