LAMMPS (30 Jul 2021)
  using 1 OpenMP thread(s) per MPI task
package omp 0
using multi-threaded neighbor list subroutines
echo both

include		in.partitions
variable        pid world 0
include		in.temp
variable        temperature equal 246.33
variable	tempDamp equal 100.0
include		in.pressure
variable        pressure equal 3500.0
variable        pressureDamp equal 1000.0 # This is 1 ps
include		in.seed
variable        seed world 745823

units		real
atom_style	full
read_restart	restart.lmp.${pid}
read_restart	restart.lmp.0
Reading restart file ...
  restart file = 30 Jul 2021, LAMMPS = 30 Jul 2021
  restoring atom style full from restart
  orthogonal box = (0.35303016 1.5073542 0.43069596) to (17.854542 22.121824 21.782500)
  4 by 4 by 4 MPI processor grid
  restoring pair style lj/cut/tip4p/long/omp from restart
  restoring bond style harmonic/omp from restart
  restoring angle style harmonic/omp from restart
  864 atoms
  576 bonds
  288 angles
Finding 1-2 1-3 1-4 neighbors ...
  special bond factors lj:    0        0        0       
  special bond factors coul:  0        0        0       
     2 = max # of 1-2 neighbors
     1 = max # of 1-3 neighbors
     1 = max # of 1-4 neighbors
     2 = max # of special neighbors
  special bonds CPU = 1.492 seconds
  read_restart CPU = 2.000 seconds
include 	in.setup
variable	out_freq equal 1000
variable	out_freq2 equal 10000
variable	out_freq3 equal 1000

timestep	2.0

neigh_modify    delay 7 every 1

include		in.tip4p
# This is TIP4P/Ice

# create groups ###
group ox type 2
288 atoms in group ox
group hy type 1
576 atoms in group hy

# set charges - beside manually ###
set group ox charge -1.1794
Setting atom values ...
  288 settings made for charge
set group hy charge 0.5897
Setting atom values ...
  576 settings made for charge

# ### TIP3P Potential Parameters ###
pair_style lj/cut/tip4p/long/omp 2 1 1 1 0.1577 8.5
pair_coeff 1 1*2 0.000 0.000
pair_coeff 2 2 0.21084 3.1668
bond_style  harmonic
bond_coeff  1 450 0.9572
angle_style harmonic
angle_coeff 1 55 104.52
kspace_style pppm/tip4p/omp 1.0e-5
pair_modify tail yes

thermo          ${out_freq}
thermo          1000
thermo_style    custom step temp pe etotal epair emol press lx ly lz vol pxx pyy pzz pxy pxz pyz enthalpy

restart 	${out_freq3} restart.lmp.${pid} restart2.lmp.${pid}
restart 	1000 restart.lmp.${pid} restart2.lmp.${pid}
restart 	1000 restart.lmp.0 restart2.lmp.${pid}
restart 	1000 restart.lmp.0 restart2.lmp.0


include         in.dump
dump            myDump all atom ${out_freq2} dump.water.${pid}
dump            myDump all atom 10000 dump.water.${pid}
dump            myDump all atom 10000 dump.water.0
dump            myDump2 all dcd ${out_freq2} dump.dcd
dump            myDump2 all dcd 10000 dump.dcd
dump_modify     myDump append yes
dump_modify     myDump2 append yes


variable natoms 	equal  "count(all)"                        # NUMBER ATOMS
variable H      	equal  "enthalpy/v_natoms"                 # ENTHALPY-per-atom
variable Vol      	equal  "vol/v_natoms"                 # volume-per-atom
fix AVG all 		ave/time ${out_freq} 1 ${out_freq} v_Vol v_H file vol_enthalpy.dat
fix AVG all 		ave/time 1000 1 ${out_freq} v_Vol v_H file vol_enthalpy.dat
fix AVG all 		ave/time 1000 1 1000 v_Vol v_H file vol_enthalpy.dat


timer           timeout 23:50:00 every 1000
New timer settings: style=normal  mode=nosync  timeout=23:50:00

fix 		1 all shake 1e-6 200 0 b 1 a 1
       0 = # of size 2 clusters
       0 = # of size 3 clusters
       0 = # of size 4 clusters
     288 = # of frozen angles
  find clusters CPU = 0.025 seconds
fix             2 all nph iso ${pressure} ${pressure} ${pressureDamp}
fix             2 all nph iso 3500 ${pressure} ${pressureDamp}
fix             2 all nph iso 3500 3500 ${pressureDamp}
fix             2 all nph iso 3500 3500 1000
fix             3 all temp/csvr ${temperature} ${temperature} ${tempDamp} ${seed}
fix             3 all temp/csvr 246.33 ${temperature} ${tempDamp} ${seed}
fix             3 all temp/csvr 246.33 246.33 ${tempDamp} ${seed}
fix             3 all temp/csvr 246.33 246.33 100 ${seed}
fix             3 all temp/csvr 246.33 246.33 100 745823

run             250000
PPPM initialization ...
  extracting TIP4P info from pair style
  using 12-bit tables for long-range coulomb (../kspace.cpp:340)
  G vector (1/distance) = 0.37330454
  grid = 24 24 25
  stencil order = 5
  estimated absolute RMS force accuracy = 0.0031796995
  estimated relative force accuracy = 9.5755707e-06
  using double precision FFTW3
  3d grid and FFT values/proc = 2730 288
Last active /omp style is kspace_style pppm/tip4p/omp
Neighbor list info ...
  update every 1 steps, delay 7 steps, check yes
  max neighbors/atom: 2000, page size: 100000
  master list distance cutoff = 10.8154
  ghost atom cutoff = 10.8154
  binsize = 5.4077, bins = 4 4 4
  1 neighbor lists, perpetual/occasional/extra = 1 0 0
  (1) pair lj/cut/tip4p/long/omp, perpetual
      attributes: half, newton on, omp
      pair build: half/bin/newton/omp
      stencil: half/bin/3d
      bin: standard
Per MPI rank memory allocation (min/avg/max) = 9.237 | 9.241 | 9.247 Mbytes
Step Temp PotEng TotEng E_pair E_mol Press Lx Ly Lz Volume Pxx Pyy Pzz Pxy Pxz Pyz Enthalpy 
10000000    255.48261   -3902.6817   -3464.7933   -3902.6817            0    2710.4885    17.501512    20.614469    21.351804    7703.3975    1071.7556    4295.6494    2764.0604   -1399.1749    57.474173   -1142.7863   -3160.2803 
10001000    246.21954     -3905.64   -3483.6281     -3905.64            0    4333.5927    17.453896    20.558383    21.293712    7640.6922    4243.9516    3509.3854     5247.441    -446.4926   -634.28668    216.36775   -3000.7287 
10002000    243.71231   -3911.6277   -3493.9131   -3911.6277            0    3058.4662    17.495867     20.60782    21.344916    7695.9452    3308.8701     3181.546    2684.9824    276.94922   -385.54872    885.79888   -3150.6387 
10003000      234.534    -3888.083   -3486.0997    -3888.083            0    2999.4009    17.535184     20.65413    21.392883    7747.9454    3207.7982    3129.6782    2660.7263   -558.92737   -938.39184   -578.74931   -3147.1799 
10004000    240.29134   -3933.9809   -3522.1298   -3933.9809            0    3275.5237     17.41626    20.514054    21.247796    7591.3722    1786.6925    4122.7158     3917.163    110.52591    9.8533282   -691.10471   -3159.4888 
10005000      243.793   -3905.3515   -3487.4987   -3905.3515            0    3101.1044    17.499299    20.611862    21.349104    7700.4751     2516.394    1823.3436    4963.5757    95.432661    429.33361    359.22978   -3139.2337 
10006000     240.9397   -3893.0949   -3480.1325   -3893.0949            0    2850.5941    17.455858    20.560695    21.296106    7643.2702     2170.642    2729.0632    3652.0772    581.07097    1198.7511   -1547.4866   -3162.3789 
10007000     244.1277   -3918.5714   -3500.1449   -3918.5714            0    3329.4939    17.460514    20.566179    21.301786    7649.3874      3017.91    3356.8193    3613.7524    87.221334   -734.52503     356.8602   -3128.7116 
10008000    261.98979   -3927.8746   -3478.8331   -3927.8746            0    3513.9305    17.437033    20.538522     21.27314    7618.5684    3358.2871    2814.2898    4369.2145   -74.581274    -290.6577    -659.0308   -3088.4037 
10009000    245.85278   -3889.0382    -3467.655   -3889.0382            0    2574.6138    17.463177    20.569316    21.305035    7652.8881     4694.884    1008.9312    2020.0263    2304.7619    1566.4776   -553.45244   -3180.3036 
10010000    251.68125   -3928.1823   -3496.8093   -3928.1823            0    2354.6164    17.435198    20.536361    21.270901    7616.1635    2094.8852    2239.4634    2729.5005   -643.77612     324.7799   -599.73148   -3235.2728 
10011000    257.68991   -3927.1694   -3485.4977   -3927.1694            0    2944.5338    17.365434    20.454188    21.185789    7525.1047    4084.5856    4053.3605     695.6553   -972.19377   -369.68268    -1268.987   -3162.3471 
10012000    263.10958   -3890.0497   -3439.0888   -3890.0497            0    3112.9293    17.408411    20.504809    21.238221    7581.1137    4608.5463    4465.5997    264.64199   -75.982455   -1522.6133   -997.18869   -3094.9148 
10013000    258.59735   -3921.0689   -3477.8419   -3921.0689            0    3312.5566    17.416753    20.514635    21.248399    7592.0175    4384.7647    2499.1138    3053.7911    664.14693     -458.937    572.87012   -3111.0697 
10014000    249.72382   -3959.2646   -3531.2466   -3959.2646            0    2794.5198    17.425925    20.525438    21.259588    7604.0175     2614.173     4182.532    1586.8543   -1155.8368    213.44838    214.41456   -3221.3433 
10015000    241.09572   -3913.4006   -3500.1707   -3913.4006            0    6112.7167    17.358636     20.44618    21.177495    7516.2699    6090.6268    4568.8882    7678.6352   -650.87579    329.96862    513.28873   -2830.1125 
10016000    251.90068   -3955.8196   -3524.0704   -3955.8196            0    1842.1852    17.463592    20.569804    21.305541    7653.4334    487.60003    4606.1987    432.75695    1144.4323   -521.93544    240.99787   -3318.4504 
10017000    254.77033   -3963.0366    -3526.369   -3963.0366            0    4058.0695    17.382135    20.473859    21.206164     7546.837    3826.8466    3925.1607    4422.2012    667.20056    397.31053    151.29691   -3079.7262 
10018000    239.76868   -3950.9168   -3539.9615   -3950.9168            0    3003.2923    17.374437    20.464792    21.196772    7536.8139      4091.37    3254.2488     1664.258    1740.4878    659.94524   -717.37068   -3209.8495 
10019000    236.94764   -3932.5788   -3526.4586   -3932.5788            0    5017.0725    17.404364    20.500042    21.233284    7575.8274    4317.6314    7230.6202    3502.9657    351.46667    1234.3817    807.46165    -2972.144 
10020000    240.54423   -3977.4522   -3565.1676   -3977.4522            0    4108.3486    17.406464    20.502516    21.235846    7578.5703    4299.5225     5616.067    2409.4563    559.15063   -340.36581    951.57254   -3111.0896 
10021000     255.6818   -3978.4631   -3540.2333   -3978.4631            0    4530.6065    17.377631    20.468554    21.200669    7540.9714    4254.9064    6583.0312    2753.8819    1218.6697    -220.5631     893.4016   -3041.9692 
10022000    251.06602   -3942.5931   -3512.2746   -3942.5931            0    3570.5033    17.455288    20.560023     21.29541    7642.5204    5121.3929    2889.1467    2700.9702     1017.437   -248.65475    584.13294   -3114.3123 
10023000    234.45841   -3956.3261   -3554.4724   -3956.3261            0    1921.7603    17.530065      20.6481    21.386638    7741.1616    3427.6089   -89.477471    2427.1493   -1291.4992    -295.3522   -1386.7736   -3337.5116 
10024000    254.63582   -3915.8488   -3479.4117   -3915.8488            0    3207.6913    17.544289    20.664855    21.403991    7760.0208    3082.3318    3784.0601    2756.6821   -909.02858    1397.2669    1090.7875   -3116.3911 
10025000    241.07717    -3902.354    -3489.156    -3902.354            0    3207.1455    17.489856     20.60074    21.337584    7688.0165    3898.6203    3757.7153     1965.101   -969.02708   -14.657067    1711.5445    -3129.565 
10026000    264.18257   -3903.9615   -3451.1616   -3903.9615            0    4347.1518    17.479822    20.588922    21.325342    7674.7922    3053.6936    4955.3292    5032.4327   -191.42903    141.55041   -1345.5366   -2964.5894 
10027000    252.42305   -3884.5321   -3451.8876   -3884.5321            0    5969.9081    17.362489    20.450719    21.182196    7521.2765    7614.2883    3910.1495    6385.2866    56.582726    568.14135   -1418.4968   -2797.0477 
10028000     233.2862   -3930.1618   -3530.3173   -3930.1618            0    2446.8715    17.427935    20.527806    21.262041    7606.6497    2478.7524    2257.2301    2604.6321     -623.827    12.324001    329.51232   -3258.8731 
10029000    242.11236   -3967.5842   -3552.6119   -3967.5842            0    2735.5391    17.483277    20.592991    21.329557    7679.3434    4171.7435    1778.0393    2256.8347    621.31756    -514.4673    383.07951   -3246.2442 
10030000    243.64831   -3906.3338   -3488.7289   -3906.3338            0    3373.9892    17.507545    20.621576    21.359164    7711.3666    3348.1739    2450.1278    4323.6658    -1022.025   -650.14506    298.89456   -3109.2821 
10031000    254.68379   -3935.1186   -3498.5993   -3935.1186            0     3231.953    17.397003    20.491371    21.224303    7566.2186    3131.5557    3217.3983    3346.9049    473.49224   -596.64194   -268.65667   -3141.9677 
10032000    255.80188   -3937.6583   -3499.2227   -3937.6583            0     2237.232    17.435888    20.537173    21.271742    7617.0671    1935.0941    2479.7455    2296.8563    641.14822   -709.81283   -429.42294    -3250.695 
10033000    254.68154   -3952.1864    -3515.671   -3952.1864            0    2222.1759    17.464069    20.570366    21.306123    7654.0604    2995.7754    620.27488    3050.4774    230.83943    383.82459   -656.99258    -3267.617 
10034000    236.42584   -3941.6731   -3536.4473   -3941.6731            0     3730.705    17.395026    20.489043    21.221892    7563.6403    3986.2847     3810.017    3395.8132   -892.91138   -272.64306   -252.13535   -3124.9209 
10035000     235.4122   -3954.6056   -3551.1172   -3954.6056            0     3052.283    17.338248    20.422166    21.152622    7489.8168    3053.2735    2992.3318    3111.2436    428.43664   -144.46264   -1819.8255   -3217.7123 
10036000    243.97401   -3948.7389   -3530.5757   -3948.7389            0    5204.4175    17.332335    20.415202    21.145409    7482.1573    4739.2419    5995.8202    4878.1904    739.78883    1803.5398    389.39181   -2962.6718 
10037000    246.77706   -3932.5011   -3509.5336   -3932.5011            0    4455.2489    17.358563    20.446095    21.177407    7516.1756    2918.0215     4270.245    6177.4802    1168.6313    1402.4258    2274.3542   -3021.1683 
10038000    244.82988    -3912.271    -3492.641    -3912.271            0    2381.5059    17.451813     20.55593    21.291171    7637.9574    2305.1621    3609.4182    1229.9373   -1543.1508   -64.584822   -1092.2857   -3227.3608 
10039000    253.30255   -3921.6409    -3487.489   -3921.6409            0    4347.4224    17.273073    20.345399    21.073109    7405.6714    5221.1357    3287.8057    4533.3257    -1550.277   -311.99149    114.62764   -3017.9495 
10040000    245.81466   -3920.8733   -3499.5554   -3920.8733            0    1796.9718    17.423822     20.52296    21.257022    7601.2642      813.682    2240.6138    2336.6197    138.30881   -189.24711   -701.56891   -3300.3491 
10041000    240.40545   -3909.6415   -3497.5947   -3909.6415            0    2168.4699    17.374533    20.464905    21.196889    7536.9389    2174.4744    2436.1093    1894.8262    314.46579   -645.78299    173.51666   -3259.2397 
10042000    249.15334   -3936.5445   -3509.5042   -3936.5445            0    3521.0418    17.323879    20.405242    21.135092    7471.2116    6148.3162    2026.4095    2388.3997   -78.416517     464.7526    734.03413   -3125.8517 
10043000    246.99576   -3902.0121   -3478.6698   -3902.0121            0     4021.418    17.355101    20.442017    21.173183    7511.6791    4418.5669     4979.141     2666.546    38.024761   -300.14338   -1047.0809   -3038.1229 
10044000    255.59898    -3928.668   -3490.5801    -3928.668            0    3730.7118    17.395072    20.489097    21.221947       7563.7    3986.8343     2563.117    4642.1842   -156.29369    572.93277    1107.2245   -3079.0497 
10045000    244.81649   -3957.8131    -3538.206   -3957.8131            0    5131.2115    17.365253    20.453974    21.185568    7524.8689    4203.4724    5454.2642     5735.898   -429.33378   -1155.4352    1154.3623    -2975.094 
10046000    252.68656   -3912.9641   -3479.8679   -3912.9641            0    4154.9399    17.418395    20.516569    21.250401    7594.1647    3947.5032    3557.1421    4960.1744   -19.967595   -921.16376   -794.88304   -3019.6955 
10047000    244.67306   -3934.7567   -3515.3954   -3934.7567            0    2807.5071    17.394693     20.48865    21.221484     7563.205    3271.6295    2851.1415    2299.7502      1135.74    384.10232   -693.94585   -3205.7229 
10048000    243.83046   -3911.2716   -3493.3546   -3911.2716            0     4118.008    17.382128     20.47385    21.206155    7546.8269    4870.4029    4178.3208    3305.3005   -45.847238    1361.8143    708.97652   -3040.1153 
10049000     251.8765   -3919.6867    -3487.979   -3919.6867            0    5350.9247    17.370764    20.460465    21.192291    7532.0351    3424.6045    8356.3349    4271.8346   -1091.7499   -585.33754    902.66356   -2900.1959 
10050000    241.72714   -3923.4415   -3509.1295   -3923.4415            0    3985.7102    17.355582    20.442583     21.17377    7512.3038    3442.8823    5466.5391    3047.7094   -356.13871   -51.063763    546.67664   -3072.4581 
10051000    255.64431   -3909.2022   -3471.0366   -3909.2022            0    3651.6484    17.406756    20.502859    21.236202    7578.9513    3339.5854    3421.5945    4193.7654    236.92463     2948.073   -2478.0497   -3067.4154 
10052000    249.61645   -3928.6155   -3500.7815   -3928.6155            0    3508.9437    17.322102    20.403148    21.132924    7468.9123    3670.2722    2482.2565    4374.3022   -1241.8715    613.39377     1155.641   -3118.5648 
10053000    225.32307   -3905.3799   -3519.1839   -3905.3799            0    4964.6455    17.376928    20.467725    21.199811    7540.0559    5722.9987    5096.4901    4074.4477    302.66449   -553.27518    610.28963   -2973.2517 
10054000    260.97678   -3932.5336   -3485.2283   -3932.5336            0    4065.7506    17.402185    20.497476    21.230625    7572.9826    5999.0177     1957.817    4240.4171   -905.95685    847.80517    1775.0743   -3036.1898 
10055000    246.47182   -3919.3977   -3496.9535   -3919.3977            0    5371.7508    17.352496    20.438949    21.170005    7508.2977    5595.6017    5533.7061    4985.9447    308.04694    72.085258   -470.02048   -2908.7423 
10056000    259.22404   -3907.3018   -3463.0007   -3907.3018            0    3885.3023    17.404107    20.499739     21.23297     7575.492    4380.8025    2586.2938    4688.8106    211.95264   -306.82727    109.61642   -3033.7495 
10057000    255.76112   -3933.9438    -3495.578   -3933.9438            0    3779.3747    17.362076    20.450232    21.181692    7520.7393    3410.2336    4787.2742    3140.6162   -661.91514      -967.24    848.08154   -3081.0476 
10058000    248.15411   -3927.8269   -3502.4992   -3927.8269            0    4421.9626     17.40812    20.504465    21.237865    7580.7325    5337.5101    3687.5833    4240.7946     552.4433    -89.21359   -855.66936   -3013.6194 
10059000    254.67797   -3940.2524   -3503.7431   -3940.2524            0    3021.3484    17.431189    20.531638     21.26601    7610.9104    3596.7436    3059.2821    2408.0197   -43.418759   -164.35219   -1590.5872   -3168.3815 
10060000    231.86841   -3921.8817   -3524.4672   -3921.8817            0    3671.4361    17.421438    20.520153    21.254114    7598.1456    3213.4747    3457.4278    4343.4058    1151.0259   -356.64484   -1045.8902   -3117.6311 
10061000    248.66919   -3910.0763   -3483.8658   -3910.0763            0    5153.7439    17.387656    20.480362      21.2129    7554.0299    7068.1708    3743.2933    4649.7677    241.10455    1593.7302    807.06269   -2916.0893 
10062000    249.43065   -3908.8137   -3481.2981   -3908.8137            0    3581.7403    17.463388    20.569565    21.305293    7653.1658    1965.4712    4435.3524    4344.3972   -2239.5838   -976.59943    565.14482   -3081.5273 
10063000    255.35275    -3904.334   -3466.6681    -3904.334            0    2916.3893    17.492512    20.603869    21.340824    7691.5196    2768.3764    4863.9264    1116.8651    95.644036    434.41953   -388.90208   -3139.5282 
10064000    238.08143   -3907.1036   -3499.0402   -3907.1036            0    6376.7283    17.385616     20.47796    21.210411     7551.372     6349.863    6788.5667    5991.7551    347.43676    672.71317    502.90722   -2796.7774 
10065000    234.04177   -3943.6337   -3542.4941   -3943.6337            0    4142.5677    17.429574    20.529736     21.26404    7608.7959    5741.9405    3108.0966    3577.6661    923.07735     -534.416    91.402429    -3082.808 
10066000    254.28293   -3910.7112   -3474.8789   -3910.7112            0    4795.9563    17.400208    20.495147    21.228213    7570.4018    6048.2342    3872.5488    4467.0859   -1389.2304   -480.16687   -346.15048    -2945.374 
10067000    230.01033   -3940.9416   -3546.7118   -3940.9416            0    3036.8669    17.468667    20.575782    21.311733    7660.1078    3165.9955    1877.2865    4067.3189    390.23835    1414.2238   -887.65997   -3207.4487 
10068000    247.07718   -3922.7732   -3499.2914   -3922.7732            0    2622.0474    17.471935    20.579631    21.315719    7664.4074    2177.9783     2052.606    3635.5579    1557.4519   -316.50136   -619.75689   -3206.2054 
10069000    233.29359   -3952.8361   -3552.9789   -3952.8361            0    2127.3263    17.452441     20.55667    21.291937     7638.782    1450.3021    2302.1782    2629.4986    810.56619    122.95842   -2057.1492   -3315.9866 
10070000    248.66777   -3930.9487   -3504.7406   -3930.9487            0    2598.2229    17.417809    20.515878    21.249686    7593.3979    3855.7541    529.53242    3409.3822   -1491.2747    -941.9378   -911.07415   -3217.0084 
10071000    245.67853   -3932.0574   -3510.9728   -3932.0574            0    4009.1682    17.355426    20.442399    21.173579    7512.1005    4771.4693    3731.9329    3524.1024   -1406.3015    165.19456    486.29112   -3071.7433 
10072000    268.13359   -3905.8356   -3446.2638   -3905.8356            0    2511.8114     17.48695    20.597317    21.334038    7684.1843     3759.194      2079.06    1697.1802    1978.8541   -623.94235     281.1161   -3164.7753 
10073000    242.00216   -3948.1038   -3533.3204   -3948.1038            0    3957.3168    17.513892    20.629052    21.366908    7719.7569    4507.2435    4082.4162    3282.2908    1379.0488    29.751977    194.93567   -3087.7869 
10074000    258.89961   -3964.9407   -3521.1956   -3964.9407            0    2578.8452     17.48326    20.592971    21.329537    7679.3219    626.91196    4315.3286    2794.2951   -966.48745   -637.58078   -1051.2125   -3232.3777 
10075000    250.69637   -3929.6568   -3499.9718   -3929.6568            0    2482.5392    17.404088    20.499717    21.232947    7575.4669    2655.5142    3206.5484    1585.5551    1286.9645    137.06099    1074.4004   -3225.6998 
10076000    234.13773   -3908.8996   -3507.5956   -3908.8996            0    3558.6906    17.451426    20.555475    21.290699    7637.4499    3551.9235    3451.2162    3672.9321    213.87197   -21.511067    1723.5333   -3111.2131 
10077000    245.80632   -3959.8545   -3538.5509   -3959.8545            0     4670.173    17.361568    20.449634    21.181073    7520.0799    4192.1545    5281.8817    4536.4829    586.47654    710.22029   -676.77632   -3026.3606 
10078000    261.59386   -3909.4821   -3461.1191   -3909.4821            0    1457.7117    17.482463    20.592033    21.328565    7678.2717     1208.217    2332.1489     832.7694   -198.58889    1894.9057    251.04372    -3297.885 
10079000    250.59554   -3950.1085   -3520.5963   -3950.1085            0     4326.191    17.404981    20.500768    21.234036    7576.6325    4973.6774    4477.8081    3527.0874   -61.176687    819.31148   -74.380711   -3042.5634 
10080000    259.26337   -3923.6948   -3479.3263   -3923.6948            0    1722.4614    17.583017    20.710471    21.451239    7811.5236    1000.3863    1579.4441    2587.5537   -354.59976   -392.86951   -416.15388   -3283.0982 
10081000    246.90445   -3951.8542   -3528.6684   -3951.8542            0    3490.7603    17.485164    20.595213    21.331859    7681.8303    2688.0433    3304.8509    4479.3868   -900.82881   -2033.3638    344.69737   -3137.5929 
10082000    247.91436   -3968.4772   -3543.5605   -3968.4772            0     4332.405    17.422233    20.521089    21.255083    7599.1853    5063.9687    4745.9199    3187.3263    800.55838    1591.4258    159.56563    -3063.416 
10083000    226.61327   -3907.9898   -3519.5824   -3907.9898            0    3684.2339    17.430288    20.530577    21.264911    7609.7307    2901.0719    4792.2072    3359.4225   -294.22988    167.66432    1155.8181   -3110.7057 
10084000    270.64503   -3917.7263     -3453.85   -3917.7263            0    4114.7203    17.450672    20.554587    21.289779    7636.4598    2756.1332    4357.3309     5230.697   -2.6216933    237.44148   -516.76656   -2995.5939 
10085000    252.99055   -3955.3875   -3521.7704   -3955.3875            0    4273.0958    17.391704     20.48513    21.217839    7559.3075    5320.3794     3567.853    3931.0551    -1273.278    487.37416    246.68489    -3050.684 
10086000    240.58562   -3917.6454   -3505.2899   -3917.6454            0    2968.4144    17.518994    20.635061    21.373132    7726.5051    2460.5206    3650.9638    2793.7588    133.52578    1171.0329   -430.30701   -3170.7996 
10087000    252.84404   -3920.0005   -3486.6345   -3920.0005            0    4326.7214    17.458312    20.563585      21.2991    7646.4936    3337.7542     6038.799    3603.6112    679.46837    805.64831    536.88714   -3004.1346 
10088000     255.7684   -3877.6836   -3439.3053   -3877.6836            0    4185.8263    17.454564     20.55917    21.294527    7641.5695    4423.3679    4957.0161    3177.0948   -134.77193    917.81014     1469.668   -2972.8182 
10089000    230.72051    -3936.977   -3541.5299    -3936.977            0    4021.8792    17.458278    20.563546    21.299059    7646.4494    5764.7969    3186.9811    3113.8596   -434.93077    -1022.341   -693.55725   -3093.0275 
10090000    241.51546   -3902.9272   -3488.9779   -3902.9272            0    5110.7547     17.35596    20.443028     21.17423    7512.7942    4174.0302    6533.2619     4624.972    1324.2252   -11.725016   -2371.7457    -2929.011 
10091000    232.27379   -3925.7662   -3527.6569   -3925.7662            0    4296.5815    17.431113    20.531549    21.265917    7610.8113    3639.2432    3591.9474    5658.5537     634.5536   -421.03499   -2151.7097    -3050.754 
10092000     258.5418   -3926.8038    -3483.672   -3926.8038            0    4770.1014    17.464054    20.570349    21.306105    7654.0412    4385.5183    6521.3516    3403.4344     1642.708   -268.18891   -483.28717    -2951.203 
10093000    248.74642   -3958.5599   -3532.2171   -3958.5599            0    2608.4678    17.438638    20.540413    21.275098    7620.6727    4542.9477    1843.0895    1439.3663   -535.98865    864.37034   -1779.4109   -3242.3128 
10094000    233.07601   -3928.4827   -3528.9984   -3928.4827            0    3730.0058    17.427722    20.527555     21.26178    7606.3705    4376.9694    4086.4664    2726.5814    1332.5634    116.91723    173.43058   -3115.2247 
10095000    246.57723   -3954.5904   -3531.9655   -3954.5904            0    4219.5299    17.370096    20.459679    21.191477    7531.1668    5834.4471    4564.1236     2260.019    547.83205    1098.3183   -1422.4911   -3068.5162 
10096000    260.38382   -3956.8434   -3510.5544   -3956.8434            0    4583.3529      17.3313    20.413982    21.144146    7480.8166    3377.1948    5099.6889     5273.175   -1168.5138    300.40526    479.18837   -3010.5104 
10097000    255.45385   -3956.4095   -3518.5704   -3956.4095            0    2491.7883    17.453564    20.557993    21.293307    7640.2566    2796.9337    861.02947    3817.4018   -1390.4874   -839.08781    836.42194   -3240.9221 
10098000    231.35065   -3937.6397   -3541.1126   -3937.6397            0    4029.8406    17.429287    20.529397    21.263689    7608.4189    4804.9056    3053.1076    4231.5086   -118.20708   -1012.1535   -1076.8728   -3093.9575 
10099000    246.52097   -3931.6829   -3509.1544   -3931.6829            0    2613.2211    17.423701    20.522818    21.256874    7601.1064     2897.807    1122.6564    3819.1999   -764.29372    114.49162   -270.85564   -3219.4675 
10100000    242.34906   -3939.1272   -3523.7492   -3939.1272            0    3024.7089    17.383527    20.475499    21.207863    7548.6502    2630.1361    4000.3238    2443.6669   -998.53808    742.27541    767.36267   -3190.7611 
10101000    241.45665   -3963.6882   -3549.8398   -3963.6882            0    4838.4541    17.391258    20.484604    21.217294    7558.7254    3160.3509    6818.3425    4536.6688     1440.518    318.30581   -1638.5961   -3016.4667 
10102000    253.55797   -3945.5549   -3510.9652   -3945.5549            0    4504.0397    17.444371    20.547165    21.282092    7628.1911    3248.8789    4623.9723    5639.2679    526.33445    204.03984   -505.34034   -3009.8938 
10103000    246.65281   -3928.3111   -3505.5566   -3928.3111            0    2879.0708    17.454832    20.559487    21.294855    7641.9224    2619.4612    3364.7455    2653.0057    268.80806   -26.961764     124.2983   -3184.6853 
10104000    246.60041   -3944.2033   -3521.5386   -3944.2033            0    1967.5327    17.510778    20.625384    21.363109    7715.6396    3544.0433     1376.239     982.3157   -798.25935   -683.28949   -186.92705   -3300.1426 
10105000    253.45092   -3900.2659   -3465.8597   -3900.2659            0    3346.1608    17.396642    20.490946    21.223862    7565.7474    3084.6179    3858.5286    3095.3357    845.21494    831.28931   -590.07093   -3096.6488 
10106000    244.92449     -3966.06   -3546.2679     -3966.06            0    3806.1162    17.409623    20.506236    21.239699    7582.6962    3521.1015    3652.3912    4244.8559      729.371   -1523.3785   -1174.9346   -3125.3653 
10107000    235.03327   -3936.2649   -3533.4259   -3936.2649            0    2218.4192    17.484792    20.594775    21.331405    7681.3398    912.41974    3575.2791    2167.5588   -32.748995    1512.8441    534.74532   -3284.9087 
10108000    238.15054   -3917.1022   -3508.9203   -3917.1022            0    3154.6396    17.497502    20.609746    21.346912    7698.1038    792.84868    4579.3574    4091.7128    -1876.372    515.45106    125.28262   -3154.7522 
10109000    251.17699   -3937.2707    -3506.762   -3937.2707            0    1710.0861    17.453469    20.557881    21.293192    7640.1323    1342.8616    1557.9145    2229.4822   -279.94283   -445.61832   -737.81489   -3316.2182 
10110000    236.81981   -3925.1569   -3519.2558   -3925.1569            0    2394.2158    17.493382    20.604893    21.341885    7692.6669    3618.1508    441.41222    3123.0843   -369.20898   -1040.6196   -2702.7541   -3250.6496 
10111000    249.98902   -3934.9525   -3506.4799   -3934.9525            0    3244.3211    17.423796    20.522931    21.256991    7601.2314    1873.8787    3488.8079    4370.2767    90.160692    586.77303   -1521.7841   -3146.8269 
10112000    251.51996   -3936.9711   -3505.8745   -3936.9711            0    3663.1198    17.474018    20.582085    21.318261    7667.1488    2859.1124     5794.341    2335.9061   -281.36309   -547.41922   -628.07343   -3096.2736 
10113000    249.51843    -3957.683    -3530.017    -3957.683            0    2747.7067    17.478015    20.586793    21.323138    7672.4121    1151.8227    3936.4753    3154.8223    686.07008   -924.87417    700.69648   -3222.5644 
10114000    253.05206   -3920.0673   -3486.3448   -3920.0673            0    4640.0321    17.463487    20.569681    21.305414    7653.2959    4891.4923    3426.3358    5602.2683    1091.1281   -848.94368   -14.011926   -2968.4454 
10115000    254.12116   -3914.2587   -3478.7038   -3914.2587            0    2099.4393    17.461092     20.56686    21.302491    7650.1471    895.50718    1390.5763    4012.2345     256.3727    1312.8108    1422.0779   -3244.4703 
10116000    241.73872   -3946.6716   -3532.3397   -3946.6716            0    2835.3901    17.594686    20.724217    21.465476    7827.0874    2527.6548    3581.5536    2396.9619    197.67763    224.93427    1511.4376   -3208.6798 
10117000    243.96744   -3986.7173   -3568.5654   -3986.7173            0    1505.4502    17.563576    20.687572    21.427521    7785.6415    1945.6842    61.465497     2509.201   -556.79318    823.66775   -454.41786   -3397.6282 
10118000      246.117   -3968.8078   -3546.9716   -3968.8078            0    4319.4144    17.504959    20.618529    21.356009    7707.9495    3682.1409    4086.1052    5189.9971    505.46715    1192.3138    -561.5213   -3061.4153 
10119000    250.54075   -3926.1773    -3496.759   -3926.1773            0    4753.1012    17.413572    20.510887    21.244517    7587.8575    3433.2208    4438.1835    6387.8991    1010.5136   -699.07904   -14.286535   -2970.7755 
10120000    242.28222   -3931.2397   -3515.9762   -3931.2397            0    4502.4988    17.451991     20.55614    21.291388    7638.1914    6481.5373    4737.8754    2288.0837    449.01774   -364.25287   -696.59853   -3014.4195 
10121000    244.53993   -3928.4814   -3509.3483   -3928.4814            0    4004.3822    17.461122    20.566895    21.302528    7650.1863    4344.9714    5733.5396    1934.6356    1417.7196    1365.5869    49.724223   -3062.5789 
10122000    249.65406   -3886.1511   -3458.2526   -3886.1511            0    2192.1424    17.548567    20.669893     21.40921    7765.6987    1961.0763    1800.4752    2814.8756   -664.23376   -394.70472   -391.42842    -3209.982 
10123000    239.82363   -3955.8254   -3544.7759   -3955.8254            0    4089.1925    17.439534    20.541468    21.276191    7621.8474    3039.6546    3117.7155    6110.2073   -908.07989     1374.256   -1467.3462   -3090.2343 
10124000    250.00831   -3922.3207    -3493.815   -3922.3207            0    2796.3184    17.461116    20.566888     21.30252    7650.1783    1798.5696    2185.1333    4405.2524    398.14694    737.12936    438.22356   -3181.8297 
10125000    243.64018   -3886.0187   -3468.4278   -3886.0187            0     3464.476    17.474051    20.582124    21.318301    7667.1926    2147.2226    6710.3565    1535.8489    794.93521   -854.35529   -566.98819   -3081.0365 
10126000    244.07956   -3929.8473   -3511.5033   -3929.8473            0    3681.0762    17.491218    20.602345    21.339245    7689.8127    2369.1124    3222.9293    5451.1869    704.59681    -239.7219    796.60079   -3098.6779 
10127000    255.07116   -3944.1277   -3506.9445   -3944.1277            0    2692.8938    17.445326     20.54829    21.283257    7629.4434    4136.6379     1479.345    2462.6986    172.09123    765.02605    721.59718   -3207.3126 
10128000    261.20051   -3949.0675   -3501.3787   -3949.0675            0    4264.2696    17.409889    20.506549    21.240024    7583.0441    3388.8402    3406.3873    5997.5811   -616.30093    -152.4085    692.90901   -3029.7892 
10129000     254.3345   -3922.8623   -3486.9417   -3922.8623            0    3110.8199    17.448052      20.5515    21.286582    7633.0202    5143.8579    2068.3665    2120.2353    288.29051    955.33639   -97.702517   -3140.6459 
10130000    232.82843   -3939.0639   -3540.0039   -3939.0639            0    6684.7814      17.3011    20.378411    21.107302    7441.7787    7814.4828    6375.2509    5864.6106   -1283.7979    297.53971   -1440.3694   -2814.4999 
10131000    232.44586   -3955.9469   -3557.5426   -3955.9469            0    4565.3627    17.412915    20.510114    21.243716    7586.9992    4782.2312    3065.7331    5848.1237   -264.34898    954.80875   -251.09487   -3052.3916 
10132000    255.12919     -3930.76   -3493.4773     -3930.76            0     3199.445    17.500234    20.612964    21.350245    7701.7101    3168.2077     2196.749    4233.3783    804.63569    1806.7506    299.07748   -3134.1107 
10133000    241.44551   -3935.1803   -3521.3509   -3935.1803            0    1748.7144     17.49279    20.604196    21.341162    7691.8854    2396.3797    245.46734    2604.2961    -164.4306    155.00797   -288.27176   -3325.1832 
10134000    243.68127    -3962.639   -3544.9776    -3962.639            0    3287.6007    17.432579    20.533276    21.267706     7612.732    3558.9368    2458.5817    3845.2836    -1195.457    127.44531    1182.5093   -3179.9754 
10135000    230.19021   -3944.2241    -3549.686   -3944.2241            0    4187.1128     17.42814    20.528047     21.26229    7606.9175     2576.796    5621.1162    4363.4263   -674.43527    1091.7387   -756.51228   -3085.1715 
10136000    244.50816   -3929.3319   -3510.2533   -3929.3319            0    2437.9462    17.466148    20.572815     21.30866    7656.7948    1547.8595    2457.9847    3307.9946   -940.03816    328.41334    253.05668   -3238.0164 
10137000    245.37187   -3950.3966   -3529.8376   -3950.3966            0    3872.4156    17.422701     20.52164    21.255654    7599.7977    4022.3031    4357.4205    3237.5232   -851.78912   -843.64766    259.35728   -3100.6374 
10138000    248.21748   -3923.1812   -3497.7449   -3923.1812            0    2927.1305    17.394927    20.488926     21.22177    7563.5106     1974.639    2566.0738    4240.6788   -1493.5598    55.491015   -1030.8835   -3174.8647 
10139000    230.91591    -3952.221    -3556.439    -3952.221            0    2235.6688    17.399832    20.494704    21.227755    7569.9111    2555.6181    2091.5598    2059.8284   -1437.0103    -809.8115    953.17712   -3309.6225 
10140000    248.99916   -3932.5478   -3505.7717   -3932.5478            0    3088.6152     17.34932    20.435207     21.16613    7504.1752    3209.1612    2568.4383     3488.246    604.24366    -1238.772    1003.9717   -3167.7515 
10141000     255.4775   -3965.1827    -3527.303   -3965.1827            0    2971.5271    17.401344    20.496484    21.229599     7571.884    2367.7385    2004.8837    4541.9591    811.47814    1284.8715    836.47964   -3199.1627 
10142000    233.18819   -3906.5191   -3506.8425   -3906.5191            0    2376.2223    17.421486    20.520209    21.254172    7598.2074     1924.067     3924.826    1279.7737    -415.9395   -418.99596   -355.63398   -3243.5285 
10143000    233.88286   -3912.1637   -3511.2964   -3912.1637            0    3589.2761    17.382795    20.474637    21.206969    7547.6965    2080.7702    4998.1068    3688.9513    66.735512    1194.4147   -1461.1502   -3116.2054 
10144000    244.88096   -3927.9924   -3508.2748   -3927.9924            0    3311.0611    17.380954    20.472468    21.204723    7545.2982    3607.7452    3030.3026    3295.1354    1725.2584    337.04453   -112.41622   -3143.9242 
10145000    261.42647   -3946.0701   -3497.9941   -3946.0701            0    5256.4197    17.306304     20.38454     21.11365    7448.4957    5101.2971    4075.1102    6592.8518    627.55598    699.25383    648.15604   -2926.9962 
10146000    244.65501   -3943.1981   -3523.8678   -3943.1981            0    2275.0674    17.294292    20.370392    21.098996    7432.9973    3793.3629    2375.1436    656.69569    1129.8942    646.89744   -222.45752   -3277.2445 
10147000    227.72785   -3933.9161   -3543.5984   -3933.9161            0    1963.0021     17.38245     20.47423    21.206548    7547.2466      959.747    2145.6025    2783.6567   -548.95048   -207.78032    307.58527    -3327.533 
10148000    229.41282   -3921.6156   -3528.4099   -3921.6156            0    3811.8844    17.334906    20.418229    21.148544    7485.4864    3818.1794    3243.6473    4373.8264    1098.0264    -923.5007      -243.95   -3112.2736 
10149000    254.01293   -3901.0625    -3465.693   -3901.0625            0    3635.9209    17.469338    20.576573    21.312551    7660.9906    3639.8435    4962.0558    2305.8635   -1049.8192     180.8719   -26.698996     -3059.46 
10150000    244.27998   -3933.6327   -3514.9452   -3933.6327            0    3963.7312     17.43867     20.54045    21.275136    7620.7139     2780.042    4186.9174    4924.2343    350.29094   -2377.7147   -841.63147    -3074.415 
10151000    258.66922   -3931.2539   -3487.9037   -3931.2539            0    2674.0574    17.466476    20.573202     21.30906    7657.2266    2795.0558    2749.3348    2477.7815     506.2506   -786.32068    601.50661   -3189.2842 
10152000    236.94831   -3930.0626   -3523.9413   -3930.0626            0    2132.9533    17.512506    20.627419    21.365216    7717.9233    1707.9739    1598.5072    3092.3789    2127.9344    796.48707     327.0559   -3283.8604 
10153000    240.44723    -3904.246   -3492.1277    -3904.246            0    4408.5376    17.367573    20.456707    21.188398    7527.8852    3501.8496    4042.0495    5681.7139   -801.28487   -245.04892    1439.1265   -3008.1299 
10154000     245.7168   -3954.3093   -3533.1591   -3954.3093            0    4887.4687    17.396678    20.490989    21.223907    7565.7949    3742.1903    4790.5997    6129.6161    -932.7392    499.75429   -1532.7047   -2993.8789 
10155000    239.49222   -3924.3305    -3513.849   -3924.3305            0    3155.6287    17.356996    20.444248    21.175494    7514.1394    1647.5751    797.83958    7021.4714    46.372474    123.09544    326.42827   -3168.0362 
10156000     229.1994    -3932.839    -3539.999    -3932.839            0    4889.8571     17.19731     20.25616    20.980678    7308.6499    5864.9658    4421.1285    4383.4769   -461.66855     34.95104    1134.9244   -3018.7933 
10157000    236.48888   -3902.4735   -3497.1397   -3902.4735            0    4239.8199    17.295524    20.371843    21.100499    7434.5853     4574.426     4150.113    3994.9206    583.65057   -491.57814    1915.0173   -3037.4338 
10158000    251.39061   -3948.1607   -3517.2858   -3948.1607            0    2902.5523    17.348575     20.43433    21.165222     7503.209    3626.0745    1604.0163    3477.5663    276.17207   -783.84055   -1815.8722   -3199.6694 
10159000    247.83232   -3929.0001    -3504.224   -3929.0001            0    2383.8333    17.301995    20.379464    21.108393     7442.933    3316.3212    3393.7024    441.47638   -1019.1601    532.67556   -1416.2002   -3245.4647 
10160000    257.70092   -3921.0953   -3479.4047   -3921.0953            0    2882.6281    17.324957     20.40651    21.136406    7472.6054     1687.429    2044.2962     4916.159    280.82624      843.631   -601.54118   -3165.2551 
10161000    231.20639   -3913.1847   -3516.9049   -3913.1847            0    2167.1435    17.332711    20.415644    21.145867    7482.6435     2430.944    1701.4782    2369.0083    581.33756    476.32251   -183.80766   -3280.4117 
10162000    249.17775   -3939.8315   -3512.7493   -3939.8315            0    4053.7374    17.331219    20.413887    21.144047    7480.7121    4732.4095    2772.0802    4656.7226   -210.62024   -461.57048   -1214.6789   -3070.4926 
10163000    249.33987   -3917.8924   -3490.5324   -3917.8924            0    1533.1685    17.466646    20.573401    21.309267    7657.4491    1783.2635    1789.4811     1026.761     167.9707   -574.37253    235.49125   -3319.3142 
10164000    252.05154   -3950.8105   -3518.8028   -3950.8105            0    5764.1556    17.362916    20.451222    21.182717    7521.8314    7276.6363    3688.8105    6327.0201   -721.72876   -1596.8245   -502.18895   -2886.4853 
10165000     245.2235   -3940.6682   -3520.3635   -3940.6682            0    2513.5657     17.51443    20.629685    21.367564    7720.4682    3991.3039      1536.58    2012.8132   -440.49534   -881.43919   -1172.0236   -3237.3483 
10166000    240.70962   -3901.9189   -3489.3509   -3901.9189            0    5506.3041    17.421065    20.519713    21.253658    7597.6566    6162.4993    5491.3207    4865.0922   -1679.8441   -273.78296    116.77834   -2879.2302 
10167000    243.79834   -3960.6725   -3542.8104   -3960.6725            0    3679.4402    17.430805    20.531186    21.265541    7610.4078    3452.1932    2636.7171    4949.4103     1239.914   -486.82435    1094.5474   -3134.4294 
10168000    258.77674   -3926.1026   -3482.5681   -3926.1026            0    1777.1298    17.534649      20.6535     21.39223    7747.2362     1890.778    551.43125      2889.18   -777.67693    -510.2411   -616.23851   -3281.7782 
10169000    243.32375   -3900.9113   -3483.8627   -3900.9113            0    4656.2515    17.451435    20.555486    21.290711    7637.4619    3038.2316    6270.3063    4660.2167     331.5498   -262.87155   -641.50882   -2965.2283 
10170000    247.39497   -3952.8167   -3528.7902   -3952.8167            0    1934.1857    17.554592     20.67699    21.416561       7773.7    1866.3667    633.99724    3302.1932    -671.2411    643.75968    587.67847   -3309.5088 
10171000    244.44277   -3949.9403   -3530.9737   -3949.9403            0    2625.5953    17.511084    20.625743    21.363481    7716.0432    4270.7326      1721.08    1884.9734   -1167.1611     859.1054    52.023798    -3235.514 
10172000    253.14081   -3972.4546     -3538.58   -3972.4546            0    4221.7996    17.459413    20.564883    21.300444    7647.9411    4749.4026     4248.883    3667.1133     1371.688    24.493608   -1737.5388   -3067.6915 
10173000    233.71675   -3921.8276   -3521.2451   -3921.8276            0    4169.5989    17.418562    20.516765    21.250605    7594.3827    5173.4818    4757.3486    2577.9662   -284.50304    925.42083   -333.71735   -3059.4359 
10174000    231.82847   -3921.4648   -3524.1188   -3921.4648            0     2826.443    17.545497    20.666278    21.405465     7761.624     4742.354    3346.8252    390.14995   -438.99413     59.64774    1151.6014   -3204.1786 
10175000     256.4958   -3950.0995   -3510.4745   -3950.0995            0    3770.3197    17.497695    20.609974    21.347148    7698.3588    4390.0409    5377.5961    1543.3221   -799.18989   -1991.5238    315.55018   -3087.1706 
10176000    231.06341   -3937.1303   -3541.0955   -3937.1303            0    5378.4927    17.473105     20.58101    21.317148     7665.948    5786.9005    4818.5177      5530.06   -145.10696   -32.297407   -959.30404   -2939.7801 
10177000     242.4074   -3919.5865   -3504.1085   -3919.5865            0    4374.3522    17.520932    20.637344    21.375497    7729.0699    4265.9487    3835.0925    5022.0154   -683.64488   -550.72419   -945.98377   -3011.0291 
10178000     248.9174   -3943.5063   -3516.8704   -3943.5063            0    2093.5749    17.518058    20.633959     21.37199    7725.2671    724.85462    1682.2423    3873.6279   -835.38743   -113.21591    47.467197   -3280.9976 
10179000    246.55144    -3947.433   -3524.8523    -3947.433            0    2725.1297     17.49036    20.601333    21.338198    7688.6804    1898.5569    2411.0211     3865.811   -140.57069   -878.81982   -215.83677   -3219.2794 
10180000    240.25813    -3959.798   -3548.0038    -3959.798            0    1873.3776    17.581223    20.708358    21.449051    7809.1332    984.53359    2663.9978    1971.6014   -33.695781   -1039.8545    209.27384   -3334.6482 
10181000    249.13117   -3938.8438   -3511.8415   -3938.8438            0    3310.6367    17.458919      20.5643     21.29984    7647.2908    4196.7705    3592.2018     2142.938    826.37575    411.20428   -429.16081   -3142.6131 
10182000    260.62653   -3932.2653   -3485.5603   -3932.2653            0     2549.252    17.453158    20.557514    21.292812    7639.7234    1789.2739     1550.663    4307.8192    1720.3951    255.52766   -343.53315    -3201.529 
10183000    246.95974   -3951.1896    -3527.909   -3951.1896            0    5535.1204    17.334381    20.417611    21.147905    7484.8073    6350.5999    4454.9729    5799.7885    -1614.407   -1044.9072    42.251475    -2923.705 
10184000    238.03589   -3928.8717   -3520.8863   -3928.8717            0    4279.4599    17.389643    20.482703    21.215324    7556.6202    3419.6865    4364.0671     5054.626    240.76679    362.80142   -1148.3049   -3049.2661 
10185000    241.07923   -3909.8118   -3496.6102   -3909.8118            0    4148.3634    17.405146    20.500963    21.234238    7576.8489    3869.2545    4610.5612    3965.2744    -969.6033   -180.60486    1447.8454   -3038.2137 
10186000    252.21229   -3931.8173    -3499.534   -3931.8173            0    4966.3438    17.409442    20.506023    21.239478    7582.4599    4418.5491    4539.6432    5940.8392   -643.54682   -117.95843    498.63576   -2950.3438 
10187000    233.25322   -3934.6927   -3534.9046   -3934.6927            0    3087.9889    17.443728    20.546407    21.281307    7627.3471     3378.534    2019.5217    3865.9111    259.00495    610.91344    51.076933   -3191.4059 
10188000    258.88661   -3935.6905   -3491.9677   -3935.6905            0    3029.0527    17.453168    20.557527    21.292824    7639.7369    2488.2949    2128.5863    4470.2768   -462.25066   -337.22814   -271.42582   -3154.4775 
10189000    234.96577   -3949.4468   -3546.7235   -3949.4468            0    4862.2884    17.406592    20.502666    21.236002    7578.7373    6035.3291    4501.2968    4050.2393    380.21527    1680.1927   -73.675968    -3009.304 
10190000    258.97057   -3900.3698   -3456.5031   -3900.3698            0    2595.2027    17.453393    20.557792    21.293099    7640.0326     932.5781    3498.0542    3354.9758    871.45516   -502.37208    229.66131   -3167.3403 
10191000    260.16248   -3954.0519   -3508.1423   -3954.0519            0    4930.7878    17.335104    20.418463    21.148787    7485.7438    4453.7327    4593.4719    5745.1589   -180.87801   -353.52871    1266.5237   -2969.8389 
10192000    244.66565   -3918.9545    -3499.606   -3918.9545            0    2962.3646    17.393182    20.486872    21.219642    7561.2352    2080.9156    2504.0846    4302.0936   -272.02232   -1008.4811    1122.5444   -3172.9376 
10193000    250.64736   -3930.7448   -3501.1438   -3930.7448            0    3950.0681    17.365837    20.454663    21.186281    7525.6285     4538.738    5267.7541    2043.7121     332.3748   -351.54816   -669.32545   -3067.6097 
10194000    257.14826   -3925.7815   -3485.0382   -3925.7815            0    3389.3006    17.361254    20.449264     21.18069    7519.6719    4293.5458    2644.8594    3229.4967    1436.7265      1468.48    401.30845   -3113.3448 
10195000    234.07838   -3920.6399   -3519.4375   -3920.6399            0    4663.0175    17.406356    20.502388    21.235713    7578.4282    4683.0908    4889.5129    4416.4489     581.4835   -947.92838   -654.61977    -3004.064 
10196000    245.10984   -3925.5951   -3505.4852   -3925.5951            0    3053.1591    17.413797    20.511152    21.244791    7588.1515    1368.2749    4047.1115    3744.0907    382.34995   -1406.5587   -2023.0758   -3167.6061 
10197000    236.72462   -3907.9908   -3502.2529   -3907.9908            0    3396.3218    17.474628    20.582804    21.319006    7667.9529    2324.9828    3738.8003    4125.1824   -1313.6271   -274.90479    141.76734   -3122.4449 
10198000    250.87617   -3940.0719   -3510.0787   -3940.0719            0    4177.3288    17.498166    20.610528    21.347722      7698.98    3901.7159    4819.5271    3810.7434   -181.87179    794.75101   -588.30046    -3041.041 
10199000    262.09326   -3926.3535   -3477.1346   -3926.3535            0     3367.974    17.438011    20.539674    21.274333    7619.8501    4726.0192    2209.6114    3168.2914   -796.82462   -381.04673   -539.95299   -3102.8594 
10200000    243.12747    -3918.624   -3501.9118    -3918.624            0    3344.2918    17.446074    20.549171    21.284169    7630.4247    3239.1934    3554.9865    3238.6956   -1885.3901    265.92966    846.14269   -3129.7526 
10201000    248.75798    -3942.862   -3516.4993    -3942.862            0    4380.7514    17.442979    20.545525    21.280394    7626.3648    6858.5572    3984.1027    2299.5944   -71.261462   -279.75489    526.21454   -3029.2603 
10202000    251.55982   -3935.4025   -3504.2376   -3935.4025            0    3459.7617    17.465859    20.572474    21.308307     7656.414     4045.038    3804.7136    2529.5335    472.37653    224.93336   -661.04257   -3117.9173 
10203000    233.95236   -3949.0922   -3548.1059   -3949.0922            0    3748.8764    17.447968    20.551402    21.286481    7632.9108    3701.5418    4132.8605    3412.2269    203.95686     -124.702   -934.46775   -3130.7878 
10204000    242.48856   -3943.7667   -3528.1496   -3943.7667            0    4547.9103    17.441469    20.543746    21.278551    7624.3839    4886.7348    5271.6327    3485.3634   -587.57046   -1796.3262   -1395.4297   -3022.4501 
10205000    238.05974   -3963.0529   -3555.0266   -3963.0529            0    4269.1914    17.445497    20.548491    21.283465    7629.6675      5939.05    3583.6233    3284.9007   -829.68595   -2263.5427    22.697371     -3079.99 
10206000    238.21846    -3944.807   -3536.5087    -3944.807            0    4975.0593    17.483243    20.592951    21.329516    7679.2989     6453.291    3375.5027    5096.3843     1755.287   -882.57547   -663.43929   -2979.3284 
10207000    237.54785   -3910.5067   -3503.3578   -3910.5067            0    4872.6091    17.470171    20.577554    21.313568     7662.087    7683.6218    3042.4327    3891.7729    938.64595    626.21232    -670.8811   -2958.8746 
10208000    248.96528   -3932.5581   -3505.8401   -3932.5581            0    4715.4076    17.454281    20.558837    21.294182    7641.1984    5805.8271    3957.9328    4382.4628   -244.49832    1113.7141    1615.4814   -2980.3596 
10209000    240.00939    -3967.763   -3556.3951    -3967.763            0    2759.3118    17.528091    20.645776     21.38423    7738.5477    2011.1572     3333.536    2933.2422    -166.7404   -1629.4016   -121.85004   -3244.9825 
10210000    238.32642   -3910.8858   -3502.4025   -3910.8858            0    3663.6647    17.495461    20.607342    21.344421    7695.4097    3078.1575    4097.3361    3815.5004    862.03178   -155.56721    -935.4901   -3091.2307 
10211000    261.66168   -3980.8984   -3532.4193   -3980.8984            0    3929.8886    17.384928    20.477149    21.209571    7550.4749    3602.5477    3002.6598    5184.4583   -272.43262   -1378.6964    1239.8105   -3099.6759 
10212000    247.75941   -3952.6207   -3527.9695   -3952.6207            0    2103.9135    17.538069    20.657529    21.396404    7751.7711    2384.8828    1976.3105    1950.5472    629.42984   -744.28689    215.71954   -3290.1186 
10213000    253.68618   -3921.2029   -3486.3934   -3921.2029            0    3213.6388    17.506977    20.620906    21.358471    7710.6155    3934.0651    2931.2458    2775.6055   -783.16552    683.75355    803.55913   -3125.0152 
10214000    245.07879   -3931.8849   -3511.8282   -3931.8849            0    2817.2936    17.514061     20.62925    21.367113    7719.9797    3242.8244    3517.6404     1691.416   -551.58612   -371.73675    46.436263   -3194.6348 
10215000      232.912   -3948.6818   -3549.4786   -3948.6818            0    1729.6724    17.533238    20.651838    21.390509    7745.3661    1026.3873    2027.5567    2135.0732   -1307.5173     517.5861   -658.86764   -3354.0979 
10216000     241.2324   -3937.8542   -3524.3901   -3937.8542            0    3640.5184    17.507803    20.621879    21.359479    7711.7076    4401.7567    3135.7198    3384.0785    151.32056    67.341736   -135.92107   -3114.9507 
10217000     241.5358   -3934.2729   -3520.2889   -3934.2729            0    3281.3069    17.487684    20.598182    21.334934    7685.1529    2884.2958    4395.3142    2564.3106    122.32302    710.94295   -62.954585   -3152.5197 
10218000    268.89371    -3944.803   -3483.9284    -3944.803            0      3201.91    17.507778     20.62185    21.359449    7711.6748    3392.5871    3179.1061    3034.0367    677.18624    131.08331    294.75667   -3123.8196 
10219000    261.80671   -3921.5678     -3472.84   -3921.5678            0      3060.26    17.494501    20.606211     21.34325    7694.1426    2771.7741    4235.4233    2173.5828    903.07671    37.850583    451.29128   -3129.4446 
10220000    233.82376   -3922.9184   -3522.1524   -3922.9184            0    2831.8646    17.525513    20.642739    21.381085    7735.1329    1834.1882    2119.0674    4542.3381    429.86003   -69.742466   -64.831216   -3202.6927 
10221000    253.57737   -3931.3254   -3496.7025   -3931.3254            0    4160.8913     17.45909    20.564502    21.300049    7647.5157    4055.5998     4547.333    3879.7412   -573.94697   -490.39383    662.24141   -3032.6334 
10222000    245.62879   -3962.8467   -3541.8474   -3962.8467            0    4099.4006     17.48626    20.596504    21.333196    7683.2748    4943.1557    3210.2003    4144.8458    550.77034   -1416.5298    193.64599   -3082.4985 
10223000    240.11488   -3951.5481   -3539.9994   -3951.5481            0    2406.7558      17.5815    20.708685    21.449389    7809.5029    3168.9811    1388.3224    2662.9639   -622.47252    -197.6683     -1061.09   -3265.8854 
10224000    241.80298   -3912.9002   -3498.4582   -3912.9002            0    4849.5804    17.523548    20.640424    21.378687    7732.5314    3817.3816    6099.2024    4632.1571    1710.9533   -682.81733    353.90958    -2951.566 
10225000    244.81415   -3945.4515   -3525.8484   -3945.4515            0    5744.7508    17.401728    20.496937    21.230068    7572.3856    6672.7022    3195.4963    7366.0541    639.85298     741.8481   -873.72911   -2891.4241 
10226000    252.80681   -3951.3428   -3518.0406   -3951.3428            0    3033.0984    17.458026    20.563249    21.298751    7646.1183    3881.8589    1944.0654     3273.371   -331.90122   -1328.2281    176.09883   -3179.8174 
10227000    257.18035    -3885.349   -3444.5506    -3885.349            0    5955.0391    17.376043    20.466684    21.198732    7538.9047    5664.5256    5472.1002    6728.4914    229.68461   -4.3791845   -216.18397   -2789.8108 
10228000    256.48054   -3931.4488     -3491.85   -3931.4488            0    3327.0608    17.433059    20.533841    21.268291    7613.3602    3429.6756    2221.6282    4329.8785    822.94277    2198.0725    322.12896   -3122.4363 
10229000    247.43313   -3937.5472   -3513.4553   -3937.5472            0    3348.1471    17.465471    20.572018    21.307834    7655.9049    4444.5082    3310.6227    2289.3104    407.88264    748.54992   -1036.0894   -3139.6228 
10230000    242.37866   -3888.4012   -3472.9725   -3888.4012            0    3043.2407    17.528258    20.645972    21.384433    7738.7681    2717.6923    3874.3533    2537.6765    742.71857   -1038.6712    519.93427   -3129.5062 
10231000     247.7231   -3917.7895   -3493.2006   -3917.7895            0    2740.6065    17.473553    20.581538    21.317694    7666.5377    4435.5841    1108.8885     2677.347   -775.54434    701.86686    55.529051   -3186.7773 
10232000    244.61632   -3934.9663   -3515.7023   -3934.9663            0     2618.253    17.501493    20.614447     21.35178    7703.3722    2638.1346     2943.647    2272.9774   -560.22219   -95.741362   -126.76479   -3221.5526 
10233000    238.48367   -3952.6802   -3543.9274   -3952.6802            0    3304.2713    17.542642    20.662915    21.401982    7757.8359    3292.1679    2512.1297    4108.5163   -107.91547    60.661026    1481.7967   -3170.0819 
10234000    250.75242   -3940.0495   -3510.2684   -3940.0495            0    2759.8639    17.537458    20.656809    21.395658    7750.9606    3124.9968    3716.1524    1438.4426    400.89749    133.59364    809.34873   -3198.2939 
10235000    248.75765   -3980.9071    -3554.545   -3980.9071            0    4183.2907    17.506814    20.620715    21.358272    7710.4008    5244.6773    2531.1872    4774.0076    -144.6773   -862.93706    738.08499   -3084.1412 
10236000    250.42041   -3967.1562   -3537.9442   -3967.1562            0    5342.6848    17.413443    20.510736     21.24436    7587.6892     5927.845    5303.6531    4796.5563   -143.92068   -313.89852   -114.75158   -2946.7299 
10237000    238.41567   -3928.6442   -3520.0079   -3928.6442            0    4442.4047    17.403911    20.499508    21.232731    7575.2355    4865.1758     3378.617    5083.4213   -1058.3849    592.22696    2023.1229   -3029.2242 
10238000    254.13187   -3929.9585   -3494.3852   -3929.9585            0    3620.8995    17.419052    20.517342    21.251203    7595.0235    2490.9766    4055.4488    4316.2733   -1026.2784    859.47187    1870.7368   -3093.3139 
10239000    245.26332   -3909.1582   -3488.7853   -3909.1582            0    3883.4988    17.478077    20.586866    21.323213    7672.4938    3376.1413     3749.248    4525.1072    1055.8707    200.85934    396.94281   -3054.2394 
10240000    246.88655   -3903.0461    -3479.891   -3903.0461            0      3646.41    17.446471    20.549638    21.284654    7630.9456    3140.2547    3866.8727    3932.1028   -40.148753    1322.3073   -673.85385   -3074.0838 
10241000    243.80546    -3955.785   -3537.9108    -3955.785            0    4904.8667    17.474639    20.582817    21.319019    7667.9673      4983.91    4180.8253    5549.8648   -742.23224   -936.50909   -657.82935   -2989.4023 
10242000    252.44093   -3934.9126   -3502.2375   -3934.9126            0    1861.1009    17.487864    20.598393    21.335153    7685.3892     1216.403    2189.8571    2177.0425   -1345.2475    462.98775    66.967918   -3293.6388 
10243000    250.63904   -3910.7971   -3481.2104   -3910.7971            0     2223.986    17.451972    20.556118    21.291366    7638.1669    2295.3658    2299.9941    2076.5982    1414.9059    1595.0827   -41.785666   -3233.4698 
10244000    253.69237   -3921.8947   -3487.0747   -3921.8947            0    3671.7947     17.53212    20.650522    21.389146     7743.885    2438.1449    4613.1911    3964.0482    1072.6521    545.23715    540.64687   -3072.3946 
10245000    250.74899    -3900.795   -3471.0198    -3900.795            0    3312.6401    17.467838    20.574805    21.310721    7659.0169    4796.2548    2179.6697    2961.9958    600.37873    -521.4672    900.15223   -3101.0015 
10246000    243.83471   -3911.9926   -3494.0682   -3911.9926            0    1113.7717    17.407655    20.503919    21.237299    7580.1259    1689.6927    619.44159    1032.1807   -1438.9148   -154.73528    204.02424   -3370.9426 
10247000    247.42911   -3919.0598   -3494.9748   -3919.0598            0    2663.8404    17.362141    20.450308    21.181771    7520.8237    3428.5443    2028.0532    2534.9236    1221.2002      55.1916      369.573   -3202.7955 
10248000    265.23149   -3911.9851   -3457.3874   -3911.9851            0    2182.5617    17.468537     20.57563    21.311575    7659.9374    2204.0642    2204.1188    2139.5021    -822.1526   -519.78271    458.10734   -3213.5684 
10249000    236.51661   -3924.6737   -3519.2923   -3924.6737            0    3034.5552    17.472335    20.580103    21.316208    7664.9345     3373.856    3226.2655    2503.5441    -1148.611   -226.65518    720.71803   -3180.0739 
10250000    244.82517   -3894.2701   -3474.6481   -3894.2701            0    3940.0727    17.388578    20.481448    21.214025    7555.2321    4873.7742    2491.2744    4455.1695   -31.010695   -1193.0421    1101.1899     -3040.51 
Loop time of 471.92 on 64 procs for 250000 steps with 864 atoms

Performance: 91.541 ns/day, 0.262 hours/ns, 529.751 timesteps/s
99.0% CPU use with 64 MPI tasks x 1 OpenMP threads

MPI task timing breakdown:
Section |  min time  |  avg time  |  max time  |%varavg| %total
---------------------------------------------------------------
Pair    | 19.57      | 24.684     | 29.602     |  48.6 |  5.23
Bond    | 0.26725    | 0.28224    | 0.29998    |   0.9 |  0.06
Kspace  | 211.28     | 222.97     | 236.11     |  33.7 | 47.25
Neigh   | 4.6933     | 5.4949     | 6.7081     |  21.8 |  1.16
Comm    | 90.282     | 103.22     | 113.86     |  49.3 | 21.87
Output  | 1.0834     | 1.0853     | 1.0962     |   0.2 |  0.23
Modify  | 104.01     | 107.06     | 111.87     |  18.1 | 22.69
Other   |            | 7.116      |            |       |  1.51

Nlocal:        13.5000 ave          19 max           7 min
Histogram: 3 1 3 9 8 16 6 10 5 3
Nghost:        2133.08 ave        2163 max        2102 min
Histogram: 4 6 3 10 10 3 12 5 7 4
Neighs:        4089.05 ave        5801 max        2116 min
Histogram: 2 3 6 6 13 6 11 12 1 4

Total # of neighbors = 261699
Ave neighs/atom = 302.89236
Ave special neighs/atom = 2.0000000
Neighbor list builds = 12234
Dangerous builds = 0

unfix		3
unfix		2
unfix		1

write_data	data.final.${pid}
write_data	data.final.0
System init for write_data ...
PPPM initialization ...
  extracting TIP4P info from pair style
  using 12-bit tables for long-range coulomb (../kspace.cpp:340)
  G vector (1/distance) = 0.37383897
  grid = 24 24 25
  stencil order = 5
  estimated absolute RMS force accuracy = 0.0031190767
  estimated relative force accuracy = 9.3930068e-06
  using double precision FFTW3
  3d grid and FFT values/proc = 2730 288
Last active /omp style is kspace_style pppm/tip4p/omp
WARNING: Not all mixed pair coeffs generated from mixing. Use write_data with 'pair ij' option to store all pair coeffs. (../write_data.cpp:312)

write_restart   restart.lmp.${pid}
write_restart   restart.lmp.0
System init for write_restart ...
PPPM initialization ...
  extracting TIP4P info from pair style
  using 12-bit tables for long-range coulomb (../kspace.cpp:340)
  G vector (1/distance) = 0.37383897
  grid = 24 24 25
  stencil order = 5
  estimated absolute RMS force accuracy = 0.0031190767
  estimated relative force accuracy = 9.3930068e-06
  using double precision FFTW3
  3d grid and FFT values/proc = 2730 288
Last active /omp style is kspace_style pppm/tip4p/omp
Total wall time: 0:07:55
