#include		in.partitions
include		in.temp
variable        temperature equal 87.60
variable	tempDamp equal 100.0
include		in.pressure
variable        pressure equal 2033.2
variable        pressureDamp equal 1000.0 # This is 1 ps
include		in.seed
variable        seed equal 745823

units		real
atom_style	full
#include		in.box
read_restart	restart.lmp.${pid}
read_restart	restart.lmp.1
Reading restart file ...
  restart file = 30 Jul 2021, LAMMPS = 30 Jul 2021
  restoring atom style full from restart
  orthogonal box = (0.15408599 0.14198360 0.19843276) to (18.053486 23.487194 22.014763)
  2 by 4 by 2 MPI processor grid
  restoring pair style lj/cut/tip4p/long/omp from restart
  restoring bond style harmonic/omp from restart
  restoring angle style harmonic/omp from restart
  864 atoms
  576 bonds
  288 angles
Finding 1-2 1-3 1-4 neighbors ...
  special bond factors lj:    0        0        0       
  special bond factors coul:  0        0        0       
     2 = max # of 1-2 neighbors
     1 = max # of 1-3 neighbors
     1 = max # of 1-4 neighbors
     2 = max # of special neighbors
  special bonds CPU = 0.001 seconds
  read_restart CPU = 0.005 seconds
include 	in.setup
variable	out_freq equal 1000
variable	out_freq2 equal 10000
variable	out_freq3 equal 1000

timestep	2.0

neigh_modify    delay 7 every 1

include		in.tip4p
# This is TIP4P/Ice

# create groups ###
group ox type 2
288 atoms in group ox
group hy type 1
576 atoms in group hy

# set charges - beside manually ###
set group ox charge -1.1794
Setting atom values ...
  288 settings made for charge
set group hy charge 0.5897
Setting atom values ...
  576 settings made for charge

# ### TIP3P Potential Parameters ###
pair_style lj/cut/tip4p/long/omp 2 1 1 1 0.1577 8.5
pair_coeff 1 1*2 0.000 0.000
pair_coeff 2 2 0.21084 3.1668
bond_style  harmonic
bond_coeff  1 450 0.9572
angle_style harmonic
angle_coeff 1 55 104.52
kspace_style pppm/tip4p/omp 1.0e-5
pair_modify tail yes

thermo          ${out_freq}
thermo          1000
thermo_style    custom step temp pe etotal epair emol press lx ly lz vol pxx pyy pzz pxy pxz pyz enthalpy

restart 	${out_freq3} restart.lmp.${pid} restart2.lmp.${pid}
restart 	1000 restart.lmp.${pid} restart2.lmp.${pid}
restart 	1000 restart.lmp.1 restart2.lmp.${pid}
restart 	1000 restart.lmp.1 restart2.lmp.1


include         in.dump
dump            myDump all atom ${out_freq2} dump.water.${pid}
dump            myDump all atom 10000 dump.water.${pid}
dump            myDump all atom 10000 dump.water.1
dump            myDump2 all dcd ${out_freq2} dump.dcd
dump            myDump2 all dcd 10000 dump.dcd
dump_modify     myDump append yes
dump_modify     myDump2 append yes


variable natoms 	equal  "count(all)"                        # NUMBER ATOMS
variable H      	equal  "enthalpy/v_natoms"                 # ENTHALPY-per-atom
variable Vol      	equal  "vol/v_natoms"                 # volume-per-atom
fix AVG all 		ave/time ${out_freq} 1 ${out_freq} v_Vol v_H file vol_enthalpy.dat
fix AVG all 		ave/time 1000 1 ${out_freq} v_Vol v_H file vol_enthalpy.dat
fix AVG all 		ave/time 1000 1 1000 v_Vol v_H file vol_enthalpy.dat


timer           timeout 23:50:00 every 1000
New timer settings: style=normal  mode=nosync  timeout=23:50:00

fix 		1 all shake 1e-6 200 0 b 1 a 1
       0 = # of size 2 clusters
       0 = # of size 3 clusters
       0 = # of size 4 clusters
     288 = # of frozen angles
  find clusters CPU = 0.000 seconds
fix             2 all nph aniso ${pressure} ${pressure} ${pressureDamp}
fix             2 all nph aniso 2033.2 ${pressure} ${pressureDamp}
fix             2 all nph aniso 2033.2 2033.2 ${pressureDamp}
fix             2 all nph aniso 2033.2 2033.2 1000
fix             3 all temp/csvr ${temperature} ${temperature} ${tempDamp} ${seed}
fix             3 all temp/csvr 87.6 ${temperature} ${tempDamp} ${seed}
fix             3 all temp/csvr 87.6 87.6 ${tempDamp} ${seed}
fix             3 all temp/csvr 87.6 87.6 100 ${seed}
fix             3 all temp/csvr 87.6 87.6 100 745823


run             250000
PPPM initialization ...
  extracting TIP4P info from pair style
  using 12-bit tables for long-range coulomb (../kspace.cpp:340)
  G vector (1/distance) = 0.37220682
  grid = 24 27 25
  stencil order = 5
  estimated absolute RMS force accuracy = 0.0031004639
  estimated relative force accuracy = 9.3369548e-06
  using double precision FFTW3
  3d grid and FFT values/proc = 6300 1296
Last active /omp style is kspace_style pppm/tip4p/omp
Neighbor list info ...
  update every 1 steps, delay 7 steps, check yes
  max neighbors/atom: 2000, page size: 100000
  master list distance cutoff = 10.8154
  ghost atom cutoff = 10.8154
  binsize = 5.4077, bins = 4 5 5
  1 neighbor lists, perpetual/occasional/extra = 1 0 0
  (1) pair lj/cut/tip4p/long/omp, perpetual
      attributes: half, newton on, omp
      pair build: half/bin/newton/omp
      stencil: half/bin/3d
      bin: standard
Per MPI rank memory allocation (min/avg/max) = 12.26 | 12.29 | 12.31 Mbytes
Step Temp PotEng TotEng E_pair E_mol Press Lx Ly Lz Volume Pxx Pyy Pzz Pxy Pxz Pyz Enthalpy 
30500000    94.395944   -4572.8455   -4411.0541   -4572.8455            0    2583.4463      17.8994    23.345211     21.81633    9116.2868    2731.9395    2793.6619    2224.7374   -250.81221    135.05553   -4.5970948   -4067.5806 
30501000    88.928763   -4585.6333   -4433.2125   -4585.6333            0    2276.0814    17.793634    23.369508    22.045841    9167.2885     2304.541     2270.675    2253.0282     633.2531   -249.84954   -255.79586   -4128.9106 
30502000    88.404174   -4586.0932   -4434.5715   -4586.0932            0    1788.1608    17.881124    23.342425    21.953279    9163.0525    2124.3858    1700.5827    1539.5139   -1365.4374    455.16082   -570.12491   -4195.6129 
30503000    88.272602   -4588.2704   -4436.9742   -4588.2704            0    671.27714    17.963069    23.422884    21.925292    9224.9982    582.62064    200.93392    1230.2769    362.71402   -201.28843    107.13171   -4346.6625 
30504000    80.149762   -4582.9862   -4445.6122   -4582.9862            0    2764.7989    17.937696      23.3441     21.80478    9130.5196    2294.7281    2875.0408    3124.6277   -388.18779   -736.79141     191.3451   -4077.4537 
30505000    88.124224   -4581.6571   -4430.6152   -4581.6571            0    2559.3223    17.882056    23.333868    21.910722    9142.4136    3279.5734    2147.5916    2250.8019   -254.09648   -873.87006    356.88261   -4089.3738 
30506000    91.381638   -4584.2635   -4427.6385   -4584.2635            0    1872.2838    17.887942    23.474294    21.871733    9184.0895    2830.3791    722.83395    2063.6385     277.0924    165.86719    101.74293   -4176.8638 
30507000    87.256558   -4583.7282   -4434.1734   -4583.7282            0    1111.8042    17.934607    23.358179    21.959806    9199.3965    1906.8851    843.97801    584.54942   -66.480648    354.93873    -163.2684   -4285.0096 
30508000    91.388172   -4583.5795   -4426.9433   -4583.5795            0    2503.1362    17.919734    23.244976    21.906954    9125.2057    2209.6042    2416.5807    2883.2237    664.74098   -178.37022   -147.53807   -4093.8215 
30509000    90.562721   -4577.2838   -4422.0624   -4577.2838            0    2045.9617    17.923762    23.221093    21.967643    9143.1381    1506.0204    1819.4584    2812.4064   -158.92233   -842.72543    555.69554   -4149.2471 
30510000    89.588156   -4584.4637   -4430.9127   -4584.4637            0    2258.4627    17.958105    23.318428    21.849953     9149.772    2184.8785      2497.55    2092.9597    671.54069   -233.46451   -73.853705   -4129.5433 
30511000    86.646813   -4583.6913   -4435.1816   -4583.6913            0    2096.3939    17.878365    23.418267    21.866597    9155.1137    2582.5126    1101.6113    2605.0577   -332.09198    77.259914   -567.60084   -4155.2754 
30512000    92.270779   -4576.2256   -4418.0767   -4576.2256            0    1968.6011    17.785606    23.418157    22.007249    9166.1539    1723.6441    1507.1252    2675.0341    652.05762    59.901652    64.171588   -4154.9161 
30513000    92.144045   -4582.8553   -4424.9235   -4582.8553            0    1951.4057    17.795581    23.447587    21.936219    9153.1821    1666.7271     1901.716    2285.7739   -134.99529   -231.35188   -28.681355   -4164.4308 
30514000    86.260728   -4590.3258   -4442.4779   -4590.3258            0    1963.5872    17.937777    23.323414    21.909305    9166.2002    1922.8379    1420.0814    2547.8423   -211.79449   -56.080641    83.108274   -4179.9863 
30515000    89.753594    -4587.001   -4433.1664    -4587.001            0    1421.0437    17.923828    23.373234    21.951996    9196.5215    2148.4278    548.42265    1566.2806    250.71629    124.30222   -418.06196   -4242.5734 
30516000    90.238834   -4586.9047   -4432.2385   -4586.9047            0     2381.762    17.992925    23.274946     21.85806    9153.8133    2157.5083    3038.1327     1949.645    641.22952    168.89904    209.57758   -4114.2757 
30517000    91.947179   -4591.6225   -4434.0282   -4591.6225            0    1888.1284    17.972655     23.24868    21.959482     9175.561    2225.4948    2081.2755    1357.6149    210.79522    214.99496    193.17712   -4181.3661 
30518000    85.544293   -4590.3344   -4443.7144   -4590.3344            0    1730.9361    17.962744    23.321238    21.891769    9170.7557    1600.5833    1842.6336    1749.5915   -6.3753178   -12.220347    279.78989   -4212.2085 
30519000    85.959655   -4580.2744   -4432.9425   -4580.2744            0     1647.489     17.84746    23.295342     22.08165    9180.7259    1866.7486    1965.1105     1110.608    112.98028    -96.78867    620.69409   -4212.3578 
30520000    86.082298   -4587.3184   -4439.7763   -4587.3184            0    1894.3159    17.881343    23.451908    21.842373    9159.6346     2337.071    1727.1839    1618.6927    452.80199    142.01014   -143.61972   -4186.7263 
30521000    85.077552   -4584.6425   -4438.8225   -4584.6425            0    2983.5095    17.833538    23.383459    21.869739    9119.8958    2606.4332    2300.1364     4043.959   -341.01769   -138.30871   -490.57171   -4042.0028 
30522000    90.846304   -4583.0742   -4427.3668   -4583.0742            0    2342.7251     17.86577    23.234397    22.035537    9146.9602    2363.3747    2543.3508    2121.4497     76.09327    24.335766    372.46074   -4114.8495 
30523000    88.403739   -4593.6019   -4442.0809   -4593.6019            0    1842.6342    17.989475    23.281061    21.907844    9175.3131    2126.8024    2459.2826    941.81766   -260.41491  0.052827263   -300.80026   -4195.5134 
30524000     90.02739   -4567.8937   -4413.5899   -4567.8937            0    2643.2805    18.040389    23.053973    21.930326    9120.8803    3037.8535    2938.8749    1953.1132    435.59924    46.251874   -287.16956   -4061.9842 
30525000    88.974849   -4584.9211   -4432.4213   -4584.9211            0    2038.1588    18.002517    23.225101    21.925323    9167.2027     2501.577     2399.398    1213.5013   -156.47399    367.82537   -308.08188   -4159.9312 
30526000    89.245305   -4577.6607   -4424.6973   -4577.6607            0    1757.7112    17.911305    23.327726    21.941488    9167.8128    2266.9805    1746.2253    1259.9278   -444.96605    361.99348    50.221064   -4189.6858 
30527000     91.19753   -4584.5296   -4428.2201   -4584.5296            0    2012.6571     17.86758    23.365798    21.929532    9155.3662    1791.6379    2735.0421    1511.2911    145.74323    -578.4147   -27.863045   -4159.4869 
30528000    85.979781   -4587.7743   -4440.4079   -4587.7743            0    1710.7943    17.895969     23.47184    21.825467     9167.816    1325.6263    1431.0991    2375.6575   -325.44208    78.872979   -119.18602   -4211.6693 
30529000    83.077982    -4587.139   -4444.7462    -4587.139            0    1948.5763     17.86521    23.385155    21.933915    9163.5663    1585.4014    2200.1291    2060.1985    561.04804    194.05057    513.67889    -4184.336 
30530000     92.44225   -4584.7961   -4426.3533   -4584.7961            0    1880.9498    17.895984    23.317721    21.978403    9171.4457    2666.4452    2196.1172    780.28709    282.13336    -380.1134     126.2747   -4174.7647 
30531000    94.387425   -4586.8218    -4425.045   -4586.8218            0    879.24124    18.012646    23.348334    21.927698    9222.0282    553.16777    1280.3193    804.23664      144.439   -120.55278   -35.758496   -4306.7925 
30532000    89.731207   -4580.5964   -4426.8002   -4580.5964            0    2344.6717    17.922561    23.212365    21.977737    9143.2885    2811.0022    1673.9411    2549.0717   -59.237814    185.69339    57.378237   -4114.1488 
30533000    88.092681   -4579.9755   -4428.9876   -4579.9755            0    2840.6318    17.858102    23.231863    21.965784    9113.0979    3277.4909    3176.1925    2068.2121    449.93007    430.02045    513.42645   -4051.4529 
30534000    85.292728   -4586.4744   -4440.2856   -4586.4744            0    2314.7306    17.915483    23.229803    21.946797    9133.6676    2626.8217    2072.2397    2245.1306   -77.576801   -497.39194     258.7168   -4131.9515 
30535000    87.080797   -4597.5608   -4448.3073   -4597.5608            0    2378.8969    17.924951    23.328226    21.859497    9140.7081    2263.4579    2020.7005    2852.5321   -411.53914   -218.33492    33.168927   -4131.1816 
30536000    88.757992   -4591.3883   -4439.2601   -4591.3883            0    1895.1772    17.960715    23.218082    21.948783    9152.9354    2002.2815    2501.7653    1181.4849   -396.01466   -395.86283     497.1893   -4186.2802 
30537000    87.134727   -4580.0884   -4430.7425   -4580.0884            0    2031.5551    17.982369    23.344548    21.826368    9162.4968    1222.1411    1874.0787    2998.4457   -1002.7255    252.92443   -6.9583121   -4159.2747 
30538000    86.849163   -4581.7305    -4432.874   -4581.7305            0    2456.3427    17.882911    23.412376    21.841731    9144.7276    2514.3656    2031.0944     2823.568   -81.531559    182.85771    -26.31181   -4105.2802 
30539000    87.358997     -4580.46   -4430.7297     -4580.46            0    2542.4667    17.858115    23.485555    21.807191    9146.1048    2798.7363    2226.5829    2602.0808    103.97695   -508.41602    297.48405   -4091.5988 
30540000    87.219011   -4585.9788   -4436.4884   -4585.9788            0    1129.0103    17.874357    23.445025    21.937568    9193.2614    1259.8882    917.69852    1209.4442   -247.20246   -117.92293     26.73286   -4285.1172 
30541000    88.343447   -4585.8419   -4434.4243   -4585.8419            0    2837.2243    17.993076    23.297613    21.779495    9129.8709    1478.5067     2550.058    4483.1083    7.0802944   -221.60806   -117.25469   -4056.6484 
30542000    86.923088   -4586.7905   -4437.8073   -4586.7905            0    1240.5637    17.930972    23.282485    22.013724    9190.2364    1889.4774    369.67119    1462.5426    493.93666    291.26551    293.55354   -4271.5343 
30543000    87.453978   -4578.5671    -4428.674   -4578.5671            0    1905.0381    18.037174    23.304695    21.814997    9169.9523    2101.8189    1408.9273    2204.3682   -459.27325    95.736213   -37.698328    -4173.905 
30544000    89.716459   -4584.4542   -4430.6833   -4584.4542            0    1805.9735    17.901994    23.308912    21.987147    9174.7087    1682.9978    2250.4895    1484.4331   -165.54103   -287.38692   -126.07271   -4189.0373 
30545000    84.214563   -4594.6053   -4450.2645   -4594.6053            0    1469.3003    17.808781    23.469263    22.002929    9196.3213     2551.546    1048.4182    807.93679    418.88764    322.85852    400.25529   -4253.2035 
30546000    93.767915   -4587.6764   -4426.9614   -4587.6764            0    2263.7299    17.784339    23.490723    21.872604    9137.6515    2266.9139    2197.5992    2326.6766   -84.856429    -81.40105    133.26655   -4125.2893 
30547000    86.177809   -4587.0405   -4439.3347   -4587.0405            0    2189.9974    17.788937    23.462039    21.920811    9148.9737    2309.0985    1817.2265    2443.6671   -250.53942    383.94244    259.24568   -4147.1269 
30548000    88.979703    -4583.177   -4430.6689    -4583.177            0    2008.3103    17.945826    23.323977    21.884459    9160.1352    1428.3723    1663.0611    2933.4974   -273.62357    272.77939   -167.01606   -4162.3763 
30549000    91.779102   -4585.8673    -4428.561   -4585.8673            0    1753.0442    17.898257    23.553687    21.733581    9162.2249    1613.8938    1572.9923    2072.2464   -68.545362    -501.4803   -539.31036   -4194.3164 
30550000    81.870378   -4577.1096   -4436.7866   -4577.1096            0    1669.0255    17.918683    23.425281    21.871404    9180.5257    1897.2257    1554.2853    1555.5656    155.31416     304.0658    153.63353   -4213.3232 
30551000    92.083276   -4582.2432   -4424.4156   -4582.2432            0    1815.6065     17.86955    23.376812    21.908256    9151.8038    2474.3088    885.39447    2087.1162   -280.50159    233.21611    75.092967   -4182.0872 
30552000    87.361989   -4584.5435    -4434.808   -4584.5435            0    2071.1212    18.036688    23.357111    21.739623    9158.5756    2082.8604    1730.0383    2400.4649     -744.884    -302.7788    169.99405   -4158.1716 
30553000     84.67555   -4582.3249   -4437.1939   -4582.3249            0    2456.5133    17.947634    23.252572    21.864605    9124.7263     1617.205    2900.9918    2851.3432   -105.06641    -320.8437    447.06061    -4110.294 
30554000    92.510728   -4585.8595   -4427.2993   -4585.8595            0    2647.5682    17.868431    23.333706    21.863373    9115.6427    2538.8795    1752.5343    3651.2906   -309.13974    131.97833    344.92281   -4075.3255 
30555000    86.052288   -4582.0562   -4434.5655   -4582.0562            0    1336.6182    18.014991    23.475758    21.734862    9192.0116    1395.8395    1371.4004    1242.6146   -71.675753  -0.89890836   -109.46667   -4255.3838 
30556000    93.806683   -4585.1137   -4424.3323   -4585.1137            0    1688.5569    17.925303    23.434704    21.835851    9172.6769    1904.0125    1808.8607    1352.7976    554.47135   -195.05885     98.99634   -4198.4471 
30557000    87.324358    -4583.226    -4433.555    -4583.226            0    1528.9039    17.785398    23.562894    21.880155     9169.436    2436.4585    521.95839    1628.2949   -273.01146   -438.75792    364.44689   -4229.0995 
30558000    87.422602   -4581.9721   -4432.1328   -4581.9721            0    2471.1237    17.881526    23.426996     21.83145    9145.4221    2662.8596    2658.6428    2091.8686    356.54779    360.70669   -205.77875   -4102.5427 
30559000     88.65853   -4583.4055   -4431.4479   -4583.4055            0    2282.0855     17.82974    23.421431    21.959027    9170.0461    2239.9669    2650.3863    1955.9032    490.87535   -170.08756    366.19273   -4126.2515 
30560000    81.956602   -4586.6476   -4446.1768   -4586.6476            0    1928.0328     17.78471    23.447516    21.943501    9150.5995    2434.5097    1631.6597     1717.929   -486.17587    -136.7026   -466.22717   -4188.8768 
30561000    88.182524   -4585.1109   -4433.9691   -4585.1109            0    1650.2912    17.830285    23.409565    21.982143    9175.3294    1703.6266     1624.849    1622.3981    4.1271416   -457.70472    112.63728   -4213.1391 
30562000     86.01465   -4575.3775   -4427.9513   -4575.3775            0     1577.753    17.870021    23.449573     21.91183    9182.0289    1374.3307    1764.2593     1594.669   -149.61791   -160.90841   -347.31719   -4216.6737 
30563000    92.457018   -4578.0465   -4419.5783   -4578.0465            0    2463.2444    17.873689    23.486231    21.768311    9138.0228    1938.9538    2314.9077    3135.8716    57.882749   -74.706988    -140.7319    -4091.305 
30564000    92.405827   -4593.1751   -4434.7946   -4593.1751            0    2739.3377    17.857056    23.332433    21.904159    9126.3368    2790.2234     2618.658    2809.1316    63.979771    304.03723    145.26858   -4070.1936 
30565000    86.525529   -4593.4012   -4445.0994   -4593.4012            0     1744.771    17.893213    23.347715    21.982629    9183.5869    1741.9772    1782.8515    1709.4845   -800.06401    330.32839    291.26133   -4211.4167 
30566000    90.231114   -4579.7133   -4425.0602   -4579.7133            0    1854.5225    17.940074     23.47957    21.790946    9178.8962    1864.4879    2062.2126    1636.8671    -552.2139    496.95201   -316.29223   -4176.8049 
30567000    84.568414   -4589.9956   -4445.0482   -4589.9956            0    2187.9359    17.892655    23.416787    21.850905    9155.2777    2167.9605    2044.6278    2351.2194    14.346491   -418.99059    158.26943   -4152.9143 
30568000    86.450535   -4581.8762    -4433.703   -4581.8762            0    3052.6849    17.822252    23.408262    21.848249    9114.8262    2496.5509    2069.9626    4591.5413    754.72371   -385.18415    12.952104   -4027.9084 
30569000    82.755386   -4588.9862   -4447.1463   -4588.9862            0    2755.5082    17.906114    23.210369    21.972114    9131.7755    2688.8686    3643.1382    1934.5179    236.46958   -143.31721    167.31005   -4080.1744 
30570000    91.556642   -4591.1472   -4434.2222   -4591.1472            0    2076.0107    17.945276    23.240124    21.962106    9159.3058    1978.2943    2221.6998     2028.038    262.06596    96.692209    447.19775   -4156.9106 
30571000    88.424416   -4587.4337   -4435.8773   -4587.4337            0    2470.0149     17.74515     23.37065    22.029647    9136.0403    3711.7157    2510.3256    1188.0034   -127.76146   -244.67112    698.80279    -4106.773 
30572000    95.432069   -4577.5454   -4413.9781   -4577.5454            0    1715.2113    17.855832    23.361658    21.990459    9173.1404    2230.2789    1621.0562    1294.2989    -24.10963   -391.21064   -164.24312   -4184.5157 
30573000    83.420162    -4586.605   -4443.6257    -4586.605            0    2312.4725    17.910113    23.376742    21.811535    9132.0554    1702.5717    2155.7054    3079.1403   -463.23728    96.471677   -167.66453   -4135.6468 
30574000    90.305859   -4592.5161   -4437.7349   -4592.5161            0    1242.0299    17.847633     23.38477     22.04404    9200.3623    1472.3084    904.03323     1349.748    281.33858    161.98741    250.74079    -4271.082 
30575000     90.15144   -4590.2467   -4435.7302   -4590.2467            0    2065.6766    17.964491     23.37875    21.831922    9169.1307    2871.4561    1956.0379    1369.5357   -250.92574   -100.67789    403.68844    -4159.503 
30576000    87.769705    -4587.922   -4437.4877    -4587.922            0    2227.1917     17.96365    23.175995    21.975153    9148.8159    2306.2601    3245.9959    1129.3191    312.11585   -272.38329   -203.12331   -4140.3223 
30577000    88.227676   -4590.5907   -4439.3715   -4590.5907            0    2501.9675    17.952097    23.268077     21.88058    9139.7544    2425.3606    2454.5918    2625.9501   -235.24444    87.249126    355.93522   -4105.8744 
30578000     93.29484   -4578.3901   -4418.4859   -4578.3901            0    2155.6101    17.889895    23.367836    21.919464     9163.391    1365.7973    1924.6264    3176.4066    228.82727   -653.47515   -140.08164   -4130.4131 
30579000    86.601469   -4584.2293   -4435.7973   -4584.2293            0    1733.6062    17.925101     23.34468    21.891645    9160.6847     1631.299     1429.841    2139.6784   -332.78981    271.40783    362.60851   -4204.1889 
30580000    94.458133   -4582.4918   -4420.5938   -4582.4918            0    1655.7348    17.993225    23.173245    21.985337    9167.0371    1766.8573    1622.0736    1578.2734   -223.51328    75.914962    148.58342   -4199.2356 
30581000    90.102908   -4589.6602   -4435.2269   -4589.6602            0    2231.3577    17.886404    23.300132    21.923341    9136.6747    2431.6166    1687.0784     2575.378   -493.97828   -103.81187   -263.51693   -4137.9007 
30582000    88.041342   -4592.7574   -4441.8575   -4592.7574            0    913.03131    18.006059    23.225857    22.022053    9209.7575    598.32832    515.21248    1625.5531   -112.49853   -516.84954    50.555247   -4319.2239 
30583000    84.840205    -4587.196   -4441.7828    -4587.196            0     2204.876    17.964227    23.007946     22.07821    9125.3649    2058.2857    3395.0002    1161.3423    22.577566    256.56259    26.281324   -4148.3489 
30584000    97.002273   -4586.5933   -4420.3348   -4586.5933            0     1967.873    17.889348    23.279278    21.997649    9160.9453    1948.9115    2590.3489    1364.3587    126.73423   -95.409895    150.44618    -4157.421 
30585000    88.856831   -4587.8905   -4435.5929   -4587.8905            0     1521.662    17.825726    23.413125     22.00598    9184.3265    1373.6188    2023.6335    1167.7338    352.03467    10.836348    114.71634   -4231.7755 
30586000    89.750896   -4588.0059    -4434.176   -4588.0059            0    1323.5507    17.864605    23.400293    21.999925    9196.7826    2832.9239    711.10969    426.61847   -61.429314    -41.02333   -211.15904   -4256.6539 
30587000     84.83581   -4582.9812   -4437.5756   -4582.9812            0     2224.462    17.984361    23.260439    21.857793    9143.6423    1818.0378    2068.4887    2786.8594    699.42389   -481.91624    110.29387   -4140.9421 
30588000    89.542347   -4574.8725      -4421.4   -4574.8725            0    2833.8782     17.93129    23.217137    21.913387    9122.8327    2132.0559    2590.8539    3778.7249   -359.54808    88.298223    352.23284   -4044.3606 
30589000    83.765765   -4590.2531   -4446.6815   -4590.2531            0    1638.7408    18.067339    23.170618    21.913487    9173.6744    884.16139    1954.9019    2077.1591   -57.303393   -65.392733    312.47379   -4227.4366 
30590000     87.66521   -4581.0229   -4430.7677   -4581.0229            0    2712.2264    17.955376    23.230596     21.86461    9120.0369    3200.3722    2981.6435    1954.6636   -528.98338    159.21658   -107.43602   -4070.0243 
30591000    82.187421   -4584.6238   -4443.7573   -4584.6238            0    3484.6392    17.901702    23.324516    21.781854    9094.9811    3451.4811    3919.5416    3082.8949    88.550592   -389.93258    413.58497   -3981.5514 
30592000    90.352594   -4584.7704   -4429.9091   -4584.7704            0    1490.7536    17.959592    23.299352    21.945956     9183.216    1069.8574    1683.2953    1719.1081   -43.430814   -394.30281    17.342434   -4230.2558 
30593000    82.495462    -4582.258   -4440.8636    -4582.258            0    1977.5979    17.870527    23.228239     22.08609     9167.955    2124.9799    2298.4991    1509.3146      -203.71    2.3083076   -137.56024   -4176.4484 
30594000    84.066994    -4581.132    -4437.044    -4581.132            0    2751.9574    17.956971    23.194374    21.930132    9133.9155    1901.9711    4305.3864    2048.5146     575.3619    346.68298    132.00926   -4070.4591 
30595000    83.710974   -4584.5426   -4441.0649   -4584.5426            0    2171.8203    18.008218    23.245615    21.832961    9139.5418      735.266    3017.1911    2763.0037    716.20095    244.19176   -94.020308   -4151.5812 
30596000    91.115969   -4582.1159   -4425.9463   -4582.1159            0    1489.8413    17.972512    23.120271    22.094652    9180.9766    1324.9962    2550.0657    594.46194    414.02028    218.60586    240.80306   -4226.4638 
30597000    85.923981   -4578.4207   -4431.1499   -4578.4207            0    3058.3002     17.93806    23.241851    21.856394    9112.2303    3109.7375    2913.6064    3151.5566   -481.60942   -674.04106   -42.314849   -4024.7247 
30598000    81.727531   -4585.4583   -4445.3801   -4585.4583            0    2203.3002    17.898077    23.339172    21.916387    9155.0511    2767.4527    1808.7671    2033.6808   -60.718435    143.55759    111.29841    -4151.202 
30599000     86.87264   -4579.9959   -4431.0991   -4579.9959            0    1528.6292     17.80706    23.471714    21.942102    9170.9693    2269.6054    1156.3903    1159.8921     154.5756    282.57332    30.403889   -4226.6462 
30600000    88.859813   -4593.6225   -4441.3198   -4593.6225            0    2246.7388    17.990081    23.189559    21.937915    9152.1044    1650.9226    3245.7368    1843.5569    60.103539    353.08151    293.54878   -4141.4384 
30601000    86.668637   -4593.3598   -4444.8128   -4593.3598            0      2034.78     18.06734    23.278349    21.784174    9161.9411    2027.1615    1551.1818    2525.9967    341.66879   -377.81554   -409.02234   -4172.9305 
30602000    88.304334   -4580.1148   -4428.7642   -4580.1148            0    2475.2855    18.019417    23.142805    21.970577    9162.1668    2069.8294    3118.7581     2237.269   -46.144301    191.89128   -101.91837   -4098.0146 
30603000    90.449107   -4585.8792   -4430.8526   -4585.8792            0    1906.7831    17.987043    23.309243    21.901729    9182.6142    1991.9679    1358.0865    2370.2947   -32.539541   -392.68053    -282.7374   -4175.4981 
30604000    88.680272   -4585.0721   -4433.0771   -4585.0721            0    2250.9125    17.881204    23.233396    22.043627    9157.8285    2205.7921    3077.7057    1469.2397   -234.20144   -83.513248    447.60386   -4132.4508 
30605000    89.613449   -4580.2121   -4426.6178   -4580.2121            0    2344.4497    17.796291    23.567242    21.841579    9160.5658    2574.1199    1879.6172    2579.6119   -42.695022    541.72631    -605.1396   -4113.4052 
30606000    87.505625   -4595.0862   -4445.1046   -4595.0862            0    1177.6734    17.873072    23.355511    22.039883    9200.2124    1173.3487    1635.4094    724.26206   -246.24592   -527.01762    194.85862   -4287.0895 
30607000    85.398967   -4588.9569    -4442.586   -4588.9569            0    2087.0015    17.927897     23.23117    21.996814    9161.3654    2544.2376    2980.1709    736.59592   -278.81563    424.53896   -259.75806   -4163.7436 
30608000    86.460201   -4582.3087   -4434.1189   -4582.3087            0    2635.2463    18.029861    23.200805    21.883596    9154.0673     2357.474    2257.3061    3290.9588   -39.225939   -680.41485   -47.037323   -4082.3065 
30609000    88.854203    -4592.288   -4439.9949    -4592.288            0    2013.3824    18.100226    23.256618    21.772569    9165.1635    1726.0801    2104.8028    2209.2641   -187.97782    -42.89603    103.99029   -4170.8772 
30610000    85.538608   -4583.6776   -4437.0674   -4583.6776            0    1060.0922    18.059398    23.325095    21.842288    9200.7841    237.90326    1150.2149    1792.1586   -45.556758    530.06984   -378.49084     -4294.82 
30611000    91.605682   -4586.6796   -4429.6706   -4586.6796            0    2785.6852    17.917479    23.194473    21.919032    9109.2534    3655.9247     2666.334    2034.7969   -680.68621   -360.45648    263.97769   -4059.5947 
30612000    86.137336   -4580.5802   -4432.9437   -4580.5802            0    2341.3459    17.897075    23.349757    21.888605     9147.081    2252.5464    2694.5568    2076.9346   -787.87531    153.74396    79.769099   -4120.6063 
30613000    83.848997   -4578.5135   -4434.7992   -4578.5135            0    1953.9344    17.879144    23.196166    22.084283    9158.9615    1358.0116    2572.3215      1931.47    -43.96535     159.1966    91.494362   -4173.8043 
30614000    90.866029   -4576.1049   -4420.3636   -4576.1049            0    1900.0534    17.879988    23.311323    21.921496    9137.0147     2336.852    2502.5946    860.71355   -561.92753   -151.61204    130.29174    -4167.174 
30615000    90.736154   -4581.0793   -4425.5607   -4581.0793            0    1808.2588    17.928875    23.090937    22.139417    9165.5974    1648.2436    2115.8082    1660.7247   -380.89057    52.804459    240.60552   -4183.8492 
30616000    87.691519   -4592.7836   -4442.4834   -4592.7836            0     1748.998      17.9703    23.265874    21.945241    9175.1892    1773.3577    1799.8491    1673.7872   -13.154049   -338.18471   -218.96251   -4208.4487 
30617000    83.880429    -4587.225   -4443.4568    -4587.225            0     1936.933    18.024547    23.241951    21.830183    9145.2236     1715.182    2663.3263    1432.2905    161.94838   -467.79514    380.70764   -4185.1209 
30618000    86.701488    -4591.705   -4443.1016    -4591.705            0    2116.4935    17.974222    23.180892    21.946536    9144.2109    1551.0915    2759.5555    2038.8333   -795.28844    461.81645    197.84608   -4160.8483 
30619000    90.703359   -4584.2592   -4428.7967   -4584.2592            0    1515.6946     18.00228     23.34977     21.82702    9174.9683    1267.5981    1062.6062    2216.8794    82.565657   -26.428428    75.419254   -4225.9854 
30620000    89.245105   -4589.9645   -4437.0014   -4589.9645            0    3477.0216    17.959304    23.220377    21.795097    9089.0309    2919.0361     3008.154    4503.8745   -117.13168    438.27758    328.95203   -3976.1076 
30621000    90.474566   -4595.5015   -4440.4312   -4595.5015            0    1785.3819    18.035111    23.189746    21.921587    9168.2573    1890.8464    2242.6573    1222.6419    171.91884    247.11869   -330.29554   -4201.7085 
30622000    90.952156   -4578.7833   -4422.8944   -4578.7833            0    2554.2688    18.026868    23.108203    21.911275    9127.5472    2317.3727     3908.958    1436.4756    887.48753   -179.77414    408.97378   -4082.8806 
30623000    89.405962   -4599.4256   -4446.1868   -4599.4256            0    1298.8973    17.960499    23.356905    21.917915    9194.6019    1950.8366    1127.4888    818.36643   -491.49952    313.71842     464.3855   -4272.0127 
30624000    91.455623   -4584.6165   -4427.8647   -4584.6165            0    2305.5027    17.851493    23.464187     21.85782    9155.6021    2001.9202    2459.5627    2455.0253    646.57201   -38.970226   -114.59066   -4120.0223 
30625000    95.341882   -4583.9904   -4420.5777   -4583.9904            0    1683.3425    17.856829    23.354048    21.977544    9165.2782    2132.7382    1117.8666    1799.4228   -279.80242   -262.96885    269.12426   -4195.5717 
30626000    87.717172    -4584.304   -4433.9597    -4584.304            0    2493.4369    17.851509    23.251778    21.976386    9121.9432    2876.5705    2181.7683    2421.9719   -422.10477   -175.49199    590.50201   -4102.2474 
30627000    92.086152   -4591.5809   -4433.7484   -4591.5809            0    1401.1458    18.020898    23.223481    21.915548    9171.8321    412.85767    1549.9567    2240.6231    81.604951    194.12659    435.43932   -4246.3287 
30628000    83.077759   -4577.5642   -4435.1718   -4577.5642            0    1978.2675    17.975246    23.206329    22.005027    9179.1657    2241.3571    2413.6699    1279.7755    305.91391     18.29895   -164.84335   -4170.3437 
30629000    89.267632   -4578.3295   -4425.3278   -4578.3295            0    2298.9268    17.893834    23.230396    22.051082    9166.2125    3324.9253    2203.1093    1368.7457   -490.06105    210.51549   -515.24583   -4118.0077 
30630000    85.712371   -4589.4117   -4442.5036   -4589.4117            0    2650.7205    17.823795    23.320761    21.971037    9132.5795    2393.1441    2914.4521    2644.5653    -218.6217   -459.70951   -72.550707    -4089.456 
30631000    83.110736   -4588.1262   -4445.6772   -4588.1262            0    1991.1489    17.889213    23.399609    21.886716    9161.7918    2968.6754     1769.403    1235.3683    140.94331    265.24359    216.92108   -4179.6292 
30632000     91.82589   -4581.8992   -4424.5128   -4581.8992            0    2293.4861    17.884742    23.280461    21.995967    9158.3517    2374.5781    2607.0489    1898.8312    1122.6788   -75.506706    34.440186   -4118.1829 
30633000     85.06785   -4586.5374   -4440.7341   -4586.5374            0    1275.0225    17.923251    23.268796    22.038024    9191.0124    461.07163    1732.6317    1631.3643    483.14283   -20.768866    165.64437   -4269.8281 
30634000    82.187907    -4584.408   -4443.5407    -4584.408            0    1746.4575    18.082266    23.256221    21.826137    9178.4402    1339.9831    1019.4771    2879.9124    383.30997   -84.856456   -444.60793   -4209.7631 
30635000    84.830749   -4594.8433   -4449.4463   -4594.8433            0    1234.1467    17.960341    23.348121    21.950209    9204.6055    886.00986    1204.6275    1611.8028   -536.74284   -6.9104223    444.02482   -4283.7748 
30636000    86.267632   -4581.2701   -4433.4104   -4581.2701            0    2027.9691    17.936847    23.260257    21.917108    9144.1609     2247.785    1749.3529    2086.7695   -607.79115   -509.12598   -353.39792    -4162.964 
30637000    88.046451    -4591.822   -4440.9134    -4591.822            0    2754.1582    17.912405    23.274341     21.85101    9109.6734    2883.0345    2229.6114    3149.8287    288.31603    132.14856     198.0839    -4075.009 
30638000    89.430011   -4586.0906   -4432.8107   -4586.0906            0    3140.1174    17.941857    23.254088    21.846905    9114.9988    4072.9182    2609.7762     2737.658    248.07416    72.977467      164.668   -4015.3857 
30639000    82.785764   -4595.0944   -4453.2025   -4595.0944            0    1504.0268    18.030813     23.16898    21.956831    9172.5879     903.7983    2588.1584    1020.1238    125.90354   -32.614161    775.41645   -4252.0046 
30640000      84.3546   -4581.1304   -4436.5495   -4581.1304            0    2573.8375    18.017082    23.208224     21.82703    9126.8522    3210.0599    2443.5357    2067.9169    591.14156    223.54563    619.78998   -4093.9569 
30641000    88.719437   -4598.7827   -4446.7206   -4598.7827            0    1873.1143    17.971447    23.237492    21.938728    9161.8622    1657.2697    2146.4687    1815.6045    280.26201   -502.33561   -111.39228   -4196.4419 
30642000    85.740513   -4587.1425   -4440.1862   -4587.1425            0    2152.1562    17.784416    23.339169    21.992302    9128.4217    2531.8178    1688.6146    2236.0361    47.450918   -388.95193    240.86263   -4153.6725 
30643000    80.605919   -4579.1368    -4440.981   -4579.1368            0     2087.488    17.891658    23.448576    21.842144    9163.5202    2759.9743    1218.3899    2284.0999   -883.52819    172.07216    416.18961    -4162.008 
30644000    84.323127    -4581.434    -4436.907    -4581.434            0    1606.0956    17.769415     23.39775    22.078368    9179.3978    1855.6904    1286.5904    1676.0061   -436.11885    -863.1418    213.74263   -4221.8956 
30645000    91.134426   -4585.4049   -4429.2036   -4585.4049            0    1699.6296    17.942705    23.233324    22.026607    9182.2027    1195.7159    2071.6048    1831.5681    127.61542   -272.37624    268.16398   -4201.6011 
30646000    87.862461   -4590.0697   -4439.4765   -4590.0697            0    2458.1993    17.941358    23.261107    21.914713    9145.7955    2889.9794    1853.3435    2631.2749   -119.65556   -341.19784   -152.42614   -4111.5968 
30647000    82.380762   -4586.2925   -4445.0947   -4586.2925            0    2705.4529    17.829837    23.476931    21.789061      9120.68    3122.0464    2003.7461    2990.5661    469.82094    353.55076    69.746938   -4085.2268 
30648000    81.707722   -4588.4295   -4448.3853   -4588.4295            0    2081.7695    17.914189    23.475083    21.737426    9141.3936    1693.7574    1527.8387    3023.7123   -151.94036    -71.52671   -15.672933   -4170.8482 
30649000    85.023163   -4567.6918    -4421.965   -4567.6918            0    3054.2578    17.880025    23.349887    21.872388    9131.6468    3209.2041     2409.599    3543.9702    186.89374    43.330466   -179.80664   -4015.2121 
30650000    83.269113   -4579.5747   -4436.8543   -4579.5747            0    1857.5734    18.052251    23.280705    21.799585    9161.6928    1448.2059    2513.9663     1610.548   -470.02339     131.9409    13.212041   -4188.6567 
30651000    88.906148   -4582.3618   -4429.9797   -4582.3618            0    1564.1924    17.937772    23.321175     21.96629    9189.1565    1699.0692     1090.612    1902.8959    221.15397   -100.25735    366.99272   -4220.3553 
30652000    84.887485   -4592.3361   -4446.8418   -4592.3361            0    1635.5808    17.999283    23.142659    21.977058    9154.5712    1538.4612    2093.7301    1274.5512   -709.64665   -51.888671    103.62824   -4228.4754 
30653000    87.600103   -4583.9145   -4433.7709   -4583.9145            0    1458.9971    18.024343    23.298464    21.868336    9183.3781    451.22366    2266.9182    1658.8495   -706.99366   -61.689803   -118.67674   -4238.3672 
30654000     82.43987   -4584.4276   -4443.1284   -4584.4276            0    1924.8455    17.908919     23.26565     21.98175    9158.9738    1723.5525    1760.6834    2290.3005    591.37567   -198.87233   -400.76363   -4186.0187 
30655000     84.85862   -4581.7707   -4436.3259   -4581.7707            0    1825.6569    17.850872    23.339504    21.986952    9160.4344    2589.3286    1055.2209    1832.4213   -556.45383    343.44478    163.52305   -4192.4263 
30656000    80.551025    -4588.865   -4450.8033    -4588.865            0    2752.8273     17.80951    23.327179    21.954394     9120.857    3402.0955     2732.406    2123.9803   -713.77656    12.364332    324.00358   -4084.6267 
30657000    86.647224   -4589.0363   -4440.5259   -4589.0363            0    1840.5885    17.974565    23.209972    21.957099    9160.2632    1483.4623     2151.302    1887.0014   -781.24698    235.98049    93.550231   -4194.6361 
30658000    85.734477   -4585.2351   -4438.2892   -4585.2351            0    1999.6484    18.128072    22.962493    21.991721    9154.3998    1562.8197    2864.9023    1571.2233   -324.62434   -336.06036   -113.15525   -4171.3211 
30659000    90.039032   -4590.5398    -4436.216   -4590.5398            0    1797.5146    18.053195    23.280986    21.771771    9150.5923    1056.2545    1726.0697    2610.2196    640.47178   -296.77828   -121.99745    -4196.334 
30660000    89.144761   -4577.5108   -4424.7198   -4577.5108            0    1872.7866    18.003638    23.288708    21.885799    9176.3103    893.76397    1138.4912    3586.1047   -268.99488    236.64392   -165.37392   -4174.0902 
30661000    79.563793   -4582.1815   -4445.8119   -4582.1815            0    1734.2564    17.900167    23.278707     21.99564    9165.4234    1827.9687    1576.9905    1797.8102    350.98795    62.636953     45.23559   -4213.9968 
30662000    81.796668   -4579.9496   -4439.7529   -4579.9496            0    2023.2875    18.112901    23.188766    21.819802     9164.662     2013.333    2562.3394    1494.1899   -126.21494   -151.71035    184.38043    -4169.326 
30663000    87.295589   -4587.5636   -4437.9419   -4587.5636            0    1289.9369    17.977728    23.231806    22.003591    9189.9122    1950.2966    1011.4742    908.03989   -271.23349   -273.63411    506.59637   -4265.0576 
30664000    90.716252   -4595.0066   -4439.5221   -4595.0066            0    1487.9524     17.89863     23.36033    21.964516    9183.7576    2117.0943    1163.0805    1183.6824    327.70604   -52.447361    83.505789   -4240.2322 
30665000    85.152091   -4582.0349   -4436.0872   -4582.0349            0    2004.1509    17.919923    23.349362    21.833165    9135.4062    1564.0212    2098.5402    2349.8914   -278.10297    563.36426   -197.70073   -4169.0731 
30666000    86.106711   -4577.5821   -4429.9982   -4577.5821            0    1816.4847    17.734405    23.417735     22.02429    9146.6788     2673.204    1496.7153    1279.5349    -172.0838   -24.058919     217.2202   -4187.6883 
30667000    86.842094   -4594.0027   -4445.1583   -4594.0027            0    1647.8879    17.935415    23.389896     21.83309     9159.145    1343.9884    1779.2519    1820.4234   -507.51418   -42.231218    346.00298   -4225.0388 
30668000    93.037553   -4580.5791   -4421.1159   -4580.5791            0    1543.4417    17.979472    23.245755    21.951273    9174.4554    242.68055    2064.1548    2323.4898    55.895936    216.06411    243.34962   -4214.6034 
30669000     88.32428   -4575.6888    -4424.304   -4575.6888            0    2104.1838    18.110598    23.237289    21.762436    9158.5297    1426.6685     1497.816    3388.0669    388.95931   -16.547535     -51.2159   -4143.2529 
30670000    84.339289   -4582.6064   -4438.0517   -4582.6064            0    1198.7959    18.056217      23.2347    21.926015    9198.6386    234.11008    2256.9748    1105.3028   -129.81636     354.1504    339.44981     -4277.23 
30671000    91.556997   -4589.8364   -4432.9109   -4589.8364            0    2383.6042    18.019087    23.276386    21.759263    9126.2532    1312.0729    2925.2548     2913.485     290.4668    62.420012    181.58349   -4115.6602 
30672000     84.67218   -4584.2391   -4439.1139   -4584.2391            0    1805.8255    17.990204    23.324152    21.839329    9163.9187     2136.105    1045.8593    2235.5123   -412.90569     -142.325    157.40106   -4197.7719 
30673000    85.635248   -4589.4683   -4442.6924   -4589.4683            0    1749.3829     17.81714    23.375199    22.053056    9184.6391    2138.8489    1237.2075    1872.0923    474.89853   -198.82173   -123.75962   -4208.3651 
30674000     84.92646   -4586.4162   -4440.8551   -4586.4162            0    2078.0512     17.81582    23.299279    22.062773    9158.1633    2399.5596    2594.0251    1240.5691   -269.19197   -198.98653    283.63768   -4163.3056 
30675000    89.003653   -4578.6019   -4426.0527   -4578.6019            0    2934.6728    17.810433    23.357554    21.926471    9121.5904     3016.637    2607.8596    3179.5217    10.546773   -94.074738    -182.4734    -4035.656 
30676000    87.379398   -4588.8983    -4439.133   -4588.8983            0     2079.335    17.893047    23.192858    22.027035    9141.0189    2124.4168    2241.1117    1872.4765    -362.7134     187.6558    180.98841   -4161.9319 
30677000    94.614324   -4587.6994   -4425.5337   -4587.6994            0    1517.6077    17.927937    23.342954    21.953831    9187.4808    1424.7464    2061.5343    1066.5423   -423.54311   -277.89459   -568.45258   -4222.1894 
30678000    89.158231    -4579.475   -4426.6608    -4579.475            0    1955.9591     17.91675    23.431955    21.820061    9160.5959    1348.9825    1988.5769    2530.3179   -339.25247   -228.43077   -395.97714   -4165.3488 
30679000    85.399714   -4581.1738   -4434.8016   -4581.1738            0    2960.2157    17.915243    23.267023    21.896991    9127.4184    2691.3955    2955.2126     3234.039    384.28373   -88.027596     677.6958   -4040.7553 
30680000    83.726122    -4580.795   -4437.2913    -4580.795            0    1581.4771    18.000719    23.416276    21.761693     9172.767    1120.1711    989.79347    2634.4667    432.11366   -358.14889    75.938247   -4225.7286 
30681000    86.557463   -4579.7175   -4431.3609   -4579.7175            0    2098.5606     17.91042     23.34438    21.919977    9164.9099    1448.9079    2031.6694    2815.1044    477.63326     134.1398    33.129042   -4150.8656 
30682000     90.13769   -4578.3077   -4423.8148   -4578.3077            0    2351.0046    17.897749    23.452546    21.811025    9155.1294    1884.6715    2253.0463    2915.2961   -833.06094    13.577182   -56.092815    -4109.913 
30683000    88.268188   -4593.2402   -4441.9515   -4593.2402            0    2188.8627    17.901945    23.429316    21.838047    9159.5391    2856.5171    1673.3074    2036.7635    423.94191   -117.54615    408.03615   -4149.5578 
30684000    84.659046   -4588.0475   -4442.9448   -4588.0475            0    2529.7796    17.877444    23.305768     21.96684    9152.4306     2948.974    2763.6088     1876.756   -900.42564    280.19613    283.78887   -4105.2728 
30685000    88.475278   -4580.3566    -4428.713   -4580.3566            0    2301.5502    17.971582    23.257796    21.902599    9154.8347     1998.886    2655.5698    2250.1948   -100.39989    161.98478    160.94472   -4121.4241 
30686000    86.928003   -4577.7339   -4428.7422   -4577.7339            0       1775.2    17.951291    23.343631    21.909767    9181.2512    1535.9561    1338.8617    2450.7824   -435.37049   -247.16885    -15.81419   -4191.0445 
30687000    88.651791    -4591.397   -4439.4508    -4591.397            0     2065.499    17.951495    23.227171    21.923552    9141.2976    2440.6956    2243.3144    1512.4869    35.432958    560.74863   -16.468279   -4164.0858 
30688000    91.152971   -4579.3863   -4423.1533   -4579.3863            0    2464.3666     17.92703    23.122545     22.06019    9144.3582    2116.8486    3359.6178    1916.6336     112.2546   -386.68274   -350.84417   -4094.5026 
30689000     85.08117   -4592.0878   -4446.2616   -4592.0878            0    1495.9094    17.825428    23.384896    22.057956    9194.7658    2946.1455    260.69932    1280.8835    799.52882    11.177652   -114.46483   -4245.6658 
30690000    91.795039   -4579.8556   -4422.5221   -4579.8556            0    1970.9011    17.929067    23.328613     21.93916    9176.2792    1726.3424    1919.5234    2266.8375    -571.8706    252.02051    -177.5753    -4158.763 
30691000    89.312713   -4584.3864   -4431.3074   -4584.3864            0    1402.8241    17.905585    23.427817    21.919752    9195.0896    1403.7162    1271.0685    1533.6875   -270.61639    97.929046    -343.6934   -4243.1874 
30692000    88.238208   -4581.6302   -4430.3929   -4581.6302            0    2215.7088     17.92599     23.24711    21.968251    9154.7732    3098.4139    2581.5538    967.15858    367.92663    330.80381    856.89543    -4134.567 
30693000    86.013024   -4580.3891   -4432.9657   -4580.3891            0    1772.9867    18.035199    23.380899    21.747482    9170.4602    1175.8714    1679.5101    2463.5785    367.38947    559.80646   -317.17177   -4195.8434 
30694000    84.030429    -4572.042   -4428.0167    -4572.042            0    977.93033    18.050318    23.436641    21.814082    9228.2038    258.85612    1317.5763    1357.3586    328.26145   -271.85876   -23.101892    -4296.403 
30695000    89.483633   -4590.2204   -4436.8485   -4590.2204            0    1709.0063    18.016113    23.215582    21.915551    9166.2785    1759.0752    1998.4488     1369.495    499.34399    56.495117    153.75837   -4208.3872 
30696000    86.990924   -4583.9651   -4434.8657   -4583.9651            0    2054.1913    17.983363    23.358783    21.781919    9149.9194    1693.5744      2166.78    2302.2195   -37.031247   -373.69049   -639.64124   -4160.7499 
30697000    85.878734   -4578.8565   -4431.6633   -4578.8565            0    1390.7353    17.910411    23.405285    21.935746     9195.427     1729.578    1422.1213    1020.5067   -497.49311    39.526001    105.57936   -4245.1575 
30698000    90.057908   -4583.4231   -4429.0669   -4583.4231            0    2614.1134    17.882001     23.35626    21.870707    9134.4463    2843.3886    3230.5724    1768.3793   -883.83607   -323.02061    417.69684   -4080.8238 
30699000    90.477081   -4583.7293   -4428.6547   -4583.7293            0    1509.0218    17.939259    23.429909    21.883287    9197.8781    1440.1057    1608.0731    1478.8867    418.19558   -52.722191    277.01811   -4226.2321 
30700000    91.782359   -4594.5523   -4437.2405   -4594.5523            0    1405.8426    17.887024    23.403704    21.916515    9174.7489    1456.5563    1113.8619    1647.1097    112.01818   -203.52989    323.83619   -4249.1327 
30701000    85.283331   -4579.6698   -4433.4971   -4579.6698            0    2214.5968    17.842572    23.348129    21.969291    9152.2018    1756.1062    2320.4041    2567.2802   -453.23789   -242.61587    -337.5215   -4137.9027 
30702000    86.369917   -4577.1516   -4429.1166   -4577.1516            0    2715.6694    17.744146    23.319166    22.054518    9125.6892     3511.474     2569.946    2065.5883   -392.15597     310.0509    341.17022   -4067.6913 
30703000    82.721754   -4584.9457   -4443.1634   -4584.9457            0    2060.8024    18.008659    23.247967    21.881308    9160.9315      1796.03    1616.2589    2770.1183   -253.40454    419.35621    254.99922   -4167.8345 
30704000    83.764189   -4585.2125   -4441.6436   -4585.2125            0     2016.401    17.945227    23.209826    22.018071    9170.6496    1964.5615    1893.7516    2190.8898   -91.500359   -220.93491   -49.850538    -4171.961 
30705000    82.887803   -4585.2526   -4443.1858   -4585.2526            0    2159.4286     18.00121    23.353957    21.762231    9148.8304    1179.4703    1749.5676     3549.248   -520.55092    34.057631   -345.37688   -4155.0612 
30706000     88.95319   -4593.7962   -4441.3335   -4593.7962            0    2472.7241    18.054939    23.288876    21.714062    9130.3121    1487.7191    2630.3948    3300.0585     189.7896     128.1778     30.36949   -4112.0749 
30707000    85.227612   -4583.5581   -4437.4809   -4583.5581            0    1370.2997    17.984674    23.261885    21.966825    9189.9839    1346.0746    1270.3045    1494.5198    363.18199   -176.86573   -175.01457   -4253.8245 
30708000    90.771561    -4583.826   -4428.2466    -4583.826            0    2308.2434    17.915425    23.319458    21.896222    9147.7599    2333.4651    2674.3967    1916.8683   -159.14379   -172.67885    519.20313   -4120.3023 
30709000    88.593211   -4587.6579   -4435.8121   -4587.6579            0    1715.2202    17.842554    23.539362    21.813245    9161.6137    1826.8287    1413.7698    1905.0621    201.52943   -147.99965    129.10778   -4206.6369 
30710000    88.116938   -4575.2938   -4424.2644   -4575.2938            0    1707.5639    17.857589    23.424329    21.912054    9165.8571    1450.2349    1951.5482    1720.9086   -466.80927    477.52314    56.085542   -4196.0064 
30711000    87.515553   -4590.5583   -4440.5597   -4590.5583            0    2037.6624    17.850878    23.366212    21.922991    9144.2417    1474.8733    2135.6797    2502.4342   -276.21957   -195.29515   -191.65086   -4168.8183 
30712000    90.403465   -4588.5254   -4433.5769   -4588.5254            0    1210.3033    17.832513    23.553789    21.911678    9203.4143    870.62163    561.21039    2199.0778   -292.84981   -165.16376   -358.96732   -4271.1272 
30713000    91.374008   -4584.6162   -4428.0043   -4584.6162            0    1110.8948    17.790539     23.47769     22.01571    9195.5386    1445.7321    1104.6555    782.29666    176.69711   -230.85298    136.46971    -4279.025 
30714000    86.439265   -4585.1929    -4437.039   -4585.1929            0    1898.1186    17.902531    23.384537    21.866744    9154.3459    1987.4193    1417.9912    2288.9453   -340.14013   -228.77327    332.72482   -4183.6274 
30715000    84.008378   -4595.0689   -4451.0814   -4595.0689            0    2243.2637    17.694872    23.457898    22.014031    9137.6834    3845.8236    1276.7222    1607.2453    357.35437   -108.83531    88.579709   -4152.1357 
30716000    86.840793   -4588.1675   -4439.3253   -4588.1675            0    1775.1465    17.952821    23.375307    21.850168    9169.4819    1919.1988    1292.5261    2113.7147   -319.67947   -150.53484   -240.17065   -4201.9394 
30717000     83.11106   -4588.6795     -4446.23   -4588.6795            0    1659.1739    17.932514    23.429905    21.828357    9171.3392    1606.4687    1823.7072    1547.3457   -214.77841     40.17845   -141.62044   -4224.3079 
30718000    86.441549   -4580.3415   -4432.1837   -4580.3415            0    1557.1904    17.855443    23.283705    22.031783    9159.5121    2481.4985    1708.0406    482.03206    870.08011   -177.66394    244.79004   -4224.1709 
30719000    84.969042   -4575.8501   -4430.2161   -4575.8501            0    2479.8452    17.935941    23.256742    21.896641    9133.7801     2291.021    2738.1384    2410.3761    -246.6412   -209.74841    357.31803   -4099.8838 
30720000    86.187044   -4590.8601   -4443.1384   -4590.8601            0    2280.3521     17.94194    23.277216    21.879478    9137.7107    1906.7206    1973.2476    2961.0882    369.00073   -305.16214    510.34671   -4139.2493 
30721000    88.578777    -4586.504    -4434.683    -4586.504            0    1992.8516    17.852023    23.265023    21.996846    9135.8998    2225.7086    2058.1501     1694.696    -176.5364    460.73615    69.195322     -4169.16 
30722000    87.148309   -4592.6193   -4443.2501   -4592.6193            0    1671.2468    17.977935    23.366492    21.829183     9170.031    845.52858    1597.4641    2570.7477   -336.95845   -117.18721    285.06552   -4219.7451 
30723000    85.184908   -4586.9352   -4440.9312   -4586.9352            0    2160.7353    17.880127    23.366003    21.903088    9150.8272    2503.3986    1862.8718    2115.9355     188.0081    -10.48613    2.0447693   -4152.5693 
30724000    85.597853   -4583.0607   -4436.3489   -4583.0607            0    1290.5094    17.944217    23.429174    21.848448     9185.485    1533.0984    1166.1723    1172.2575   -96.533711    381.95751   -498.83382   -4263.4711 
30725000    85.817316   -4589.3363   -4442.2484   -4589.3363            0    2537.9444    17.931977    23.335167    21.849676    9142.9023    2395.4148    1963.6785      3254.74   -345.14285    429.78535    56.657002   -4103.8392 
30726000    89.098787   -4585.0509   -4432.3386   -4585.0509            0    2617.3439    17.859723    23.190253    22.055149     9134.614    3126.7292    2830.4406     1894.862    194.03274   -157.42261    165.55357   -4083.6587 
30727000    93.627009   -4574.2084   -4413.7349   -4574.2084            0    2069.1684    18.051545     23.15403    21.924973    9163.8935    1425.7627    2718.9658    2062.7766    135.17326   -217.97096   -46.600436   -4137.1989 
30728000    88.589996   -4578.7087   -4426.8684   -4578.7087            0     2550.497    17.921596    23.241416    21.937716     9137.569    2798.2219    3026.2365    1827.0326   -17.725489    520.72886    381.88557   -4086.9839 
30729000    90.382154   -4584.3285   -4429.4166   -4584.3285            0    2269.1258     17.98871    23.215801     21.89588    9144.2084    2385.1192    2406.1784    2016.0799    496.86089    266.59575    122.47128   -4126.8085 
30730000    89.641625   -4580.5264   -4426.8837   -4580.5264            0    1022.3461      18.0745    23.331889    21.873598    9224.3638    85.534626    294.05358    2687.4501   -148.27695    67.084814    274.56172   -4289.3497 
30731000    88.905862   -4580.0279   -4427.6463   -4580.0279            0    1704.4445    17.940327    23.383842    21.903568    9188.8488    1266.6085    949.84829    2896.8767    161.08088   -431.03373    160.94124   -4199.2338 
30732000    89.402088   -4585.7778   -4432.5457   -4585.7778            0    2024.9466    17.817665     23.23652    22.090641    9145.9786    2261.5467    1992.9338    1820.3594    123.63059   -314.16172     670.5394   -4162.4488 
30733000    84.705936   -4584.5177   -4439.3346   -4584.5177            0    2169.0242    17.857142    23.419977    21.858604    9141.5708    1460.8762    2926.0649    2120.1316    320.99935   -400.24518   -115.50034   -4150.1594 
30734000    91.841689     -4585.79   -4428.3765     -4585.79            0    1750.7831    17.809957    23.455579    21.937641    9164.2929    2086.7293    2219.8881    945.73183   -92.684565    -89.41841    284.33787   -4194.3812 
30735000    84.484822   -4584.7692   -4439.9651   -4584.7692            0    2305.5993    17.817733    23.422798    21.871215    9127.7584    3529.9994    1535.4686    1851.3299   -265.12692   -78.695593    642.20883   -4133.0461 
30736000    88.833947    -4589.832   -4437.5736    -4589.832            0    2095.7965    17.875973    23.248739    22.060718     9168.298    2558.6257    1252.2777    2476.4861    168.56361    149.88038    161.44206   -4157.3442 
30737000    89.954955   -4590.8673   -4436.6875   -4590.8673            0    1753.5887    18.012031    23.152197    21.952938    9154.7721    1681.0453    2032.7618     1546.959    127.39734    36.334772    206.39481   -4202.5607 
30738000    89.553352   -4583.2645   -4429.7731   -4583.2645            0     2020.006    18.047664    23.148262    21.887259     9143.885    861.19169    2566.9417    2631.8848    145.01529    -44.63637    33.065517   -4160.3968 
30739000    85.102703    -4579.007   -4433.1439    -4579.007            0    2300.2952    18.074322    23.112792    21.856605    9130.5541    1198.5667    2790.4919    2911.8269    342.02892    19.262318    73.317182   -4126.8371 
30740000     85.42838   -4580.4131   -4433.9918   -4580.4131            0    1717.3544    18.025275    23.181452    21.966267    9178.6494     830.6186    2586.2727    1735.1718     30.07977   -418.51221    129.18406   -4204.1047 
30741000    85.889196   -4588.1781   -4440.9669   -4588.1781            0    3012.6224    17.877121    23.279164    21.888779    9109.3312    3830.9316    2979.7955      2227.14    215.99666    434.34314    266.43348   -4040.7393 
30742000    83.479587   -4579.9813   -4436.9002   -4579.9813            0    2425.7999    17.908473    23.204776    21.959245    9125.4304    1450.7826    3459.2934    2367.3235    353.22211    189.41647    560.98728   -4114.0625 
30743000    87.174971     -4574.75   -4425.3351     -4574.75            0    2026.2955    18.004762     23.32479    21.818592    9162.8766    1745.1023    1774.5548    2559.2296   -89.992576    25.927685    85.222509   -4154.5589 
30744000    86.262976    -4578.471   -4430.6192    -4578.471            0    1759.6906    17.937977    23.370667    21.886082     9175.138    1223.6032    1982.0688    2073.3997   -108.65787   -370.02532    216.78921    -4195.155 
30745000    86.434879   -4571.1802   -4423.0338   -4571.1802            0    2428.6703     17.95108    23.171769    21.982177    9143.6689     2603.969    3258.5597    1423.4822    -541.3935    -63.69866   -60.514873   -4099.1681 
30746000    87.084985   -4584.1485   -4434.8878   -4584.1485            0    2096.7485     18.02088    23.209587     21.89236    9156.6372    2546.9927    1857.9437    1885.3092    399.89179   -171.11545    28.506212   -4154.8877 
30747000     87.86462   -4587.9397   -4437.3428   -4587.9397            0    2488.3941    17.848107    23.288107    21.956456    9126.1706    2278.4637    2848.9926     2337.726   -71.155362    455.50599    56.064637   -4106.1479 
30748000    89.504531   -4578.7546   -4425.3469   -4578.7546            0    2249.6848    17.833902    23.314531    22.011085    9151.9679    2466.4532    1627.4788    2655.1223   -36.443967     19.44354    205.39447   -4125.0768 
30749000    86.414779   -4592.7815   -4444.6695   -4592.7815            0    2039.5315      17.8937    23.364398    21.904725    9157.8295     2379.595    1653.2639    2085.7357   -724.31568   -75.007782   -220.53681   -4172.2747 
30750000    89.095509    -4573.124   -4420.4173    -4573.124            0    2636.9665    17.812801    23.348681    21.942882    9126.1632    2125.8696    2809.3023    2975.7277    -213.4796    224.89998   -264.12532   -4069.4484 
Loop time of 341.827 on 64 procs for 250000 steps with 864 atoms

Performance: 126.380 ns/day, 0.190 hours/ns, 731.363 timesteps/s
381.3% CPU use with 16 MPI tasks x 4 OpenMP threads

MPI task timing breakdown:
Section |  min time  |  avg time  |  max time  |%varavg| %total
---------------------------------------------------------------
Pair    | 24.945     | 27.45      | 33.038     |  41.1 |  8.03
Bond    | 1.502      | 1.8152     | 2.7002     |  24.4 |  0.53
Kspace  | 178.21     | 185.1      | 189.72     |  23.0 | 54.15
Neigh   | 0.32878    | 0.3378     | 0.35153    |   1.0 |  0.10
Comm    | 42.324     | 45.387     | 47.912     |  27.2 | 13.28
Output  | 0.57642    | 0.57672    | 0.57805    |   0.0 |  0.17
Modify  | 55.277     | 60.958     | 68.215     |  53.4 | 17.83
Other   |            | 20.21      |            |       |  5.91

Nlocal:        54.0000 ave          61 max          46 min
Histogram: 2 0 5 1 0 0 1 0 3 4
Nghost:        2579.75 ave        2601 max        2562 min
Histogram: 2 3 2 1 1 1 0 3 1 2
Neighs:        13308.4 ave       15013 max       11587 min
Histogram: 3 2 1 2 1 0 0 0 5 2

Total # of neighbors = 212935
Ave neighs/atom = 246.45255
Ave special neighs/atom = 2.0000000
Neighbor list builds = 1400
Dangerous builds = 0

unfix		3
unfix		2
unfix		1

write_data	data.final.${pid} nocoeff
write_data	data.final.1 nocoeff
System init for write_data ...
PPPM initialization ...
  extracting TIP4P info from pair style
  using 12-bit tables for long-range coulomb (../kspace.cpp:340)
  G vector (1/distance) = 0.37205459
  grid = 24 27 25
  stencil order = 5
  estimated absolute RMS force accuracy = 0.0031244088
  estimated relative force accuracy = 9.4090642e-06
  using double precision FFTW3
  3d grid and FFT values/proc = 6300 1296
Last active /omp style is kspace_style pppm/tip4p/omp

write_restart   restart.lmp.${pid}
write_restart   restart.lmp.1
System init for write_restart ...
PPPM initialization ...
  extracting TIP4P info from pair style
  using 12-bit tables for long-range coulomb (../kspace.cpp:340)
  G vector (1/distance) = 0.37205459
  grid = 24 27 25
  stencil order = 5
  estimated absolute RMS force accuracy = 0.0031244088
  estimated relative force accuracy = 9.4090642e-06
  using double precision FFTW3
  3d grid and FFT values/proc = 6300 1296
Last active /omp style is kspace_style pppm/tip4p/omp
Total wall time: 0:05:41
