LAMMPS (30 Jul 2021)
  using 1 OpenMP thread(s) per MPI task
package omp 0
using multi-threaded neighbor list subroutines
echo both

include		in.partitions
variable        pid world 0
include		in.temp
variable        temperature equal 260
variable	tempDamp equal 100.0
include		in.pressure
variable        pressure equal 6000
variable        pressureDamp equal 1000.0 # This is 1 ps
include		in.seed
variable        seed world 745823

units		real
atom_style	full
include		in.box
read_data       iceIII.data
Reading data file ...
  orthogonal box = (0.0071020000 0.0044740000 -0.050387000) to (46.652896 19.995527 20.750385)
  8 by 2 by 2 MPI processor grid
  reading atoms ...
  2268 atoms
  scanning bonds ...
  2 = max bonds/atom
  scanning angles ...
  1 = max angles/atom
  reading bonds ...
  1512 bonds
  reading angles ...
  756 angles
Finding 1-2 1-3 1-4 neighbors ...
  special bond factors lj:    0        0        0       
  special bond factors coul:  0        0        0       
     2 = max # of 1-2 neighbors
     1 = max # of 1-3 neighbors
     1 = max # of 1-4 neighbors
     2 = max # of special neighbors
  special bonds CPU = 0.002 seconds
  read_data CPU = 0.039 seconds
include 	in.setup
variable	out_freq equal 500
variable	out_freq2 equal 500

timestep	2.0

neigh_modify    delay 7 every 1

include		in.tip4p
# This is TIP4P/Ice

# create groups ###
group ox type 2
756 atoms in group ox
group hy type 1
1512 atoms in group hy

# set charges - beside manually ###
set group ox charge -1.1794
Setting atom values ...
  756 settings made for charge
set group hy charge 0.5897
Setting atom values ...
  1512 settings made for charge

# ### TIP3P Potential Parameters ###
pair_style lj/cut/tip4p/long 2 1 1 1 0.1577 8.5
pair_coeff 1 1*2 0.000 0.000
pair_coeff 2 2 0.21084 3.1668
bond_style  harmonic
bond_coeff  1 450 0.9572
angle_style harmonic
angle_coeff 1 55 104.52
kspace_style pppm/tip4p 1.0e-5
pair_modify tail yes

thermo          ${out_freq}
thermo          500
thermo_style 	custom step temp pe etotal epair emol press lx ly lz xy xz yz vol pxx pyy pzz pxy pxz pyz cella cellb cellc cellalpha cellbeta cellgamma

restart 	${out_freq} restart.lmp.${pid} restart2.lmp.${pid}
restart 	500 restart.lmp.${pid} restart2.lmp.${pid}
restart 	500 restart.lmp.0 restart2.lmp.${pid}
restart 	500 restart.lmp.0 restart2.lmp.0


include         in.dump
dump            myDump all atom ${out_freq2} dump.water.${pid}
dump            myDump all atom 500 dump.water.${pid}
dump            myDump all atom 500 dump.water.0
dump            myDump2 all dcd ${out_freq2} dump.dcd
dump            myDump2 all dcd 500 dump.dcd
dump_modify     myDump append yes
dump_modify     myDump2 append yes


timer           timeout 04:55:00 every 1000
New timer settings: style=normal  mode=nosync  timeout=04:55:00

fix 		1 all shake 1e-6 200 0 b 1 a 1
       0 = # of size 2 clusters
       0 = # of size 3 clusters
       0 = # of size 4 clusters
     756 = # of frozen angles
  find clusters CPU = 0.000 seconds
fix             2 all nph aniso ${pressure} ${pressure} ${pressureDamp}
fix             2 all nph aniso 6000 ${pressure} ${pressureDamp}
fix             2 all nph aniso 6000 6000 ${pressureDamp}
fix             2 all nph aniso 6000 6000 1000
fix             3 all temp/csvr ${temperature} ${temperature} ${tempDamp} ${seed}
fix             3 all temp/csvr 260 ${temperature} ${tempDamp} ${seed}
fix             3 all temp/csvr 260 260 ${tempDamp} ${seed}
fix             3 all temp/csvr 260 260 100 ${seed}
fix             3 all temp/csvr 260 260 100 745823
velocity 	all create ${temperature} ${seed} dist gaussian
velocity 	all create 260 ${seed} dist gaussian
velocity 	all create 260 745823 dist gaussian

run             500000
PPPM initialization ...
  extracting TIP4P info from pair style
  using 12-bit tables for long-range coulomb (../kspace.cpp:340)
  G vector (1/distance) = 0.3731327
  grid = 48 27 27
  stencil order = 5
  estimated absolute RMS force accuracy = 0.0032773105
  estimated relative force accuracy = 9.8695233e-06
  using double precision FFTW3
  3d grid and FFT values/proc = 6292 1344
Last active /omp style is kspace_style pppm/tip4p/omp
Neighbor list info ...
  update every 1 steps, delay 7 steps, check yes
  max neighbors/atom: 2000, page size: 100000
  master list distance cutoff = 10.8154
  ghost atom cutoff = 10.8154
  binsize = 5.4077, bins = 9 4 4
  1 neighbor lists, perpetual/occasional/extra = 1 0 0
  (1) pair lj/cut/tip4p/long/omp, perpetual
      attributes: half, newton on, omp
      pair build: half/bin/newton/omp
      stencil: half/bin/3d
      bin: standard
Per MPI rank memory allocation (min/avg/max) = 9.589 | 9.604 | 9.621 Mbytes
Step Temp PotEng TotEng E_pair E_mol Press Lx Ly Lz Xy Xz Yz Volume Pxx Pyy Pzz Pxy Pxz Pyz Cella Cellb Cellc CellAlpha CellBeta CellGamma 
       0          260   -11706.567   -10535.526   -11706.567            0    2285.8901    46.645794    19.991053    20.800772            0            0            0     19396.69    5251.6641    3267.3946   -1661.3883    1623.4411   -1524.8903   -175.59418    46.645794    19.991053    20.800772           90           90           90 
     500    263.56322   -10961.076    -9773.986   -10961.076            0    5785.1204    46.825763    19.907098    20.666834            0            0            0      19264.9    5227.9852     6430.313    5697.0629      47.7564    371.06746    1028.0921    46.825763    19.907098    20.666834           90           90           90 
    1000    256.55817   -10951.568   -9796.0289   -10951.568            0    4541.5159    46.374765    20.139987     20.69598            0            0            0     19329.78    5460.9545    2697.8023    5465.7909   -606.66478    1023.5322   -103.19899    46.374765    20.139987     20.69598           90           90           90 
    1500    270.76193   -10976.193   -9756.6803   -10976.193            0    5237.7931    46.723988    19.948436    20.657209            0            0            0    19253.974    4402.6459    6449.6615    4861.0718   -119.22361     -136.657   -320.45825    46.723988    19.948436    20.657209           90           90           90 
    2000    257.77802   -10928.893     -9767.86   -10928.893            0    5919.3142    47.045601     19.76218    20.683403            0            0            0    19229.849    4559.8729    7247.8529    5950.2167   -345.21131    304.03487   -109.60371    47.045601     19.76218    20.683403           90           90           90 
    2500    266.66578   -10948.696   -9747.6326   -10948.696            0    5521.1744    46.585947    19.933789    20.693338            0            0            0    19216.546    6199.4734    5060.5778    5303.4719   -434.62079   -161.02023    586.35856    46.585947    19.933789    20.693338           90           90           90 
    3000    260.15648   -10957.287   -9785.5415   -10957.287            0    4840.8665    46.789423    19.993992    20.639109            0            0            0    19308.038    4173.0732    6110.8659    4238.6603    240.30597   -355.75807    367.00351    46.789423    19.993992    20.639109           90           90           90 
    3500    254.84209   -10968.035   -9820.2253   -10968.035            0    6125.5032    46.449446    19.994755    20.718041            0            0            0    19241.783    6693.1115    5413.2784    6270.1196    625.47772    352.93749    1060.0031    46.449446    19.994755    20.718041           90           90           90 
    4000    259.89193    -10998.09   -9827.5354    -10998.09            0    4654.8889    46.493319    19.927896    20.747399            0            0            0    19222.757    3861.2875    5545.3686    4558.0107    142.77963     554.3692    493.01616    46.493319    19.927896    20.747399           90           90           90 
    4500    258.31203   -10946.796   -9783.3577   -10946.796            0    6031.3853     46.76271    19.869378     20.63982            0            0            0    19177.406    7847.1293    4496.8089    5750.2175   -385.43692    111.99525    908.65688     46.76271    19.869378     20.63982           90           90           90 
    5000    265.07436   -10937.254   -9743.3577   -10937.254            0    5779.4558    46.624606    20.010417    20.651738            0            0            0    19267.614    5198.8013    6390.9511    5748.6149   -235.63364   -495.77467    890.39455    46.624606    20.010417    20.651738           90           90           90 
    5500    256.46753   -11010.226   -9855.0947   -11010.226            0    4790.6675    46.308495    19.993787    20.828477            0            0            0    19284.717    5386.0189    5775.9482    3210.0354    5.2874481   -541.43659   -37.995593    46.308495    19.993787    20.828477           90           90           90 
    6000    270.53154    -10945.91   -9727.4351    -10945.91            0    6698.5481    46.687868    19.996404     20.54137            0            0            0    19177.206    5627.3088    6449.9161    8018.4194     173.0021    1131.0451   -242.81131    46.687868    19.996404     20.54137           90           90           90 
    6500    254.83637   -10949.868   -9802.0835   -10949.868            0    5730.5238    46.720088    19.956862    20.685832            0            0            0    19287.188    5506.3709    6059.3411    5625.8594   -36.860629   -1139.5751    416.62978    46.720088    19.956862    20.685832           90           90           90 
    7000    258.97432     -10944.2   -9777.7788     -10944.2            0     6470.732    46.414773    19.850982    20.683916            0            0            0    19057.722     7856.997    4955.9589    6599.2399   -366.26095    1173.7533    458.90706    46.414773    19.850982    20.683916           90           90           90 
    7500    264.81633   -10973.846   -9781.1122   -10973.846            0    5280.7335    46.593424     20.05629      20.6064            0            0            0      19256.5     4792.501    5153.3449    5896.3546   -574.90231    29.860332     168.4116    46.593424     20.05629      20.6064           90           90           90 
    8000    253.16972   -10922.479   -9782.2013   -10922.479            0    5324.1369    46.494164    19.898339     20.76306            0            0            0    19209.083    5333.7901    5979.6183    4659.0024    70.078219   -511.52678    -108.0849    46.494164    19.898339     20.76306           90           90           90 
    8500    251.32115   -10917.236   -9785.2848   -10917.236            0    7073.0917    46.572798    20.022308       20.515            0            0            0    19130.132    6444.9442    6936.0217    7838.3093    51.628762    772.86274    892.67754    46.572798    20.022308       20.515           90           90           90 
    9000    255.80765   -10864.918    -9712.759   -10864.918            0    6188.7587    46.629355    20.068998    20.530378            0            0            0    19212.419    5479.2503    6915.2444    6171.7813   -150.45022    614.04652    269.78093    46.629355    20.068998    20.530378           90           90           90 
    9500    262.40263    -10938.19   -9756.3271    -10938.19            0    5118.3777    46.607544    19.931193    20.766644            0            0            0    19291.048    4533.7568    5175.2488    5646.1276    289.40921    360.14413     279.6893    46.607544    19.931193    20.766644           90           90           90 
   10000    263.62175    -10927.45   -9740.0964    -10927.45            0    5810.7325    46.564153    19.957165    20.708451            0            0            0    19244.125    5627.1402    6429.7324    5375.3248    506.28576   -758.88164     72.33199    46.564153    19.957165    20.708451           90           90           90 
   10500    262.01331   -10901.329     -9721.22   -10901.329            0    6380.5383    46.757066    19.925533    20.537931            0            0            0    19134.358    5826.9791     6280.098    7034.5378   -109.66087   -715.07477   -79.552188    46.757066    19.925533    20.537931           90           90           90 
   11000    259.67363   -10952.956   -9783.3848   -10952.956            0     6024.914    46.417008     19.90035    20.817091            0            0            0    19229.053    7246.9626    5681.1995    5146.5798   -253.12016   -321.25758    737.95364    46.417008     19.90035    20.817091           90           90           90 
   11500    267.89733   -10990.559   -9783.9485   -10990.559            0    5574.9062    46.811913    20.013659    20.582201            0            0            0    19283.004     4880.742    5738.0262    6105.9503    -217.0495   -146.53871    348.86691    46.811913    20.013659    20.582201           90           90           90 
   12000    268.03383   -10937.684   -9730.4586   -10937.684            0     5568.042     46.78667    19.910992    20.595418            0            0            0    19186.053    5673.5735    5056.1646     5974.388   -677.83947    505.24083    1265.9058     46.78667    19.910992    20.595418           90           90           90 
   12500    267.58349   -10971.136   -9765.9393   -10971.136            0    6784.2633    46.216274    20.048996    20.747537            0            0            0    19224.459    7458.6784    6379.3822    6514.7293   -281.94003    1409.1781    697.07607    46.216274    20.048996    20.747537           90           90           90 
   13000    259.25786   -10917.022   -9749.3239   -10917.022            0    5674.9031    46.706286    19.944256    20.679161            0            0            0    19263.097    6959.9061    4339.0676    5725.7356   -415.77386    131.01825     14.91479    46.706286    19.944256    20.679161           90           90           90 
   13500     255.5425   -10989.262   -9838.2971   -10989.262            0    4940.9967    46.805744    19.983613    20.612067            0            0            0    19279.453    4837.6803    5665.7277    4319.5821   -9.8721276   -442.08788   -467.55757    46.805744    19.983613    20.612067           90           90           90 
   14000    250.93099   -10963.861   -9833.6671   -10963.861            0    5583.4568    46.612564    19.875411    20.719456            0            0            0    19195.414    5158.4486    5926.7974    5665.1245   -223.64963    30.885937    1295.4568    46.612564    19.875411    20.719456           90           90           90 
   14500    257.75843   -10972.655     -9811.71   -10972.655            0    5276.1206    46.408481    20.047319     20.71577            0            0            0     19273.24    5957.8888    5332.6463    4537.8268   -327.43111    213.28251    128.63794    46.408481    20.047319     20.71577           90           90           90 
   15000    269.41916   -10981.366   -9767.9015   -10981.366            0    5698.6115    46.311257    20.216762    20.589933            0            0            0    19277.605    6363.0789    5187.2144    5545.5411   -85.581961    1419.5931    501.69796    46.311257    20.216762    20.589933           90           90           90 
   15500    254.35556   -10919.573   -9773.9547   -10919.573            0    6148.7727    46.705962    19.868318    20.712022            0            0            0    19220.112    5711.2968    6216.1484    6518.8729    155.08673     1000.026   -254.33246    46.705962    19.868318    20.712022           90           90           90 
   16000    262.76539   -10943.207   -9759.7104   -10943.207            0    7097.1318    46.686356    19.772715    20.755446            0            0            0    19159.684    6372.3921    7637.8647    7281.1387   -385.00306   -397.06458   -446.58443    46.686356    19.772715    20.755446           90           90           90 
   16500    265.43518   -10909.264   -9713.7427   -10909.264            0    6408.0846    46.510127    20.033712    20.588902            0            0            0    19184.132    6215.2649    6568.0631    6440.9258   -58.407446   -574.60752   -323.02975    46.510127    20.033712    20.588902           90           90           90 
   17000    260.60303   -10943.955   -9770.1976   -10943.955            0    5644.6786    46.385194    20.260516    20.537776            0            0            0    19301.155    5918.7685     3993.464    7021.8034    394.02717   -1.1545827    414.48182    46.385194    20.260516    20.537776           90           90           90 
   17500    260.27307   -10952.541   -9780.2696   -10952.541            0    6098.1355    46.401695    19.900938    20.822012            0            0            0    19227.822    6933.2955    5899.5447    5461.5663   -292.00829    1280.3063   -117.66724    46.401695    19.900938    20.822012           90           90           90 
   18000    256.24317   -10976.723   -9822.6027   -10976.723            0    6056.4252    46.919309    19.908832    20.601299            0            0            0    19243.851    4282.6405    7779.8944    6106.7406   -30.487146    360.25667   -200.56455    46.919309    19.908832    20.601299           90           90           90 
   18500    267.69909   -11000.671   -9794.9535   -11000.671            0    6288.2672    46.322802    20.026036    20.690307            0            0            0    19193.614    5252.1694     7568.718    6043.9143   -684.00493   -430.61467   -303.30864    46.322802    20.026036    20.690307           90           90           90 
   19000    253.87034   -10932.864   -9789.4315   -10932.864            0    5954.2816    46.502913    19.986847    20.707335            0            0            0    19246.362    5258.4308     6490.457    6113.9571    -6.602531   -265.89906   -139.06957    46.502913    19.986847    20.707335           90           90           90 
   19500    260.85349   -10946.906   -9772.0206   -10946.906            0    5870.3833    46.853774    19.914202    20.595685            0            0            0    19216.918    5231.6064    7074.7766     5304.767   -385.41655    296.98444    307.13434    46.853774    19.914202    20.595685           90           90           90 
   20000     254.8356   -10950.002   -9802.2218   -10950.002            0    6408.0608    46.226662    19.894678     20.81486            0            0            0    19142.688    6673.1108    6404.1751    6146.8966   -139.65814   -120.12676    409.14171    46.226662    19.894678     20.81486           90           90           90 
   20500    253.64128   -10932.551   -9790.1496   -10932.551            0    5701.1332     46.69566    20.077684    20.598342            0            0            0    19311.784    4773.8785    5543.7587    6785.7625   -16.409444   -475.20272    820.56454     46.69566    20.077684    20.598342           90           90           90 
   21000    257.19114   -10953.087   -9794.6974   -10953.087            0    4980.0176    46.534612    20.052541    20.647098            0            0            0    19266.576    5843.6983         4175    4921.3545    183.35081   -29.072698   -357.14882    46.534612    20.052541    20.647098           90           90           90 
   21500    257.61936   -10997.878   -9837.5595   -10997.878            0    5879.9856    46.231727    19.988964    20.723677            0            0            0    19151.254    7062.3426      5090.76    5486.8542   -557.46616    119.92196     652.1726    46.231727    19.988964    20.723677           90           90           90 
   22000    260.59129   -10907.578   -9733.8735   -10907.578            0    5735.5786    46.835491    19.910937    20.558652            0            0            0    19171.735    5367.0823     6723.449    5116.2044   -61.895756    466.52051    842.99772    46.835491    19.910937    20.558652           90           90           90 
   22500    261.30048   -10955.682   -9778.7832   -10955.682            0    4754.7218    46.813925     19.92105    20.696116            0            0            0    19300.836    3855.7599    4325.6259    6082.7796   -628.08856    -210.9899   -333.72928    46.813925     19.92105    20.696116           90           90           90 
   23000    245.87771   -10936.845   -9829.4112   -10936.845            0    5510.9759    46.488604    19.928637    20.784573            0            0            0    19255.961    5276.0129     6070.164    5186.7508   -262.32287    95.904418    965.86463    46.488604    19.928637    20.784573           90           90           90 
   23500    256.59122   -10934.691    -9779.003   -10934.691            0    5310.8111    46.914608    20.093886    20.333554            0            0            0    19168.376    5150.0285    4583.9843    6198.4204   -144.39782   -1377.1347   -347.92357    46.914608    20.093886    20.333554           90           90           90 
   24000    266.16572   -10904.874   -9706.0625   -10904.874            0    6155.2207    46.528946    19.870668    20.766494            0            0            0    19199.895    5840.7182    6898.4531    5726.4907   -396.59389    323.29907    98.317129    46.528946    19.870668    20.766494           90           90           90 
   24500     266.6268   -10988.112   -9787.2235   -10988.112            0    6077.4704    46.258936    20.069851    20.672943            0            0            0    19192.966    6544.0632    5586.7687    6101.5793    76.983198   -49.452084    759.32123    46.258936    20.069851    20.672943           90           90           90 
   25000    259.10034   -10935.949   -9768.9602   -10935.949            0    6889.5324    46.722238    19.959824    20.613579            0            0            0    19223.556    6377.1776    7848.5864    6442.8333    280.23487     926.8193    119.82134    46.722238    19.959824    20.613579           90           90           90 
   25500    250.66842   -10935.815   -9806.8038   -10935.815            0    6334.6749    46.621657    19.838354    20.706895            0            0            0    19151.744    6836.0031     5870.167    6297.8546   -161.84661    695.25564    665.77748    46.621657    19.838354    20.706895           90           90           90 
   26000    262.70255   -10917.337   -9734.1236   -10917.337            0    5243.6907    46.552576    20.000114    20.720055            0            0            0    19291.549    5257.6186    4729.5787    5743.8747   -70.767057    102.98034   -206.37397    46.552576    20.000114    20.720055           90           90           90 
   26500    250.86272   -10973.775   -9843.8885   -10973.775            0    4840.5213    46.712661    19.946262    20.569976            0            0            0     19165.93    3483.0694      4501.37    6537.1243   -143.78257    224.48299   -430.02425    46.712661    19.946262    20.569976           90           90           90 
   27000    250.90731   -10913.082    -9782.994   -10913.082            0    4942.6201    46.506533    19.915469    20.796491            0            0            0    19261.698    4075.8888    5487.3088    5264.6629    -273.3841   -70.703673   -796.95613    46.506533    19.915469    20.796491           90           90           90 
   27500    261.32122   -10949.223   -9772.2307   -10949.223            0     5042.838    46.997113    19.877827    20.619781            0            0            0    19263.009    4513.7811    5067.4253    5547.3076    113.97323   -232.20217     521.3498    46.997113    19.877827    20.619781           90           90           90 
   28000    256.63684   -10957.917   -9802.0239   -10957.917            0    5721.2356    46.856074    19.900119    20.643354            0            0            0    19248.719    3524.8767    7774.1069     5864.723   -112.89285    569.91757     353.7553    46.856074    19.900119    20.643354           90           90           90 
   28500    253.32264   -10928.904    -9787.938   -10928.904            0    5298.4787    46.709653    19.948648    20.695514            0            0            0    19283.964    6386.9114    4180.8647      5327.66   -616.46462   -182.08733    364.46106    46.709653    19.948648    20.695514           90           90           90 
   29000    259.23081   -10989.336   -9821.7591   -10989.336            0    6134.4904    46.598195    19.960744     20.66733            0            0            0      19223.4    5071.5461    6362.5955    6969.3295   -92.367478   -638.12709   -486.60315    46.598195    19.960744     20.66733           90           90           90 
   29500    258.86275   -10929.394   -9763.4752   -10929.394            0    6738.1389    46.751881    19.857797    20.654208            0            0            0    19175.148    6836.0833    7228.0289    6150.3046    -243.8663    59.717418    1628.1719    46.751881    19.857797    20.654208           90           90           90 
   30000    263.27654   -10933.002   -9747.2034   -10933.002            0     6102.344    46.604212    19.970339    20.705346            0            0            0    19270.505    6230.4252    5222.5407    6854.0662    67.640141   -556.07912    62.250412    46.604212    19.970339    20.705346           90           90           90 
   30500     252.6409   -10964.271   -9826.3756   -10964.271            0    7167.4078    46.767273    19.996749     20.51485            0            0            0    19185.353    6652.0759    7537.8604    7312.2872   -240.16249    288.01459    362.33186    46.767273    19.996749     20.51485           90           90           90 
   31000    267.54076   -10934.267   -9729.2622   -10934.267            0    6182.2126      46.4694    19.896996     20.82663            0            0            0    19256.333      5007.63     6907.524    6631.4839    -362.7864    118.18332    68.435475      46.4694    19.896996     20.82663           90           90           90 
   31500    251.04237   -10913.165   -9782.4688   -10913.165            0     7345.388    46.453012    19.966191    20.623465            0            0            0    19128.051    6830.5103    6662.7489    8542.9046    346.32715   -437.92021   -37.409762    46.453012    19.966191    20.623465           90           90           90 
   32000    268.16109   -10950.718   -9742.9192   -10950.718            0    5927.0328    46.779494    20.026887    20.570052            0            0            0    19271.004     6015.937    5415.5961    6349.5653     506.6866   -278.92655     320.9806    46.779494    20.026887    20.570052           90           90           90 
   32500     258.6415   -10910.337   -9745.4148   -10910.337            0    6250.5055    46.321271    19.952261    20.789388            0            0            0    19213.846    6198.6526       7000.7     5552.164   -109.86316    357.76554   -1244.4661    46.321271    19.952261    20.789388           90           90           90 
   33000    258.29369   -10914.468   -9751.1118   -10914.468            0     6429.046    46.655063    19.969308    20.636434            0            0            0    19226.333    6565.0844    6334.0096    6388.0441    318.37289   -402.61769    62.353714    46.655063    19.969308    20.636434           90           90           90 
   33500    258.59984    -10985.22   -9820.4854    -10985.22            0     5672.152    46.704988    20.020665    20.564891            0            0            0    19229.508     6223.597    4896.4898    5896.3691    501.16811    216.01308   -91.857924    46.704988    20.020665    20.564891           90           90           90 
   34000    261.06746   -10966.041   -9790.1925   -10966.041            0    7418.2795    46.254331    19.943473    20.754805            0            0            0    19145.727    7917.5709    7772.3012    6564.9663    -547.6472    214.07873   -376.33812    46.254331    19.943473    20.754805           90           90           90 
   34500    256.21291   -10980.814   -9826.8303   -10980.814            0    5804.4546    46.808598    20.017903    20.551142            0            0            0    19256.625    5574.3599    5644.2816    6194.7224   -497.59608    64.213522   -608.37527    46.808598    20.017903    20.551142           90           90           90 
   35000    250.98023   -10974.251   -9843.8355   -10974.251            0    5687.5228    46.407119    20.072546    20.610291            0            0            0    19198.672    6022.3593    5184.4291      5855.78   -374.30859   -623.18393    1041.9244    46.407119    20.072546    20.610291           90           90           90 
   35500    264.72143   -10949.084    -9756.778   -10949.084            0     6772.068    46.425707    19.827282    20.906184            0            0            0    19244.051    7793.3306    7185.4814    5337.3919   -634.22046    53.058085    361.67227    46.425707    19.827282    20.906184           90           90           90 
   36000    260.06084   -10941.828   -9770.5131   -10941.828            0    6799.0534    46.959014    19.947291    20.390774            0            0            0    19100.143    5148.0466     8481.122    6767.9915   -200.69164   -355.43973    629.88581    46.959014    19.947291    20.390774           90           90           90 
   36500    262.46786   -10927.715   -9745.5591   -10927.715            0    5883.8695    46.478294    19.998666    20.681351            0            0            0    19223.396    6259.2368    5789.6627    5602.7089   -631.16107    236.88154    701.00862    46.478294    19.998666    20.681351           90           90           90 
   37000    263.26156   -10974.345   -9788.6139   -10974.345            0     5393.447    46.608469    19.881006     20.74573            0            0            0    19223.476    5827.4037    5696.1035     4656.834   -300.07503   -448.36893    226.76372    46.608469    19.881006     20.74573           90           90           90 
   37500    256.01078   -10952.657   -9799.5839   -10952.657            0    5747.5789    46.903293     20.00957    20.534639            0            0            0    19272.061    5696.4634    5209.1939    6337.0795   -380.84223    767.00546    604.14578    46.903293     20.00957    20.534639           90           90           90 
   38000    262.23437   -10914.974   -9733.8698   -10914.974            0    7125.7387    46.451514    19.908782    20.685216            0            0            0    19129.545    7304.0616    6834.3259    7238.8285    40.201666   -383.77625   -369.71666    46.451514    19.908782    20.685216           90           90           90 
   38500    260.34114    -10938.11   -9765.5321    -10938.11            0    6439.3434    46.570266    19.954939    20.651562            0            0            0    19191.637    6437.2722    6601.6385    6279.1196   -533.75498   -136.72505    149.15251    46.570266    19.954939    20.651562           90           90           90 
   39000    258.81457   -10977.042   -9811.3405   -10977.042            0    5724.9644    46.950172    19.908788    20.554204            0            0            0    19212.447    4963.2318    5288.7386    6922.9229   -89.337026    913.48772    -51.44031    46.950172    19.908788    20.554204           90           90           90 
   39500    265.39803   -10928.158   -9732.8042   -10928.158            0    6287.4401    46.383708    19.829564    20.863641            0            0            0    19189.724    6313.8206    7012.8264    5535.6733    154.47679    701.95251   -484.92904    46.383708    19.829564    20.863641           90           90           90 
   40000    262.43124   -10979.003   -9797.0115   -10979.003            0    5486.8522    46.337868     20.07412    20.679514            0            0            0    19235.918    6183.0117    5163.8556    5113.6892   -494.26818   -1279.9444    655.36553    46.337868     20.07412    20.679514           90           90           90 
   40500    251.16513   -10938.752   -9807.5037   -10938.752            0     6220.206    46.699781    19.979635    20.537055            0            0            0    19161.988    6092.1673    6105.6676    6462.7831    96.883746    53.029402   -100.85257    46.699781    19.979635    20.537055           90           90           90 
   41000    256.60196   -10980.212   -9824.4756   -10980.212            0    5976.2557    46.410166    19.858404    20.758876            0            0            0    19132.041    5310.8359    7156.2343    5461.6969    67.731046   -209.29011    597.40669    46.410166    19.858404    20.758876           90           90           90 
   41500    266.69858   -10934.338   -9733.1266   -10934.338            0    5115.6238    46.885041       20.003    20.607038            0            0            0    19326.136    5137.0095    5269.3772    4940.4846    75.522135    518.28268    111.64748    46.885041       20.003    20.607038           90           90           90 
   42000    258.14199   -10969.243   -9806.5701   -10969.243            0    5624.6277    46.619265    19.866905     20.73892            0            0            0    19207.984    5515.7128    6170.5551    5187.6152   -396.24194    261.20237    97.684665    46.619265    19.866905     20.73892           90           90           90 
   42500    259.19762   -10951.503    -9784.076   -10951.503            0    6328.6454    46.446163    19.871622     20.71988            0            0            0    19123.632    6858.8691    6420.3324    5706.7347    236.62992   -343.75393    720.14968    46.446163    19.871622     20.71988           90           90           90 
   43000    259.24182   -10933.069   -9765.4428   -10933.069            0    5973.0686    46.608385     20.16179    20.480727            0            0            0    19245.913    6614.3343    4992.0085     6312.863   -96.745817   -20.049799   -525.77563    46.608385     20.16179    20.480727           90           90           90 
   43500    266.03163   -10950.874   -9752.6662   -10950.874            0    5389.3052    46.666661    19.935634    20.735232            0            0            0    19290.597    5553.9876    5092.7644    5521.1637    281.84021   -427.12911    12.118448    46.666661    19.935634    20.735232           90           90           90 
   44000     254.3383   -10945.042   -9799.5013   -10945.042            0     7392.331    46.562958    19.872426    20.669013            0            0            0    19125.429     7521.443    7008.7126    7646.8373   -345.26271   -547.45639    663.26872    46.562958    19.872426    20.669013           90           90           90 
   44500    258.98993    -10951.05   -9784.5587    -10951.05            0    5617.1558    46.714543    19.950826    20.612662            0            0            0    19210.871    5808.3771    5218.1847    5824.9056    -371.9512    530.96138    413.37023    46.714543    19.950826    20.612662           90           90           90 
   45000    257.53714   -11003.992   -9844.0436   -11003.992            0    6527.1582    46.453575    19.778506    20.865559            0            0            0    19170.907    6074.4368    7299.7317     6207.306    -392.9752   -1062.9836    911.34942    46.453575    19.778506    20.865559           90           90           90 
   45500    260.23804   -10957.774   -9785.6604   -10957.774            0    6369.1834     46.74132    20.053829    20.533282            0            0            0    19246.717    6225.6444    5685.8064    7196.0995   -420.69726    1200.5878   -164.89836     46.74132    20.053829    20.533282           90           90           90 
   46000    257.31284   -10907.529   -9748.5909   -10907.529            0    6842.7192    46.544039    19.930932    20.590111            0            0            0    19100.747    6717.8056    7054.4175    6755.9343    198.72203   -1162.7701   -106.97105    46.544039    19.930932    20.590111           90           90           90 
   46500    265.35783   -10965.381   -9770.2083   -10965.381            0     6115.647    46.267685    19.926357    20.777151            0            0            0    19155.419    7448.3711    5441.9307    5456.6391    128.04399     31.11553    549.23168    46.267685    19.926357    20.777151           90           90           90 
   47000    253.56824   -10963.151   -9821.0791   -10963.151            0    5619.4477    46.740557    19.954796    20.564474            0            0            0    19180.449    6621.5239    4335.1128    5901.7064   -119.83348    14.007572    309.39742    46.740557    19.954796    20.564474           90           90           90 
   47500    256.77554   -10912.736   -9756.2175   -10912.736            0    4995.5592    47.009309    19.886349    20.669272            0            0            0    19322.535    4330.8119    6058.3347    4597.5311   -174.06007     1.017633     425.2707    47.009309    19.886349    20.669272           90           90           90 
   48000    259.93139   -10970.042   -9799.3096   -10970.042            0    5725.8611    46.288753    20.012283    20.741909            0            0            0    19214.136    6279.8736    6001.4123    4896.2974    402.20091    151.41407    414.24158    46.288753    20.012283    20.741909           90           90           90 
   48500    254.07303   -10926.085   -9781.7388   -10926.085            0    5087.9531    46.705719    19.981524    20.646715            0            0            0    19268.577    3437.5352    6620.5349    5205.7892    21.593152    729.41667   -14.582308    46.705719    19.981524    20.646715           90           90           90 
   49000    260.40387   -10920.095   -9747.2351   -10920.095            0    6233.9829    46.562673     19.91821    20.669958            0            0            0    19170.252    6593.0402    6717.4187    5391.4897   -151.25743   -602.06426    642.82507    46.562673     19.91821    20.669958           90           90           90 
   49500    259.06569   -10891.052   -9724.2193   -10891.052            0    5719.0516    46.429007    20.027537    20.653051            0            0            0    19204.419    5738.8933    6195.9697    5222.2918    114.62351    -284.6575   -733.67083    46.429007    20.027537    20.653051           90           90           90 
   50000    256.73154   -10905.621   -9749.3012   -10905.621            0    5611.6059      46.8266    19.955516    20.579324            0            0            0    19230.328    3997.0417    6734.3976    6103.3783    41.273125    702.09506    654.58617      46.8266    19.955516    20.579324           90           90           90 
   50500    257.51033   -10967.008     -9807.18   -10967.008            0    6045.6902    46.818272    19.778714    20.745486            0            0            0    19210.427     6785.265    5091.0063    6260.7995   -174.30028   -20.382803    175.75726    46.818272    19.778714    20.745486           90           90           90 
   51000    260.58156   -10960.081   -9786.4208   -10960.081            0    4909.1637    46.722032    19.939155    20.733937            0            0            0    19315.691    3741.5043     6403.491    4582.4959   -303.64629   -528.30131    1302.7081    46.722032    19.939155    20.733937           90           90           90 
   51500    252.28809   -10922.397   -9786.0903   -10922.397            0    5570.4491    46.786663    20.069205    20.580599            0            0            0    19324.588    6518.4415    4345.0758    5847.8301    89.815919   -232.61281   -525.40943    46.786663    20.069205    20.580599           90           90           90 
   52000    265.69348   -10984.239   -9787.5542   -10984.239            0    7026.9493     46.39606    19.902767    20.689985            0            0            0    19105.338    6585.1428    7874.5178    6621.1872    252.45525   -1011.2095    1299.4402     46.39606    19.902767    20.689985           90           90           90 
   52500    266.12299   -10911.775   -9713.1562   -10911.775            0     6720.003    46.378032     20.03135    20.636216            0            0            0    19171.345    7922.2649     5673.505    6564.2392   -158.18396   -429.77189    350.18815    46.378032     20.03135    20.636216           90           90           90 
   53000    262.97792   -10963.202   -9778.7485   -10963.202            0    5210.0881    46.516359    20.012833    20.599783            0            0            0    19176.835    5959.0646    4539.9267     5131.273   -142.59762    459.01874    107.50941    46.516359    20.012833    20.599783           90           90           90 
   53500    257.63958    -10931.05     -9770.64    -10931.05            0    5349.1678    46.770164    19.860637     20.82567            0            0            0    19344.657    4647.6955    6271.1588    5128.6491   -396.55055     174.1988   -12.466661    46.770164    19.860637     20.82567           90           90           90 
   54000    267.49967   -10945.369   -9740.5499   -10945.369            0    5088.6299    46.989261    19.888975    20.591385            0            0            0    19244.055    3826.7838    5285.9813    6153.1247      23.6475    766.95487    300.99715    46.989261    19.888975    20.591385           90           90           90 
   54500    253.14694   -10956.814   -9816.6391   -10956.814            0    7262.8824    46.527049     19.95385    20.639736            0            0            0    19161.802    7090.3566    6944.9046    7753.3859    2.6860612   -202.73174   -509.83103    46.527049     19.95385    20.639736           90           90           90 
   55000    259.71736    -10926.78   -9757.0122    -10926.78            0    5960.7483     46.33669    20.064974    20.699476            0            0            0    19245.224    5161.2191    6952.8055    5768.2201    519.95953    713.45661    651.23185     46.33669    20.064974    20.699476           90           90           90 
   55500    259.46154    -10969.39   -9800.7739    -10969.39            0    6257.6367     46.63356    20.044719    20.539656            0            0            0    19199.579    5026.2931    7166.7617    6579.8554    169.84567    32.957239    490.78974     46.63356    20.044719    20.539656           90           90           90 
   56000     267.4349    -10924.62   -9720.0926    -10924.62            0    6080.8883    46.894493    19.839385    20.736356            0            0            0    19292.232    7079.1923    5345.7137    5817.7589    179.30796    316.66534    257.77057    46.894493    19.839385    20.736356           90           90           90 
   56500    265.85512   -11012.215   -9814.8024   -11012.215            0    6443.8229    46.606927    19.865096    20.694443            0            0            0    19159.972    5895.9445    6905.0877    6530.4366    134.07151   -590.71101   -142.37405    46.606927    19.865096    20.694443           90           90           90 
   57000    252.80466   -10936.436   -9797.8031   -10936.436            0    6324.2636    46.383365    20.009888    20.630961            0            0            0     19148.13    7359.0576     6057.387    5556.3463    92.066807   -698.34575    199.57735    46.383365    20.009888    20.630961           90           90           90 
   57500    260.99335   -10952.398   -9776.8828   -10952.398            0    6441.0846    46.659882    19.771783    20.700626            0            0            0    19097.342    6543.2519    6956.9669    5823.0351     50.73195      612.525    1494.1427    46.659882    19.771783    20.700626           90           90           90 
   58000    261.76091   -10969.578   -9790.6054   -10969.578            0    6472.8272    46.512995    19.999224    20.606846            0            0            0    19168.979      5657.98    6782.7375    6977.7642    528.67087   -28.012036    92.530161    46.512995    19.999224    20.606846           90           90           90 
   58500    265.55615   -10927.699    -9731.633   -10927.699            0    7706.2947    46.326447    20.044935      20.6506            0            0            0    19176.367    8442.7012    7103.0731    7573.1097   -72.455643    727.65883    584.36554    46.326447    20.044935      20.6506           90           90           90 
   59000    262.66933   -10969.383   -9786.3189   -10969.383            0    5564.3909    46.688492    19.970318    20.759975            0            0            0     19356.27    5122.9199    5397.2145    6173.0383   -283.30712    695.48283    450.26916    46.688492    19.970318    20.759975           90           90           90 
   59500    262.96662   -10916.707   -9732.3041   -10916.707            0    6476.1874    46.740564    19.960368    20.575443            0            0            0    19196.041    6027.6948    7360.8472    6040.0203    216.79437    825.69839     639.7496    46.740564    19.960368    20.575443           90           90           90 
   60000     254.5588   -10982.875   -9836.3408   -10982.875            0    6712.9937     46.66055    19.888891    20.622371            0            0            0    19138.108    5992.0488    7570.0078    6576.9245    463.99949    121.24884    597.79893     46.66055    19.888891    20.622371           90           90           90 
   60500    254.34027   -10982.887   -9837.3375   -10982.887            0    4860.6946    46.563322    20.064479    20.726377            0            0            0    19364.007    5435.7209    4363.2049    4783.1581   -123.39445   -508.97247   -229.38669    46.563322    20.064479    20.726377           90           90           90 
   61000    259.32379   -10972.615   -9804.6196   -10972.615            0    5041.1365    46.725311    19.944387    20.531401            0            0            0     19133.37    4826.6338    4765.9144    5530.8613    293.92597   -40.976921    228.15677    46.725311    19.944387    20.531401           90           90           90 
   61500    259.47241   -10904.711   -9736.0459   -10904.711            0    4825.6194    46.306915    20.039144    20.840242            0            0            0    19338.722    4842.1312    5167.1351     4467.592   -144.19476   -63.601665   -1257.1012    46.306915    20.039144    20.840242           90           90           90 
   62000    262.78427   -10947.121   -9763.5397   -10947.121            0    6383.0285    46.977365    19.921517    20.521642            0            0            0    19205.391    6822.3695    5454.7001    6872.0158   -26.232055   -949.90442    241.38076    46.977365    19.921517    20.521642           90           90           90 
   62500    258.63236   -10992.115   -9827.2343   -10992.115            0    6101.0455    46.450061    20.002368    20.613182            0            0            0    19151.939    6926.2351    5508.0074    5868.8939   -74.339046    155.99342   -470.35278    46.450061    20.002368    20.613182           90           90           90 
   63000    264.08617   -10900.698   -9711.2529   -10900.698            0    5483.9167    46.703038    19.955238     20.66398            0            0            0    19258.215    5219.6878    5608.7918    5623.2706   -304.36468   -65.136129    1449.9079    46.703038    19.955238     20.66398           90           90           90 
   63500     260.6779   -11003.846   -9829.7518   -11003.846            0    6277.8165    46.599548    20.007188    20.640067            0            0            0     19243.27     5257.791    7059.4128    6516.2457    62.116967   -280.20573    323.34044    46.599548    20.007188    20.640067           90           90           90 
   64000    257.97869   -10908.194   -9746.2573   -10908.194            0    6329.2883    46.478824    19.997701    20.668845            0            0            0    19211.063     6624.144    5956.9344    6406.7865    543.02065   -731.58877   -528.06711    46.478824    19.997701    20.668845           90           90           90 
   64500    256.89867   -10988.762   -9831.6896   -10988.762            0    5026.6424    46.456212    20.039562    20.648064            0            0            0    19222.566    4880.8079    5322.3501    4876.7693    -5.361568   -338.64969   -189.64777    46.456212    20.039562    20.648064           90           90           90 
   65000    254.22298   -10982.149   -9837.1278   -10982.149            0    6704.9467    46.453003    19.919909    20.635008            0            0            0     19094.39    5981.1454    6545.3592    7588.3356    445.56656   -158.50713    209.88272    46.453003    19.919909    20.635008           90           90           90 
   65500    256.53799    -10960.79    -9805.342    -10960.79            0    6235.6252    46.764797      19.8266    20.750934            0            0            0    19239.995    6509.2204     5889.811    6307.8443   -127.09547    513.46108    971.36315    46.764797      19.8266    20.750934           90           90           90 
   66000    264.31947   -10907.621   -9717.1247   -10907.621            0    6064.5864     46.32412    20.053102    20.636149            0            0            0    19169.792    6287.7657    6492.7932    5413.2004   -464.71591    142.48789   -265.48696     46.32412    20.053102    20.636149           90           90           90 
   66500    267.67801   -10928.798   -9723.1756   -10928.798            0    5393.2703    46.643683    19.996952    20.671554            0            0            0    19281.009      5964.94    5923.5901     4291.281    500.65367    320.68884    555.30056    46.643683    19.996952    20.671554           90           90           90 
   67000    256.45608     -10973.4    -9818.321     -10973.4            0    6434.8349    46.163754    19.963426    20.810384            0            0            0    19178.573    5824.6909    7769.0307    5710.7832    108.34142    642.81824   -492.03133    46.163754    19.963426    20.810384           90           90           90 
   67500    259.24622    -10962.02   -9794.3735    -10962.02            0    6303.4818    46.547472    20.012153    20.614762            0            0            0    19202.963    5819.7485    6424.0355    6666.6614   -119.86995    -81.95321   -451.77157    46.547472    20.012153    20.614762           90           90           90 
   68000     246.2658   -10922.718   -9813.5358   -10922.718            0    5008.2895     46.52532      20.0661    20.590645            0            0            0    19223.049    6617.4906    3185.3182    5222.0598   -132.88245    303.64063   -200.40223     46.52532      20.0661    20.590645           90           90           90 
   68500    261.58553    -10939.71   -9761.5273    -10939.71            0    6355.9679    46.348663    19.950763    20.748385            0            0            0    19185.848    6995.6904    6384.4197    5687.7936   -604.46245   -182.28782     346.5418    46.348663    19.950763    20.748385           90           90           90 
   69000     250.7382   -10949.498   -9820.1719   -10949.498            0    6093.9258    46.942283    19.915939    20.558479            0            0            0    19220.114    5070.3489    6390.1167    6821.3117    268.51328   -58.624742   -169.83534    46.942283    19.915939    20.558479           90           90           90 
   69500    264.14833    -10999.25   -9809.5253    -10999.25            0    5690.9846    46.488406    19.955811    20.731098            0            0            0    19232.526    6562.9666    5140.6937    5369.2936    -244.7804    96.030047    644.22794    46.488406    19.955811    20.731098           90           90           90 
   70000    260.77055   -10980.555   -9806.0433   -10980.555            0    5468.9171     46.55167    19.992495    20.652074            0            0            0    19220.555    4791.7385    5182.2661    6432.7467   -242.84282    1102.7418   -1081.9955     46.55167    19.992495    20.652074           90           90           90 
   70500    261.20704   -10956.445   -9779.9673   -10956.445            0    5565.6028    46.554161    20.097099    20.500692            0            0            0    19180.521     5704.731    4794.6207    6197.4567   -58.700969    1011.6121    829.28402    46.554161    20.097099    20.500692           90           90           90 
   71000    258.32909   -10958.706   -9795.1909   -10958.706            0    6167.5475    46.496884    19.824916    20.810499            0            0            0    19183.052    5859.4798    6626.3273    6016.8354    119.65336    197.51011   -127.59994    46.496884    19.824916    20.810499           90           90           90 
   71500    262.09822   -10975.511   -9795.0196   -10975.511            0    6164.7534    46.547181    19.983844    20.613373            0            0            0    19174.386    5954.3541    6364.8571    6175.0492     137.9085     232.2887    386.86577    46.547181    19.983844    20.613373           90           90           90 
   72000    271.78752   -10934.496   -9710.3641   -10934.496            0    6545.7406     46.57127     19.96403    20.603202            0            0            0    19155.832    6475.8633    6569.7893    6591.5691   -239.57155    1293.2396    796.10625     46.57127     19.96403    20.603202           90           90           90 
   72500    252.59418   -11006.288   -9868.6025   -11006.288            0    5348.6573    46.875491    19.748236    20.794615            0            0            0    19249.747    5614.9038    5617.1453    4813.9228   -261.76303   -122.65643    581.00887    46.875491    19.748236    20.794615           90           90           90 
   73000    257.57743   -10983.407   -9823.2768   -10983.407            0    6857.7674    46.509528    19.918928    20.600688            0            0            0    19084.888     6867.795    6608.3397    7097.1676    377.95423   -309.27241   -621.03186    46.509528    19.918928    20.600688           90           90           90 
   73500    265.73794    -10925.94   -9729.0554    -10925.94            0    5211.2578    46.594101     20.05932    20.683495            0            0            0    19331.745    5501.7779     4764.489    5367.5065  -0.61392873    315.23227    155.06234    46.594101     20.05932    20.683495           90           90           90 
   74000    261.87896   -10932.148    -9752.644   -10932.148            0    7714.3871    46.216428    20.069122    20.609995            0            0            0    19116.247    7948.1028    6740.5637    8454.4947      255.987    178.94186    77.801821    46.216428    20.069122    20.609995           90           90           90 
   74500    264.15001   -10925.323   -9735.5903   -10925.323            0    6018.4304    46.549579    19.967754    20.690811            0            0            0    19231.913    5918.0897    5921.7415      6215.46    499.19338    1015.2728   -709.73553    46.549579    19.967754    20.690811           90           90           90 
   75000    261.26681   -10920.211   -9743.4647   -10920.211            0    5348.4437    46.545685    20.001189    20.741114            0            0            0    19309.335     4812.143    5016.0482    6217.1399   -114.31389    170.61434    377.29589    46.545685    20.001189    20.741114           90           90           90 
   75500    259.60302   -10928.196   -9758.9429   -10928.196            0    6276.3729    46.658599    19.884983    20.705712            0            0            0    19210.873    7045.0218    5787.7826    5996.3143   -291.22249   -987.63501    230.59355    46.658599    19.884983    20.705712           90           90           90 
   76000    259.08876   -10976.417   -9809.4806   -10976.417            0    6132.0665    46.308782    20.237878    20.524339            0            0            0    19235.236    6961.0264    5253.2218    6181.9514    232.53531   -1163.3428    -321.3685    46.308782    20.237878    20.524339           90           90           90 
   76500    254.74044   -11013.648   -9866.2961   -11013.648            0     6211.487    46.351581    20.000806    20.735235            0            0            0    19222.993    6119.8298    6320.0545    6194.5766    216.02175   -11.177646    363.85471    46.351581    20.000806    20.735235           90           90           90 
   77000    246.78887   -10947.767   -9836.2284   -10947.767            0    6983.8988    46.647151    19.917055    20.603509            0            0            0    19142.182    7884.0906    6915.3155    6152.2904    177.53313   -460.37424   -383.81547    46.647151    19.917055    20.603509           90           90           90 
   77500    256.29899   -10937.744   -9783.3725   -10937.744            0    6124.1146     46.85111    19.957561    20.631879            0            0            0    19291.506      6920.54    4877.6763    6574.1275   -172.77007    551.88223    -8.249975     46.85111    19.957561    20.631879           90           90           90 
   78000    260.92307   -10899.485   -9724.2867   -10899.485            0    6801.7116    46.525461     19.96288    20.720743            0            0            0    19245.057    8276.0708    5330.8666    6798.1975   -375.81264    121.83961   -420.98406    46.525461     19.96288    20.720743           90           90           90 
   78500    259.04497   -10978.605   -9811.8658   -10978.605            0    6905.7407    46.135509    20.115932    20.616203            0            0            0    19133.048    9102.3154    4555.9718    7058.9349    -568.6889   -445.41748    952.50156    46.135509    20.115932    20.616203           90           90           90 
   79000    253.65278   -10974.014   -9831.5609   -10974.014            0    6654.3372    46.652762    19.910683    20.655131            0            0            0     19186.31    5963.1784    7574.2247    6425.6087   -43.996969    73.028176    -47.75014    46.652762    19.910683    20.655131           90           90           90 
   79500     260.5393   -10935.691    -9762.221   -10935.691            0    6785.4563    46.496327    20.001562    20.658953            0            0            0    19212.809    6685.9402    6418.1369    7252.2918    124.10276     1193.046   -464.22023    46.496327    20.001562    20.658953           90           90           90 
   80000    262.23306   -10973.794    -9792.695   -10973.794            0    5302.4788    46.471994    19.979254    20.751408            0            0            0     19267.18    6337.0734    5121.4547    4448.9082   -313.70145   -885.93277    614.79542    46.471994    19.979254    20.751408           90           90           90 
   80500    262.50159   -10967.387   -9785.0791   -10967.387            0    6748.0088    46.952622    19.798299     20.61398            0            0            0    19162.386    6641.6257    6384.2133    7218.1875    678.18154   -342.49206    239.07081    46.952622    19.798299     20.61398           90           90           90 
   81000     262.3092   -10961.123   -9779.6816   -10961.123            0     4375.972    46.650498    20.042172    20.628353            0            0            0    19287.042    4202.6148    4656.7793     4268.522    85.748607   -663.51837   -593.61979    46.650498    20.042172    20.628353           90           90           90 
   81500    258.51807    -10975.44   -9811.0731    -10975.44            0    5531.4536    46.554382    19.851661    20.775488            0            0            0    19200.328    5556.9825    5405.1331    5632.2453   -144.47427    950.04881   -994.34902    46.554382    19.851661    20.775488           90           90           90 
   82000     261.3985   -10960.681   -9783.3408   -10960.681            0    5290.2727    46.717328    20.091848    20.573023            0            0            0     19310.61    4345.1182    5155.2948    6370.4049    42.771589    51.770412    616.09933    46.717328    20.091848    20.573023           90           90           90 
   82500    264.84572   -10890.453   -9697.5868   -10890.453            0    7127.3863    46.607714    19.858661    20.636532            0            0            0    19100.488    8187.2953    6306.0748    6888.7888    128.42044    626.78462    54.611273    46.607714    19.858661    20.636532           90           90           90 
   83000    252.18907   -10962.437   -9826.5769   -10962.437            0      4731.02    46.590514    19.936276    20.849633            0            0            0    19366.001    3968.0956    5234.7754    4990.1889   -700.63069    1341.1301    393.57347    46.590514    19.936276    20.849633           90           90           90 
   83500    265.98923   -10974.843   -9776.8263   -10974.843            0    6416.7187    46.840099     19.96042    20.520721            0            0            0    19185.807    5820.7456    6226.1387    7203.2718     824.4287   -1047.0734   -127.50503    46.840099     19.96042    20.520721           90           90           90 
   84000    260.62381   -10900.047    -9726.196   -10900.047            0    6056.9484     46.32988    19.967249    20.782619            0            0            0     19225.59    5718.7573    6874.0972    5577.9906   -278.62225   -349.77336    487.22188     46.32988    19.967249    20.782619           90           90           90 
   84500    261.65263   -10987.013   -9808.5289   -10987.013            0    6075.8143    46.712289    19.991384    20.684146            0            0            0    19315.752    5175.6111    6839.1475    6212.6842   -733.30679     149.4279   -247.71425    46.712289    19.991384    20.684146           90           90           90 
   85000    263.72206   -10968.546   -9780.7409   -10968.546            0    7398.6524    46.617678    19.940034    20.557821            0            0            0    19109.689    8270.3201    6175.8791    7749.7579    758.37455   -69.787889   -108.71321    46.617678    19.940034    20.557821           90           90           90 
   85500    269.06612   -10941.107   -9729.2317   -10941.107            0    5406.1887      46.2226    20.070646    20.794624            0            0            0    19291.536    5332.5948    5901.9653    4984.0059    37.833594    891.20075    977.97995      46.2226    20.070646    20.794624           90           90           90 
   86000    267.41425   -10957.136   -9752.7013   -10957.136            0    7476.0801    46.794446    19.851246    20.538061            0            0            0    19078.382    6290.5418    8233.5028    7904.1956    546.61196    281.66742   -17.589651    46.794446    19.851246    20.538061           90           90           90 
   86500    258.16547   -10968.865   -9806.0869   -10968.865            0    6117.7282    46.744573    19.864211    20.673251            0            0            0    19196.024    5934.3813    6236.4143    6182.3889   -149.47749    311.72925   -5.8581259    46.744573    19.864211    20.673251           90           90           90 
   87000    264.16604    -10969.33   -9779.5249    -10969.33            0     5716.409    46.756847     19.93715    20.699843            0            0            0    19296.357    5612.3545    5551.8222    5985.0503    157.10342    323.22141    532.44586    46.756847     19.93715    20.699843           90           90           90 
   87500    256.82512   -10926.113   -9769.3717   -10926.113            0    5394.1847    46.727187    20.048901    20.559633            0            0            0    19260.855    3383.9382    6802.9581    5995.6579   -33.470386    59.615943    294.81375    46.727187    20.048901    20.559633           90           90           90 
   88000    262.40362   -10928.058   -9746.1913   -10928.058            0    6497.5347    46.716471    19.807731      20.8096            0            0            0    19256.106    5584.0451     7315.003     6593.556   -20.973643   -388.16092   -409.02275    46.716471    19.807731      20.8096           90           90           90 
   88500    258.65756   -10939.904   -9774.9092   -10939.904            0     6898.465    46.462268    20.001997    20.625483            0            0            0    19168.049    7462.7635    5902.9331    7329.6984    274.95642    373.67501     1077.566    46.462268    20.001997    20.625483           90           90           90 
   89000    257.35858   -11007.508   -9848.3641   -11007.508            0    5823.0962    46.547869    19.977991    20.564789            0            0            0    19123.873    5847.4179    5214.2865    6407.5842    69.606315   -192.08713    676.18437    46.547869    19.977991    20.564789           90           90           90 
   89500    260.53964   -10982.242   -9808.7703   -10982.242            0    5195.3433    46.883772    19.843611    20.785034            0            0            0    19337.217    4995.3614    5517.0438    5073.6248    165.71421    320.43889    1047.2834    46.883772    19.843611    20.785034           90           90           90 
   90000    254.27586   -10943.808   -9798.5486   -10943.808            0    7426.7089    46.461288     19.97508    20.571004            0            0            0    19091.289    7042.2877    7197.9867    8039.8522   -90.723447    823.06008   -648.50002    46.461288     19.97508    20.571004           90           90           90 
   90500    263.83869   -10932.496   -9744.1657   -10932.496            0    7067.6373      46.5406     19.91535    20.608562            0            0            0    19101.506    6979.1926    7371.9587    6851.7605    -230.0385    116.96188    621.23498      46.5406     19.91535    20.608562           90           90           90 
   91000    253.38787   -10974.928   -9833.6678   -10974.928            0    5322.1472    46.536405    19.954931      20.7451            0            0            0    19264.537     5069.598    5237.2754    5659.5683   -124.34251   -653.61495     364.4966    46.536405    19.954931      20.7451           90           90           90 
   91500    260.05126   -10947.251   -9775.9794   -10947.251            0    5715.7166    46.677006    19.938947    20.638812            0            0            0    19208.343    4877.1518    6232.2228    6037.7751   -125.95494   -46.254095   -309.28808    46.677006    19.938947    20.638812           90           90           90 
   92000    261.59692   -10984.589    -9806.355   -10984.589            0    5439.4988    46.740719    19.860108    20.569491            0            0            0     19094.16    5884.9483    4598.2516    5835.2964   -98.179815    646.76531    616.63637    46.740719    19.860108    20.569491           90           90           90 
   92500    257.42025   -10974.507   -9815.0849   -10974.507            0     5817.051     46.46637    20.054852     20.71383            0            0            0    19302.725     7148.808      4503.78    5798.5649   -109.17676    515.80431   -487.34146     46.46637    20.054852     20.71383           90           90           90 
   93000    268.59919   -10999.406   -9789.6343   -10999.406            0    6207.4332    46.447787    19.999349     20.72304            0            0            0     19250.16    6769.8112    6010.0598    5842.4286   -456.37258   -141.55116   -194.97685    46.447787    19.999349     20.72304           90           90           90 
   93500    263.80868   -10983.422   -9795.2269   -10983.422            0    5591.3847    46.628184     19.97364    20.581078            0            0            0    19167.869    5385.5094    6333.5258     5055.119   -4.6749113   -99.233987   -621.88119    46.628184     19.97364    20.581078           90           90           90 
   94000     257.4657   -10949.442   -9789.8157   -10949.442            0     6413.663    46.675294    19.909452    20.678079            0            0            0    19215.716    5977.2474    6861.8652    6401.8764   -426.23072   -694.02696   -267.27417    46.675294    19.909452    20.678079           90           90           90 
   94500    265.18804   -10965.204   -9770.7962   -10965.204            0     5584.691     46.16837     19.94683    20.792024            0            0            0    19147.637    7293.6728    5024.2963    4436.1038   -304.69105    255.52365    970.90027     46.16837     19.94683    20.792024           90           90           90 
   95000    260.32001   -10982.774   -9810.2913   -10982.774            0    6540.9647    46.622108    20.074956    20.504112            0            0            0    19190.551    7214.6738    5302.6775    7105.5428   -150.60467   -364.07639    84.807118    46.622108    20.074956    20.504112           90           90           90 
   95500    257.94487    -10967.25   -9805.4653    -10967.25            0    5610.2375     46.47049    20.016816    20.738209            0            0            0      19290.5    6706.9721     4846.563    5277.1775    119.74743   -340.56538    337.03335     46.47049    20.016816    20.738209           90           90           90 
   96000     257.6153   -10941.206   -9780.9056   -10941.206            0    6281.0767    46.526474    19.807772    20.776957            0            0            0    19147.748    6514.1175    6391.3347     5937.778    66.787866   -421.70913    194.80707    46.526474    19.807772    20.776957           90           90           90 
   96500    257.58109   -10962.623   -9802.4771   -10962.623            0    4626.1123    46.787587    20.190732    20.432515            0            0            0    19302.099    3941.1749    4200.4596    5736.7023   -16.039964    487.69728   -400.97894    46.787587    20.190732    20.432515           90           90           90 
   97000    265.06332   -10986.522   -9792.6758   -10986.522            0    5461.0781    46.651813    19.905028     20.76931            0            0            0    19286.499    6172.0629     5037.234    5173.9374   -135.99126   -596.64227    804.23842    46.651813    19.905028     20.76931           90           90           90 
   97500    257.56341   -10951.436   -9791.3695   -10951.436            0    5716.3483    46.811511    19.858638    20.707927            0            0            0    19250.354    7390.0069    5169.5091    4589.5288    944.92651    222.44954   -426.36523    46.811511    19.858638    20.707927           90           90           90 
   98000    259.92944   -10985.646   -9814.9229   -10985.646            0    7452.5801    46.292539      20.0715     20.51108            0            0            0    19058.089    8692.9321    6233.4778    7431.3303   -276.95237   -28.883936   -208.45797    46.292539      20.0715     20.51108           90           90           90 
   98500    253.10576   -10987.901   -9847.9118   -10987.901            0    6259.2277    46.542904    19.930907    20.734387            0            0            0    19234.094    6142.1362    5980.3599    6655.1871   -783.54971    1055.6795    336.96824    46.542904    19.930907    20.734387           90           90           90 
   99000    271.41872   -10964.571   -9742.1004   -10964.571            0    6602.3969    46.859479     19.94859    20.464912            0            0            0    19130.202    6227.4417    5899.4116    7680.3374    -209.9448   -299.03176    1194.8078    46.859479     19.94859    20.464912           90           90           90 
   99500    275.64585   -10964.173   -9722.6629   -10964.173            0    5576.2404    46.619382    19.901516    20.705019            0            0            0    19210.041    5345.2335    6016.7439    5366.7438   -66.077448   -387.76296    1237.4744    46.619382    19.901516    20.705019           90           90           90 
  100000    260.19123   -10995.679   -9823.7764   -10995.679            0    5843.8535    46.419702    19.987104    20.671825            0            0            0    19179.225     7021.106    4981.3956     5529.059   -173.99501    483.05009    207.92515    46.419702    19.987104    20.671825           90           90           90 
  100500    257.14775   -10968.102   -9809.9078   -10968.102            0    5724.0908    46.523625    20.118356    20.556571            0            0            0    19240.516    6509.4428    4053.8084    6609.0212   -117.33306    63.464694     810.9768    46.523625    20.118356    20.556571           90           90           90 
  101000    259.06917   -10960.895   -9794.0459   -10960.895            0    4785.8895    46.583012    19.831719    20.919111            0            0            0    19325.518    4329.8662      5948.06    4079.7422    410.45154   -264.20787    434.70939    46.583012    19.831719    20.919111           90           90           90 
  101500    259.95097   -10986.103   -9815.2828   -10986.103            0    5720.8891    46.998031    19.991535    20.583845            0            0            0    19339.814    5322.2802    5190.9197    6649.4674    51.417629   0.82315927   -552.01345    46.998031    19.991535    20.583845           90           90           90 
  102000    265.20931   -10921.843   -9727.3394   -10921.843            0    5695.9744    46.408607    19.977504     20.68004            0            0            0    19173.047    6669.2327    4914.9065    5503.7841    123.82057    1037.8977    604.88487    46.408607    19.977504     20.68004           90           90           90 
  102500    262.04429   -11005.689   -9825.4401   -11005.689            0    5356.5826    46.552726    19.948284    20.743259            0            0            0    19263.165    5549.2635    5063.3367    5457.1477   -84.510253    122.30092    282.33889    46.552726    19.948284    20.743259           90           90           90 
  103000    256.99086   -10961.582    -9804.094   -10961.582            0    6829.3913    46.597431    20.024607    20.555577            0            0            0    19180.311    7585.9183    5582.0422    7320.2134    559.92287   -483.42974    231.18514    46.597431    20.024607    20.555577           90           90           90 
  103500    271.09039   -11005.867   -9784.8743   -11005.867            0     6911.855    46.656566    19.718942    20.812755            0            0            0    19148.112    6088.2615    8206.3216    6440.9818     122.6241   -599.02904    434.68252    46.656566    19.718942    20.812755           90           90           90 
  104000     261.5937   -10957.338   -9779.1191   -10957.338            0    5980.5067    46.692297    19.923568    20.563631            0            0            0    19129.876    5284.4215    6883.1836    5773.9149    369.52159   -293.87802    380.52365    46.692297    19.923568    20.563631           90           90           90 
  104500    255.51062   -11000.842   -9850.0215   -11000.842            0    4556.1704    46.513652    20.100236    20.679182            0            0            0    19333.699    3872.9764     4590.065    5205.4697   -345.14819     332.6004   -625.48503    46.513652    20.100236    20.679182           90           90           90 
  105000    257.59148   -10925.678   -9765.4848   -10925.678            0    4315.7405    46.624206    20.083039    20.711293            0            0            0    19393.138    3953.4196    4875.1499    4118.6521   -431.77419    477.26377    257.79442    46.624206    20.083039    20.711293           90           90           90 
  105500    263.29471   -10883.216   -9697.3359   -10883.216            0    7286.3084    46.576075    19.946166    20.574191            0            0            0    19113.714    7321.5575    7133.4624    7403.9052   -374.92503   -1232.3564    39.033074    46.576075    19.946166    20.574191           90           90           90 
  106000     265.4643   -10970.884   -9775.2317   -10970.884            0     6451.071    46.817307    19.777848    20.667994            0            0            0    19137.437    5871.4463    6951.8606    6529.9061   -93.995415    270.12403   -130.78391    46.817307    19.777848    20.667994           90           90           90 
  106500    263.75483   -10965.149   -9777.1964   -10965.149            0    5438.6077    46.471086    20.045626    20.632163            0            0            0    19219.726    5938.0296    5345.4913     5032.302    72.467047    334.55575   -547.49622    46.471086    20.045626    20.632163           90           90           90 
  107000    258.79763   -10952.686   -9787.0603   -10952.686            0    6610.8269    46.335747      20.1021    20.654368            0            0            0    19238.424    8121.5848    5603.2489    6107.6468    489.23064    492.18506    104.98003    46.335747      20.1021    20.654368           90           90           90 
  107500    269.62972   -10946.356   -9731.9429   -10946.356            0    6015.5953    46.907671    19.766899    20.687283            0            0            0    19181.646    5069.9531    8644.2976    4332.5351   -256.16397     1147.227    509.60597    46.907671    19.766899    20.687283           90           90           90 
  108000    259.86812   -10943.664   -9773.2167   -10943.664            0    5725.9639    46.571804    19.977815    20.725245            0            0            0    19282.828    5749.7784     5493.515    5934.5985    154.98168   -44.081614    112.56088    46.571804    19.977815    20.725245           90           90           90 
  108500    259.74573   -10943.791   -9773.8957   -10943.791            0    5218.1583    46.435864    20.142821    20.648045            0            0            0    19313.134     4469.967    6263.8077       4920.7    377.21937   -214.57655    -464.2285    46.435864    20.142821    20.648045           90           90           90 
  109000    260.65302   -11010.657   -9836.6743   -11010.657            0    5569.3724    46.439115    19.892466    20.774398            0            0            0    19191.151    5727.4918     6461.797    4518.8286    102.44479   -129.35865   -140.05162    46.439115    19.892466    20.774398           90           90           90 
  109500    255.86978   -10972.249   -9819.8101   -10972.249            0    5952.6017    46.735779    19.968895    20.543829            0            0            0    19172.773    5485.6514    6261.3113    6110.8423    116.00782    271.45633   -447.39284    46.735779    19.968895    20.543829           90           90           90 
  110000    258.15225   -10942.926   -9780.2069   -10942.926            0    6044.9015    46.772883    19.847039    20.672399            0            0            0    19190.255    5385.3748    6499.0855    6250.2443    4.3073722   -333.28292   -387.10521    46.772883    19.847039    20.672399           90           90           90 
  110500    251.57894   -10944.058   -9810.9457   -10944.058            0    6587.1452     46.70271    19.724709    20.819719            0            0            0     19179.07      6547.66    7323.8572    5889.9182   -367.73005    7.4683602   -499.49791     46.70271    19.724709    20.819719           90           90           90 
  111000    254.98092   -10957.033   -9808.5981   -10957.033            0    6089.7067    46.480689    20.132214    20.578709            0            0            0    19256.715    6820.6855    5630.1701    5818.2645   -253.11122    688.03187    252.60082    46.480689    20.132214    20.578709           90           90           90 
  111500    257.45533   -10943.011   -9783.4314   -10943.011            0    4923.9457    46.555191    20.078175    20.672125            0            0            0     19323.13    5891.2345    4293.1052    4587.4974   -242.95442   -237.55891    126.13371    46.555191    20.078175    20.672125           90           90           90 
  112000    257.39552    -10971.21   -9811.8993    -10971.21            0    6673.0392    46.366417    19.906302    20.827959            0            0            0    19223.871    6884.4939     7325.438    5809.1856    233.99322    832.38916      128.715    46.366417    19.906302    20.827959           90           90           90 
  112500    257.80152   -10946.676   -9785.5369   -10946.676            0    6023.2486    46.822847    20.029855    20.450382            0            0            0    19179.489    6815.8833    4441.5262    6812.3363    2.1875074     866.1888   -808.76321    46.822847    20.029855    20.450382           90           90           90 
  113000    260.52759   -10954.507   -9781.0893   -10954.507            0    5398.6312    46.725777    19.932348    20.706487            0            0            0     19285.08    5644.5677    5644.8353    4906.4906    15.671478   -301.96939    639.42991    46.725777    19.932348    20.706487           90           90           90 
  113500    259.92475   -10957.969   -9787.2666   -10957.969            0    5635.0533    46.553069    19.960686    20.745936            0            0            0    19277.771    5913.6464     5445.127    5546.3865    88.196676    238.02022   -309.77204    46.553069    19.960686    20.745936           90           90           90 
  114000    263.15168   -10920.693    -9735.457   -10920.693            0    5383.7622     46.60636    20.010095    20.676306            0            0            0    19282.675    5834.7299    5773.9688    4542.5877    157.30228    318.16945   -334.11266     46.60636    20.010095    20.676306           90           90           90 
  114500    262.94491    -10966.61   -9782.3051    -10966.61            0    6109.0652    46.726001    19.973835    20.523418            0            0            0    19154.454    5582.9448    5730.5352    7013.7158   -92.294293    239.87587    213.79192    46.726001    19.973835    20.523418           90           90           90 
  115000     261.9183   -10919.387   -9739.7064   -10919.387            0    4960.5045    46.611564    20.070541    20.720115            0            0            0    19384.068    4956.1867    5782.9994    4142.3275   -89.940028    240.50072    201.49465    46.611564    20.070541    20.720115           90           90           90 
  115500    261.36437   -10960.951   -9783.7647   -10960.951            0    5942.0213    46.456187    20.006564    20.697822            0            0            0     19237.15    6561.8385     5540.587    5723.6384   -899.18041    726.18922   -20.110365    46.456187    20.006564    20.697822           90           90           90 
  116000    252.09933   -10980.204    -9844.748   -10980.204            0    5894.4145     47.01983    19.877813    20.619422            0            0            0    19271.972    5354.9603    5958.9527    6369.3305    401.94636     929.1388    1130.2375     47.01983    19.877813    20.619422           90           90           90 
  116500    259.36963    -10937.79   -9769.5877    -10937.79            0    5658.9114    46.725807    19.919545    20.677487            0            0            0    19245.713    5639.1802    5635.7549    5701.7992    118.04474    437.87787   -1023.6193    46.725807    19.919545    20.677487           90           90           90 
  117000    257.26321    -10943.05   -9784.3352    -10943.05            0    6310.7388    46.534578    19.949008     20.68924            0            0            0    19206.208    6259.4121    7112.7551    5560.0492   -456.27477   -272.88041    765.86397    46.534578    19.949008     20.68924           90           90           90 
  117500    258.77014   -10995.125   -9829.6229   -10995.125            0    6241.4141    46.402043    20.018205    20.622121            0            0            0    19155.592    6352.1784    6189.6859    6182.3779    135.24704   -317.15937   -104.88857    46.402043    20.018205    20.622121           90           90           90 
  118000    252.96507   -10942.352    -9802.996   -10942.352            0    7808.5733    46.457551    20.005554    20.523656            0            0            0    19074.872    7578.8232     7428.977    8417.9197   -305.83566    351.09984   -915.63678    46.457551    20.005554    20.523656           90           90           90 
  118500     260.2313   -10953.943   -9781.8606   -10953.943            0    5977.8446    46.710382    19.776026    20.774051            0            0            0    19189.941    5804.6938    5948.5867    6180.2533    632.23079    249.80531    180.61563    46.710382    19.776026    20.774051           90           90           90 
  119000    267.43245   -10945.777   -9741.2601   -10945.777            0    5500.7475    46.756535    19.972085    20.588808            0            0            0    19226.354    5143.2733     6192.189    5166.7802   -671.93421     316.2531   -455.61779    46.756535    19.972085    20.588808           90           90           90 
  119500    255.23577   -10910.102    -9760.519   -10910.102            0    6377.6534     46.52275    19.997391    20.624357            0            0            0    19187.533    7893.2444    4865.7795    6373.9363   -308.27169   -179.78621   -669.78356     46.52275    19.997391    20.624357           90           90           90 
  120000    267.46983   -10965.959   -9761.2739   -10965.959            0    5974.8581    46.215368    19.973725    20.786629            0            0            0    19187.993    5378.3772    7703.0942    4843.1027     48.46733   -728.20874   -554.69925    46.215368    19.973725    20.786629           90           90           90 
  120500    259.36704   -10897.639   -9729.4492   -10897.639            0    6014.7539    46.885603    19.987515     20.53823            0            0            0    19246.924    5807.4375    5997.4157    6239.4084   -125.97028    980.10449    341.30401    46.885603    19.987515     20.53823           90           90           90 
  121000    259.30857   -10946.224   -9778.2968   -10946.224            0    6011.4196    46.545225    19.851434    20.780918            0            0            0    19201.349    6344.2855    5610.7315    6079.2418    191.62702    322.59876    1669.6514    46.545225    19.851434    20.780918           90           90           90 
  121500    254.63006    -10946.27   -9799.4156    -10946.27            0    7982.3152    46.351427    19.894203    20.578582            0            0            0    18976.019    6784.7178    9324.9355    7837.2923    148.43471    296.09624    1010.9883    46.351427    19.894203    20.578582           90           90           90 
  122000    256.33914   -10932.738   -9778.1859   -10932.738            0    6695.5179    46.748332     19.97199    20.616268            0            0            0    19248.528    6488.2289    7051.2775    6547.0473   -317.24948   -338.18723    65.823441    46.748332     19.97199    20.616268           90           90           90 
  122500    257.49051   -10937.835   -9778.0967   -10937.835            0    5891.8701    46.737494    19.906127    20.736588            0            0            0    19292.544    7208.9073    4446.6321    6020.0709     47.74851    845.30829   -187.13577    46.737494    19.906127    20.736588           90           90           90 
  123000    253.74466   -10970.551   -9827.6841   -10970.551            0     6207.151    46.670956    20.086378    20.497153            0            0            0    19215.065    4472.2064    7167.8194    6981.4271   -302.37204    203.56934    565.17668    46.670956    20.086378    20.497153           90           90           90 
  123500    260.51594   -10966.429   -9793.0639   -10966.429            0    6672.1797    46.363378    19.971143    20.752526            0            0            0    19215.379    7539.7395    7008.2289    5468.5705   -333.04736    175.03683    307.03468    46.363378    19.971143    20.752526           90           90           90 
  124000    266.72956   -10965.149    -9763.798   -10965.149            0    5605.0431    46.690138    19.933986    20.657201            0            0            0    19226.082     5368.916    6286.5596    5159.6537   -75.685487    440.28666   -381.95453    46.690138    19.933986    20.657201           90           90           90 
  124500    254.00428   -10908.293   -9764.2562   -10908.293            0    6316.8928    46.767089    19.931988    20.676187            0            0            0    19273.536     6733.525    6162.3057    6054.8475   -406.99812   -433.53367    98.622659    46.767089    19.931988    20.676187           90           90           90 
  125000    267.38008   -10917.486   -9713.2053   -10917.486            0    5665.7108     46.42901    19.899415    20.743123            0            0            0    19164.781    5109.6961    5936.5687    5950.8676   -2.1950444   -716.61111   -465.57429     46.42901    19.899415    20.743123           90           90           90 
  125500    248.26559   -10940.911   -9822.7214   -10940.911            0    6201.6318    46.589386    20.048842     20.56787            0            0            0    19211.691    5745.0452    5131.1487    7728.7013   -186.69295    636.95094   -443.27283    46.589386    20.048842     20.56787           90           90           90 
  126000    271.16556   -10976.555   -9755.2243   -10976.555            0    4527.1518    46.442203    20.145185    20.699562            0            0            0    19366.237    6153.7858    2726.2197      4701.45   -862.95794    827.26561   -629.91472    46.442203    20.145185    20.699562           90           90           90 
  126500    254.66901    -10941.96   -9794.9303    -10941.96            0    4894.5102    46.640621    19.841309    20.774301            0            0            0    19224.766    4647.8616    5100.5048    4935.1642     132.1157    141.57545     78.73115    46.640621    19.841309    20.774301           90           90           90 
  127000     263.3249   -10963.253    -9777.237   -10963.253            0    6064.4465    46.777345    20.010637    20.538362            0            0            0     19224.82    5488.1813    6361.6624    6343.4958     344.3097   -694.79543   -331.39593    46.777345    20.010637    20.538362           90           90           90 
  127500    264.22813   -10971.578   -9781.4931   -10971.578            0    6225.2822    46.426907    19.870092    20.744675            0            0            0    19137.107    6535.5498    6345.4959    5794.8008    114.74175   -608.58479     56.90656    46.426907    19.870092    20.744675           90           90           90 
  128000    257.40282   -10930.303   -9770.9594   -10930.303            0    8321.5447    46.273335    19.989281    20.601138            0            0            0    19055.449    8621.8605    9114.1011    7228.6724   -288.23471    181.67103   -458.94284    46.273335    19.989281    20.601138           90           90           90 
  128500    260.12847   -10957.927   -9786.3078   -10957.927            0    6105.7771    46.580948    20.023639    20.628333            0            0            0    19240.461    4914.7706    6585.1949    6817.3658    248.79061     -346.962    411.71099    46.580948    20.023639    20.628333           90           90           90 
  129000    259.39698   -10954.245   -9785.9196   -10954.245            0    6005.7121     46.77116    19.716317    20.888582            0            0            0    19262.511    6346.4318    6408.1996     5262.505    16.910259   -504.48499   -278.54227     46.77116    19.716317    20.888582           90           90           90 
  129500    263.49235   -10972.915   -9786.1446   -10972.915            0    5999.4359    46.635087    20.060234    20.471145            0            0            0    19150.977    6114.4312     5873.244    6010.6325    139.33896   -1207.4178    196.52393    46.635087    20.060234    20.471145           90           90           90 
  130000    264.11342   -10971.145   -9781.5767   -10971.145            0    6942.4931    46.479736    19.925445    20.639436            0            0            0    19114.789    7492.5174    6136.4986    7198.4631   -1.3356737    1484.2316   -367.13091    46.479736    19.925445    20.639436           90           90           90 
  130500    268.76995   -10977.578   -9767.0368   -10977.578            0    4613.9907    46.538168     19.98819    20.790542            0            0            0    19339.648    4396.6913    5669.7524    3775.5283    11.805527   -571.94324    298.13537    46.538168     19.98819    20.790542           90           90           90 
  131000    248.99985   -10978.421   -9856.9242   -10978.421            0    6024.0069    46.661438    20.094399    20.414881            0            0            0    19141.677    4832.9266    5946.6629    7292.4312    -172.1644   -217.32253    395.81862    46.661438    20.094399    20.414881           90           90           90 
  131500    252.33121     -10985.2   -9848.6997     -10985.2            0    5471.3258    46.499243     19.85519    20.808293            0            0            0    19211.284    4567.1221     6090.852    5756.0035    111.81888    444.02995     185.7015    46.499243     19.85519    20.808293           90           90           90 
  132000    254.36584   -10979.259   -9833.5941   -10979.259            0    5771.9541    46.646255    20.015303    20.685808            0            0            0    19313.076    5152.5771    6962.0138    5201.2715    66.776454    911.11231    608.13765    46.646255    20.015303    20.685808           90           90           90 
  132500    261.85438   -10924.748   -9745.3553   -10924.748            0    5494.8088    46.346646    20.103003    20.635735            0            0            0    19226.454    5569.2768    4574.9764    6340.1733    77.911306    -535.1854    236.94266    46.346646    20.103003    20.635735           90           90           90 
  133000    264.62121   -10969.612   -9777.7568   -10969.612            0    5611.0915    46.604241    19.874787    20.719234            0            0            0    19191.177     4911.112    6380.1444     5542.018    1212.0812    8.1222628    670.14515    46.604241    19.874787    20.719234           90           90           90 
  133500    250.78546   -10975.379   -9845.8405   -10975.379            0    5804.6168    46.828814    19.878388    20.629243            0            0            0    19203.377     5224.675    5922.9313    6266.2441   -189.33643   -149.88775    890.59342    46.828814    19.878388    20.629243           90           90           90 
  134000    257.08043   -10936.073   -9778.1821   -10936.073            0     5439.083    46.497279    20.087721    20.619499            0            0            0    19259.114    6522.9189    4805.0117    4989.3183   -305.20699   -637.61769     413.8238    46.497279    20.087721    20.619499           90           90           90 
  134500     267.3992   -10921.748   -9717.3805   -10921.748            0    6649.5097    46.188579    19.997384    20.794681            0            0            0    19207.023    7851.4007    5922.6517    6174.4766     381.7913    436.62032    459.39654    46.188579    19.997384    20.794681           90           90           90 
  135000    255.42222   -10999.932    -9849.509   -10999.932            0    4393.0811    46.828853     19.98738    20.607255            0            0            0    19288.104    4259.9548    4241.3088    4677.9796    22.294194     229.9164   -50.118676    46.828853     19.98738    20.607255           90           90           90 
  135500    263.08228   -10969.666    -9784.742   -10969.666            0    5327.4529    46.603304    19.961195    20.638746            0            0            0    19199.351     6498.373    4306.4497    5177.5359   -281.51002    90.006207     112.7437    46.603304    19.961195    20.638746           90           90           90 
  136000    256.22529   -10957.393   -9803.3533   -10957.393            0    5791.0878    46.762986    19.837425    20.776383            0            0            0    19273.362     4160.339    7239.3656    5973.5588    285.83971   -464.12702    31.278529    46.762986    19.837425    20.776383           90           90           90 
  136500     258.0641    -10961.76   -9799.4384    -10961.76            0    5643.2222    46.650094    19.871503    20.712661            0            0            0    19200.792    5877.8681    5690.2359    5361.5625   -455.79125    -205.9789    120.86532    46.650094    19.871503    20.712661           90           90           90 
  137000    255.95134   -10919.427   -9766.6207   -10919.427            0    5367.2107    46.502831    20.039247    20.609568            0            0            0     19205.68    6164.8218    4574.6665    5362.1438    329.67312    304.81008    178.31379    46.502831    20.039247    20.609568           90           90           90 
  137500    267.34208   -10908.033   -9703.9228   -10908.033            0    6260.5625    46.505511    19.983134    20.608166            0            0            0    19151.701    6598.2401     5443.519    6739.9284   -549.03207   -63.048838     714.0015    46.505511    19.983134    20.608166           90           90           90 
  138000    266.41778   -10980.022    -9780.075   -10980.022            0    5471.5047    46.516341    19.919902    20.792461            0            0            0    19266.313    5352.3633    5923.1954    5138.9554     323.1888    1355.8692   -496.50656    46.516341    19.919902    20.792461           90           90           90 
  138500    261.36432   -10967.521   -9790.3347   -10967.521            0    5714.3116     46.85489    19.983637    20.449033            0            0            0    19147.065    4703.4146    5729.8446    6709.6757    384.65672   -401.58931    858.09914     46.85489    19.983637    20.449033           90           90           90 
  139000    255.61773   -10999.601   -9848.2975   -10999.601            0    5594.5353    46.380048    19.996668    20.669652            0            0            0    19169.995    5789.3684    5598.0189    5396.2184   -65.028765   -259.44162    877.30201    46.380048    19.996668    20.669652           90           90           90 
  139500    260.98078   -10951.592   -9776.1331   -10951.592            0    6072.7502    46.474938    20.029823    20.688682            0            0            0    19258.779    7211.8806    4434.6622    6571.7079   -224.75612    1337.0633   -149.90028    46.474938    20.029823    20.688682           90           90           90 
  140000    262.15016   -10942.777    -9762.052   -10942.777            0    5066.1746    46.804583    19.937627    20.587569            0            0            0    19211.749    4297.3198    4755.0532    6146.1506    173.53688   -466.60837    -561.4939    46.804583    19.937627    20.587569           90           90           90 
  140500    262.94206   -10930.945   -9746.6529   -10930.945            0    6032.7865    46.675123    19.851471    20.695232            0            0            0    19175.578    5370.4735    6816.2517    5911.6343   -17.394879    304.18356   -373.35976    46.675123    19.851471    20.695232           90           90           90 
  141000    262.45942   -10996.692   -9814.5741   -10996.692            0    5470.8615    46.619698    20.039928    20.589991            0            0            0     19236.31    4576.8309      5940.18    5895.5738    573.31349   -523.92695   -471.84294    46.619698    20.039928    20.589991           90           90           90 
  141500    266.99297   -10991.745   -9789.2074   -10991.745            0    6250.0872    46.248082    20.070838    20.648717            0            0            0     19166.92    7226.7678    4859.0273    6664.4666   -285.78202    538.96847    -245.7363    46.248082    20.070838    20.648717           90           90           90 
  142000    260.42715   -10945.866   -9772.9008   -10945.866            0    5626.9476    46.595816    19.969758    20.644958            0            0            0    19210.282     5625.221    5329.6281    5925.9937   -808.77085    476.79857   -42.007995    46.595816    19.969758    20.644958           90           90           90 
  142500    268.02323   -10951.321   -9744.1432   -10951.321            0    5815.4284     46.76164    19.875208    20.674334            0            0            0    19214.671    4376.6668    7311.4539    5758.1644    400.60532   -706.21175    61.849372     46.76164    19.875208    20.674334           90           90           90 
  143000    257.01836    -10970.75   -9813.1388    -10970.75            0    6141.6645    46.526028    19.969807    20.757673            0            0            0    19286.281    6807.3548    5938.0399    5679.5989   -252.78584   -325.86296    -272.7401    46.526028    19.969807    20.757673           90           90           90 
  143500    253.85625   -10922.808   -9779.4389   -10922.808            0    6360.9435    46.745012    19.952091    20.571625            0            0            0    19186.347    6548.3275    6125.2748    6409.2282    348.10532    118.82689    510.82231    46.745012    19.952091    20.571625           90           90           90 
  144000    260.50491    -10958.09   -9784.7749    -10958.09            0    5967.6697    46.734053    19.935894    20.599032            0            0            0    19191.812    5520.7401    5915.9712    6466.2979     110.6992    601.20329   -283.13384    46.734053    19.935894    20.599032           90           90           90 
  144500    264.59129   -10975.818   -9784.0977   -10975.818            0    5576.0936    46.415867    19.889219    20.866745            0            0            0    19263.664     6529.547    4499.9445    5698.7893    -104.5806    377.38895   -168.87985    46.415867    19.889219    20.866745           90           90           90 
  145000    254.48221   -10973.513   -9827.3244   -10973.513            0    5091.3884    46.634244    20.028055    20.623668            0            0            0    19262.366    5793.0764    3904.3824    5576.7065    -403.3104    1231.9449   -810.50313    46.634244    20.028055    20.623668           90           90           90 
  145500    257.77111   -10963.952     -9802.95   -10963.952            0    6497.2606    46.463063    19.949188    20.678491            0            0            0    19166.902     6170.183    6125.0468    7196.5521   -736.05039    149.13204   -705.74365    46.463063    19.949188    20.678491           90           90           90 
  146000    255.64562   -10966.689   -9815.2599   -10966.689            0    5740.6782    46.445091    20.047127     20.67169            0            0            0    19247.216    7138.1558    4549.0467    5534.8321   -3.0317915   -920.37452   -818.94436    46.445091    20.047127     20.67169           90           90           90 
  146500    261.94313   -10954.252   -9774.4586   -10954.252            0    6634.8536    46.647951    19.948511    20.577738            0            0            0    19148.761    7094.0081    6429.1868    6381.3659   -49.412009   -857.44892   -297.24484    46.647951    19.948511    20.577738           90           90           90 
  147000    259.82517   -10951.727   -9781.4729   -10951.727            0    6482.3351    46.527118    19.773412    20.818167            0            0            0    19152.711    6192.9868    7604.7153    5649.3033    361.91709    947.45824    335.67932    46.527118    19.773412    20.818167           90           90           90 
  147500    268.40285   -10941.789   -9732.9012   -10941.789            0    5627.9636    47.030168    19.963033    20.530859            0            0            0    19275.701    5218.4587      5721.12    5944.3122   -595.96958     661.6649    38.202381    47.030168    19.963033    20.530859           90           90           90 
  148000    250.28354   -10930.426   -9803.1481   -10930.426            0    6197.5944    46.419631    20.003052    20.634517            0            0            0    19159.856    6422.0105    6811.3935    5359.3792   -89.590533    67.316449   -413.54053    46.419631    20.003052    20.634517           90           90           90 
  148500     263.2113   -10928.462   -9742.9574   -10928.462            0    5583.3026    46.460313    19.945397     20.75317            0            0            0    19231.327    5649.3133    5563.1884     5537.406   -452.90928    67.848001    480.90843    46.460313    19.945397     20.75317           90           90           90 
  149000    266.63276   -10923.685   -9722.7702   -10923.685            0    5800.6841    46.572718     19.98008    20.676379            0            0            0    19239.922    5871.5363    5113.2532    6417.2629    239.30646    594.11578    90.141959    46.572718     19.98008    20.676379           90           90           90 
  149500    265.70149   -10968.989   -9772.2683   -10968.989            0    6132.5355    46.268089    20.092817    20.631533            0            0            0    19180.234    7965.2021    4110.1359    6322.2686    606.06007   -862.96827   -183.33477    46.268089    20.092817    20.631533           90           90           90 
  150000    249.74068   -10943.782   -9818.9487   -10943.782            0    5778.5162    46.363522    19.933239    20.692887            0            0            0    19123.852    6712.8199    6207.3888    4415.3399   -386.84841    591.91555    466.83145    46.363522    19.933239    20.692887           90           90           90 
  150500    261.09583   -10961.304   -9785.3271   -10961.304            0    6111.8416    46.765864    19.908463    20.664106            0            0            0    19239.036      5981.31    5857.7973    6496.4176   -88.653647    282.47799    470.05119    46.765864    19.908463    20.664106           90           90           90 
  151000    258.38369   -10992.774   -9829.0126   -10992.774            0    6381.5639    46.783937    19.927816    20.627359            0            0            0    19230.922    4289.4708       8090.5    6764.7208   -75.532522    350.93678    356.01146    46.783937    19.927816    20.627359           90           90           90 
  151500    261.73424   -10961.321   -9782.4693   -10961.321            0    5894.6798    46.617988    19.951127    20.713496            0            0            0    19265.238    6869.0269    5458.6126    5356.3999   -80.786094   -184.56356    220.38494    46.617988    19.951127    20.713496           90           90           90 
  152000    252.70621   -10956.585   -9818.3955   -10956.585            0    7057.0878    46.290255    19.886243    20.758183            0            0            0    19108.722    7612.7067    7214.4043    6344.1525   -123.34159    1111.5594   -440.29904    46.290255    19.886243    20.758183           90           90           90 
  152500    258.13925    -10973.28   -9810.6195    -10973.28            0    5688.0614    46.584666    20.063616    20.566695            0            0            0    19222.803    5028.9103    5171.3986    6863.8752    772.71923   -24.650377    6.7633264    46.584666    20.063616    20.566695           90           90           90 
  153000    266.80418   -11005.271   -9803.5836   -11005.271            0    5441.0574     46.96874    19.858297    20.633213            0            0            0    19244.994    4187.9901    6861.9421    5273.2401    140.62595    65.593658    334.95891     46.96874    19.858297    20.633213           90           90           90 
  153500    256.45105   -10969.561   -9814.5045   -10969.561            0     6859.112    46.700124    19.824238    20.757334            0            0            0    19217.024    5767.7907    8481.8981    6327.6473   -157.64503   -633.14252    525.56237    46.700124    19.824238    20.757334           90           90           90 
  154000    275.86414   -11000.046   -9757.5529   -11000.046            0    4838.5036    46.566501    20.098954    20.666024            0            0            0    19342.117    4667.1921    4719.4749    5128.8437    274.53939    481.03555    170.56298    46.566501    20.098954    20.666024           90           90           90 
  154500    252.19067   -10960.254    -9824.386   -10960.254            0    6654.2921    46.618314     19.98113    20.564834            0            0            0    19155.867    5626.8686    6590.3036    7745.7041   -515.91973    588.75333    758.61551    46.618314     19.98113    20.564834           90           90           90 
  155000    263.99267   -10929.774     -9740.75   -10929.774            0    6827.2453     46.17207    19.975341    20.780297            0            0            0    19165.728    8398.5407    5898.4485    6184.7465    300.80092   -840.77652    542.22919     46.17207    19.975341    20.780297           90           90           90 
  155500     256.3969   -10934.728   -9779.9154   -10934.728            0    5662.4701    46.884361    20.005727    20.584247            0            0            0    19307.112    5573.0297    5517.2432    5897.1375    306.95347      507.111    387.85675    46.884361    20.005727    20.584247           90           90           90 
  156000    253.23334    -10983.85   -9843.2863    -10983.85            0    6062.5224    46.676123    19.847074    20.693165            0            0            0    19169.826    5423.4186    6176.6709    6587.4776   -494.97552   -555.67466    269.89466    46.676123    19.847074    20.693165           90           90           90 
  156500    251.92788     -10977.9   -9843.2157     -10977.9            0    5853.0821    46.440469    19.952789    20.681865            0            0            0    19164.165    5205.5123    6239.3762    6114.3578   -420.15883    905.59468   -622.68619    46.440469    19.952789    20.681865           90           90           90 
  157000    257.65464   -10976.804   -9816.3262   -10976.804            0    7504.4597    46.765096     19.93987      20.3876            0            0            0    19011.232    7380.2197    6910.6564    8222.5031     148.2569   -5.8292184    430.09518    46.765096     19.93987      20.3876           90           90           90 
  157500    258.81372   -10978.453   -9812.7548   -10978.453            0    5982.2907    46.651982    19.891014    20.743249            0            0            0    19248.807    5324.4353     7213.558    5408.8788   -202.78065   -1240.8525   -1231.4879    46.651982    19.891014    20.743249           90           90           90 
  158000     262.3804   -11002.747   -9820.9843   -11002.747            0    6255.4205    46.711044    19.987856    20.589026            0            0            0     19223.02    5106.5268     6908.382    6751.3528   -553.42988   -941.09371    343.54986    46.711044    19.987856    20.589026           90           90           90 
  158500    261.07115   -10935.818   -9759.9522   -10935.818            0    5465.6759    46.363898     20.09681    20.584567            0            0            0    19180.009    5749.5368    5195.2507    5452.2403    22.623104   -169.35746   -358.72479    46.363898     20.09681    20.584567           90           90           90 
  159000    261.53093   -10913.805   -9735.8684   -10913.805            0    5783.0091    46.534612    19.984227    20.647742            0            0            0    19201.538     5601.574    5482.2996    6265.1538   -206.10886   -82.336212   -164.88956    46.534612    19.984227    20.647742           90           90           90 
  159500    259.85362   -10965.854   -9795.4723   -10965.854            0    5333.4353    46.776589    19.958974    20.605947            0            0            0    19237.974    5085.2255    4262.8248    6652.2557   -419.39637   -639.44299    421.48821    46.776589    19.958974    20.605947           90           90           90 
  160000    265.96395   -10963.641   -9765.7381   -10963.641            0    5653.4222    46.378853    19.812268    20.860708            0            0            0    19168.284    6467.3073    5898.6818    4594.2775     608.5857   -204.89468    735.67632    46.378853    19.812268    20.860708           90           90           90 
  160500    265.05661   -10903.226   -9709.4102   -10903.226            0    5874.1299    46.800145    20.033077    20.541772            0            0            0    19258.957    6109.2716    5033.8525    6479.2656   -262.65249    1049.9962    473.57614    46.800145    20.033077    20.541772           90           90           90 
  161000    251.62339   -10975.542   -9842.2293   -10975.542            0    5511.5595    46.317402     19.97533    20.706546            0            0            0    19157.808    4583.6621     5690.415    6260.6014    59.499256   -361.39136    304.66101    46.317402     19.97533    20.706546           90           90           90 
  161500    262.96596   -10948.038   -9763.6383   -10948.038            0     4805.701    46.585539    20.083637    20.659116            0            0            0    19328.815    4439.9353    4835.8965    5141.2713     358.1269    856.73813   -212.63142    46.585539    20.083637    20.659116           90           90           90 
  162000    252.85823   -10973.326   -9834.4513   -10973.326            0    6364.1927    46.845172    19.849048    20.578776            0            0            0    19134.806    4921.8004    7561.2977      6609.48   -890.16993    -257.0959    71.472956    46.845172    19.849048    20.578776           90           90           90 
  162500    255.47714   -10965.828   -9815.1578   -10965.828            0    6602.1298    46.356269    19.925554    20.805705            0            0            0    19217.696    6089.3124    8147.3222    5569.7549   -305.63395    -275.8326    155.43645    46.356269    19.925554    20.805705           90           90           90 
  163000     255.6903   -10976.465   -9824.8351   -10976.465            0    6415.4545    46.481382    20.031616    20.589856            0            0            0    19171.157    7130.1459    6107.3963    6008.8214    672.00638    471.38434    225.68528    46.481382    20.031616    20.589856           90           90           90 
  163500    259.80745   -10978.822    -9808.648   -10978.822            0    5839.6515    46.760962    19.771405    20.739644            0            0            0    19174.421    4423.3133    7535.5711    5560.0701   -202.71972    140.45834    251.69485    46.760962    19.771405    20.739644           90           90           90 
  164000     263.8341   -10987.927   -9799.6175   -10987.927            0    5662.4497     46.14741    20.066407    20.634525            0            0            0    19107.833    5854.9647    5048.2793    6084.1051   -59.275338   -724.36601   -422.99172     46.14741    20.066407    20.634525           90           90           90 
  164500    270.42603   -10900.892   -9682.8917   -10900.892            0    5294.0061    46.663776    20.071971    20.625414            0            0            0    19318.463     4778.727    5076.6239    6026.6674    312.10348    -442.8526   -798.61196    46.663776    20.071971    20.625414           90           90           90 
  165000    257.81931   -10912.802   -9751.5823   -10912.802            0    5252.5108    46.277169    19.971107    20.819535            0            0            0    19241.545    6788.7547     3807.985    5160.7926   -433.19909    665.48126    295.03165    46.277169    19.971107    20.819535           90           90           90 
  165500    254.02149   -10939.612   -9795.4978   -10939.612            0    6055.2233    46.892402    20.061153    20.461574            0            0            0    19248.522    5202.7343    6390.4621    6572.4735   -227.90162    263.31177    165.31454    46.892402    20.061153    20.461574           90           90           90 
  166000    270.90925   -10989.965   -9769.7882   -10989.965            0    5481.9565    46.427031    19.983218    20.684208            0            0            0    19190.011    6596.4976    4398.3923    5450.9796    106.79106   -247.61964    945.06259    46.427031    19.983218    20.684208           90           90           90 
  166500    244.33669   -10956.303   -9855.8093   -10956.303            0    6996.2783    46.363355    19.901498     20.75078            0            0            0    19146.748    5634.8978    9462.0576    5891.8794   -260.87214   -882.63323   -1466.0007    46.363355    19.901498     20.75078           90           90           90 
  167000    251.69844   -10988.881   -9855.2305   -10988.881            0    5944.1276    46.860353    19.983165    20.451748            0            0            0    19151.389    5233.8264     5903.998    6694.5584   -154.75059    331.84833     855.0721    46.860353    19.983165    20.451748           90           90           90 
  167500    256.91576   -10968.851   -9811.7018   -10968.851            0    5079.6795    46.725843    19.878111    20.711373            0            0            0    19237.169    5278.4617    5063.0305    4897.5464   -812.90186    550.84193   -435.43297    46.725843    19.878111    20.711373           90           90           90 
  168000     260.8408   -10900.391   -9725.5627   -10900.391            0      6178.94     46.43347    20.048084    20.665425            0            0            0    19237.488    5899.2485    6277.4616    6360.1097   -512.11016    417.76924    -436.0804     46.43347    20.048084    20.665425           90           90           90 
  168500     260.1315   -10916.441   -9744.8073   -10916.441            0    6593.9137    46.683862    19.885628    20.532227            0            0            0    19060.844    6136.4274    6922.1533    6723.1605    -240.9146   -408.25527   -700.33711    46.683862    19.885628    20.532227           90           90           90 
  169000    262.04802   -10954.832   -9774.5665   -10954.832            0    7448.1066    46.464346    19.812881    20.743645            0            0            0    19096.445    8415.7219    6496.7845    7431.8133    42.301247   -188.26454    561.13971    46.464346    19.812881    20.743645           90           90           90 
  169500    265.23644     -10965.2   -9770.5742     -10965.2            0    6299.1291    46.614724    19.939596    20.673842            0            0            0    19215.897    5896.9283    5861.9533    7138.5057   -490.26569   -301.15199    253.66592    46.614724    19.939596    20.673842           90           90           90 
  170000    260.04334   -10979.174   -9807.9373   -10979.174            0    6716.2896    46.579872    19.823332    20.713045            0            0            0    19125.769    6595.1009    7426.7874    6126.9805   -65.138913   -405.19238    566.94672    46.579872    19.823332    20.713045           90           90           90 
  170500    249.68349   -10998.656   -9874.0808   -10998.656            0    5771.5293    46.459447    19.967735    20.631883            0            0            0     19139.99    5590.4629    6200.3928    5523.7322   -93.414561   -464.25194    304.62834    46.459447    19.967735    20.631883           90           90           90 
  171000    254.27055   -10938.246   -9793.0106   -10938.246            0    7150.2674    46.263204    20.001106    20.625144            0            0            0     19084.76    7855.5101    6817.2251     6778.067    129.33789   -477.68597    64.768006    46.263204    20.001106    20.625144           90           90           90 
  171500    261.05045   -10963.206   -9787.4335   -10963.206            0    4545.3545    46.453851    20.130307    20.760067            0            0            0    19413.368    5688.6006    3115.4639    4831.9989    3.3998956   -471.68996   -282.07982    46.453851    20.130307    20.760067           90           90           90 
  172000    268.86214    -10971.44   -9760.4839    -10971.44            0    6592.6267    46.655944    19.922337    20.591407            0            0            0    19139.618    6545.8011    6557.9707    6674.1083   -704.04682   -392.14901    457.68782    46.655944    19.922337    20.591407           90           90           90 
  172500    263.70695   -10916.176   -9728.4384   -10916.176            0    6520.2657    46.456165    20.013743    20.607756            0            0            0    19160.303    4950.7993    7908.5257     6701.472   -580.10074   -225.44016    39.758037    46.456165    20.013743    20.607756           90           90           90 
  173000     258.5943   -10943.127   -9778.4176   -10943.127            0    5484.7334     46.51409    20.026709    20.690545            0            0            0    19273.743    6282.8382    5526.8956    4644.4663   -595.87481    438.08223   -1086.7496     46.51409    20.026709    20.690545           90           90           90 
  173500    265.21833   -10972.393   -9777.8484   -10972.393            0    5924.4837    46.433451    19.881042    20.739598            0            0            0    19145.664    7388.7303    5279.0399    5105.6808   -625.96672    646.30756    356.23125    46.433451    19.881042    20.739598           90           90           90 
  174000    256.82267   -11005.951   -9849.2204   -11005.951            0     5898.812    46.726733    20.002845    20.574088            0            0            0    19229.934    5742.7439     5397.799    6555.8931    26.728113   -49.834463    718.92113    46.726733    20.002845    20.574088           90           90           90 
  174500    262.31855   -10948.962   -9767.4785   -10948.962            0    5743.6203    46.629882    19.886586    20.721546            0            0            0     19215.28     5138.898    6939.3146    5152.6484   -584.43124   -196.32962    475.17683    46.629882    19.886586    20.721546           90           90           90 
  175000    255.80941   -10948.829   -9796.6628   -10948.829            0    8190.6397    46.354642    19.889152    20.700741            0            0            0    19085.142    9697.5711    7490.7174    7383.6305   -53.106313     832.1716    676.10079    46.354642    19.889152    20.700741           90           90           90 
  175500    255.95107    -10961.26    -9808.455    -10961.26            0    5436.6989    46.585895    20.036206    20.660425            0            0            0    19284.536    4765.8438    6041.8923    5502.3605   -705.36718    570.56822    126.28569    46.585895    20.036206    20.660425           90           90           90 
  176000    256.70071   -10956.306   -9800.1251   -10956.306            0    6297.4618    46.510252    19.932814    20.605139            0            0            0    19102.617    6953.1201    5116.5527    6822.7126   -312.24814   -41.155041    606.87015    46.510252    19.932814    20.605139           90           90           90 
  176500    263.43833   -10945.305   -9758.7776   -10945.305            0    5948.0007    46.558574    20.042207    20.656431            0            0            0    19275.271    6950.7965    4330.6185    6562.5872    5.5353829   -155.85508   -340.30651    46.558574    20.042207    20.656431           90           90           90 
  177000    265.22914    -11010.28   -9815.6872    -11010.28            0     6113.825    46.352529    20.068195    20.665844            0            0            0    19223.607    6369.8987    5190.6726    6780.9036    97.727798   -508.52767   -1003.5189    46.352529    20.068195    20.665844           90           90           90 
  177500     251.5181   -10937.371   -9804.5321   -10937.371            0    6489.1602    46.643694    19.881271    20.593207            0            0            0     19096.82    7259.2397    6032.5404    6175.7006    518.99758    37.517647     161.8121    46.643694    19.881271    20.593207           90           90           90 
  178000    257.07967   -10937.769   -9779.8816   -10937.769            0    5669.2778    47.004405    19.913511    20.647692            0            0            0    19326.709    4756.9995    6688.7598     5562.074    488.54115   -200.38373    421.62101    47.004405    19.913511    20.647692           90           90           90 
  178500    250.44173     -10970.7   -9842.7097     -10970.7            0     6393.969    46.591594    19.903962    20.624785            0            0            0    19126.546    5233.2621    6643.3388     7305.306   -422.30412    152.34387   -70.396691    46.591594    19.903962    20.624785           90           90           90 
  179000    253.08906   -10973.182   -9833.2678   -10973.182            0    5373.8106    46.355126    20.047047    20.695776            0            0            0    19232.241    5672.7876    4697.3711    5751.2731    602.14561   -333.83529    366.37521    46.355126    20.047047    20.695776           90           90           90 
  179500    266.04044   -10944.123   -9745.8754   -10944.123            0    6457.7302    46.765921    19.878806    20.651359            0            0            0     19198.55    5763.0579    7303.1315    6307.0013   -120.48003    70.170802   -173.82363    46.765921    19.878806    20.651359           90           90           90 
  180000    252.49729   -10957.533   -9820.2847   -10957.533            0    5225.1113    46.634512    19.938806    20.695664            0            0            0    19243.584    4837.9091    6213.1668    4624.2579   -297.68813    286.13614   -234.81674    46.634512    19.938806    20.695664           90           90           90 
  180500    269.11108   -10944.219   -9732.1417   -10944.219            0    7149.9761    46.474039     19.89211    20.612579            0            0            0    19055.643    7527.4743     7084.505     6837.949     305.8339   -418.72076    155.53566    46.474039     19.89211    20.612579           90           90           90 
  181000    256.72623   -10964.603   -9808.3068   -10964.603            0    5137.8236    46.538675    20.042513    20.660664            0            0            0    19271.275    6567.0402    3316.9535    5529.4772    105.79353    493.99344   -69.807875    46.538675    20.042513    20.660664           90           90           90 
  181500    263.08756   -10973.302   -9788.3548   -10973.302            0    6754.4706    46.232358    19.996915    20.661343            0            0            0    19101.505    7482.4659    6435.5245    6345.4214   -395.20927   -676.78021    800.82655    46.232358    19.996915    20.661343           90           90           90 
  182000    257.86396   -10966.471    -9805.051   -10966.471            0    6411.3975    46.430134     19.93393    20.720343            0            0            0    19177.404    6822.9885    6554.7934    5856.4105    83.177125    47.914523    782.68098    46.430134     19.93393    20.720343           90           90           90 
  182500    253.67697    -10946.96   -9804.3978    -10946.96            0    4763.7475    46.896043    19.981109    20.624624            0            0            0    19325.993    4336.6167    5325.4959    4629.1299    211.32825    80.931578    824.16744    46.896043    19.981109    20.624624           90           90           90 
  183000    258.81476   -10920.157   -9754.4546   -10920.157            0    5555.3594    46.767449     19.94676    20.661094            0            0            0    19273.889    4923.7324     5927.995    5814.3508   -160.45524    114.48575    323.56503    46.767449     19.94676    20.661094           90           90           90 
  183500    260.01878   -10913.013   -9741.8871   -10913.013            0    6092.9677    46.506364    19.959569    20.742023            0            0            0    19253.721    5980.7238    6290.3221    6007.8571    251.61503    -547.8724    579.32904    46.506364    19.959569    20.742023           90           90           90 
  184000    258.85758   -10930.085   -9764.1894   -10930.085            0    7205.7175    46.605457    19.951137    20.620744            0            0            0    19173.825    8711.5451    6277.7204     6627.887   -516.70454   -591.06575    1021.1914    46.605457    19.951137    20.620744           90           90           90 
  184500    256.03251   -10930.065   -9776.8933   -10930.065            0    5795.0927    46.914728    19.995303    20.528297            0            0            0    19257.065    5158.8199    5902.4735    6323.9847     31.75465    51.466289    525.15176    46.914728    19.995303    20.528297           90           90           90 
  185000    258.00205   -10990.606   -9828.5636   -10990.606            0    5202.5074    46.581836    19.910313    20.862925            0            0            0    19349.505    5697.1737    5308.9373    4601.4113   -537.28811    317.95395    -873.8578    46.581836    19.910313    20.862925           90           90           90 
  185500    260.74047   -10926.892   -9752.5163   -10926.892            0     5590.376     46.66273    20.030087    20.560306            0            0            0    19216.866    7033.5734      4711.87    5025.6846     426.1453   -240.53304    -137.3011     46.66273    20.030087    20.560306           90           90           90 
  186000    260.49241   -10948.744   -9775.4856   -10948.744            0    6305.1263     46.67867    19.835907    20.681581            0            0            0     19149.36    6167.6895     6447.269    6300.4203   -179.86494   -133.05296   -46.794719     46.67867    19.835907    20.681581           90           90           90 
  186500     252.1939   -10960.349   -9824.4671   -10960.349            0    5701.3629    46.411057    19.906071    20.874807            0            0            0    19285.437    5804.1487    5946.3085    5353.6314   -4.2223506    255.32723    410.59893    46.411057    19.906071    20.874807           90           90           90 
  187000     257.4959   -10973.198   -9813.4354   -10973.198            0    5472.8345    46.698364    20.073308    20.552855            0            0            0    19266.054    6256.6123    3804.5388    6357.3524   -452.07416   -764.69334   -516.56108    46.698364    20.073308    20.552855           90           90           90 
  187500     258.3296   -10952.599   -9789.0812   -10952.599            0    5396.1106    46.503086    19.979528    20.697145            0            0            0    19229.918    6049.7369    4755.6352    5382.9596   -364.25099   -423.37594    250.08684    46.503086    19.979528    20.697145           90           90           90 
  188000    260.59192   -10914.441   -9740.7341   -10914.441            0    5349.8602    46.620367    19.928337    20.709444            0            0            0    19240.449    5429.0053    5035.5968    5584.9785   -229.70068   -233.64986   -206.14347    46.620367    19.928337    20.709444           90           90           90 
  188500    261.21311   -10945.022   -9768.5172   -10945.022            0    6369.9061    46.613814    20.060139    20.503533            0            0            0    19172.435    5660.6018    6625.7699    6823.3467   -234.46893   -594.93827    182.90576    46.613814    20.060139    20.503533           90           90           90 
  189000    258.52581    -10980.05   -9815.6486    -10980.05            0    5619.3089     46.33153    19.882276    20.887263            0            0            0    19240.851    5781.8321    6528.9714    4547.1232    347.94488    732.22459   -41.657598     46.33153    19.882276    20.887263           90           90           90 
  189500    260.77455   -10982.803   -9808.2736   -10982.803            0    6361.2834    46.725645    19.917125    20.555722            0            0            0    19129.987     6323.771      5706.63    7053.4493   -94.798101   -554.90539   -457.10172    46.725645    19.917125    20.555722           90           90           90 
  190000    269.66231   -10949.998   -9735.4383   -10949.998            0     5292.934    46.551151    20.044646    20.621942            0            0            0    19242.362    5434.6287    5386.6909    5057.4824    191.79569      341.087    660.83575    46.551151    20.044646    20.621942           90           90           90 
  190500     258.2295   -10921.475   -9758.4079   -10921.475            0    5367.2569    46.678186    19.920122     20.78998            0            0            0    19331.254    4062.9665    6634.6004    5404.2038    -62.58785    72.922037   -1108.9335    46.678186    19.920122     20.78998           90           90           90 
  191000    264.90987   -10968.962   -9775.8068   -10968.962            0    5812.0663    46.551113    19.935541    20.670304            0            0            0    19182.489    5029.5408     6616.606    5790.0523   -501.50311     588.5687   -530.08043    46.551113    19.935541    20.670304           90           90           90 
  191500    259.85023   -10944.309   -9773.9423   -10944.309            0    6651.3352    46.902535    19.957851     20.51766            0            0            0    19206.044    6723.5658    6392.6557    6837.7841   -561.97722    715.91777    908.02536    46.902535    19.957851     20.51766           90           90           90 
  192000    247.14344   -10974.158   -9861.0225   -10974.158            0    5008.5234    46.767568    19.866606    20.782673            0            0            0    19309.448    5426.9157    4965.4731    4633.1814   -126.35416    306.51815   -239.52169    46.767568    19.866606    20.782673           90           90           90 
  192500    259.24516   -10919.763   -9752.1216   -10919.763            0     6198.395    46.471585    20.094429    20.566172            0            0            0    19205.102     6783.564     5085.669    6725.9519   -235.38462    530.02169     570.3609    46.471585    20.094429    20.566172           90           90           90 
  193000    255.33167   -10924.282   -9774.2676   -10924.282            0    5244.0915    46.530422     20.11792    20.628553            0            0            0    19310.292    5944.0036    4196.7959     5591.475   -329.97482    634.09785    380.09519    46.530422     20.11792    20.628553           90           90           90 
  193500    254.24479   -10968.294   -9823.1741   -10968.294            0    4863.6973    46.688495    19.911072    20.708193            0            0            0    19250.708    4582.0353    5814.3407    4194.7159   -57.465674   -548.96334    195.30878    46.688495    19.911072    20.708193           90           90           90 
  194000    266.12097    -10961.12   -9762.5098    -10961.12            0    6830.1695    46.521279    19.898877    20.648346            0            0            0    19114.612    6279.8718    7124.8034    7085.8333   -98.635001   -308.86264    534.57438    46.521279    19.898877    20.648346           90           90           90 
  194500    264.50218   -10933.883   -9742.5642   -10933.883            0    6814.2137    46.275571    19.962941     20.69715            0            0            0    19119.955    6259.3033    8323.6537    5859.6841    102.38888   -60.063682    193.57864    46.275571    19.962941     20.69715           90           90           90 
  195000    262.68594    -10968.11   -9784.9718    -10968.11            0    5637.7017    46.782376    19.917972    20.658177            0            0            0    19249.497    4645.5753    6352.5712    5914.9587    140.06282    594.21314    12.417027    46.782376    19.917972    20.658177           90           90           90 
  195500    276.99496   -10965.412   -9717.8261   -10965.412            0    4911.0399     46.78973    19.927758    20.671291            0            0            0     19274.21    4654.8916    5425.1885    4653.0395   -98.984117    142.77536    76.490343     46.78973    19.927758    20.671291           90           90           90 
  196000    263.18225   -10964.741   -9779.3666   -10964.741            0    5009.7584    46.762161    19.832533    20.733987            0            0            0     19228.95    4760.2883    5133.0907    5135.8961    54.248852     515.0138   -147.14544    46.762161    19.832533    20.733987           90           90           90 
  196500    262.08835   -10950.862    -9770.415   -10950.862            0    6233.2511    46.983049    19.885518    20.587883            0            0            0    19234.893    4883.5138    6839.9191    6976.3205   -439.71321   -181.73791   -170.18019    46.983049    19.885518    20.587883           90           90           90 
  197000    264.11924    -10931.18    -9741.586    -10931.18            0    5565.1618    46.504137    19.925134    20.779999            0            0            0    19254.772    6816.5486    5065.3199    4813.6168   -52.753579   -362.01127   -238.97711    46.504137    19.925134    20.779999           90           90           90 
  197500    259.38288   -10972.295   -9804.0332   -10972.295            0    6880.9021    46.503933    19.985667    20.608719            0            0            0    19153.993    5967.0877    7565.1455     7110.473   -43.033235   -284.59668    594.41002    46.503933    19.985667    20.608719           90           90           90 
  198000    255.75559   -10943.251   -9791.3273   -10943.251            0    5797.1102    46.627935    19.966912    20.682918            0            0            0    19256.125    5682.4092    6179.9007    5529.0208   -208.01531    680.21625     527.6726    46.627935    19.966912    20.682918           90           90           90 
  198500    266.84045   -11003.287   -9801.4369   -11003.287            0    5789.9568    46.278689    19.944841    20.773582            0            0            0    19174.455    7370.5117    4309.5042    5689.8546   -129.63346   -477.56926   -125.53498    46.278689    19.944841    20.773582           90           90           90 
  199000    252.30456   -10918.946   -9782.5657   -10918.946            0    5349.1577    46.500527    20.160499    20.558536            0            0            0    19273.089    5932.2289     5534.557    4580.6872   -591.73124    917.39877    102.48842    46.500527    20.160499    20.558536           90           90           90 
  199500    268.88102   -10950.844   -9739.8027   -10950.844            0    5497.3573    46.498639    19.954488    20.754376            0            0            0    19257.083    5874.9051    5472.6109     5144.556   -340.52014    285.38716   -141.76683    46.498639    19.954488    20.754376           90           90           90 
  200000    260.26926   -10944.864   -9772.6107   -10944.864            0    7192.2371    46.751868    19.850409    20.577879            0            0            0    19097.171    5963.8225    7520.0525    8092.8363   -334.77991    283.10393   -515.60051    46.751868    19.850409    20.577879           90           90           90 
  200500    256.15036   -11000.329   -9846.6268   -11000.329            0    4926.4201    46.676483     19.97836    20.691875            0            0            0    19295.578    4594.0471    5357.0666    4828.1467   -290.51562    619.43014   -247.00103    46.676483     19.97836    20.691875           90           90           90 
  201000    263.54309   -10936.877   -9749.8779   -10936.877            0    5227.9777    46.620666    19.972349    20.679883            0            0            0    19255.539    5048.6436    5725.1814     4910.108     51.46459    417.44757   -54.941751    46.620666    19.972349    20.679883           90           90           90 
  201500    260.20342   -10951.097   -9779.1401   -10951.097            0    5287.4884    46.735761    19.969582    20.658903            0            0            0    19280.823    4737.8659    5979.8046    5144.7947   -176.39147    206.86202   -627.56779    46.735761    19.969582    20.658903           90           90           90 
  202000     256.2123   -10932.416   -9778.4348   -10932.416            0    6584.7804    46.539749    20.061744    20.532501            0            0            0     19170.55    6882.8126    5303.8776     7567.651    168.45115   -93.790159   -238.85408    46.539749    20.061744    20.532501           90           90           90 
  202500    257.09595   -10971.648    -9813.687   -10971.648            0    5111.6819    46.790014    19.848629    20.763371            0            0            0    19283.308    5234.4575    4670.7512    5429.8371    324.41025   -714.36311   -38.214658    46.790014    19.848629    20.763371           90           90           90 
  203000    250.56911    -10967.93   -9839.3662    -10967.93            0    6987.9096    46.759654    19.865731    20.599681            0            0            0    19135.347    6829.4246    7413.9509    6720.3534    404.53819    938.16317   -81.766365    46.759654    19.865731    20.599681           90           90           90 
  203500    258.20989   -10952.166   -9789.1875   -10952.166            0    6097.9973    46.312008    20.098383    20.636911            0            0            0    19208.764     5681.317    5856.5625    6756.1125    392.91984    79.689145    1049.4096    46.312008    20.098383    20.636911           90           90           90 
  204000    262.04555   -10961.033   -9780.7787   -10961.033            0     5714.721    46.403436    20.055669    20.747768            0            0            0    19308.951    8198.9767    4099.4484     4845.738   -662.68712   -869.96291   -344.63378    46.403436    20.055669    20.747768           90           90           90 
  204500    253.59022   -10953.494   -9811.3225   -10953.494            0     5749.179    46.926182    19.918582    20.615152            0            0            0    19269.045    5553.8816       6317.9    5375.7555   -48.763503   -1132.6215   -196.68057    46.926182    19.918582    20.615152           90           90           90 
  205000     259.5802   -10992.359   -9823.2085   -10992.359            0     7135.675    46.620674    19.804539     20.70067            0            0            0    19112.949    8233.5753    7227.1309    5946.3189    544.65067    688.68462   -264.65125    46.620674    19.804539     20.70067           90           90           90 
  205500    261.70723   -10918.743   -9740.0124   -10918.743            0    5900.4437    46.489978    19.963597    20.672906            0            0            0    19186.672    6254.1413    6460.2347    4986.9552    -320.7497   -151.22759    1211.4639    46.489978    19.963597    20.672906           90           90           90 
  206000     254.3967   -10955.091   -9809.2868   -10955.091            0    6433.9839    46.556052    20.061876     20.46016            0            0            0    19109.825    6526.9786    5746.2708    7028.7023   -307.49875    252.41764    625.66996    46.556052    20.061876     20.46016           90           90           90 
  206500    262.37217   -10923.562   -9741.8368   -10923.562            0    5652.4152    46.517296    19.861672    20.779081            0            0            0    19198.027    5499.9577    5764.3583    5692.9295   -246.36889   -782.39535   -65.432682    46.517296    19.861672    20.779081           90           90           90 
  207000     262.3799   -10956.941   -9775.1809   -10956.941            0    5730.6644    46.554582    19.997817    20.674198            0            0            0    19247.471    7130.3784    4157.4633    5904.1514   -66.049477   -218.40662    664.88016    46.554582    19.997817    20.674198           90           90           90 
  207500    260.96333   -10949.779   -9774.3991   -10949.779            0     6660.559    46.427763    20.152276    20.472415            0            0            0    19154.505    7241.4423    5677.0805    7063.1542   -424.92267   -466.39313   -195.84403    46.427763    20.152276    20.472415           90           90           90 
  208000    268.84578   -10992.449   -9781.5666   -10992.449            0    6142.5281    46.691726    19.773909     20.77232            0            0            0    19178.625    5872.7739    6821.0946    5733.7157   -414.03533    -172.0003    661.91256    46.691726    19.773909     20.77232           90           90           90 
  208500    259.93904   -10941.694   -9770.9277   -10941.694            0    4669.2294    46.688805    19.970919    20.732251            0            0            0    19331.132    4679.8268    4928.6547    4399.2067   -416.26678   -380.31525   -803.26459    46.688805    19.970919    20.732251           90           90           90 
  209000    271.22634   -10942.258   -9720.6536   -10942.258            0    6045.7224    46.739499    20.055642    20.514999            0            0            0    19230.568    4455.1033    6938.3023    6743.7617    88.783272    -19.34122    577.03325    46.739499    20.055642    20.514999           90           90           90 
  209500    261.73529   -10936.918    -9758.061   -10936.918            0     5951.466    46.574665    19.843512    20.757579            0            0            0    19184.257    5714.7706    6043.8988    6095.7286    160.30289    141.68409   -273.24195    46.574665    19.843512    20.757579           90           90           90 
  210000    259.98592   -10981.888   -9810.9101   -10981.888            0    5814.1633    46.938199    19.872821    20.666856            0            0            0    19277.927     5166.032    5925.0369     6351.421    -174.1758    109.50072    25.168385    46.938199    19.872821    20.666856           90           90           90 
  210500    262.19953   -10952.428   -9771.4805   -10952.428            0    5372.6599    46.617478    19.990449     20.64052            0            0            0     19234.99    6091.9007    4865.9701    5160.1089   -844.66358    166.16957   -83.289765    46.617478    19.990449     20.64052           90           90           90 
  211000    261.51174   -10957.346   -9779.4963   -10957.346            0    4887.5151    46.416759    20.053621    20.785266            0            0            0    19347.426    6090.4799    4480.9875    4091.0778   -143.19875    782.45284    287.56452    46.416759    20.053621    20.785266           90           90           90 
  211500    256.24046    -10981.82    -9827.712    -10981.82            0    6214.7743    46.676663    20.012925    20.501499            0            0            0    19151.199      4785.02    6868.1057    6991.1973    28.644977    548.16388     233.3753    46.676663    20.012925    20.501499           90           90           90 
  212000    247.74592   -10925.668   -9809.8197   -10925.668            0    5571.1986    46.807603    19.933115    20.669035            0            0            0    19284.651     6019.298    5722.7433    4971.5544    179.11809   -1514.3178    756.29314    46.807603    19.933115    20.669035           90           90           90 
  212500    257.11004   -10882.626   -9724.6018   -10882.626            0    6028.0699    46.560906    19.963769    20.748708            0            0            0    19286.572    6855.0161    5581.0045    5648.1891   -352.13812    924.17914   -448.67125    46.560906    19.963769    20.748708           90           90           90 
  213000    257.16771   -10990.554   -9832.2692   -10990.554            0    5923.9991    46.497903    20.010543    20.543547            0            0            0    19114.709    5996.5551    5435.4932    6339.9489    313.35318   -21.782461    256.73114    46.497903    20.010543    20.543547           90           90           90 
  213500    254.18061   -10911.656   -9766.8257   -10911.656            0    5373.0091    46.558913    19.969467    20.825364            0            0            0    19362.521    6330.3185     5137.986    4650.7228    -565.5179   -157.62798   -191.29615    46.558913    19.969467    20.825364           90           90           90 
  214000    264.06865   -10939.646   -9750.2793   -10939.646            0     7362.792    46.727445    19.926608    20.544703            0            0            0    19129.574    7141.6751    6910.0889    8036.6121   -403.60774    7.5385563    330.42016    46.727445    19.926608    20.544703           90           90           90 
  214500    258.01812   -10950.863   -9788.7488   -10950.863            0    5274.8392    46.855019    19.880301    20.661013            0            0            0    19245.567    5347.6613    5160.0211     5316.835   -302.62416    -937.2221   -75.973987    46.855019    19.880301    20.661013           90           90           90 
  215000    251.51277   -10988.679   -9855.8646   -10988.679            0    5346.6296    46.544538     19.94854    20.665149            0            0            0    19187.499    5796.4104    5388.8201    4854.6581    -13.67372    -524.8273    44.699135    46.544538     19.94854    20.665149           90           90           90 
  215500    262.23846   -10941.513   -9760.3901   -10941.513            0    6395.5328    46.555745    19.953323    20.671498            0            0            0    19202.619    6369.9241    7404.0819    5412.5923   -259.33176    822.76557   -382.05988    46.555745    19.953323    20.671498           90           90           90 
  216000    259.98659   -10977.128   -9806.1472   -10977.128            0    5789.0255    46.667624    19.878836    20.771071            0            0            0    19269.281    5579.8431    6975.0819    4812.1515    -209.4927    106.87363    511.64612    46.667624    19.878836    20.771071           90           90           90 
  216500    265.32828   -10941.741   -9746.7016   -10941.741            0    8027.3945    46.383851    19.898421    20.631366            0            0            0    19042.037    8849.3308    7300.5578    7932.2948   -271.50674   -670.92457    296.02236    46.383851    19.898421    20.631366           90           90           90 
  217000    268.87415   -10965.192   -9754.1817   -10965.192            0    6198.3941    46.564663    19.988138    20.629449            0            0            0    19200.672    6684.4441    5883.9005    6026.8375   -254.54278   -506.74843    1629.1981    46.564663    19.988138    20.629449           90           90           90 
  217500    261.58295   -10973.208   -9795.0378   -10973.208            0    5505.0727    46.512828    19.844593    20.746188            0            0            0    19149.316    5048.0077     6105.961    5361.2492    70.920567   -139.03414    42.259328    46.512828    19.844593    20.746188           90           90           90 
  218000     254.9263   -10942.343   -9794.1543   -10942.343            0    5673.8479    46.508438    20.120449     20.55164            0            0            0    19231.622    5432.2306     4796.076    6793.2371    85.138816    565.55563    1000.1858    46.508438    20.120449     20.55164           90           90           90 
  218500    266.19334   -10956.603   -9757.6675   -10956.603            0    6933.8382    46.626734    19.917312    20.651175            0            0            0    19178.316    8115.5173    5731.7207    6954.2766   -419.07008    714.15126    63.642655    46.626734    19.917312    20.651175           90           90           90 
  219000    263.30623    -10985.44   -9799.5073    -10985.44            0    5632.8159    46.641771    19.880973    20.798399            0            0            0    19286.018    4952.7209    7007.4367    4938.2901   -17.454495    -130.7424    546.66974    46.641771    19.880973    20.798399           90           90           90 
  219500    254.19009   -10973.297   -9828.4238   -10973.297            0    6662.6075    46.715056     20.04085    20.452426            0            0            0    19147.754    6497.6663    6966.5481    6523.6079   -150.38978    218.02758   0.16936086    46.715056     20.04085    20.452426           90           90           90 
  220000    259.27365   -10950.604   -9782.8344   -10950.604            0    6229.6318    46.606719    19.957532    20.787937            0            0            0    19336.005    6378.9706    5740.3485    6569.5763    113.44131    -742.8782    1275.7005    46.606719    19.957532    20.787937           90           90           90 
  220500    252.79833   -10949.523   -9810.9179   -10949.523            0    5930.1523    46.510511    19.907064    20.690276            0            0            0    19156.873    6714.4649    4888.5805    6187.4116   -94.532773    786.61721    754.50941    46.510511    19.907064    20.690276           90           90           90 
  221000    253.33415   -10921.233   -9780.2154   -10921.233            0    5288.8081    46.578141    20.182155     20.50681            0            0            0     19277.37    5551.3656    4015.0491    6300.0095   -61.515477   -49.606015   -1168.3874    46.578141    20.182155     20.50681           90           90           90 
  221500    258.86214   -10965.097   -9799.1805   -10965.097            0    5199.6594    46.669096    19.907758    20.719394            0            0            0    19249.914    6315.6403    4252.6677    5030.6702   -10.681418    94.604422    152.01246    46.669096    19.907758    20.719394           90           90           90 
  222000    257.28231   -10976.254   -9817.4539   -10976.254            0    6638.4134    46.500047    19.920176     20.59633            0            0            0    19078.157    7167.4995    5593.3788    7154.3619    233.80143   -916.64713    1140.0049    46.500047    19.920176     20.59633           90           90           90 
  222500    261.98777    -10951.87   -9771.8756    -10951.87            0    6339.9115    46.229567    20.126947    20.601647            0            0            0     19169.01    7503.6004    5814.9627    5701.1715    312.24115     435.4914    -15.51094    46.229567    20.126947    20.601647           90           90           90 
  223000    261.41823   -10918.137    -9740.708   -10918.137            0    4892.7802    46.877759    19.802897    20.791531            0            0            0    19301.099    4213.9196    5231.8859    5232.5352   -276.14271   -581.31874    741.59418    46.877759    19.802897    20.791531           90           90           90 
  223500    260.95054   -10935.299   -9759.9769   -10935.299            0    5821.2234    46.748661    19.920233    20.683052            0            0            0    19260.972     5396.458    5071.8586    6995.3535   -417.65601    228.83541   -143.87079    46.748661    19.920233    20.683052           90           90           90 
  224000    267.66622   -10952.993   -9747.4232   -10952.993            0    5471.9671    46.644895    19.991526    20.625412            0            0            0    19233.251    5728.2591    5077.6434    5609.9989    174.52849   -442.90846   -413.69262    46.644895    19.991526    20.625412           90           90           90 
  224500    265.45334   -10989.124   -9793.5213   -10989.124            0    5731.4948    46.315614    19.821185    20.864052            0            0            0    19153.832    6559.7862     5189.205    5445.4932   -197.94154    21.834366   -301.08201    46.315614    19.821185    20.864052           90           90           90 
  225000    260.76897    -10920.56   -9746.0551    -10920.56            0    6194.6493    46.490202    20.058259     20.45942            0            0            0    19078.665    7151.8738    5226.0956    6205.9785   -64.285977    66.447358    304.82728    46.490202    20.058259     20.45942           90           90           90 
  225500    260.82236   -10957.395   -9782.6498   -10957.395            0    4882.3186     46.64543    19.946839    20.743847            0            0            0    19300.674    5913.1496    4147.7728    4586.0334    276.90918     753.8806    224.11261     46.64543    19.946839    20.743847           90           90           90 
  226000    255.73432   -10992.803   -9840.9746   -10992.803            0    6058.7008    46.661046    19.979964     20.67485            0            0            0    19274.874    5965.3455    6320.5025    5890.2544    379.33222    218.04508   -634.66033    46.661046    19.979964     20.67485           90           90           90 
  226500    252.95625   -10915.561    -9776.245   -10915.561            0     6305.071      46.4149    20.053676    20.702965            0            0            0      19270.1    6494.3228    6831.8627    5589.0276   -114.90719    402.67197    790.40599      46.4149    20.053676    20.702965           90           90           90 
  227000    255.74042   -10942.036   -9790.1798   -10942.036            0    6571.4731    46.461677    19.934194    20.659424            0            0            0    19134.264    6500.4327    6863.0185    6350.9683    637.17062    830.67028    28.334467    46.461677    19.934194    20.659424           90           90           90 
  227500    258.65624    -10938.29   -9773.3012    -10938.29            0    5103.4986    46.724714    20.015967    20.585308            0            0            0     19252.21    4437.1452    5653.6051    5219.7455   -606.57616    477.34691    265.37764    46.724714    20.015967    20.585308           90           90           90 
  228000    260.20018   -10924.395   -9752.4523   -10924.395            0    5820.9057    46.333637    20.110452    20.650754            0            0            0    19242.174    6085.1286    5167.2161    6210.3726    451.15169   -36.393349    659.10469    46.333637    20.110452    20.650754           90           90           90 
  228500    260.89697   -10949.352   -9774.2715   -10949.352            0    6019.2254    46.864952    19.773444    20.790917            0            0            0    19266.559     5510.538    6667.5554    5879.5828   -245.05096     202.7238    440.62375    46.864952    19.773444    20.790917           90           90           90 
  229000    265.63145   -10970.807   -9774.4023   -10970.807            0    6199.0556    46.750459      19.8739    20.595342            0            0            0    19135.419    6487.8003    6268.9271    5840.4392    344.92778   -27.165764    896.42054    46.750459      19.8739    20.595342           90           90           90 
  229500    264.05345   -10968.359    -9779.061   -10968.359            0    5069.5517     46.40968    20.075918    20.660517            0            0            0    19249.754    5375.7721    4983.1047    4849.7783   -388.87226   -220.50574   -823.07407     46.40968    20.075918    20.660517           90           90           90 
  230000    248.35705   -10939.677   -9821.0763   -10939.677            0    6605.3201    46.625582     19.85532    20.613316            0            0            0    19083.104    7143.8424    6913.5577      5758.56    318.15773    576.72126    45.568712    46.625582     19.85532    20.613316           90           90           90 
  230500    260.71468   -10980.688   -9806.4284   -10980.688            0    5124.2432    46.547613    20.078354    20.643625            0            0            0    19293.521    5117.6078    5559.6662    4695.4558    313.27552   -746.67063   -230.47884    46.547613    20.078354    20.643625           90           90           90 
  231000    267.06036   -10953.981   -9751.1397   -10953.981            0    6585.1418    46.145293    19.989363    20.809157            0            0            0    19194.679    8670.1709    4981.4914     6103.763   -339.36113    -917.8167    499.33177    46.145293    19.989363    20.809157           90           90           90 
  231500    253.54747   -10948.715   -9806.7366   -10948.715            0    6030.1184    46.674192    20.032791    20.498686            0            0            0    19166.565    4496.1837    7067.4174     6526.754   -86.662181    675.45355    382.42196    46.674192    20.032791    20.498686           90           90           90 
  232000     257.9566    -10958.12   -9796.2829    -10958.12            0    5438.9373    46.692513     19.92719    20.727941            0            0            0    19286.325    5210.1459    5531.5961    5575.0699   -230.77396    109.44676   -336.22343    46.692513     19.92719    20.727941           90           90           90 
  232500    263.76884   -10975.561   -9787.5449   -10975.561            0    5859.5101    46.601307    19.933156    20.624544            0            0            0    19158.368    6830.4454    4601.8964    6146.1884    168.43216    250.83392    -730.1636    46.601307    19.933156    20.624544           90           90           90 
  233000    261.13076   -10954.875   -9778.7409   -10954.875            0     5738.574    46.826647    20.017271    20.691014            0            0            0     19394.55    5035.7878    5175.0637    7004.8703   -343.71234    968.68576    367.45334    46.826647    20.017271    20.691014           90           90           90 
  233500    261.67811   -10948.247   -9769.6476   -10948.247            0    5453.7584    46.478284    19.984286    20.754941            0            0            0    19277.922    5639.1897    4875.2793    5846.8064    41.747502   -41.799241   -401.86032    46.478284    19.984286    20.754941           90           90           90 
  234000    262.91251   -10964.964   -9780.8046   -10964.964            0    6736.7805    46.697604    20.007956    20.515959            0            0            0    19168.545    6808.2766    6047.6509    7354.4141   -303.03661     280.5015   -175.05182    46.697604    20.007956    20.515959           90           90           90 
  234500    256.55894   -10988.008   -9832.4651   -10988.008            0    5510.8124    46.791883    19.920508    20.716221            0            0            0    19309.964    4025.8335    6466.1026     6040.501   -418.63937    399.99435    622.85828    46.791883    19.920508    20.716221           90           90           90 
  235000    263.15915   -11004.376   -9819.1066   -11004.376            0    5421.6867    46.654924     19.91509    20.713579            0            0            0    19245.753    6978.4287    4155.3203    5131.3111   -268.95029    992.28874   -240.75286    46.654924     19.91509    20.713579           90           90           90 
  235500    266.95676   -10884.483   -9682.1083   -10884.483            0    6234.8348    46.599498    20.176444    20.490864            0            0            0    19265.759    6771.7918    5002.3073    6930.4052   -288.92278    526.05855     90.34668    46.599498    20.176444    20.490864           90           90           90 
  236000    252.38201   -10953.092   -9816.3625   -10953.092            0    6278.7583    46.308101    19.973954     20.71999            0            0            0    19165.076    7336.0269    5278.9381      6221.31   -217.57145    521.53865    -608.8361    46.308101    19.973954     20.71999           90           90           90 
  236500    255.06098   -10926.154   -9777.3579   -10926.154            0    5297.3442    46.937638    19.851627    20.703717            0            0            0    19291.485    5777.8103    4726.1654    5388.0568    -391.3485   -32.340228    396.33596    46.937638    19.851627    20.703717           90           90           90 
  237000    255.93383   -10973.875   -9821.1481   -10973.875            0    5502.0001     46.78334    19.998372    20.587749            0            0            0    19261.705    5998.8478    4206.3625    6300.7901    193.31596    895.53375    251.03983     46.78334    19.998372    20.587749           90           90           90 
  237500    252.59112     -10985.7   -9848.0285     -10985.7            0    6072.5057    46.379162    19.988596    20.727542            0            0            0    19215.557    7581.2649     5244.646    5391.6062    -249.6981    214.18148    370.14386    46.379162    19.988596    20.727542           90           90           90 
  238000    264.49861   -10952.654   -9761.3507   -10952.654            0     5576.571    46.754844    19.958926    20.735603            0            0            0    19349.977    5597.7624    4818.5631    6313.3876   -443.62572    501.57323   -686.40788    46.754844    19.958926    20.735603           90           90           90 
  238500    258.34348   -10962.075   -9798.4951   -10962.075            0    4835.1512    46.599574     20.06769    20.555644            0            0            0    19222.524    5662.2162     4389.798    4453.4395    48.280325    804.53125    532.49272    46.599574     20.06769    20.555644           90           90           90 
  239000    263.52423    -10988.48   -9801.5658    -10988.48            0    5520.0094    46.402535    19.977853    20.793585            0            0            0    19276.131    6203.4612    5434.2768    4922.2901    -88.70096     535.7273   -539.06165    46.402535    19.977853    20.793585           90           90           90 
  239500    270.84055   -10943.137   -9723.2697   -10943.137            0    7122.1366    46.509715    20.039261    20.558765            0            0            0    19161.187    7769.4403    7109.3421    6487.6273   -232.58477   -1011.7045    148.08829    46.509715    20.039261    20.558765           90           90           90 
  240000    260.15962   -10980.983   -9809.2231   -10980.983            0    5999.7271     46.61836    19.920685    20.657162            0            0            0     19183.68    6323.1532    5667.0176    6009.0107   -391.45582    591.25055    190.81382     46.61836    19.920685    20.657162           90           90           90 
  240500    259.92529   -10966.801   -9796.0961   -10966.801            0    6044.4014    46.895129    19.794353    20.675895            0            0            0    19192.581    5683.0943    6717.0541    5733.0558   -46.791827   -566.41937   -21.721308    46.895129    19.794353    20.675895           90           90           90 
  241000    258.90987   -10962.801   -9796.6699   -10962.801            0    6283.0947    46.592161    20.005883    20.573972            0            0            0    19177.356    5792.2901    5928.3326    7128.6613    35.309984    432.11477    317.94643    46.592161    20.005883    20.573972           90           90           90 
  241500    268.41281   -10914.362   -9705.4301   -10914.362            0      5600.08    46.716337    19.883035    20.686404            0            0            0    19214.827    5892.7038    5803.4852    5104.0509   -523.50798    -97.02847   -1018.6556    46.716337    19.883035    20.686404           90           90           90 
  242000    257.94791   -10929.192   -9767.3931   -10929.192            0    6415.4134    46.335641    20.083256    20.613558            0            0            0     19182.37    5802.5363    6407.2155    7036.4885    379.90726    323.90947   -351.69161    46.335641    20.083256    20.613558           90           90           90 
  242500    262.15818   -10938.311   -9757.5491   -10938.311            0    5915.9425    46.489641     19.99108    20.786625            0            0            0    19318.635    6877.7116    5413.1165    5456.9995   -307.75413    1036.7634   -93.791567    46.489641     19.99108    20.786625           90           90           90 
  243000    266.78083   -10933.321   -9731.7394   -10933.321            0    6634.2658    46.785973    19.836012    20.563544            0            0            0    19083.937    6124.1406    6280.4418    7498.2149   -367.08543   -275.80907    440.14631    46.785973    19.836012    20.563544           90           90           90 
  243500    261.55317   -10998.904   -9820.8676   -10998.904            0    5981.5049    46.344646    20.086728     20.61381            0            0            0     19189.65    6358.3334    5536.2787    6049.9027    175.29932   -855.09779   -274.70554    46.344646    20.086728     20.61381           90           90           90 
  244000    271.57246   -10973.752   -9750.5886   -10973.752            0    6553.7346    46.340126    19.878346    20.758932            0            0            0    19122.403      6244.78    7599.0495    5817.3742    318.26566    94.172137     493.0413    46.340126    19.878346    20.758932           90           90           90 
  244500     262.6633   -10936.185   -9753.1481   -10936.185            0    4572.1282    46.656861    20.115626    20.588569            0            0            0    19323.029    5206.0744    3430.9378    5079.3725     161.3866    303.51236    472.72551    46.656861    20.115626    20.588569           90           90           90 
  245000    259.06525   -10932.169   -9765.3381   -10932.169            0    6416.5336    46.280568    20.094046    20.722793            0            0            0    19271.449     6766.574    5636.1321    6846.8948    1.8807726   -182.75826   -668.50972    46.280568    20.094046    20.722793           90           90           90 
  245500    262.87685   -10868.841   -9684.8427   -10868.841            0    7715.2756    46.514365    19.882328     20.68818            0            0            0    19132.716    8022.9519    8063.7872    7059.0876   -86.369804   -440.16238    155.06804    46.514365    19.882328     20.68818           90           90           90 
  246000    251.06647   -10920.727   -9789.9228   -10920.727            0     5417.914    47.038176    19.982347      20.5482            0            0            0    19313.935    5450.9253    4955.1456    5847.6711    545.95089   -28.254783    967.67712    47.038176    19.982347      20.5482           90           90           90 
  246500    261.58471   -10963.412   -9785.2337   -10963.412            0     6849.337    46.242033    19.922752    20.692952            0            0            0    19063.767    8561.7718    6616.7107    5369.5284   -494.62536   -23.290764    368.19127    46.242033    19.922752    20.692952           90           90           90 
  247000    259.88962   -10924.953   -9754.4091   -10924.953            0    5634.8228    46.710395    19.952754    20.675039            0            0            0    19269.158    5772.1564     5404.069    5728.2431   -244.18493   -345.81837    635.32345    46.710395    19.952754    20.675039           90           90           90 
  247500    262.80033   -11006.072   -9822.4183   -11006.072            0    7097.6332    46.686982    19.836737    20.676615            0            0            0    19148.972    7188.5266    6957.4002    7146.9729    282.70153   -759.25946    736.27075    46.686982    19.836737    20.676615           90           90           90 
  248000    247.32457   -10957.193   -9843.2422   -10957.193            0    5428.0506    46.385569    20.078762    20.607173            0            0            0    19192.795    5299.6815    5713.7571    5270.7133    219.59333   -1473.4448   -475.07746    46.385569    20.078762    20.607173           90           90           90 
  248500    263.87676   -10961.108   -9772.6063   -10961.108            0    5940.2533    46.943969    19.881664    20.631797            0            0            0    19256.155    5709.4409    6528.7923    5582.5267   -493.46142   -392.15263   -8.4096624    46.943969    19.881664    20.631797           90           90           90 
  249000    255.94518   -10955.428   -9802.6496   -10955.428            0    5354.4005    46.843115    19.834464    20.709606            0            0            0    19241.462    4496.6642    6462.2395    5104.2978   -140.38706   -348.94406   -195.35609    46.843115    19.834464    20.709606           90           90           90 
  249500    254.73546   -10992.439    -9845.109   -10992.439            0    5464.7835    46.413637    20.097617    20.665343            0            0            0    19276.704    5825.6012    4425.3085    6143.4409   -201.28637    -2.486177    107.56257    46.413637    20.097617    20.665343           90           90           90 
  250000    259.01743   -10907.731   -9741.1151   -10907.731            0     5908.269    46.585138    20.089472    20.573989            0            0            0    19254.595     6305.467    5151.8512    6267.4889   -462.14882   -469.67008   -177.83643    46.585138    20.089472    20.573989           90           90           90 
  250500    260.17827   -10942.523   -9770.6788   -10942.523            0    5035.3084    46.780539    19.880631    20.759969            0            0            0    19307.324    3731.3619    6777.7498    4596.8135   -156.79642   -369.17247       135.45    46.780539    19.880631    20.759969           90           90           90 
  251000    259.48698   -10926.992   -9758.2617   -10926.992            0    6019.0943    46.655385    19.908322    20.584371            0            0            0     19119.39    5045.0377    6955.2945    6056.9509    215.18224    68.944719   -381.48737    46.655385    19.908322    20.584371           90           90           90 
  251500    267.05774   -10957.934   -9755.1048   -10957.934            0    6681.7146    46.707648     19.84529    20.602982            0            0            0    19097.456    5498.4925    7840.6507    6706.0005   -14.933687    1262.6839   -58.950672    46.707648     19.84529    20.602982           90           90           90 
  252000    255.57874   -11007.261   -9856.1336   -11007.261            0    6111.0147    46.540096    19.994035    20.691789            0            0            0    19254.212    6004.0536    5978.0266    6350.9639   -277.58373    331.38585   -875.24662    46.540096    19.994035    20.691789           90           90           90 
  252500     263.4624   -10958.018    -9771.382   -10958.018            0    6059.0697    46.561137    19.931155    20.648628            0            0            0    19162.283    5683.8782    6779.1127    5714.2181    373.17863   -147.08324    627.04206    46.561137    19.931155    20.648628           90           90           90 
  253000    252.74635   -10927.767   -9789.3968   -10927.767            0    7053.0983    46.805125    19.932697    20.521592            0            0            0    19145.667    7359.6277    6305.1277    7494.5395    74.373818    -1107.003    677.07281    46.805125    19.932697    20.521592           90           90           90 
  253500    264.73005   -10945.831   -9753.4854   -10945.831            0    5303.4734    46.679411    19.867384    20.788177            0            0            0     19278.91    5738.9159    4154.8665    6016.6377    190.27062   -346.77736   -372.48106    46.679411    19.867384    20.788177           90           90           90 
  254000    262.45508   -10958.949   -9776.8502   -10958.949            0      5953.28    46.407328    20.103523    20.530665            0            0            0      19154.1    7550.5928    4930.8103    5378.4369   -181.52433   -325.34844   -349.05783    46.407328    20.103523    20.530665           90           90           90 
  254500     267.3909   -10939.228   -9734.8987   -10939.228            0    6568.9977     46.56374    19.928664      20.5896            0            0            0    19106.183    6777.0461    6259.9993    6669.9476   -215.86961    421.08668    65.883475     46.56374    19.928664      20.5896           90           90           90 
  255000    258.22988   -10961.611   -9798.5427   -10961.611            0     6792.785    46.506243    19.949849    20.658054            0            0            0    19166.389    5947.1266     7771.116    6660.1123   -451.23275   -490.38106    424.86195    46.506243    19.949849    20.658054           90           90           90 
  255500    253.57129   -10957.796   -9815.7099   -10957.796            0    5886.2871    46.639471    20.035008    20.559412            0            0            0    19211.171    5228.8469    6356.8296    6073.1849    92.376063    993.75194   -354.88235    46.639471    20.035008    20.559412           90           90           90 
  256000    262.81624   -10907.355   -9723.6298   -10907.355            0    5957.2938    46.239935    19.925173    20.784192            0            0            0    19149.281    5149.6273    7844.8358    4877.4184   -443.61683    102.67611   -199.56671    46.239935    19.925173    20.784192           90           90           90 
  256500    260.82175   -10945.136   -9770.3941   -10945.136            0     6470.043    46.522921    20.040908    20.604434            0            0            0    19210.783    6446.4144    6256.9218    6706.7928   -371.25859   -633.43583    794.46705    46.522921    20.040908    20.604434           90           90           90 
  257000     258.2899   -10902.962   -9739.6235   -10902.962            0    6477.1261    46.536496    20.001415    20.527642            0            0            0    19107.042    5996.2232    6998.5927    6436.5623    183.45162    301.33704    191.04033    46.536496    20.001415    20.527642           90           90           90 
  257500    257.95447   -10986.421   -9824.5935   -10986.421            0    5823.5688    46.514413    19.881053    20.753481            0            0            0    19191.896    6545.6814    5645.5919     5279.433    345.68281   -1274.2333   -343.15439    46.514413    19.881053    20.753481           90           90           90 
  258000    253.41975   -10941.262    -9799.858   -10941.262            0    6094.0006    46.478432    20.041739    20.567805            0            0            0    19159.087    6574.7086    5385.6279    6321.6654    528.68867    -328.9043   -483.87754    46.478432    20.041739    20.567805           90           90           90 
  258500    262.74499   -10958.172   -9774.7678   -10958.172            0     6045.552    46.248633    19.991095     20.81454            0            0            0    19244.309    6687.8247    6280.7111    5168.1203   -178.60195    711.43601   -453.68468    46.248633    19.991095     20.81454           90           90           90 
  259000     257.8097   -10938.629   -9777.4531   -10938.629            0    5860.6311    46.652258    20.105483    20.474664            0            0            0    19204.542    5314.0817    5099.7555    7168.0561   -655.63218   -363.40126   -14.595346    46.652258    20.105483    20.474664           90           90           90 
  259500     256.6594   -10947.939    -9791.944   -10947.939            0    5544.3906    46.781247    19.984352     20.64171            0            0            0    19297.787    5887.6596    5137.5508    5607.9613    425.57991    1033.2652   -917.25715    46.781247    19.984352     20.64171           90           90           90 
  260000    247.46048   -10967.845   -9853.2823   -10967.845            0    6162.2689    46.416486    19.968177    20.773829            0            0            0    19254.277    5565.1522     7250.411    5671.2436   -240.48626    200.64949   -335.33657    46.416486    19.968177    20.773829           90           90           90 
  260500    263.99994   -10976.034   -9786.9773   -10976.034            0    5720.3952    46.587861    20.112898    20.566351            0            0            0    19271.018    5368.0723    5897.5518    5895.5616   -642.60842    55.750041    968.78156    46.587861    20.112898    20.566351           90           90           90 
  261000    258.13641   -10972.348   -9809.7003   -10972.348            0    6486.6759    46.405124    20.048948    20.721258            0            0            0    19278.518    7915.1162         5458    6086.9115   -143.81159   -220.55111   -158.91119    46.405124    20.048948    20.721258           90           90           90 
  261500     270.3642   -10955.241   -9737.5195   -10955.241            0     5623.094    46.462125    19.999969    20.756502            0            0            0    19287.794    5268.0021    6288.8481    5312.4318    174.22098   -1249.0358    105.33991    46.462125    19.999969    20.756502           90           90           90 
  262000    259.01691   -10895.784   -9729.1713   -10895.784            0    6199.7257    46.800906    19.986964    20.563127            0            0            0    19234.914    5410.0332    6067.9732    7121.1708   -135.58469   -24.646189    1093.0283    46.800906    19.986964    20.563127           90           90           90 
  262500    254.75801   -10960.429   -9812.9981   -10960.429            0    6715.4224    46.337113    20.043518    20.599781            0            0            0    19132.227    6665.3714    7128.0243    6352.8715   -249.21568    208.93189   -212.54919    46.337113    20.043518    20.599781           90           90           90 
  263000    265.94832   -10902.531   -9704.6982   -10902.531            0    6917.9443    46.264165    19.913511    20.810154            0            0            0    19172.019    7800.9081    7288.3793    5664.5454   -4.2683023    193.98217    316.16758    46.264165    19.913511    20.810154           90           90           90 
  263500     262.3708    -10933.23   -9751.5105    -10933.23            0    6165.7701    46.490383    20.057623    20.552399            0            0            0    19164.835     5940.672    6221.0961    6335.5422    89.397192    30.034716   -27.401655    46.490383    20.057623    20.552399           90           90           90 
  264000    258.28573   -10973.902   -9810.5817   -10973.902            0    4918.2528    46.666997    20.056074    20.640702            0            0            0    19318.804    4563.9473     5288.753    4902.0579    104.57877   -129.27861     12.93259    46.666997    20.056074    20.640702           90           90           90 
  264500    259.26648   -10957.622   -9789.8851   -10957.622            0    6225.8875    46.548209     19.91836    20.690282            0            0            0    19183.285    5661.8463    7123.8949    5891.9212   -739.70993   -148.98359    690.72127    46.548209     19.91836    20.690282           90           90           90 
  265000    257.76414   -10920.824   -9759.8534   -10920.824            0    6022.9852    46.523286    20.063878    20.523133            0            0            0    19157.062    7026.2627    4351.9875    6690.7055    -171.0295   -687.16045    538.12799    46.523286    20.063878    20.523133           90           90           90 
  265500    255.18925   -10951.251    -9801.878   -10951.251            0    5002.5537    46.364941    20.121012    20.675714            0            0            0     19288.57    5673.2238    3801.3482    5533.0891     115.9661    661.66462   -879.25365    46.364941    20.121012    20.675714           90           90           90 
  266000    253.84484   -10966.575   -9823.2571   -10966.575            0     5980.242    46.214614    19.798834    20.821296            0            0            0    19051.392    6169.8378    6609.8459    5161.0425   -408.32521     1019.421   -321.42526    46.214614    19.798834    20.821296           90           90           90 
  266500    257.58087   -10917.472   -9757.3271   -10917.472            0    5995.6123    46.681495    19.951605    20.581342            0            0            0     19168.86    6119.6601    5409.5076    6457.6691    -9.379511   -37.674049   -348.79196    46.681495    19.951605    20.581342           90           90           90 
  267000    261.86091   -10910.787   -9731.3647   -10910.787            0    6680.9528    46.656258    19.962458    20.603863            0            0            0    19189.893    7087.4595    6102.9493    6852.4497    186.38284   -572.54547    896.70335    46.656258    19.962458    20.603863           90           90           90 
  267500    262.39812   -10979.654   -9797.8117   -10979.654            0    4741.3033    46.442411    20.129132    20.701274            0            0            0    19352.491    5433.0789    3886.6926    4904.1385   -433.46411    411.07044   -432.00242    46.442411    20.129132    20.701274           90           90           90 
  268000    264.69794   -11009.827   -9817.6266   -11009.827            0    5935.3509    46.203174    20.098638    20.700931            0            0            0    19223.316    6406.1343    5836.7643    5563.1539    64.788819    1242.9564    334.29203    46.203174    20.098638    20.700931           90           90           90 
  268500    258.72167   -10957.323   -9792.0391   -10957.323            0    6213.8831    46.507919     19.98255     20.63404            0            0            0     19176.18    6858.1541    6218.9169    5564.5785   -168.39316    1121.6238   -306.45964    46.507919     19.98255     20.63404           90           90           90 
  269000    255.17416   -10969.624   -9820.3187   -10969.624            0    6279.6184    46.783735    19.864866    20.644487            0            0            0    19186.009    6162.4077    5957.1111    6719.3364   -304.76277    132.35048     511.5485    46.783735    19.864866    20.644487           90           90           90 
  269500    261.98486   -10886.906   -9706.9249   -10886.906            0    6713.2765     46.61145    19.978907    20.636644            0            0            0    19217.788     6667.816    7391.0102    6081.0034    127.29522    909.28916   -137.20846     46.61145    19.978907    20.636644           90           90           90 
  270000     259.9401   -10946.467    -9775.696   -10946.467            0    6698.2015    46.615002    19.881563    20.607374            0            0            0    19098.483    5841.4955     7837.501    6415.6079   -521.90423    17.851155   -818.45153    46.615002    19.881563    20.607374           90           90           90 
  270500    257.93302   -10972.499   -9810.7677   -10972.499            0     6242.739    46.136909    20.079839    20.647532            0            0            0    19128.322    6409.1161    6588.6265    5730.4745   -167.38227   -416.82743   -252.63861    46.136909    20.079839    20.647532           90           90           90 
  271000    253.39085   -10935.321   -9794.0473   -10935.321            0    4904.6882    46.492667    20.038468    20.630397            0            0            0    19220.141    6726.1362    2885.3402    5102.5881   -230.73156    780.96406   -24.418057    46.492667    20.038468    20.630397           90           90           90 
  271500    267.97919   -10934.096   -9727.1168   -10934.096            0    6522.0526    46.679708    19.839246    20.660815            0            0            0    19133.779    5706.2687    7360.6987    6499.1905   -318.06363   -303.45362    231.98834    46.679708    19.839246    20.660815           90           90           90 
  272000    269.89866   -10979.548   -9763.9235   -10979.548            0    6063.8757     46.42503    19.964457     20.70567            0            0            0    19191.061    5921.5263    6626.7457     5643.355   -252.22772   -109.77868    875.03457     46.42503    19.964457     20.70567           90           90           90 
  272500    257.97677   -10914.938     -9753.01   -10914.938            0    6119.5757    46.262899    20.108773     20.59914            0            0            0    19163.177    6907.5753    5548.5352    5902.6164     160.5575   -466.67322    380.61971    46.262899    20.108773     20.59914           90           90           90 
  273000    265.73238   -10946.828   -9749.9686   -10946.828            0    5497.5793    46.698368    19.950548     20.65238            0            0            0    19240.956     5683.659    5135.4191    5673.6598    78.033247    58.452134    201.15613    46.698368    19.950548     20.65238           90           90           90 
  273500    269.59178   -10978.714   -9764.4712   -10978.714            0    6467.8176    46.591761    19.855086    20.753443            0            0            0    19198.666    7217.0364     6375.898    5810.5185   -340.35901    271.32648   -90.022533    46.591761    19.855086    20.753443           90           90           90 
  274000     251.9971   -10921.161   -9786.1646   -10921.161            0    5649.4915    46.730182    20.041275    20.570855            0            0            0    19265.273     5341.779    5867.8766     5738.819    -653.0498   -163.80966    44.107437    46.730182    20.041275    20.570855           90           90           90 
  274500    248.13669   -10929.956   -9812.3471   -10929.956            0    6140.1015    46.647205    19.821576    20.739647            0            0            0    19176.315    5965.7634    7333.0031    5121.5379   -385.82354    236.41642    171.60524    46.647205    19.821576    20.739647           90           90           90 
  275000    259.60625   -10966.749   -9797.4817   -10966.749            0    5458.4587    46.606089    20.103758     20.55055            0            0            0    19254.992    4876.8146    4638.5504    6860.0109   -221.63833   -17.583589   -839.21387    46.606089    20.103758     20.55055           90           90           90 
  275500    253.52539   -10974.884   -9833.0051   -10974.884            0    5288.8476    46.565109    20.016386     20.66896            0            0            0    19264.818    5934.5994    3558.6845     6373.259   -5.6855219    469.59097    131.08711    46.565109    20.016386     20.66896           90           90           90 
  276000    266.76509   -10951.165   -9749.6539   -10951.165            0    6031.2586    46.362023    19.874138    20.837068            0            0            0    19199.383    7003.7974    5759.8318    5330.1465   -4.4032717   -773.98593   -397.90765    46.362023    19.874138    20.837068           90           90           90 
  276500    259.56656   -10997.387   -9828.2986   -10997.387            0    5410.8571    46.785796    20.073876    20.475602            0            0            0    19230.118    4757.0106    5311.4133    6164.1474   -75.953387   -396.99848    432.17342    46.785796    20.073876    20.475602           90           90           90 
  277000    259.77158   -10926.172   -9756.1598   -10926.172            0    6206.2761    46.588259    19.847067    20.771145            0            0            0    19205.838    5339.1934    7575.0886    5704.5461   -5.9957236   -753.46546   -450.71379    46.588259    19.847067    20.771145           90           90           90 
  277500    256.62067   -10975.443   -9819.6228   -10975.443            0      5693.36    46.368317    19.965464    20.667565            0            0            0    19133.308    5531.5155    6514.6825     5033.882   -190.02985    300.74961   -397.59866    46.368317    19.965464    20.667565           90           90           90 
  278000    257.34766   -10976.441   -9817.3464   -10976.441            0    5675.4503     46.50979    20.031025    20.701515            0            0            0    19286.333    5257.9908    5984.8525    5783.5077   -7.0946601    23.218476   -713.93314     46.50979    20.031025    20.701515           90           90           90 
  278500    254.56297   -10921.643   -9775.0901   -10921.643            0     5976.128    46.420368    20.065123    20.656261            0            0            0    19239.869    5535.1812    5980.2354    6412.9673    -271.3973    509.74739   -37.140371    46.420368    20.065123    20.656261           90           90           90 
  279000     259.0303   -10911.179   -9744.5056   -10911.179            0    6786.9277     46.67851    19.903045    20.553843            0            0            0    19095.435     5663.833    7424.4326    7272.5174   -854.58207   -669.10654   -1220.0883     46.67851    19.903045    20.553843           90           90           90 
  279500    259.73084    -10942.09   -9772.2615    -10942.09            0    5158.8561    46.445441    19.916018    20.837944            0            0            0    19275.269    4891.3257    5410.5748    5174.6679   -601.95598   -128.86987   -779.07273    46.445441    19.916018    20.837944           90           90           90 
  280000    260.80015   -10881.326   -9706.6807   -10881.326            0    5680.7863    46.710899    20.032885    20.577788            0            0            0    19255.749    5642.0633    4716.3052    6683.9906     292.9006    595.99921    194.49162    46.710899    20.032885    20.577788           90           90           90 
  280500    268.82048   -10920.478   -9709.7091   -10920.478            0    6341.9367    46.573281    19.976364    20.590517            0            0            0    19156.693     5563.461    6785.1181    6677.2309   -110.56806   -274.56997    -488.9798    46.573281    19.976364    20.590517           90           90           90 
  281000    262.06956   -10971.854    -9791.492   -10971.854            0     5800.992    46.544334    19.980212     20.73843            0            0            0    19286.028    4796.6931    6832.6365    5773.6465   -351.43056    1067.4559    131.10078    46.544334    19.980212     20.73843           90           90           90 
  281500    263.81986   -10961.157   -9772.9117   -10961.157            0    7757.1411    46.547283    19.812657    20.573852            0            0            0    18973.728     7725.184    7818.1386    7728.1007    88.229506    552.69072    690.52012    46.547283    19.812657    20.573852           90           90           90 
  282000    263.90735   -10971.295   -9782.6552   -10971.295            0    5295.3344    46.335872    20.087028    20.622827            0            0            0    19194.696     5333.394    5167.3091    5385.3001    92.766064    46.778594   -153.01636    46.335872    20.087028    20.622827           90           90           90 
  282500    256.34852   -10947.851   -9793.2567   -10947.851            0    4418.0003    46.422163    20.066524     20.75078            0            0            0    19330.004    5920.1684      2972.48    4361.3525    307.40943   -838.07483    135.44962    46.422163    20.066524     20.75078           90           90           90 
  283000    252.15005   -10926.174   -9790.4894   -10926.174            0    5716.6795    46.467514    20.111891    20.608801            0            0            0    19259.947    7126.0846    4748.7966    5275.1572    242.86866    744.13576    294.37489    46.467514    20.111891    20.608801           90           90           90 
  283500    252.14698   -10933.806   -9798.1345   -10933.806            0    6649.3273    46.871794    19.838757    20.652482            0            0            0    19204.291    6138.0844    7932.2748    5877.6227   -303.80304   -96.704967    1416.4938    46.871794    19.838757    20.652482           90           90           90 
  284000    258.23302   -10893.909   -9730.8269   -10893.909            0    6787.5433     46.42111      19.8834    20.713805            0            0            0    19119.039    6696.7625    6761.5238    6904.3436     27.34253    721.62278    -883.4331     46.42111      19.8834    20.713805           90           90           90 
  284500    267.19701   -10934.911   -9731.4544   -10934.911            0    6035.1167    46.613036    20.186216    20.412375            0            0            0    19206.837    6072.4763     4935.738    7097.1358    472.62295   -277.56939   -84.698736    46.613036    20.186216    20.412375           90           90           90 
  285000    256.63099   -10947.541   -9791.6739   -10947.541            0     6705.217     46.28892    19.933879    20.704981            0            0            0    19104.853    6902.4132    6518.0905    6695.1475    250.50027  -0.15437464    -334.2543     46.28892    19.933879    20.704981           90           90           90 
  285500    262.49744   -10956.413   -9774.1234   -10956.413            0    4736.4534    46.776897    19.877752    20.668532            0            0            0    19218.006    4462.0445    5058.6141    4688.7016    305.41336    658.96676    674.07046    46.776897    19.877752    20.668532           90           90           90 
  286000    262.53401   -10968.157   -9785.7029   -10968.157            0    5672.4162    46.651176      20.0243    20.549956            0            0            0    19196.888    4583.9857    6036.7108    6396.5522    692.48534    1053.3708   -365.95846    46.651176      20.0243    20.549956           90           90           90 
  286500    263.76144   -10913.161   -9725.1784   -10913.161            0    6043.1349    46.465939    19.962727      20.7322            0            0            0    19230.916    6834.9888    5507.1238     5787.292     141.7116    421.80731   -12.374852    46.465939    19.962727      20.7322           90           90           90 
  287000    261.13425   -10962.614   -9786.4639   -10962.614            0    6084.4818    46.530723    20.135142    20.453792            0            0            0    19163.214    5667.4824    5692.2519    6893.7111    289.88068    160.83446    293.06113    46.530723    20.135142    20.453792           90           90           90 
  287500    263.29138   -10888.574   -9702.7087   -10888.574            0    4930.1048    46.470949    20.081834    20.733898            0            0            0    19349.327    5920.6701     4397.769    4471.8754   -592.92381    166.66901    421.10798    46.470949    20.081834    20.733898           90           90           90 
  288000    245.86332   -10932.775   -9825.4055   -10932.775            0    5986.1438    46.249989    19.942604    20.745884            0            0            0    19134.866    5104.1117    7500.1404    5354.1793    380.31381    498.10985   -723.72868    46.249989    19.942604    20.745884           90           90           90 
  288500    260.66198   -10902.003   -9727.9802   -10902.003            0    6523.8958    46.622435    20.018743     20.51189            0            0            0     19144.21    4631.7254    7446.9628    7492.9992   -68.815523   -255.76536    776.21196    46.622435    20.018743     20.51189           90           90           90 
  289000    267.82621   -10930.839   -9724.5488   -10930.839            0    5285.0093    46.739515    19.975042    20.732896            0            0            0    19356.724    4629.4052    6329.9118     4895.711    112.52243    527.48537   -153.17826    46.739515    19.975042    20.732896           90           90           90 
  289500    253.89236    -10925.69   -9782.1574    -10925.69            0    5846.0225    46.570771    19.905814     20.74062            0            0            0    19227.158    5594.3561    6031.0467    5912.6645    -596.6621    766.55518   -161.44777    46.570771    19.905814     20.74062           90           90           90 
  290000     258.8595     -10907.5   -9741.5963     -10907.5            0    6396.5709    46.382571    20.110619    20.453923            0            0            0    19079.056    5748.4076    6368.9865    7072.3187    164.14505    360.21395    -469.8043    46.382571    20.110619    20.453923           90           90           90 
  290500    261.68975   -10949.045    -9770.393   -10949.045            0    7134.6048    46.440668    19.971997    20.754012            0            0            0    19249.613    8895.9144    6356.3372    6151.5628    -203.8563   -63.831964    224.24153    46.440668    19.971997    20.754012           90           90           90 
  291000    258.50941   -10917.301   -9752.9734   -10917.301            0     4881.246    46.525985    20.063396    20.695742            0            0            0    19318.839    4498.5491     4648.652    5496.5368   -34.614769   -907.75695   -228.51543    46.525985    20.063396    20.695742           90           90           90 
  291500    261.08043   -10924.751   -9748.8439   -10924.751            0    5303.2606    46.548385    20.026986    20.571181            0            0            0    19176.945    6074.0559    5119.5134    4716.2126   -576.80942    446.04695   -450.22005    46.548385    20.026986    20.571181           90           90           90 
  292000    250.60155   -10950.628   -9821.9176   -10950.628            0     6597.224    46.335543    19.835371     20.80713            0            0            0    19123.473    7359.0486    6649.8633    5782.7602    75.684037   -320.16545    240.31989    46.335543    19.835371     20.80713           90           90           90 
  292500    261.12368   -10946.789   -9770.6868   -10946.789            0     5827.857    46.746002    20.056675    20.598209            0            0            0     19312.25    5829.6624    5141.8801    6512.0284   -263.24674    516.27654   -168.16613    46.746002    20.056675    20.598209           90           90           90 
  293000    265.16141   -10955.684   -9761.3955   -10955.684            0    6664.7347    46.258808    20.041606    20.569722            0            0            0    19070.206    6654.8062    7152.9386    6186.4593   -540.40875    342.48099   -1080.6528    46.258808    20.041606    20.569722           90           90           90 
  293500    268.11515   -10988.774    -9781.182   -10988.774            0    5653.4915    46.573712    19.884536      20.7677            0            0            0    19232.898    6268.8934    4930.2457    5761.3353    39.075486    235.53694   -293.54886    46.573712    19.884536      20.7677           90           90           90 
  294000    263.78125   -10922.534   -9734.4619   -10922.534            0    7120.8504    46.594692    20.044559    20.556624            0            0            0    19199.271    7172.2692    6553.1934    7637.0884    -584.9213    145.29566    932.89216    46.594692    20.044559    20.556624           90           90           90 
  294500    265.65621   -10928.259   -9731.7426   -10928.259            0    6044.0301    46.465397    20.079822    20.647287            0            0            0    19264.268    4931.0964    7247.6053    5953.3886   -177.17428    131.33478   -991.70556    46.465397    20.079822    20.647287           90           90           90 
  295000    264.93073   -10947.963   -9754.7143   -10947.963            0    4765.9183    46.732865    19.968563    20.764393            0            0            0    19377.085    5368.5565    4694.9058    4234.2925   -405.53122     406.7796    191.28224    46.732865    19.968563    20.764393           90           90           90 
  295500    260.40585   -10931.009   -9758.1399   -10931.009            0    5847.9809    46.708301    20.072288    20.456006            0            0            0    19178.375    5580.5183    5824.0614     6139.363    253.61602    46.145718   -360.99808    46.708301    20.072288    20.456006           90           90           90 
  296000    261.23459   -10904.367    -9727.765   -10904.367            0    5914.3002    46.509091    20.013031    20.685833            0            0            0    19254.123    6804.9962    5959.0468    4978.8574   -478.11157    38.987698    1450.0091    46.509091    20.013031    20.685833           90           90           90 
  296500    261.25477   -10964.238   -9787.5451   -10964.238            0    5689.1295    46.480935    19.959951    20.732221            0            0            0    19234.467    7247.9144    4308.3782     5511.096   -520.45724   -284.56248     526.5921    46.480935    19.959951    20.732221           90           90           90 
  297000    258.54604   -10943.677   -9779.1849   -10943.677            0    5296.4176    47.033013    19.928093    20.441989            0            0            0    19159.832    4282.4988    5748.1131    5858.6409     44.08391   -1258.2478    843.82699    47.033013    19.928093    20.441989           90           90           90 
  297500    258.75235   -10934.333   -9768.9112   -10934.333            0    4789.2877    46.580911    19.986649     20.82182            0            0            0    19385.038    5641.8965    4507.6661    4218.3006    216.63694   -432.37554   -99.494632    46.580911    19.986649     20.82182           90           90           90 
  298000    252.40315   -10980.755   -9843.9298   -10980.755            0    5898.0906    46.401275    20.030558    20.666852            0            0            0     19208.67     5431.418    5488.6593    6774.1946   -177.11411    1297.2276   -249.30044    46.401275    20.030558    20.666852           90           90           90 
  298500    263.45456   -10980.755   -9794.1547   -10980.755            0    4961.2513    46.893632    19.849372    20.662954            0            0            0    19233.267    3326.7461    5755.2898    5801.7179   -655.09845     373.7918   -804.59944    46.893632    19.849372    20.662954           90           90           90 
  299000    259.32712   -10956.288   -9788.2777   -10956.288            0    5843.5819    46.692335    19.989855    20.695113            0            0            0     19316.26    5585.0006    6231.7483    5713.9966   -430.96938    508.55363    1102.5469    46.692335    19.989855    20.695113           90           90           90 
  299500    253.34598   -10982.634   -9841.5624   -10982.634            0    7073.2088    46.392296    19.993868    20.548694            0            0            0    19060.176     6689.276    7103.7685    7426.5819   -534.33027   -580.03186   -123.20919    46.392296    19.993868    20.548694           90           90           90 
  300000    259.75083   -10890.644   -9720.7254   -10890.644            0     4945.656    46.320328    20.020086    20.822095            0            0            0    19309.098    6550.4596    4847.3558    3439.1526    26.840452    552.43002   -693.62989    46.320328    20.020086    20.822095           90           90           90 
  300500    260.87924   -10977.317   -9802.3159   -10977.317            0    5417.3793    46.580416    20.149676     20.52301            0            0            0    19262.493    5411.0667    5053.5228    5787.5483   -629.49413   -77.100959    304.53549    46.580416    20.149676     20.52301           90           90           90 
  301000    254.19625   -10911.764   -9766.8631   -10911.764            0    5484.6449    46.760174    19.886432    20.718552            0            0            0    19266.037    5185.5428    6322.0797    4946.3122   -145.70088    402.27297    559.83232    46.760174    19.886432    20.718552           90           90           90 
  301500     255.6925   -10966.475   -9814.8345   -10966.475            0    6592.5439    46.406549    19.975862    20.627585            0            0            0    19121.994    7184.0165    6328.2392     6265.376   -165.82178   -62.946346   -498.49744    46.406549    19.975862    20.627585           90           90           90 
  302000    260.58482   -10959.981   -9786.3061   -10959.981            0    5682.1101    46.824397    19.993973    20.550011            0            0            0    19239.038    5698.0597    5109.2863    6238.9843    325.78222    377.68612   -1328.9625    46.824397    19.993973    20.550011           90           90           90 
  302500    254.72578   -10979.734   -9832.4486   -10979.734            0    4727.0743    46.459327    20.084665     20.69185            0            0            0    19307.979     5849.367    3690.0537    4641.8022    516.36304    788.95448    296.21043    46.459327    20.084665     20.69185           90           90           90 
  303000    263.30077   -10962.461   -9776.5529   -10962.461            0    6202.3171    46.397321    19.940605    20.724551            0            0            0     19174.16    7071.0214     5491.048     6044.882    188.20585    -950.5513   -105.17491    46.397321    19.940605    20.724551           90           90           90 
  303500    263.01843   -10911.218   -9726.5815   -10911.218            0    5995.5329    46.662442    20.040935     20.51625            0            0            0    19185.956    5595.9167     5935.484    6455.1979    341.10064    311.99842    -323.7641    46.662442    20.040935     20.51625           90           90           90 
  304000    258.05555   -10963.931   -9801.6476   -10963.931            0    4586.7843    46.849091    20.011982    20.666987            0            0            0    19376.192    3190.4484    5500.6902    5069.2142    143.58819   -639.13035     325.0829    46.849091    20.011982    20.666987           90           90           90 
  304500    256.00282   -10959.686   -9806.6486   -10959.686            0    5341.8788    46.645681    19.949084    20.685566            0            0            0    19248.717    6398.2263    4563.5052    5063.9047   -1187.0086    39.328506   -377.02101    46.645681    19.949084    20.685566           90           90           90 
  305000    257.76204   -10883.077   -9722.1156   -10883.077            0    6933.6353     46.74451    19.958641    20.561903            0            0            0    19183.369    5969.9791    7972.0327    6858.8941   -191.03028    336.38339    -481.7114     46.74451    19.958641    20.561903           90           90           90 
  305500    258.06868   -10917.105   -9754.7623   -10917.105            0    5310.3152     46.54162    20.000782     20.74109            0            0            0    19307.234    4008.3151    6364.7695     5557.861   -12.768253   -306.84634   -41.698224     46.54162    20.000782     20.74109           90           90           90 
  306000     253.1874   -10930.037   -9789.6802   -10930.037            0    6538.6884    46.562771    20.081037    20.423987            0            0            0    19097.015    7567.8652    4478.5429     7569.657    232.74894   -515.05656   -55.549796    46.562771    20.081037    20.423987           90           90           90 
  306500    254.54973   -10976.598   -9830.1048   -10976.598            0    6715.9502    46.241333    19.995829    20.715966            0            0            0    19154.682    6997.8495    6961.8885    6188.1126   -10.395987    595.09736   -16.548364    46.241333    19.995829    20.715966           90           90           90 
  307000    264.40546   -10960.369   -9769.4858   -10960.369            0    6114.5123    46.789444    19.889293    20.658848            0            0            0     19225.31     6041.277    6223.5414    6078.7184    -551.2689    578.61991   -254.73117    46.789444    19.889293    20.658848           90           90           90 
  307500    265.25254   -10990.529   -9795.8302   -10990.529            0    6572.2408    46.574184    20.001341    20.494116            0            0            0    19091.214    5866.2775    6837.1471    7013.2978   -347.15383   -48.031984    107.38281    46.574184    20.001341    20.494116           90           90           90 
  308000    259.99696   -10961.935   -9790.9081   -10961.935            0    5821.1759    46.357064    19.876091    20.848615            0            0            0    19209.856    6505.0361    5786.7375     5171.754   -48.119048   -43.286355   -1105.5022    46.357064    19.876091    20.848615           90           90           90 
  308500    249.95837   -10848.724   -9722.9105   -10848.724            0     6239.023    46.571137    20.016384    20.555838            0            0            0     19161.86    6606.4361    5504.3795    6606.2533    234.98681    27.181005      255.954    46.571137    20.016384    20.555838           90           90           90 
  309000    267.01794   -10969.789   -9767.1393   -10969.789            0    7183.5117    46.404276    20.038319    20.582185            0            0            0    19138.626    7479.3906    6951.0453    7120.0991    524.37274     415.8317    51.932893    46.404276    20.038319    20.582185           90           90           90 
  309500    271.79329   -10954.556   -9730.3976   -10954.556            0    5646.4448    46.472589    19.894737    20.744909            0            0            0    19179.911    5304.7913    5668.7059    5965.8371   -676.36566   -251.96494    -200.0537    46.472589    19.894737    20.744909           90           90           90 
  310000    265.09299   -10929.642    -9735.662   -10929.642            0    5363.1697    46.609612    20.258857    20.354202            0            0            0    19219.608    3630.5455    5674.5259    6784.4377   -292.53439   -950.46328    445.41411    46.609612    20.258857    20.354202           90           90           90 
  310500    269.50016   -10906.625   -9692.7955   -10906.625            0    5888.6793    46.708816    19.893725     20.70291            0            0            0    19237.399    4876.9235    7237.2649    5551.8494    163.82592    287.29209    800.77807    46.708816    19.893725     20.70291           90           90           90 
  311000    263.11458   -10934.203   -9749.1342   -10934.203            0    6908.6724     46.49294    19.860486    20.689888            0            0            0    19104.471    7563.3206    6607.2954    6555.4012   -184.12843   -397.06407    794.19058     46.49294    19.860486    20.689888           90           90           90 
  311500    261.97905   -10951.217   -9771.2619   -10951.217            0    6322.6435    46.536153    20.153884    20.457909            0            0            0    19187.151    7993.9579    4177.0317    6796.9408    183.14718    507.77443    203.93556    46.536153    20.153884    20.457909           90           90           90 
  312000    259.95908   -10954.095   -9783.2388   -10954.095            0     5435.473    46.473757    20.015044    20.756123            0            0            0    19306.813    6641.0435      4277.75    5387.6254    153.77286   -771.06008    539.06987    46.473757    20.015044    20.756123           90           90           90 
  312500    257.21374   -10917.487   -9758.9954   -10917.487            0    6791.8011    46.544122     20.00569    20.613416            0            0            0    19194.126    5872.4441    7418.6108    7084.3483    144.55756   -264.08623   -523.15404    46.544122     20.00569    20.613416           90           90           90 
  313000    262.97236   -10981.597   -9797.1682   -10981.597            0      5707.65    46.960049    20.044423     20.49434            0            0            0    19291.057     6362.302    4293.3564    6467.2916   -643.43646    55.797842    -596.2708    46.960049    20.044423     20.49434           90           90           90 
  313500    248.89894   -10926.204   -9805.1621   -10926.204            0    5901.3887    46.543883    19.816304    20.724622            0            0            0    19114.894     5595.368    6269.5697    5839.2285   -235.70983    43.660975   -968.44117    46.543883    19.816304    20.724622           90           90           90 
  314000    269.27828    -10958.63   -9745.7993    -10958.63            0    5658.2525    46.665448    20.051358    20.556003            0            0            0    19234.367    5958.9638    4898.6849    6117.1087   -756.84861    573.32127    713.02391    46.665448    20.051358    20.556003           90           90           90 
  314500    268.14749    -10930.98   -9723.2428    -10930.98            0    6868.6338    46.633351     19.97319    20.591518            0            0            0    19179.285    7169.3661    7047.2126    6389.3226   -105.13972    1084.1975    142.30647    46.633351     19.97319    20.591518           90           90           90 
  315000     264.2112   -10965.004   -9774.9957   -10965.004            0    5351.2486      46.6618    19.994323    20.594069            0            0            0    19213.671    4064.1833    5922.9111    6066.6515   -170.70109    31.417759    827.79069      46.6618    19.994323    20.594069           90           90           90 
  315500    255.09299   -10935.326    -9786.386   -10935.326            0    6108.9398    46.469671    19.883327    20.751575            0            0            0    19173.867    6624.7016    7084.0685    4618.0494   -418.91013    398.58267   -1142.2478    46.469671    19.883327    20.751575           90           90           90 
  316000    261.30707   -10905.636   -9728.7076   -10905.636            0    5877.2289    46.651191    20.026152    20.570075            0            0            0    19217.466    6498.1964    5773.3708    5360.1195   -139.39253   -1042.9891   -680.18306    46.651191    20.026152    20.570075           90           90           90 
  316500    261.39081   -10933.699   -9756.3941   -10933.699            0     5884.264    46.493172    20.146399    20.601647            0            0            0    19296.945    5911.6906    5600.0342    6141.0671   -227.34249   -835.06591    719.83421    46.493172    20.146399    20.601647           90           90           90 
  317000    248.36728   -10954.071   -9835.4236   -10954.071            0    5548.6721    46.637038    19.882166    20.711336            0            0            0    19204.489    5791.8331     6564.479    4289.7043    336.42983    287.85604     115.4715    46.637038    19.882166    20.711336           90           90           90 
  317500     252.7042   -10990.345   -9852.1639   -10990.345            0    4790.5929    46.708877    20.017055    20.659806            0            0            0    19316.385    4488.0489     4241.542    5642.1878    43.726273    223.32934    941.41899    46.708877    20.017055    20.659806           90           90           90 
  318000    274.03082   -10994.556   -9760.3201   -10994.556            0    6555.8868     46.68921    20.029948    20.433118            0            0            0    19108.693    6195.0646    7000.0691    6472.5268   -442.46667    631.56319     77.39551     46.68921    20.029948    20.433118           90           90           90 
  318500    267.39473   -10971.655   -9767.3078   -10971.655            0    5484.3569     46.64111    19.814786     20.81296            0            0            0    19234.996    5184.9487    6331.9457    4936.1763   -338.45876    227.57854   -156.19856     46.64111    19.814786     20.81296           90           90           90 
  319000    254.03605   -10922.476   -9778.2966   -10922.476            0    5244.0731    46.952725    19.971194    20.559577            0            0            0    19278.756    5558.8341    4531.0292    5642.3561   -116.72643    344.05994   -540.14282    46.952725    19.971194    20.559577           90           90           90 
  319500    257.64291   -10946.336   -9785.9108   -10946.336            0    6174.7769    46.462093    20.027839    20.707295            0            0            0    19268.869    6593.5493    5679.5133    6251.2682    610.43415   -542.96476    1191.1625    46.462093    20.027839    20.707295           90           90           90 
  320000    257.42827   -10913.047    -9753.589   -10913.047            0    5359.2935    46.415161    19.980369    20.759556            0            0            0    19252.247    7311.0745     4332.081     4434.725    352.88736    243.94766     409.6941    46.415161    19.980369    20.759556           90           90           90 
  320500    261.92413   -10956.549   -9776.8413   -10956.549            0    5909.1146     46.87372    20.153203    20.380307            0            0            0    19252.371    5940.4727    5200.0781    6586.7929    402.85904    870.84493   -138.47026     46.87372    20.153203    20.380307           90           90           90 
  321000    255.57379   -10954.247   -9803.1415   -10954.247            0    6837.6388    46.595479    19.869753    20.734887            0            0            0    19197.201    5522.4034    8824.6858    6165.8271    224.32598   -57.743479   -77.395028    46.595479    19.869753    20.734887           90           90           90 
  321500    256.47011    -10963.58   -9808.4372    -10963.58            0     5792.377    46.524826    19.928611    20.629395            0            0            0    19127.062    5713.1388    5803.2871     5860.705    161.84981   -331.78947    -404.5778    46.524826    19.928611    20.629395           90           90           90 
  322000    259.38428   -10951.106   -9782.8378   -10951.106            0     6107.802    46.217132    20.070096    20.609828            0            0            0    19117.311    7871.4717     5195.839    5256.0952   -638.35432    686.66152    645.87207    46.217132    20.070096    20.609828           90           90           90 
  322500    257.67331   -10952.895   -9792.3335   -10952.895            0    5207.1478    46.578579    19.901977    20.895748            0            0            0     19370.48    5199.7619    6236.3447    4185.3368    121.75702    922.85396     251.1022    46.578579    19.901977    20.895748           90           90           90 
  323000    267.11062   -10974.072   -9771.0049   -10974.072            0    5660.3077    47.045299    19.909263    20.530347            0            0            0    19229.488    4311.8041     5543.315     7125.804   -855.79849    -89.62989     407.0628    47.045299    19.909263    20.530347           90           90           90 
  323500    257.99214   -10926.389   -9764.3918   -10926.389            0    5761.6142    46.562722    19.990126    20.681997            0            0            0    19250.692    5214.6563    6581.4507    5488.7357   -335.09671    354.11804    240.03149    46.562722    19.990126    20.681997           90           90           90 
  324000    266.12269   -10993.925   -9795.3078   -10993.925            0    7458.6706    46.427041    19.862415    20.684357            0            0            0    19074.144    8385.4624    6781.9778    7208.5715    289.95954   -204.26168    459.13059    46.427041    19.862415    20.684357           90           90           90 
  324500    255.61571   -10953.279   -9801.9848   -10953.279            0    4999.6817    46.675363    20.060365    20.552984            0            0            0     19244.27    4657.1558     5030.689    5311.2004   -122.81691    238.01357   -457.85935    46.675363    20.060365    20.552984           90           90           90 
  325000    265.43788   -10936.616   -9741.0826   -10936.616            0    6185.1545    46.303582    19.980565    20.726529            0            0            0    19175.599    6463.2536    5622.4035    6469.8065    246.16192    1390.7062   -155.75669    46.303582    19.980565    20.726529           90           90           90 
  325500     252.5913   -10960.435   -9822.7627   -10960.435            0    5658.3344    47.305854    19.900969     20.48539            0            0            0    19285.608     4564.722    6292.5688    6117.7124   -234.67986   -437.22068   -4.8927669    47.305854    19.900969     20.48539           90           90           90 
  326000    263.89047   -10994.421   -9805.8569   -10994.421            0    5933.0386    46.635713    19.990402    20.656598            0            0            0    19257.457    5497.6474    6429.2026    5872.2658   -343.64099    171.73909    -394.4293    46.635713    19.990402    20.656598           90           90           90 
  326500    255.05743   -10923.897   -9775.1175   -10923.897            0    5656.1228    46.556145    19.962477    20.768152            0            0            0    19301.421    5364.7542    6470.3163    5133.2979   -554.30266   -771.37755    296.85554    46.556145    19.962477    20.768152           90           90           90 
  327000    264.53028   -10909.189   -9717.7432   -10909.189            0    6164.3387    46.902513    19.986131    20.444544            0            0            0    19164.711    4676.4806    7445.5794    6370.9561     -70.5576    612.29871   -699.22782    46.902513    19.986131    20.444544           90           90           90 
  327500    251.02716   -10959.948   -9829.3203   -10959.948            0    6711.3362    46.753815    19.745564    20.801533            0            0            0    19203.568    5851.2874    7385.3889    6897.3323   -130.38135     121.8139   -515.03939    46.753815    19.745564    20.801533           90           90           90 
  328000    261.90312   -10939.463   -9759.8504   -10939.463            0     6565.739    46.776008    19.910936    20.663827            0            0            0     19245.34    6877.5548    6201.4001    6618.2621    166.77483    340.76137    950.64015    46.776008    19.910936    20.663827           90           90           90 
  328500    264.46791   -10985.274   -9794.1098   -10985.274            0    6386.6592    46.446876    20.054127    20.573165            0            0            0    19162.907    7256.1962    5308.7955     6594.986   -39.512972     88.98166   -493.36859    46.446876    20.054127    20.573165           90           90           90 
  329000    264.43807    -10967.25   -9776.2195    -10967.25            0    5734.1503    46.361061    19.985545    20.741513            0            0            0    19218.072    5270.1719    6224.7217    5707.5572   -35.588932    616.43196    1117.5612    46.361061    19.985545    20.741513           90           90           90 
  329500    262.32381   -10983.608   -9802.1005   -10983.608            0    6567.0185    46.587482     19.88412    20.583073            0            0            0    19067.152    8186.9936    5780.9072    5733.1545     92.93629   -75.992177    -607.2587    46.587482     19.88412    20.583073           90           90           90 
  330000    267.88523   -10914.098   -9707.5414   -10914.098            0    5787.5316    46.958387    19.857684    20.639339            0            0            0     19245.87     5400.109    6517.3081    5445.1777   -615.54622    90.225912    257.52449    46.958387    19.857684    20.639339           90           90           90 
  330500    256.41643   -10972.369   -9817.4682   -10972.369            0     4927.744    46.561023    19.941763    20.711902            0            0            0    19231.185    4240.6465    5804.0824    4738.5031    -237.6892   -44.972557   -701.20176    46.561023    19.941763    20.711902           90           90           90 
  331000    258.11489   -10994.189   -9831.6382   -10994.189            0     6811.265    46.515986    19.946619    20.606375            0            0            0     19119.35    7920.5386     6279.598    6233.6585   -132.21501   -1057.1511   -678.01699    46.515986    19.946619    20.606375           90           90           90 
  331500    261.13822   -10950.302   -9774.1348   -10950.302            0    6606.6249    46.621098    19.945098    20.544373            0            0            0    19103.439    5904.2915    7428.4881    6487.0952    115.99846   -77.680297   -374.58533    46.621098    19.945098    20.544373           90           90           90 
  332000    264.31429   -10984.987   -9794.5141   -10984.987            0    6059.2137     46.47884    20.006343    20.707962            0            0            0    19255.745    5249.4138    5964.0693    6964.1581   -314.12827    244.48011   -962.39963     46.47884    20.006343    20.707962           90           90           90 
  332500    263.65438   -10946.501   -9759.0005   -10946.501            0    5831.5392    46.878508    19.868056    20.667778            0            0            0    19249.654    5959.7225    5848.9171     5685.978   -188.65381    277.61748    480.17854    46.878508    19.868056    20.667778           90           90           90 
  333000    267.92307   -10919.587   -9712.8601   -10919.587            0     7107.186    46.332099    20.063703    20.509878            0            0            0    19065.849    7870.1541    5941.6072    7509.7968   -611.29722   -256.99057    628.90768    46.332099    20.063703    20.509878           90           90           90 
  333500    266.19408   -10899.591   -9700.6515   -10899.591            0    7663.2201    46.525262    19.893733    20.632982            0            0            0    19097.087    8177.6815    7408.3675    7403.6111     182.8088    868.51702    28.521593    46.525262    19.893733    20.632982           90           90           90 
  334000    257.79777   -10904.619   -9743.4972   -10904.619            0    7236.3738    46.683615    19.959733    20.538705            0            0            0    19137.811    7021.1725    7183.9073    7504.0415   -264.39024   -109.34257   -50.279497    46.683615    19.959733    20.538705           90           90           90 
  334500    255.21674   -10951.199   -9801.7016   -10951.199            0    4909.0725    46.720551    20.006696    20.688283            0            0            0    19337.832    4071.6888    6088.1929    4567.3358   -173.14493   -34.249467   -210.52372    46.720551    20.006696    20.688283           90           90           90 
  335000    253.97516   -10994.547    -9850.642   -10994.547            0    6318.8161    46.373578    20.094943    20.626051            0            0            0    19220.889    6167.3102     6564.862    6224.2762   -274.89907    -208.6316   -11.005938    46.373578    20.094943    20.626051           90           90           90 
  335500    273.51738   -10906.419   -9674.4957   -10906.419            0    6245.9983    46.759023    19.918103    20.594698            0            0            0    19180.894    4894.8098    7303.6254    6539.5599    -464.7439     622.8231   -344.02108    46.759023    19.918103    20.594698           90           90           90 
  336000    252.38413   -10926.452   -9789.7125   -10926.452            0    5460.3743    46.789859    19.931076    20.640647            0            0            0    19248.894    5925.0358    5879.3552    4576.7318    -6.730155    634.32492   -308.26616    46.789859    19.931076    20.640647           90           90           90 
  336500    263.86794    -10929.58   -9741.1177    -10929.58            0    5769.8533    46.749177    20.070855    20.472543            0            0            0    19209.305    6266.5275     5364.532    5678.5005    149.52285   -204.56301    445.41627    46.749177    20.070855    20.472543           90           90           90 
  337000    261.31514   -10923.356   -9746.3914   -10923.356            0    7194.3981    46.213018    19.921716    20.761614            0            0            0    19114.026    7564.0015    7712.3592    6306.8336   -416.66228    167.10667   -430.14125    46.213018    19.921716    20.761614           90           90           90 
  337500    262.09194   -10922.555   -9742.0923   -10922.555            0    5130.7666    46.677841    19.996377    20.672687            0            0            0    19295.632    4031.2624      6181.03    5180.0074     398.9232   -331.40842      221.613    46.677841    19.996377    20.672687           90           90           90 
  338000    259.22914   -11020.412    -9852.843   -11020.412            0    5824.6982    46.736839    19.787551    20.648652            0            0            0     19096.03    4685.4248    7511.6489     5277.021    128.46986   -31.734167   -190.28444    46.736839    19.787551    20.648652           90           90           90 
  338500    255.38182   -10957.756   -9807.5156   -10957.756            0    5462.0503    46.572088     20.01619    20.694038            0            0            0    19290.894    5837.5491    6234.3853    4314.2164   -533.94935   -213.14031   -1076.6532    46.572088     20.01619    20.694038           90           90           90 
  339000    261.90064   -10896.149   -9716.5477   -10896.149            0    6871.6588    46.272791    20.045915    20.638437            0            0            0     19143.81    7637.7354    6784.5862    6192.6548   -84.156159    735.97549    37.777681    46.272791    20.045915    20.638437           90           90           90 
  339500    258.35942   -10934.497    -9770.845   -10934.497            0     5788.966     46.83305    19.971432      20.4984            0            0            0    19172.627    5232.1911    6311.0129     5823.694    196.13842    721.52098   -52.174915     46.83305    19.971432      20.4984           90           90           90 
  340000    257.65311   -10945.374   -9784.9034   -10945.374            0    5140.3883    46.695285    19.956233    20.764532            0            0            0    19349.678    5865.6137    4588.6881    4966.8629   -254.20327   -169.01424     9.013484    46.695285    19.956233    20.764532           90           90           90 
  340500    266.85296   -10940.293   -9738.3862   -10940.293            0    6017.7731     46.59068    20.029345    20.599753            0            0            0    19223.294    5928.7152    5043.3988    7081.2051    769.15655    494.44002   -676.96279     46.59068    20.029345    20.599753           90           90           90 
  341000    258.68517   -10978.948   -9813.8294   -10978.948            0    5019.4326     46.59307    20.067363     20.68891            0            0            0    19344.132     4907.593    4145.1158     6005.589    249.46417   -279.33095   -858.23456     46.59307    20.067363     20.68891           90           90           90 
  341500    257.02592   -10946.816   -9789.1699   -10946.816            0    5850.5282    46.919109    19.818138     20.66516            0            0            0    19215.486      5016.33    6455.7399    6079.5148    231.58794    973.53693    25.260748    46.919109    19.818138     20.66516           90           90           90 
  342000    263.13371   -10985.232   -9800.0764   -10985.232            0    5246.7246    46.774846    19.963482    20.672435            0            0            0    19303.688    5531.4681    5618.3686    4590.3371    273.25602    456.43364    1022.0837    46.774846    19.963482    20.672435           90           90           90 
  342500     257.5284    -10954.63   -9794.7212    -10954.63            0    6424.0005    46.456022    20.056176    20.568274            0            0            0    19164.081    6140.2673    6632.8026    6498.9317   -308.24016   -386.88677    301.70094    46.456022    20.056176    20.568274           90           90           90 
  343000    257.75781    -10959.27   -9798.3274    -10959.27            0    5251.1765    46.575481    20.065936     20.70385            0            0            0    19349.417    5934.4963    4743.9428    5075.0903   -501.62197   -1161.7974    246.06402    46.575481    20.065936     20.70385           90           90           90 
  343500    258.49274   -10933.388    -9769.136   -10933.388            0    6583.0045    46.578975    19.917088    20.625913            0            0            0    19135.021    6129.9656    6942.9339    6676.1141   -235.16609     729.5045    448.38632    46.578975    19.917088    20.625913           90           90           90 
  344000    261.64396   -10976.474   -9798.0288   -10976.474            0    5700.7404    46.914794    19.816473    20.588133            0            0            0    19140.494    5083.9802    6167.9711    5850.2699    82.744305   -409.83057     304.6035    46.914794    19.816473    20.588133           90           90           90 
  344500    257.06086   -10948.284   -9790.4804   -10948.284            0    5816.5945    46.794824    19.917498    20.630927            0            0            0    19228.763    5417.4862    6503.9038    5528.3933   -528.12613     139.0853    331.52571    46.794824    19.917498    20.630927           90           90           90 
  345000    266.34055   -10945.377   -9745.7784   -10945.377            0    5353.9644    46.332351      20.0563    20.665818            0            0            0    19203.825    4855.3989    5508.9668    5697.5274   -259.21887    171.96176   -310.32542    46.332351      20.0563    20.665818           90           90           90 
  345500    265.01872   -11002.619   -9808.9737   -11002.619            0    7132.9205     46.62745    19.909777    20.553599            0            0            0    19080.772    6901.9903    7287.1868    7209.5845    251.66937   -616.85905    702.21857     46.62745    19.909777    20.553599           90           90           90 
  346000    256.08075   -10986.718   -9833.3288   -10986.718            0    6024.4378    47.021812    19.880522    20.549473            0            0            0     19210.02    4295.2287    7618.1728    6159.9119     50.11539   -333.59229    -1969.923    47.021812    19.880522    20.549473           90           90           90 
  346500    258.02313    -10929.36   -9767.2223    -10929.36            0     6579.753    46.341599    19.977279    20.707625            0            0            0    19170.685    6553.1501    7208.3457     5977.763   -316.65224    -376.3291   -505.51576    46.341599    19.977279    20.707625           90           90           90 
  347000    256.99815   -10924.085   -9766.5638   -10924.085            0    5749.8817    46.701639    20.008646    20.521266            0            0            0    19175.821    4702.4468    6591.3668    5955.8316   -185.87873    589.72425    771.82627    46.701639    20.008646    20.521266           90           90           90 
  347500    261.82201   -10939.939   -9760.6919   -10939.939            0    6539.0286    46.400555    20.042587     20.62953            0            0            0    19185.198    7582.4675    5577.9775    6456.6408    -222.1228     752.7428    455.18037    46.400555    20.042587     20.62953           90           90           90 
  348000    249.77165   -10983.782   -9858.8096   -10983.782            0    6945.7288    46.662667    19.769803    20.680755            0            0            0    19078.239    7136.6259    7569.3595    6131.2009    146.59672   -122.91011   -816.34894    46.662667    19.769803    20.680755           90           90           90 
  348500    250.13999   -10967.616   -9840.9845   -10967.616            0    5136.9531    46.725234    20.014641    20.597669            0            0            0    19262.708    5323.4113    5372.3137    4715.1341    178.19877   -152.19313   -304.44016    46.725234    20.014641    20.597669           90           90           90 
  349000    259.06038    -10976.04   -9809.2307    -10976.04            0    5908.1319    46.503124    19.999373    20.663895            0            0            0    19218.112    6851.1613    5003.9187    5869.3158   -25.894731   -447.16213    224.88598    46.503124    19.999373    20.663895           90           90           90 
  349500    268.71905   -10958.844   -9748.5318   -10958.844            0    6181.0465    46.416215    20.034141     20.58928            0            0            0    19146.156    5588.4889    5375.8763    7578.7742   -36.192871   -37.931677    58.367489    46.416215    20.034141     20.58928           90           90           90 
  350000    254.53387   -10936.382   -9789.9606   -10936.382            0    5704.3795    46.773995    19.988056    20.648963            0            0            0    19305.154    6239.0376    4649.8822    6224.2186   -477.32687    788.91937    199.46239    46.773995    19.988056    20.648963           90           90           90 
  350500    264.01985   -10920.067   -9730.9206   -10920.067            0    5979.2163     46.95934    19.962899    20.670139            0            0            0     19377.11     5324.949    6123.3994    6489.3007   -576.50559   -503.22765    140.97541     46.95934    19.962899    20.670139           90           90           90 
  351000    253.18712   -10937.788   -9797.4327   -10937.788            0    6579.7704    46.500262     19.97981    20.613481            0            0            0    19151.293    6134.0703    7328.6308    6276.6103   -467.77231    1541.1649   -699.99055    46.500262     19.97981    20.613481           90           90           90 
  351500    260.24102   -10908.037   -9735.9106   -10908.037            0    6881.6259    46.400993    19.976941    20.656928            0            0            0    19147.937    6562.4972    7434.2796    6648.1009    407.73916    -334.8268    497.76009    46.400993    19.976941    20.656928           90           90           90 
  352000    262.41877   -10957.593   -9775.6581   -10957.593            0    5608.8652    46.451697    20.048711    20.650352            0            0            0    19231.603    6019.9845    5339.2974    5467.3138    235.52154   -571.18642    15.205329    46.451697    20.048711    20.650352           90           90           90 
  352500    257.36913   -10953.636   -9794.4443   -10953.636            0    5474.8023    46.623527    19.914642    20.723407            0            0            0    19241.494    5167.4989     6199.131    5057.7771   -167.55645   -102.58089    598.08305    46.623527    19.914642    20.723407           90           90           90 
  353000    245.22443   -10959.913   -9855.4208   -10959.913            0    4578.3395    46.700722    20.080052    20.658499            0            0            0    19372.568    6569.5242    2890.1922    4275.3021   -306.33135    345.95916    655.88519    46.700722    20.080052    20.658499           90           90           90 
  353500    256.31231   -10973.064   -9818.6319   -10973.064            0    5008.9856    46.598523     20.05922    20.621615            0            0            0    19275.643      4613.25    5241.1711    5172.5358   -77.594791   -659.04781     88.49428    46.598523     20.05922    20.621615           90           90           90 
  354000    259.89616    -10907.54   -9736.9665    -10907.54            0    6429.6224    46.518871    19.908126    20.788996            0            0            0    19252.762    7475.1966    5895.9924    5917.6781    730.47222    996.74426    615.37119    46.518871    19.908126    20.788996           90           90           90 
  354500    264.40335   -10932.684   -9741.8099   -10932.684            0    7039.0515    46.901906    19.946638    20.451581            0            0            0    19133.177    6924.3116    6595.0468    7597.7961   -602.84063   -85.684981   -283.82375    46.901906    19.946638    20.451581           90           90           90 
  355000    268.95478   -10969.536   -9758.1623   -10969.536            0    6204.0686    46.455516     19.92798    20.669572            0            0            0    19135.158    6242.9841    5877.2181    6492.0038    6.1900989   -77.069722    351.29702    46.455516     19.92798    20.669572           90           90           90 
  355500    256.89028   -10984.466   -9827.4312   -10984.466            0    5362.6546    46.506403    20.057718    20.634083            0            0            0    19247.728    6327.0211    4221.9496    5538.9931   -28.282001   -565.05592    714.57684    46.506403    20.057718    20.634083           90           90           90 
  356000     259.2448   -10953.089   -9785.4491   -10953.089            0    5631.2112    46.655792    20.028783    20.620745            0            0            0    19269.235    6569.9313    4489.7664    5833.9359   -121.69547    115.20915    359.75333    46.655792    20.028783    20.620745           90           90           90 
  356500    260.74732    -10883.93    -9709.523    -10883.93            0    6174.4089    46.745033    19.869665    20.703551            0            0            0    19229.627    5610.6278    6863.8041    6048.7949   -516.43134    -506.1501   -129.76059    46.745033    19.869665    20.703551           90           90           90 
  357000     257.3162   -10933.785   -9774.8317   -10933.785            0     4985.047    46.633316    20.091646     20.65178            0            0            0     19349.48    5095.6784    4757.2711    5102.1914   -208.38295    361.02755   -67.718914    46.633316    20.091646     20.65178           90           90           90 
  357500     262.1181   -10927.059   -9746.4777   -10927.059            0    6522.7937    46.435626    19.931141    20.753213            0            0            0     19207.41    6435.4995    6262.8727    6870.0089    499.38064    307.87582   -443.81009    46.435626    19.931141    20.753213           90           90           90 
  358000    258.24493   -10988.974   -9825.8374   -10988.974            0    4735.2699    46.658797    20.001643    20.739046            0            0            0    19354.769    5100.8707    3695.0137    5409.9254      561.999    52.424315    800.86624    46.658797    20.001643    20.739046           90           90           90 
  358500    265.44381   -10977.607   -9782.0474   -10977.607            0    5410.8721    46.839324    20.009527    20.516273            0            0            0    19228.522    4613.5302    5481.4741    6137.6121   -22.550872   -483.64227    533.49571    46.839324    20.009527    20.516273           90           90           90 
  359000      257.629   -10912.052   -9751.6896   -10912.052            0    6747.8139     46.39592    19.915713     20.62797            0            0            0    19060.406    6748.8815    6809.0224    6685.5377   -291.12315    708.87373    432.62379     46.39592    19.915713     20.62797           90           90           90 
  359500     270.4573   -10951.337   -9733.1958   -10951.337            0    5820.3124    46.728581    19.920672    20.731003            0            0            0     19297.76    4388.0984    6157.1613    6915.6773    221.85906   -514.71705   -660.48246    46.728581    19.920672    20.731003           90           90           90 
  360000    255.56173   -10962.276   -9811.2249   -10962.276            0    6079.4779    46.819395    19.933693     20.50955            0            0            0    19141.223    4945.4325     5962.819    7330.1821   -279.19085   -838.91724   -275.55312    46.819395    19.933693     20.50955           90           90           90 
  360500    260.04177   -10959.336   -9788.1068   -10959.336            0    5706.8067    46.588592    19.921171    20.743085            0            0            0    19251.643    6088.9394      6110.98    4920.5008   -190.72712    563.77671     499.1338    46.588592    19.921171    20.743085           90           90           90 
  361000    261.20161   -10928.161   -9751.7074   -10928.161            0    5412.9192    47.034686    19.845804    20.621799            0            0            0    19249.236     4605.831    6172.0452    5460.8814    46.735232   -46.471831    579.31062    47.034686    19.845804    20.621799           90           90           90 
  361500    264.09995   -10951.547   -9762.0394   -10951.547            0     5924.171    46.687977    19.995575    20.659194            0            0            0    19286.452    5419.9668    6085.5509    6266.9952   -697.41488    781.76303   -591.85063    46.687977    19.995575    20.659194           90           90           90 
  362000     263.1944   -10997.497   -9812.0682   -10997.497            0    4782.6036    46.296314    20.133098    20.662544            0            0            0    19259.314    5449.9028    3418.6034    5479.3047   -393.40033    275.37237   -302.26915    46.296314    20.133098    20.662544           90           90           90 
  362500    267.66453   -10913.618   -9708.0562   -10913.618            0    6384.5862    46.628441    19.989727    20.571209            0            0            0    19174.214    6372.0653    6191.9058    6589.7876   -396.54625    990.86463     391.4356    46.628441    19.989727    20.571209           90           90           90 
  363000    269.82711   -10943.367   -9728.0651   -10943.367            0    6381.6055    46.784731    19.864737     20.67931            0            0            0    19218.656    5051.2895    7914.9956    6178.5315   -37.644958   -239.70646   -211.31014    46.784731    19.864737     20.67931           90           90           90 
  363500    260.19618   -10918.293   -9746.3687   -10918.293            0    5896.5973    46.520952    19.934338    20.654018            0            0            0    19153.801    5573.7107    6651.6035    5464.4776    282.15929    241.59048    596.81739    46.520952    19.934338    20.654018           90           90           90 
  364000      258.543   -10923.232    -9758.753   -10923.232            0    5752.2245    46.517245     19.98556    20.715548            0            0            0     19258.69    5848.2403    5852.4758    5555.9573     299.3363    450.78384     78.58099    46.517245     19.98556    20.715548           90           90           90 
  364500    255.82067   -10944.281   -9792.0637   -10944.281            0    7234.4408    46.688781    20.005291      20.4223            0            0            0     19074.89    6450.2301     7945.976    7307.1164    49.565231    1025.1371    398.87932    46.688781    20.005291      20.4223           90           90           90 
  365000    257.81409   -10931.803    -9770.607   -10931.803            0     4303.825    46.637899    20.071907    20.725513            0            0            0    19401.392    4056.9282    4208.8117    4645.7352    43.550007    288.86036   -314.02253    46.637899    20.071907    20.725513           90           90           90 
  365500    263.97115   -10959.365   -9770.4379   -10959.365            0    6525.5199    46.619384      19.8576    20.625794            0            0            0     19094.31     7365.345    6414.2935    5796.9212    -76.55701    543.28708    501.37601    46.619384      19.8576    20.625794           90           90           90 
  366000    269.90908   -10958.578   -9742.9068   -10958.578            0    5420.1801    46.773046    20.038252    20.578538            0            0            0    19287.236    5386.1461    5300.5231    5573.8711    254.75211    345.70491    400.03852    46.773046    20.038252    20.578538           90           90           90 
  366500    258.78852   -10961.551   -9795.9665   -10961.551            0    5720.4706    46.357104    19.896844    20.729501            0            0            0    19120.064    5610.0017    6259.2664    5292.1438   -264.80322   -32.255155    142.23593    46.357104    19.896844    20.729501           90           90           90 
  367000    257.09522   -10973.587   -9815.6288   -10973.587            0    6609.0364    46.543132    19.878323    20.617486            0            0            0    19075.286    6206.0794    7327.3071    6293.7226   -47.169811   -460.30462    388.24331    46.543132    19.878323    20.617486           90           90           90 
  367500     259.3159   -10972.206   -9804.2465   -10972.206            0    5193.6387    46.909039    20.026365    20.578689            0            0            0    19331.981    3983.9256    5935.6951    5661.2954    130.08511    124.45388    729.18742    46.909039    20.026365    20.578689           90           90           90 
  368000    264.90613   -10938.371   -9745.2329   -10938.371            0    6757.4666    46.683916    19.854869    20.680293            0            0            0    19168.626    7517.8907    5708.0164    7046.4927     109.8794    277.63893     418.1704    46.683916    19.854869    20.680293           90           90           90 
  368500    257.63288   -10943.985   -9783.6057   -10943.985            0    6586.7649     46.47965     19.96492    20.608345            0            0            0    19123.771    6876.2461    6093.3095     6790.739    172.15391   -174.45509    365.11782     46.47965     19.96492    20.608345           90           90           90 
  369000    261.83123   -10942.393    -9763.104   -10942.393            0    6164.3149    46.890571    20.007111     20.59719            0            0            0    19323.148    7206.4601    5671.7628    5614.7218   -60.277567    523.55493     506.1562    46.890571    20.007111     20.59719           90           90           90 
  369500    261.74211   -10919.359   -9740.4713   -10919.359            0     5959.723    46.347857    19.988355    20.733735            0            0            0    19208.093    6533.3645     5969.689    5376.1154    73.955276    840.54512   -97.589915    46.347857    19.988355    20.733735           90           90           90 
  370000    259.06624   -10935.999   -9769.1633   -10935.999            0    5153.6386    46.409636     20.05288    20.692043            0            0            0    19256.984    6195.0326    4327.1344    4938.7488   -442.74078   -550.70337    365.26206    46.409636     20.05288    20.692043           90           90           90 
  370500    262.91388   -10966.652    -9782.487   -10966.652            0    4382.9349    46.956105    20.015714    20.582553            0            0            0    19344.718    5207.7525    3454.7627    4486.2895     370.0066    444.22727    1460.3568    46.956105    20.015714    20.582553           90           90           90 
  371000     248.4199   -10940.526   -9821.6418   -10940.526            0    5458.5495    46.333322     19.96642    20.731559            0            0            0    19178.984    5580.9902    5452.3376    5342.3207   -57.385291   -282.31195    585.62658    46.333322     19.96642    20.731559           90           90           90 
  371500    253.59988    -10944.31   -9802.0949    -10944.31            0    6691.4173    46.643173      19.9271    20.564664            0            0            0    19114.098    7340.8938    6303.9036    6429.4545   -80.404562    -347.1475     639.8489    46.643173      19.9271    20.564664           90           90           90 
  372000    255.59345    -10950.43   -9799.2357    -10950.43            0    5840.1202    46.252805    20.202754    20.678809            0            0            0    19322.983    6200.6087    5072.8596    6246.8922    591.57735   -701.68843   -18.123774    46.252805    20.202754    20.678809           90           90           90 
  372500    258.51409   -10966.621   -9802.2721   -10966.621            0    5952.5642    46.506417    19.994981    20.665652            0            0            0    19216.885    5382.1925    7052.8318    5422.6683    162.87495   -788.05493     174.9381    46.506417    19.994981    20.665652           90           90           90 
  373000    252.00188   -10990.879   -9855.8612   -10990.879            0    6562.5042     46.62067    19.975485    20.599671            0            0            0    19183.866     6902.411    7030.8793    5754.2222   -246.40096    773.20685   -483.78898     46.62067    19.975485    20.599671           90           90           90 
  373500    263.80269   -10935.731   -9747.5625   -10935.731            0    5091.2428    47.104867    19.821943    20.608295            0            0            0    19242.171    3749.3446    6265.6539      5258.73     -362.741   -627.25994    -112.5045    47.104867    19.821943    20.608295           90           90           90 
  374000    271.29823   -10955.028   -9733.0992   -10955.028            0    5665.9416    46.487422     20.02904    20.654182            0            0            0    19231.077    6022.5793    5383.0849    5592.1606   -96.382177    559.69003    501.60412    46.487422     20.02904    20.654182           90           90           90 
  374500    265.67959   -10929.747   -9733.1249   -10929.747            0    6188.5173    46.279906    20.077962    20.574616            0            0            0     19118.06    6579.6339    5428.2147    6557.7033    457.26946    212.17806    137.21228    46.279906    20.077962    20.574616           90           90           90 
  375000     262.6145   -10999.304   -9816.4869   -10999.304            0    5387.3293    46.923113     19.86598     20.70146            0            0            0    19297.355    3767.7074    6165.8921    6228.3884   -348.48459    92.952442    174.09339    46.923113     19.86598     20.70146           90           90           90 
  375500     255.3751   -10929.608   -9779.3977   -10929.608            0    6588.5539    46.709129    19.857169    20.727098            0            0            0    19224.612    7289.5068    6318.0354    6158.1196   -458.59138    834.58891   -16.869395    46.709129    19.857169    20.727098           90           90           90 
  376000    264.21399    -10938.54   -9748.5187    -10938.54            0    5990.9308    46.413385    20.087775    20.550903            0            0            0    19160.462    4515.3405    6476.6013    6980.8508   -156.69016   -474.13194    347.51708    46.413385    20.087775    20.550903           90           90           90 
  376500    260.13853   -10927.468   -9755.8033   -10927.468            0    6288.7778    46.354115    19.990741    20.707336            0            0            0    19188.517    5239.9781    6666.3428    6960.0125    -531.2811   -191.66667    1084.6516    46.354115    19.990741    20.707336           90           90           90 
  377000     257.4643   -11001.056    -9841.436   -11001.056            0    6301.9927    46.709097    19.941408    20.579732            0            0            0    19168.892     7044.906    5463.5531    6397.5191   -356.68417   -408.19819    443.50464    46.709097    19.941408    20.579732           90           90           90 
  377500    260.70388   -10957.949   -9783.7377   -10957.949            0     6106.586    46.694363    19.960991    20.679061            0            0            0    19274.245     6525.005    5707.6446    6087.1086   -228.98411    748.64039   -6.7011826    46.694363    19.960991    20.679061           90           90           90 
  378000    254.26016   -10912.204   -9767.0156   -10912.204            0     7213.086    46.615819    19.807055    20.754454            0            0            0    19163.046    7582.0441    6700.6861    7356.5277   -307.66257    27.435893    86.699844    46.615819    19.807055    20.754454           90           90           90 
  378500    255.60321   -10923.356   -9772.1186   -10923.356            0    6146.1406    46.442427    20.081292    20.592901            0            0            0    19205.433    6427.1759    5997.4414    6013.8044   -766.30527    463.15558   -130.69021    46.442427    20.081292    20.592901           90           90           90 
  379000    254.59138   -10947.127   -9800.4468   -10947.127            0    5623.9063    46.556795    19.949064    20.668369            0            0            0    19196.047    5181.6338    6108.5781    5581.5071    306.60194    -625.5033    289.86205    46.556795    19.949064    20.668369           90           90           90 
  379500    253.99327   -10973.992    -9830.005   -10973.992            0    4953.0119    47.069786    19.798439    20.688428            0            0            0    19279.717    3567.1459    5205.5803    6086.3096   -484.03434   -1337.1315   -207.25186    47.069786    19.798439    20.688428           90           90           90 
  380000     240.3323   -10994.002   -9911.5447   -10994.002            0    5688.0224     46.58392    19.983334    20.646072            0            0            0     19219.47    6155.7642    5310.0837    5598.2192    -191.9679   -6.4179839    135.93418     46.58392    19.983334    20.646072           90           90           90 
  380500    269.62623   -10919.529   -9705.1312   -10919.529            0    6645.3513    46.479612    20.026296     20.60313            0            0            0    19177.691    6852.9468     7407.304    5675.8032    206.89873    1046.4405   -1374.7739    46.479612    20.026296     20.60313           90           90           90 
  381000    260.49453   -10920.885   -9747.6168   -10920.885            0    6243.2094     46.26226    19.850653    20.867848            0            0            0    19163.698    7379.8213    6524.1214    4825.6855    135.98877   -319.20794    796.88235     46.26226    19.850653    20.867848           90           90           90 
  381500    269.39598     -10932.9   -9719.5392     -10932.9            0    5699.7444    46.998809    19.910475    20.637325            0            0            0     19311.76    3608.5219    7585.4008    5905.3105   -339.61601   -285.24876    793.56931    46.998809    19.910475    20.637325           90           90           90 
  382000     257.5698   -10947.858    -9787.763   -10947.858            0    5036.8593    46.705375    20.052352    20.512846            0            0            0    19211.359    6047.8175    3555.3927    5507.3677   -164.81874   -561.18009   -382.78892    46.705375    20.052352    20.512846           90           90           90 
  382500     265.3385   -10961.389   -9766.3035   -10961.389            0    6819.7967    46.397618     19.93247     20.70815            0            0            0    19151.294    7152.0216    6457.3028    6850.0657   -242.33003   -391.35898     463.4515    46.397618     19.93247     20.70815           90           90           90 
  383000    264.53492   -10953.476   -9762.0096   -10953.476            0      5198.95    46.959246    20.009223    20.552022            0            0            0     19311.05    4956.5059    5246.7884    5393.5558      -14.196    410.54814    329.30414    46.959246    20.009223    20.552022           90           90           90 
  383500    258.05594   -10930.474   -9768.1891   -10930.474            0    5804.0556    46.756447    20.062076    20.682706            0            0            0    19401.027    4317.2887    6957.9823    6136.8959    448.17397    258.28023    262.25533    46.756447    20.062076    20.682706           90           90           90 
  384000    257.00988   -10986.584   -9829.0106   -10986.584            0    6749.0228     46.28608    19.914763    20.785359            0            0            0    19159.452    8243.3238    5612.8806     6390.864   -11.649357   -225.88185   -812.22177     46.28608    19.914763    20.785359           90           90           90 
  384500    252.65796   -10979.482   -9841.5095   -10979.482            0     6173.954     46.99729    20.026784    20.426005            0            0            0    19225.049    5138.9587    6991.0088    6391.8944   -201.90347    446.52045    119.79233     46.99729    20.026784    20.426005           90           90           90 
  385000    260.26665   -10934.869   -9762.6272   -10934.869            0    5501.5203    46.665775    19.901418     20.70126            0            0            0    19225.572    5690.9133    4931.3499    5882.2976   -3.1460821   -34.051161    80.710637    46.665775    19.901418     20.70126           90           90           90 
  385500    262.65173   -10969.995   -9787.0107   -10969.995            0    5120.8655    46.443429    20.018156    20.742975            0            0            0    19284.989    5173.9045    4785.5253    5403.1667     286.9619    37.009161     15.59374    46.443429    20.018156    20.742975           90           90           90 
  386000    260.68492   -10955.501   -9781.3748   -10955.501            0     6252.957    46.698671    20.039317    20.554634            0            0            0    19235.221    6612.5741    5674.9423    6471.3545    495.70208   -452.33805     915.5978    46.698671    20.039317    20.554634           90           90           90 
  386500    254.56999   -10921.766    -9775.182   -10921.766            0    5455.8501    46.531707    20.032203    20.577081            0            0            0    19180.569    6013.5075     5164.732    5189.3108   -285.55857   -552.06957     597.2857    46.531707    20.032203    20.577081           90           90           90 
  387000    261.78865   -10942.924   -9763.8265   -10942.924            0    7530.0128    46.602573    19.788277    20.658077            0            0            0    19050.561    7179.6397    7698.5072    7711.8915   -54.208524    -514.7863    105.72774    46.602573    19.788277    20.658077           90           90           90 
  387500    252.59305   -10962.331   -9824.6508   -10962.331            0    5546.7166    46.528508     19.98782    20.690571            0            0            0    19242.303    4573.4572    6235.1594    5831.5332    139.77964    581.61436   -130.99437    46.528508     19.98782    20.690571           90           90           90 
  388000    255.72452   -10931.257   -9779.4728   -10931.257            0    5868.0953    46.817365    20.004625    20.531258            0            0            0    19228.834    6198.5309    5148.4551    6257.2999   -629.41503    -91.80611    124.52444    46.817365    20.004625    20.531258           90           90           90 
  388500    255.01592   -10960.063   -9811.4701   -10960.063            0    6430.4994    46.864575    19.783088    20.710615            0            0            0     19201.35    5374.8095    8310.5716     5606.117    41.333078   -640.69375   -660.67569    46.864575    19.783088    20.710615           90           90           90 
  389000      259.025     -10936.7   -9770.0501     -10936.7            0    5157.5158    46.764591    20.014488    20.643068            0            0            0    19321.279    5524.7872    4443.2399    5504.5202   -57.659258    -903.2273   -549.19881    46.764591    20.014488    20.643068           90           90           90 
  389500    256.75834   -10939.547   -9783.1068   -10939.547            0    6833.4114    46.409615     19.95771    20.671087            0            0            0    19146.174    8234.7439    6827.9903    5437.5001   -71.018443    1022.3588    402.67761    46.409615     19.95771    20.671087           90           90           90 
  390000       260.38   -10971.423   -9798.6703   -10971.423            0    5272.9774    46.976506    19.867319    20.612013            0            0            0    19237.134    6008.3738    4753.5624     5056.996   -91.497713   -259.27441    -465.5828    46.976506    19.867319    20.612013           90           90           90 
  390500    261.10645   -10937.932   -9761.9074   -10937.932            0    5736.9782    46.779929    19.928477    20.659016            0            0            0    19259.425    4349.8891     5964.921    6896.1246    107.53096   -845.22668    271.47355    46.779929    19.928477    20.659016           90           90           90 
  391000    259.90225   -10945.343   -9774.7419   -10945.343            0    5801.5801    46.395638    20.058836    20.718284            0            0            0    19281.316    6228.3547    5153.3313    6023.0544   -60.989604   -197.87138   -328.84546    46.395638    20.058836    20.718284           90           90           90 
  391500    260.83734   -10913.753   -9738.9401   -10913.753            0    6532.0707    46.736321    20.038726    20.455543            0            0            0    19157.359    7091.5813     4982.519    7522.1118   -492.74342    41.294746   -864.90206    46.736321    20.038726    20.455543           90           90           90 
  392000    250.08072    -10949.33   -9822.9656    -10949.33            0    4965.1385     46.27375    20.032294    20.754158            0            0            0    19238.468    6317.6377    4765.7677    3812.0102    19.817131    846.88561   -49.439246     46.27375    20.032294    20.754158           90           90           90 
  392500    253.91339   -10892.377   -9748.7501   -10892.377            0    5384.8035    46.704847    19.919625    20.667924            0            0            0    19228.259    4561.7832    6236.2842    5356.3431   -141.77893    78.532501   -891.87683    46.704847    19.919625    20.667924           90           90           90 
  393000    269.29998   -10928.852   -9715.9242   -10928.852            0    6733.2852    46.595173    20.067475    20.516172            0            0            0    19183.594    6852.6641    6517.3549    6829.8365   -30.656918    378.69976   -1069.1872    46.595173    20.067475    20.516172           90           90           90 
  393500     259.7755   -10979.041   -9809.0114   -10979.041            0    5669.8795    46.604814    19.878978     20.77258            0            0            0    19244.883    5386.6511    6067.3552    5555.6322    246.93546   -337.57149    346.22646    46.604814    19.878978     20.77258           90           90           90 
  394000    259.60819   -10980.016   -9810.7396   -10980.016            0    5941.0637    46.712491    19.890435    20.615616            0            0            0    19154.624    7373.6066    4972.0328    5477.5517    296.98609    899.56774    415.87725    46.712491    19.890435    20.615616           90           90           90 
  394500    260.03403   -10948.193   -9776.9982   -10948.193            0    6371.0279    47.023325    19.945979    20.503674            0            0            0    19230.934    6248.5729    6387.8608      6476.65   -287.84542   -655.65352   -93.412525    47.023325    19.945979    20.503674           90           90           90 
  395000    264.63186   -10966.856   -9774.9534   -10966.856            0    6306.9437    46.381228    19.922628    20.757451            0            0            0    19180.631    6871.2087    5898.9111    6150.7113   -562.79103    397.15326    115.40324    46.381228    19.922628    20.757451           90           90           90 
  395500    252.54185   -11015.998   -9878.5484   -11015.998            0    6317.0156    46.355356    20.121004    20.578308            0            0            0    19193.724    7621.3596    5292.5551    6037.1322   -549.48395    112.23508    908.55605    46.355356    20.121004    20.578308           90           90           90 
  396000    252.54596   -10955.762   -9818.2941   -10955.762            0    5104.7945    46.654377    20.083288    20.625428            0            0            0    19325.475    5316.0326    4429.1091    5569.2417   -295.61696    17.531997    843.33286    46.654377    20.083288    20.625428           90           90           90 
  396500     267.6348   -10912.058   -9706.6298   -10912.058            0    5369.2742    46.908061    19.841231    20.683339            0            0            0    19250.266    5645.8918    5263.0047    5198.9261    65.618955   -406.44798    409.59495    46.908061    19.841231    20.683339           90           90           90 
  397000    252.03864       -10975   -9839.8173       -10975            0    5770.7081    46.427495    20.038823    20.592603            0            0            0    19158.377    5956.8271    4839.3599    6515.9372   -224.95133   -117.77751   -227.70422    46.427495    20.038823    20.592603           90           90           90 
  397500    260.65023   -10957.473   -9783.5038   -10957.473            0    5849.5235    46.652053    20.046095    20.640839            0            0            0    19303.136    6070.9667    5534.4755    5943.1283    469.41654    53.458916    732.53843    46.652053    20.046095    20.640839           90           90           90 
  398000    267.89257   -10980.736   -9774.1466   -10980.736            0    6148.6254    46.488801    19.917526    20.748331            0            0            0    19211.749    7129.8569    6149.6777    5166.3418   -34.596844    243.98398     550.1885    46.488801    19.917526    20.748331           90           90           90 
  398500    265.29686   -10930.846   -9735.9479   -10930.846            0    5713.3728    46.663719    20.113939    20.526751            0            0            0    19266.228    5379.3843    5785.1109    5975.6232    396.35015   -269.88759    481.63918    46.663719    20.113939    20.526751           90           90           90 
  399000    256.80385   -10981.265    -9824.619   -10981.265            0    5858.7752    46.856831     19.78313    20.723967            0            0            0    19210.594    5966.2574    6229.1931     5380.875    352.78524    262.10539    680.09897    46.856831     19.78313    20.723967           90           90           90 
  399500    257.48275    -10974.36   -9814.6562    -10974.36            0    6270.8151    46.255654    20.012337    20.598408            0            0            0    19067.612    4788.5069    7012.3619    7011.5765   -12.607429    166.09461   -386.11534    46.255654    20.012337    20.598408           90           90           90 
  400000    258.74346   -10965.492   -9800.1104   -10965.492            0    6553.1915    46.708848    20.009646    20.530883            0            0            0    19188.729     7666.644    4807.5723    7185.3582    -301.7631    1192.0631   -624.47609    46.708848    20.009646    20.530883           90           90           90 
  400500    262.51139   -10941.327    -9758.975   -10941.327            0    5663.1345    46.599257    19.956393     20.56258            0            0            0    19122.235    5370.3326    6095.9483    5523.1226   -105.65511    152.51318   -103.08645    46.599257    19.956393     20.56258           90           90           90 
  401000    268.86253   -10940.264   -9729.3065   -10940.264            0    5063.7606    46.619404     19.96602    20.828368            0            0            0    19387.127    4610.6282    5961.0963    4619.5573    74.308192     872.7438    400.13018    46.619404     19.96602    20.828368           90           90           90 
  401500    271.59418   -10941.151   -9717.8899   -10941.151            0     6804.871     46.50107    19.994034    20.524465            0            0            0    19082.498    6503.0227    7621.5368    6290.0537     206.6597    -706.6205   -280.20312     46.50107    19.994034    20.524465           90           90           90 
  402000    265.84045   -10971.389   -9774.0423   -10971.389            0    4660.2937    46.472335    20.096552    20.709365            0            0            0    19341.174    3899.3076     4539.853    5541.7205   -251.90631    650.97686     1082.768    46.472335    20.096552    20.709365           90           90           90 
  402500    254.76119   -10916.091   -9768.6457   -10916.091            0    4874.4931    46.316081    20.010054      20.7941            0            0            0    19271.708     6230.712    4620.8439    3771.9233   -597.33746    440.14526    -879.7146    46.316081    20.010054      20.7941           90           90           90 
  403000    259.87976   -10958.054   -9787.5545   -10958.054            0    6748.2471    46.672324     20.01038     20.48192            0            0            0    19128.699    6856.0027    5719.1688    7669.5698   -353.34217   -299.17429    -67.29558    46.672324     20.01038     20.48192           90           90           90 
  403500    252.27401    -10941.46   -9805.2167    -10941.46            0    5760.4615    46.831753    19.929707    20.651431            0            0            0    19274.871    4979.6938    6591.9996     5709.691    -658.0114    500.65355   -781.22191    46.831753    19.929707    20.651431           90           90           90 
  404000    250.93141   -10970.612   -9840.4163   -10970.612            0    5704.3936    46.530622     19.98338    20.722714            0            0            0     19268.79     6280.522    5411.2433    5421.4156   -53.919677    103.23233   -434.96701    46.530622     19.98338    20.722714           90           90           90 
  404500    259.70665   -10966.524   -9796.8038   -10966.524            0    5814.8536    46.729258    19.957706    20.573802            0            0            0    19187.308    5516.0737    5812.7175    6115.7695    118.41904    483.09683    526.91534    46.729258    19.957706    20.573802           90           90           90 
  405000    255.93114   -10977.925   -9825.2099   -10977.925            0    5497.8037    46.439982    20.009534    20.767285            0            0            0    19297.842    5572.6906    4722.7203    6198.0003   -338.57903    -792.4386    -486.5492    46.439982    20.009534    20.767285           90           90           90 
  405500    258.68154   -10897.385   -9732.2821   -10897.385            0    6155.2024    46.397321     20.03706    20.633185            0            0            0    19181.969    5973.5843    6395.6392    6096.3836   -60.816158    421.92865   -179.74348    46.397321     20.03706    20.633185           90           90           90 
  406000    261.38661   -10931.437    -9754.151   -10931.437            0    7523.6612    46.827753    19.875214     20.57853            0            0            0    19152.677    7648.5812    7119.9242    7802.4782   -199.47568   -31.609565    720.33101    46.827753    19.875214     20.57853           90           90           90 
  406500    256.15518   -10943.654   -9789.9301   -10943.654            0    6726.3679    46.530022    20.004069    20.618203            0            0            0    19191.213    6846.5234    7014.4029    6318.1772    218.75668   -266.77015    218.17248    46.530022    20.004069    20.618203           90           90           90 
  407000    255.90189   -10930.124    -9777.541   -10930.124            0    6165.5904    46.632043    19.908968     20.64333            0            0            0    19165.182    5602.4478    7000.0301    5894.2933   -294.41624   -455.95278     427.4695    46.632043    19.908968     20.64333           90           90           90 
  407500    262.55248   -10986.301   -9803.7636   -10986.301            0    5162.3274    46.490457    20.055846    20.642233            0            0            0     19246.93    5949.2997    4026.6763    5511.0063     567.7945   -235.39548    679.61661    46.490457    20.055846    20.642233           90           90           90 
  408000    259.32188   -10950.321    -9782.334   -10950.321            0    5953.5707     46.62679    20.057107    20.604341            0            0            0    19269.149    6375.7308    5673.1408    5811.8406    112.62202    509.55698    470.51953     46.62679    20.057107    20.604341           90           90           90 
  408500    265.53463   -10954.157   -9758.1879   -10954.157            0      6802.81    46.527426     19.86815    20.697564            0            0            0    19133.116    7246.1436    7240.9723    5921.3141   -228.01392   -37.002405   -155.83083    46.527426     19.86815    20.697564           90           90           90 
  409000    257.23326   -10915.309   -9756.7294   -10915.309            0    5845.4921    46.887862    19.949722    20.491045            0            0            0     19167.32    5216.9139    5608.4087    6711.1537    185.57984   -787.19108    314.81253    46.887862    19.949722    20.491045           90           90           90 
  409500    252.19049    -10966.19   -9830.3227    -10966.19            0    4800.7398    46.333081    20.041531    20.858534            0            0            0     19368.94    5936.8091    3634.3184    4831.0917     272.4907    464.08476    120.90862    46.333081    20.041531    20.858534           90           90           90 
  410000    253.24574   -10967.496   -9826.8759   -10967.496            0    5362.4394    46.535435    20.037029    20.623949            0            0            0    19230.427    5044.5447    5639.7743    5402.9993    439.84819   -649.37278   -27.414374    46.535435    20.037029    20.623949           90           90           90 
  410500    259.31706   -10914.967   -9747.0023   -10914.967            0      6502.27    46.701429    20.022579    20.557054            0            0            0    19222.553    7104.9031    6317.3043    6084.6027    -213.8013   -775.78736    41.314244    46.701429    20.022579    20.557054           90           90           90 
  411000    258.73467   -10864.932   -9699.5897   -10864.932            0    5690.3603    46.674849    19.950812    20.758248            0            0            0    19330.103    6204.0376    5480.1899    5386.8533     353.5541    253.06572    50.656775    46.674849    19.950812    20.758248           90           90           90 
  411500     247.8172   -10958.447   -9842.2768   -10958.447            0     5791.997    46.731626    19.967992    20.559746            0            0            0    19185.055    6307.9322     4691.486    6376.5728    180.96212   -325.46458   -519.37764    46.731626    19.967992    20.559746           90           90           90 
  412000    257.77485    -10942.51   -9781.4907    -10942.51            0    5541.9954    46.600676    20.040335    20.644422            0            0            0    19279.685    4945.8801    5582.4466    6097.6596   -166.14954   -398.30955    155.72338    46.600676    20.040335    20.644422           90           90           90 
  412500    262.07996   -10946.021   -9765.6119   -10946.021            0    5353.5309    46.365921     19.98132    20.757034            0            0            0    19230.402     7306.938    3841.1057    4912.5489    -170.9316   -281.01459    261.83465    46.365921     19.98132    20.757034           90           90           90 
  413000    260.40112   -10983.623   -9810.7754   -10983.623            0    5227.2717     46.86374    20.018246    20.555306            0            0            0    19283.547    6155.0281    4162.6655    5364.1215   -92.684662    593.37523    461.02035     46.86374    20.018246    20.555306           90           90           90 
  413500    257.78727   -10922.633   -9761.5579   -10922.633            0    4953.8166    46.776376    20.037394    20.613193            0            0            0    19320.266    4126.5554    5314.2181    5420.6762    98.204222   -118.00812    184.40277    46.776376    20.037394    20.613193           90           90           90 
  414000    257.03517   -10952.398   -9794.7102   -10952.398            0    5708.3954    46.560501    19.832139    20.843506            0            0            0    19246.776     5549.473    6405.4465    5170.2667    564.88735    152.77938    697.83862    46.560501    19.832139    20.843506           90           90           90 
  414500    255.94791   -10984.882   -9832.0916   -10984.882            0    4895.7145     46.49042    20.166406    20.548363            0            0            0    19265.008    6132.7594     3258.626    5295.7581   -498.90896    1338.0663   -178.50112     46.49042    20.166406    20.548363           90           90           90 
  415000    250.92186   -10921.104   -9790.9515   -10921.104            0    7145.0374    46.434513     19.97595    20.587507            0            0            0    19096.426    7538.3427    6671.3975    7225.3718    107.41082    890.87052    290.20641    46.434513     19.97595    20.587507           90           90           90 
  415500    251.38436   -10923.816   -9791.5798   -10923.816            0    6124.7645    46.747804    19.803967    20.687242            0            0            0    19152.083    5415.0279    7396.9948    5562.2707     32.79028    334.57923   -489.58607    46.747804    19.803967    20.687242           90           90           90 
  416000    255.08662   -10960.573   -9811.6619   -10960.573            0     5223.904    46.575758    20.128524    20.655187            0            0            0    19364.263    6113.5598    4167.9064    5390.2458   -193.06105     273.7868    517.12082    46.575758    20.128524    20.655187           90           90           90 
  416500     257.2014   -10952.916   -9794.4803   -10952.916            0    5388.1483    46.409929    20.122146    20.545047            0            0            0    19186.348    5894.0816    4598.0157    5672.3476   -25.893269    550.66344   -364.12536    46.409929    20.122146    20.545047           90           90           90 
  417000    251.66224   -10921.065   -9787.5773   -10921.065            0    5514.4392    46.669486    19.897063    20.703458            0            0            0    19224.936    5985.9332    5651.3502    4906.0342   -579.40817   -358.73684    -66.69777    46.669486    19.897063    20.703458           90           90           90 
  417500    255.60862   -10940.485   -9789.2232   -10940.485            0    6497.3514    46.873474    19.914358    20.582743            0            0            0    19213.067    6726.8152     6506.053    6259.1861   -374.06384    703.49356    -383.4564    46.873474    19.914358    20.582743           90           90           90 
  418000    260.94471   -10991.373   -9816.0768   -10991.373            0    3750.7159    46.737532       20.059    20.684984            0            0            0    19392.341    3504.0268    3925.7031    3822.4178   -641.89159   -325.63355    338.96241    46.737532       20.059    20.684984           90           90           90 
  418500    265.49842   -10973.759   -9777.9528   -10973.759            0    5037.8209    46.587116    20.017055    20.620402            0            0            0    19229.285    5760.3242    3570.7317    5782.4068    67.092965    71.789243    387.10867    46.587116    20.017055    20.620402           90           90           90 
  419000    255.17019   -10925.349   -9776.0613   -10925.349            0    5853.9905    46.743922    19.929541    20.702413            0            0            0    19286.056     5855.701    5248.3167    6457.9539    148.50973    491.93032    108.00352    46.743922    19.929541    20.702413           90           90           90 
  419500    266.05136     -10956.3    -9758.004     -10956.3            0    6651.4361    46.588549    19.987885    20.596981            0            0            0    19180.044    7794.8481    5688.2324    6471.2278   -430.34891    398.84549   -362.47721    46.588549    19.987885    20.596981           90           90           90 
  420000    253.01642   -10944.561   -9804.9744   -10944.561            0    6371.5432    46.507087    19.993038    20.652356            0            0            0    19202.931    6669.7637    6636.3839    5808.4821    -8.847192    759.64184   -49.719385    46.507087    19.993038    20.652356           90           90           90 
  420500    271.50186   -10931.328   -9708.4828   -10931.328            0    5789.5191    46.443065    20.054572    20.728426            0            0            0    19306.368    6323.2484    5788.1777    5257.1313   -306.76479   -799.25496   -336.83092    46.443065    20.054572    20.728426           90           90           90 
  421000    259.40397   -10954.504   -9786.1471   -10954.504            0    7796.8442     46.72756    20.007967    20.580433            0            0            0     19241.13    7451.1461    7729.6608    8209.7257   -897.55711    413.85843    193.02398     46.72756    20.007967    20.580433           90           90           90 
  421500    275.32833   -10958.038   -9717.9579   -10958.038            0    6722.0676    46.632558    19.851266    20.727581            0            0            0     19187.84    6732.9928    6679.6344    6753.5757   -370.86135   -1006.4435   -19.326492    46.632558    19.851266    20.727581           90           90           90 
  422000    264.74263   -10920.072   -9727.6704   -10920.072            0     6068.056    46.735749    20.013195     20.53034            0            0            0    19202.677    6031.6647    5847.7168    6324.7866   -268.48814    1157.3404    1015.4841    46.735749    20.013195     20.53034           90           90           90 
  422500    257.46009   -10916.385   -9756.7837   -10916.385            0    6132.8323    46.178401    20.133796    20.597902            0            0            0    19150.827    7723.9681    4620.4668    6054.0618   -87.700338   -399.26404    447.77384    46.178401    20.133796    20.597902           90           90           90 
  423000    261.97209   -10964.758   -9784.8347   -10964.758            0    5301.2717    46.517594    19.984354    20.704526            0            0            0    19247.426    6948.0266    3563.6675    5392.1208   -814.04942    1364.5979    536.73998    46.517594    19.984354    20.704526           90           90           90 
  423500    254.04094   -10968.875   -9824.6733   -10968.875            0    6764.0865    46.539455    20.054731    20.514583            0            0            0    19147.004    7277.4208    6257.5131    6757.3256   -30.714454    762.56696   -842.74398    46.539455    20.054731    20.514583           90           90           90 
  424000    250.79014   -10953.715   -9824.1554   -10953.715            0    5387.1658     46.56826    19.939601    20.699549            0            0            0    19220.618    4935.0822     5764.207    5462.2081   -82.597985   -378.32623    209.75528     46.56826    19.939601    20.699549           90           90           90 
  424500    261.09585   -10919.502    -9743.525   -10919.502            0    5264.3814    46.551188    19.876551    20.785599            0            0            0    19232.437    5434.1334    5697.8067     4661.204   -910.68385    804.73738     482.8073    46.551188    19.876551    20.785599           90           90           90 
  425000    265.57254    -10922.28     -9726.14    -10922.28            0    5297.3844    46.799691    20.120967    20.403206            0            0            0    19212.781    5139.5264    5179.5781    5573.0487   -244.03324    341.57638   -309.77755    46.799691    20.120967    20.403206           90           90           90 
  425500    262.03849   -10915.106   -9734.8831   -10915.106            0    6354.4057     46.44353    19.899507    20.817489            0            0            0    19239.593    5368.9763    7377.8896    6316.3512    185.87394   -970.15532    384.31435     46.44353    19.899507    20.817489           90           90           90 
  426000    259.12286   -10927.015   -9759.9244   -10927.015            0    6163.4716    46.818273    19.996882    20.528603            0            0            0    19219.278    6261.1339    6297.9916    5931.2893   -317.11125    65.379001   -52.093092    46.818273    19.996882    20.528603           90           90           90 
  426500    263.18206   -10954.152   -9768.7791   -10954.152            0    7131.7319     46.39457    20.010184    20.659644            0            0            0    19179.667    8571.8319    5825.3499    6998.0141   -37.785127   -721.37426   -188.52817     46.39457    20.010184    20.659644           90           90           90 
  427000     259.5141   -10976.892   -9808.0399   -10976.892            0    6585.7803    46.550979    19.963993    20.626218            0            0            0     19168.84     6464.301    6781.5268    6511.5131   -97.512745    161.91244   -16.833198    46.550979    19.963993    20.626218           90           90           90 
  427500    260.56032   -10917.301   -9743.7367   -10917.301            0     6277.401    46.685583    19.922845    20.595813            0            0            0    19156.364    5034.1839    8025.3134    5772.7059    353.66378   -398.71094    475.64791    46.685583    19.922845    20.595813           90           90           90 
  428000    260.34658   -10971.768   -9799.1664   -10971.768            0    5529.3243    46.702266    19.883206    20.774847            0            0            0    19291.332    5431.1534    5499.7364    5657.0832    371.95326     10.27338    150.06238    46.702266    19.883206    20.774847           90           90           90 
  428500    267.20355   -10956.135   -9752.6488   -10956.135            0    6646.7621    46.723028    20.012632    20.515915            0            0            0    19183.422    7206.9088     5523.207    7210.1706   -335.04839   -155.26179    -681.7721    46.723028    20.012632    20.515915           90           90           90 
  429000    267.97535   -10937.435   -9730.4725   -10937.435            0    6512.6785    46.490635    19.950767     20.71984            0            0            0    19218.145    7117.5261    6485.3421    5935.1673   -502.27696    120.52813   -92.843242    46.490635    19.950767     20.71984           90           90           90 
  429500    262.42907   -10908.047   -9726.0652   -10908.047            0    4550.8209    46.657404    19.960434    20.741575            0            0            0    19316.671    4529.2474    4459.6675    4663.5479    411.29921   -382.24052    5.8438227    46.657404    19.960434    20.741575           90           90           90 
  430000    254.27603   -10934.031   -9788.7712   -10934.031            0    7552.6009    46.730368      19.9006       20.372            0            0            0    18945.193    6557.2179    8538.1675    7562.4174   -215.15821    -650.6069    49.209967    46.730368      19.9006       20.372           90           90           90 
  430500    257.25865   -10931.307   -9772.6133   -10931.307            0    4811.9154    46.863456    19.944637     20.70887            0            0            0    19356.055    5051.1767    4930.3513    4454.2184    414.85894   -532.08512    188.31181    46.863456    19.944637     20.70887           90           90           90 
  431000    256.58645   -10986.962    -9831.296   -10986.962            0     4753.409    46.578449    20.022093    20.682997            0            0            0    19288.923    4972.0783    4318.4042    4969.7445   -610.97123    166.50636   -182.00526    46.578449    20.022093    20.682997           90           90           90 
  431500    264.68006   -10958.717   -9766.5973   -10958.717            0    5483.7297    46.572557    20.058373    20.539327            0            0            0    19187.218    5832.9057    4989.6778    5628.6054   -392.29451    1081.8448    240.13247    46.572557    20.058373    20.539327           90           90           90 
  432000    264.34928   -10958.229    -9767.599   -10958.229            0    5192.2324    46.553596    19.954223    20.788359            0            0            0    19311.156     5968.356    5052.9761    4555.3652   -109.56254   -426.75581    5.0909023    46.553596    19.954223    20.788359           90           90           90 
  432500     257.1487   -10946.939   -9788.7398   -10946.939            0     5349.242    46.837055    19.973957    20.637866            0            0            0    19307.163    5221.6831    5561.1915    5264.8515   -122.79319    166.72878   -75.578681    46.837055    19.973957    20.637866           90           90           90 
  433000     261.1221   -10944.834   -9768.7392   -10944.834            0    5936.3412    46.846314    19.888861    20.613153            0            0            0    19205.684    6023.3995    6805.2985    4980.3255   -103.54197    305.50257    136.64581    46.846314    19.888861    20.613153           90           90           90 
  433500    249.47936   -10915.901   -9792.2454   -10915.901            0    5047.9157    46.545874    19.983903    20.715565            0            0            0    19268.961    5544.3509      5170.53    4428.8661    209.91863   -522.94998   -56.191376    46.545874    19.983903    20.715565           90           90           90 
  434000    267.06359   -10967.033   -9764.1779   -10967.033            0    5937.4626    46.401243    20.014242    20.603206            0            0            0    19133.903    6075.6821    5596.7723    6139.9335   -486.15219   -738.46191    911.22486    46.401243    20.014242    20.603206           90           90           90 
  434500    259.28523   -10901.744   -9733.9227   -10901.744            0    5205.1115    46.627424    20.037137    20.627032            0            0            0    19271.425    6638.0359    4391.7219    4585.5766    66.143228    242.92186    -6.886105    46.627424    20.037137    20.627032           90           90           90 
  435000    249.17171   -10981.257   -9858.9871   -10981.257            0    5203.8568    46.629601    19.922194     20.80312            0            0            0    19325.349    6583.7266    5101.2976    3926.5462   -252.97021     133.8421   -756.97703    46.629601    19.922194     20.80312           90           90           90 
  435500    263.89946   -11019.853   -9831.2487   -11019.853            0     7123.053    46.441381    20.071065    20.533226            0            0            0    19139.594    6631.3677    8125.9489    6611.8425    341.85613   -691.26479    768.34836    46.441381    20.071065    20.533226           90           90           90 
  436000    254.49328   -10896.795   -9750.5561   -10896.795            0    6148.3333    46.798383    19.952543    20.623363            0            0            0    19256.998     5869.596    6510.8049    6064.5988   -391.64563   -205.53376   -231.27216    46.798383    19.952543    20.623363           90           90           90 
  436500    257.82087   -10994.264   -9833.0375   -10994.264            0    5687.5067    46.444268    19.943797    20.774341            0            0            0    19242.754     5868.374    5477.4376    5716.7085   -331.66237    -14.26123    128.95985    46.444268    19.943797    20.774341           90           90           90 
  437000    256.33775    -10934.46   -9779.9135    -10934.46            0    6060.2232    46.697528    20.077233    20.386947            0            0            0    19113.927    6029.7489    5563.5526     6587.368   -134.53713      330.551   -466.88276    46.697528    20.077233    20.386947           90           90           90 
  437500     271.1015   -10950.992   -9729.9501   -10950.992            0     6017.924     46.43798     19.97486    20.723633            0            0            0     19223.08    6422.6936    5985.0844     5645.994   -224.36354    1090.8281    1039.7547     46.43798     19.97486    20.723633           90           90           90 
  438000    255.38627   -10944.772   -9794.5111   -10944.772            0    6704.5276    46.680367    19.956925    20.684457            0            0            0    19269.569    6605.4776    7050.5031    6457.6021   -765.94727    45.866721   -860.42382    46.680367    19.956925    20.684457           90           90           90 
  438500    267.60625   -10973.833   -9768.5338   -10973.833            0    6375.0022    46.847671    19.836529    20.562868            0            0            0    19108.974    6240.0705    6200.6636    6684.2725    223.54688   -1539.2051   -245.56197    46.847671    19.836529    20.562868           90           90           90 
  439000    263.04188   -10919.226   -9734.4839   -10919.226            0     6042.802     46.30154    19.999298    20.718455            0            0            0    19185.254    6723.1242    5916.5236    5488.7581   -130.30756    -396.4501    1101.2997     46.30154    19.999298    20.718455           90           90           90 
  439500    258.36541   -10903.586   -9739.9067   -10903.586            0    6554.1695     46.65183    20.040171    20.580098            0            0            0    19240.552     6426.119    6421.5119    6814.8777   -542.76897   -58.970032     452.7547     46.65183    20.040171    20.580098           90           90           90 
  440000    253.76653   -10958.996   -9816.0308   -10958.996            0    8654.8891    46.285602    19.871247    20.519161            0            0            0    18872.552    8937.8996    9141.5857    7885.1818   -171.10544   -1476.4271    795.76393    46.285602    19.871247    20.519161           90           90           90 
  440500    252.85393   -10937.944   -9799.0884   -10937.944            0    5531.1546    46.607581    19.960195    20.668393            0            0            0    19227.731    5266.5196    5634.0768    5692.8673   -519.90796   -710.13437    103.15505    46.607581    19.960195    20.668393           90           90           90 
  441000    249.32878   -10998.803   -9875.8253   -10998.803            0    5890.7075    46.313823    20.054887    20.615928            0            0            0    19148.455    5977.0712    5644.6855    6050.3658   -448.09699   -59.449716   -281.09717    46.313823    20.054887    20.615928           90           90           90 
  441500    258.65167   -10924.719   -9759.7506   -10924.719            0    5711.0015    46.697362    20.030004    20.547617            0            0            0     19219.18     5751.736    5404.5259    5976.7427    139.59266    532.69965   -966.64141    46.697362    20.030004    20.547617           90           90           90 
  442000      265.489   -10990.963   -9795.1999   -10990.963            0      4212.99    46.716411    19.870341    20.782415            0            0            0    19291.713    3969.0485    4612.9227    4056.9989    413.99032     644.0256    203.31011    46.716411    19.870341    20.782415           90           90           90 
  442500    262.03978    -10935.06   -9754.8319    -10935.06            0    5651.3199     46.73947    19.912932    20.649476            0            0            0    19218.879    5110.4039    6191.4512    5652.1046   -378.83799   -61.994243    893.00918     46.73947    19.912932    20.649476           90           90           90 
  443000    255.76585   -10941.837   -9789.8669   -10941.837            0    5764.2847    46.386831    20.158649    20.585564            0            0            0    19249.475    6869.4701     5032.599     5390.785    46.354687    767.28118   -771.68028    46.386831    20.158649    20.585564           90           90           90 
  443500    259.35729   -10940.434   -9772.2881   -10940.434            0    5282.9326    46.699606      19.9771    20.644492            0            0            0    19259.715    5514.6983    5276.6338    5057.4657   -26.700339   -953.21046  -0.43846089    46.699606      19.9771    20.644492           90           90           90 
  444000    251.18492   -10909.571   -9778.2328   -10909.571            0    5173.7861    46.228605    20.082267    20.760877            0            0            0    19273.883    6052.3628    4164.2032    5304.7922     460.2561    96.844495    169.90456    46.228605    20.082267    20.760877           90           90           90 
  444500    251.97198   -10973.932   -9839.0496   -10973.932            0    6102.2289    46.832426    20.061585     20.47639            0            0            0    19238.239    6438.8337    5928.6377    5939.2152   -347.72538    5.1584171   -148.40692    46.832426    20.061585     20.47639           90           90           90 
  445000    265.27119    -10955.08   -9760.2976    -10955.08            0     5737.559    46.642701    19.948694      20.6951            0            0            0    19255.983    5736.1444    5914.7951    5561.7374    -131.0923   -167.27861   -314.47277    46.642701    19.948694      20.6951           90           90           90 
  445500    263.15131   -10945.382   -9760.1477   -10945.382            0    5787.8017    46.664935    19.923117    20.703301            0            0            0    19248.086    5080.2538     7091.965    5191.1865   -75.060977   -16.424341   -118.00664    46.664935    19.923117    20.703301           90           90           90 
  446000    261.42728   -10934.709   -9757.2394   -10934.709            0    5815.5833    46.713612    20.134506    20.469281            0            0            0    19252.494    5144.2239    5180.7036    7121.8224   -405.12595    -321.6891    31.016813    46.713612    20.134506    20.469281           90           90           90 
  446500    262.08864    -10984.27    -9803.822    -10984.27            0    6336.6819    46.593238     19.93143    20.670897            0            0            0    19196.439    6092.5075    6644.5855    6272.9525   -233.51792   -111.30107   -92.187923    46.593238     19.93143    20.670897           90           90           90 
  447000    267.80328   -10936.604   -9730.4171   -10936.604            0     7687.779    46.604671    19.902022    20.527921            0            0            0    19040.205     7663.957    7940.0777    7459.3022    53.592559   -172.09677   -341.36691    46.604671    19.902022    20.527921           90           90           90 
  447500    251.55734   -10923.452   -9790.4365   -10923.452            0     6298.676     46.57794    20.051015    20.632608            0            0            0    19269.513    5997.9726    6786.2901    6111.7654   -138.51563   -391.81413   -254.23963     46.57794    20.051015    20.632608           90           90           90 
  448000    271.55034   -11004.004   -9780.9406   -11004.004            0    7179.5191    46.535714     19.96102    20.581861            0            0            0    19118.498    6667.4089    7685.7318    7185.4165    73.601851   -457.03153    284.68324    46.535714     19.96102    20.581861           90           90           90 
  448500    259.49877   -10969.932   -9801.1489   -10969.932            0    6639.2724    46.528227    19.856691    20.721903            0            0            0    19144.896    4398.7207    9016.7345    6502.3621    368.84332    1096.0959   -748.02194    46.528227    19.856691    20.721903           90           90           90 
  449000    257.00527   -10974.181   -9816.6281   -10974.181            0    5167.4593    46.857817    20.042344    20.516916            0            0            0    19268.267    5046.0629    4510.4192    5945.8957   -242.83979   -14.227727   -66.558703    46.857817    20.042344    20.516916           90           90           90 
  449500    259.99004    -10979.02   -9808.0234    -10979.02            0    4857.5758    46.504741    20.084829    20.714996            0            0            0     19348.63    5324.7223    4808.2356    4439.7695    -322.5032   -598.32356    76.627937    46.504741    20.084829    20.714996           90           90           90 
  450000    257.28864   -10925.118   -9766.2885   -10925.118            0    5824.7573    46.453383    20.021684    20.619499            0            0            0    19177.679    5861.9448    6103.6752    5508.6519   0.23627385    1.6200453    642.90713    46.453383    20.021684    20.619499           90           90           90 
  450500     257.2932   -10924.746   -9765.8966   -10924.746            0    4897.9396    46.999641    19.893564    20.615924            0            0            0    19275.691    5372.9084    4552.9921    4767.9182   -130.30249    562.36255    -1498.723    46.999641    19.893564    20.615924           90           90           90 
  451000    252.81566   -11013.346   -9874.6628   -11013.346            0    5628.4119    46.234662    19.953916    20.761801            0            0            0     19154.06    5914.5639    5680.8713    5289.8004   -413.50512   -300.53978    426.81554    46.234662    19.953916    20.761801           90           90           90 
  451500    256.27018   -10963.415   -9809.1726   -10963.415            0     5829.746    46.750551    20.022241    20.449236            0            0            0    19141.524    5042.3787    5768.5001    6678.3594   -35.077726   -172.05719    541.10964    46.750551    20.022241    20.449236           90           90           90 
  452000    266.30128   -10957.657   -9758.2347   -10957.657            0    5750.3738    46.369886    20.040272    20.673963            0            0            0    19211.592    6427.6051    4616.7095    6206.8069    -323.0137    339.61328   -749.32676    46.369886    20.040272    20.673963           90           90           90 
  452500    260.61561   -10980.505   -9806.6914   -10980.505            0     5478.621    46.675544    19.879681    20.670915            0            0            0    19180.437    5875.9245    5897.5926     4662.346    335.29184   -215.63539    1485.9071    46.675544    19.879681    20.670915           90           90           90 
  453000    253.73598   -10963.382   -9820.5538   -10963.382            0    6286.8613    46.819908    19.904766     20.50989            0            0            0    19113.973    5314.3433    6931.4665    6614.7742    147.81085    651.84632   -128.69657    46.819908    19.904766     20.50989           90           90           90 
  453500    269.03719   -10911.181   -9699.4361   -10911.181            0    5250.4407    46.478048    19.991763    20.791238            0            0            0    19318.763    5785.6519    5599.1231    4366.5471   -432.00999    178.78451    806.88185    46.478048    19.991763    20.791238           90           90           90 
  454000    258.93221   -10912.355   -9746.1236   -10912.355            0    6303.0851    46.771683     20.00079    20.518504            0            0            0    19194.457    6482.2734     5526.328    6900.6538    130.60883    238.97197    1627.9548    46.771683     20.00079    20.518504           90           90           90 
  454500    269.14845   -10927.247   -9715.0009   -10927.247            0    6553.2725    46.578218     19.96615    20.652908            0            0            0     19206.95    6919.0868     5243.008    7497.7227    90.295791    -625.8893     756.9586    46.578218     19.96615    20.652908           90           90           90 
  455000    265.25657   -10946.595    -9751.878   -10946.595            0    5898.2114    46.886571     19.83035    20.741009            0            0            0    19284.515    5057.2861    6550.9046    6086.4435   -362.37398   -169.01342   -860.78371    46.886571     19.83035    20.741009           90           90           90 
  455500    256.30579   -10970.328   -9815.9254   -10970.328            0    5314.9384    46.908189    20.028376     20.49655            0            0            0    19256.404    5186.7061     5518.122    5239.9871    27.271317    241.59019    -391.5915    46.908189    20.028376     20.49655           90           90           90 
  456000     268.9065   -10940.463   -9729.3073   -10940.463            0    6265.1895    46.387401     20.03295    20.704766            0            0            0    19240.452    7315.1779    5034.3344    6446.0563   -227.95614     -305.852      317.434    46.387401     20.03295    20.704766           90           90           90 
  456500     248.6885    -10937.77   -9817.6762    -10937.77            0    6368.6563      46.5036    19.934417    20.699145            0            0            0    19188.566    7027.9768    7046.0402    5031.9519   -148.60585   -350.75631    636.70426      46.5036    19.934417    20.699145           90           90           90 
  457000    258.51374    -10973.29   -9808.9432    -10973.29            0    5321.8182     46.90463    20.082863    20.527266            0            0            0    19336.259    5274.3008    4828.6876    5862.4662    317.84399    54.157358    574.97209     46.90463    20.082863    20.527266           90           90           90 
  457500    261.40632   -10932.106   -9754.7309   -10932.106            0     5592.714    46.514575    19.889681    20.779954            0            0            0    19224.783    6148.8973    5607.6821    5021.5625    83.838784     41.27752   -228.94653    46.514575    19.889681    20.779954           90           90           90 
  458000    258.31109   -10966.698   -9803.2634   -10966.698            0    5828.8657    46.616669    19.947865    20.690927            0            0            0    19240.555     6000.151     6161.845     5324.601    550.95799    1457.2801    36.166653    46.616669    19.947865    20.690927           90           90           90 
  458500    262.83331   -10959.367   -9775.5652   -10959.367            0    6472.3596    46.617452     20.03192    20.518538            0            0            0    19160.971    5582.2918    6068.1466    7766.6404   -174.59322   -762.84873    303.63066    46.617452     20.03192    20.518538           90           90           90 
  459000    256.69947   -10975.146   -9818.9704   -10975.146            0    5734.9682    46.641411    20.030074    20.647545            0            0            0    19289.575    4057.4112    6845.2269    6302.2666   -375.84652   -104.62715    453.67902    46.641411    20.030074    20.647545           90           90           90 
  459500    262.08005   -10996.474   -9816.0641   -10996.474            0    7255.1484    46.640283    19.888598    20.552411            0            0            0    19064.619    7530.9604    6098.7348    8135.7501    68.967971   -182.19386   -662.19294    46.640283    19.888598    20.552411           90           90           90 
  460000    264.42924    -10905.16   -9714.1692    -10905.16            0    5683.5168    46.296524    19.998958    20.741743            0            0            0    19204.411    6934.3304    5092.7112    5023.5088    275.36564   -4.5243025   -86.788855    46.296524    19.998958    20.741743           90           90           90 
  460500    261.34648   -10917.435   -9740.3298   -10917.435            0    6075.0832    46.732038    20.097877    20.487068            0            0            0    19241.757    6010.6491    5819.8475    6394.7529   -133.99515    157.29241     126.2606    46.732038    20.097877    20.487068           90           90           90 
  461000    264.10406   -10938.409   -9748.8837   -10938.409            0    5795.8932    46.801261    19.964147    20.665722            0            0            0    19308.961    5201.2361    6094.0185     6092.425   -376.95714    373.04361    391.19118    46.801261    19.964147    20.665722           90           90           90 
  461500    261.65079   -10994.958   -9816.4819   -10994.958            0    6246.1955    46.570575    19.864904    20.702608            0            0            0    19152.396    7015.2627    5483.3809    6239.9429   -426.88531    113.91785    661.61116    46.570575    19.864904    20.702608           90           90           90 
  462000    258.18379   -10919.841     -9756.98   -10919.841            0    5955.3323    46.733294    19.990845     20.58602            0            0            0    19232.243    5071.7776    6967.2695    5826.9498    -181.9537   -630.36661   -71.629613    46.733294    19.990845     20.58602           90           90           90 
  462500    267.98179   -10917.074   -9710.0827   -10917.074            0    5761.9993    46.454345    19.983026     20.64016            0            0            0    19160.227    6474.4174    4736.8984     6074.682   -687.58555    89.814967    912.79106    46.454345    19.983026     20.64016           90           90           90 
  463000    262.61652   -10924.033    -9741.207   -10924.033            0    5822.1821    46.496346    20.077993    20.653092            0            0            0    19280.762    7094.7507    4746.7962    5624.9993    255.98126    913.27456   -538.83959    46.496346    20.077993    20.653092           90           90           90 
  463500    260.30678   -10962.338   -9789.9156   -10962.338            0    6152.8648    46.172872    20.081541    20.780048            0            0            0    19267.726    6366.8066    6578.1512    5513.6365   -138.54671    563.63115    221.27071    46.172872    20.081541    20.780048           90           90           90 
  464000    270.46109    -10949.18   -9731.0217    -10949.18            0    7301.0705     46.66564    19.862157    20.576972            0            0            0    19072.389    8152.5245    6484.5999    7266.0872    128.88521    970.46852    308.84351     46.66564    19.862157    20.576972           90           90           90 
  464500     258.2749   -10969.017   -9805.7461   -10969.017            0    4648.9284    46.844768    20.016173    20.602061            0            0            0    19317.583    3865.1231    4962.9169    5118.7453    381.09223   -296.93172    33.307029    46.844768    20.016173    20.602061           90           90           90 
  465000    257.70215   -10942.976   -9782.2848   -10942.976            0    6426.1717      46.4865    19.900244    20.821372            0            0            0    19261.699    6826.3519    6253.7115    6198.4518    24.598272   -340.79668   -602.37392      46.4865    19.900244    20.821372           90           90           90 
  465500    253.28805   -10941.028    -9800.218   -10941.028            0    6399.4138    46.788671    20.031753    20.488439            0            0            0    19202.977    7505.3804    4896.2172    6796.6437   -531.36401    195.12541   -702.49787    46.788671    20.031753    20.488439           90           90           90 
  466000    257.90464   -10896.258   -9734.6545   -10896.258            0      6456.57    46.506601    20.028273    20.577108            0            0            0    19166.483    5745.1865    6123.0708    7501.4525   -17.813507   -234.57592    334.35834    46.506601    20.028273    20.577108           90           90           90 
  466500    257.58708   -10905.422   -9745.2487   -10905.422            0     5837.891    46.723979    19.853554    20.762499            0            0            0    19260.063    4911.6177      6426.61    6175.4452   -565.35121    517.67993    389.86817    46.723979    19.853554    20.762499           90           90           90 
  467000    263.41544    -10935.62   -9749.1954    -10935.62            0    4772.9556    46.692284    20.206753    20.601792            0            0            0    19437.779    5304.7011    4053.8602    4960.3055      453.319   -277.12546   -344.87268    46.692284    20.206753    20.601792           90           90           90 
  467500    250.23108   -10977.204   -9850.1619   -10977.204            0     6203.331    46.495912    19.869828    20.769088            0            0            0    19187.849    6509.8282    6211.7869     5888.378   -284.34002     755.1569    538.77935    46.495912    19.869828    20.769088           90           90           90 
  468000    256.33053   -10953.349   -9798.8356   -10953.349            0    5450.2484    46.623736    20.009618    20.643058            0            0            0    19258.387    5550.8649    5581.3584     5218.522    86.129118    106.77997   -355.32097    46.623736    20.009618    20.643058           90           90           90 
  468500    256.38204   -10947.827   -9793.0817   -10947.827            0    6192.1055    46.356841    20.061429    20.656481            0            0            0    19210.207    6700.6641    4909.8559    6965.7964    290.65347     49.33826    32.374805    46.356841    20.061429    20.656481           90           90           90 
  469000    256.23458   -10899.407   -9745.3256   -10899.407            0     6003.897    46.637861    19.931107    20.600823            0            0            0    19149.375    4924.7219    7027.5747    6059.3943    72.118656   -590.85993   -578.96233    46.637861    19.931107    20.600823           90           90           90 
  469500    259.35518   -10940.026   -9771.8889   -10940.026            0    7111.7127    46.723594    19.812565    20.643883            0            0            0    19110.336    7574.4812    7212.6995    6547.9576   -440.26537   -105.10084    -949.3872    46.723594    19.812565    20.643883           90           90           90 
  470000    260.45614   -10899.642   -9726.5466   -10899.642            0    5349.1222    46.596942    19.937236    20.746575            0            0            0    19273.864    4827.2543    7077.7256    4142.3868    47.629178    599.63172   -897.80405    46.596942    19.937236    20.746575           90           90           90 
  470500    267.32858   -10973.303   -9769.2545   -10973.303            0    7416.4069    46.521784    19.971339    20.516942            0            0            0    19062.338    6709.2005    8667.9671    6872.0532   -260.77443    396.89054   -16.642142    46.521784    19.971339    20.516942           90           90           90 
  471000    258.40844   -10957.767   -9793.8944   -10957.767            0    5977.2097    46.523669    19.979916    20.755449            0            0            0    19292.999     6271.501    5374.2678    6285.8604    -590.7708    353.84887    -477.4505    46.523669    19.979916    20.755449           90           90           90 
  471500    261.37386   -10945.933   -9768.7041   -10945.933            0     5957.603    46.562432    20.004692    20.599472            0            0            0    19187.731    6553.0293    5242.8701    6076.9096   -399.61559    176.48122     190.2805    46.562432    20.004692    20.599472           90           90           90 
  472000    260.95645   -10900.377   -9725.0277   -10900.377            0    5214.9376    46.839989    19.986041    20.727998            0            0            0    19404.432    3785.8368    6085.7906    5773.1853   -677.37236    318.98803   -388.05005    46.839989    19.986041    20.727998           90           90           90 
  472500    261.91999   -10930.691   -9751.0019   -10930.691            0    6500.9411    46.830732    19.861122    20.643747            0            0            0    19200.974    6574.6801    6755.3695    6172.7737   -200.34227    646.44654    107.36259    46.830732    19.861122    20.643747           90           90           90 
  473000    262.30604   -10909.192   -9727.7644   -10909.192            0    6760.9908    46.702423    19.889134    20.772524            0            0            0     19294.99    5980.7257    7766.2472    6535.9994    633.49504    -327.2366    960.43906    46.702423    19.889134    20.772524           90           90           90 
  473500     260.7791   -10910.118   -9735.5679   -10910.118            0    6709.7922    46.406986    19.980316    20.626088            0            0            0     19125.05    6685.5576    6467.7096    6976.1093    145.14963   -35.825377    171.38352    46.406986    19.980316    20.626088           90           90           90 
  474000    260.55841   -10962.677   -9789.1204   -10962.677            0    6286.9178    46.502588     20.05369    20.598551            0            0            0    19209.148    6627.2929    5541.2576    6692.2029   -86.121249    631.82501   -335.98714    46.502588     20.05369    20.598551           90           90           90 
  474500    265.39548   -10958.148   -9762.8062   -10958.148            0    4102.0168    46.970533    19.928181    20.712996            0            0            0    19388.137    4012.2759     3703.081    4590.6934     138.6496   -188.80032    121.76106    46.970533    19.928181    20.712996           90           90           90 
  475000    264.24819   -11004.122   -9813.9474   -11004.122            0    5957.1105    46.640669    19.875517    20.751397            0            0            0    19236.699    5762.3626    6327.8235    5781.1456    52.646747   -211.75285    1018.8636    46.640669    19.875517    20.751397           90           90           90 
  475500    249.72851   -10938.343   -9813.5645   -10938.343            0    5447.2285    46.488306    20.090473    20.620888            0            0            0    19259.333     6948.441    4742.8929    4650.3516   -936.75548   -211.70122   -355.36698    46.488306    20.090473    20.620888           90           90           90 
  476000    265.81383    -10893.55   -9696.3231    -10893.55            0    5699.0479    46.542867     20.02326    20.671238            0            0            0    19264.352    5155.0724    6116.1383    5825.9329   -80.754121    430.37848   -412.57948    46.542867     20.02326    20.671238           90           90           90 
  476500    260.17486   -10928.905   -9757.0768   -10928.905            0     5953.974    46.918824    19.986726    20.537245            0            0            0    19258.877    4992.9511    6752.3506    6116.6204   -175.03107     440.9365    1128.9691    46.918824    19.986726    20.537245           90           90           90 
  477000    268.71894   -10955.119   -9744.8081   -10955.119            0    6692.8941     46.54149    19.827344    20.737493            0            0            0    19136.437    5679.8096    8039.1527    6359.7201   -111.54865   -158.52749    88.624046     46.54149    19.827344    20.737493           90           90           90 
  477500    274.10844   -10922.291   -9687.7052   -10922.291            0    6438.1699    46.824977    19.930823    20.649712            0            0            0    19271.557    6381.1821    6785.4579    6147.8696    609.66312   -1040.0015   -730.94885    46.824977    19.930823    20.649712           90           90           90 
  478000    263.10012   -10952.181    -9767.177   -10952.181            0    5498.9096    46.541455    19.982363    20.675095            0            0            0    19228.009    6063.8874    5685.6934     4747.148   -225.85199   -767.06766    400.90029    46.541455    19.982363    20.675095           90           90           90 
  478500    252.74136   -10941.102    -9802.754   -10941.102            0    5259.5447    46.944719     19.82749    20.635612            0            0            0    19207.544    3046.2313    7405.6618     5326.741    216.72887   -791.50297   -904.50879    46.944719     19.82749    20.635612           90           90           90 
  479000    260.70897    -10978.99   -9804.7553    -10978.99            0    4974.7344    46.893214    20.020539    20.588603            0            0            0    19329.145    4327.5997    5831.1885    4765.4149    388.49238    61.803509    893.14321    46.893214    20.020539    20.588603           90           90           90 
  479500    251.84497   -10930.567   -9796.2563   -10930.567            0    7400.1814    46.518532    19.841552    20.703863            0            0            0    19109.663    7563.3745    7338.9426    7298.2272    -458.9045   -231.01471    237.62461    46.518532    19.841552    20.703863           90           90           90 
  480000    261.16923   -10945.885   -9769.5782   -10945.885            0    5509.5829    46.717903      20.1005    20.628582            0            0            0    19371.336    5049.7054    6326.6823    5152.3611    97.115489    924.75266    174.24516    46.717903      20.1005    20.628582           90           90           90 
  480500    270.59147   -10944.528   -9725.7829   -10944.528            0      6833.81    46.544164    19.922749    20.646338            0            0            0    19145.095    7134.7735    7282.6458    6084.0106   -497.37388    -282.1861     351.3601    46.544164    19.922749    20.646338           90           90           90 
  481000    250.16982   -11019.874   -9893.1083   -11019.874            0    5643.2441     46.51145    19.979295    20.696681            0            0            0    19232.721    5111.0185    6349.9032    5468.8107    156.51814     907.7447    1209.7843     46.51145    19.979295    20.696681           90           90           90 
  481500    264.31584   -10933.835   -9743.3559   -10933.835            0      6141.29    46.409443    20.062207    20.519306            0            0            0    19105.031    5759.7909    5859.6212     6804.458    354.36189   -16.622085    292.55682    46.409443    20.062207    20.519306           90           90           90 
  482000    248.01482    -10979.21   -9862.1504    -10979.21            0    5903.5112     46.77127    19.865218    20.631144            0            0            0    19168.839    6616.0237    5119.3315    5975.1784    158.52756    42.297076   -404.91824     46.77127    19.865218    20.631144           90           90           90 
  482500    263.78988   -10928.021   -9739.9099   -10928.021            0    6332.1117    46.482818    19.915892     20.70635            0            0            0    19168.836    6312.1086     6961.232    5722.9946   -841.39195    370.00628   -130.56272    46.482818    19.915892     20.70635           90           90           90 
  483000    251.32213   -10975.535   -9843.5787   -10975.535            0    6066.9779    46.671519     20.05889    20.515373            0            0            0    19206.058    5220.0397    6351.5749    6629.3192   -84.745679    111.75989    27.137694    46.671519     20.05889    20.515373           90           90           90 
  483500    262.07064   -10947.324   -9766.9572   -10947.324            0    5294.9916    46.256693    20.111906    20.757569            0            0            0    19310.979    5787.9452    5362.7451    4734.2845   -555.24436   -457.56213    -460.3509    46.256693    20.111906    20.757569           90           90           90 
  484000    256.37021   -10912.285   -9757.5928   -10912.285            0    6516.2227    46.596293    19.919655    20.677139            0            0            0     19192.15    7300.5292    6004.9038    6243.2351   -148.11792   -23.338259   -217.43842    46.596293    19.919655    20.677139           90           90           90 
  484500     255.4472   -10940.943   -9790.4076   -10940.943            0    6234.4079    46.647589    19.988519    20.586669            0            0            0    19195.345    7076.8546    4969.1499    6657.2191    302.10304   -580.01636    19.365612    46.647589    19.988519    20.586669           90           90           90 
  485000    268.72542   -10967.133    -9756.793   -10967.133            0    4460.4908    46.752569    20.133161     20.56063            0            0            0    19353.248     4503.396    4550.6974    4327.3791    203.51902     239.7959  -0.14826923    46.752569    20.133161     20.56063           90           90           90 
  485500     257.0836   -10930.839    -9772.933   -10930.839            0    6931.9529    46.302948    19.877286    20.758552            0            0            0    19105.692    6546.2257    8149.9312    6099.7019   -231.42547    721.49996    100.03704    46.302948    19.877286    20.758552           90           90           90 
  486000    247.09285     -10996.6   -9883.6924     -10996.6            0    5283.3831    46.736186    19.927057     20.60449            0            0            0    19189.264    5473.2644    5459.5127    4917.3721    372.45112    -53.09425    465.88121    46.736186    19.927057     20.60449           90           90           90 
  486500    265.04278   -10954.528   -9760.7744   -10954.528            0    6180.8985    46.834839    19.950989    20.521807            0            0            0    19175.604    5686.0448    6381.3579    6475.2927    2.4756435    -815.9096    286.94268    46.834839    19.950989    20.521807           90           90           90 
  487000    243.25712   -10936.615   -9840.9841   -10936.615            0    4504.9539      46.5026     20.01526    20.727498            0            0            0     19292.36    3494.6056    5421.6784    4598.5776   -153.14812    195.51163   -459.78977      46.5026     20.01526    20.727498           90           90           90 
  487500    251.52906   -10932.485   -9799.5967   -10932.485            0    5881.9947    46.310224     20.06298    20.636634            0            0            0    19173.932    6383.0091    5095.2893    6167.6856   -39.762187   -953.65935   -179.76538    46.310224     20.06298    20.636634           90           90           90 
  488000    259.92467   -10951.893   -9781.1915   -10951.893            0    4825.3423    46.817497    19.960969      20.6693            0            0            0    19315.928    4153.5772    5127.5345    5194.9151   -211.72668    312.37568    268.23616    46.817497    19.960969      20.6693           90           90           90 
  488500    261.69483   -10935.929   -9757.2542   -10935.929            0    6025.9821    46.395841    20.103953    20.693514            0            0            0    19301.664    6272.7979    6045.7123     5759.436   -223.88813    514.59326   -513.98057    46.395841    20.103953    20.693514           90           90           90 
  489000    261.87009   -10971.406    -9791.942   -10971.406            0    5452.7029      46.8727    19.851999    20.551099            0            0            0    19123.143    4298.9224     6406.228    5652.9584   -627.19372   -129.71618     308.0526      46.8727    19.851999    20.551099           90           90           90 
  489500     259.9389   -10959.247   -9788.4817   -10959.247            0    5879.7681    46.619056    19.983287    20.630174            0            0            0    19219.111    6226.4255     5455.923    5956.9559    525.97143    55.734534   -298.57122    46.619056    19.983287    20.630174           90           90           90 
  490000    254.27147   -10925.264   -9780.0247   -10925.264            0    5244.4533    46.658627    20.030423    20.661196            0            0            0    19309.789    4799.6087    5226.8033     5706.948    -479.0588    133.80932    207.24032    46.658627    20.030423    20.661196           90           90           90 
  490500     263.7832   -10911.972   -9723.8917   -10911.972            0    5622.8518    46.283571    20.172532    20.619528            0            0            0    19251.562    6603.1454    3877.4824    6387.9277    95.635745     539.0205   -34.035928    46.283571    20.172532    20.619528           90           90           90 
  491000    269.38344   -10937.694   -9724.3904   -10937.694            0    6711.5038    46.619743    19.921159    20.661203            0            0            0    19188.458    7302.7654    6438.0712    6393.6747   -379.88472   -424.36552    229.43597    46.619743    19.921159    20.661203           90           90           90 
  491500    260.80087   -10978.327   -9803.6793   -10978.327            0    5787.9383    46.761278    19.953401    20.577533            0            0            0    19199.796    4708.7555    6625.3549    6029.7044     -623.224    631.83593    569.55767    46.761278    19.953401    20.577533           90           90           90 
  492000    255.13151   -10927.225   -9778.1118   -10927.225            0    6820.5781    46.486371    20.055193    20.559483            0            0            0    19167.466     6988.211    6997.5864    6475.9371    328.16561    705.08127   -414.14729    46.486371    20.055193    20.559483           90           90           90 
  492500    250.66292   -10985.675    -9856.688   -10985.675            0    5428.6575    46.570599    19.893856    20.734772            0            0            0    19210.119    4750.1743    5990.4311    5545.3672   -459.03786    797.71398    68.362312    46.570599    19.893856    20.734772           90           90           90 
  493000    254.98297   -10976.379   -9827.9349   -10976.379            0    5572.8811    46.595015    20.088394    20.554311            0            0            0    19239.226     5489.114    5050.6895    6178.8398   -118.32515    371.02721    821.68693    46.595015    20.088394    20.554311           90           90           90 
  493500    259.71763   -10888.121   -9718.3521   -10888.121            0    6002.2877    46.469706      20.0684    20.571454            0            0            0    19184.375    6126.6008    5034.5653    6845.6971    16.175523    46.778292    1018.6376    46.469706      20.0684    20.571454           90           90           90 
  494000    268.03134   -10917.239   -9710.0247   -10917.239            0    4994.0115    46.777492    19.785952    20.850144            0            0            0    19297.584    4656.6472    6074.5401    4250.8471     580.6732   -283.28003    802.16116    46.777492    19.785952    20.850144           90           90           90 
  494500    257.36253   -10921.083   -9761.9212   -10921.083            0    6736.9947    46.374102    20.049005     20.56715            0            0            0    19122.403    7016.3578    6515.4314     6679.195    426.07149    211.71969    26.687469    46.374102    20.049005     20.56715           90           90           90 
  495000    265.54498   -10934.711   -9738.6953   -10934.711            0    6870.5845    46.541023    20.006649     20.53196            0            0            0    19117.923    7248.4573    5080.9832    8282.3129    225.90499   -518.68588   -338.58811    46.541023    20.006649     20.53196           90           90           90 
  495500    263.23902   -10947.137    -9761.507   -10947.137            0     5471.704      46.8018    19.748282    20.733768            0            0            0    19163.292    4601.0109    6421.9623    5392.1387     11.51833    103.33788    299.18487      46.8018    19.748282    20.733768           90           90           90 
  496000    253.75338   -10925.625   -9782.7193   -10925.625            0    5929.0813    46.603199    20.041722    20.612062            0            0            0    19251.838     5447.446    6499.0214    5840.7764   -18.047417   -251.11564    212.81919    46.603199    20.041722    20.612062           90           90           90 
  496500    261.02662   -10952.537   -9776.8718   -10952.537            0    6002.2438    46.742845    19.929411    20.587051            0            0            0     19178.02    6650.7216    4790.0118    6565.9979   -309.04493    138.22152   -132.90963    46.742845    19.929411    20.587051           90           90           90 
  497000    258.74213   -10964.177   -9798.8016   -10964.177            0    6176.0102     46.27424    20.068985    20.674592            0            0            0    19200.019      6011.69    5653.4971    6862.8435   -168.90737   -598.42328    448.89008     46.27424    20.068985    20.674592           90           90           90 
  497500    256.89618   -10987.106   -9830.0442   -10987.106            0    5650.8241    46.839453    19.850716    20.640914            0            0            0    19191.853    5355.9349    5845.7762    5750.7611   -430.54577    314.65753   -271.44649    46.839453    19.850716    20.640914           90           90           90 
  498000    257.57228   -10947.472   -9787.3658   -10947.472            0    5209.5617    46.671652    20.083563    20.551096            0            0            0    19263.222    5197.0672    4913.1389    5518.4791    84.776199     6.326679    58.116984    46.671652    20.083563    20.551096           90           90           90 
  498500    259.60096    -10985.86   -9816.6166    -10985.86            0     6280.759    46.251661    20.024887    20.711395            0            0            0    19182.568     5070.569    7285.5696    6486.1384   -11.708323    340.48558    139.48658    46.251661    20.024887    20.711395           90           90           90 
  499000    264.73437   -10919.872    -9727.507   -10919.872            0    6320.5744    46.656297     20.01032    20.580799            0            0            0    19214.387    6574.2042    5914.4873    6473.0316   -447.01228     249.5664   -108.05293    46.656297     20.01032    20.580799           90           90           90 
  499500    252.42579   -10921.247   -9784.3207   -10921.247            0    6499.2517    46.754682    19.918872    20.599284            0            0            0    19184.124     6997.869    6662.6616    5837.2244    30.287907    446.04472   -769.01708    46.754682    19.918872    20.599284           90           90           90 
  500000    272.15609   -10961.686   -9735.8941   -10961.686            0     4879.847    46.791965    19.919554    20.700045            0            0            0    19293.996    4593.5401    5762.0204    4283.9804    172.39339    -819.8597   -206.78547    46.791965    19.919554    20.700045           90           90           90 
Loop time of 1457.93 on 32 procs for 500000 steps with 2268 atoms

Performance: 59.262 ns/day, 0.405 hours/ns, 342.952 timesteps/s
99.0% CPU use with 32 MPI tasks x 1 OpenMP threads

MPI task timing breakdown:
Section |  min time  |  avg time  |  max time  |%varavg| %total
---------------------------------------------------------------
Pair    | 246.57     | 286.89     | 336        | 155.1 | 19.68
Bond    | 0.62327    | 0.64358    | 0.66881    |   1.3 |  0.04
Kspace  | 645.35     | 694.63     | 736.85     | 102.0 | 47.64
Neigh   | 18.5       | 18.854     | 19.13      |   5.0 |  1.29
Comm    | 160.18     | 170.43     | 179.34     |  41.7 | 11.69
Output  | 3.833      | 3.8376     | 3.9287     |   0.8 |  0.26
Modify  | 221.43     | 247.01     | 274.12     | 100.6 | 16.94
Other   |            | 35.64      |            |       |  2.44

Nlocal:        70.8750 ave          79 max          62 min
Histogram: 1 0 3 3 6 12 1 4 1 1
Nghost:        3188.78 ave        3236 max        3137 min
Histogram: 3 1 2 2 4 9 3 5 1 2
Neighs:        22190.2 ave       27012 max       18835 min
Histogram: 4 2 4 8 3 4 3 3 0 1

Total # of neighbors = 710088
Ave neighs/atom = 313.08995
Ave special neighs/atom = 2.0000000
Neighbor list builds = 21187
Dangerous builds = 0

unfix		3
unfix		2
unfix		1

write_data	data.final.${pid}
write_data	data.final.0
System init for write_data ...
PPPM initialization ...
  extracting TIP4P info from pair style
  using 12-bit tables for long-range coulomb (../kspace.cpp:340)
  G vector (1/distance) = 0.37321618
  grid = 48 27 27
  stencil order = 5
  estimated absolute RMS force accuracy = 0.0032712389
  estimated relative force accuracy = 9.8512388e-06
  using double precision FFTW3
  3d grid and FFT values/proc = 6292 1344
Last active /omp style is kspace_style pppm/tip4p/omp
WARNING: Not all mixed pair coeffs generated from mixing. Use write_data with 'pair ij' option to store all pair coeffs. (../write_data.cpp:312)

write_restart   restart.lmp.${pid}
write_restart   restart.lmp.0
System init for write_restart ...
PPPM initialization ...
  extracting TIP4P info from pair style
  using 12-bit tables for long-range coulomb (../kspace.cpp:340)
  G vector (1/distance) = 0.37321618
  grid = 48 27 27
  stencil order = 5
  estimated absolute RMS force accuracy = 0.0032712389
  estimated relative force accuracy = 9.8512388e-06
  using double precision FFTW3
  3d grid and FFT values/proc = 6292 1344
Last active /omp style is kspace_style pppm/tip4p/omp
Total wall time: 0:24:18
