LAMMPS (30 Jul 2021)
  using 1 OpenMP thread(s) per MPI task
package omp 0
using multi-threaded neighbor list subroutines
echo both

include		in.partitions
variable        pid world 0
include		in.temp
variable        temperature equal 255.46
variable	tempDamp equal 100.0
include		in.pressure
variable        pressure equal 10000.0
variable        pressureDamp equal 1000.0 # This is 1 ps
include		in.seed
variable        seed world 745823

units		real
atom_style	full
read_restart	restart.lmp.${pid}
read_restart	restart.lmp.0
Reading restart file ...
  restart file = 30 Jul 2021, LAMMPS = 30 Jul 2021
  restoring atom style full from restart
  orthogonal box = (0.66171428 1.8709433 0.80728988) to (17.545858 21.758235 21.405906)
  4 by 4 by 4 MPI processor grid
  restoring pair style lj/cut/tip4p/long/omp from restart
  restoring bond style harmonic/omp from restart
  restoring angle style harmonic/omp from restart
  864 atoms
  576 bonds
  288 angles
Finding 1-2 1-3 1-4 neighbors ...
  special bond factors lj:    0        0        0       
  special bond factors coul:  0        0        0       
     2 = max # of 1-2 neighbors
     1 = max # of 1-3 neighbors
     1 = max # of 1-4 neighbors
     2 = max # of special neighbors
  special bonds CPU = 0.417 seconds
  read_restart CPU = 0.619 seconds
include 	in.setup
variable	out_freq equal 1000
variable	out_freq2 equal 10000
variable	out_freq3 equal 1000

timestep	2.0

neigh_modify    delay 7 every 1

include		in.tip4p
# This is TIP4P/Ice

# create groups ###
group ox type 2
288 atoms in group ox
group hy type 1
576 atoms in group hy

# set charges - beside manually ###
set group ox charge -1.1794
Setting atom values ...
  288 settings made for charge
set group hy charge 0.5897
Setting atom values ...
  576 settings made for charge

# ### TIP3P Potential Parameters ###
pair_style lj/cut/tip4p/long/omp 2 1 1 1 0.1577 8.5
pair_coeff 1 1*2 0.000 0.000
pair_coeff 2 2 0.21084 3.1668
bond_style  harmonic
bond_coeff  1 450 0.9572
angle_style harmonic
angle_coeff 1 55 104.52
kspace_style pppm/tip4p/omp 1.0e-5
pair_modify tail yes

thermo          ${out_freq}
thermo          1000
thermo_style    custom step temp pe etotal epair emol press lx ly lz vol pxx pyy pzz pxy pxz pyz enthalpy

restart 	${out_freq3} restart.lmp.${pid} restart2.lmp.${pid}
restart 	1000 restart.lmp.${pid} restart2.lmp.${pid}
restart 	1000 restart.lmp.0 restart2.lmp.${pid}
restart 	1000 restart.lmp.0 restart2.lmp.0


include         in.dump
dump            myDump all atom ${out_freq2} dump.water.${pid}
dump            myDump all atom 10000 dump.water.${pid}
dump            myDump all atom 10000 dump.water.0
dump            myDump2 all dcd ${out_freq2} dump.dcd
dump            myDump2 all dcd 10000 dump.dcd
dump_modify     myDump append yes
dump_modify     myDump2 append yes


variable natoms 	equal  "count(all)"                        # NUMBER ATOMS
variable H      	equal  "enthalpy/v_natoms"                 # ENTHALPY-per-atom
variable Vol      	equal  "vol/v_natoms"                 # volume-per-atom
fix AVG all 		ave/time ${out_freq} 1 ${out_freq} v_Vol v_H file vol_enthalpy.dat
fix AVG all 		ave/time 1000 1 ${out_freq} v_Vol v_H file vol_enthalpy.dat
fix AVG all 		ave/time 1000 1 1000 v_Vol v_H file vol_enthalpy.dat


timer           timeout 23:50:00 every 1000
New timer settings: style=normal  mode=nosync  timeout=23:50:00

fix 		1 all shake 1e-6 200 0 b 1 a 1
       0 = # of size 2 clusters
       0 = # of size 3 clusters
       0 = # of size 4 clusters
     288 = # of frozen angles
  find clusters CPU = 0.092 seconds
fix             2 all nph iso ${pressure} ${pressure} ${pressureDamp}
fix             2 all nph iso 10000 ${pressure} ${pressureDamp}
fix             2 all nph iso 10000 10000 ${pressureDamp}
fix             2 all nph iso 10000 10000 1000
fix             3 all temp/csvr ${temperature} ${temperature} ${tempDamp} ${seed}
fix             3 all temp/csvr 255.46 ${temperature} ${tempDamp} ${seed}
fix             3 all temp/csvr 255.46 255.46 ${tempDamp} ${seed}
fix             3 all temp/csvr 255.46 255.46 100 ${seed}
fix             3 all temp/csvr 255.46 255.46 100 745823

run             250000
PPPM initialization ...
  extracting TIP4P info from pair style
  using 12-bit tables for long-range coulomb (../kspace.cpp:340)
  G vector (1/distance) = 0.37470366
  grid = 24 24 24
  stencil order = 5
  estimated absolute RMS force accuracy = 0.0031109301
  estimated relative force accuracy = 9.3684737e-06
  using double precision FFTW3
  3d grid and FFT values/proc = 2535 216
Last active /omp style is kspace_style pppm/tip4p/omp
Neighbor list info ...
  update every 1 steps, delay 7 steps, check yes
  max neighbors/atom: 2000, page size: 100000
  master list distance cutoff = 10.8154
  ghost atom cutoff = 10.8154
  binsize = 5.4077, bins = 4 4 4
  1 neighbor lists, perpetual/occasional/extra = 1 0 0
  (1) pair lj/cut/tip4p/long/omp, perpetual
      attributes: half, newton on, omp
      pair build: half/bin/newton/omp
      stencil: half/bin/3d
      bin: standard
Per MPI rank memory allocation (min/avg/max) = 9.237 | 9.240 | 9.243 Mbytes
Step Temp PotEng TotEng E_pair E_mol Press Lx Ly Lz Volume Pxx Pyy Pzz Pxy Pxz Pyz Enthalpy 
24250000    260.58344   -3850.8531    -3404.222   -3850.8531            0    9270.6516    16.884144    19.887291    20.598616    6916.6009    8360.4911    11423.107    8028.3566    6.0052198   -576.31699    646.15718   -2469.0772 
24251000    257.31529   -3895.9575   -3454.9279   -3895.9575            0    8933.3582    16.865576    19.865421    20.575963    6893.8069    6905.8675    10692.709    9201.4983    777.31595   -50.986772   -246.45853   -2556.7761 
24252000    254.26062   -3896.7419   -3460.9479   -3896.7419            0    9425.5013    16.917994    19.927163    20.639914     6958.285    9855.0902    8314.8828    10106.531    784.98993   -364.53813     539.2222   -2504.4532 
24253000    259.75712   -3917.2581   -3472.0433   -3917.2581            0      6885.14    16.917194     19.92622    20.638937    6957.2979    4771.3552    7430.1014    8453.9635    508.82021    677.40239   -308.41106   -2773.4422 
24254000    233.57103   -3925.1931   -3524.8604   -3925.1931            0    7974.1579    16.912446    19.920628    20.633145    6951.4419    8706.8603     7920.284    7295.3294    486.92766   -320.13485   -1869.4686    -2716.443 
24255000     251.3221   -3904.6054   -3473.8479   -3904.6054            0    7865.9179     16.87927    19.881551     20.59267    6910.6132    7515.1212    7614.1336    8468.4991    86.517103   -705.15152   -134.54689   -2681.0876 
24256000    258.06573   -3893.5747   -3451.2589   -3893.5747            0     9302.062    16.835026    19.829436    20.538692    6856.4124    10008.207    8882.3805    9015.5985   -495.15856   -478.90571     -1808.35   -2521.1109 
24257000     261.8107   -3897.1257   -3448.3911   -3897.1257            0    11391.601    16.802037    19.790581    20.498446     6816.186    9666.1269    11731.981    12776.696    1033.1689    915.18806   -1235.4541   -2315.9853 
24258000    261.26093    -3872.849   -3425.0567    -3872.849            0    10021.707    16.813054    19.803556    20.511886    6829.6017    10332.246    8183.2837    11549.591   -1284.8168    2336.3125   -169.73508   -2426.8673 
24259000    254.26496    -3853.803   -3418.0015    -3853.803            0     9827.108    16.918492    19.927749    20.640521    6958.8992    10360.745    8278.1951    10842.384   -1160.3179    726.77853    86.658414    -2420.664 
24260000    254.57386   -3879.6963   -3443.3654   -3879.6963            0    9619.2631    16.865754     19.86563     20.57618    6894.0251    11328.099    9164.0582     8365.632   -1002.5884     1468.647    451.49325   -2476.2227 
24261000    269.62749   -3899.5165   -3437.3842   -3899.5165            0    11523.052    16.823734    19.816136    20.524916    6842.6251     11975.83    11871.543    10721.783    523.91404   -181.88987    639.73666   -2287.4681 
24262000    270.24496   -3887.9996    -3424.809   -3887.9996            0    9698.8649     16.87288    19.874024    20.584874    6902.7674    11133.238    9317.2299    8646.1266    671.11785    289.37315   -1185.6498   -2448.4264 
24263000    268.14211   -3885.1781   -3425.5917   -3885.1781            0    9632.0004     16.85388    19.851644    20.561694    6879.4748    6451.9737     8939.572    13504.455    262.59969   -249.84481    1537.0423   -2459.2123 
24264000     245.9384   -3912.3521   -3490.8221   -3912.3521            0    11098.316    16.835249    19.829699    20.538964    6856.6852    11181.959    11998.633    10114.357   -216.37087    1839.2964   -1628.6554   -2381.0157 
24265000    245.84112   -3891.0837   -3469.7204   -3891.0837            0    9713.2868    16.881089    19.883693     20.59489    6912.8477    10679.222    8096.8708    10363.768    1131.3868   -874.22107   -770.60886    -2490.458 
24266000    248.00614   -3890.5526   -3465.4785   -3890.5526            0    10980.162    16.839812    19.835074    20.544531    6862.2623    12694.708    10523.387    9722.3903    1449.1375   -713.72346    502.34167   -2366.5943 
24267000    265.71452   -3924.7914   -3469.3658   -3924.7914            0    10151.746    16.885873    19.889328    20.600726    6918.7264    8301.3364     10627.61     11526.29    682.09565   -848.51391   -545.41976    -2445.029 
24268000    248.80411   -3940.7219   -3514.2801   -3940.7219            0    9250.4149    16.936178    19.948581    20.662098    6980.7457    10101.499    9511.9714    8137.7749   -102.98913   -518.13582    142.05573    -2572.523 
24269000    257.90045   -3906.1701   -3464.1375   -3906.1701            0    10064.337    16.889015    19.893028    20.604558    6922.5886    9257.1519    9697.2108    11238.648   -1016.1872   -1257.7542    950.00497   -2448.0536 
24270000     239.5427   -3889.9134   -3479.3455   -3889.9134            0    10469.577    16.877095    19.878989    20.590017    6907.9424    9632.9347    10365.009    11410.787    694.92043   -69.690594     317.0799   -2424.5852 
24271000    246.87556   -3887.8769   -3464.7407   -3887.8769            0    13725.396    16.818899    19.810441    20.519017    6836.7273    13392.917    14885.236    12898.037     -995.349   -828.97858    916.79255   -2096.2273 
24272000    277.83827   -3909.3016   -3433.0963   -3909.3016            0    10001.113    16.857908    19.856389    20.566608    6884.4085    9062.5949    11098.356    9842.3888    497.00399    1828.5117   -186.29433   -2428.9642 
24273000    253.37892   -3933.7619   -3499.4791   -3933.7619            0    9585.1659    16.858022    19.856523    20.566747    6884.5478    9954.7953     9338.611    9462.0914   -2348.2998    249.58065   -133.69058   -2537.0894 
24274000     258.2773    -3850.767   -3408.0885    -3850.767            0    10353.413    16.891996    19.896541    20.608196    6926.2559    8017.4103    10011.236    13031.593   -1343.8964   -1483.9772    -1277.144   -2362.2661 
24275000    254.24528    -3883.796   -3448.0283    -3883.796            0     9700.179    16.866448    19.866448    20.577028    6894.8769    8906.0843    8318.8389    11875.614    1496.3154   -1110.4206    705.75953   -2472.6296 
24276000    251.00073   -3861.5327   -3431.3261   -3861.5327            0    11372.041    16.864791    19.864496    20.575005     6892.844    12732.586    9912.9075    11470.628    985.85685    175.94728    542.46971    -2288.151 
24277000    264.75967   -3892.2132   -3438.4242   -3892.2132            0    10365.587     16.85391     19.85168    20.561731    6879.5116    11801.182    6541.0274    12754.552   -86.526148   -461.27849    436.90076   -2398.4384 
24278000    254.76362   -3917.6049   -3480.9488   -3917.6049            0    8070.8672    16.868899    19.869335    20.580017    6897.8825    7213.8648    8295.3474    8703.3893   -1103.0436   -1850.7818    -868.0036   -2669.0313 
24279000    246.50378   -3895.3219   -3472.8228   -3895.3219            0    9555.9889    16.829737    19.823207     20.53224    6849.9527    8298.0762    9523.2764    10846.614    61.405005     1614.803    90.252153    -2518.184 
24280000    266.99971   -3896.9653    -3439.337   -3896.9653            0    10005.498    16.887013    19.890671    20.602117    6920.1282    9149.6979    11027.021    9839.7751   -738.05021   -330.97746   -1079.3315   -2429.5524 
24281000    254.50637   -3842.7014   -3406.4862   -3842.7014            0    12225.924    16.822493    19.814674    20.523402    6841.1111    11380.673    12864.299      12432.8    780.27736    2335.3965    1442.4452   -2186.6986 
24282000    248.10625   -3869.8066    -3444.561   -3869.8066            0    8818.5799    16.918351    19.927582    20.640348    6958.7248    10657.783    9451.1117    6346.8448    -1717.875   -709.93283    45.776962   -2549.5998 
24283000    262.77379   -3899.7442   -3449.3589   -3899.7442            0    10640.599    16.901976    19.908295    20.620371    6938.5387    8434.1262    11821.182    11666.488   -156.61959   -565.56696   -1242.5428   -2372.6211 
24284000    244.86347   -3889.5872   -3469.8996   -3889.5872            0     11715.35    16.857244    19.855607    20.565798    6883.5951    13168.109     11539.25     10438.69    1481.2498    1101.0944    577.05936   -2293.7936 
24285000    241.32212   -3903.6867   -3490.0688   -3903.6867            0    10363.144    16.887736    19.891522    20.602998    6921.0159    11953.007    8914.9787    10221.446    1073.9966     66.94124   -929.50366   -2444.0553 
24286000    252.21395   -3923.5193   -3491.2332   -3923.5193            0     9937.197    16.901167    19.907342    20.619384    6937.5429    10296.384    8313.7907    11201.416   -748.96641    561.28307   -1482.0492    -2485.818 
24287000    265.13451   -3905.8735    -3451.442   -3905.8735            0    8956.8519    16.889571    19.893684    20.605238    6923.2734    9035.8412     8095.333    9739.3813   -516.86784   -2036.7602   -651.81871    -2547.079 
24288000    264.29767   -3894.2643   -3441.2671   -3894.2643            0    11026.218    16.868576    19.868954    20.579623    6897.4861     10880.04    10623.283    11575.332   -346.94324    710.82115    -400.9257   -2332.1094 
24289000    247.07086   -3879.1893   -3455.7183   -3879.1893            0    8580.5839    16.927531    19.938396    20.651549    6970.0593    9156.5693    10003.875    6581.3078    1184.8213    1707.3727   -202.69224   -2583.4919 
24290000    258.09679   -3907.9409   -3465.5718   -3907.9409            0    10750.207     16.85225    19.849724    20.559705    6877.4785    9634.8022    12132.068    10483.752    62.780078   -1083.4871   -193.84628   -2387.3156 
24291000    256.34944   -3905.0876   -3465.7134   -3905.0876            0    8405.0589    16.888998    19.893008    20.604538    6922.5676    9867.1244    8260.9521    7087.1001   -992.27253   -389.28701   -1418.3684   -2617.1508 
24292000    257.51789   -3903.7866   -3462.4098   -3903.7866            0    7293.6373    16.841907    19.837542    20.547087    6864.8237    7527.5057    7755.6509    6597.7553   -861.70976   -537.59828    -235.4321    -2732.197 
24293000    264.27717   -3869.8315   -3416.8695   -3869.8315            0    10528.904    16.847829    19.844517    20.554312     6872.068    11792.479     11353.57    8440.6633   -1782.4554   -464.48653     1032.224    -2361.641 
24294000    260.67666   -3880.7085   -3433.9177   -3880.7085            0    10863.746    16.843857    19.839839    20.549467    6867.2088    10699.763    12087.459    9804.0144   -517.86384    621.98407 -0.088752266   -2345.9005 
24295000    238.31305   -3901.1055   -3492.6451   -3901.1055            0    11622.871    16.768311    19.750856      20.4573    6775.2225    12690.512    11000.833    11177.269    2199.6774   -121.15597    1159.9267    -2344.193 
24296000    259.45552   -3877.4576   -3432.7597   -3877.4576            0    9775.3666    16.849043    19.845947    20.555793    6873.5537    9392.4776    10730.401    9203.2214    1393.8768    831.85169    587.24373   -2452.8405 
24297000    257.54337   -3891.7051   -3450.2846   -3891.7051            0    9989.9988    16.866969    19.867062    20.577663    6895.5157    9418.2138    12102.167    8449.6153     2348.295   -317.35232   -1461.2259   -2445.6501 
24298000    253.30817   -3859.2654   -3425.1039   -3859.2654            0    10336.727    16.853304    19.850966    20.560991    6878.7693    8254.5438    12430.335    10325.301    762.84449    684.31714   -524.62651   -2388.1256 
24299000    258.95509   -3863.5111    -3419.671   -3863.5111            0    9945.4101    16.898761    19.904509    20.616449    6934.5806    9391.6332    10921.687    9522.9102    770.09085    563.99188     461.4094   -2413.8544 
24300000    250.25915   -3863.8698   -3434.9342   -3863.8698            0    11103.672    16.815838    19.806836    20.515283    6832.9957    10378.781    13783.215    9149.0217   -306.50446    630.12188    255.10981   -2328.4284 
24301000    253.21264   -3826.7964   -3392.7986   -3826.7964            0     9086.577    16.890779    19.895107    20.606711    6924.7585    10960.521    7597.1401    8702.0701   -807.25731    -644.3306   -63.286236   -2475.1406 
24302000    257.59981   -3887.4283   -3445.9111   -3887.4283            0     7933.159    16.906001    19.913037    20.625282    6943.4977    6634.5898    8497.6446    8667.2425    380.42649    466.67963    237.04253   -2642.5693 
24303000    252.32215    -3892.697   -3460.2255    -3892.697            0    11148.787    16.849303    19.846253     20.55611    6873.8709     10981.39    13712.987     8751.984    -565.9723    956.50164    1266.2906   -2342.5779 
24304000     242.2035   -3838.1632   -3423.0347   -3838.1632            0    10928.649     16.89349      19.8983    20.610019    6928.0936    11884.441    12207.078    8694.4274   -1680.0983    1122.4555   -173.74771   -2318.8135 
24305000    252.50794   -3875.2333   -3442.4434   -3875.2333            0    9636.7184    16.910112    19.917878    20.630297    6948.5633    10550.808    8113.0695    10246.278    909.66025    1192.2177    225.41869   -2465.8808 
24306000    275.34938   -3877.1974    -3405.258   -3877.1974            0    10662.372    16.869608     19.87017    20.580883    6898.7527    10106.535    9401.8769    12478.705    918.92491    3567.3999    -213.6933   -2332.5036 
24307000    262.64908   -3902.8572   -3452.6857   -3902.8572            0    10321.702    16.832631    19.826616    20.535771    6853.4876     11809.82    9537.6124    9617.6728    172.82355    1301.4208    736.33144   -2421.0204 
24308000    246.99528    -3890.673   -3467.3316    -3890.673            0    9029.2357     16.88729    19.890997    20.602455    6920.4685    9014.1968     10593.95    7479.5606    589.03334    498.82262    689.88719   -2556.0295 
24309000    256.93862   -3900.3865   -3460.0025   -3900.3865            0    8557.3483    16.890811    19.895145     20.60675    6924.7981    7980.5145    10374.676     7316.855   -62.339278   -1329.8003   -872.86917   -2595.7866 
24310000    243.42571   -3927.8976   -3510.6743   -3927.8976            0    8285.4527    16.845808    19.842137    20.551846    6869.5949    8322.9318    9402.9486    7130.4778    849.98607   -1210.6797   -389.51139    -2680.588 
24311000    249.55528   -3906.8324   -3479.1031   -3906.8324            0    11314.607    16.823266    19.815586    20.524346    6842.0548    11904.825    11301.761    10737.235    26.231801   -709.87357   -577.38913   -2350.0824 
24312000    257.27183   -3876.9178   -3435.9627   -3876.9178            0    10077.842    16.844744    19.840884    20.550549    6868.2938    9358.3218    11122.145    9753.0588   -147.03816   -609.79465   -1266.1619   -2426.4953 
24313000    261.59321   -3870.7905   -3422.4287   -3870.7905            0    10513.356     16.86158    19.860714    20.571088    6888.9082    11913.545    10542.617     9083.908    124.04403    181.42234    755.63954   -2366.1764 
24314000    273.43408   -3932.0614   -3463.4047   -3932.0614            0    9444.0663    16.859588    19.858368    20.568658     6886.467      9819.67    10096.467    8416.0622   -842.13895   -184.92524    242.72795   -2514.9177 
24315000     238.4648   -3908.4268   -3499.7063   -3908.4268            0    9728.1359    16.830512     19.82412    20.533185    6850.8991    8680.2511    8337.0581    12167.099    1148.5231   -1181.7932    1139.1765   -2527.7358 
24316000    270.77692   -3900.3498   -3436.2474   -3900.3498            0    11320.945    16.844981    19.841162    20.550837    6868.5827    9706.9977    14129.883    10125.955    1368.3598  -0.46285412    1115.2835   -2302.2144 
24317000    257.16907   -3962.0734   -3521.2944   -3962.0734            0    9004.4989    16.923947    19.934174    20.647176    6965.6326    8700.1945    8551.2795    9762.0227   -628.83532   -208.29591   -628.96376   -2606.5579 
24318000    247.72864   -3902.2005   -3477.6021   -3902.2005            0    8540.2918    16.933229    19.945107      20.6585    6977.1002    8926.9723    9282.7965    7411.1065   -957.63525   -37.968471    389.67408   -2608.5945 
24319000    240.21314   -3906.7242   -3495.0071   -3906.7242            0    8252.7133    16.869589    19.870147    20.580859    6898.7291    9305.7465    7678.5297    7773.8636   -276.78427   -1884.1875   -468.86571   -2664.6943 
24320000     265.3384   -3921.6783   -3466.8974   -3921.6783            0    9303.0895    16.861408    19.860512    20.570879    6888.6978    10675.723    7773.1613    9460.3844   -1946.5926    1570.1217    -984.0881   -2532.2663 
24321000    245.77378   -3907.8304   -3486.5826   -3907.8304            0    8554.9678    16.919372    19.928785    20.641594    6959.9847    7226.7594     8887.475    9550.6688   -859.45668    485.21093   -691.12159   -2618.2171 
24322000    265.76478   -3851.4437   -3395.9319   -3851.4437            0    9224.7806    16.917645    19.926751    20.639487    6957.8536    9440.1567    9287.4782     8946.707    682.52217    -412.9923    1512.6595   -2459.8643 
24323000    247.48224   -3901.9519   -3477.7758   -3901.9519            0    9139.9828    16.875364     19.87695    20.587905    6905.8169    8068.4568    10848.496    8502.9953     104.7144   -1840.8251    50.957176   -2557.2492 
24324000    248.75111   -3889.6624   -3463.3115   -3889.6624            0    8198.8312    16.949163    19.963875    20.677939    6996.8146    7367.3219    8099.5053    9129.6664    274.47496      1301.53   -99.340845   -2626.6916 
24325000    253.40949   -3871.4245   -3437.0893   -3871.4245            0    8697.2695    16.885563    19.888963    20.600348    6918.3455    6618.0017    9354.2303    10119.577   -1544.3243   -1176.8644    561.49335   -2559.5611 
24326000     253.4074   -3878.5783   -3444.2467   -3878.5783            0    10048.465    16.914094    19.922568    20.635155    6953.4732    9511.4693    9562.4914    11071.436    767.75565   -2084.1383    331.82062   -2425.2391 
24327000    249.98635   -3879.3986   -3450.9305   -3879.3986            0    9516.4035    16.861767    19.860935    20.571317    6889.1377    10398.937    7053.9213    11096.353   -769.48111    1626.5672    111.18588   -2494.8079 
24328000    271.22817   -3859.6191   -3394.7433   -3859.6191            0    9556.2676    16.874614    19.876066     20.58699    6904.8959    7768.7885    10392.653    10507.362    1272.1966   -1670.9024   -112.63106   -2432.4193 
24329000    250.51748    -3876.717   -3447.3386    -3876.717            0    12041.227    16.847721     19.84439    20.554181    6871.9359    11563.623    12453.318     12106.74   -307.04912   -254.83166   -996.38954   -2240.5652 
24330000    275.09908   -3885.4519   -3413.9415   -3885.4519            0    8637.3945    16.914062     19.92253    20.635116    6953.4337    9013.2762    7929.4905    8969.4167   -281.73919     477.7164    688.80173   -2538.0346 
24331000    256.27345   -3899.5818   -3460.3379   -3899.5818            0    8697.9084    16.887469    19.891207    20.602672    6920.6879    7846.0083    8744.6046    9503.1122    1548.6296   -946.14426    1206.8544   -2582.4481 
24332000    255.61529    -3914.009   -3475.8931    -3914.009            0     9783.654    16.862623    19.861942     20.57236    6890.1862    9229.3757    11203.024    8918.5622    854.35095    607.73007    904.85326   -2492.7699 
24333000    240.76215   -3892.8305   -3480.1724   -3892.8305            0     10665.63    16.882589    19.885459    20.596719    6914.6898    10300.269    12007.735    9688.8857    101.38657    1461.1613     750.4474   -2404.6113 
24334000    256.30175   -3862.8961   -3423.6037   -3862.8961            0    12154.359     16.83013     19.82367    20.532719    6850.4327    11037.087    11935.845    13490.146   -1343.6748     1637.719    386.45292   -2209.3038 
24335000    257.71811   -3915.1522   -3473.4321   -3915.1522            0    10089.918    16.870884    19.871673     20.58244    6900.3185    9547.5531    10999.165    9723.0369    330.59646    720.30971   -1088.8809   -2458.0426 
24336000    248.56164   -3888.0373   -3462.0111   -3888.0373            0     9958.651     16.87838    19.880502    20.591584    6909.5198    8117.2095     12250.32    9508.4235   -1426.9491    1086.2573    259.77494   -2458.4952 
24337000    239.21559   -3894.4694    -3484.462   -3894.4694            0    10468.086    16.877473    19.879434    20.590478    6908.4065    12995.135    7555.6831    10853.441   -2109.5003   -23.976348    876.84343   -2429.7812 
24338000    262.20515   -3881.3331   -3431.9225   -3881.3331            0    11010.403    16.887742    19.891529    20.603005    6921.0235    11991.087    10665.466    10374.655   -760.38538   -987.45976    115.99781   -2320.5762 
24339000    243.10531   -3890.4325   -3473.7583   -3890.4325            0    11194.833    16.814082    19.804768    20.513141    6830.8553    9695.7955    12331.465    11557.239   -775.41199    1256.3525   -181.95799   -2358.5176 
24340000    248.29043   -3872.4685   -3446.9072   -3872.4685            0    11383.058    16.853631    19.851351     20.56139    6879.1694     11620.35    10518.055    12010.769     581.9747     182.2298    1303.9888   -2304.8947 
24341000    247.58768   -3892.8586   -3468.5018   -3892.8586            0    11240.563    16.819789    19.811489    20.520103    6837.8126    13133.778     9912.601    10675.311   -308.87897    538.71801   -1704.2835   -2347.5649 
24342000    257.26911   -3850.6368   -3409.6863   -3850.6368            0    12158.226    16.770373    19.753284    20.459816     6777.722    11716.323    12217.989    12540.367   -1356.9541   -221.93429    -392.3316   -2207.8928 
24343000    256.09382   -3924.7465   -3485.8105   -3924.7465            0    8304.0605    16.906864    19.914052    20.626334    6944.5603     9054.173    7095.4871    8762.5216   -639.43497   -139.28818   -1425.6169   -2644.7811 
24344000    247.75287   -3891.3008   -3466.6609   -3891.3008            0    9657.2859    16.889322     19.89339    20.604933    6922.9665     8185.912    7639.7624    13146.183   -393.25663    756.86111    207.68343   -2491.6192 
24345000    249.62811   -3901.4385   -3473.5844   -3901.4385            0    11375.342    16.838157    19.833125    20.542513    6860.2397    12036.979    10859.212    11229.835    331.85342   -324.60896    1106.2935   -2335.4865 
24346000    253.38216   -3880.7869   -3446.4985   -3880.7869            0    9478.9082    16.862779    19.862126    20.572551    6890.3774    8272.1771    9300.7288    10863.819    682.16585   -150.17716   -860.78851   -2493.9717 
24347000    265.22637   -3912.3365   -3457.7476   -3912.3365            0    9130.1036    16.871959    19.872939    20.583751    6901.6373    7843.4967    11105.485    8441.3294    145.79994      1355.59    1572.1718   -2538.7725 
24348000    242.77874   -3904.0964    -3487.982   -3904.0964            0    9594.4697    16.853586    19.851298    20.561335    6879.1146    9266.6912    8730.2426    10786.475   -363.39045   -4.2850646     2204.463   -2525.4184 
24349000    250.55594   -3896.5316   -3467.0872   -3896.5316            0    8433.8051    16.888357    19.892254    20.603756    6921.7802     8150.678    8432.6387    8718.0986   -684.74252    891.13872    2413.6964   -2615.7194 
24350000    243.35905   -3881.6956   -3464.5866   -3881.6956            0    9264.7136    16.825613     19.81835    20.527209    6844.9184     9434.263    8101.3105    10258.567   -298.27248    1881.3223    108.93606   -2539.7262 
24351000    238.62057   -3899.8463   -3490.8588   -3899.8463            0    10311.799    16.799031     19.78704    20.494779    6812.5279    11389.666    8906.3996    10639.332    1795.5603    294.00939   -263.87872   -2466.3431 
24352000    261.97876    -3888.617   -3439.5944    -3888.617            0    9738.1072     16.84589    19.842233    20.551946    6869.6951    10938.479    9414.6135    8861.2293    469.78557    151.65513    1030.2976   -2463.9582 
24353000    255.13846   -3885.5116    -3448.213   -3885.5116            0    10527.093    16.827632    19.820728    20.529672    6847.3832    8996.6253    12480.688    10103.967    -222.4231    1066.2859   -27.798129   -2396.9558 
24354000    253.06924   -3880.2963   -3446.5442   -3880.2963            0    10613.822    16.795102    19.782412    20.489986    6807.7494    13158.387    8408.4999     10274.58   -1268.5742   -626.97857   -629.12774   -2392.7611 
24355000    258.21446   -3859.2585   -3416.6878   -3859.2585            0    9800.3146    16.845526    19.841804    20.551502    6869.2499    9449.6298    12864.489    7086.8249    633.05643    79.446088   -513.65573   -2434.8829 
24356000    238.24809    -3875.318   -3466.9689    -3875.318            0    10610.042    16.809245     19.79907     20.50724    6824.9617    11236.565    9879.1844    10714.378   -802.00769    920.13639     478.3069   -2410.8976 
24357000    266.19098   -3911.8885   -3455.6463   -3911.8885            0    9562.7124    16.819368    19.810994     20.51959    6837.2994    10525.198    11480.761     6682.178   -251.36338    913.89222   -125.74963   -2502.1005 
24358000    255.62008   -3873.4243   -3435.3002   -3873.4243            0    8848.6604    16.800025     19.78821    20.495991    6813.7372    6204.3965    11544.586    8796.9989    455.43407    867.44381   -1158.9218   -2555.9967 
24359000    253.56836   -3900.7214    -3466.114   -3900.7214            0    9801.9783    16.851735    19.849117    20.559077    6876.8479    9285.2549    9343.0794    10777.601   -1077.2446   -476.69629     -1037.26   -2483.0562 
24360000    252.40327     -3887.15   -3454.5395     -3887.15            0    10212.765    16.832801    19.826816    20.535978    6853.6948    8744.8903    10448.762    11444.642    1241.0594    1752.7951   -538.07035   -2433.7317 
24361000    268.46141   -3910.0685   -3449.9348   -3910.0685            0    8789.5255    16.870291    19.870974    20.581715      6899.59    8496.9132     8973.833    8897.8302   -742.28094   -1056.3377    720.42367   -2565.5025 
24362000    250.97813   -3882.7428   -3452.5749   -3882.7428            0    9329.0394     16.89157    19.896039    20.607676    6925.7317    7849.1242    10234.941    9903.0534   -345.25268    1045.7988    135.32938   -2510.2981 
24363000    247.96548   -3888.4214   -3463.4171   -3888.4214            0     10732.36    16.853325     19.85099    20.561017    6878.7947     10482.04     11311.16     10403.88    -1037.642   -307.96832   -569.80078    -2386.745 
24364000    259.37001   -3863.1958   -3418.6445   -3863.1958            0    9600.6609    16.883324    19.886326    20.597616    6915.5938    8856.2467    8473.9447    11471.791   -158.36818    347.61259    418.02151   -2450.3522 
24365000    269.73803   -3883.8421   -3421.5203   -3883.8421            0    11033.175    16.861771    19.860939    20.571321    6889.1421    11986.698    10650.124    10462.704    45.199689   -1106.7145   -600.94939   -2313.0054 
24366000    243.93891   -3887.4451   -3469.3421   -3887.4451            0     7467.946    16.919761    19.929243    20.642069    6960.4648    7739.1025    7021.4939    7643.2416   -688.44483   -1077.0493    280.86896   -2711.2617 
24367000      251.421   -3907.5222   -3476.5952   -3907.5222            0    8674.0839    16.852271    19.849749    20.559731    6877.5045    7529.5213     8983.179    9509.5513   -117.94901    556.14374   -1770.2693   -2606.5729 
24368000    255.17732   -3923.6401   -3486.2749   -3923.6401            0    9789.3928    16.859711    19.858512    20.568808    6886.6174    10502.405    10057.895    8807.8776    810.92158   -293.33537    165.00464   -2503.0845 
24369000    254.03021   -3884.8866   -3449.4875   -3884.8866            0    9465.0935    16.859557    19.858331     20.56862    6886.4287    10341.628    9648.2018    8405.4505   -1811.3563    670.95983   -1864.4525   -2498.8939 
24370000     254.6561   -3918.1907   -3481.7188   -3918.1907            0    9752.0097    16.891413    19.895853    20.607484    6925.5382    8911.3934      9438.12    10906.516   -1269.1153    -15.14258    1094.4438   -2496.7476 
24371000    257.83242   -3904.1887   -3462.2727   -3904.1887            0    8805.9432    16.889725    19.893865    20.605425    6923.4617    8061.8026    8816.4358    9539.5912    1686.5893   -817.60104    596.68022   -2573.1227 
24372000    261.39331   -3875.0613   -3427.0422   -3875.0613            0    10420.965     16.88173    19.884448    20.595671    6913.6345    10935.467    9927.8824    10399.544    1053.4566     889.8054    540.05729   -2376.3144 
24373000    252.82651   -3918.4047   -3485.0687   -3918.4047            0    10039.932    16.834602    19.828938    20.538176    6855.8953    11028.498    9890.4738    9200.8237   -930.57613   -582.28703    1982.1568   -2481.2141 
24374000    266.25972    -3900.638    -3444.278    -3900.638            0    10487.127    16.793646    19.780697    20.488209    6805.9786    11035.495     12288.48    8137.4052   -541.14481    1168.8793    430.95248   -2403.3445 
24375000    262.85107   -3893.7497    -3443.232   -3893.7497            0    10077.372    16.911394    19.919389    20.631861    6950.1444    9690.6726    10749.968    9791.4756   -771.27615    282.03616    1444.0348   -2421.7822 
24376000    257.63717   -3913.8748   -3472.2935   -3913.8748            0    9912.9489    16.830443    19.824038    20.533101    6850.8143    11860.643    11629.107    6249.0971    1444.1278   -1188.1091   -1219.1949     -2481.87 
24377000    265.17323   -3922.7707   -3468.2728   -3922.7707            0    11024.377    16.775104    19.758856    20.465587    6783.4594    9239.6021    11682.167    12151.363    -472.2804    -283.6909   -1079.3741   -2377.6334 
24378000    250.18466   -3927.7839    -3498.976   -3927.7839            0    8295.9328    16.880046    19.882464    20.593616    6911.5656    9686.3061    6926.8879    8274.6043    1395.1567    -252.2398    329.45644   -2662.7617 
24379000    264.50466   -3908.5982   -3455.2463   -3908.5982            0    9462.6496    16.855808    19.853916    20.564047    6881.8362      10326.5    11608.077    6453.3715   -578.22672      312.031    913.53275    -2505.532 
24380000    249.17169   -3942.7353   -3515.6636   -3942.7353            0    9659.4853    16.815311    19.806215     20.51464    6832.3532    11228.857    8877.0134    8872.5859   -308.00019    1485.5961    234.59915   -2553.1648 
24381000    248.09504   -3935.1765     -3509.95   -3935.1765            0    12462.188    16.808149     19.79778    20.505903     6823.627    12736.002    11350.748    13299.814    1128.7582    1006.7878    57.945496   -2269.7679 
24382000    248.49107   -3880.8213   -3454.9161   -3880.8213            0    11104.407    16.830584    19.824204    20.533273    6850.9865    12591.597    9604.3271    11117.297   -180.36759   -884.78576    1850.1677   -2345.4236 
24383000    253.42751   -3907.0308   -3472.6647   -3907.0308            0    8773.8115    16.824543    19.817089    20.525903    6843.6124    8981.7433    8609.3434    8730.3477    1127.1501   -43.577567   -793.65695   -2596.9764 
24384000    251.79658   -3940.0852   -3508.5145   -3940.0852            0    10706.542    16.852852    19.850433     20.56044    6878.2157    9705.8957    10395.743    12017.987   -885.41044   -228.62753   -1987.3557   -2434.5228 
24385000    253.46082   -3950.3205   -3515.8973   -3950.3205            0    9487.5294     16.80841    19.798087    20.506221    6823.9443    9756.8449    9289.4084     9416.335     1418.511    -418.8629   -541.78926   -2571.6962 
24386000    251.13429   -3909.6279   -3479.1923   -3909.6279            0    6640.6372    16.906018    19.913056    20.625302    6943.5178     7084.249    6176.2353    6661.4273   -1080.7361   -707.42235    1050.4536   -2806.7343 
24387000    260.16379   -3943.9649    -3498.053   -3943.9649            0    7951.5703    16.876392     19.87816    20.589158    6907.0783    7649.0797    8345.5617    7860.0696   -334.95699    631.10046   -58.886041   -2697.0702 
24388000    260.82085   -3922.1748   -3475.1368   -3922.1748            0    9796.1738    16.825615    19.818352    20.527211     6844.921    9425.8443    10984.414    8978.2637     28.08951   -530.01548   -42.469301   -2497.2224 
24389000     236.1966   -3939.4659    -3534.633   -3939.4659            0    8081.2783    16.841289    19.836814    20.546333     6864.068    8105.6287    5620.8765     10517.33    484.48332     1284.721   -585.18008   -2725.6535 
24390000    258.80682   -3927.1705   -3483.5844   -3927.1705            0    10300.507    16.825713    19.818468    20.527331    6845.0409     10358.51    9632.3564    10910.653    382.96428    -1823.428   -565.15262   -2455.3065 
24391000    246.00003    -3931.677   -3510.0414    -3931.677            0    8571.1576    16.844581    19.840692     20.55035    6868.0944    6989.8527    9105.7971     9617.823   -334.29072   -96.955854   -168.22126    -2651.519 
24392000    230.92484   -3895.2488   -3499.4515   -3895.2488            0    8976.2381    16.865038    19.864787    20.575307    6893.1471    7970.6589    9184.3606    9773.6948   -1180.2205    799.21368   -634.53128    -2597.075 
24393000    249.75151    -3943.658   -3515.5925    -3943.658            0    9831.7081    16.845345    19.841592    20.551282    6869.0289    10838.205     9283.196     9373.723    225.12124   -341.45278   -423.47867   -2530.6741 
24394000    255.07142   -3945.0114   -3507.8277   -3945.0114            0    9167.1964    16.888089    19.891938    20.603429    6921.4504    10325.486    8225.5102    8950.5925   -1397.8607   -513.47228    714.40769   -2582.4703 
24395000    263.20156   -3921.9384   -3470.8199   -3921.9384            0    10610.629    16.867386    19.867553    20.578171    6896.0266    9588.5599    12074.681    10168.646   -496.14967    461.48807   -606.95509   -2403.6933 
24396000    241.32093   -3925.8204   -3512.2045   -3925.8204            0    9829.4761    16.830507    19.824114    20.533179    6850.8932    10721.157    9215.0332    9552.2381   -532.03781    205.91756    1179.6749   -2530.1096 
24397000    245.50974   -3940.5643    -3519.769   -3940.5643            0    10013.708    16.868399    19.868746    20.579408    6897.2697    8923.6162    10436.909    10680.598    743.70116     856.7257    705.14895   -2512.4941 
24398000    251.51797    -3947.554   -3516.4608    -3947.554            0    9426.8355    16.878225     19.88032    20.591395    6909.3299    10873.339     9530.138      7877.03   -1896.2118    533.88302   -237.19076   -2566.5611 
24399000    255.09539    -3881.097   -3443.8722    -3881.097            0    8474.5194    16.901868    19.908168    20.620239    6938.4055    7678.3587    9133.6275     8611.572   -558.30344      626.541   -934.25753   -2586.3396 
24400000    258.63585   -3926.7189   -3483.4259   -3926.7189            0    9802.9977    16.827465    19.820531    20.529468    6847.1792    8218.3081     10979.91    10210.775   -115.41954   -687.25465    265.14375   -2504.5075 
24401000    259.86335   -3901.6537   -3456.2568   -3901.6537            0    10387.917    16.851325    19.848635    20.558578     6876.347     9603.975    12446.951    9112.8263    1762.4914   -418.61402   -467.33047     -2414.51 
24402000    252.53597   -3923.3439   -3490.5059   -3923.3439            0    10091.397    16.814934    19.805772    20.514181     6831.894    9188.5548    10076.616    11009.019    -80.72948   -133.69883   -907.34405   -2485.0378 
24403000     264.5036   -3921.0858   -3467.7357   -3921.0858            0    9783.8005    16.892366    19.896975    20.608647      6926.71    11098.901    7976.8661    10275.634     1257.268    74.870132    -1625.541   -2479.3864 
24404000    244.45025   -3907.9157   -3488.9363   -3907.9157            0    10628.789    16.855171    19.853165    20.563269    6881.0553    11017.748    9767.6473    11100.972   -45.851455    -1040.223    168.56813    -2422.304 
24405000     252.8238   -3895.0107   -3461.6793   -3895.0107            0    10291.967    16.852162    19.849621    20.559598    6877.3714    9846.4597    10228.792    10800.649    447.21228   -1395.9587   -858.66775   -2429.4011 
24406000    242.81616   -3894.4565   -3478.2779   -3894.4565            0    11277.278    16.827292    19.820327    20.529257    6846.9674    11654.665    10815.755    11361.412    852.78222    838.05033   -126.64138   -2352.1742 
24407000    242.78916   -3879.0693   -3462.9369   -3879.0693            0    9616.3814    16.908309    19.915755    20.628098    6946.3414    8185.3057    10695.146    9968.6926     295.4011   -120.70386   -815.64989   -2488.7469 
24408000    265.59096   -3914.0403   -3458.8265   -3914.0403            0    11587.856    16.833529    19.827673    20.536866    6854.5837    11650.788    11412.224    11700.556    1357.2795    1192.3254   -1066.7576   -2300.4225 
24409000    247.25096   -3867.6892   -3443.9095   -3867.6892            0     9069.583    16.906304    19.913393    20.625652     6943.871    8193.3557     9126.207    9889.1861    2263.6511    756.54428   -68.739815   -2525.4397 
24410000    265.70862   -3863.1751   -3407.7596   -3863.1751            0    11602.305    16.877747    19.879757    20.590812    6908.7428    10603.918    13405.182    10797.814    -1189.396   -568.37559    705.13232    -2238.747 
24411000    257.86539   -3917.4865   -3475.5141   -3917.4865            0    12581.687    16.846398    19.842831    20.552566    6870.3162     12645.32    14075.277    11024.462     1082.537    1160.5753    1279.2467   -2214.8729 
24412000    251.88762   -3904.6591   -3472.9323   -3904.6591            0     8768.874    16.930637    19.942053    20.655337    6973.8957    7903.2823    8175.9339    10227.406     1205.774    997.40845    799.64865   -2581.0755 
24413000     247.9833   -3868.6657   -3443.6308   -3868.6657            0    13617.953    16.852972    19.850574    20.560586    6878.3624    12858.883     14084.68    13910.296   -1042.1632    602.23458    626.25255   -2077.5614 
24414000    261.84241    -3934.917   -3486.1281    -3934.917            0     11081.77    16.884146    19.887293    20.598618     6916.603    10096.493    10165.754    12983.064   -510.49277   -1012.6615    111.09708   -2368.2926 
24415000    262.89242   -3933.6626    -3483.074   -3933.6626            0    11132.401    16.873746    19.875044    20.585931    6903.8302    10381.207    12172.348    10843.648   -111.42027   -527.81453    657.61599    -2362.205 
24416000    243.78924   -3878.2194    -3460.373   -3878.2194            0    11826.687    16.840539    19.835931    20.545419    6863.1513    10548.477    12023.404     12908.18   -94.250916    1078.0851    867.76123    -2276.616 
24417000    241.54902   -3921.4051   -3507.3983   -3921.4051            0    10487.137     16.85793    19.856415    20.566636    6884.4359    11411.794    11312.929    8736.6888    -287.2871   -241.64009   -797.10539   -2454.4642 
24418000    267.50179   -3890.1389   -3431.6499   -3890.1389            0    10209.665     16.91054    19.918383     20.63082    6949.0918    10719.048    10176.254    9733.6911    680.61745   -382.02972     958.8531   -2396.9476 
24419000    265.85282   -3897.6589   -3441.9962   -3897.6589            0     8704.157     16.90697    19.914178    20.626464    6944.6912     9402.164    9386.5779    7323.7289    381.02811    1401.3607    -309.2018   -2560.4288 
24420000    252.70432   -3909.6318   -3476.5053   -3909.6318            0    7240.9414    16.947202    19.961566    20.675547    6994.3868    7352.8655    7773.9661    6595.9924   -274.99265    34.084765    176.86007   -2737.8861 
24421000    253.53808   -3900.3848   -3465.8292   -3900.3848            0    9945.5136    16.912317    19.920475    20.632987    6951.2821    10503.699    7683.2454    11649.597    965.80216   -1778.5957    336.43704   -2457.5797 
24422000    260.19824   -3902.5405   -3456.5696   -3902.5405            0    10187.707    16.847859    19.844553    20.554349    6872.1044    10244.003     9789.103    10530.016   -775.06438    124.90658    1208.3749   -2435.5311 
24423000    262.90817   -3891.5489   -3440.9333   -3891.5489            0    9251.7388    16.858483    19.857066     20.56731    6885.1131    10740.503    8677.9932      8336.72   -805.92696     200.6394    -660.7254   -2511.9448 
24424000    247.81738   -3872.2939   -3447.5434   -3872.2939            0    8310.8274    16.884351    19.887535    20.598868    6916.8552    7065.9675    11400.808    6465.7069   -1292.8734    1504.2918    451.06211   -2609.1867 
24425000    258.96499   -3870.6654   -3426.8083   -3870.6654            0    9645.2502    16.854157     19.85197    20.562032    6879.8134    9055.3846    9742.6862     10137.68   -677.07973     2272.882   -1552.5285   -2459.0519 
24426000     252.1058   -3911.8495   -3479.7488   -3911.8495            0    9080.6598    16.866327    19.866305    20.576879    6894.7276    8604.8893    9495.4327    9141.6574   -1273.4828   -56.769577    -446.5895   -2566.6655 
24427000    259.40025   -3879.9934   -3435.3903   -3879.9934            0    8693.0262    16.877426    19.879378     20.59042    6908.3478    7890.6148    9144.9662    9043.4975    677.43818    1877.7517    762.00229   -2559.5578 
24428000    262.61332   -3888.2304   -3438.1202   -3888.2304            0    9950.5838    16.896997     19.90243    20.614297    6932.4087    8910.1691    9766.2738    11175.308   -311.39993   -1107.6112   -582.05345   -2432.0956 
24429000    261.30078   -3884.3881   -3436.5275   -3884.3881            0    10555.102    16.841372    19.836912    20.546435      6864.17    11587.427    9867.1933    10210.685   -854.44399   -315.40999   -811.26235   -2379.8892 
24430000    252.25571   -3880.2777     -3447.92   -3880.2777            0    9771.5693    16.848639    19.845471      20.5553    6873.0591     10459.45    8304.3298    10550.928   -1406.2101   -317.48827   -1190.6116   -2468.4519 
24431000    263.27819   -3865.6103   -3414.3605   -3865.6103            0    10220.261    16.761982      19.7434    20.449579    6767.5532    10565.742    8733.0192    11362.022   -1010.0594   -1292.0762   -496.66775    -2405.643 
24432000    273.31693   -3849.2095   -3380.7536   -3849.2095            0    11741.538      16.7705    19.753434    20.459971    6777.8766     10300.64    12884.171    12039.801    613.25396   -322.33157   -766.82141   -2220.1217 
24433000    251.86143   -3866.4022   -3434.7203   -3866.4022            0    10003.817    16.810841     19.80095    20.509186    6826.9052    8726.9364    12950.585    8333.9306   -87.531255    -2211.759    1102.4011   -2438.7061 
24434000     251.8921   -3871.2435   -3439.5091   -3871.2435            0    8365.2284    16.877501    19.879467    20.590512    6908.4405    8547.1744    8106.3904    8442.1203   -940.95973   -1084.5455    1163.2495   -2596.6912 
24435000    262.02685   -3864.7962   -3415.6911   -3864.7962            0    10556.431    16.830217    19.823773    20.532826    6850.5394    9548.7653    10639.188    11481.339    791.54403   -835.08318    886.42167   -2361.0183 
24436000    262.36652   -3870.1563   -3420.4691   -3870.1563            0    8375.6932    16.915777    19.924551    20.637209    6955.5501    7978.5539    7555.6012    9592.9245   -164.44376    780.48528    483.89612   -2570.8424 
24437000    255.81372   -3908.2653   -3469.8093   -3908.2653            0    9918.2982    16.855426    19.853465     20.56358     6881.368    9021.3151    10221.808    10511.771   -804.98666   -1132.0237    738.37327   -2474.4318 
24438000      261.475   -3862.4725   -3414.3133   -3862.4725            0    12972.525     16.79122     19.77784     20.48525    6803.0299    12021.452    13146.187    13749.936    816.27502   -1071.6565    650.96137   -2127.2414 
24439000    255.60617   -3903.3507   -3465.2504   -3903.3507            0    12320.091    16.811928     19.80223    20.510513    6828.2298    11253.122    13584.185    12122.965    -1922.677    235.73867    -1583.329   -2238.3822 
24440000    272.65341   -3871.5607   -3404.2421   -3871.5607            0    10465.365    16.857716    19.856162    20.566374    6884.1726    10010.651    9653.1925     11732.25    745.68277   -2173.1158    428.73538   -2353.5342 
24441000    257.59594   -3871.4919   -3429.9813   -3871.4919            0    10953.482    16.856596    19.854843    20.565007    6882.8008    12243.802    10730.022    9886.6231    501.10804   -147.28637   -956.22063   -2330.4861 
24442000    253.02348   -3879.8152   -3446.1416   -3879.8152            0    9101.0781    16.860582    19.859538    20.569871    6887.6849    8353.1165    8370.1935    10579.924    1213.1852   -2214.6901    19.932764     -2531.94 
24443000    248.93717   -3868.3658    -3441.696   -3868.3658            0    10964.279    16.839684    19.834923    20.544375    6862.1052    10446.011    10606.659    11840.167   -154.28297   -736.23076    236.57109   -2344.4264 
24444000    263.94788   -3861.2913   -3408.8936   -3861.2913            0    9296.4534    16.856802    19.855087    20.565259    6883.0539    7629.1965    10400.857    9859.3065   -972.01221    1065.4869   -408.89384   -2475.6944 
24445000     253.0724   -3886.2495   -3452.4921   -3886.2495            0    9955.3394    16.862167    19.861406    20.571805    6889.6282    9169.3184    12296.428    8400.2716    406.10908   -213.28886   -1131.7954   -2452.1979 
24446000    270.15745   -3945.1106   -3482.0699   -3945.1106            0    9148.4853    16.922092    19.931989    20.644912    6963.3418    10047.876    7969.1468    9428.4331     311.6804   -1158.6794    1147.2262    -2553.012 
24447000    241.38941   -3875.8585   -3462.1253   -3875.8585            0     10469.35    16.897031     19.90247    20.614338    6932.4504    10603.972    9712.8633    11091.215    794.48428   -1328.9642   -225.89271    -2403.646 
24448000    252.02067   -3903.3613   -3471.4065   -3903.3613            0    9834.4012    16.969044    19.987292    20.702194    7021.4645    11819.241    10586.724     7097.239    618.67425   -1249.7534    -32.99938   -2464.3554 
24449000    265.08941   -3881.7867   -3427.4325   -3881.7867            0    12427.556    16.838973    19.834086    20.543508    6861.2366    13546.239    10934.573    12801.856   -1011.8267   -492.60346    677.78334   -2183.8803 
24450000    256.14239    -3916.325   -3477.3057    -3916.325            0    7303.4402    16.933556    19.945493    20.658899    6977.5045    7626.1642    7672.1922    6611.9641    402.70594   -2739.4943   -48.239333   -2734.1095 
24451000    253.42443   -3909.6926   -3475.3318   -3909.6926            0    10096.932    16.942657    19.956213    20.670003    6988.7609    10461.964    9173.0267    10655.806   -611.06849    558.15821   -1233.2303    -2446.213 
24452000    252.96672   -3879.5124   -3445.9362   -3879.5124            0    11036.196    16.832535    19.826503    20.535653    6853.3697    11064.456    11179.464    10864.668   -430.89218    869.64117    1882.3518   -2342.8754 
24453000    255.04313   -3923.7714   -3486.6362   -3923.7714            0    10625.556    16.828846    19.822158    20.531153    6848.8652    10433.661    11199.925    10243.082    783.31303   -390.68622   -244.57222   -2425.3166 
24454000    251.60047   -3910.9977   -3479.7631   -3910.9977            0    9185.8077    16.840755    19.836185    20.545682    6863.4149    7173.1643    8734.2144    11650.044   -1567.4177    31.262839    138.66144   -2560.3017 
24455000    245.04423   -3899.8647   -3479.8673   -3899.8647            0     10861.65    16.813282    19.803826    20.512165    6829.8806    9293.2853    10835.531    12456.134    -520.9123    749.19212    2081.7127    -2397.973 
24456000    254.97891   -3900.7888   -3463.7637   -3900.7888            0    10892.188    16.799002    19.787005    20.494743    6812.4919    11092.855    11117.051    10466.657   -535.05345    755.94196    930.69655   -2381.5899 
24457000    249.36617   -3874.2082   -3446.8031   -3874.2082            0    8669.7511    16.909103     19.91669    20.629066    6947.3197    8183.7549    8704.3633    9121.1352    2522.0315   -214.99334    314.21711    -2568.388 
24458000    253.24593   -3851.0671   -3417.0123   -3851.0671            0    9454.2975    16.810522    19.800574    20.508797    6826.5168    9689.2289    9002.1077    9671.5561    1087.1543    161.05962   -271.57434   -2475.7637 
24459000    248.89316   -3878.4231   -3451.8288   -3878.4231            0    9303.2692    16.853635    19.851356    20.561395    6879.1746    7488.7645    10603.393    9817.6497   -172.07389    344.67914    1583.8563   -2518.4717 
24460000    260.44998   -3863.9502   -3417.5479   -3863.9502            0    9067.7392    16.869472     19.87001    20.580717    6898.5858    10715.464    7811.6088    8676.1452    2033.6129   -606.48376   -99.043398   -2505.2536 
24461000    253.60572   -3888.7804   -3454.1089   -3888.7804            0    10555.055    16.837104    19.831885    20.541228    6858.9527    11011.166    10023.935    10630.064    314.14654   -1132.7413   -233.02304   -2398.2783 
24462000    261.07858   -3891.7106   -3444.2309   -3891.7106            0    7432.2264     16.86857    19.868947    20.579616    6897.4791    8213.4585     7006.324    7076.8967   -1696.9062   -745.82572   -1451.1038   -2696.6035 
24463000    261.02398   -3873.1069   -3425.7207   -3873.1069            0    9887.5007    16.851206    19.848495    20.558432    6876.2012    12880.091    10156.598    6625.8129    330.02036    611.16881    654.10705    -2434.179 
24464000    254.57182   -3901.0394    -3464.712   -3901.0394            0    10627.922    16.847102    19.843661    20.553425    6871.1779    10912.108    7937.7932    13033.866     840.2961   -405.07295    962.49161   -2399.6976 
24465000    241.69671    -3922.026   -3507.7661    -3922.026            0    9543.2908    16.807128    19.796577    20.504657    6822.3834      9251.34    9368.1793    10010.353   -978.03787   -970.70175     874.5779   -2558.2329 
24466000    247.38221   -3874.8044   -3450.7997   -3874.8044            0     10754.03    16.804894    19.793946    20.501932    6819.6633    10323.994    10398.069    11540.027    90.266269   -7.5747094    1105.9141   -2381.2277 
24467000    249.52859   -3900.1315   -3472.4481   -3900.1315            0    11710.311     16.75816    19.738899    20.444916    6762.9249    11389.622    10886.877    12854.433   -1088.5325    847.64529    1470.0281   -2317.4563 
24468000    261.76927   -3889.0958   -3440.4322   -3889.0958            0    10485.088    16.831798    19.825635    20.534755      6852.47    9627.2822    10249.072    11578.911   -11.240015    -1431.615   -423.03409   -2392.5919 
24469000    261.34667   -3881.0769   -3433.1377   -3881.0769            0    10685.709    16.836841    19.831575    20.540907     6858.631    11349.597    7707.7274    12999.802    974.89356    314.52625   -778.14646   -2364.2879 
24470000     250.6421    -3903.451    -3473.859    -3903.451            0    9786.9116    16.850368    19.847507    20.557409    6875.1745    11693.868    7358.0903    10308.777    2000.3184   -174.12257   -225.05989   -2492.5511 
24471000    255.32847   -3872.8427   -3435.2184   -3872.8427            0    9503.6342    16.857828    19.856295    20.566511    6884.3108    9122.4038    9939.8141    9448.6847   -198.91329    1985.6576   -45.267403   -2481.0477 
24472000     251.5273   -3891.4016   -3460.2924   -3891.4016            0    10830.631    16.844608    19.840723    20.550382    6868.1268    11424.748    11011.536    10055.607    -1842.844   -488.02604   -378.27054   -2375.4468 
24473000     242.4452   -3857.7636   -3442.2208   -3857.7636            0    10590.563    16.874659    19.876119    20.587044     6904.951    9854.4976    11122.328    10794.862   -1.5870384   -233.28607    726.94958   -2375.7339 
24474000     255.7477   -3854.7319   -3416.3891   -3854.7319            0    10342.634    16.863919    19.863469    20.573941    6891.7748     9731.278    11549.276    9747.3492   -747.05364    2242.4303   -25.649493   -2376.8564 
24475000    252.44211   -3911.0168   -3478.3397   -3911.0168            0    9418.7772    16.871531    19.872435    20.583228    6901.1115     7477.595    9911.9872    10866.749   -306.04117    1406.2984    495.94235   -2530.3809 
24476000     259.6991   -3895.4758   -3450.3604   -3895.4758            0    10016.227    16.864974    19.864711    20.575229    6893.0687    11588.912    8828.4476    9631.3205   -356.28666    556.12097   -592.99082   -2443.4458 
24477000    281.74381   -3884.5435   -3401.6442   -3884.5435            0    8780.2229    16.889158    19.893197    20.604733    6922.7648     8546.958    8410.6382    9383.0725   -157.25216    738.59065    777.55567   -2515.1804 
24478000    255.23621   -3885.6502    -3448.184   -3885.6502            0    9654.4519    16.885999    19.889476    20.600879    6918.8812    8103.7544    10284.333    10575.268    1306.8377    102.64993    473.33935   -2474.0036 
24479000    256.78088   -3882.4097   -3442.2961   -3882.4097            0     9977.215    16.909045    19.916622    20.628996    6947.2489    9558.4305    10872.618    9500.5965    501.23638   -626.29241   -350.13744   -2431.4196 
24480000    264.29828   -3886.1507   -3433.1525   -3886.1507            0    7569.8735    16.986892    20.008314    20.723968    7043.6429    8632.1978    6714.4511    7362.9715   -310.88841    79.753381   -819.27735   -2655.5425 
24481000    253.77233   -3848.3854   -3413.4284   -3848.3854            0    10749.195    16.894222    19.899162    20.610911    6928.9934     10238.55    10515.129    11493.905   -37.167755    109.63817    201.61892   -2327.1979 
24482000    244.69313   -3864.2422   -3444.8465   -3864.2422            0    8538.0398    16.848836    19.845703     20.55554    6873.2997    9481.9751    8180.9018    7951.2426   -578.08733    496.91749    1556.6375   -2588.9932 
24483000    250.17523   -3896.9985   -3468.2067   -3896.9985            0    9522.1734    16.829558    19.822996    20.532022    6849.7344    8406.7701    10149.601    10010.149   -77.642069    900.20246   -440.01572   -2516.9763 
24484000    270.32416   -3897.7009   -3434.3745   -3897.7009            0    10304.993    16.847594     19.84424    20.554025      6871.78    9080.1527    10004.062    11830.763    505.89326    -127.8163    1706.8608   -2401.6302 
24485000    247.42162   -3912.8421   -3488.7699   -3912.8421            0    10038.055    16.871979    19.872962    20.583775    6901.6613    9769.0478    10153.954    10191.164   -1657.0731      1376.78    1120.1637    -2478.403 
24486000    258.23611   -3914.3834   -3471.7756   -3914.3834            0    9559.2465    16.850231    19.847346    20.557242    6875.0072     9290.092    10619.221    8768.4269   -1010.4121    835.93311    768.12432   -2513.3184 
24487000    253.78305   -3887.1375    -3452.162   -3887.1375            0    9998.4814     16.82758    19.820667    20.529609    6847.3198    12404.374    8804.9484    8786.1217    917.41436   -1234.8141   -80.475838   -2453.7023 
24488000    257.81532   -3907.1298   -3465.2432   -3907.1298            0    10790.296     16.80215    19.790713    20.498583    6816.3225    10302.786    10925.791    11142.312   -16.273565    366.83412     439.3847   -2392.5898 
24489000    250.62715   -3910.8688   -3481.3025   -3910.8688            0    11071.396     16.79441    19.781596     20.48914    6806.9068    11196.607     10797.73    11219.851   -451.68767     573.3446     408.9734   -2382.2256 
24490000    254.38731   -3915.5723   -3479.5612   -3915.5723            0    8522.3018    16.824072    19.816535    20.525329    6843.0384    7903.4529    9085.0592    8578.3935    364.84706    -2011.284    334.37242   -2629.0466 
24491000    258.85381   -3933.9655   -3490.2989   -3933.9655            0    10807.359    16.783035    19.768198    20.475264    6793.0857    10219.304    10270.869    11931.905    1061.9678    -560.0465    1158.0354   -2419.6117 
24492000    256.64343   -3904.3491    -3464.471   -3904.3491            0    9883.6372    16.843255     19.83913    20.548732    6866.4725    10301.616    11200.606    8148.6899   -687.75439   -1331.3057    252.37542   -2474.7191 
24493000    265.56137   -3905.7493   -3450.5862   -3905.7493            0    8587.5435    16.916705    19.925644    20.638341    6956.6944     7358.124    8507.8492    9896.6571   -941.69424    -437.5036     832.6532   -2579.3262 
24494000    259.93588   -3903.7633   -3458.2421   -3903.7633            0     11993.82    16.808472     19.79816    20.506297    6824.0201    12375.758    11565.575    12040.129   -794.56518    1425.0692    -151.7768   -2264.6011 
24495000    259.33466   -3868.5412   -3424.0504   -3868.5412            0    11952.364    16.786177      19.7719    20.479097    6796.9021    14951.962    10707.467    10197.663   -1569.2254    823.15927   -457.06913   -2239.2623 
24496000    257.88604   -3909.8519    -3467.844   -3909.8519            0    8754.7242    16.874961    19.876476    20.587414    6905.3223    10327.587     7011.714    8924.8712   -374.75435    1056.5044   -1735.6849   -2586.1816 
24497000    253.02481   -3894.2592   -3460.5833   -3894.2592            0    7553.0341    16.906696    19.913855     20.62613    6944.3538    6729.3868    7609.1086     8320.607     8.098422   -1265.7983   -1439.2653   -2695.6401 
24498000    271.24674   -3889.6498   -3424.7422   -3889.6498            0    8602.4428    16.892235    19.896821    20.608487    6926.5489    5873.8678    10078.461    9855.0001   -698.59994    1179.1146    1111.7667   -2555.7526 
24499000    235.80125    -3876.486   -3472.3307    -3876.486            0    9446.1841    16.860085    19.858953    20.569265    6887.0761    10311.093    8001.9303    10025.529   -2268.5429    798.72391    906.07852   -2523.5471 
24500000    260.53806   -3890.9729   -3444.4196   -3890.9729            0     9468.544    16.942964    19.956573    20.670376    6989.1396    7845.4252    11214.743    9345.4642   -97.378939    1908.4649    539.09562   -2479.2962 
Loop time of 408.819 on 64 procs for 250000 steps with 864 atoms

Performance: 105.670 ns/day, 0.227 hours/ns, 611.518 timesteps/s
99.1% CPU use with 64 MPI tasks x 1 OpenMP threads

MPI task timing breakdown:
Section |  min time  |  avg time  |  max time  |%varavg| %total
---------------------------------------------------------------
Pair    | 21.732     | 27.199     | 32.034     |  50.3 |  6.65
Bond    | 0.268      | 0.2791     | 0.29513    |   1.0 |  0.07
Kspace  | 173.62     | 180.02     | 187.47     |  24.3 | 44.03
Neigh   | 5.1872     | 5.5139     | 6.0328     |  11.0 |  1.35
Comm    | 87.806     | 93.417     | 97.219     |  22.4 | 22.85
Output  | 1.2266     | 1.2279     | 1.2341     |   0.1 |  0.30
Modify  | 94.814     | 96.562     | 98.015     |   7.9 | 23.62
Other   |            | 4.6        |            |       |  1.13

Nlocal:        13.5000 ave          19 max           8 min
Histogram: 2 3 7 8 10 14 10 6 1 3
Nghost:        2268.12 ave        2301 max        2229 min
Histogram: 3 2 6 3 11 13 8 9 7 2
Neighs:        4412.48 ave        6293 max        2300 min
Histogram: 1 3 3 7 13 15 13 4 4 1

Total # of neighbors = 282399
Ave neighs/atom = 326.85069
Ave special neighs/atom = 2.0000000
Neighbor list builds = 13233
Dangerous builds = 0

unfix		3
unfix		2
unfix		1

write_data	data.final.${pid}
write_data	data.final.0
System init for write_data ...
PPPM initialization ...
  extracting TIP4P info from pair style
  using 12-bit tables for long-range coulomb (../kspace.cpp:340)
  G vector (1/distance) = 0.37441726
  grid = 24 24 24
  stencil order = 5
  estimated absolute RMS force accuracy = 0.0031432877
  estimated relative force accuracy = 9.4659176e-06
  using double precision FFTW3
  3d grid and FFT values/proc = 2535 216
Last active /omp style is kspace_style pppm/tip4p/omp
WARNING: Not all mixed pair coeffs generated from mixing. Use write_data with 'pair ij' option to store all pair coeffs. (../write_data.cpp:312)

write_restart   restart.lmp.${pid}
write_restart   restart.lmp.0
System init for write_restart ...
PPPM initialization ...
  extracting TIP4P info from pair style
  using 12-bit tables for long-range coulomb (../kspace.cpp:340)
  G vector (1/distance) = 0.37441726
  grid = 24 24 24
  stencil order = 5
  estimated absolute RMS force accuracy = 0.0031432877
  estimated relative force accuracy = 9.4659176e-06
  using double precision FFTW3
  3d grid and FFT values/proc = 2535 216
Last active /omp style is kspace_style pppm/tip4p/omp
Total wall time: 0:06:49
