LAMMPS (30 Jul 2021)
  using 1 OpenMP thread(s) per MPI task
package omp 0
using multi-threaded neighbor list subroutines
echo both

include		in.partitions
variable        pid world 0
include		in.temp
variable        temperature equal 254.50
variable	tempDamp equal 100.0
include		in.pressure
variable        pressure equal 6125.0
variable        pressureDamp equal 1000.0 # This is 1 ps
include		in.seed
variable        seed world 745823

units		real
atom_style	full
read_restart	restart.lmp.${pid}
read_restart	restart.lmp.0
Reading restart file ...
  restart file = 30 Jul 2021, LAMMPS = 30 Jul 2021
  restoring atom style full from restart
  orthogonal box = (0.52453390 1.7093629 0.63993013) to (17.683039 21.919815 21.573266)
  4 by 4 by 4 MPI processor grid
  restoring pair style lj/cut/tip4p/long/omp from restart
  restoring bond style harmonic/omp from restart
  restoring angle style harmonic/omp from restart
  864 atoms
  576 bonds
  288 angles
Finding 1-2 1-3 1-4 neighbors ...
  special bond factors lj:    0        0        0       
  special bond factors coul:  0        0        0       
     2 = max # of 1-2 neighbors
     1 = max # of 1-3 neighbors
     1 = max # of 1-4 neighbors
     2 = max # of special neighbors
  special bonds CPU = 0.600 seconds
  read_restart CPU = 0.834 seconds
include 	in.setup
variable	out_freq equal 1000
variable	out_freq2 equal 10000
variable	out_freq3 equal 1000

timestep	2.0

neigh_modify    delay 7 every 1

include		in.tip4p
# This is TIP4P/Ice

# create groups ###
group ox type 2
288 atoms in group ox
group hy type 1
576 atoms in group hy

# set charges - beside manually ###
set group ox charge -1.1794
Setting atom values ...
  288 settings made for charge
set group hy charge 0.5897
Setting atom values ...
  576 settings made for charge

# ### TIP3P Potential Parameters ###
pair_style lj/cut/tip4p/long/omp 2 1 1 1 0.1577 8.5
pair_coeff 1 1*2 0.000 0.000
pair_coeff 2 2 0.21084 3.1668
bond_style  harmonic
bond_coeff  1 450 0.9572
angle_style harmonic
angle_coeff 1 55 104.52
kspace_style pppm/tip4p/omp 1.0e-5
pair_modify tail yes

thermo          ${out_freq}
thermo          1000
thermo_style    custom step temp pe etotal epair emol press lx ly lz vol pxx pyy pzz pxy pxz pyz enthalpy

restart 	${out_freq3} restart.lmp.${pid} restart2.lmp.${pid}
restart 	1000 restart.lmp.${pid} restart2.lmp.${pid}
restart 	1000 restart.lmp.0 restart2.lmp.${pid}
restart 	1000 restart.lmp.0 restart2.lmp.0


include         in.dump
dump            myDump all atom ${out_freq2} dump.water.${pid}
dump            myDump all atom 10000 dump.water.${pid}
dump            myDump all atom 10000 dump.water.0
dump            myDump2 all dcd ${out_freq2} dump.dcd
dump            myDump2 all dcd 10000 dump.dcd
dump_modify     myDump append yes
dump_modify     myDump2 append yes


variable natoms 	equal  "count(all)"                        # NUMBER ATOMS
variable H      	equal  "enthalpy/v_natoms"                 # ENTHALPY-per-atom
variable Vol      	equal  "vol/v_natoms"                 # volume-per-atom
fix AVG all 		ave/time ${out_freq} 1 ${out_freq} v_Vol v_H file vol_enthalpy.dat
fix AVG all 		ave/time 1000 1 ${out_freq} v_Vol v_H file vol_enthalpy.dat
fix AVG all 		ave/time 1000 1 1000 v_Vol v_H file vol_enthalpy.dat


timer           timeout 23:50:00 every 1000
New timer settings: style=normal  mode=nosync  timeout=23:50:00

fix 		1 all shake 1e-6 200 0 b 1 a 1
       0 = # of size 2 clusters
       0 = # of size 3 clusters
       0 = # of size 4 clusters
     288 = # of frozen angles
  find clusters CPU = 0.014 seconds
fix             2 all nph iso ${pressure} ${pressure} ${pressureDamp}
fix             2 all nph iso 6125 ${pressure} ${pressureDamp}
fix             2 all nph iso 6125 6125 ${pressureDamp}
fix             2 all nph iso 6125 6125 1000
fix             3 all temp/csvr ${temperature} ${temperature} ${tempDamp} ${seed}
fix             3 all temp/csvr 254.5 ${temperature} ${tempDamp} ${seed}
fix             3 all temp/csvr 254.5 254.5 ${tempDamp} ${seed}
fix             3 all temp/csvr 254.5 254.5 100 ${seed}
fix             3 all temp/csvr 254.5 254.5 100 745823

run             250000
PPPM initialization ...
  extracting TIP4P info from pair style
  using 12-bit tables for long-range coulomb (../kspace.cpp:340)
  G vector (1/distance) = 0.37337285
  grid = 24 24 24
  stencil order = 5
  estimated absolute RMS force accuracy = 0.0032639043
  estimated relative force accuracy = 9.829151e-06
  using double precision FFTW3
  3d grid and FFT values/proc = 2535 216
Last active /omp style is kspace_style pppm/tip4p/omp
Neighbor list info ...
  update every 1 steps, delay 7 steps, check yes
  max neighbors/atom: 2000, page size: 100000
  master list distance cutoff = 10.8154
  ghost atom cutoff = 10.8154
  binsize = 5.4077, bins = 4 4 4
  1 neighbor lists, perpetual/occasional/extra = 1 0 0
  (1) pair lj/cut/tip4p/long/omp, perpetual
      attributes: half, newton on, omp
      pair build: half/bin/newton/omp
      stencil: half/bin/3d
      bin: standard
Per MPI rank memory allocation (min/avg/max) = 9.233 | 9.237 | 9.241 Mbytes
Step Temp PotEng TotEng E_pair E_mol Press Lx Ly Lz Volume Pxx Pyy Pzz Pxy Pxz Pyz Enthalpy 
 8500000    265.64704   -3868.7872   -3413.4773   -3868.7872            0    5489.6953    17.158505    20.210452    20.933336    7259.2858    5481.5567    6137.6128    4849.9164   -519.68166   -1397.2035    546.73446   -2832.2874 
 8501000    253.76705   -3892.1363   -3457.1882   -3892.1363            0    3842.9367    17.253648    20.322518     21.04941    7380.7141     4417.453    5499.0116    1612.3454    464.60145   -545.34695    2411.2892    -3043.534 
 8502000    256.09975   -3890.6959   -3451.7497   -3890.6959            0    6307.2671     17.15546    20.206866    20.929621    7255.4224    6316.6162    7084.3667    5520.8185    338.42636   -1041.0131     168.8695   -2784.3595 
 8503000    245.97322   -3876.5817   -3454.9921   -3876.5817            0     4749.653    17.112095    20.155787    20.876716    7200.5408    5222.1687    4559.7276    4467.0628   -390.09775    694.66893    236.69502   -2956.2191 
 8504000    239.31131   -3928.1373   -3517.9659   -3928.1373            0    4991.4965    17.156691    20.208316    20.931123     7256.984     5517.887    3664.0388    5792.5637   -789.95406    163.61935   -239.55088   -2989.6875 
 8505000    253.73966   -3886.4817   -3451.5806   -3886.4817            0    7644.9644    17.086835    20.126035    20.845899     7168.701    8036.1214    6557.7921    8340.9798    -760.0005   -2399.8108    29.207835   -2652.3137 
 8506000     267.0538   -3925.2469   -3467.5258   -3925.2469            0    7272.1897    17.119023    20.163948    20.885168    7209.2901    8479.1088    6867.2022     6470.258   -694.36389     436.9057    885.12637   -2702.9271 
 8507000    259.80688   -3917.4405   -3472.1404   -3917.4405            0    6237.4513     17.18885    20.246195    20.970357    7297.8687     6180.635    6026.4301    6505.2888   -166.78772    1162.7835     587.6647   -2808.2764 
 8508000    262.99254   -3912.5397   -3461.7795   -3912.5397            0    5545.4395    17.204315    20.264411    20.989224    7317.5846     3784.035    6186.9092    6665.3743   -1153.8113   -617.19578   -119.44157   -2869.9731 
 8509000    274.03965   -3902.7302   -3433.0356   -3902.7302            0    6819.6219    17.167982    20.221615    20.944898    7271.3214     5020.769    6541.7524    8896.3442    516.82293   -194.56023   -362.36965   -2709.8505 
 8510000    248.57339   -3889.7023    -3463.656   -3889.7023            0    7885.1873    17.187192    20.244241    20.968334    7295.7567    7500.5149    8515.9119    7639.1351    245.50777    507.41684    746.64141   -2624.6632 
 8511000    248.21114    -3887.057   -3461.6316    -3887.057            0    6609.7917    17.236279     20.30206    21.028221     7358.447    5800.1013    6560.1168    7469.1571   -1351.3648    165.83808   -710.11829   -2752.2992 
 8512000    271.33967   -3892.7019    -3427.635   -3892.7019            0    7089.7746    17.189517     20.24698    20.971171    7298.7184    7473.3743    7436.1318    6359.8178   -1755.4614   -94.568368    609.36155   -2672.9687 
 8513000    258.68155   -3871.4734   -3428.1021   -3871.4734            0    6511.5497    17.132594    20.179933    20.901725    7226.4496    6429.3155    8450.3282    4655.0053   -1181.1589   -463.09857     -225.547   -2741.8476 
 8514000    238.66684   -3872.7578    -3463.691   -3872.7578            0    7756.7671    17.068251    20.104145    20.823226    7145.3354    7034.4461    9490.1933     6745.662   -66.606092    1950.3739   -215.61752   -2655.3785 
 8515000    249.39758   -3870.3176   -3442.8587   -3870.3176            0     7967.318    17.134167    20.181785    20.903644    7228.4397    7587.4366    8809.9078    7504.6097   -730.79856    92.874377    -234.9263    -2602.949 
 8516000    248.12339   -3868.3699   -3443.0949   -3868.3699            0    5884.8203    17.090816    20.130723    20.850755    7173.7124    6658.2336    5571.6084    5424.6189    -740.3964    82.967409    77.151361   -2827.4177 
 8517000    249.64651   -3869.5344   -3441.6488   -3869.5344            0    6632.4963    17.121001    20.166277    20.887581    7211.7894    8124.4124       4338.5    7434.5765   -506.35597   -612.27713   -64.775091   -2744.0657 
 8518000    237.90166    -3908.035   -3500.2797    -3908.035            0    7209.1901    17.107133    20.149943    20.870662    7194.2789     5959.012    9532.7683      6135.79   -710.20485    2208.9481   -495.87765   -2743.8829 
 8519000    242.28385   -3878.3176   -3463.0514   -3878.3176            0    4898.7425    17.103313    20.145443    20.866001    7189.4603    6031.9924    4901.2523    3762.9827    789.41113    667.29326    1641.4188   -2949.4138 
 8520000    266.41051   -3941.1489   -3484.5303   -3941.1489            0    7065.0378    17.123797    20.169571    20.890992    7215.3231    8063.9996    6205.9924    6925.1216   -502.44391    -3.423486    615.83471   -2741.0899 
 8521000    262.06963   -3944.9099   -3495.7315   -3944.9099            0    6128.5134    17.192568    20.250574    20.974893    7302.6053    7095.5535    7406.8873    3883.0994   -1463.5663   -636.47532    475.77087   -2843.0387 
 8522000    252.21036   -3868.0876   -3435.8077   -3868.0876            0    7582.9883     17.09845    20.139716    20.860069    7183.3302    8517.6257     6923.865    7307.4743     1041.006    1318.2183    780.52366   -2641.4025 
 8523000    247.22291   -3897.1454   -3473.4138   -3897.1454            0    5578.8975    17.171774    20.226082    20.949524    7276.1406    5602.3762    5380.7431    5753.5732    538.21411     480.2629     276.9778   -2881.4088 
 8524000    262.44684   -3832.4464   -3382.6215   -3832.4464            0    6309.2667    17.233167    20.298395    21.024424    7354.4621    6140.7147    6638.9192    6148.1664    153.88676   -119.67005     35.09116   -2705.9067 
 8525000    248.10957   -3861.1869   -3435.9356   -3861.1869            0    5787.5689    17.161492    20.213971     20.93698    7263.0784    5323.4465     5945.914    6093.3461     978.0338   -836.10661   -827.32729     -2822.89 
 8526000    268.76971   -3848.2845   -3387.6224   -3848.2845            0    7037.8015    17.102198     20.14413    20.864641    7188.0545    6687.1914    7025.1393    7401.0737   -988.23873   -122.43265   -174.66909   -2649.8469 
 8527000    260.51408   -3869.7422     -3423.23   -3869.7422            0    5712.1805    17.164452    20.217457    20.940591    7266.8366    6250.6189    6083.4256    4802.4969   -1529.8036    251.43266   -158.37787   -2817.8568 
 8528000    253.06563   -3882.0225   -3448.2767   -3882.0225            0    4052.4544    17.183185    20.239522    20.963445    7290.6552    5105.5154    2723.4246     4328.423   -987.97749   -1405.6744   -203.16865   -3017.3925 
 8529000    243.50364   -3851.6944   -3434.3375   -3851.6944            0     6924.249    17.141294     20.19018    20.912339     7237.464    6830.5641    6443.8732    7498.3098    581.24632   -487.91049    1220.0718   -2703.4761 
 8530000    256.72135    -3851.764   -3411.7524    -3851.764            0    6308.6272    17.154969    20.206288    20.929022    7254.7995     6689.531    6486.7999    5749.5508    954.20721   -746.12564    1282.1475   -2744.2756 
 8531000    250.07225   -3815.6561   -3387.0408   -3815.6561            0    6510.0571    17.155933    20.207423    20.930198     7256.022     6717.666    8099.6902    4712.8151    704.22839   -301.46615    861.21659   -2698.1359 
 8532000     250.8116   -3869.4009   -3439.5184   -3869.4009            0     5273.394    17.187117    20.244153    20.968242    7295.6613    6602.6469    4566.2442    4651.2908    717.12274   -2074.5344   -241.72397   -2878.4307 
 8533000    259.55955   -3881.4822   -3436.6061   -3881.4822            0    6467.6163     17.16959     20.22351     20.94686    7273.3651    8427.6154    3417.8573    7557.3761    1053.2395    116.75955    877.73718   -2750.5564 
 8534000    251.72331   -3926.3662   -3494.9211   -3926.3662            0    5151.9727    17.079722    20.117656    20.837221    7159.7519    5385.7265    5734.2601    4335.9314   -114.52837    832.21847    1319.4755   -2956.9643 
 8535000    249.37483   -3935.2703   -3507.8504   -3935.2703            0     6325.046    17.116878    20.161421    20.882551    7206.5804    6891.2173    6097.7026    5986.2182    853.14959    -610.9859      596.196   -2843.0844 
 8536000    245.47249   -3907.1507   -3486.4192   -3907.1507            0    6607.4902    17.076873      20.1143    20.833745    7156.1692    7482.6208    4567.8683    7771.9816    -323.1968   -2.3259987   -839.41189   -2796.8259 
 8537000    259.96066    -3891.978   -3446.4143    -3891.978            0    6259.8923    17.104697    20.147074    20.867691    7191.2067     9337.017    4686.5495    4756.1103    572.76088     1059.608   -181.36194   -2789.8995 
 8538000    253.29106   -3906.4294   -3472.2972   -3906.4294            0    4577.6954    17.249719    20.317891    21.044617    7375.6735    5143.2828    4695.6005    3894.2029    1127.5621    456.95668   -37.124974   -2979.8899 
 8539000    254.80158   -3928.9312   -3492.2101   -3928.9312            0    4250.3855    17.221442    20.284584    21.010119    7339.4602    4426.2633    3623.8654    4701.0277     679.5349   -672.06717     567.7422   -3037.2552 
 8540000     255.9322   -3937.3442   -3498.6852   -3937.3442            0    6070.8586    17.165094    20.218214    20.941375    7267.6529    7774.9042    5420.3435    5017.3281    1591.8363   -245.72009    327.08515   -2855.2272 
 8541000     247.2221   -3907.3399   -3483.6097   -3907.3399            0    5863.2394    17.158447    20.210384    20.933266     7259.213    4168.9681    6362.1912    7058.5589    -460.3645   -866.40547   -173.34434   -2862.8793 
 8542000    252.45649   -3921.4519   -3488.7501   -3921.4519            0    7165.5016    17.140422    20.189153    20.911275    7236.3596    5636.0898     7037.851    8822.5641    -198.5254    1539.2273    183.95709   -2732.5398 
 8543000    240.86064   -3872.2379    -3459.411   -3872.2379            0    6189.5956    17.155681    20.207126    20.929891    7255.7028    5051.0892    6862.8227    6654.8749   -642.47663   -295.43834   -1592.9478   -2804.4467 
 8544000     265.7145   -3908.2477   -3452.8222   -3908.2477            0    8003.5488    17.118115    20.162878     20.88406    7208.1433    9038.5193    6452.2811    8519.8459    -750.1324    864.95663    1207.1008   -2611.4621 
 8545000    249.30837   -3951.9301   -3524.6241   -3951.9301            0    5486.9528    17.197398    20.256263    20.980786    7308.7621    4897.7472    5328.5874    6234.5239    802.81393   -644.24256    185.38006   -2939.7654 
 8546000    257.11821   -3890.4483   -3449.7565   -3890.4483            0    3493.7191    17.220737    20.283754    21.009259    7338.5596    3592.4061    3557.1641    3331.5872   -1900.4242    255.56291   -320.84882   -3075.8399 
 8547000    257.40873   -3941.0296   -3499.8399   -3941.0296            0    6871.1155    17.099508    20.140962     20.86136    7184.6637    5917.3388    6290.8996    8405.1079   -1136.8463    574.99027    57.174563   -2779.8779 
 8548000    254.62934   -3881.8331   -3445.4071   -3881.8331            0    8873.3766    17.066237    20.101773    20.820769     7142.807    9658.2491    9779.8562    7182.0246    899.83675    580.12814    494.12849   -2521.0629 
 8549000    264.46509    -3887.486   -3434.2019    -3887.486            0    5590.8646    17.163739    20.216617    20.939721    7265.9311    5889.3951    4693.9036    6189.2952    1800.7347   -396.05296    613.19755   -2841.7595 
 8550000    263.81173   -3899.4342   -3447.2699   -3899.4342            0    4723.4819    17.235007    20.300562    21.026669    7356.8178    6772.3935    3956.5143     3441.538   -87.871885   -18.500401    882.66704   -2940.4798 
 8551000    273.37138   -3919.4945   -3450.9453   -3919.4945            0    4702.7268    17.217412    20.279837    21.005202    7334.3091     3763.388    4192.2446    6152.5477    359.89036   -220.50015   -1001.8383   -2947.9258 
 8552000    245.37278   -3902.9879   -3482.4274   -3902.9879            0    5730.8873    17.219143    20.281876    21.007314    7336.5211    6871.0847    6411.5417    3910.0354    308.58677   -1478.9532   -584.94743   -2869.2474 
 8553000    260.44224   -3932.2366   -3485.8475   -3932.2366            0    6395.4547    17.126891    20.173216    20.894768    7219.2357    6830.7052     5033.296    7322.3627   -1164.5102   -466.06428    357.04559   -2812.5011 
 8554000    258.83142     -3876.19   -3432.5618     -3876.19            0    4468.4107    17.167891    20.221508    20.944787    7271.2053    3861.1237    4471.3316    5072.7768   -460.16761   -358.14471    521.16668   -2958.7178 
 8555000    256.30117   -3897.4738   -3458.1824   -3897.4738            0    7678.5112    17.115635    20.159957    20.881034    7205.0106    4761.9829    9537.2451    8736.3058     157.6958   -1958.7597   -524.04131   -2651.3422 
 8556000    264.51197    -3887.273   -3433.9086    -3887.273            0    5466.3237     17.18414    20.240647    20.964611    7291.8717    4816.3179    5965.0208    5617.6323   -703.79509    1206.0252    260.13604   -2852.5953 
 8557000    261.64922   -3909.6804   -3461.2226   -3909.6804            0    6589.2698    17.158809    20.210811    20.933707    7259.6726    5139.9886    6102.1179    8525.7029    41.365971   -118.74369   -918.04123   -2763.5844 
 8558000    259.10745   -3888.4605   -3444.3592   -3888.4605            0    6940.2689    17.126489    20.172742    20.894276    7218.7266    7789.8186    6506.0915    6524.8966    1430.7744   -109.74398   -101.60061   -2713.7034 
 8559000    256.97153   -3897.8664    -3457.426   -3897.8664            0    6055.0221    17.163646    20.216508    20.939608    7265.8135    6613.1849    5181.1208    6370.7608   -545.37219    1539.9372   -2065.7825    -2815.809 
 8560000    246.89548   -3906.8704      -3483.7   -3906.8704            0    5785.1315    17.107181    20.149999     20.87072    7194.3391    4957.6947    4723.1362    7674.5637    46.011152    1693.7916    277.03212   -2876.7121 
 8561000    243.83869   -3898.4046   -3480.4734   -3898.4046            0    6761.6289    17.178272    20.233736    20.957452    7284.4043    7079.3962    7644.0479    5561.4427    1401.0314    367.65553    306.38416    -2762.148 
 8562000    253.90635   -3880.6294   -3445.4426   -3880.6294            0    4409.1326    17.188291    20.245536    20.969675    7297.1569    4349.7143    3097.4743    5780.2091   -1563.7631    914.05569   -770.44226   -2976.2159 
 8563000    267.27578   -3864.3453   -3406.2438   -3864.3453            0    7329.5664    17.099308    20.140726    20.861116    7184.4111     7451.219    7366.3079    7171.1723    264.29664    1317.0237    599.14142   -2638.2718 
 8564000    252.08573   -3876.2905   -3444.2242   -3876.2905            0     6116.229    17.110623    20.154054     20.87492    7198.6831    6650.9378    5348.2294    6349.5197    -134.8854   -574.37267   -1783.6987   -2802.1094 
 8565000    249.65785   -3928.1406   -3500.2355   -3928.1406            0    7814.4584     17.06487    20.100163    20.819102    7141.0911    8961.5186    6565.9549    7915.9017   -153.96073    82.915868    875.18721    -2686.395 
 8566000    252.94143   -3893.0971   -3459.5641   -3893.0971            0    5202.2926    17.139189    20.187701     20.90977    7234.7976     5537.012    3750.1252    6319.7408    388.92267    629.90762    1072.7371   -2910.6593 
 8567000    244.70505   -3927.7212   -3508.3051   -3927.7212            0    6480.1907    17.015597    20.042125    20.758988    7079.4111      6123.84    7016.0619    6300.6703    338.27532   -1980.6667   -24.483537   -2839.2516 
 8568000    252.75755   -3907.2412   -3474.0234   -3907.2412            0    5950.0993    17.045938    20.077864    20.796005    7117.3499    5778.0266    5953.0263    6119.2449    141.95507   -2131.1839    815.76895   -2856.4076 
 8569000    248.62313   -3934.8922   -3508.7607   -3934.8922            0     4924.862    17.092365    20.132549    20.852646    7175.6639    5987.3503    4775.0893    4012.1464    -52.91295   -865.48397   -115.41586   -2993.3754 
 8570000    249.05409   -3902.7267   -3475.8565   -3902.7267            0    5845.7551    17.052871     20.08603    20.804463    7126.0376    6154.8953    4078.5998    7303.7703    314.86309    1403.8795    216.11244   -2868.3309 
 8571000    258.73052   -3928.0122   -3484.5569   -3928.0122            0    4649.1226    17.082314     20.12071    20.840384    7163.0128    4911.1643    4084.4873    4951.7161   -1042.5749    351.60404    530.44689   -2998.8854 
 8572000    268.60844   -3867.3185   -3406.9328   -3867.3185            0    4953.0718    17.112048    20.155732    20.876659     7200.482    3133.1868     3651.884    8074.1447    1443.5112    616.82597   -221.72541   -2886.8026 
 8573000    243.18018   -3900.7166   -3483.9141   -3900.7166            0    6826.9797    17.109559    20.152801    20.873622    7197.3403    5686.7123    8945.2482    5848.9787    871.51728    1024.5301    639.10327   -2767.3146 
 8574000    261.80254   -3924.6446    -3475.924   -3924.6446            0     5235.906     17.09809    20.139291     20.85963    7182.8761     5106.149    4960.7362    5640.8327    671.85554   -849.48982    -310.5149   -2927.4373 
 8575000    244.92428   -3908.4824   -3488.6906   -3908.4824            0    7729.2867    17.096448    20.137357    20.857626    7180.8069    7145.8379    9220.2796    6821.7426   -701.60653   -272.88126   -798.81381   -2679.2433 
 8576000    247.26268   -3943.0164   -3519.2166   -3943.0164            0    4677.0883    17.160002    20.212216    20.935163    7261.1868    5332.9893    4394.8709    4303.4047   -1901.0291   -418.63018     1341.401   -3023.9272 
 8577000    255.35861   -3961.7919   -3524.1159   -3961.7919            0    4605.0309    17.172321    20.226725    20.950191    7276.8353    4966.1874    4510.6358    4338.2694   -1187.1489    490.35588   -82.508084   -3035.4062 
 8578000    268.62297   -3897.7946    -3437.384   -3897.7946            0    6441.1814    17.101717    20.143563    20.864054     7187.448     6478.599    6553.6165    6291.3287   -321.16066   -1464.5516   -1698.8165   -2762.2093 
 8579000    254.58251   -3916.1011   -3479.7554   -3916.1011            0    7340.8558    17.050765    20.083549    20.801894    7123.3983    7409.2268    8232.2852    6381.0554    432.04538   -1546.2991     1012.064   -2717.1325 
 8580000    261.88369   -3879.9627    -3431.103   -3879.9627            0    5744.7224     17.07594    20.113202    20.832607     7154.997    6435.7585     5182.586    5615.8228   -1889.1957   -533.62319   -456.83541    -2831.651 
 8581000    238.06847   -3874.1201   -3466.0789   -3874.1201            0    6242.8388     17.13885    20.187301    20.909357    7234.3682    6007.6156    6219.2491    6501.6518   -289.26418    929.96509    1161.9284   -2807.4229 
 8582000    247.78754   -3918.7478   -3494.0484   -3918.7478            0    6494.9266    17.102846    20.144893    20.865432    7188.8715    7422.5049    7855.5713    4206.7036    -255.6639   -173.59198    342.03138   -2813.1053 
 8583000    244.97166   -3901.5359   -3481.6629   -3901.5359            0    5722.3255    17.117928    20.162659    20.883833    7207.9076    4782.6147    6416.8375    5967.5244   -403.69592    84.085749    -457.8439   -2880.1324 
 8584000    269.37052   -3865.0715   -3403.3797   -3865.0715            0     7011.169    17.103183     20.14529    20.865843    7189.2966    7976.0116    7000.2394     6057.256    1225.1762    209.66737   -430.20237    -2668.269 
 8585000    258.71549   -3896.0577   -3452.6282   -3896.0577            0    6529.2926    17.121674     20.16707    20.888402    7212.6401    4440.8714    6711.8285     8435.178    1684.9611   -747.88601    789.48146   -2765.8187 
 8586000    247.77697   -3891.6498   -3466.9685   -3891.6498            0    6463.9581    17.127847    20.174341    20.895933    7220.4438    6516.5344    6157.7325    6717.6073   -438.59369   -626.85875    231.11866   -2786.2958 
 8587000     247.8443   -3886.2793   -3461.4826   -3886.2793            0     6278.412    17.082667    20.121125    20.840814    7163.4562    7304.9639    5674.1856    5856.0865    425.44896   -360.93438   -689.94496   -2805.5665 
 8588000    257.83757    -3856.369   -3414.4442    -3856.369            0    7045.7892    17.090237    20.130042    20.850049    7172.9838    7722.3082    7128.2332    6286.8263    939.13958    572.27581   -1106.3443   -2677.3799 
 8589000    244.26652   -3899.0856   -3480.4211   -3899.0856            0    4817.3202    17.120431    20.165606    20.886885    7211.0688    4105.8631    4382.8148    5963.2827    270.92424     913.9478    527.14499   -2973.8026 
 8590000    251.65297   -3906.6417   -3475.3171   -3906.6417            0    4379.2212    17.193234    20.251359    20.975706    7303.4547    4020.2934    6704.7405    2412.6297   -1029.8073   -238.36091  0.036453758   -3008.8714 
 8591000    254.90775   -3928.9322   -3492.0291   -3928.9322            0    6890.5708    17.023267    20.051159    20.768346    7088.9888      7610.89    6278.3162    6782.5063    1115.2916     261.3839    -1039.094   -2779.6431 
 8592000    259.47538   -3907.9574   -3463.2255   -3907.9574            0    6793.6954    17.081813    20.120119    20.839771    7162.3814    7148.8586    6288.6819    6943.5456   -1686.4961    1693.3097     1056.808   -2753.5833 
 8593000    248.55849   -3939.9706   -3513.9499   -3939.9706            0    5264.3284    17.173699    20.228349    20.951873    7278.5884    6879.3409    4050.4838    4863.1605    213.90619    199.44838   -296.70729   -2955.1375 
 8594000    245.89712   -3927.5866   -3506.1274   -3927.5866            0    4992.4372    17.188063    20.245267    20.969396     7296.866    5277.2579    4589.3945    5110.6593    370.32528    587.30527   -851.52591   -2974.8457 
 8595000    242.64969   -3905.4332   -3489.5399   -3905.4332            0    6856.2745    17.111315    20.154868    20.875764    7199.5562    4587.7113    9043.6336    6937.4787     582.9331    1056.4112   -1249.2672   -2769.6438 
 8596000    260.67928   -3913.4414    -3466.646   -3913.4414            0    5048.8775    17.186763    20.243737    20.967811    7295.2113    5651.1079    4805.2452    4690.2794   -1242.7007     1535.767     1181.745   -2929.4799 
 8597000    262.13558   -3908.6084    -3459.317   -3908.6084            0     4591.162     17.16452    20.217538    20.940675     7266.924    3921.4438    5614.7643    4237.2781     -1023.33    281.45571   -618.52446   -2972.7427 
 8598000    245.54496   -3934.1151   -3513.2595   -3934.1151            0    4454.1173    17.129169    20.175899    20.897547    7222.1167    4327.2074    6033.1565    3001.9881    1370.9184    483.41103   -2680.9054   -3044.1199 
 8599000    250.44851    -3912.873   -3483.6128    -3912.873            0    6290.4727    17.115313    20.159578    20.880642     7204.604       4717.4    7844.9534    6309.0646   -1158.5718    -50.43106    681.24338   -2822.6618 
 8600000    245.57589   -3900.1292   -3479.2206   -3900.1292            0    7691.7899    17.167401     20.22093    20.944189    7270.5828    8858.9409    7139.5003    7076.9285   -354.77219   -464.93574    193.02525   -2663.6294 
 8601000    249.18981   -3935.0434   -3507.9406   -3935.0434            0    4212.6877    17.171604    20.225881    20.949317    7275.9243    4296.2308    4941.6462    3400.1861    31.178878    959.98715    393.52698   -3060.9243 
 8602000    251.11819   -3867.1411   -3436.7332   -3867.1411            0    6749.9325    17.125806    20.171938    20.893444    7217.8637    5931.2948    7576.6581    6741.8448   -65.562938   -502.84006   -238.90935   -2726.2006 
 8603000    251.53909   -3879.1174    -3447.988   -3879.1174            0    5816.2855    17.141058    20.189903    20.912051    7237.1653    4798.4378     5782.576    6867.8429    464.86887    300.26902    6.8339298   -2834.0986 
 8604000    251.70989    -3877.696   -3446.2738    -3877.696            0    7677.1481    17.108937    20.152068    20.872864     7196.556    6369.5756    6829.3384    9832.5304    1799.5699   -476.21126   -1879.9938   -2640.5234 
 8605000    260.34755   -3876.1773   -3429.9505   -3876.1773            0    6131.2743    17.190165    20.247744    20.971962    7299.5445    9048.5364    3899.6328    5445.6536   -1206.4633     83.58078     189.7456   -2777.2373 
 8606000    249.28072   -3901.8472   -3474.5885   -3901.8472            0    6065.9755    17.090759    20.130656    20.850686    7173.6409    5950.3309     5015.798    7231.7977   -95.730655   -719.52511    1194.6346    -2839.965 
 8607000    252.45584   -3917.2808   -3484.5802   -3917.2808            0      4069.85    17.159739    20.211906    20.934841    7260.8525    3554.7461    4594.7177    4060.0862     1405.186    717.07519    247.81524   -3053.6152 
 8608000    260.68944   -3891.7233   -3444.9105   -3891.7233            0    6976.9612    17.119092    20.164029    20.885252    7209.3777    7571.4246    7826.1655    5533.2936   -259.20722    357.98367    150.56504   -2711.3432 
 8609000    257.55895   -3900.4258   -3458.9785   -3900.4258            0    5401.3604    17.183301    20.239659    20.963587    7290.8033    4778.4004    4433.9935    6991.6875   -15.519585    248.40612    685.72188   -2884.6579 
 8610000    246.74977   -3886.7704   -3463.8498   -3886.7704            0     5107.347       17.195    20.253439     20.97786    7305.7048    5225.1641    3546.7536    6550.1233     318.4642   -630.74169   -1697.1911   -2919.6813 
 8611000     263.4682   -3911.4905    -3459.915   -3911.4905            0    5478.1467    17.118849    20.163743    20.884956     7209.071    6754.8919    6199.7124     3479.836   -1.9771152   -1080.9299   -913.03514   -2883.9596 
 8612000     259.8988   -3894.4927   -3449.0351   -3894.4927            0    7342.6654    17.124002    20.169812    20.891242    7215.5824    8223.7211    5264.4222    8539.8529    759.37281   -1930.2662    461.65186   -2676.3527 
 8613000    246.96422   -3897.5648   -3474.2766   -3897.5648            0    5966.4414    17.164422    20.217422    20.940555    7266.7989    6128.4373     6042.915    5727.9719   -1246.8673   -264.03592   -82.383521   -2841.9603 
 8614000    263.63685   -3868.1283   -3416.2637   -3868.1283            0    6533.5823    17.161761    20.214288    20.937309      7263.42    6414.0173    6220.3931    6966.3365   -1114.0059    542.83696    1427.3005   -2724.1644 
 8615000    262.30349   -3882.8177   -3433.2385   -3882.8177            0    7957.8331    17.155905    20.207391    20.930165    7255.9875    10840.245    6229.6573    6803.5973   -160.16625   -129.03389    54.449861   -2591.1315 
 8616000    249.57971   -3915.0474   -3487.2763   -3915.0474            0     6296.604    17.196099    20.254734    20.979201    7307.1065    5602.5612    6025.2556    7261.9951   -763.30886   -397.04994   -1076.4244   -2816.2683 
 8617000    243.15028   -3915.4473   -3498.6961   -3915.4473            0    6530.0046    17.177935    20.233339    20.957041    7283.9754    6812.0462    5331.9184    7446.0492   -213.48463   -308.91065    1049.6037   -2805.0182 
 8618000    241.56694   -3891.0099   -3476.9724   -3891.0099            0     5599.368    17.238586    20.304777    21.031035    7361.4014    7792.5063    5764.5916    3241.0063    1058.1214     932.9799   -60.277401   -2875.8327 
 8619000    262.79543   -3902.3448   -3451.9224   -3902.3448            0    6232.7255    17.191546    20.249371    20.973646    7301.3037    6161.5797    5245.1014    7291.4954    -618.5835    290.22304    1910.3663   -2788.2492 
 8620000    251.03996   -3893.2322   -3462.9583   -3893.2322            0    5876.6941    17.161123    20.213536     20.93653    7262.6101    7790.1084    5634.3869    4205.5871    1068.4147    380.32382   -89.901512   -2840.5123 
 8621000     252.9629    -3894.202   -3460.6323    -3894.202            0    8563.2031    17.168435    20.222149     20.94545    7271.8968    7704.8999    9049.3306    8935.3788    1140.1799    328.61482    -940.6333   -2552.4775 
 8622000     262.6466   -3871.3046   -3421.1373   -3871.3046            0    5637.9217    17.148611    20.198798    20.921265    7246.7356    6788.1575    5232.3967     4893.211   -70.768022   -278.95055    1137.9379   -2825.2867 
 8623000    242.81317   -3894.6127   -3478.4392   -3894.6127            0    6535.9097    17.164047     20.21698    20.940098    7266.3229    7200.0989    3667.2933    8740.3368    68.773295    1516.5619   -842.17535   -2785.8167 
 8624000    266.39471   -3886.8508   -3430.2594   -3886.8508            0    7744.9505    17.112662    20.156456    20.877408     7201.257    7454.8786     7936.908     7843.065    545.92625   -107.54039   -330.57711   -2616.8619 
 8625000    268.40461   -3882.8753    -3422.839   -3882.8753            0    6631.2136     17.10217    20.144097    20.864607    7188.0189    6018.9541     7103.556    6771.1308    210.33969    867.24114    158.47556   -2727.6897 
 8626000    260.96955   -3903.8405   -3456.5476   -3903.8405            0    5307.5955    17.137842    20.186114    20.908127    7233.0921    5806.7647    5925.2436    4190.7783    151.34408    -960.4158     766.0476    -2896.664 
 8627000     261.0185   -3898.9178    -3451.541   -3898.9178            0    6887.7309    17.132912    20.180308    20.902113     7226.852    7019.6196    7297.1716    6346.4014    335.34713    449.90556    -556.9192   -2725.6002 
 8628000    254.23112   -3878.6464   -3442.9029   -3878.6464            0    7572.0122    17.023963     20.05198    20.769195    7089.8588    7339.6701    7707.7528    7668.6138    549.32307    818.53478   -435.19008   -2659.9696 
 8629000    256.83553   -3876.2911   -3436.0838   -3876.2911            0     6119.039     17.10755    20.150434    20.871171    7194.8055    7215.1845     5834.074    5307.8586    38.813527   -1330.4939   -809.09449     -2794.02 
 8630000    252.62806   -3932.1651   -3499.1693   -3932.1651            0    5174.9334    17.112694    20.156493    20.877446     7201.297    5185.4201    5293.1901    5046.1899    285.27458    265.38431    355.01544   -2955.6795 
 8631000    255.27037   -3917.3164   -3479.7918   -3917.3164            0    6353.9464    17.010829    20.036509    20.753171    7073.4617    7737.2404     4991.667    6332.9317   -713.45098   -972.88196     -624.933   -2824.3238 
 8632000    246.04652   -3825.6799   -3403.9646   -3825.6799            0    7353.0988    17.106175    20.148814    20.869493      7193.07    7899.4141    8376.0595    5783.8228    54.611808    -1325.858    590.93501   -2632.5984 
 8633000    254.44013    -3903.932   -3467.8303    -3903.932            0    5902.9221    17.137602    20.185831    20.907834    7232.7878    4078.0102    7095.0762      6535.68   -1089.8215   -59.062472    63.667798   -2845.1736 
 8634000    249.52686   -3911.1041   -3483.4236   -3911.1041            0    6056.6222    17.050009    20.082658    20.800971    7122.4501    6180.0133    5930.0835    6059.7699   -1762.7548    766.47652    596.42866   -2854.3003 
 8635000    237.14593   -3922.1004   -3515.6404   -3922.1004            0    5846.5558    17.156301    20.207856    20.930647    7256.4893    7469.3976    4059.1271    6011.1428    -512.6536    378.88053    454.09498   -2896.9085 
 8636000    254.41896   -3914.2477   -3478.1823   -3914.2477            0    4271.9535    17.181198    20.237182    20.961022    7288.1273    5850.6677    3962.4093    3002.7835    137.71527    108.58412    -592.4624    -3024.117 
 8637000    248.96484   -3914.2656   -3487.5483   -3914.2656            0    5082.9156    17.150261    20.200742    20.923278    7248.8281    4511.0665    4917.7182    5819.9622    396.91494   -370.66766    293.38218   -2950.1992 
 8638000     252.7922   -3893.7737   -3460.4965   -3893.7737            0    9060.5742    17.052104    20.085126    20.803527    7125.0765    8855.0718    9360.4917    8966.1592   -231.38054   -183.10459    -1459.077   -2518.9948 
 8639000    248.25097   -3942.5964   -3517.1028   -3942.5964            0    5963.1596    17.177303    20.232593    20.956269    7283.1706    6830.9847    5425.1544    5633.3396    674.67747    740.79345   -331.91793   -2883.7104 
 8640000    258.44428   -3905.2232   -3462.2585   -3905.2232            0    5027.0832    17.247692    20.315503    21.042144    7373.0736    4922.3486    5381.6834    4777.2177    490.80795    295.90546   -1009.5092   -2921.7027 
 8641000    244.10664   -3905.1112   -3486.7208   -3905.1112            0    5540.7931    17.242736    20.309666    21.036098    7366.7195    7074.7066    5252.2337    4295.4391   -136.89777    306.69031    366.58886   -2891.4399 
 8642000    253.70403   -3895.1025   -3460.2625   -3895.1025            0    6719.2646    17.111279    20.154826     20.87572     7199.511    7310.8814    7139.9571    5706.9553    1174.8695   -266.62052    480.74672   -2754.7566 
 8643000     249.4293   -3929.7708   -3502.2575   -3929.7708            0    7362.6817    17.145256    20.194847    20.917172    7242.4836    8662.2064    5898.4418    7527.3971    565.99505    456.65395   -1972.6098   -2724.5802 
 8644000    252.85996    -3922.987   -3489.5936    -3922.987            0    7241.8888    17.131004     20.17806    20.899785    7224.4381    7505.7923    5924.6001     8295.274    338.38024   -819.36442   -456.02152   -2726.5809 
 8645000    269.87318   -3889.2391   -3426.6857   -3889.2391            0    7355.7854     17.18632    20.243215     20.96727    7294.6466     7064.614    7552.8918    7449.8504    2448.0141    586.70907   -1047.6015    -2644.141 
 8646000    250.29119    -3895.387   -3466.3965    -3895.387            0    7976.7504    17.135894    20.183819     20.90575    7230.6254    8677.9788    8448.8416    6803.4307   -115.28471    228.14832    1749.2172   -2625.2381 
 8647000    242.65654   -3908.3287   -3492.4237   -3908.3287            0    7228.3727    17.097092    20.138116    20.858412    7181.6181    9056.7119    5217.1829    7411.2234    1002.4647   -393.68673    870.19401    -2735.349 
 8648000    249.66529   -3903.5324   -3475.6146   -3903.5324            0    5362.3469    17.176191    20.231284    20.954913    7281.7569    5851.0803    3764.6925    6471.2678    1899.8763   -167.77966   -1487.9978   -2906.1497 
 8649000    258.27986   -3848.5127   -3405.8299   -3848.5127            0    5570.5438    17.186299    20.243191    20.967245    7294.6205    5325.8844    5061.0602    6324.6868   -1854.3906    2401.0345    921.89794     -2813.21 
 8650000    251.34769   -3883.0864    -3452.285   -3883.0864            0    6620.9695    17.173315    20.227897    20.951404    7278.0999    7374.2435    4679.3466    7809.3184    215.35503   -426.69602    -110.8271   -2749.5114 
 8651000    262.92002    -3871.186   -3420.5501    -3871.186            0    5881.4605    17.190361    20.247975    20.972201    7299.7942    7574.0321    3857.7072    6212.6423    1845.8956    591.42737   -251.96026   -2794.4098 
 8652000    243.21292    -3893.878   -3477.0194    -3893.878            0    4713.6882    17.167733    20.221321    20.944594    7271.0045     4314.526    4629.2197     5197.319   -52.640486   -14.181935   -124.48384   -2977.1793 
 8653000    257.49977   -3867.9107   -3426.5649   -3867.9107            0    7844.8314    17.104123    20.146398     20.86699    7190.4825    6528.6614    8135.6571    8870.1756    267.38916   -1174.8917    -882.0503   -2603.9103 
 8654000     248.3483   -3894.7732   -3469.1127   -3894.7732            0    6424.2274    17.132872     20.18026    20.902064     7226.801    5369.9948    6629.9586    7272.7288   -315.86467   -221.93658    -217.6069   -2792.0282 
 8655000    259.21883    -3911.757   -3467.4648    -3911.757            0    6639.9884      17.1675    20.221048     20.94431    7270.7091    6114.3723    8176.7466    5628.8463    695.57731   -1434.3927    489.40573   -2763.3881 
 8656000    234.80616   -3925.5186   -3523.0688   -3925.5186            0    3109.2264    17.250851    20.319224    21.045998    7377.1255    2648.5689    5294.1846    1384.9257    666.17673    568.78075    874.34656    -3188.554 
 8657000    263.14065   -3945.7715   -3494.7574   -3945.7715            0    5575.2798    17.207745    20.268451    20.993409    7321.9623    5357.0405    6991.3015    4377.4975    716.45148   -990.32977    452.14703   -2899.4106 
 8658000    250.15096    -3878.539   -3449.7888    -3878.539            0    7644.9547    17.031352    20.060683     20.77821    7099.0951    7535.9982    9298.2124    6100.6534     1799.657   -581.89041    1388.5002   -2658.2836 
 8659000    258.99867   -3923.7656   -3479.8507   -3923.7656            0    6568.1812     17.19136    20.249151    20.973419    7301.0664    6181.0664    5415.0681    8108.4092   -810.50485     -349.446    1357.6894   -2780.4802 
 8660000    257.23288   -3887.8747   -3446.9863   -3887.8747            0    7007.7594    17.141201    20.190071    20.912226    7237.3465    5762.3182     7657.075     7603.885    671.75827    248.93559   -1392.8044   -2707.3224 
 8661000    239.88349   -3919.5773   -3508.4253   -3919.5773            0    6305.2918    17.138955    20.187426    20.909485    7234.5018    4185.3805    7457.8516    7272.6432   -1300.6207    372.48524   -618.99454   -2843.1679 
 8662000    246.64099   -3908.2142     -3485.48   -3908.2142            0     6465.596    17.200963    20.260462    20.985135     7313.308    6216.3889    7030.7968    6149.6024   -1215.5243    143.07851    182.49992   -2795.8783 
 8663000     265.5598   -3916.7552   -3461.5948   -3916.7552            0    5023.8838    17.192648    20.250668     20.97499    7302.7072    4666.6616    5378.9309    5026.0589   -777.55042    1384.3441   -286.35804   -2926.5386 
 8664000    257.97232   -3897.0412   -3454.8854   -3897.0412            0    6103.3257    17.140134    20.188814    20.910924    7235.9948    7160.2054    5619.3742    5530.3975    646.50072    447.55427   -1489.7006   -2810.8042 
 8665000    253.56385   -3897.8977   -3463.2979   -3897.8977            0    5897.0064    17.101739    20.143589    20.864081    7187.4758    7123.0932    5544.5846    5023.3414    744.65718    79.373539     949.8092   -2845.1621 
 8666000    260.93995    -3903.398   -3456.1559    -3903.398            0    6226.4194    17.108271    20.151283     20.87205    7195.7144    5875.9762    5890.0827    6913.1993    97.581319    1027.2837   -573.52791   -2802.7423 
 8667000    237.35263   -3920.8351   -3514.0208   -3920.8351            0    5922.3166     17.16608    20.219375    20.942578    7268.9053    5126.0719    7010.0883    5630.7896   -89.421728   -261.56173   -382.38069   -2886.1989 
 8668000     274.5844   -3914.9604   -3444.3321   -3914.9604            0    6393.3777    17.121153    20.166457    20.887767    7211.9823    6671.4554    6761.7171    5746.9607    649.59071   -1062.4616     613.0796   -2771.8807 
 8669000     262.0338    -3875.126   -3426.0091    -3875.126            0    7409.5334    17.113124       20.157    20.877972    7201.8407    7758.7967    8280.7993    6189.0041   -338.01857   -1424.0748    1533.4165    -2647.775 
 8670000    251.54122    -3895.978   -3464.8449    -3895.978            0    4960.7922    17.144607    20.194083    20.916381    7241.6616    4221.6345    6176.7826    4483.9595   -535.47192    526.78084     482.3909   -2940.9247 
 8671000    255.60603   -3918.8633   -3480.7633   -3918.8633            0     6002.929    17.174233    20.228978    20.952524    7279.2669    4737.4418    5899.3386    7372.0067    1292.8268   -327.69955    457.03105   -2843.4885 
 8672000    260.34644   -3931.0016   -3484.7767   -3931.0016            0     6092.083    17.177117    20.232375    20.956043    7282.9346    6463.4753    4986.8569    6825.9169     2033.649   -2000.8005   -678.74025   -2837.7114 
 8673000    252.03717   -3898.3202   -3466.3371   -3898.3202            0    5004.8083    17.139131    20.187632    20.909699    7234.7237    4462.7345    4487.2657    6064.4247    1419.7404    463.00301   -1095.9993   -2938.2746 
 8674000    250.90892   -3917.3529   -3487.3036   -3917.3529            0    6300.6934    17.113902    20.157916    20.878921    7202.8226    5853.1791    5141.4175    7907.4836   -1463.0559    111.39386    1002.5084   -2825.4423 
 8675000    261.94324    -3906.072   -3457.1103    -3906.072            0    5736.1013    17.165621    20.218834    20.942018    7268.3219    5767.1852    4133.3337    7307.7849   -1237.6361    1534.1865    555.41892   -2849.0777 
 8676000    250.48222   -3890.6327   -3461.3147   -3890.6327            0    6285.2362    17.065639    20.101069     20.82004    7142.0562     6704.816    5478.0125    6672.8802   -2029.9456   -1009.9325   -499.22573   -2806.6473 
 8677000    255.33542   -3882.2223   -3444.5862   -3882.2223            0    4142.3392    17.216513    20.278778    21.004105      7333.16    3801.1504    3961.7243     4664.143   -701.71617   -230.89633    38.592275    -3001.577 
 8678000    258.12706   -3883.5404   -3441.1195   -3883.5404            0    6510.0438    17.063043    20.098011    20.816872     7138.797    7770.5428     6311.867    5447.7215     958.5218    389.67391    -570.0614   -2763.3456 
 8679000    252.81405   -3888.7644   -3455.4498   -3888.7644            0    7495.2669    17.030472    20.059647    20.777136    7097.9943    7020.5915    6132.7803     9332.429   -163.98444    738.16357   -162.31336   -2679.5625 
 8680000    248.87782   -3887.3086   -3460.7405   -3887.3086            0    6071.8107    17.104854    20.147258    20.867881    7191.4038    7092.6775    4972.3446    6150.4099    873.32467    191.03256   -684.02987   -2823.9336 
 8681000    244.61821   -3874.3748   -3455.1076   -3874.3748            0     8745.259    17.169734    20.223679    20.947036    7273.5483     8638.292     8605.467     8992.018    1314.1046   -292.12088   -1704.9467   -2527.4347 
 8682000    259.86866   -3891.3517   -3445.9457   -3891.3517            0    6738.3938    17.236515    20.302338    21.028508    7358.7487    6494.5496    7648.1349    6072.4969    365.43078    568.10722   -990.05815   -2722.7826 
 8683000    248.82351   -3920.4324   -3493.9574   -3920.4324            0    6684.3331    17.154574    20.205823    20.928541    7254.2987    8346.1724    6127.5951    5579.2317   -1237.5067    86.254458   -1296.6708   -2786.7783 
 8684000    247.99849   -3935.0292   -3509.9683   -3935.0292            0    5036.0298    17.224401    20.288069    21.013729    7343.2438    5962.4278    6584.5646    2561.0971   -251.69133    2120.1716   -22.423976   -2970.6413 
 8685000    255.06199   -3872.7224   -3435.5549   -3872.7224            0    7400.8487    17.083917    20.122598    20.842339    7165.0292    8500.7623    7282.7217    6419.0623    344.33579   -213.54331    120.62056   -2662.2061 
 8686000    259.39285   -3876.6976   -3432.1071   -3876.6976            0    5899.3363    17.141786    20.190759    20.912939    7238.0867     7539.225     5786.662    4372.1219      862.437    1457.7236    616.40553   -2809.3728 
 8687000    249.19858   -3895.4208    -3468.303   -3895.4208            0    5866.8165    17.125509    20.171588    20.893081    7217.4878    4641.4207    7011.1947    5947.8342    556.23375     1277.441    719.24594   -2850.7639 
 8688000     255.9824   -3859.9017   -3421.1567   -3859.9017            0    4798.2152    17.232862    20.298035    21.024051    7354.0708    5892.3103     3826.768    4675.5673   -145.26501    2390.6432   -279.74667   -2906.5405 
 8689000    248.05285   -3916.7483   -3491.5942   -3916.7483            0    6352.0097    17.140881    20.189693    20.911834    7236.9402    6092.6901    6950.4758    6012.8632   -32.200527    807.68407   -1614.6326   -2821.1818 
 8690000    267.21715   -3869.4634   -3411.4624   -3869.4634            0    7275.0899    17.162004    20.214574    20.937605    7263.7286    8607.6121    5613.8562    7603.8016    874.14279    232.02528    -41.78991   -2640.7828 
 8691000    265.22336   -3890.7406   -3436.1569   -3890.7406            0    8210.5366    17.104716    20.147096    20.867713    7191.2299    8844.4098    8280.7361    7506.4638   -252.56432   -100.19285   -593.86827   -2575.0628 
 8692000    252.89144   -3864.2019   -3430.7546   -3864.2019            0    8995.1299     17.10383    20.146052    20.866632    7190.1124    10499.796     9645.038    6840.5559    51.522136   -361.46268   -1240.5619   -2487.5215 
 8693000    255.78146   -3908.7042   -3470.3035   -3908.7042            0    5206.2325    17.197223    20.256058    20.980572    7308.5394    4925.1917    6091.1427    4602.3633    79.525187    739.58847   -101.49763   -2915.3839 
 8694000    252.21613   -3889.1334   -3456.8436   -3889.1334            0    5657.8152    17.244965     20.31229    21.038816    7369.5761     4715.567    5820.9595    6436.9192    394.81047    1424.7577   -319.93752   -2848.7546 
 8695000    243.70453   -3904.9122    -3487.211   -3904.9122            0    5887.9132    17.163987    20.216909    20.940024    7266.2464     6310.468     4361.065    6992.2066    1162.6363   -429.91438   -870.17748   -2863.2644 
 8696000     247.5208    -3907.622   -3483.3798    -3907.622            0    3786.6065      17.2771    20.350142    21.078022    7410.8521    2670.1644    3200.5726    5489.0826    777.81607   -667.61192    267.06408   -3074.1246 
 8697000    256.51465   -3901.3939   -3461.7366   -3901.3939            0    6695.1516    17.156293    20.207847    20.930637     7256.479    6530.9207    6333.7366    7220.7974    544.44861    1025.2798   -1124.3328   -2753.2001 
 8698000    262.51806   -3893.3594   -3443.4124   -3893.3594            0    4945.3615     17.15222     20.20305    20.925669    7251.3124     4569.858    5023.5027    5242.7238     383.4005   -600.88955    1733.5668   -2920.4258 
 8699000    256.06888   -3865.7776   -3426.8843   -3865.7776            0    5704.9063    17.177654    20.233007    20.956697    7283.6171    5329.7397    7481.4921     4303.487    405.18833   -544.93273    808.54059   -2820.8858 
 8700000    255.13041   -3883.4153   -3446.1305   -3883.4153            0    7558.5723    17.127449    20.173873    20.895448    7219.9411    8532.6058    5728.9058    8414.2053   -592.64637    419.42189     1080.697   -2650.2473 
 8701000    250.57609   -3873.6275   -3444.1487   -3873.6275            0    4769.0448    17.151182    20.201827    20.924402    7249.9962    4104.9651    4083.8758    6118.2936    1161.7448    873.68693    1112.4735   -2939.8997 
 8702000    246.10876   -3854.9653   -3433.1433   -3854.9653            0    5713.5935    17.185391    20.242121    20.966137     7293.464     3752.041    6731.4975    6657.2419    704.09943    263.99975   -373.29476   -2825.4016 
 8703000    248.98702   -3909.4212    -3482.666   -3909.4212            0    5464.0244    17.150393    20.200898     20.92344    7248.9957    5829.8945    3566.6314    6995.5473    44.410065    595.58191   -1444.3673   -2905.0139 
 8704000    243.09302   -3888.7573   -3472.1042   -3888.7573            0    5615.8992    17.152734    20.203655    20.926296    7251.9643    6809.7577    5158.4336    4879.5063    360.66336   -562.73075   -948.89564   -2878.1529 
 8705000    253.30506   -3912.5515   -3478.3953   -3912.5515            0    5712.8764    17.077778    20.115366    20.834849    7157.3072    6172.9683    4279.4228    6686.2381   -455.60618   -117.50746    496.84589   -2882.0739 
 8706000    242.91459   -3872.8367   -3456.4894   -3872.8367            0    4592.4761    17.148936    20.199181    20.921661    7247.1474    5031.5915    2568.2904    6177.5465     41.91093    165.56008   -974.65629   -2971.1004 
 8707000      258.857   -3909.3964   -3465.7244   -3909.3964            0    5699.0647    17.187362    20.244443    20.968542    7295.9744    6103.9269    6745.4748    4247.7924    1922.6049   -1818.7325   -510.31141   -2859.3194 
 8708000    255.64873    -3888.273   -3450.0998    -3888.273            0    6005.3485    17.154824    20.206117    20.928845    7254.6155    7222.1898    4199.9253    6593.9304    1351.5707   -955.78497   -1065.5908   -2814.7272 
 8709000    264.37488   -3920.0204   -3466.8909   -3920.0204            0    7388.3946    17.080534    20.118613    20.838211    7160.7729    9712.1294    4857.9328    7595.1217    1361.1588   -321.68274    1310.2176   -2695.3021 
 8710000    262.82147   -3892.3091   -3441.8421   -3892.3091            0    5074.4949    17.097781    20.138927    20.859252    7182.4863    4163.1725    5103.0514    5957.2607    459.04474   -880.51446    918.97811   -2910.2928 
 8711000    249.28137   -3897.4333   -3470.1736   -3897.4333            0    5320.2521    17.097492    20.138587      20.8589    7182.1228     5496.442    5163.4099    5300.9044   -556.61751   -762.01938    793.36141   -2912.9097 
 8712000    258.90698   -3909.9264   -3466.1687   -3909.9264            0    5418.4799    17.167329    20.220846    20.944102    7270.4921    6621.5306    6293.7586    3340.1505   -223.03957   -806.77427    792.18342   -2891.6328 
 8713000     250.7563   -3856.3133   -3426.5256   -3856.3133            0    7371.4371    17.125807    20.171938    20.893444    7217.8644    6411.2821    6583.0905    9119.9388    1143.3616    236.68298    424.76145   -2650.5702 
 8714000    249.15892   -3880.0943   -3453.0445   -3880.0943            0    5642.5401     17.18831    20.245559    20.969699    7297.1816     4599.074     5623.725    6704.8214   -243.54667   -138.90256    374.83773   -2852.5546 
 8715000    244.49357   -3937.2679   -3518.2142   -3937.2679            0    5935.0163    17.129751    20.176584    20.898256    7222.8522     6233.374    6180.0821    5391.5927   -440.63844    86.394023    1007.0822   -2893.0321 
 8716000    245.59915   -3897.7037   -3476.7551   -3897.7037            0    6836.6618    17.202891    20.262734    20.987487     7315.768    7391.8323     5601.895     7516.258    1129.9283   -266.10629    -139.6069   -2747.3314 
 8717000    248.67119   -3927.1895   -3500.9755   -3927.1895            0    6080.0107    17.211701     20.27311    20.998235    7327.0129    4260.8732    6571.2406    7407.9184    823.26771   -636.25727    -1224.355    -2851.284 
 8718000    262.86609   -3900.9965    -3450.453   -3900.9965            0     5016.768    17.159609    20.211753    20.934683    7260.6878     4546.624    5781.6936    4721.9864    -531.6519   -293.83652   -762.05995   -2919.2291 
 8719000    253.66694   -3873.1737   -3438.3972   -3873.1737            0    7376.6893    17.084322    20.123074    20.842833    7165.5382    7489.7273    6123.0383    8517.3022   -1304.1513    617.69101    421.61613   -2667.5183 
 8720000    259.73949   -3940.2763   -3495.0917   -3940.2763            0    6454.7621     17.10366    20.145852    20.866425    7189.8986    6305.6453    5685.7848    7372.8562   -827.23737   -88.290021   -767.13477   -2818.2628 
 8721000    259.88752   -3925.6072   -3480.1689   -3925.6072            0    6424.5923    17.073965    20.110875    20.830197     7152.514    5849.2863    6664.9261    6759.5645   -225.33843    848.77004    75.972106   -2810.0063 
 8722000    253.68989    -3935.039   -3500.2232    -3935.039            0    7748.2776    17.079744    20.117682    20.837247    7159.7793    7967.7591    7014.0048    8263.0688    836.50546   -1273.8757    613.53343   -2691.1632 
 8723000    247.22321   -3930.6622   -3506.9301   -3930.6622            0    6532.9571    17.069787    20.105955    20.825101    7147.2656    4895.1695    7100.7782    7602.9236   -750.64209   -436.99407   -1020.9583   -2825.9638 
 8724000    260.57942   -3934.1893   -3487.5651   -3934.1893            0    7318.3786    17.086955    20.126176    20.846045    7168.8521    6230.5921    7866.3715    7858.1721   -718.09146    1700.0292    1469.6718    -2722.426 
 8725000    245.42147   -3922.3319   -3501.6879   -3922.3319            0    6573.2879    17.178516    20.234023     20.95775    7284.7149     6002.273    6540.0199    7177.5708    1106.2144   -66.127915    339.30706   -2803.3412 
 8726000    252.73465    -3902.165   -3468.9864    -3902.165            0    6433.2426    17.099791    20.141295    20.861705    7185.0204    6830.7656    5375.9098    7093.0524    84.586736    236.85275   -369.08248   -2794.8717 
 8727000    279.17553    -3891.457   -3412.9597    -3891.457            0    7284.2316    17.082089    20.120445    20.840109    7162.7295     7138.059    7897.4417    6817.1941   -2322.0383    143.07677    777.01307   -2652.0411 
 8728000    265.12077    -3894.688   -3440.2801    -3894.688            0    7000.9878    17.051538    20.084459    20.802836    7124.3664    9347.3972    4523.9146    7131.6514    508.82729    840.91822    -1445.564   -2712.8664 
 8729000    254.61176   -3882.9729    -3446.577   -3882.9729            0    6063.4489    17.131119    20.178196    20.899926    7224.5834    5896.0972    5171.0111    7123.2383   -290.07938    180.97811    881.80093    -2807.713 
 8730000    246.27789   -3852.4097   -3430.2978   -3852.4097            0    5508.6185    17.196609    20.255334    20.979823    7307.7558     4724.503     5328.658    6472.6944    1696.0312    316.41323   -774.46385   -2843.2106 
 8731000    263.90178   -3909.0731   -3456.7545   -3909.0731            0    5840.8848    17.119349    20.164332    20.885566    7209.7023    6878.2748    5968.4447     4675.935   -309.68896   -1882.7195    -987.4154   -2842.6082 
 8732000    256.34318   -3917.1642   -3477.8007   -3917.1642            0    5746.8741    17.163889    20.216794    20.939905    7266.1224    4660.0405    6793.5605    5787.0213   -503.90201   -552.33486   -87.160003   -2868.8106 
 8733000    245.52273   -3900.4954   -3479.6778   -3900.4954            0    5247.0798    17.203943    20.263973    20.988771    7317.1104    5032.0198    4770.3369    5938.8827     1169.265   -694.48885   -1645.1332   -2919.7486 
 8734000    257.02457   -3872.5148   -3431.9835   -3872.5148            0    6217.6679    17.085108    20.124001    20.843792    7166.5279    6119.9102    7141.7747     5391.319   -249.11506   -31.973491    1458.9177   -2782.1349 
 8735000     242.9461   -3907.8738   -3491.4725   -3907.8738            0    5927.4938    17.125641    20.171743    20.893242     7217.655    5578.9992    6167.7946    6035.6878    78.747172    975.32503   -541.23195   -2867.5321 
 8736000    252.84973   -3878.5017   -3445.1259   -3878.5017            0     5377.847    17.083402    20.121991     20.84171    7164.3809    6333.6264    4209.9776    5589.9368   -118.57268   -1220.3584    1362.8259   -2883.2208 
 8737000    248.32314   -3876.0357   -3450.4183   -3876.0357            0    4828.9796    17.210631     20.27185     20.99693    7325.6472    5226.3253    2866.3643    6394.2491    1701.5246    -1933.123    751.34097   -2934.5044 
 8738000    254.53771   -3882.2561   -3445.9872   -3882.2561            0    4744.9869     17.19839    20.257432    20.981996    7310.0271    6858.5373    4452.7649    2923.6585    36.828532    296.29783   -692.18605   -2940.1277 
 8739000     259.5961    -3896.194   -3451.2552    -3896.194            0    6265.6283    17.150965    20.201571    20.924137    7249.7201    5950.4139     5188.231    7658.2401    139.70234    26.549152    368.80526    -2788.792 
 8740000    248.45779    -3890.834   -3464.9858    -3890.834            0    6289.8524    17.222613    20.285963    21.011547    7340.9574    7215.8278    6970.0351    4683.6944   -772.00393    905.08531    882.40566   -2791.5921 
 8741000    256.98762   -3911.2441   -3470.7761   -3911.2441            0    7629.8381    17.195898    20.254496    20.978955    7306.8491    10151.069    5487.6498    7250.7956     977.2333   -200.94693   -185.50043   -2657.7185 
 8742000    252.97225   -3876.1902   -3442.6044   -3876.1902            0    6480.3431     17.16648    20.219845    20.943065    7269.4125      5765.46    5587.9336    8087.6357    379.09936   -596.27911    1583.1515   -2755.5784 
 8743000    256.59204   -3836.9725   -3397.1825   -3836.9725            0    5937.4366    17.250346    20.318629    21.045382    7376.4773    6137.7591    4684.9413    6989.6094    289.19878    1242.1667    285.63467   -2758.4429 
 8744000    251.01399   -3845.0059   -3414.7766   -3845.0059            0    6817.8918    17.197563    20.256458    20.980987    7308.9725    7023.5092    8081.5104    5348.6557   -1192.8955    1273.1917    1626.3206   -2688.0311 
 8745000    259.90544   -3868.0177   -3422.5486   -3868.0177            0    5841.4232     17.20417    20.264239    20.989047    7317.3991     6027.988    6035.6114    5460.6702    139.29698   -13.191531    -686.4072   -2799.1709 
 8746000    260.45262   -3920.4812   -3474.0743   -3920.4812            0    5912.9256    17.153409     20.20445    20.927119    7252.8199    5755.3959     6802.671    5180.7098    100.98878   -407.35465   -472.33368    -2848.635 
 8747000    236.03375   -3884.8168    -3480.263   -3884.8168            0    8516.7654    17.101047    20.142774    20.863237    7186.6035    8128.1552    8571.7634    8850.3776   -289.88189    902.14554   -905.59034   -2587.6273 
 8748000     256.6123   -3867.5202   -3427.6955   -3867.5202            0    6182.0577    17.146598    20.196428     20.91881    7244.1849     4625.174    7455.1701    6465.8291    682.21961   -90.116974    303.46871   -2774.5673 
 8749000    253.22853   -3923.1341   -3489.1091   -3923.1341            0     5929.765    17.145159    20.194733    20.917054    7242.3604    5211.4476    7231.3155    5346.5318     316.8581   -1109.1343   -810.35734   -2862.7931 
 8750000    252.88386   -3870.1134   -3436.6791   -3870.1134            0    5524.6357    17.190245    20.247838    20.972058    7299.6454    6319.1825     7403.741    2850.9836    550.65063   -581.88005     233.6478   -2848.5383 
Loop time of 432.981 on 64 procs for 250000 steps with 864 atoms

Performance: 99.773 ns/day, 0.241 hours/ns, 577.392 timesteps/s
99.1% CPU use with 64 MPI tasks x 1 OpenMP threads

MPI task timing breakdown:
Section |  min time  |  avg time  |  max time  |%varavg| %total
---------------------------------------------------------------
Pair    | 21.147     | 26.233     | 32.123     |  48.9 |  6.06
Bond    | 0.27288    | 0.28323    | 0.29998    |   1.0 |  0.07
Kspace  | 182.99     | 191.58     | 201.59     |  28.9 | 44.25
Neigh   | 4.8437     | 5.4012     | 6.0278     |  15.5 |  1.25
Comm    | 93.847     | 101.1      | 108.94     |  35.9 | 23.35
Output  | 1.2876     | 1.2888     | 1.295      |   0.1 |  0.30
Modify  | 99.021     | 102.28     | 104.53     |  15.1 | 23.62
Other   |            | 4.817      |            |       |  1.11

Nlocal:        13.5000 ave          18 max           8 min
Histogram: 1 2 4 8 5 12 13 5 5 9
Nghost:        2189.97 ave        2241 max        2140 min
Histogram: 4 5 3 10 10 9 10 7 3 3
Neighs:        4229.58 ave        5748 max        2794 min
Histogram: 6 5 4 7 13 9 5 5 5 5

Total # of neighbors = 270693
Ave neighs/atom = 313.30208
Ave special neighs/atom = 2.0000000
Neighbor list builds = 13273
Dangerous builds = 0

unfix		3
unfix		2
unfix		1

write_data	data.final.${pid}
write_data	data.final.0
System init for write_data ...
PPPM initialization ...
  extracting TIP4P info from pair style
  using 12-bit tables for long-range coulomb (../kspace.cpp:340)
  G vector (1/distance) = 0.3747825
  grid = 24 24 25
  stencil order = 5
  estimated absolute RMS force accuracy = 0.0030146093
  estimated relative force accuracy = 9.0784065e-06
  using double precision FFTW3
  3d grid and FFT values/proc = 2730 288
Last active /omp style is kspace_style pppm/tip4p/omp
WARNING: Not all mixed pair coeffs generated from mixing. Use write_data with 'pair ij' option to store all pair coeffs. (../write_data.cpp:312)

write_restart   restart.lmp.${pid}
write_restart   restart.lmp.0
System init for write_restart ...
PPPM initialization ...
  extracting TIP4P info from pair style
  using 12-bit tables for long-range coulomb (../kspace.cpp:340)
  G vector (1/distance) = 0.3747825
  grid = 24 24 25
  stencil order = 5
  estimated absolute RMS force accuracy = 0.0030146093
  estimated relative force accuracy = 9.0784065e-06
  using double precision FFTW3
  3d grid and FFT values/proc = 2730 288
Last active /omp style is kspace_style pppm/tip4p/omp
Total wall time: 0:07:14
