#include		in.partitions
include		in.temp
variable        temperature equal 180.10
variable	tempDamp equal 100.0
include		in.pressure
variable        pressure equal 2093.5
variable        pressureDamp equal 1000.0 # This is 1 ps
include		in.seed
variable        seed equal 745823

units		real
atom_style	full
#include		in.box
read_restart	restart.lmp.${pid}
read_restart	restart.lmp.1
Reading restart file ...
  restart file = 30 Jul 2021, LAMMPS = 30 Jul 2021
  restoring atom style full from restart
  orthogonal box = (0.11570647 0.053609650 0.12201542) to (18.091866 23.575568 22.091180)
  2 by 4 by 4 MPI processor grid
  restoring pair style lj/cut/tip4p/long/omp from restart
  restoring bond style harmonic/omp from restart
  restoring angle style harmonic/omp from restart
  864 atoms
  576 bonds
  288 angles
Finding 1-2 1-3 1-4 neighbors ...
  special bond factors lj:    0        0        0       
  special bond factors coul:  0        0        0       
     2 = max # of 1-2 neighbors
     1 = max # of 1-3 neighbors
     1 = max # of 1-4 neighbors
     2 = max # of special neighbors
  special bonds CPU = 0.003 seconds
  read_restart CPU = 0.008 seconds
include 	in.setup
variable	out_freq equal 1000
variable	out_freq2 equal 10000
variable	out_freq3 equal 1000

timestep	2.0

neigh_modify    delay 7 every 1

include		in.tip4p
# This is TIP4P/Ice

# create groups ###
group ox type 2
288 atoms in group ox
group hy type 1
576 atoms in group hy

# set charges - beside manually ###
set group ox charge -1.1794
Setting atom values ...
  288 settings made for charge
set group hy charge 0.5897
Setting atom values ...
  576 settings made for charge

# ### TIP3P Potential Parameters ###
pair_style lj/cut/tip4p/long/omp 2 1 1 1 0.1577 8.5
pair_coeff 1 1*2 0.000 0.000
pair_coeff 2 2 0.21084 3.1668
bond_style  harmonic
bond_coeff  1 450 0.9572
angle_style harmonic
angle_coeff 1 55 104.52
kspace_style pppm/tip4p/omp 1.0e-5
pair_modify tail yes

thermo          ${out_freq}
thermo          1000
thermo_style    custom step temp pe etotal epair emol press lx ly lz vol pxx pyy pzz pxy pxz pyz enthalpy

restart 	${out_freq3} restart.lmp.${pid} restart2.lmp.${pid}
restart 	1000 restart.lmp.${pid} restart2.lmp.${pid}
restart 	1000 restart.lmp.1 restart2.lmp.${pid}
restart 	1000 restart.lmp.1 restart2.lmp.1


include         in.dump
dump            myDump all atom ${out_freq2} dump.water.${pid}
dump            myDump all atom 10000 dump.water.${pid}
dump            myDump all atom 10000 dump.water.1
dump            myDump2 all dcd ${out_freq2} dump.dcd
dump            myDump2 all dcd 10000 dump.dcd
dump_modify     myDump append yes
dump_modify     myDump2 append yes


variable natoms 	equal  "count(all)"                        # NUMBER ATOMS
variable H      	equal  "enthalpy/v_natoms"                 # ENTHALPY-per-atom
variable Vol      	equal  "vol/v_natoms"                 # volume-per-atom
fix AVG all 		ave/time ${out_freq} 1 ${out_freq} v_Vol v_H file vol_enthalpy.dat
fix AVG all 		ave/time 1000 1 ${out_freq} v_Vol v_H file vol_enthalpy.dat
fix AVG all 		ave/time 1000 1 1000 v_Vol v_H file vol_enthalpy.dat


timer           timeout 23:50:00 every 1000
New timer settings: style=normal  mode=nosync  timeout=23:50:00

fix 		1 all shake 1e-6 200 0 b 1 a 1
       0 = # of size 2 clusters
       0 = # of size 3 clusters
       0 = # of size 4 clusters
     288 = # of frozen angles
  find clusters CPU = 0.000 seconds
fix             2 all nph aniso ${pressure} ${pressure} ${pressureDamp}
fix             2 all nph aniso 2093.5 ${pressure} ${pressureDamp}
fix             2 all nph aniso 2093.5 2093.5 ${pressureDamp}
fix             2 all nph aniso 2093.5 2093.5 1000
fix             3 all temp/csvr ${temperature} ${temperature} ${tempDamp} ${seed}
fix             3 all temp/csvr 180.1 ${temperature} ${tempDamp} ${seed}
fix             3 all temp/csvr 180.1 180.1 ${tempDamp} ${seed}
fix             3 all temp/csvr 180.1 180.1 100 ${seed}
fix             3 all temp/csvr 180.1 180.1 100 745823


run             250000
PPPM initialization ...
  extracting TIP4P info from pair style
  using 12-bit tables for long-range coulomb (../kspace.cpp:340)
  G vector (1/distance) = 0.37165279
  grid = 24 27 25
  stencil order = 5
  estimated absolute RMS force accuracy = 0.0031646721
  estimated relative force accuracy = 9.5303159e-06
  using double precision FFTW3
  3d grid and FFT values/proc = 4410 672
Last active /omp style is kspace_style pppm/tip4p/omp
Neighbor list info ...
  update every 1 steps, delay 7 steps, check yes
  max neighbors/atom: 2000, page size: 100000
  master list distance cutoff = 10.8154
  ghost atom cutoff = 10.8154
  binsize = 5.4077, bins = 4 5 5
  1 neighbor lists, perpetual/occasional/extra = 1 0 0
  (1) pair lj/cut/tip4p/long/omp, perpetual
      attributes: half, newton on, omp
      pair build: half/bin/newton/omp
      stencil: half/bin/3d
      bin: standard
Per MPI rank memory allocation (min/avg/max) = 10.19 | 10.21 | 10.23 Mbytes
Step Temp PotEng TotEng E_pair E_mol Press Lx Ly Lz Volume Pxx Pyy Pzz Pxy Pxz Pyz Enthalpy 
12000000    190.61291   -4392.4883   -4065.7843   -4392.4883            0    1486.2953    17.976159    23.521958    21.969165    9289.3204     1934.189    817.93329    1706.7637    1170.1694   -555.24553    57.568991   -3864.4281 
12001000    185.77254   -4412.4973   -4094.0895   -4412.4973            0    2099.9122    18.017911    23.350752    21.949632    9234.9077    2308.8716    1054.4334    2936.4315   -510.82904    208.26217    208.60244   -3811.2698 
12002000    184.84544   -4413.7979   -4096.9791   -4413.7979            0    3280.2671    17.992785    23.242213     21.91773    9165.8226    1583.3714     4885.348    3372.0819    281.52066   -146.68869    796.46333   -3658.4923 
12003000    182.20465   -4415.3462   -4103.0536   -4415.3462            0    2297.3439     17.85686    23.469651    22.016293     9226.902    3972.5725    1813.6665    1105.7927   -288.10822   -381.78302    284.95789   -3793.9118 
12004000    170.11944    -4415.752   -4124.1732    -4415.752            0    2134.4649    17.972738     23.10411    22.245878    9237.4699    2908.0298    2907.5756    587.78934    232.36547   -323.80812   -605.84488   -3836.6201 
12005000    181.70081   -4397.3807   -4085.9517   -4397.3807            0    2054.4076    17.972708    23.541753    21.808932    9227.5565    2600.3198    1658.4854    1904.4177    808.88562   -21.900994   -434.21823    -3809.481 
12006000    187.91226   -4404.6201   -4082.5449   -4404.6201            0    2357.2773    18.015687    23.226718    22.044025    9224.2181    3604.6917    1768.6958    1698.4445    335.94071    277.16075   -49.376674   -3765.4304 
12007000    179.79708   -4402.7077   -4094.5416   -4402.7077            0    1201.0134    18.170936    23.259976    21.988254    9293.4573    1751.0962    667.84407       1184.1     384.7101   -960.93702    468.31808   -3931.7616 
12008000    193.25743   -4421.6403   -4090.4037   -4421.6403            0    1208.7517     17.96786    23.492683    21.999081    9286.1033     1073.936    2094.5809    457.73807   -271.15599   -221.96267    97.505152   -3926.7045 
12009000    184.97875   -4388.2091   -4071.1619   -4388.2091            0    3598.4794     17.84982    23.415521    21.956744    9177.1032    3949.3611    3975.4809    2870.5961   -53.409865    371.08022   -230.65967   -3589.5463 
12010000     192.1419   -4423.0612   -4093.7365   -4423.0612            0    2580.2283    17.999855    23.444394     21.85524    9222.8174    2107.2995    2891.4261    2741.9594   -206.62478    537.41751    334.53322   -3746.6821 
12011000    171.24488    -4388.518   -4095.0102    -4388.518            0    1708.5882    18.005844    23.234185    22.048264    9223.9156    2734.9611    1615.4399     775.3635   -55.228905    407.51149   -265.90004   -3865.1686 
12012000    186.66426   -4386.1409   -4066.2048   -4386.1409            0    2599.7558    17.957028    23.450835    21.898642    9221.6781     3431.839    3072.5437    1294.8846   -249.33275    365.22078    268.48669    -3716.567 
12013000    187.02021   -4398.1071   -4077.5608   -4398.1071            0    2317.6584    17.938617     23.44933    21.981996    9246.6946    3032.4878    2183.5154     1736.972    427.88246   -15.396907   -293.62484   -3765.0163 
12014000    179.80347   -4419.2751   -4111.0982   -4419.2751            0    2949.2799    18.085668    23.184921    21.945028    9201.8746    2195.8145    2440.8967    4211.1284   -13.895371   -155.62612    245.71503   -3715.3051 
12015000    182.94766    -4404.108    -4090.542    -4404.108            0     1981.837    17.851956    23.619859    21.938289    9250.5141    2388.5557    1441.1317    2115.8237     282.9772    440.58536    109.69807   -3823.1738 
12016000     180.8011   -4402.1353   -4092.2484   -4402.1353            0    1386.6177     18.22765     23.18101    22.006881    9298.6849    925.76761    1260.2667    1973.8187   -454.42915   -172.98791    45.685016   -3904.2067 
12017000    181.04431   -4405.4832   -4095.1794   -4405.4832            0    2077.7725    17.961223    23.499495    21.966726    9271.7088    952.01818    2101.9166    3179.3827    662.74548    829.34966    342.72141   -3814.2264 
12018000    170.45902   -4409.4797   -4117.3187   -4409.4797            0     1200.717    18.065662    23.406927    21.989073    9298.3354     1661.139    1320.8506     620.1613    -462.9539    -76.62351    272.28976   -3954.4935 
12019000    175.70956   -4398.0438   -4096.8836   -4398.0438            0    2796.0085    18.042018    23.334712     21.91236    9225.2195    2689.3324    2157.7482    3540.9449   -444.73705    181.12453   -504.33677   -3720.7076 
12020000    180.09456    -4419.213   -4110.5371    -4419.213            0     1608.429    17.804214    23.559412    22.075033    9259.5228    1401.9508    1455.6263      1967.71    320.50272   -81.453277   -247.81945   -3893.3338 
12021000    174.47033   -4407.8049   -4108.7687   -4407.8049            0     1872.386    18.057542    23.376332    22.003228    9287.9828    1795.9565    1038.8795    2782.3221   -334.56798    833.68633    604.51917   -3855.1433 
12022000    174.08844   -4384.3137   -4085.9321   -4384.3137            0    2151.1566    17.847557    23.645072    21.973657    9273.0321    4065.4355    1335.0367    1052.9975   -251.18819   -476.55307    164.61662   -3795.0147 
12023000    176.09245   -4414.8363   -4113.0199   -4414.8363            0    2103.4566    18.076169    23.146374    22.105252    9248.7884    2027.3759    2347.7616    1935.2324   -406.89487   -128.18343   -371.98824    -3829.297 
12024000    186.62125   -4376.8921   -4057.0296   -4376.8921            0    2201.3726    17.974649    23.555702    21.877806     9263.183    3297.0636    2173.3646    1133.6896   -1398.8285    94.823795   -192.46237   -3759.6374 
12025000    181.06358   -4398.3929   -4088.0561   -4398.3929            0    2696.7856    17.899002     23.43354    22.071749    9257.7079    2813.5765    2117.0248    3159.7554   -84.308581   -194.03864   -413.82432   -3723.9518 
12026000    191.44079   -4405.6373   -4077.5143   -4405.6373            0    1412.0926    18.154102     23.38568    21.924799    9308.0859    986.50308    1292.2484    1957.5263    666.08933    114.24613    590.12787   -3885.8243 
12027000    190.41219   -4406.6685   -4080.3085   -4406.6685            0    3112.3238    17.870509    23.538304    21.874114    9201.1594    3634.3885    3111.4716    2591.1113   -904.22437   -454.65024   -774.94548   -3662.6675 
12028000    172.50648   -4405.0261   -4109.3559   -4405.0261            0    2061.3136    18.191769    23.096393    22.044913    9262.4844    1120.0052    2211.0616    2852.8741   -674.06589    -930.7718   -34.694405   -3830.9057 
12029000    177.19971   -4423.8065   -4120.0923   -4423.8065            0    1119.2983    17.869104    23.706584    21.940613    9294.3819    1822.8734    84.925192    1450.0962   -427.03045   -198.69831    718.30708   -3968.3725 
12030000    186.10196    -4402.606   -4083.6336    -4402.606            0    2072.2134    18.058799    23.299657     22.00591     9259.291    2351.0882    2206.2654    1659.2867   -610.03784   -189.46214    35.769886   -3803.8076 
12031000    181.48068   -4379.8932   -4068.8415   -4379.8932            0    2832.4526    18.024469     23.36735    21.879384    9215.2481     3131.824    1825.6916     3539.842    -623.2059    340.70937     208.4319   -3688.1743 
12032000    177.97266    -4387.539   -4082.4999    -4387.539            0    1941.6633    17.877358    23.541149    21.958764    9241.4235    3755.7237    1295.7326    773.53359   -55.241523    326.95833     339.8422    -3820.809 
12033000    181.65051    -4407.655   -4096.3123    -4407.655            0    994.01833    18.250169    23.298722    21.950017    9333.2707    1581.8375    476.71662    923.50083   -271.62664   -407.37822    50.819862   -3961.0103 
12034000    172.21428   -4413.6375   -4118.4681   -4413.6375            0    1533.3797    17.931049    23.508715    21.993695    9271.1324    1516.3466    1954.7108    1129.0815   -50.948765   -187.89632   -740.89705   -3911.1399 
12035000    178.39291   -4426.9812   -4121.2219   -4426.9812            0    1719.8985    17.992212    23.344864    22.055286    9263.7881    1333.3898     1691.114    2135.1917    331.58127   -38.684925    480.70502   -3888.8587 
12036000    167.83911   -4396.3745    -4108.704   -4396.3745            0    2668.0859    17.983039    23.418492    21.857271     9204.876    1881.6552    3117.7015     3004.901   -722.55936   -1144.7723   -96.252461   -3750.5303 
12037000    178.99962   -4395.1473   -4088.3481   -4395.1473            0    1584.6798    17.807547    23.471145    22.078623    9228.0587    1962.8355    485.72708    2305.4769   -462.87444    26.152161   -1004.6918   -3875.0791 
12038000    178.67496   -4398.7878    -4092.545   -4398.7878            0    2503.5024     18.11858    23.267584    21.865138    9217.8081    1886.1306    3135.6374    2488.7392   -436.79085    865.84855   -271.97654   -3755.9935 
12039000    179.60401   -4395.1822   -4087.3471   -4395.1822            0    2157.4595    17.777473    23.437114    22.202814    9250.8614    3106.3716    3658.9632   -292.95638   -824.55814    100.68595    308.18149   -3796.2749 
12040000    173.96238   -4400.5755   -4102.4099   -4400.5755            0    2071.0047    18.109779    23.369801    21.853344    9248.8144    1366.5587     2771.332    2075.1232   -765.34259   -655.33983    217.23538   -3823.0635 
12041000    186.46749   -4417.9713   -4098.3724   -4417.9713            0    2323.2016    17.981045    23.300665    21.989439    9212.9219    3467.2535    1172.2882    2330.0629    -920.7016    -621.8174    6.9351976   -3786.2247 
12042000    177.01894   -4403.1564    -4099.752   -4403.1564            0    2035.2594    17.880286    23.400489    22.004619    9206.8962    2803.1012     853.8512    2448.8259   -20.190879     56.85171    -29.54144   -3826.4713 
12043000    173.96424   -4385.1781   -4087.0093   -4385.1781            0    1615.9584    18.195498    23.365955    21.768968    9255.1898    1134.7512    2266.1802    1446.9438      621.143   -105.87913    85.275439   -3868.8914 
12044000    176.45719   -4389.7239   -4087.2823   -4389.7239            0     2467.391    17.925109    23.387812    22.048091     9243.201     3322.505    2206.2187    1873.4492   -479.00405    240.21134    130.14976   -3754.6715 
12045000    174.49403   -4431.3291   -4132.2523   -4431.3291            0    796.75252    18.050968    23.350163    22.052158    9294.8314    1666.0075    719.13653    5.1135042   -407.19317   -620.76635    238.90438    -4024.248 
12046000    191.43121   -4408.4388   -4080.3322   -4408.4388            0    2909.6595    17.957961    23.366216    21.842048    9165.1329    2614.8164    3517.8824    2596.2796    579.12828   -104.06941     820.2224   -3691.4153 
12047000    179.27186   -4420.0988    -4112.833   -4420.0988            0    1352.5492    17.885743    23.461739    22.160605    9299.2685    1990.5833     1633.046    434.01824    301.90804    243.75985   -140.63681   -3929.3999 
12048000    177.20681   -4392.8449   -4089.1185   -4392.8449            0    2085.3147    18.156793    23.411015    21.746002    9243.5502    2666.8344    1673.5849    1915.5248   -355.82219    391.60454    250.37015    -3808.002 
12049000    185.99746   -4403.4526   -4084.6593   -4403.4526            0    2211.1166    17.902388    23.358989    21.997585    9198.9869    3036.5536    1614.8103    1981.9861    305.32793    201.14387    369.56372   -3788.0208 
12050000    177.01314   -4410.5573   -4107.1628   -4410.5573            0    2464.0188    17.937426    23.483684    21.869027    9212.0397    2015.7055     2678.466     2697.885    717.19916    294.04883    44.744839   -3776.1264 
12051000    187.47355   -4402.2303   -4080.9071   -4402.2303            0    652.37076    18.060399    23.218146    22.190244    9305.0125    817.40815    1742.0629   -602.35875    504.23036   -835.50863    256.44614   -3992.3777 
12052000    172.64598   -4395.0715   -4099.1622   -4395.0715            0     1843.227    17.825201    23.764462    21.859266    9259.7234     1145.913    1346.5516    3037.2163    118.83746    324.57951    490.34233   -3850.2463 
12053000    175.22407   -4408.3885   -4108.0604   -4408.3885            0    2918.7026    18.015937    23.169342    22.015695    9189.7343    2553.5798    3171.5751    3030.9529    144.59728     755.8809   -202.86916   -3716.8876 
12054000    190.78785   -4402.5366   -4075.5327   -4402.5366            0    2629.3337    17.902253    23.422501    22.047535    9244.8742    4315.5637     1576.128    1996.3093   -300.32003    352.47586    152.89077   -3721.0275 
12055000    181.94682   -4406.5978   -4094.7472   -4406.5978            0    1850.5697    18.214734    23.338886    21.754053    9247.9003    1437.7967    1552.3197    2561.5927    418.04037    623.48617    207.46545   -3845.1587 
12056000    182.40916   -4386.1104   -4073.4673   -4386.1104            0    1709.9285    17.949937    23.360721    22.088736    9262.3253    1801.9395    2191.2797    1136.5662    10.250858    244.41724    526.05346   -3842.4876 
12057000    179.75973   -4400.4859   -4092.3839   -4400.4859            0    3967.8776    17.920476    23.424409    21.791501     9147.561    4011.7194     3093.388    4798.5254    -506.2021    6.3683618   -425.44401   -3563.0381 
12058000    176.64036   -4400.4731   -4097.7175   -4400.4731            0    1351.9453    18.116292    23.256253    22.019497    9277.1902    886.37256     1394.934    1774.5294    158.74485    380.18159   -212.43611   -3914.8016 
12059000    180.43595   -4399.8435   -4090.5825   -4399.8435            0    2460.1887    17.766034    23.637455    21.843986     9173.247     2141.201    2804.1326    2435.2326     20.12283    401.70553    -3.345194   -3761.4525 
12060000    179.07983   -4427.8582   -4120.9215   -4427.8582            0    1408.3475    18.018284    23.249849    22.053275    9238.6105    602.27463     1512.958    2109.8098    335.26618   -19.697517    280.60413   -3931.1669 
12061000    178.68078   -4402.9459   -4096.6932   -4402.9459            0    382.72301    17.993159    23.561137    22.040197    9343.7049    981.32042    72.913386    93.935209   -738.64095    -104.8318     57.49827   -4044.5402 
12062000     185.7214   -4400.0908   -4081.7707   -4400.0908            0    2681.3816    17.951607     23.38258    21.909007    9196.4123    4090.6099    2308.9963    1644.5385    -250.4543    177.83946   -313.09143   -3722.1432 
12063000    188.49448   -4392.4092   -4069.3361   -4392.4092            0     2826.891    18.112893    23.222445    21.966667    9239.7436    3374.9236    2663.0667    2442.6825    538.07518     133.5702    190.55469   -3688.4064 
12064000    179.84612   -4410.5338   -4102.2837   -4410.5338            0    2701.1611    17.901186    23.523121    21.938901    9238.2908    1818.5078    3586.2931    2698.6823   -193.03693   -192.04798   -624.49422   -3738.3536 
12065000    176.49649    -4419.685    -4117.176    -4419.685            0    2031.5346    18.167154    23.097415    22.055236     9254.692    1372.0433    2515.2562    2207.3044     655.2206    69.891244   -286.58085   -3842.9794 
12066000    185.63124   -4395.0539   -4076.8883   -4395.0539            0     2626.082    17.952787    23.389954    21.959655    9221.1851    2673.2851    2352.4116    2852.5495     1057.348   -368.58296    162.39988   -3723.7288 
12067000    181.95228   -4430.1274   -4118.2674   -4430.1274            0    2688.3347     17.74781    23.707026    21.869984     9201.747    2875.5912    2113.4092    3076.0035    -158.6763   -119.99089    366.79277   -3757.4982 
12068000    176.56813   -4403.2624   -4100.6307   -4403.2624            0    2583.6958    18.143893    23.128301    21.965265    9217.4466    2044.7019    3282.6906    2423.6949    -965.5619    148.83404    225.08407   -3753.3122 
12069000    164.45494   -4407.4032   -4125.5331   -4407.4032            0    1311.0902    17.854905    23.452475     22.07914    9245.4567    2353.7016    887.01223    692.55675   -411.06733    430.03327   -212.29503   -3948.7516 
12070000    186.07209   -4421.6835   -4102.7623   -4421.6835            0    1585.0526      18.1029    23.455555     21.90991     9303.245    2131.5674    1132.9607    1490.6298    150.06498   -455.51646   -49.073859   -3887.7051 
12071000    178.93981   -4405.0609   -4098.3642   -4405.0609            0    2713.4335    17.977358    23.353135    21.970427    9223.7928     1751.554    2161.3891    4227.3573   -138.65273   -80.056446    297.16595   -3733.3543 
12072000    192.55748   -4385.2172   -4055.1802   -4385.2172            0    2473.7655    17.811415    23.448164    22.108811     9233.634    3654.7857    1647.3547    2119.1561   -92.656345    408.08649    317.75333   -3722.0554 
12073000    178.65957   -4423.3842   -4117.1678   -4423.3842            0    2822.5167    18.133981    23.234108    21.846764    9204.6287     2116.251    2683.5267    3667.7725    580.93226   -514.25854   -272.20093   -3738.2729 
12074000    179.97316   -4411.0137   -4102.5458   -4411.0137            0    2225.3715    17.752765    23.498892    22.183451    9254.2769    3358.4923    1936.0706    1381.5517    1177.9886   -411.46041   -474.56296   -3802.2005 
12075000    172.76362   -4398.9918   -4102.8809   -4398.9918            0    1553.5152    18.051905    23.286923    22.014351    9254.2459    1457.9124    2145.1717    1057.4614    10.971497      74.7144    270.89381   -3893.2127 
12076000    178.12641   -4403.6214   -4098.3189   -4403.6214            0    1033.4682    17.827242     23.46339    22.258952    9310.6421    2378.1855    844.07463   -121.85551   -213.10133    83.766757    9.3844278   -3957.9882 
12077000    180.71786   -4422.6367   -4112.8924   -4422.6367            0    1367.5032    18.074698    23.432842    21.881384    9267.6749     406.4738     432.0163    3264.0194   -25.353446    463.98583    879.69318   -3928.0614 
12078000     183.8851   -4380.9634   -4065.7907   -4380.9634            0    1036.5893    18.037747    23.292474    22.131438    9298.3854    1471.0472    441.41925    1197.3015   -389.22114    925.11635   -172.28743   -3925.2215 
12079000    178.39419   -4410.4598   -4104.6983   -4410.4598            0    611.54037    17.962366    23.467857    21.983544    9266.9045     1524.393   -97.967452    408.19553    818.55055    103.33289    202.93114   -4022.0497 
12080000    191.06576   -4397.2295   -4069.7493   -4397.2295            0    2172.3771      18.0719    23.273703    21.968072     9239.772    1141.8626    1924.2858    3450.9828   -898.55279    130.45836   -908.45046   -3777.0159 
12081000    186.99237   -4419.1328   -4098.6342   -4419.1328            0    1421.3758    17.925236    23.391416    22.132037    9279.8889    2373.3909    618.16254    1272.5739    154.87535    1329.4066    357.84091   -3906.2686 
12082000    178.65396   -4414.7052   -4108.4984   -4414.7052            0    2836.2592    17.992428    23.260623    21.891222    9161.8065    1417.9991    3873.4657    3217.3127   -37.438626   -709.73476   -94.352317   -3729.5301 
12083000    168.63511   -4403.9602   -4114.9254   -4403.9602            0    1437.9703    17.922696    23.295088     22.21826    9276.3627    2243.5258    2277.1304   -206.74541    228.12332    108.30795    699.06899   -3920.3878 
12084000    188.98888   -4391.6262   -4067.7057   -4391.6262            0    2224.3101    17.956005    23.509069    21.890303    9240.5309    2396.7128    1697.2318    2578.9857    1282.0666   -59.711182    574.40798   -3767.9495 
12085000    181.39997    -4409.899   -4098.9857    -4409.899            0    2620.2805    18.195852    23.154019    21.989286    9264.2425    1331.3422    2659.7341    3869.7651   -14.765394    11.842629    756.11272    -3744.961 
12086000    187.39488   -4421.5248   -4100.3364   -4421.5248            0    1906.1199    17.836309    23.454064     22.08103    9237.2441    2149.5943    2136.9671    1431.7984   -638.40934   -107.89897    76.420184    -3843.552 
12087000    182.83565   -4423.2366   -4109.8625   -4423.2366            0    1514.3335    18.152076     23.24917    21.880361    9233.9651    2454.3982    573.18237    1515.4199    294.86517   -406.24366   -550.87693   -3905.9304 
12088000    183.81135   -4389.4544    -4074.408   -4389.4544            0    2648.8232    17.966065    23.458498    21.915579    9236.4718    1924.0027    2460.2666    3562.2003   -1093.9791   -1028.4097     367.6299   -3717.5997 
12089000    167.77315   -4407.1342   -4119.5768   -4407.1342            0    2291.0279    18.085746    23.301034    21.990564    9267.1886    2702.8017    1038.8557    3131.4264    526.66318   -176.07847     786.5229   -3809.9387 
12090000    177.57893   -4398.6719   -4094.3077   -4398.6719            0     1177.718    17.893616    23.405074    22.202846    9298.5832    1693.6761    660.92471    1178.5532     220.9843   -143.92574    509.26785    -3934.597 
12091000     175.4239   -4418.0883   -4117.4177   -4418.0883            0    1276.4521    18.033904    23.606645     21.85402    9303.6927    1311.3291    1474.9351    1043.0921    355.31392    420.21426   -78.589143   -3944.2226 
12092000    191.92031    -4410.801   -4081.8561    -4410.801            0     1872.009    18.006278     23.35969    21.979994    9245.2488    1983.5041    1765.2327    1867.2903    322.54405   -137.27115   -559.89052   -3829.4485 
12093000    176.87772   -4418.7443   -4115.5819   -4418.7443            0    3458.7601    18.041291    23.335851    21.793673    9175.3295    4215.8038    2448.8754    3711.6012    168.25649   -129.56851    890.27703   -3652.7557 
12094000     178.7765   -4410.7688    -4104.352   -4410.7688            0    1985.1287    17.788965     23.52148    22.101481    9247.7637    4029.8595    1183.4533    742.07323   -343.05301     -81.7885    454.58856   -3836.6194 
12095000    180.82781   -4419.7839   -4109.8512   -4419.7839            0    2906.5541    18.017115    23.194565    22.007194    9196.7876    2742.0557    3892.5397    2085.0668   -1321.7757    200.50541   -277.29303   -3720.0076 
12096000    187.38451   -4402.7221   -4081.5515   -4402.7221            0    2847.8568    17.921235    23.589964    21.702952    9175.1682    3446.6494    1956.4844    3140.4367    408.01103   -89.513061   -156.54293   -3700.4785 
12097000    182.59107   -4405.9805   -4093.0256   -4405.9805            0    962.25136    18.061599    23.153673    22.225436    9294.5075    1315.1404    944.80643    626.80726    281.47152    298.85147   -101.53928   -3962.5916 
12098000    169.05582   -4407.9053   -4118.1494   -4407.9053            0    2423.3009    17.989334     23.42404    21.906159    9230.8804    2651.3201    2038.4057     2580.177    346.12943   -347.61927    235.80895   -3791.9175 
12099000    173.00448   -4390.6585   -4094.1348   -4390.6585            0    1696.5432    17.927186      23.4355    21.996316    9241.3689    2731.4604    2265.7982    92.371101   -918.46325     151.4092   -74.158878   -3865.4817 
12100000    184.35363   -4424.4632   -4108.4874   -4424.4632            0    2455.0186    18.004651    23.218498    22.094193    9236.2772     1900.224    3118.7397    2346.0922    -447.9786    29.484909    554.56583   -3777.7924 
12101000    171.63753   -4416.3735   -4122.1926   -4416.3735            0    2642.8456    17.868324    23.349952    21.916005    9143.8945     3493.264    1882.5566    2552.7163    1483.4719    199.32913    895.41493   -3769.7577 
12102000    189.15884   -4410.6798    -4086.468   -4410.6798            0    1143.8678    18.043523    23.408181    21.985171    9285.7898    987.56119    1798.2281    645.81398    525.70795   -450.12845    67.628397   -3931.5612 
12103000    175.34474   -4389.7698   -4089.2349   -4389.7698            0    217.81006    18.107522    23.459933     21.97811    9336.3288    23.427681   -601.90848     1231.911   -158.39315   -280.04311    962.36363   -4059.5777 
12104000    172.79383   -4391.5495   -4095.3868   -4391.5495            0    1467.7964    17.773741    23.497603    22.123026    9239.4674    2861.2016    884.65122    657.53652   -70.525752     91.83424     532.8331   -3897.6039 
12105000    182.61193   -4395.9899   -4082.9993   -4395.9899            0    2412.0333    18.274882     23.18658    21.876714     9269.864    1904.0929    2774.9167    2557.0903   -19.977732    127.44652    101.87683    -3756.913 
12106000    177.04621   -4417.9319   -4114.4807   -4417.9319            0    2934.7947    17.824075    23.390428    22.026045    9182.9384    2556.6049    3100.3873    3147.3919    -384.3501    -667.0313     -233.264   -3721.4421 
12107000    175.63966    -4413.025   -4111.9846    -4413.025            0    2114.0073    18.062677    23.389088    21.920251    9260.6381    3626.5435    1640.9045    1074.5738    388.33542    47.228661    407.70185   -3826.4733 
12108000    176.03813   -4396.1754   -4094.4521   -4396.1754            0    1405.3032    18.030517    23.353099    22.082431     9298.215    1662.2602    751.95894    1801.6905    133.45876    590.91155    217.67398   -3903.8861 
12109000    181.22175   -4415.7004   -4105.0925   -4415.7004            0    3351.2486    17.756024    23.536004    21.991866     9190.529     4332.493    3201.6781    2519.5748   -56.031105   -285.26238   -993.68131   -3655.9098 
12110000    174.60839   -4399.0622   -4099.7894   -4399.0622            0    2470.5663    18.129128    23.274239    21.852829    9220.6187    3524.6524    1818.7336    2068.3127   -316.10558    584.42285   -214.17052   -3767.5643 
12111000    182.11642   -4401.5394   -4089.3981   -4401.5394            0    2520.5375    17.900125     23.30701    22.142478    9237.8066    2674.9287     2621.075    2265.6088    91.631658    455.83885     63.97171   -3749.8214 
12112000    178.68427    -4402.994   -4096.7353    -4402.994            0    3028.7807    18.057961    23.523972    21.661157    9201.5507    2490.3754     3261.895    3334.0715   -120.77468    735.15351   -361.59332   -3690.2875 
12113000    176.83575   -4403.8215   -4100.7311   -4403.8215            0    2737.8291    17.991909    23.225877    22.072425    9223.5775    2253.2407    3952.1182    2008.1286    487.46709    21.064573    -172.4949   -3732.4481 
12114000    195.79516   -4406.2409   -4070.6547   -4406.2409            0    2149.6033    17.923736    23.478121    22.015001    9264.2569     1281.346    2551.3984    2616.0655    40.466156   -504.85565    60.128497   -3780.2225 
12115000    180.08196   -4391.2294    -4082.575   -4391.2294            0    2175.4363    18.059801    23.335156    21.959428    9254.3239    1806.2934    2700.0248    2019.9908   -608.30398   -667.90624   -570.52423   -3788.9677 
12116000    175.96563    -4409.494   -4107.8949    -4409.494            0    2428.6957    17.834453    23.314224    22.188676    9225.9725    4119.9486    2585.1105      581.028   -238.09789     575.0175   -412.27739   -3781.1106 
12117000    177.63547   -4426.6529   -4122.1918   -4426.6529            0    2777.3232     18.07645     23.51595    21.652371    9204.0957    2055.1728    2580.2246    3696.5721   -1317.9677    568.06049    266.01442   -3749.3853 
12118000     171.5989   -4408.1566    -4114.042   -4408.1566            0    1526.1644    17.965902    23.342879    22.054987    9249.3296    2205.2345    597.01332    1776.2454   -519.73453     84.74171    145.30527   -3908.1746 
12119000    182.45289    -4401.416    -4088.698    -4401.416            0     1094.607     18.04229    23.585519    21.914613    9325.4736    277.87371    2245.4784    760.46899    17.736232   -941.32657    222.40653   -3939.8287 
12120000    178.70994   -4413.5899   -4107.2872   -4413.5899            0    1157.1461    18.193282    23.259082    22.019655    9317.8164     590.5628    1235.6807     1645.195    66.570847    242.64085    731.08489   -3950.0417 
12121000    172.41208   -4401.8088   -4106.3004   -4401.8088            0    2778.1751    17.849388    23.495702     21.95196    9206.2984    3490.1864    2986.3687    1857.9703    135.69005    360.83512    87.293018   -3733.2904 
12122000    179.55092   -4389.4474   -4081.7033   -4389.4474            0    1780.8465    18.011789    23.437776    21.901134    9245.7014    555.82932    1157.0078    3629.7022   -1170.8606   -615.14418   -57.166385   -3841.5756 
12123000    174.02158    -4421.607     -4123.34    -4421.607            0    2009.6324    17.804999    23.320884    22.255894    9241.2771    2986.9452    2955.6617    86.290372    206.90206   -424.14039   -75.791877   -3852.4927 
12124000     195.6163   -4419.9187   -4084.6391   -4419.9187            0    1371.3967    18.049227    23.489984    21.891664    9281.5413    1096.5544    1373.2046    1644.4312   -169.55153   -147.20658   -449.73123   -3899.0044 
12125000    190.42187   -4401.6166     -4075.24   -4401.6166            0    1277.6182    17.950643    23.426741      22.0502    9272.6618    1189.7277    949.73648    1693.3904   -370.16289   -347.28904   -218.82792   -3902.4648 
12126000    175.89843   -4400.1232   -4098.6393   -4400.1232            0    2630.9797    17.936302    23.511739    21.808526    9196.9533    3053.8867    2838.6984    2000.3539   -43.975597   -269.47887    535.83809   -3745.7509 
12127000    187.51349   -4411.4073   -4090.0156   -4411.4073            0    2285.7424    18.217626    22.830062    22.192804    9230.1984    1467.0465    3611.6556     1778.525   -164.42066    63.167673   -249.30028    -3782.325 
12128000    180.50256   -4404.5779   -4095.2027   -4404.5779            0    2255.5711    17.809762    23.580883      22.0112    9244.0417    2651.7515    824.31913    3290.6427   -45.276018   -75.934348    659.36599   -3791.1182 
12129000    185.94821   -4396.3621   -4077.6533   -4396.3621            0    1015.8703    18.189145    23.294172    21.964435    9306.3545     1318.465     981.6605     747.4854    565.28403    53.460573   -406.93049   -3939.7757 
12130000    171.33348   -4416.7359   -4123.0762   -4416.7359            0    1122.3717    17.983708    23.459572    22.117277    9331.0602    335.47391     1686.292    1345.3493   -356.46269   -196.55448  -0.29881355   -3970.3394 
12131000    180.00146   -4431.4912   -4122.9749   -4431.4912            0    961.82178     18.20571    23.402663     21.85869    9313.1588    344.10467    972.83397    1568.5267   -562.57406   -760.21094    197.64054   -3992.3375 
12132000    183.19419   -4392.8965   -4078.9079   -4392.8965            0    1700.7409    17.989232    23.322455    22.169567    9301.3098      2338.52     2475.504    288.19852    -689.9326   -278.68045    438.90134   -3848.2023 
12133000    173.98579   -4405.0269   -4106.8212   -4405.0269            0    2363.0656    17.902014    23.574074    21.882313    9234.8481    1776.2537    2192.7693    3120.1739    50.108693    121.72882   -20.684292   -3788.5617 
12134000    169.54563   -4402.0846   -4111.4892   -4402.0846            0    3048.1795    18.107942    23.132742    21.977676    9206.1483    2556.8045    3328.6735    3259.0605    443.74581     468.9188   -49.839177   -3702.2338 
12135000    171.54359    -4421.729   -4127.7091    -4421.729            0    1461.4123    17.943409    23.629196    21.807296    9246.0391    1660.9369   -332.91778    3056.2177   -275.21847     440.9186   -83.701877   -3930.6465 
12136000    174.66033   -4394.1325   -4094.7707   -4394.1325            0      1777.59    18.128671    23.127541    22.102245    9266.8434    1430.9596     728.6638    3173.1467   -241.98037    547.65609   -518.86722    -3854.534 
12137000    176.83889   -4415.3632   -4112.2674   -4415.3632            0    2527.4791    17.954092    23.418515     21.96893    9237.0162    1981.3661    1811.6239    3789.4473    -41.36355   -358.67837    474.44743   -3771.7846 
12138000    182.48906   -4411.1117   -4098.3317   -4411.1117            0    1482.6948    17.938156     23.35172    22.127483    9268.9103    1475.1344    2821.5731     151.3769   -1111.6158   -370.76186    254.36058   -3897.9047 
12139000    167.99891   -4423.1877   -4135.2433   -4423.1877            0    2588.3065    18.034494    23.250896     21.97034    9212.5623    3990.6586    3144.8874    629.37352    1051.7057   -285.49935    33.650974   -3787.4894 
12140000    170.13469   -4388.7358   -4097.1308   -4388.7358            0    2494.3255     17.81998    23.726805    21.802455    9218.3219    3279.7114    1783.4614    2419.8038    -372.9017    312.47445    421.54118   -3761.7943 
12141000    172.53655   -4414.2515   -4118.5298   -4414.2515            0    2572.4179    18.041007    23.148019    22.021503    9196.4786    1714.4947    3024.2626    2978.4962   -716.03513   -563.22489    18.256783    -3773.514 
12142000    171.16702   -4405.5782   -4112.2038   -4405.5782            0    1306.3745    17.960961    23.441187    21.937473     9236.252    568.96222    1706.9538    1643.2075   -493.64307    146.72277   -509.57459   -3936.2335 
12143000    181.40488   -4423.1266   -4112.2049   -4423.1266            0    2051.3903    17.926443    23.439334     22.03673    9259.4788    1900.0528    2572.4093     1681.709    413.83624   -564.64307   -267.19576   -3835.1851 
12144000    177.74653   -4408.8774   -4104.2259   -4408.8774            0    940.35411    18.057456    23.309028    22.115739    9308.5532     858.7851    667.73986    1294.5374   -286.90488    401.01222    3.9228381   -3976.5675 
12145000    185.57739   -4398.6546   -4080.5814   -4398.6546            0    1749.9652    18.056446    23.473977    21.890094    9278.2607    2198.5356    1680.6481    1370.7121    767.87355    336.62398   -593.22457   -3843.7867 
12146000    177.70503    -4412.434   -4107.8536    -4412.434            0    1436.3869    18.059571    23.271048    22.011531    9250.6794     1409.519    1545.3974    1354.2444    484.92906   -815.62467   -291.08328   -3914.0683 
12147000    176.20322   -4418.3459   -4116.3396   -4418.3459            0    3682.4868    17.813933    23.340725    22.061265    9172.8558    4496.7587    4324.9739     2225.728   -698.15815    389.73038    655.54679   -3623.7087 
12148000    175.55568   -4423.6813   -4122.7849   -4423.6813            0    2527.8021    18.016764     23.30763     21.91985    9204.7605    1405.2155    2939.1179    3239.0728   -67.298809   -104.35363   -103.12818   -3783.4477 
12149000    183.35835    -4388.666    -4074.396    -4388.666            0    1513.6475    17.990701    23.305289    22.115949    9272.7414    896.39206    749.87287    2894.6775   -993.03094   -261.60281    269.59811   -3869.7003 
12150000    177.14311   -4409.8125   -4106.1952   -4409.8125            0    1611.2048    17.894852    23.837856    21.663794    9241.2311    2558.3308    172.15434    2103.1293    560.25786    101.74845    20.880255   -3889.0469 
12151000    177.96468   -4386.3908   -4081.3654   -4386.3908            0    2605.0559    17.986145    23.265824     22.05563    9229.4537    2804.1269    2277.4032    2733.6376    210.22948   -66.218865    711.53117   -3730.7194 
12152000    165.67581   -4404.1374   -4120.1747   -4404.1374            0    2359.0804    17.970026    23.364656    22.040206    9253.8781    2098.1963     2545.235      2433.81    1009.9896   -313.66557   -193.02685   -3801.7972 
12153000    181.03703   -4401.1967   -4090.9054   -4401.1967            0    1566.6059    17.988757    23.500374    21.931791    9271.5005    1695.7075    922.40959    2081.7006   -561.83533   -180.58342   -175.40864   -3879.0763 
12154000    172.53239   -4414.3505   -4118.6359   -4414.3505            0    775.80814    18.166163    23.282723    22.044765    9324.0039    1248.6722    1436.0516   -357.29936   -1016.1509   -559.77386    325.58678   -4013.1407 
12155000    185.20327   -4423.2304   -4105.7983   -4423.2304            0    1604.6302    17.761495    23.438761    22.209748    9246.0833    1904.9786    893.68379    2015.2284   -458.67651   -141.02436   -154.02841   -3889.4225 
12156000    168.45597   -4421.0181   -4132.2903   -4421.0181            0    1197.7139    17.988826    23.451448    21.944486    9257.5888    725.32448     1280.111    1587.7062    1128.0139    62.482604    -55.37237   -3970.5841 
12157000    177.94543   -4412.9685   -4107.9761   -4412.9685            0    3473.3251    17.929853    23.290096    21.940063    9161.9067    3455.0268    3797.6713    3167.2773    384.13251   -64.171109    -7.724063   -3643.8808 
12158000    177.11017   -4418.0303   -4114.4695   -4418.0303            0    1898.5798    18.062542    23.337519    21.911562    9236.4883    2091.1901    1890.4944    1714.0549    525.03882   -8.0532917     540.8649   -3858.7219 
12159000    173.20048   -4398.8075   -4101.9478   -4398.8075            0    2005.1938    18.086331    23.390081    21.848821    9242.9411    1591.4917    1597.8302    2826.2595    -1.977212    831.78063    2.3260124   -3831.6501 
12160000    190.86443   -4403.2612   -4076.1261   -4403.2612            0    2269.0449    17.804657    23.283136    22.243744    9221.1049    2609.4739    3155.6416    1042.0192      1085.53   -71.272895    509.02253   -3770.9841 
12161000    172.28988   -4415.7706   -4120.4716   -4415.7706            0    2177.9355    18.012205    23.323232    21.862339    9184.4302    1808.7386    1833.6679    2891.3999    878.89478    31.086408     298.8094    -3828.747 
12162000    177.80196   -4410.1804   -4105.4339   -4410.1804            0    3394.9098    17.823423    23.375639    22.034106    9180.1554    2933.3895    2001.8356    5249.5042   -374.94538    639.17322    147.11628   -3650.9127 
12163000    177.32408   -4397.8148   -4093.8874   -4397.8148            0    2116.2172    17.959119    23.382671    21.914888    9202.7665    2172.3889    2249.9217     1926.341    406.14685    235.02381   -170.72911   -3809.8637 
12164000    185.87877   -4426.0058    -4107.416   -4426.0058            0    1039.6661    18.070695    23.516853    21.866663    9292.5851    1336.7472    169.72104    1612.5301    165.33321   -292.30934    184.10064   -3966.5175 
12165000    173.89519   -4399.4396   -4101.3892   -4399.4396            0    2429.0598    17.810094    23.182606    22.292741    9204.3249    3277.3814    4656.1508   -646.35275    -109.5939   -154.98499    -385.3297   -3775.3228 
12166000     175.5069    -4388.203   -4087.3902    -4388.203            0    1720.1246    18.109485    23.373486    21.824888    9238.0777     1184.489    584.48925    3391.3956    657.50395   -446.55934    436.85983   -3855.6414 
12167000    175.08782   -4422.3768   -4122.2822   -4422.3768            0    2459.8916    17.940714    23.351277    22.001875    9217.4342    3574.4256    2553.4225    1251.8268    231.75188    297.76643   -15.679836   -3791.6068 
12168000    184.69391   -4390.0012   -4073.4421   -4390.0012            0    575.60022    17.970537    23.487269    22.091737    9324.4545    1308.9551   -15.275916    433.12152   -976.79679    11.685007      700.327   -3995.1676 
12169000    188.30057    -4400.288   -4077.5472    -4400.288            0    2679.3298    18.065423    23.342208    21.864732    9220.0699    1737.5171    2185.5326    4114.9396    -429.6771   -645.09008    18.772469   -3717.2705 
12170000    173.39381   -4395.3306   -4098.1396   -4395.3306            0    2836.3144     17.71131    23.466573    22.092653     9182.231    2626.1175    2197.2333    3685.5926   -194.16297    -605.8428    406.47043    -3718.319 
12171000    183.73258   -4416.2997   -4101.3884   -4416.2997            0    1494.9789    18.099026    23.267792    21.966413    9250.5915     1573.253     1617.701    1293.9826   -763.39499    345.95509    632.22347   -3899.7002 
12172000    180.21485    -4418.145   -4109.2629    -4418.145            0    1929.4293    17.944695    23.555177    21.910041    9261.1654    2707.7986    889.92373    2190.5657    575.92205   -9.5589515   -103.57562   -3848.6653 
12173000    180.29572   -4418.3163   -4109.2956   -4418.3163            0    1704.1636    17.987387    23.260844     22.13753    9262.3827     1024.215    2386.5176    1701.7583     833.9024    10.909491   -172.74199   -3879.0931 
12174000    177.97761   -4417.5084   -4112.4609   -4417.5084            0    1746.9326    18.070238     23.27927     21.96087    9238.1026    2083.9469    2623.1992    533.65176    120.41711     855.8254    686.75596   -3877.0997 
12175000    185.94056     -4406.17   -4087.4742     -4406.17            0    2716.9824    17.811206    23.678953     21.80146    9194.7813    2421.5515    1305.5361    4423.8597   -844.66643     131.9333    1419.8505   -3723.1365 
12176000    182.92942   -4419.7819   -4106.2471   -4419.7819            0    915.22685    18.158139    23.103142     22.10904    9274.9647    1080.3293     1110.085    555.26628   -901.38586   -326.57875    575.69042   -3982.4482 
12177000     184.7251    -4395.476   -4078.8635    -4395.476            0    2140.6791    17.683903     23.69803    21.985017    9213.3417    3730.7958    299.36419    2391.8772   -446.43544   -377.31609    542.58877   -3791.2266 
12178000    176.37992   -4385.4314   -4083.1222   -4385.4314            0    2933.2993    17.988598    23.410385    21.843145    9198.5855    2908.4048    3035.1338    2856.3592    797.02414    623.07823   -51.946639   -3689.6145 
12179000     172.7291   -4400.4388    -4104.387   -4400.4388            0    1730.3393    17.987995    23.342175    22.028052    9249.1151     1856.131    871.63735    2463.2495     609.9963     85.20214   -183.44982   -3870.9835 
12180000    168.86964   -4393.0191   -4103.5823   -4393.0191            0    1656.4728      17.9098    23.538375     21.91828    9240.0366    1704.2801    2059.6549    1205.4835    1090.0903   -623.52327    203.91715   -3880.3619 
12181000     174.7978   -4391.3886   -4091.7912   -4391.3886            0    2179.9143     18.11552    23.214232    22.001682    9252.5404     1784.797    2459.1758    2295.7702   -336.00793   -191.67558    514.08804   -3797.6361 
12182000    193.81035   -4409.6252   -4077.4409   -4409.6252            0    473.33904    17.827979    23.819315    21.930339     9312.724    269.33028    673.53407    477.15275    76.545917   -22.012552   -183.60265   -4013.1537 
12183000    172.92504   -4406.2596    -4109.872   -4406.2596            0    3392.9888    18.096981    23.212062    21.848034    9177.6651    2649.0469    3835.3335     3694.586   -1369.7211   -172.80166   -371.71861   -3655.7312 
12184000    180.04246   -4423.3282   -4114.7415   -4423.3282            0    2325.5874    17.862805    23.403575     22.03034    9209.8605    3650.5977    2436.8733    889.29117   -782.97595   -547.48009   -65.230975   -3802.3771 
12185000     185.8134   -4402.8098   -4084.3319   -4402.8098            0    2115.3667    17.993471    23.358591    22.051339     9268.225    1995.7581     3398.437    951.90504    572.52201    595.17539   -165.37871    -3798.403 
12186000    197.28768   -4424.9148   -4086.7704   -4424.9148            0    1896.5167    18.164413    23.306992    21.883593    9264.5908    829.61805    2606.9831    2252.9488    143.66967    550.37546   -404.08403   -3830.5234 
12187000    172.44995   -4401.5271   -4105.9537   -4401.5271            0    2008.7972    17.832739    23.630611    21.905239    9230.8354    3267.4537    920.29725    1838.6406    84.104808   -556.42239    166.42142   -3835.5249 
12188000    181.90831   -4383.0718   -4071.2872   -4383.0718            0    3193.7312    18.122827    23.133337     21.92027    9189.8861    3005.0517    2705.3688    3870.7732   -774.48616    657.25984   -800.49522   -3643.2472 
12189000     179.3552   -4425.6596   -4118.2509   -4425.6596            0     2345.792    17.868768    23.445203    21.955854     9198.117     2504.398    1921.4681    2611.5099    306.50492   -56.135502    176.58253   -3803.5744 
12190000    193.00059   -4395.7654    -4064.969   -4395.7654            0    3341.7028    17.856565    23.332191    21.996821    9164.5972     2913.503    4411.0853    2700.5201   -880.15092     403.4466   -156.34476   -3618.3295 
12191000    181.95018   -4402.7064     -4090.85   -4402.7064            0    1501.2617    18.199295    23.268208    21.836543    9247.0114    1001.7724    896.76482     2605.248    208.13759    209.10765    143.57939   -3888.3926 
12192000    184.52191   -4408.9867   -4092.7224   -4408.9867            0    2896.7011    17.799139    23.361438    22.108792    9193.1337    4551.5083    2531.2837    1607.3112    306.30336   -330.55576   -459.40719   -3704.3547 
12193000     184.5375   -4411.8347   -4095.5437   -4411.8347            0    2837.1364    18.142008    23.337146    21.697662    9186.4143    2397.2657    3157.4513    2956.6922   -671.24048   -447.62976   -298.77197   -3715.4399 
12194000    184.86659   -4398.5053   -4081.6502   -4398.5053            0    1919.9037    17.905725    23.410242    22.019026    9229.8772    1124.0854    2537.0252    2098.6005    793.46034   -858.92801    234.42515   -3823.2153 
12195000    181.84298   -4411.7394   -4100.0667   -4411.7394            0     1957.714    18.070163    23.388878     21.88097    9247.7918    2342.4798    1642.3499    1888.3124    228.77931   -741.27639   -22.373564   -3836.0307 
12196000    168.68928   -4391.7257   -4102.5981   -4391.7257            0    1899.8557    17.996814    23.280523    22.073917    9248.4247    2188.1017    2373.2832    1138.1823   -832.50506    104.75743   -40.549626   -3846.3478 
12197000    178.50638   -4401.5459   -4095.5921   -4401.5459            0    1393.4709    17.953962    23.380639     22.09211     9273.718    1338.9117    1444.7766    1396.7243    249.69093    551.25663   -1018.5627   -3907.1284 
12198000    176.11495   -4398.2746   -4096.4196   -4398.2746            0    2205.5748    18.207941    23.300656    21.775564    9238.4343    610.10224    3157.8816    2848.7404   -83.659896    229.90043    362.40482   -3799.2557 
12199000    183.92029    -4397.884   -4082.6509    -4397.884            0    3072.9973    17.830776    23.475969    21.996466    9207.6053    3222.4845    2910.2339    3086.2735   -141.63378   -638.83214    564.81326   -3669.9981 
12200000    172.11581    -4399.677   -4104.6764    -4399.677            0    1734.5621    18.114847    23.248787    22.031855    9278.6765    1586.8209    2516.0763     1100.789   -261.99336   -265.88985   -521.83159   -3869.9555 
12201000    188.92071   -4418.8795   -4095.0759   -4418.8795            0    2238.4573    18.007818    23.266739    22.010592    9222.0682    1140.8214    3236.4545     2338.096    291.90194   -12.600617   -446.94881   -3794.0159 
12202000    181.41133   -4405.3062   -4094.3734   -4405.3062            0    1586.8741    17.917878    23.495964     22.05191     9283.806    4035.7502    478.74263    246.12952   -536.32571   -59.899299    283.92132   -3879.5189 
12203000     172.4221   -4407.5931   -4112.0675   -4407.5931            0    1818.0539    18.002347     23.42753    21.890256    9232.2268    2123.0324    1128.5449    2202.5844   -496.66219   -464.11451   -116.48058   -3867.2801 
12204000    177.85354    -4422.023   -4117.1881    -4422.023            0    1214.1473    17.880889    23.392873    22.187608    9280.7512    814.09335    1841.4995    986.84913     686.9522    96.800613   -77.142532    -3952.853 
12205000    176.62758   -4420.5964   -4117.8627   -4420.5964            0    2189.6889    18.217619    23.329975    21.735554    9237.9711    1036.9209    3293.9309     2238.215    145.03338   -680.61964   -438.72052    -3822.854 
12206000    176.15772   -4417.0163    -4115.088   -4417.0163            0    1320.6429    17.960958    23.424183    22.093814    9295.3264    2090.1403    1995.2614   -123.47307    867.96588   -159.54428    355.53954   -3936.0579 
12207000    179.54878   -4415.5179   -4107.7775   -4415.5179            0    1935.8592    18.059376     23.27104    21.963016    9230.1872    1390.1829    2422.5886    1994.8061   -145.88189   -280.95985    -9.722363    -3847.186 
12208000    182.94615   -4405.3795    -4091.816   -4405.3795            0    2717.7103    18.000767    23.522156    21.891833    9269.3712    3628.6066    1914.0817    2610.4427   -359.90605   -530.91925   -513.84403   -3724.4243 
12209000    175.02606   -4401.5784   -4101.5897   -4401.5784            0    1885.0766    17.923337    23.305778    22.184689    9266.9284     2576.268    2634.7682    444.19344   -531.92542   -5.3867041   -424.77391   -3846.8242 
12210000     182.3932   -4396.3133   -4083.6976   -4396.3133            0    2115.1586     18.10049    23.446735    21.808331    9255.3987    2526.3223    1940.1039    1879.0497    70.650451   -159.49626    310.13299   -3798.1924 
12211000     178.4996   -4413.9351   -4107.9929   -4413.9351            0    2001.7673    17.832645    23.473832    22.080838    9243.0501    1423.5947     2509.924    2071.7832    20.494758   -494.23127   -311.55168   -3838.1538 
12212000    177.84415   -4398.9266   -4094.1078   -4398.9266            0    2498.2592    18.015124     23.33602    21.976681    9239.0255    1659.0554    3272.1716    2563.5505    538.28939   -298.28445    166.50171   -3757.4881 
12213000    183.53582   -4405.4202   -4090.8461   -4405.4202            0    2322.0937    17.964568    23.554547    21.818195    9232.3098    2290.6481    401.17359    4274.4594   -1056.0338    221.44935   -136.27753   -3778.1907 
12214000    172.51771   -4401.7579   -4106.0684   -4401.7579            0    1612.7517    17.930357     23.28502    22.185027    9262.4422    1149.2139    1181.1855    2507.8556   -526.37228    203.37596    259.71407   -3888.2128 
12215000     176.0537    -4443.363    -4141.613    -4443.363            0    665.62978     18.09193    23.513776    21.954129    9339.4974    1131.6969   -608.58363    1473.7761    367.35691    65.915516   -364.16206   -4050.9496 
12216000    181.02561   -4420.0003   -4109.7286   -4420.0003            0    1180.3846    18.012581    23.424594    22.028993    9294.8557    276.23729    2253.0428    1011.8737   -377.77291   -210.74484   -201.89568   -3949.7205 
12217000    172.82152   -4414.8745   -4118.6644   -4414.8745            0     3409.126    18.048349    23.212158    21.945084    9193.6985    1266.4791    3880.3156    5080.5834   -225.70539   -152.17952    119.72491   -3661.5665 
12218000    177.73861   -4404.2688   -4099.6309   -4404.2688            0    2329.5164    17.977683    23.519929    21.873824    9248.9926    1648.5668    2525.5192    2814.4634   -1357.4289    424.62591   -117.74777   -3785.4092 
12219000    179.01275   -4396.2858   -4089.4641   -4396.2858            0    2233.5965    17.998906    23.283395    22.076379    9251.6726    1881.7062    3478.1882    1340.8951    64.796152     -42.4714    597.28029   -3788.0935 
12220000    160.40938   -4393.7962   -4118.8601   -4393.7962            0    2902.9791    18.063511    23.477867    21.739999    9219.7752    2637.5705    2682.5914    3388.7753   -17.114573   -599.75942   -268.16749   -3728.5227 
12221000    176.39472   -4403.4156   -4101.0811   -4403.4156            0    2195.6124    17.929828    23.377482    22.130096    9275.9232    2929.1713    2139.7412    1517.9245   -584.20556   -632.98768   -291.25059   -3804.0591 
12222000    176.65833   -4416.2431   -4113.4567   -4416.2431            0    2104.9277    18.072317    23.306456    21.904615    9226.2601    2499.4872    3115.6316    699.66437    437.76628   -465.85536    -45.85399   -3830.2271 
12223000    179.39703   -4414.9668   -4107.4865   -4414.9668            0    1510.3524    17.955613    23.542635    21.888567    9252.7884    1233.6527    659.23288    2638.1717   -706.52648   -815.22964    677.67622   -3903.6758 
12224000    172.63198   -4394.1017   -4098.2164   -4394.1017            0    2453.4981    17.910407    23.128827    22.230869     9209.064    2787.7397    2909.2673    1663.4874   -68.064002    3.0466151   -65.355615   -3768.6999 
12225000    162.76782   -4391.3545    -4112.376   -4391.3545            0    2460.0189     18.05797    23.488568    21.777489    9237.0494    3902.7501    1861.7535    1615.5532    15.396041    501.84046   -656.51025   -3780.9798 
12226000     184.1384    -4408.828   -4093.2211    -4408.828            0    2167.4722    17.956971    23.160745     22.20276    9234.0576    2263.2195    2010.1774    2229.0199   -270.31368    517.52868    270.76544   -3801.3292 
12227000    186.91821   -4382.9696   -4062.5982   -4382.9696            0    1859.9965    18.012504    23.602069     21.90294    9311.6488     1693.185     2137.709    1749.0956   -303.60259   -717.28886    267.25203   -3810.0091 
12228000    176.13793   -4387.3753   -4085.4809   -4387.3753            0    2364.4568    18.083647    23.396262    21.889465    9261.2084     1641.102     2318.408    3133.8605   -802.40431   -14.657666    490.62591    -3766.125 
12229000    179.80579    -4396.803   -4088.6221    -4396.803            0    2100.1572    17.750344     23.36764    22.376115    9281.2467    3224.1604    2783.5679    292.74335   -1215.4835   -375.90577    520.37864   -3804.3501 
12230000    180.21651    -4380.964    -4072.079    -4380.964            0     1481.866    18.034532    23.456462    21.876089    9254.1615     1816.161    498.02488     2131.412   -534.05277   -87.665565    365.03383   -3872.0828 
12231000    187.28039    -4406.855   -4085.8628    -4406.855            0    2167.1493    17.941443    23.362516    22.049991     9242.414    2400.6065    3192.9119     907.9296    636.77503   -351.77822   -197.90534   -3793.7503 
12232000    180.20171    -4404.533   -4095.6735    -4404.533            0    1582.7154    17.956912    23.373221    22.076888    9265.9099    2190.1729    1702.2547    855.71867   -258.37086   -443.02855   -457.90674   -3881.7951 
12233000    177.22087   -4415.2721   -4111.5216   -4415.2721            0    1569.8457    18.114183    23.376364    21.869731    9260.6009     1733.495    1720.2744    1255.7677   -832.10097    72.642353    704.33714   -3899.5039 
12234000    185.77331    -4400.142   -4081.7329    -4400.142            0    3439.3078    17.825506    23.368735    22.086313    9200.2642    3094.0946    3989.7906    3234.0381    714.38848    271.31905    -541.8491   -3620.2589 
12235000    178.66905   -4422.1339   -4115.9013   -4422.1339            0    1671.6933     18.09208    23.454585    21.856007    9274.4267    2711.8849    1581.1795    722.01555    250.48095   -661.21332    227.62688   -3889.7914 
12236000    181.35407   -4416.6568   -4105.8222   -4416.6568            0     1568.354    17.958645    23.337106    22.081852    9254.5662     2228.568    1442.7772    1033.7167    894.90123    1170.0875    555.24071    -3894.144 
12237000    185.26859   -4420.7252   -4103.1811   -4420.7252            0    2467.4681    17.865747    23.400964    21.975522    9187.4316    3093.2838    2356.2214    1952.8991    107.32016    125.22336   -169.08605   -3772.5669 
12238000    184.52787   -4405.0537   -4088.7793   -4405.0537            0    1377.6612    18.169744     23.22662    21.952376    9264.3793      1009.58    729.88842    2393.5151    20.838909   -673.55791   -461.77884   -3902.6414 
12239000    182.85813   -4408.6043   -4095.1917   -4408.6043            0     776.8242    17.795611    23.618399    21.964757    9231.8713    1370.3284   -230.90497    1191.0492    247.15012   -589.85854   -551.87646   -3990.6022 
12240000    181.41185   -4409.5905   -4098.6568   -4409.5905            0    1643.3447    18.061484    23.282902    21.996731    9250.1479    1733.0211     2269.157    927.85595    280.02678    273.66795   -152.63344   -3876.9631 
12241000    178.51063   -4423.1072   -4117.1461   -4423.1072            0    1620.3578    17.932484    23.541302    21.846263    9222.4878     1117.814    557.18012    3186.0794    661.63778    1194.6134    342.35412   -3899.2071 
12242000    170.94583     -4390.03   -4097.0347     -4390.03            0    1686.6821    18.075747    23.165256    22.100537    9254.1423    2000.1992    2076.5632    983.28413    495.37041    386.97503   -159.16907   -3869.3964 
12243000     190.1186   -4406.1948   -4080.3381   -4406.1948            0    2310.1475    18.000991    23.450514    21.897951    9243.8368    2806.2668    2259.8652    1864.3105   -672.57143    -185.0187    135.58579   -3768.9027 
12244000    183.26517   -4399.2358   -4085.1256   -4399.2358            0    3182.8717    17.912608    23.412464    21.887424    9179.1107    4231.0434    3540.4896    1777.0821    152.58097    655.76786    448.22196   -3659.0412 
12245000     189.7795   -4398.8961   -4073.6206   -4398.8961            0    1666.3028     17.97163    23.232251    22.101139    9227.6988    897.42835    1865.8529    2235.6273   -11.789753   -230.87552   -689.52913   -3849.3753 
12246000    180.21797   -4409.9727   -4101.0853   -4409.9727            0    1110.2972    18.068015    23.577833    21.701426    9244.9076   -145.73757     2935.991    540.63805   -496.56528     166.1815    943.25161   -3951.3867 
12247000    182.70632   -4417.7164    -4104.564   -4417.7164            0    1444.0065    17.998785    23.211302    22.098184    9232.0737    1869.6441    563.58382    1898.7917   -317.21457    141.05866   -796.16634   -3910.1425 
12248000    186.38834   -4390.7325   -4071.2693   -4390.7325            0    2250.6482    18.008558    23.486378    21.703733    9179.7198    1972.0189     1398.846    3381.0797    191.43481    201.46829   -423.48341   -3769.9597 
12249000    174.23668   -4412.4344   -4113.7987   -4412.4344            0    2384.8791    17.798699    23.427552    22.128033    9226.9463    2760.7306    1568.7213    2825.1853   -468.57234   -189.84828    464.38829   -3792.8762 
12250000    188.17269   -4396.9962   -4074.4747   -4396.9962            0     1242.606    18.108346    23.370064    22.005117     9312.416    1230.9553    975.51997    1521.3427   -594.12413    110.93317   -488.18488   -3905.7138 
Loop time of 350.844 on 64 procs for 250000 steps with 864 atoms

Performance: 123.132 ns/day, 0.195 hours/ns, 712.567 timesteps/s
195.2% CPU use with 32 MPI tasks x 2 OpenMP threads

MPI task timing breakdown:
Section |  min time  |  avg time  |  max time  |%varavg| %total
---------------------------------------------------------------
Pair    | 17.33      | 25.157     | 40.188     | 109.0 |  7.17
Bond    | 0.79608    | 1.0362     | 1.8092     |  17.8 |  0.30
Kspace  | 171.19     | 187.8      | 196.65     |  41.5 | 53.53
Neigh   | 0.97225    | 1.055      | 1.1608     |   5.7 |  0.30
Comm    | 51.132     | 54.675     | 57.995     |  27.4 | 15.58
Output  | 0.49059    | 0.49092    | 0.49255    |   0.0 |  0.14
Modify  | 62.489     | 64.583     | 68.477     |  18.2 | 18.41
Other   |            | 16.05      |            |       |  4.57

Nlocal:        27.0000 ave          40 max          18 min
Histogram: 8 2 4 2 4 2 2 4 1 3
Nghost:        2126.03 ave        2237 max        2026 min
Histogram: 9 6 1 0 0 0 0 5 6 5
Neighs:        6524.41 ave        9394 max        4173 min
Histogram: 4 6 2 4 2 4 2 3 1 4

Total # of neighbors = 208781
Ave neighs/atom = 241.64468
Ave special neighs/atom = 2.0000000
Neighbor list builds = 3836
Dangerous builds = 0

unfix		3
unfix		2
unfix		1

write_data	data.final.${pid} nocoeff
write_data	data.final.1 nocoeff
System init for write_data ...
PPPM initialization ...
  extracting TIP4P info from pair style
  using 12-bit tables for long-range coulomb (../kspace.cpp:340)
  G vector (1/distance) = 0.37166428
  grid = 24 27 25
  stencil order = 5
  estimated absolute RMS force accuracy = 0.0031587608
  estimated relative force accuracy = 9.5125143e-06
  using double precision FFTW3
  3d grid and FFT values/proc = 4410 672
Last active /omp style is kspace_style pppm/tip4p/omp

write_restart   restart.lmp.${pid}
write_restart   restart.lmp.1
System init for write_restart ...
PPPM initialization ...
  extracting TIP4P info from pair style
  using 12-bit tables for long-range coulomb (../kspace.cpp:340)
  G vector (1/distance) = 0.37166428
  grid = 24 27 25
  stencil order = 5
  estimated absolute RMS force accuracy = 0.0031587608
  estimated relative force accuracy = 9.5125143e-06
  using double precision FFTW3
  3d grid and FFT values/proc = 4410 672
Last active /omp style is kspace_style pppm/tip4p/omp
Total wall time: 0:05:51
