LAMMPS (30 Jul 2021)
  using 1 OpenMP thread(s) per MPI task
package omp 0
using multi-threaded neighbor list subroutines
echo both

include		in.partitions
variable        pid world 0
include		in.temp
variable        temperature equal 232.25
variable	tempDamp equal 100.0
include		in.pressure
variable        pressure equal 0.0
variable        pressureDamp equal 1000.0 # This is 1 ps
include		in.seed
variable        seed world 745823

units		real
atom_style	full

read_restart	restart.lmp.${pid}
read_restart	restart.lmp.0
Reading restart file ...
  restart file = 30 Jul 2021, LAMMPS = 30 Jul 2021
  restoring atom style full from restart
  orthogonal box = (-0.055704811 -0.098492041 -0.41636949) to (20.055706 20.098493 21.116367)
  4 by 4 by 4 MPI processor grid
  restoring pair style lj/cut/tip4p/long/omp from restart
  restoring bond style harmonic/omp from restart
  restoring angle style harmonic/omp from restart
  972 atoms
  648 bonds
  324 angles
Finding 1-2 1-3 1-4 neighbors ...
  special bond factors lj:    0        0        0       
  special bond factors coul:  0        0        0       
     2 = max # of 1-2 neighbors
     1 = max # of 1-3 neighbors
     1 = max # of 1-4 neighbors
     2 = max # of special neighbors
  special bonds CPU = 1.687 seconds
  read_restart CPU = 2.061 seconds
include 	in.setup
variable	out_freq equal 1000
variable	out_freq2 equal 10000
variable	out_freq3 equal 1000

timestep	2.0

neigh_modify    delay 7 every 1

include		in.tip4p
# This is TIP4P/Ice

# create groups ###
group ox type 2
324 atoms in group ox
group hy type 1
648 atoms in group hy

# set charges - beside manually ###
set group ox charge -1.1794
Setting atom values ...
  324 settings made for charge
set group hy charge 0.5897
Setting atom values ...
  648 settings made for charge

# ### TIP3P Potential Parameters ###
pair_style lj/cut/tip4p/long/omp 2 1 1 1 0.1577 8.5
pair_coeff 1 1*2 0.000 0.000
pair_coeff 2 2 0.21084 3.1668
bond_style  harmonic
bond_coeff  1 450 0.9572
angle_style harmonic
angle_coeff 1 55 104.52
kspace_style pppm/tip4p/omp 1.0e-5
pair_modify tail yes

thermo          ${out_freq}
thermo          1000
thermo_style    custom step temp pe etotal epair emol press lx ly lz vol pxx pyy pzz pxy pxz pyz enthalpy

restart 	${out_freq3} restart.lmp.${pid} restart2.lmp.${pid}
restart 	1000 restart.lmp.${pid} restart2.lmp.${pid}
restart 	1000 restart.lmp.0 restart2.lmp.${pid}
restart 	1000 restart.lmp.0 restart2.lmp.0


include         in.dump
dump            myDump all atom ${out_freq2} dump.water.${pid}
dump            myDump all atom 10000 dump.water.${pid}
dump            myDump all atom 10000 dump.water.0
dump            myDump2 all dcd ${out_freq2} dump.dcd
dump            myDump2 all dcd 10000 dump.dcd
dump_modify     myDump append yes
dump_modify     myDump2 append yes


variable natoms 	equal  "count(all)"                        # NUMBER ATOMS
variable H      	equal  "enthalpy/v_natoms"                 # ENTHALPY-per-atom
variable Vol      	equal  "vol/v_natoms"                 # volume-per-atom
fix AVG all 		ave/time ${out_freq} 1 ${out_freq} v_Vol v_H file vol_enthalpy.dat
fix AVG all 		ave/time 1000 1 ${out_freq} v_Vol v_H file vol_enthalpy.dat
fix AVG all 		ave/time 1000 1 1000 v_Vol v_H file vol_enthalpy.dat


timer           timeout 02:55:00 every 1000
New timer settings: style=normal  mode=nosync  timeout=02:55:00

fix 		1 all shake 1e-6 200 0 b 1 a 1
       0 = # of size 2 clusters
       0 = # of size 3 clusters
       0 = # of size 4 clusters
     324 = # of frozen angles
  find clusters CPU = 0.002 seconds
fix             2 all nph aniso ${pressure} ${pressure} ${pressureDamp}
fix             2 all nph aniso 0 ${pressure} ${pressureDamp}
fix             2 all nph aniso 0 0 ${pressureDamp}
fix             2 all nph aniso 0 0 1000
fix             3 all temp/csvr ${temperature} ${temperature} ${tempDamp} ${seed}
fix             3 all temp/csvr 232.25 ${temperature} ${tempDamp} ${seed}
fix             3 all temp/csvr 232.25 232.25 ${tempDamp} ${seed}
fix             3 all temp/csvr 232.25 232.25 100 ${seed}
fix             3 all temp/csvr 232.25 232.25 100 745823


run             250000
PPPM initialization ...
  extracting TIP4P info from pair style
  using 12-bit tables for long-range coulomb (../kspace.cpp:340)
  G vector (1/distance) = 0.37101482
  grid = 24 24 25
  stencil order = 5
  estimated absolute RMS force accuracy = 0.0035812691
  estimated relative force accuracy = 1.0784886e-05
  using double precision FFTW3
  3d grid and FFT values/proc = 2366 288
Last active /omp style is kspace_style pppm/tip4p/omp
Neighbor list info ...
  update every 1 steps, delay 7 steps, check yes
  max neighbors/atom: 2000, page size: 100000
  master list distance cutoff = 10.8154
  ghost atom cutoff = 10.8154
  binsize = 5.4077, bins = 4 4 4
  1 neighbor lists, perpetual/occasional/extra = 1 0 0
  (1) pair lj/cut/tip4p/long/omp, perpetual
      attributes: half, newton on, omp
      pair build: half/bin/newton/omp
      stencil: half/bin/3d
      bin: standard
Per MPI rank memory allocation (min/avg/max) = 9.223 | 9.228 | 9.235 Mbytes
Step Temp PotEng TotEng E_pair E_mol Press Lx Ly Lz Volume Pxx Pyy Pzz Pxy Pxz Pyz Enthalpy 
16250000    234.73822   -4718.9648   -4266.2524   -4718.9648            0   -124.45784    20.111411    20.196985    21.532737    8746.3794    899.20709   -31.786963   -1240.7936    25.469157    170.47129   -94.182002   -4282.1279 
16251000    234.64233    -4764.271   -4311.7435    -4764.271            0   -912.15343    20.232277    20.296383    21.212488    8710.7396   -439.60285   -1710.1567   -586.70068    128.96075   -133.77683   -950.45956    -4427.621 
16252000    234.94912   -4758.3485   -4305.2294   -4758.3485            0   -1346.1036    20.183538    20.420847    20.982043    8648.0629   -1418.3019   -1071.7443   -1548.2645   -542.81699    1425.5117    962.19233   -4475.0041 
16253000    229.17864   -4761.4611   -4319.4709   -4761.4611            0   -589.38006    20.273399    20.190683    21.152199    8658.3095   -2492.3522    934.80199   -210.58996   -163.17934    1312.9921    282.01783   -4393.8934 
16254000    228.91509   -4779.8644   -4338.3824   -4779.8644            0    1179.3819    20.063075    20.206756    21.260159    8619.0737    2606.2183    311.19771    620.72981   -316.92296    33.442657    957.40836   -4190.1337 
16255000    227.25716   -4740.1205   -4301.8359   -4740.1205            0    1049.4021    20.250247    20.341383     20.88164     8601.524   -308.14384    1978.9126    1477.4375   -565.25191     219.6332   -477.80153   -4170.1943 
16256000    229.89008   -4731.5982   -4288.2359   -4731.5982            0    846.74742     20.29857    20.194484    20.881545     8559.745    525.20897   -879.55512    2894.5884    631.82484   -964.77498   -1465.3859   -4182.5321 
16257000    243.93219   -4764.6329   -4294.1892   -4764.6329            0     178.8198     20.18606     20.12118    21.231261    8623.4451   -260.68499    2265.9605   -1468.8161    1046.7348    112.58576    338.62919   -4271.7001 
16258000    242.13423   -4762.2969   -4295.3207   -4762.2969            0   -131.72085    20.196211    20.222282    21.311752    8704.0063   -846.58397    266.30562     185.1158   -515.36991   -232.53415   -1594.1237   -4312.0412 
16259000    239.81273   -4735.4794   -4272.9804   -4735.4794            0    1009.6031    20.325678    20.269732    20.951191    8631.8075    1139.0004    779.80217    1110.0067    534.65132     888.0193    -414.3929   -4145.8855 
16260000    230.91856   -4737.5907   -4292.2448   -4737.5907            0   -668.81665    20.249275    20.336338    21.169232    8717.4068    1271.7651   -3142.6064    -135.6086   -34.057528   -164.46251    1033.1748   -4377.2744 
16261000    236.80282   -4763.1644   -4306.4702   -4763.1644            0     726.7464    20.196514    20.123795    21.179415    8607.9604   -548.14996    1753.4146    974.97454   -80.469475   -1405.2867   -1377.9708   -4215.2358 
16262000     242.3312   -4727.4483   -4260.0922   -4727.4483            0    54.923298    20.273091    20.110985    20.996439    8560.4965   -764.95013    319.07466    610.64537     915.2474     -1609.92   -756.09547   -4253.2353 
16263000    245.41951   -4739.1065   -4265.7943   -4739.1065            0     -969.663    20.279848    20.416827    21.005787    8697.4494   -1451.5011   -1938.3109    480.82301   -118.11949    81.810869   -540.66218   -4388.7897 
16264000    229.96877   -4763.0106   -4319.4965   -4763.0106            0     835.9682    20.016835    20.069169    21.284136    8550.2891    1393.9515    745.98352    367.96956   -390.45043    485.78177    488.00969   -4215.2536 
16265000    223.58118   -4738.4001    -4307.205   -4738.4001            0    968.09646    20.199908    20.226729    21.182905    8654.8703    183.48036    2965.1545   -244.34551   -355.68119    541.41474    660.05679   -4185.0095 
16266000    238.11365    -4765.994   -4306.7718    -4765.994            0    1584.8133    20.168867    20.185069    20.937622     8523.915    2638.0243    181.63223    1934.7833    50.306351   -1112.1564    278.00357   -4109.7596 
16267000    227.53386   -4751.7714   -4312.9532   -4751.7714            0    1088.8341    20.128619    20.261134    21.192925     8643.082    2016.4952    -82.72229    1332.7293   -348.42231    44.998772   -372.90914   -4175.7051 
16268000    224.04621   -4758.8594   -4326.7674   -4758.8594            0    141.03243    20.188738    19.945921    21.372835    8606.4769     190.6221    694.15813   -461.68295   -27.138121    646.22966   -791.23947   -4309.0655 
16269000    228.11636    -4751.379   -4311.4374    -4751.379            0    450.62014    20.257759    20.220747    21.134461    8657.2463   -264.38467    1050.2404    566.00465    403.86133    345.11127    1533.5015   -4254.5434 
16270000    224.53166   -4756.4467   -4323.4185   -4756.4467            0    475.20607    20.204636    20.221568    21.001437    8580.5448    775.13478   -556.60727    1207.0907   -250.34889   -524.03276   -729.20919    -4263.952 
16271000    221.11891    -4751.935   -4325.4886    -4751.935            0   -56.543806    20.193384    20.202951    21.198227    8648.1546    1016.6408   -879.11023   -307.16198    94.364554    257.36192   -55.072715   -4332.6201 
16272000    240.43732   -4766.5593   -4302.8557   -4766.5593            0   -215.89973    20.081066    20.396742     21.05399    8623.4686   -680.00048   -725.68981    757.99109    227.79412   -62.132676   -269.05832   -4330.0082 
16273000    225.93544   -4761.1615    -4325.426   -4761.1615            0   -1739.4661    20.411515     20.15485    21.204169    8723.2045   -2817.8528   -1169.2192   -1231.3262    377.40695   -564.24936   -372.83198   -4546.7191 
16274000     242.9511   -4733.3244   -4264.7728   -4733.3244            0   -35.316033    20.126918    20.256424    21.333893    8697.8151   -1160.4523   -121.41968    1175.9239   -95.310619     9.868156    806.84614   -4269.2526 
16275000    238.81547   -4735.7983   -4275.2226   -4735.7983            0   -64.154274    20.311694     20.17489      21.2404    8704.0223   -555.82222    664.12388   -300.76448    54.037798     1635.072    958.20183   -4283.3663 
16276000    232.70417   -4722.7445    -4273.955   -4722.7445            0   -158.48987    20.210159    20.493832    20.952823    8678.3158     1400.813   -1976.6875    100.40487    304.45812   -297.76513   -165.63696   -4294.0141 
16277000    240.26657   -4738.9327   -4275.5584   -4738.9327            0    116.92419    20.201257    20.115716    21.456055    8718.9415    1886.6151   -1229.4378   -306.40469    242.30688    1057.7558    -427.3719   -4260.6907 
16278000     226.3592    -4756.455   -4319.9023    -4756.455            0   -438.31356    20.202988    20.193012    21.320364    8697.8382    187.61001   -466.29385   -1036.2568    85.653929   -366.11411    784.53278   -4375.5019 
16279000    238.65268   -4760.5436   -4300.2819   -4760.5436            0    883.47168    20.081719    20.237848    21.162446    8600.6459    1989.5989    16.295456    644.52071   -868.32181     538.6045    377.77533   -4189.4666 
16280000    224.95695    -4715.549   -4281.7006    -4715.549            0    903.35389    20.406874    20.098888    21.103912     8655.885     919.1295    1870.9201   -79.987942   -101.00928    559.74653   -248.13453   -4167.6638 
16281000    237.15993   -4739.7593   -4282.3764   -4739.7593            0    552.98588    20.278552    20.244072    21.119111    8669.8271    1682.3463   -36.874579    13.485862    56.372685   -281.03129    527.42409   -4212.4565 
16282000    235.15416   -4744.0633   -4290.5487   -4744.0633            0   -404.55239    20.122956    20.124603    21.243687    8602.9815    1296.9612   -381.80243   -2128.8159   -437.41457    441.74994    901.07429   -4341.3062 
16283000    231.61165   -4746.2372   -4299.5546   -4746.2372            0   -9.6644273    20.285682    20.216127    21.189475    8689.7599   -267.25093    1170.9036   -932.64592    71.121937   -401.80568    700.50793   -4300.7794 
16284000    234.96399   -4771.9768    -4318.829   -4771.9768            0    -562.4977    20.124426    20.381937    21.055105    8636.2734   -1308.6819   -189.88316   -188.92802    594.32726    123.18702   -318.36289   -4389.6763 
16285000    218.06323   -4770.4432   -4349.8899   -4770.4432            0    1686.0673    20.211845    20.108953     20.99186    8531.9117    1537.4716    1938.3307    1582.3995    402.57533   -228.37773    143.23639   -4140.0939 
16286000    230.40226   -4771.5172   -4327.1671   -4771.5172            0   -605.95989    20.188916    20.166767    21.168419    8618.6197     479.0363    -352.4671   -1944.4489   -510.28845    1483.7122    123.57212   -4403.3324 
16287000    240.24918   -4773.8286   -4310.4879   -4773.8286            0   -484.89669    20.071038    20.421705     21.10106    8649.0041    612.46438   -2111.3698    44.215385   -479.90877   -308.33052     12.84492   -4371.6512 
16288000     233.5336   -4742.2749   -4291.8857   -4742.2749            0    1351.1361     20.26292    20.052461    21.248455    8633.7022    829.97868     2210.359    1013.0706    -91.27421   -340.60461    944.42967   -4121.7592 
16289000    229.74514   -4768.8214   -4325.7385   -4768.8214            0    260.74325    20.294063    20.042061    21.217283    8629.8086   -452.03878    2195.3633   -961.09475    616.22009   -1309.0418    83.607833   -4292.9222 
16290000    226.59906   -4745.2326   -4308.2173   -4745.2326            0    482.26667    20.338803    20.221431    21.150098    8698.6062    678.34117    34.771412    733.68742    184.33061   -1167.4389   -15.198205   -4247.0368 
16291000    231.49165   -4751.1889   -4304.7377   -4751.1889            0    134.50702     20.04609    20.272646    21.150347    8595.2324    238.90852    -200.2936    364.90614     129.3503   -144.44649   -1541.4616   -4287.8769 
16292000    225.15391   -4742.2833    -4308.055   -4742.2833            0    -690.4032     20.18859     20.05969     21.64123    8764.1975    144.09021   -304.82167   -1910.4781   -133.17935    855.18234   -973.57492   -4396.3002 
16293000    233.31668   -4735.2103   -4285.2394   -4735.2103            0    475.80401    20.374042    20.085556    21.222776    8684.8686   -111.39341    1062.5104    476.29506   -96.643098      621.179    583.51115   -4224.9741 
16294000    225.15248   -4774.6957   -4340.4702   -4774.6957            0    1385.4505    20.011837    20.253869    20.965198    8497.5534    3898.9462   -668.08309    925.48854    47.904293   -450.16948    1688.4607    -4168.774 
16295000    229.76815   -4783.3557   -4340.2285   -4783.3557            0    378.89284     20.20459    20.365771     21.09747    8681.2302    849.70354   -899.50257    1186.4776    5.4268556    1141.0079   -1297.5364   -4292.2581 
16296000    231.11653   -4773.0992   -4327.3715   -4773.0992            0    2.7714618     20.26981    20.107071    21.322585    8690.3713   -1038.8536   -162.37781    1209.5458    84.446114    164.26562    804.47173   -4327.0202 
16297000    227.64267   -4746.3479   -4307.3198   -4746.3479            0     1266.547    20.152992    20.021784    21.379146    8626.4609    2682.1035    1756.7472   -639.20985    439.59583    1272.7457     1086.515    -4147.978 
16298000    229.08434   -4770.1979   -4328.3895   -4770.1979            0   -1258.4119     20.33557    20.281908     21.14425    8720.8224   -3338.8972    65.709319   -502.04779   -202.23929    -3.283091    734.99112   -4488.4397 
16299000    231.11703   -4743.7917    -4298.063   -4743.7917            0    -673.7382    20.494333    20.244803    20.942521    8689.1302   -1404.7555   -800.76415    184.30503   -594.28393    1212.8676   -1215.0448   -4383.4405 
16300000     228.3948   -4774.9466    -4334.468   -4774.9466            0    256.60545     20.26138    20.062778    21.242374     8635.016   -1562.7331     2706.872   -374.32255   -319.61291    251.46426   -604.56987    -4302.153 
16301000    248.05075   -4718.7091   -4240.3224   -4718.7091            0   -1170.2438      20.2462    20.355826    21.245558    8755.8919   -1392.2539   -1803.0627   -315.41478     -682.563   -1110.1794     804.0828   -4389.7575 
16302000    221.24767   -4764.7708   -4338.0761   -4764.7708            0    814.48954     20.18756    20.297266    20.954713    8586.2411    1592.6649    -1480.392    2331.1958   -25.876795    964.58576    1107.2972   -4236.0845 
16303000    229.44849   -4777.4125   -4334.9018   -4777.4125            0    1253.9284     20.12847    20.322996    20.980801    8582.6336    1673.7315    1380.6465    707.40711    -708.0846    207.78634   -1945.2861   -4177.9489 
16304000    236.35073   -4744.1474   -4288.3251   -4744.1474            0   -502.18147    20.244322    20.032652    21.480767    8711.4707   -376.92748    636.83724   -1766.4542   -324.90053   -1085.4171   -374.46792   -4352.1262 
16305000    238.18811   -4765.3263   -4305.9605   -4765.3263            0    797.27628    20.228669    20.148246     21.11982    8607.8514    8.4944943    1413.9957    969.33864   -653.06622   -810.54674    625.68743   -4205.8731 
16306000    244.10424   -4732.1631   -4261.3876   -4732.1631            0    1097.6322    20.161059    20.146898     21.14926    8590.4656    1015.0261       1949.8    328.07064   -100.39875    802.12192     388.0411   -4123.8727 
16307000     220.6691   -4764.5759   -4338.9969   -4764.5759            0    152.67754     20.35281    20.123927    21.308917    8727.6734   -252.27694    26.666395    683.64318    243.58273    1246.4532    820.16475   -4319.5635 
16308000    242.92165   -4768.7027   -4300.2079   -4768.7027            0   -1798.7252    20.260868    20.253026    21.163947    8684.4966   -1364.7888   -1552.1889   -2479.1978    70.232812    1518.6535    478.62628   -4528.0245 
16309000    233.13169   -4754.4835   -4304.8695   -4754.4835            0    819.81692    20.203405    20.329571     21.07399    8655.6472    1056.9817    43.251168    1359.2179    524.63096   -1380.8621   -708.19864   -4201.3809 
16310000    235.61015   -4764.5361   -4310.1421   -4764.5361            0    646.64665    20.339581    20.275809    20.922362    8628.4125   -261.71708    560.13882    1641.5182    247.23071   -441.39132   -408.83323   -4228.7703 
16311000    237.13757   -4754.4841   -4297.1444   -4754.4841            0    620.63572    20.194076    20.277018    21.088698    8635.3078    1137.1557   -96.575485    821.32698    112.16965    323.90882    830.31542   -4218.9833 
16312000    242.64354   -4730.4849   -4262.5264   -4730.4849            0   -1078.1714    20.382438    20.089097    21.322024    8730.6177    350.97224   -1524.0221   -2061.4645     51.50176     543.8633    673.81783   -4399.8069 
16313000    234.88893   -4726.0761   -4273.0731   -4726.0761            0     -10.0406    20.300682    20.077388    21.212479     8645.881   -1446.7128     543.8983     872.6927    149.24754    148.17597   -318.09578   -4274.3391 
16314000    230.64898   -4746.7144   -4301.8884   -4746.7144            0   -525.81051    20.420363    20.320421    20.854063    8653.4015    -1534.497    333.98794   -376.92248    125.97907   -2512.3315    -414.0529   -4368.2462 
16315000    228.06096    -4751.438   -4311.6033    -4751.438            0    1682.3123    20.158549    20.172228    20.993124    8536.7036    2146.2428     2039.336    861.35809   -135.74847    852.41908    366.70419    -4102.157 
16316000    238.93627   -4729.6119   -4268.8032   -4729.6119            0   -607.49913     20.36519     20.13022    21.169716    8678.6467   -1092.6743   -1347.1245    617.30138   -395.84115    1124.3069    166.19474   -4345.6939 
16317000    230.09225   -4765.8644   -4322.1121   -4765.8644            0   -66.526306     20.08889    20.259484    21.292305    8665.7671   -426.40141    819.39218   -592.56969   -83.579708   -808.13336      1051.32   -4330.5198 
16318000    235.67135   -4767.3903   -4312.8783   -4767.3903            0   -1064.4868    20.229196    20.219962    21.135742    8645.2281   -2530.7852   -409.67287   -253.00226    473.95289   -119.89886   -1.9434221   -4447.0907 
16319000    224.08323   -4774.8343   -4342.6709   -4774.8343            0    62.852718    20.265757    20.174185    21.162478    8652.1758   -1304.0193    271.50609    1221.0714    47.076333     388.4773    947.40213     -4334.74 
16320000    237.15791   -4759.5629   -4302.1839   -4759.5629            0   -554.19157    20.139801    20.290197    21.079902    8614.1024    -771.4631   -755.88645   -135.22516   -146.00693    442.79761    199.83367   -4371.8058 
16321000    221.85639   -4721.0366   -4293.1679   -4721.0366            0   -911.81066    20.465845    20.164831    21.284827    8784.0418   -324.33947   -650.86451    -1760.228    343.70022    538.86551    328.16054   -4409.9765 
16322000    244.51394     -4727.51   -4255.9443     -4727.51            0   -673.47918    20.357953    20.153949    21.119969    8665.3784   -1263.4938   -1165.0005    408.05679   -417.56307    735.88246   -860.26237   -4341.0557 
16323000    225.58247    -4774.504   -4339.4493    -4774.504            0   -63.619754    20.024968    20.262212    21.184179    8595.4836     328.6192    1097.1944   -1616.6728    338.75968    298.82387    1339.3905   -4347.4244 
16324000    226.58995   -4770.2922   -4333.2944   -4770.2922            0   -115.95758    20.249244    20.160501    21.174101    8644.0069    1770.0295   -1127.5642   -990.33797   -647.18973   -1015.0634    228.51731   -4347.9124 
16325000     220.0334   -4740.0015   -4315.6486   -4740.0015            0    969.48301    20.349322     20.01179    21.171601    8621.6342   -138.59895    2302.3209    744.72714    128.42344    465.63534     1374.629    -4193.748 
16326000    235.12126   -4759.1322   -4305.6811   -4759.1322            0   -1594.2856    20.248331    20.374614    21.148913    8725.0248   -1994.8826   -1195.2522    -1592.722    363.19578    660.01525   -1571.3355   -4508.5468 
16327000    221.66278   -4774.8827   -4347.3874   -4774.8827            0   -1261.8317    19.973176     20.33224    21.296201    8648.3744    -212.6857   -1313.0974   -2259.7119    57.550022   -764.03257    303.21545   -4506.5393 
16328000    239.16764   -4726.0777   -4264.8228   -4726.0777            0   -416.46973    20.246556    20.312095      21.0134    8641.7603   -1363.9647   -44.902266    159.45775   -227.89051    91.130169   -889.83401    -4317.311 
16329000    232.72195   -4770.2604   -4321.4365   -4770.2604            0   -65.020992    20.198234    20.184501    21.205729    8645.3908   -550.84019    280.90394    74.873268   -675.60195    1322.5086   -374.08375   -4329.6346 
16330000    237.27557   -4743.7362   -4286.1303   -4743.7362            0    1033.5226    20.166747    20.204408    21.190043    8634.0355    1020.7491    646.12533    1433.6934   -1019.9134   -505.85058   -565.17201   -4155.9906 
16331000    229.17072   -4733.4143   -4291.4393   -4733.4143            0    1145.0262    20.310892    20.097171    20.964467    8557.5168    2087.0816    -302.3834    1650.3805   -161.79692     47.03053    1340.0322   -4148.5371 
16332000    229.02239   -4774.9632   -4333.2743   -4774.9632            0   -240.73145    20.199385    20.286979    21.141823    8663.5913    954.10557   -1535.2464   -141.05349    367.30506    1066.1962   -784.17919   -4363.6906 
16333000    232.42442     -4737.99     -4289.74     -4737.99            0    120.27836    20.083536    20.268751    21.289726    8666.3706     812.0271   -775.43308    324.24105    750.51577    92.791551    190.57854    -4274.538 
16334000    239.61272    -4734.665   -4272.5517    -4734.665            0   -869.13712    20.289586    20.200193    21.255106    8711.4807   -1385.3478   -1337.8422    115.77867   -244.69781   -556.10463    -5.063201   -4382.9738 
16335000    233.89984   -4777.2903   -4326.1948   -4777.2903            0    7.8198613    20.161494     20.04179     21.29617    8605.1954    1601.1041   -402.67811   -1174.9664   -783.97227   -78.742766     10.62223   -4325.2134 
16336000    233.82112   -4771.3418   -4320.3981   -4771.3418            0   -1056.6393    20.401246    20.138566    21.062585    8653.6016   -1213.7565   -1749.5136   -206.64785    657.63844    -1146.064   -83.177735   -4453.7501 
16337000    226.59413     -4754.61   -4317.6042     -4754.61            0    1164.6566    20.022651    20.267805    21.237154    8618.3594   -346.22609    2757.3978    1082.7981    -92.40792   -578.72509   -863.98623   -4171.2186 
16338000    239.53079   -4765.1297   -4303.1744   -4765.1297            0   -481.85078    20.233954    20.199213    21.157343    8647.2163   -321.89746   -582.14274   -541.51216   -675.38472    895.74121   -535.15698    -4363.941 
16339000      220.913   -4773.1919   -4347.1426   -4773.1919            0   -159.52752     20.34235    20.099569    21.343836    8726.9066    1124.5025   -399.14766   -1203.9374   -959.79444     302.0407    -645.7595   -4367.4462 
16340000    233.12599   -4766.4933   -4316.8902   -4766.4933            0    817.37668    20.280334    20.157402    21.028871    8596.5782   -142.22683    841.25803    1753.0988   -635.75292    404.50731   -369.43808   -4214.4138 
16341000    219.61814   -4745.5991    -4322.047   -4745.5991            0    96.661414    20.382461    20.205974    21.059825    8673.4361   -2055.2365    1996.8145    348.40624   -441.75289   -1442.7085    954.34603     -4309.82 
16342000     239.1379   -4778.5245    -4317.327   -4778.5245            0    1529.4917    20.038007    20.280344    21.107279     8577.527    1266.0152    1977.6041    1344.8558    173.36053    1360.0421    1180.3987   -4125.9961 
16343000    243.93949   -4755.2834   -4284.8256   -4755.2834            0   -1117.9912    20.354191    20.220913    21.183927    8718.8877   -1700.7154    227.51561   -1880.7738   -14.317196    688.06923    78.821875   -4426.9849 
16344000      234.092   -4765.5748   -4314.1087   -4765.5748            0    104.89094    20.087843    20.013195    21.590995    8680.0531    963.54771    1265.8159   -1914.6908   -394.47216    869.49659   -472.29893   -4300.8306 
16345000    226.28269   -4777.2192    -4340.814   -4777.2192            0     301.4248    20.130425    20.112089    21.209798    8587.1032    1064.9404   -466.09172    305.42575    7.6685504    774.46825   -1088.1741   -4303.0653 
16346000    234.89512   -4747.2527   -4294.2377   -4747.2527            0   -41.729329    20.091166    20.408795    21.159033    8675.9753    831.60672   -1340.2266    383.43188   -188.18116    213.12688    949.47301   -4299.5177 
16347000    246.02637   -4784.2996    -4309.817   -4784.2996            0    1289.7307     20.24438     20.18337    20.935964    8554.4312    464.36875    1976.9412    1427.8823   -153.03131    102.79831      584.814   -4148.9133 
16348000    234.81905   -4763.6474   -4310.7791   -4763.6474            0   -594.19866    20.157338    20.187007    21.381378    8700.4319   -411.52703   -194.23347   -1176.8355    125.45318   -140.42046   -286.44247   -4386.1751 
16349000    230.32551   -4762.6923   -4318.4902   -4762.6923            0    79.614952    20.138157    20.202394    21.128838    8596.0349    432.24939   -688.32204    494.91751    -522.1982   -672.40378   -176.34584   -4308.5093 
16350000    225.74756    -4735.929   -4300.5559    -4735.929            0   -72.689559    20.339528    19.975359     21.37777    8685.5609   -2281.0682    2910.2904   -847.29093    101.53417   -426.02474    319.21265   -4309.7635 
16351000    226.02232   -4785.5743   -4349.6713   -4785.5743            0    821.88424    20.302901    20.211765    20.905006    8578.5251   -735.37886    2477.0016    724.02996   -155.45526   -214.80078   -1100.9643   -4246.8462 
16352000     236.1495   -4761.7588   -4306.3246   -4761.7588            0   -655.09966    20.155494    20.323098    20.988258    8597.2537   -1922.9197   -57.244327    14.865076    -533.9456   -369.96269    -943.3618   -4388.4624 
16353000    245.87822   -4763.2659    -4289.069   -4763.2659            0   -416.01129    20.342135    20.197684    21.100061    8669.2561   -453.77379   -1169.2647    375.00462    27.646609    477.54425   -5.0837143   -4341.6662 
16354000    230.70659   -4732.6513   -4287.7142   -4732.6513            0   -2141.8251    20.230026    20.061573    21.474022     8715.149   -2457.7019   -793.90237    -3173.871   -393.86869     1259.278    479.85847   -4559.9434 
16355000    233.98667   -4712.6806   -4261.4177   -4712.6806            0   -347.86013    20.223548    20.276578    21.361033    8759.3982    837.02874   -361.88424   -1518.7249    -554.4948    490.06994     -185.933   -4305.8557 
16356000    228.88865   -4772.8756   -4331.4446   -4772.8756            0      1312.71    20.106933    20.242875    21.012598    8552.5921    781.22898    1596.3594    1560.5418   -532.40915   -308.92051   -102.70618   -4167.7092 
16357000    234.55149   -4754.3423   -4301.9901   -4754.3423            0    581.16504    20.340282    20.334619    20.889765     8640.255    1785.9356   -619.98669    577.54618    124.83693   -283.86924   -387.55245   -4228.7579 
16358000    240.19139   -4750.3773    -4287.148   -4750.3773            0   -1401.8735    20.366178    20.143323    21.112362    8661.1878   -1385.4854   -2131.4294   -688.70575    34.377003   -995.00256   -433.70633    -4464.225 
16359000    235.96626   -4761.4638   -4306.3831   -4761.4638            0   -658.17216    20.229217    20.096116    21.335054    8673.3117    -476.1326    -74.65576   -1423.7281   -529.10359   -581.23827   -29.826054   -4389.6361 
16360000    233.70123   -4734.7003   -4283.9878   -4734.7003            0     -121.751    20.165284    20.248724    21.285325    8691.2508   -438.50924    179.09871   -105.84248   -226.43665    969.01615   -150.05041   -4299.4201 
16361000    251.15388   -4762.1478   -4277.7765   -4762.1478            0    131.78479    20.203526    20.172973    21.052255    8580.1661   -569.28804    778.34549    186.29692    246.89758    36.802784    796.84506   -4261.2858 
16362000    235.43175   -4749.9115   -4295.8616   -4749.9115            0   -130.19312     20.14579    20.374811    21.134715    8675.0962   -899.27218    523.28901   -14.596203    310.09571   -16.295068   -386.31591   -4312.3333 
16363000     224.7453   -4768.6829   -4335.2427   -4768.6829            0   -611.11117    20.221776    20.120621    21.275216     8656.347   -102.78127   -1033.9616   -696.59065   -382.63769   -279.60879    563.52317   -4412.3918 
16364000     239.6776   -4758.5801   -4296.3417   -4758.5801            0    227.71524    20.295294    20.121273    21.097573     8615.556   -1014.3582    1627.6376    69.866323    508.63823    176.06834     973.3297   -4267.7295 
16365000    230.39952   -4748.2448      -4303.9   -4748.2448            0    72.354126     20.26408    20.092195    21.273409    8661.4654   -1018.8895    1316.9491   -80.997304   -871.12432     195.5127    716.33847   -4294.7603 
16366000    229.95348   -4777.7037   -4334.2191   -4777.7037            0    114.47068     20.20957    20.225856    21.208462    8669.0828    426.42285     64.16248   -147.17327    258.38735     558.8224   -193.52149   -4319.7466 
16367000    227.24871   -4773.9564   -4335.6882   -4773.9564            0    201.68782    20.051856     20.25167    21.059642    8551.9747     1798.232   -1514.6093    321.44077   -196.58553   -3.0925767   -119.27542   -4310.5333 
16368000    227.79864   -4761.2424   -4321.9136   -4761.2424            0    148.74729    20.306673    20.164965    21.145883     8658.887    525.55689   -128.47324     49.15821    22.772973   -580.18891    1022.6902   -4303.1296 
16369000    226.93555   -4771.7245   -4334.0602   -4771.7245            0    241.65397    20.168344    20.192147    21.158505    8616.6356    -884.5274    847.59131    761.89799   -312.73702    843.25468    1496.5109   -4303.6928 
16370000    231.27004   -4748.8616   -4302.8379   -4748.8616            0    34.876434    20.228035     20.39219    21.038302    8678.1721   -1433.5543    290.39018    1247.7935    161.05055   -1078.3535    1493.3871   -4298.4238 
16371000    224.54219   -4774.8051   -4341.7567   -4774.8051            0    -840.1452    20.369682    20.169549    20.963214      8612.68   -689.40731   -1251.2163   -579.81199    473.99553   -177.38288   -571.12624   -4447.2849 
16372000    246.18933   -4756.2038    -4281.407   -4756.2038            0    754.73904    20.231749    19.984521    21.477166    8683.6871    620.40962    1571.5583    72.249239     481.8337    86.327461   -1069.7227   -4185.8248 
16373000     232.1752   -4755.5462   -4307.7768   -4755.5462            0    59.594847    20.144221     20.18701     21.30323    8662.9924    259.30323   -59.801417   -20.717269   -62.970919   -734.39696   -1437.2635   -4300.2475 
16374000    240.30402   -4763.0671   -4299.6206   -4763.0671            0   -1055.7447    20.448462    20.199222    21.034655    8688.2176   -3354.0284    550.91938   -364.12513   -339.49544    683.12653    528.29715   -4433.3926 
16375000    230.21248   -4722.8434   -4278.8593   -4722.8434            0    409.46685    20.197002    20.156306    21.086815     8584.378    1133.5118   -327.57088    422.45966   -187.55435    1091.9337    -112.5628   -4227.5963 
16376000    225.30544   -4769.6063   -4335.0858   -4769.6063            0   -1113.1675    20.236848    20.234962    21.219728    8689.3056   -438.82381   -1707.4276    -1193.251    268.66039   -836.63091    -778.5532   -4476.1515 
16377000    241.74151   -4778.6915   -4312.4727   -4778.6915            0   -610.19682    20.160391     20.03451    21.492811    8681.0228    1345.3994   -781.95914   -2394.0307     403.1062    427.36923    892.97498    -4389.726 
16378000    230.65306   -4771.1043   -4326.2705   -4771.1043            0   -137.00707    20.271388    20.146987    21.193414    8655.5467    736.92116   -424.78594   -723.15643   -863.93385   -177.91794   -147.00206   -4343.5652 
16379000      233.674   -4728.8771   -4278.2171   -4728.8771            0   -664.90496    20.245034     20.31652    21.054362    8659.8408   -260.66584   -2050.7083    316.65929    144.73243   -542.91575    95.724285   -4362.1913 
16380000    225.33907   -4778.1447   -4343.5593   -4778.1447            0   -155.13493    20.199122    20.208192    21.256722    8676.7328   -1937.1031    1803.1493   -331.45099    -57.51648    1165.3435    822.09456   -4363.1903 
16381000    219.68905   -4767.8453   -4344.1564   -4767.8453            0   -535.01222    20.112194    20.328997     20.99222    8582.8943        434.7   -1629.3804   -410.35627   -144.85358    699.25339   -275.53567   -4411.1254 
16382000    236.33993   -4726.2544   -4270.4529   -4726.2544            0    896.73117    20.185089    20.065902    21.393395    8665.0101    169.63535     1467.893    1052.6652    79.518703   -1161.0137    948.10701   -4157.1328 
16383000    232.08445   -4729.2919   -4281.6975   -4729.2919            0    1072.7993     20.26381    20.166526    21.140384    8639.0315    -126.3507    1628.3299    1716.4185   -464.55374   -194.38237    568.54717    -4146.534 
16384000    228.81262   -4768.4152   -4327.1308   -4768.4152            0    377.70033    20.008087    20.401916    21.008328    8575.6689    1278.3931   -474.93888    329.64681   -659.21881    1314.7923    64.437617   -4279.8929 
16385000    236.56194   -4774.2037   -4317.9741   -4774.2037            0   -55.668349    20.038937    20.511191    21.005019    8633.5345     1721.419   -1793.6088   -94.815214    717.92989    1344.3676   -19.905419   -4324.9833 
16386000    243.94641    -4777.201   -4306.7298    -4777.201            0    358.85832    20.269311    20.161824    21.174843    8653.4445   -196.81488    658.98624    614.40361    108.57734    879.10796   -774.56318   -4261.4413 
16387000    232.28326   -4777.3489   -4329.3711   -4777.3489            0    109.09416     20.27567    20.110332     21.32956     8697.138   -1010.9678    697.02371    641.22659   -73.161691   -410.72897    -1276.439   -4315.5337 
16388000    229.28958   -4765.6124   -4323.4081   -4765.6124            0    934.03669    19.961626    20.239588    21.170558    8553.2252    1286.6671    577.89328    937.54972    152.74489     6.255702    75.717212   -4206.8964 
16389000     222.8271   -4774.8204   -4345.0796   -4774.8204            0    87.624573    20.365959    20.128694    21.031162    8621.5178    715.61607    153.33477   -606.07712   -382.92141    911.71607    531.15144    -4334.062 
16390000     234.8337   -4748.6563   -4295.7597   -4748.6563            0    287.68735    20.291731     20.07965    20.982893    8549.4976   -36.045883    767.17978    131.92815    46.062114   -762.68842   -746.72738   -4259.8892 
16391000     238.4547   -4784.2715   -4324.3915   -4784.2715            0    635.70223     20.24007    20.210147    21.284016    8706.3289    952.95096    767.38029    186.77544   -115.73055   -12.455743   -459.35872   -4243.6746 
16392000    238.96658   -4764.8877   -4304.0206   -4764.8877            0    1058.4879    19.976417    20.258905    21.264953    8605.9338    2842.9001     914.9469   -582.38316    470.05613    130.73282   -380.84968   -4171.1711 
16393000    229.42865   -4767.9808   -4325.5083   -4767.9808            0   -1283.7134    20.348017    20.059348    21.232496    8666.4242   -2351.9242   -1093.1276   -406.08845    39.223521   -558.35052   -718.96596    -4487.758 
16394000    242.53465   -4775.9679   -4308.2194   -4775.9679            0    2208.4438    20.205497    20.079132    21.061026    8544.6445    2040.6382    2536.0753    2048.6178   -643.40533     528.4656   -1099.9334   -4033.0145 
16395000    227.77614   -4743.0606   -4303.7752   -4743.0606            0    450.18347    20.205963     20.28538    21.142559    8666.0312    9.8255623    1445.7385   -105.01365     305.7015    139.46888   -1704.4275   -4246.8787 
16396000     229.1893   -4769.7075   -4327.6966   -4769.7075            0    487.79675    20.128973    20.236332    21.111572    8599.5159    -57.00314    715.94408    804.44932    163.93479    1328.4356   -1834.6433   -4266.5195 
16397000    223.45718   -4765.0186   -4334.0627   -4765.0186            0   -269.74442    20.184775       20.283     21.24202    8696.6487    364.59261   -1181.9709    8.1450618   -578.61082    192.07481   -312.85933   -4368.2748 
16398000    220.37022   -4751.9895    -4326.987   -4751.9895            0   -1801.0085    20.079345     20.27489    21.278234    8662.5077   -1483.1374   -1873.4555   -2046.4326     309.7143    232.16128   -473.20635   -4554.5152 
16399000    242.94395   -4755.6326   -4287.0947   -4755.6326            0   -924.33001    20.272498    20.202906     21.08339    8634.9841   -682.40298   -763.10874   -1327.4783    25.229378   -695.55272   -521.67325   -4403.4978 
16400000    223.77162    -4751.322   -4319.7596    -4751.322            0    899.38277    20.367992    20.143691    20.936832    8590.1004   -551.72652    1747.1172    1502.7576     85.29867    1133.4726   -549.38077   -4207.0869 
16401000    242.09649   -4735.3104   -4268.4069   -4735.3104            0   -313.56296    20.131789    20.258607    21.220045    8654.4256    583.59277   -759.45366   -764.82798   -94.923091    122.55429    613.85361   -4307.9836 
16402000    235.47843   -4751.5218   -4297.3818   -4751.5218            0    861.83005    20.054182    20.233001    21.323811    8652.2705    1570.5418   -581.78538    1596.7337   -353.49177    660.08542   -1092.6601   -4188.6322 
16403000    233.80157   -4761.2989    -4310.393   -4761.2989            0   -961.42669     20.09249    20.141976    21.361594    8645.0898   -512.23832   -615.83235   -1756.2094    409.87911    141.93697    909.38617   -4431.6094 
16404000    242.04835   -4774.1106      -4307.3   -4774.1106            0    97.614008     20.31866    20.216529    21.112797    8672.5623    677.12645   -715.12736    330.84294   -25.246455    1265.0498   -559.44227   -4294.9537 
16405000    231.03832   -4762.5283   -4316.9514   -4762.5283            0   -1263.5991    20.384326    20.152321    21.036115    8641.4569   -2594.4033   -271.77861   -924.61534   -359.22354    251.71481    103.53674   -4476.1988 
16406000    231.78105   -4777.3372    -4330.328   -4777.3372            0   -769.98717    20.245955    20.257324    21.170578    8682.6651   -1620.5996    1276.3372   -1965.6991   -744.89629    1208.0598    92.175689   -4427.8297 
16407000    243.22018   -4778.4971   -4309.4266   -4778.4971            0    372.22354      20.3234    20.033858    21.124355    8600.9104    768.38327    1313.2226   -964.93524    250.05617     711.0678    556.52441   -4262.7365 
16408000    231.67273    -4788.906   -4342.1056    -4788.906            0   -869.15039    20.307793    20.100485    21.141385    8629.8392   -930.08168   -1424.7489   -252.62054    356.85216    784.03144    15.714097   -4451.4946 
16409000    228.32409   -4771.5908   -4331.2486   -4771.5908            0   -970.71709    20.172306    20.285816    21.272783    8705.0714   -28.984416   -1498.8765   -1384.2903   -178.72767    994.71802    1036.2678   -4454.4855 
16410000    239.17078   -4766.4788   -4305.2179   -4766.4788            0    453.86171      20.0718    20.388756    21.075218    8624.8018    1210.0108   -524.35573    675.93004    -703.9843    -211.1735    239.20772   -4248.1294 
16411000    227.62324   -4765.4192   -4326.4286   -4765.4192            0    132.44032    20.180375    20.268629    21.093882    8627.9997    193.23185    517.09036   -313.00124    92.708334   -409.54105     284.6677   -4309.7636 
16412000    234.60591   -4752.5439   -4300.0866   -4752.5439            0   -1006.8267    20.462977    20.077676    21.170563    8697.9052   -1498.6195   -267.28802   -1254.5726    345.47919    770.27619   -887.38796   -4427.8026 
16413000    232.43753   -4749.8532   -4301.5779   -4749.8532            0      689.905    20.279936    20.279248    21.056965    8659.9263   -70.107611     89.24601    2050.5766   -341.69988   -384.11856   -199.13054   -4214.4455 
16414000    225.88457   -4763.0633   -4327.4259   -4763.0633            0    703.77075    20.142725    20.251731    20.994764    8564.2902    962.37532    159.38866    989.54829   -507.81974    1052.0642    32.934364   -4239.5239 
16415000    230.55206   -4755.9301    -4311.291   -4755.9301            0   -1328.9367    20.347223    20.188709    21.385034    8784.6337   -1363.8315   -1162.5588   -1460.4198   -573.10892      -23.827   -1143.3904   -4481.5476 
16416000    232.67202   -4742.4532   -4293.7257   -4742.4532            0    684.59926    20.154043    19.987135    21.451672    8641.1963    418.40862    974.82368    660.56549   -303.81744    528.53352   -1.4169029   -4207.4504 
16417000    227.04866   -4738.5636   -4300.6812   -4738.5636            0   -299.47562    20.435284    20.172349    21.261086    8764.4083    666.78635   -725.87713   -839.33608    76.855457   -758.75093    -203.1536   -4338.9601 
16418000    240.17981   -4744.8419   -4281.6349   -4744.8419            0    1056.0573    20.206783    20.102908    21.143536    8588.8234    1077.1125    2304.0367   -212.97723     82.24227   -1701.1178   -574.01311   -4149.3541 
16419000    244.01504   -4745.3619   -4274.7584   -4745.3619            0   -1017.0904        20.37    20.282601    21.284198    8793.7064   -511.44196   -1419.6864    -1120.143   -254.30327   -839.61379   -298.78978   -4405.1973 
16420000    240.97336   -4756.1979   -4291.4606   -4756.1979            0   -475.54231    19.985496    20.240181     21.19594     8573.971    2154.0365   -1877.5784   -1703.0851    1088.9369   -463.66209    232.97956   -4350.9236 
16421000    233.99905   -4741.7841   -4290.4973   -4741.7841            0   -1868.9552    20.356727    20.180713    21.229115    8721.2017   -1879.4222    -2393.933   -1333.5104    260.29343   -87.277524    260.82589   -4528.2093 
16422000    227.80616   -4754.6942   -4315.3508   -4754.6942            0    14.647564    20.138212    20.271033    20.912073    8536.7753    1024.9412   -737.52073   -243.47777   -454.18446   -136.84764   -59.940951   -4313.5272 
16423000     221.5426   -4761.7405   -4334.4769   -4761.7405            0   -116.01042    20.228154    20.335135     21.08558    8673.3896   -580.69824   -564.92179    797.58877   -132.71128   -131.63972    114.46571   -4349.1514 
16424000     230.3421   -4752.2812   -4308.0471   -4752.2812            0    1415.4602    20.090003    20.169945     21.24592    8609.1497    2033.2314    2451.8421   -238.69294   -174.10388   -1295.8341    613.86918   -4130.3282 
16425000    229.64087   -4766.2575   -4323.3758   -4766.2575            0   -180.78261      20.2376    20.067139    21.231278      8622.25   -993.91907    682.03946   -230.46822    124.49021    775.34588   -691.05371   -4346.1086 
16426000    224.53389   -4768.6194   -4335.5869   -4768.6194            0    1565.3086      20.0924    20.130364    21.054081     8515.688    3690.4524    591.17472    414.29882   -920.16674    848.81337    399.64665   -4141.1872 
16427000    229.98466   -4749.8146   -4306.2698   -4749.8146            0     863.1674    19.985379    20.265716    21.217074    8593.2972    3682.1314   -815.96368   -276.66549   -553.94494   -366.18243    367.58282   -4198.0939 
16428000    228.66903   -4755.0727   -4314.0652   -4755.0727            0     987.6127     20.25882     20.08212    21.114491    8590.2207    1970.5973   0.95664479    991.28414     161.4054    1142.0101   -501.73555   -4190.3376 
16429000    237.14328   -4742.7531   -4285.4024   -4742.7531            0   -942.74298    20.235632    20.201565    21.204173    8668.0845   -1900.4823    179.73511   -1107.4817   -275.01503    176.89425    326.64778   -4404.5793 
16430000    231.23437   -4739.2708   -4293.3158   -4739.2708            0   -538.28311    20.173251    20.377024    21.180923    8706.8595   -309.79818   -1527.2214    222.17021    543.22113   -874.40669     317.9059   -4361.6674 
16431000    235.25535   -4772.6491   -4318.9393   -4772.6491            0    297.05244    20.051843    20.201928    21.286089    8622.6944   -41.610796    1165.6957   -232.92757    371.87826     182.6709    1169.4786    -4281.584 
16432000    235.36765   -4759.3259   -4305.3996   -4759.3259            0   -63.030716    20.303614    20.102436    21.237859    8668.2773   -1228.0008    721.12621    317.78245    12.984031    83.167482    290.02836   -4313.3679 
16433000    236.44973    -4793.871   -4337.8578    -4793.871            0    1692.7772     20.06197    20.376048    20.824512    8512.7207    2528.8954   -16.518464    2565.9548    183.23302   -191.07166     486.2322   -4127.7007 
16434000    212.61678   -4741.1285   -4331.0792   -4741.1285            0    -1771.231    20.315655    20.136927    21.229567    8684.9069   -2621.4161   -1528.9414   -1163.3355   -184.55419    930.20511    431.78361   -4555.4241 
16435000    231.88989   -4736.4265   -4289.2074   -4736.4265            0   -502.56069    20.352093    20.111149    21.228077    8688.7363   -158.38184   -964.55682   -384.74341   -927.74454     247.9779   -300.01525     -4352.89 
16436000    247.10836   -4764.7711   -4288.2018   -4764.7711            0    1969.6618    20.078895    20.194869    21.074538    8545.5279     2206.617    2314.0565    1388.3119   -637.73059    1013.4912   -1502.3958   -4042.7273 
16437000    227.99422   -4760.4884   -4320.7824   -4760.4884            0    354.55119    20.346242    20.290555    20.963295    8654.4145    318.79298   -674.38281    1419.2434   -141.03866    581.18442    697.86687   -4276.0325 
16438000    232.24794     -4750.46   -4302.5503     -4750.46            0     759.7573    20.230819    20.085366    21.043838    8551.0247   -1076.2971    2599.5008    756.06822   -639.84187    622.06047    -488.0859   -4207.8025 
16439000    232.87296   -4789.5098   -4340.3947   -4789.5098            0    392.04286    20.165912    20.134113    21.262227    8632.9475    1664.3716   -380.68448   -107.55851   -167.73718    1830.6073    771.75997   -4291.0355 
16440000    245.21733   -4748.1751   -4275.2528   -4748.1751            0   -386.52634    20.201198    20.268732     21.11703    8646.4244   -747.50739    592.14013   -1004.2117   -466.91317    753.55234     -2105.01   -4323.9935 
16441000    238.30717   -4766.6166   -4307.0212   -4766.6166            0    113.18115    20.302319    20.250075     20.90314    8593.7716   -1285.4963    694.72422    930.31549   -217.05288   -1057.9404    2050.9906    -4292.836 
16442000    233.90157   -4754.8663   -4303.7674   -4754.8663            0   -795.41104     20.19706    20.218132    21.223916    8666.7187    -828.6612   -674.99102   -882.58089   -212.97595   -173.71734    712.30678   -4404.3036 
16443000    222.38943   -4729.4345   -4300.5378   -4729.4345            0   -427.20931    20.142681    20.280856     21.30935    8705.0999     702.1076   -1740.5728   -243.16275   -28.567997    1154.0985   -1231.0687   -4354.7741 
16444000    229.53316   -4732.5614   -4289.8874   -4732.5614            0   -1394.4611    20.387249    20.242703    21.131049    8720.6367   -734.87969   -2045.2959   -1403.2078    276.81555   -16.872074   -200.47419   -4467.2371 
16445000      231.688   -4746.7062   -4299.8764   -4746.7062            0    367.71751    19.974375    20.299885    21.158335    8579.2289    1651.8202   -705.59003    156.92234    74.179903    233.54466    353.78179   -4253.8679 
16446000    231.83373   -4757.1756   -4310.0647   -4757.1756            0   -657.14783    20.218725    20.260932    21.166282    8670.7715   -2153.5628    973.30954   -791.19024    -379.9314    1022.8415     514.1796   -4393.1639 
16447000    227.86641   -4751.7678   -4312.3083   -4751.7678            0    753.97132    20.233807    20.270341    20.823315    8540.6027    466.71931    3.0561936    1792.1385   -411.73288     1100.417    889.67581   -4218.3967 
16448000    236.05439   -4758.4658    -4303.215   -4758.4658            0   -668.76341    20.229791    20.288332    21.120213    8668.3417   -1511.4692   -194.88506   -299.93601   -1072.2389    -623.0757    1038.8283   -4387.7594 
16449000    240.86547    -4737.924   -4273.3947    -4737.924            0    15.534734     20.22605    20.316125    21.318012    8759.8898    401.75517    -514.6122    159.46123   -111.64645    285.06225     389.6724   -4271.4101 
16450000    224.65288   -4752.1411   -4318.8791   -4752.1411            0   -1219.2361     20.18152    20.077218    21.536585    8726.3824   -632.77614   -1411.8794   -1613.0528    429.51913    2600.3898   -540.04838   -4474.0456 
16451000    223.60975   -4742.6871   -4311.4369   -4742.6871            0    -1393.994    20.347225    20.250948    21.174457    8724.9477   -1790.2257   -1907.7004   -484.05596   0.60274822    545.54957    957.98592   -4488.8149 
16452000    231.70543   -4753.3791   -4306.5157   -4753.3791            0   -88.924334     20.26333    20.188729    21.226525    8683.5777    2500.3758   -1259.8072   -1507.3416    73.927713     22.74564    787.16723   -4317.7772 
16453000    225.49464   -4765.8071   -4330.9218   -4765.8071            0    -663.8767    20.129135    20.178403     21.46713    8719.3862    1073.5011   -1675.9213   -1389.2098   -376.01427    23.245909    551.58471   -4415.3425 
16454000    227.25601   -4766.7004   -4328.4181   -4766.7004            0    17.389003    20.293704    20.170112    21.091251    8633.2035    4.2170115   -803.86947    851.81947   -1027.4402    90.720122    299.10439   -4326.2287 
16455000    216.20154   -4760.9023   -4343.9395   -4760.9023            0    561.91128    20.215985    20.212367    21.199311    8662.3126   -8.3133967    1084.0247    610.02255    361.38196    162.26704    674.59034   -4272.9527 
16456000    236.61519   -4790.0882   -4333.7559   -4790.0882            0    826.10215    20.119191    20.348479    21.090768     8634.454    1554.3635   -888.25362    1812.1965   -206.60276    633.46123    1245.7276   -4229.7293 
16457000    234.88884   -4765.9109    -4312.908   -4765.9109            0    151.78602    20.098974    20.161355    21.136291    8564.9017     492.6496    726.05077   -763.34233   -68.647841    -671.3428   -246.82831   -4293.9484 
16458000    235.12592   -4752.6025   -4299.1423   -4752.6025            0   -674.59385    20.285028    20.039169     21.29431    8656.0326   -1367.2202   -122.52879   -534.03256    250.59125    10.098663    527.13025   -4384.3026 
16459000    231.96809   -4767.2913   -4319.9213   -4767.2913            0    516.75185     20.17615    20.119188    21.308743    8649.8102    112.17018    1286.6645    151.42084    499.80534   -361.41937    373.19583   -4254.7338 
16460000    244.71027   -4745.5627   -4273.6184   -4745.5627            0    149.64479    19.844007    20.320279    21.492111    8666.3875    1767.5007   -316.18067   -1002.3856   -569.25834    263.08205   -124.01726   -4254.7047 
16461000     232.6574   -4756.9367   -4308.2373   -4756.9367            0    925.92729    20.176264    20.347814     21.03471    8635.6501    45.075192    1303.4551    1429.2516   -286.89996    795.78041    155.95562   -4191.6241 
16462000     230.7671   -4756.9893   -4311.9355   -4756.9893            0    -284.0481     20.39032    20.219347    20.940428    8633.2976   -105.79998   -274.81719   -471.52715   -111.07738   -470.80774     84.92583   -4347.6994 
16463000    243.85026   -4755.7643   -4285.4786   -4755.7643            0   -677.50857    20.123007    20.207213    21.391604    8698.4655    554.71007   -744.24147   -1842.9943   -827.31045    547.77622   -1227.6281   -4371.4261 
16464000    240.87974   -4765.7076   -4301.1508   -4765.7076            0    178.57457     20.08162    20.162488    21.353261    8645.8378    722.57341    -518.2179    331.36821    324.01285   -450.59605    861.85233   -4278.6342 
16465000    216.37288   -4768.7446   -4351.4513   -4768.7446            0    686.51559    20.288311    20.158312    20.965945    8574.6128    1761.6443    777.09257   -479.19004     39.75415   -350.51926    -86.98915   -4265.6012 
16466000    228.47923   -4760.4887   -4319.8473   -4760.4887            0    -1191.773    20.420658    20.210238    21.119311    8716.0741    -2563.184    284.53732   -1296.6723    481.10169    908.55418    429.47157   -4471.3395 
16467000    224.70701   -4783.0224    -4349.656   -4783.0224            0    580.55775    20.241314    20.024324    21.253278     8614.349   -245.27806    1487.8797    499.07163    336.71878    155.71831    162.45093   -4276.7197 
16468000    231.73357   -4735.5363   -4288.6186   -4735.5363            0   -864.46396    20.164969    20.438508    21.279217    8770.0565   -411.26852   -2032.7951    -149.3283    295.90649   -231.87762   -63.613165   -4399.1855 
16469000    235.40715   -4746.3426   -4292.3401   -4746.3426            0    1039.7273    20.074395    20.258339    21.189396    8617.1739    2419.6368    763.30954   -63.764382    101.80388    1033.0614    706.26924   -4161.6748 
16470000    225.44167   -4767.7685   -4332.9853   -4767.7685            0    1056.0075    20.267576    20.219162    20.929536    8576.7858     1181.081    598.77161    1388.1699   -142.39734   -473.71281    598.20183    -4200.896 
16471000    236.18911   -4769.0298   -4313.5192   -4769.0298            0      511.634    20.300551    20.032716     21.13133    8593.5874   -347.96697    1003.7988    879.07013   -876.93324   -721.41012   -130.23751   -4249.3968 
16472000     228.0189   -4769.9707   -4330.2171   -4769.9707            0    557.97474    20.193574    20.082142     21.27111    8626.0779    405.41199    1390.0561    -121.5439    261.88809    907.66062    362.71467   -4260.0225 
16473000    226.38543   -4768.3532   -4331.7499   -4768.3532            0   -57.832156    20.288254    20.096292    21.168528    8630.8045   -1332.3034    1241.0613   -82.254359    64.066161    741.28344    550.00846   -4339.0293 
16474000    233.96569   -4762.0893   -4310.8668   -4762.0893            0   -75.445175    20.192284    20.290322    21.100152    8644.8997    250.86677   -338.39833   -138.80397    154.53756    483.49486    -728.7564   -4320.3787 
16475000    223.04592   -4756.6995   -4326.5367   -4756.6995            0    1228.3275    20.146496    20.229619    21.205726    8642.5195    2878.3882   -18.896454    825.49066   -799.26589   -984.32945   -1126.6511   -4171.7155 
16476000      232.817   -4761.0306   -4312.0235   -4761.0306            0    1199.0516    20.096668    20.198489    21.256876    8628.6407    1248.1067    1329.5547    1019.4934   -280.04372   -715.38257   -781.96726    -4161.135 
16477000    238.05072   -4714.0504   -4254.9496   -4714.0504            0   -1069.2822    20.327818    20.244637    21.294654     8763.374   -515.76439   -1521.6038   -1170.4784   -279.38676    506.67114   -106.21066    -4391.609 
16478000    236.13054   -4730.9484   -4275.5508   -4730.9484            0    90.883401    20.454748    19.935933    21.459491    8750.8476   -364.71072    1777.3608   -1139.9999    415.32859    975.58812   -818.31788    -4263.952 
16479000    236.84762   -4753.1471   -4296.3665   -4753.1471            0   -1225.7678    20.271521    20.257624    21.063056    8649.6041   -1000.3281   -2281.5781   -395.39728   -2.7356781    1066.9787   -967.20259   -4450.9918 
16480000    230.75868   -4720.6436    -4275.606   -4720.6436            0    351.27937    20.312918    20.248749    21.128044    8690.2006   -853.35415     2062.156    -154.9637   -817.58729    102.36556    423.44634   -4231.0857 
16481000    244.11838   -4761.9213   -4291.1185   -4761.9213            0    826.53902    20.142536    20.123927     21.12685    8563.7037    3266.4304   -1574.2227    787.40935    495.03757    539.33414    499.99937   -4187.8897 
16482000    233.99895   -4752.0407    -4300.754   -4752.0407            0   -1130.2665    20.154784    20.225252    21.351412    8703.5952   -1718.1673   -228.53244   -1444.0998   -867.76483     203.2851    368.60498   -4444.2221 
16483000    229.15356   -4762.6142   -4320.6723   -4762.6142            0   -1937.7877    20.188663    20.341659    21.093413    8662.4506   -1385.5847   -2747.7592   -1680.0191     88.41204    426.65747    316.99758   -4565.4788 
16484000    239.62054   -4759.4981   -4297.3697   -4759.4981            0   -133.56093    20.361537    20.227031    20.976329    8639.1732    1472.5188     -1883.45    10.248411   -414.15104   -1283.5392    311.38608   -4314.1975 
16485000     228.3854   -4771.3614    -4330.901   -4771.3614            0    257.88783    20.169745    20.331039    21.045126    8630.0143    154.45528     144.9159    474.29231    260.25709    142.11202   -1029.5642   -4298.4432 
16486000    226.94933   -4772.0691   -4334.3783   -4772.0691            0    1370.2719    20.122277    20.124722    21.172595    8573.9528   -137.91609    2669.9105    1578.8214    -577.2068   -528.78762    65.495766   -4163.0363 
16487000    231.78235   -4749.8124   -4302.8006   -4749.8124            0   -180.73478    20.393419    20.098588    21.035891    8622.1685   -642.76979    298.54674   -197.98129   -394.11913    93.727305    1144.4242   -4325.5272 
16488000    227.60823   -4737.7215   -4298.7599   -4737.7215            0    6.7440241    20.294259    20.159388    21.267069    8700.7799    825.05687   -1126.8333    322.00851   -111.91916    1216.2079   -622.63029   -4297.9041 
16489000    227.05397   -4750.9809   -4313.0882   -4750.9809            0   -584.38118    20.049993     20.19441    21.535491    8719.6725   -10.673049    111.20324   -1853.6737   -147.41186    487.38759    340.93862   -4387.4025 
16490000    244.87724   -4769.5567   -4297.2904   -4769.5567            0    294.16977    20.188227    20.222336    21.207732    8658.1228    106.94723    2084.5027   -1308.9407    24.571931    173.49351   -1377.6094   -4260.1456 
16491000    222.00935   -4757.1681   -4329.0044   -4757.1681            0   -300.95281    20.388629    20.251403    20.944763    8648.0578   -1699.7885    182.10341    614.82668    108.75462   -39.506587   -455.37931   -4366.9615 
16492000    227.84033   -4745.3246   -4305.9154   -4745.3246            0    1169.4526    20.285332    20.114953     21.07213    8598.2403    719.04542    2015.6976    773.61482   -37.272303   -1919.2072    858.79335   -4159.2701 
16493000    238.29465   -4745.1329   -4285.5617   -4745.1329            0   -1640.9284    20.285221     20.05173    21.573431    8775.0745   -2883.2517   -382.82672   -1656.7068    135.11453    1819.3421    400.90716   -4495.5602 
16494000    237.62616   -4751.6235   -4293.3415   -4751.6235            0   -988.87419    20.287893    20.167431    21.235052    8688.4208   -1563.5438   -104.49308   -1298.5856   -686.81337    476.10343    931.57932   -4418.6434 
16495000    233.86795   -4720.6331   -4269.5991   -4720.6331            0    336.18174    20.249347    20.188675     21.29728    8706.4873   -436.48785    503.88113    941.15194    188.89026    33.936001    387.88463   -4226.9124 
16496000    235.80094   -4742.5605   -4287.7985   -4742.5605            0    397.33142    20.069604    20.178422    21.322529    8635.0471    544.51931    616.67066    30.804282    -110.7373    237.25221    545.08063   -4237.7613 
16497000    221.33771   -4738.9583   -4312.0899   -4738.9583            0   -140.84842    20.260092    20.101118    21.373087    8704.2002    1252.8433   -1369.3848   -306.00376   -75.961552    1107.1704    324.51795   -4329.9695 
16498000    227.96783   -4723.4655   -4283.8103   -4723.4655            0    1192.0344     20.21074    20.289255    20.962951    8596.0857     949.7765    682.82865    1943.4982   -659.69435    -382.6606    609.34731   -4134.3708 
16499000    227.36213   -4772.8335   -4334.3465   -4772.8335            0    992.43896    20.128588     20.07214     21.08305    8518.0546    2568.3531    793.68224   -384.71842    476.82306    -88.61934    998.21761   -4211.0587 
16500000     235.7357   -4722.3422    -4267.706   -4722.3422            0   -274.59234     20.23525    20.257001    21.272166    8719.5773   -334.83838   -635.74312    146.80449   -456.76243    599.56726    215.98574   -4302.6249 
Loop time of 449.92 on 64 procs for 250000 steps with 972 atoms

Performance: 96.017 ns/day, 0.250 hours/ns, 555.655 timesteps/s
99.0% CPU use with 64 MPI tasks x 1 OpenMP threads

MPI task timing breakdown:
Section |  min time  |  avg time  |  max time  |%varavg| %total
---------------------------------------------------------------
Pair    | 18.578     | 26.712     | 34.299     |  76.2 |  5.94
Bond    | 0.26788    | 0.27625    | 0.29436    |   1.1 |  0.06
Kspace  | 187.95     | 201.81     | 220.63     |  42.5 | 44.85
Neigh   | 2.4267     | 2.948      | 3.7855     |  20.8 |  0.66
Comm    | 83.218     | 99.563     | 110.97     |  62.7 | 22.13
Output  | 1.5077     | 1.51       | 1.5217     |   0.2 |  0.34
Modify  | 106.03     | 109.36     | 115.79     |  18.2 | 24.31
Other   |            | 7.746      |            |       |  1.72

Nlocal:        15.1875 ave          19 max           9 min
Histogram: 1 0 2 7 5 6 11 11 13 8
Nghost:        2106.95 ave        2134 max        2079 min
Histogram: 5 3 9 6 6 8 12 3 8 4
Neighs:        4527.66 ave        5946 max        2671 min
Histogram: 1 4 3 8 4 12 16 5 6 5

Total # of neighbors = 289770
Ave neighs/atom = 298.11728
Ave special neighs/atom = 2.0000000
Neighbor list builds = 6617
Dangerous builds = 0

unfix		3
unfix		2
unfix		1

write_data	data.final.${pid}
write_data	data.final.0
System init for write_data ...
PPPM initialization ...
  extracting TIP4P info from pair style
  using 12-bit tables for long-range coulomb (../kspace.cpp:340)
  G vector (1/distance) = 0.37110845
  grid = 24 24 25
  stencil order = 5
  estimated absolute RMS force accuracy = 0.0035687876
  estimated relative force accuracy = 1.0747298e-05
  using double precision FFTW3
  3d grid and FFT values/proc = 2366 288
Last active /omp style is kspace_style pppm/tip4p/omp
WARNING: Not all mixed pair coeffs generated from mixing. Use write_data with 'pair ij' option to store all pair coeffs. (../write_data.cpp:312)

write_restart   restart.lmp.${pid}
write_restart   restart.lmp.0
System init for write_restart ...
PPPM initialization ...
  extracting TIP4P info from pair style
  using 12-bit tables for long-range coulomb (../kspace.cpp:340)
  G vector (1/distance) = 0.37110845
  grid = 24 24 25
  stencil order = 5
  estimated absolute RMS force accuracy = 0.0035687876
  estimated relative force accuracy = 1.0747298e-05
  using double precision FFTW3
  3d grid and FFT values/proc = 2366 288
Last active /omp style is kspace_style pppm/tip4p/omp
Total wall time: 0:07:33
