#include		in.partitions
include		in.temp
variable        temperature equal 127.54
variable	tempDamp equal 100.0
include		in.pressure
variable        pressure equal 6043.8
variable        pressureDamp equal 1000.0 # This is 1 ps
include		in.seed
variable        seed equal 745823

units		real
atom_style	full

read_restart	restart.lmp.${pid}
read_restart	restart.lmp.1
Reading restart file ...
  restart file = 30 Jul 2021, LAMMPS = 30 Jul 2021
  restoring atom style full from restart
  orthogonal box = (0.11661336 0.076644444 -0.014567916) to (19.883388 19.923357 20.714566)
  4 by 4 by 4 MPI processor grid
  restoring pair style lj/cut/tip4p/long/omp from restart
  restoring bond style harmonic/omp from restart
  restoring angle style harmonic/omp from restart
  972 atoms
  648 bonds
  324 angles
Finding 1-2 1-3 1-4 neighbors ...
  special bond factors lj:    0        0        0       
  special bond factors coul:  0        0        0       
     2 = max # of 1-2 neighbors
     1 = max # of 1-3 neighbors
     1 = max # of 1-4 neighbors
     2 = max # of special neighbors
  special bonds CPU = 0.008 seconds
  read_restart CPU = 0.020 seconds
include 	in.setup
variable	out_freq equal 1000
variable	out_freq2 equal 10000
variable	out_freq3 equal 1000

timestep	2.0

neigh_modify    delay 7 every 1

include		in.tip4p
# This is TIP4P/Ice

# create groups ###
group ox type 2
324 atoms in group ox
group hy type 1
648 atoms in group hy

# set charges - beside manually ###
set group ox charge -1.1794
Setting atom values ...
  324 settings made for charge
set group hy charge 0.5897
Setting atom values ...
  648 settings made for charge

# ### TIP3P Potential Parameters ###
pair_style lj/cut/tip4p/long/omp 2 1 1 1 0.1577 8.5
pair_coeff 1 1*2 0.000 0.000
pair_coeff 2 2 0.21084 3.1668
bond_style  harmonic
bond_coeff  1 450 0.9572
angle_style harmonic
angle_coeff 1 55 104.52
kspace_style pppm/tip4p/omp 1.0e-5
pair_modify tail yes

thermo          ${out_freq}
thermo          1000
thermo_style    custom step temp pe etotal epair emol press lx ly lz vol pxx pyy pzz pxy pxz pyz enthalpy

restart 	${out_freq3} restart.lmp.${pid} restart2.lmp.${pid}
restart 	1000 restart.lmp.${pid} restart2.lmp.${pid}
restart 	1000 restart.lmp.1 restart2.lmp.${pid}
restart 	1000 restart.lmp.1 restart2.lmp.1


include         in.dump
dump            myDump all atom ${out_freq2} dump.water.${pid}
dump            myDump all atom 10000 dump.water.${pid}
dump            myDump all atom 10000 dump.water.1
dump            myDump2 all dcd ${out_freq2} dump.dcd
dump            myDump2 all dcd 10000 dump.dcd
dump_modify     myDump append yes
dump_modify     myDump2 append yes


variable natoms 	equal  "count(all)"                        # NUMBER ATOMS
variable H      	equal  "enthalpy/v_natoms"                 # ENTHALPY-per-atom
variable Vol      	equal  "vol/v_natoms"                 # volume-per-atom
fix AVG all 		ave/time ${out_freq} 1 ${out_freq} v_Vol v_H file vol_enthalpy.dat
fix AVG all 		ave/time 1000 1 ${out_freq} v_Vol v_H file vol_enthalpy.dat
fix AVG all 		ave/time 1000 1 1000 v_Vol v_H file vol_enthalpy.dat


timer           timeout 02:55:00 every 1000
New timer settings: style=normal  mode=nosync  timeout=02:55:00

fix 		1 all shake 1e-6 200 0 b 1 a 1
       0 = # of size 2 clusters
       0 = # of size 3 clusters
       0 = # of size 4 clusters
     324 = # of frozen angles
  find clusters CPU = 0.004 seconds
fix             2 all nph aniso ${pressure} ${pressure} ${pressureDamp}
fix             2 all nph aniso 6043.8 ${pressure} ${pressureDamp}
fix             2 all nph aniso 6043.8 6043.8 ${pressureDamp}
fix             2 all nph aniso 6043.8 6043.8 1000
fix             3 all temp/csvr ${temperature} ${temperature} ${tempDamp} ${seed}
fix             3 all temp/csvr 127.54 ${temperature} ${tempDamp} ${seed}
fix             3 all temp/csvr 127.54 127.54 ${tempDamp} ${seed}
fix             3 all temp/csvr 127.54 127.54 100 ${seed}
fix             3 all temp/csvr 127.54 127.54 100 745823


run             250000
PPPM initialization ...
  extracting TIP4P info from pair style
  using 12-bit tables for long-range coulomb (../kspace.cpp:340)
  G vector (1/distance) = 0.37303116
  grid = 24 24 25
  stencil order = 5
  estimated absolute RMS force accuracy = 0.0033319258
  estimated relative force accuracy = 1.0033995e-05
  using double precision FFTW3
  3d grid and FFT values/proc = 2366 288
Last active /omp style is kspace_style pppm/tip4p/omp
Neighbor list info ...
  update every 1 steps, delay 7 steps, check yes
  max neighbors/atom: 2000, page size: 100000
  master list distance cutoff = 10.8154
  ghost atom cutoff = 10.8154
  binsize = 5.4077, bins = 4 4 4
  1 neighbor lists, perpetual/occasional/extra = 1 0 0
  (1) pair lj/cut/tip4p/long/omp, perpetual
      attributes: half, newton on, omp
      pair build: half/bin/newton/omp
      stencil: half/bin/3d
      bin: standard
Per MPI rank memory allocation (min/avg/max) = 9.229 | 9.234 | 9.241 Mbytes
Step Temp PotEng TotEng E_pair E_mol Press Lx Ly Lz Volume Pxx Pyy Pzz Pxy Pxz Pyz Enthalpy 
16000000    128.20298   -4976.4349   -4729.1847   -4976.4349            0    4430.8074    19.766774    19.846712    20.729134    8132.1528         4612    4213.4736    4466.9485   -117.33976   -325.57798   -262.51457   -4203.6949 
16001000    121.23091   -4979.7103   -4745.9064   -4979.7103            0     6221.825    19.974296    19.755768    20.488545    8084.9347    5111.2005    6193.4123    7360.8621   -136.86595   -464.85026   -106.90521    -4012.288 
16002000    129.74072   -4990.0902   -4739.8744   -4990.0902            0    6325.3337    19.887184    19.808066    20.369255    8023.9926    7450.6771      5893.92     5631.404   -78.899802   -647.30352   -462.98433    -3999.673 
16003000    128.90329   -4998.6613   -4750.0605   -4998.6613            0    6348.4351    19.859906    19.807539    20.503971    8065.7673    8339.0869    5136.0563    5570.1623   -310.32679    738.72374   -316.63264   -4003.2881 
16004000    121.57214    -4997.299   -4762.8369    -4997.299            0    5807.2499    19.834846    19.915728    20.449252    8077.9741    6252.7058    4928.5265    6240.5174   -645.06319    1582.3714   -198.49631   -4078.6908 
16005000    123.96815   -4986.9967   -4747.9138   -4986.9967            0    4958.0271    19.847585    19.928053    20.451106    8088.8976    3938.6401    5531.3828    5404.0583   -536.41519   -109.87228    62.997464   -4163.0239 
16006000    134.16235   -4996.4275   -4737.6842   -4996.4275            0    5026.7892    19.998022    19.816429    20.434779    8098.0859    5424.0473    3854.1774     5802.143   -499.93723   -1085.7453   -1295.4774   -4144.0089 
16007000    129.97157   -4991.7626   -4741.1015   -4991.7626            0    4986.7216    19.947113    19.767502    20.402706    8044.8806    3071.4278    5349.1203    6539.6168   -237.07267    550.24949   -500.33511   -4156.0277 
16008000    127.51888   -4984.3327   -4738.4018   -4984.3327            0    7892.2084    19.771566    19.811627    20.477462     8021.163    7792.5517    8753.7247    7130.3489   -299.47399   -153.62428    484.28108   -3815.1679 
16009000    134.76669   -4989.3292   -4729.4203   -4989.3292            0    5943.3848    19.808075    19.877027    20.548403    8090.4333    7573.2882    4212.2053    6044.6609    -164.1681    924.17401    206.72013   -4028.1564 
16010000    131.71151   -4990.6567     -4736.64   -4990.6567            0    6325.7814    19.876711    19.768513    20.556091    8077.1669    6046.5797    7195.7249    5735.0396    157.19471   -354.08203   -332.21085   -3991.4807 
16011000    125.21123   -4978.9187   -4737.4383   -4978.9187            0    6906.3428    19.711781    19.836794    20.461806    8000.9456     7265.814    6090.6701    7362.5443   -179.81205    443.20565   -233.06691   -3931.5677 
16012000    137.70697   -4982.7069   -4717.1275   -4982.7069            0    6205.7972    19.819379    19.827159    20.531672    8068.1666     7020.412    5587.1302    6009.8494   -390.62647   -819.47286     202.7838   -3986.9166 
16013000    132.65247   -4981.8382   -4726.0068   -4981.8382            0    6184.3706    19.782505    19.806351    20.636042    8085.5985    6936.9972    6333.4127     5282.702    56.078906     2129.708   -376.54746   -3996.7448 
16014000    125.47503   -4995.4656   -4753.4765   -4995.4656            0    4677.5788    19.931241    19.786822    20.591905    8120.9513     4769.694     4973.057    4289.9855   -571.96248   -467.85934   -39.828264   -4199.4839 
16015000    124.64472   -4985.1535   -4744.7657   -4985.1535            0    5103.4659    19.806418    19.713853    20.678684    8074.2158    5767.6576     5257.494    4285.2461   -195.16369    502.03284   -530.42438   -4143.8114 
16016000    124.66229   -4987.1471   -4746.7254   -4987.1471            0    5715.9286    19.760483     19.95141    20.512941    8087.2165    6693.1074     5776.986    4677.6922   -258.29769    362.56031     431.5438   -4072.5673 
16017000    129.84541   -4995.4542   -4745.0364   -4995.4542            0    5586.4026    19.902854    19.654428    20.655645    8080.0589    4581.0607     6633.846    5544.3011   -16.883462    777.81629    -703.8812   -4086.7382 
16018000    120.36004   -4985.4159   -4753.2914   -4985.4159            0    6063.0988    19.834515    19.856599    20.410202    8038.4767    6666.9351    4520.5944    7001.7669     27.66323   -999.52594   -9.6212856   -4042.4966 
16019000     125.2902   -4984.9797    -4743.347   -4984.9797            0      5961.92    19.744228    19.860454    20.532447    8051.3746    5838.7018    7735.7068    4311.3513   -701.47563   -1443.6119    311.28679   -4043.2922 
16020000    126.88936   -4991.3369   -4746.6201   -4991.3369            0    5712.4324    19.952908    19.812819    20.404732    8066.4672     5618.815    6504.7413    5013.7409   -450.64596    1411.6014    186.86679   -4074.6029 
16021000    123.10245   -4995.4365   -4758.0231   -4995.4365            0    6251.9481    19.907197    19.770583    20.448554    8048.0783    5317.7266    7319.4454    6118.6723   -304.74129    507.94485    736.94024   -4024.2134 
16022000    125.13714    -4980.581   -4739.2435    -4980.581            0    5247.2158    19.858784     19.70984    20.567289    8050.3137    5866.0309    5170.2607    4705.3557   -32.429109     1006.326   -482.72357   -4123.1911 
16023000    119.39478   -4979.8138   -4749.5509   -4979.8138            0    6588.0865    19.670074    19.944663    20.451467    8023.3764     6977.879    5165.0785     7621.302   -366.85085    1738.5768    855.03887    -3978.661 
16024000    133.41167   -4977.3268   -4720.0312   -4977.3268            0    5546.4657    19.895381    19.781037    20.539616    8083.3916    6126.1504    4130.1648    6383.0819    299.09046    770.62453    871.16168   -4066.1696 
16025000    132.38195   -4983.1529   -4727.8432   -4983.1529            0    6055.8787    19.882569    19.778445     20.46417    8047.4594    6275.6577    5164.1149    6727.8637   -258.25883   -274.04692   -128.57729   -4017.1014 
16026000    132.72695   -4978.2475   -4722.2724   -4978.2475            0    6125.1121    19.571293    19.924752    20.559267    8017.1512    7802.6105    4950.4479    5622.2779    95.715597    520.75132    151.93013   -4006.1125 
16027000    134.09121   -4988.4176   -4729.8114   -4988.4176            0    5642.7111    19.830841    19.753975    20.678344    8100.4919    6167.6946    6205.4556     4554.983    79.245879   -779.84711   -464.63189   -4063.1964 
16028000    126.40834   -4993.4209   -4749.6317   -4993.4209            0    6237.1322    19.807941    19.828557    20.527757    8062.5414    6548.9551    6189.9832    5972.4583    -44.13023    740.18301     279.5119   -4016.2454 
16029000     126.9955   -4986.2461   -4741.3246   -4986.2461            0    5643.8768    19.786778    19.838104    20.596811    8084.9107      5228.06    6227.3801    5476.1902    12.906145   -374.02643    899.99064   -4075.8543 
16030000    128.11674   -4979.2756   -4732.1917   -4979.2756            0      5750.74    19.954511    19.779797    20.436066    8066.0373    4214.2493    6465.2762    6572.6946    218.04738   -120.08181    378.80788   -4055.7041 
16031000    128.82581   -4978.7579   -4730.3065   -4978.7579            0    5755.2093    19.735352    19.974636    20.523736    8090.5896    6794.3934    4016.2189    6455.0155   -358.46833    -792.9856   -668.15502   -4051.2324 
16032000    130.78856   -4987.9926   -4735.7559   -4987.9926            0    4843.7679    19.878537    19.922754    20.368438     8066.618     4425.552    4409.0016    5696.7501   -102.27363    722.81747   -338.05827   -4165.9188 
16033000     125.6524   -4982.5865   -4740.2553   -4982.5865            0    5614.7129    19.852734     19.89267    20.457061    8078.9822    5158.4502    6169.5969    5516.0917    116.36382    418.72574   -303.30128   -4078.7092 
16034000    132.95376   -5010.1236   -4753.7111   -5010.1236            0    5936.5947    19.851949    19.796752    20.570509    8084.2947    6361.3267    6432.1393     5016.318    41.546441     849.7694     249.6958   -4053.7798 
16035000    122.07573   -5009.4438   -4774.0105   -5009.4438            0    4056.8495    19.857546    19.786125    20.701679    8133.7703    4478.8781    3626.5607    4065.1099    213.20954    549.78128    -470.9206    -4292.776 
16036000    130.26285   -5007.5052   -4756.2823   -5007.5052            0    5715.3983    19.869671    19.729443    20.529186    8047.8012    5761.6932    5123.1056    6261.3961    5.6167169    331.17676    624.20652   -4085.4721 
16037000    126.48539   -4980.8857   -4736.9479   -4980.8857            0    7598.8479    19.843179    19.715019    20.395928    7979.0634    7333.8449    8418.9247     7043.774    763.99539    205.82065   0.64223431    -3852.697 
16038000    132.08805   -4988.1188   -4733.3759   -4988.1188            0    6034.8201    19.991151    19.707556    20.429467    8048.7344     5508.625    6015.1047    6580.7305    610.43099    328.02556    183.10309   -4024.9934 
16039000    124.70909   -4991.0611   -4750.5492   -4991.0611            0    5545.4659    19.954327     19.82257    20.316636    8036.1647    4326.7304    5686.0894    6623.5779    9.3533415   -31.384182    707.86526   -4100.6249 
16040000    121.22711   -4979.5021   -4745.7055   -4979.5021            0    5981.3597     19.90314    19.675012     20.54472    8045.1997    4426.7969    7094.5283    6422.7538    -361.0115   -431.26682   -856.01591   -4043.9066 
16041000    127.23783   -4982.5656   -4737.1767   -4982.5656            0    6279.3913    19.957783    19.595504    20.592209    8053.2594    5229.7609    7187.7406    6420.6724    540.59436    886.55965    -31.24371   -3999.6715 
16042000    126.90865   -4993.2024   -4748.4484   -4993.2024            0    5189.2972     19.83442    19.898033    20.421416    8059.6375    3887.8871    5973.1471    5706.8575    296.21048    1070.0523   -29.095368   -4138.4904 
16043000    125.63495    -4972.961   -4730.6634    -4972.961            0    6544.7934    19.633207    19.896767    20.551628    8028.2334    8097.2239    4501.6351    7035.5212   -34.016948   -382.76231    690.90119   -3964.3758 
16044000    125.29166   -5000.8647   -4759.2292   -5000.8647            0    5250.4011      19.8417    19.872091    20.486309     8077.671    4763.3069    6032.1732    4955.7231    349.82666    396.85106    54.827744   -4140.7081 
16045000    125.72366   -4999.1577    -4756.689   -4999.1577            0    7157.1153    19.714833    19.809005    20.552633    8026.4453    9460.9402    5557.9852    6452.4205   -7.9858566   -508.94233   -90.004364   -3918.8952 
16046000    124.60899    -4998.012    -4757.693    -4998.012            0    5107.4102    19.775024     19.89566    20.594944    8102.8164    6389.5782    4652.7874    4279.8651    311.22289    270.68642   -597.55667   -4154.1439 
16047000    127.68604   -4993.0064   -4746.7532   -4993.0064            0    5848.6965    19.791033    19.819892    20.587827    8075.7016    5401.2188    6379.5016    5765.3691   -337.99264    415.64472    216.07903   -4057.9181 
16048000     123.8674   -4997.4587     -4758.57   -4997.4587            0    6270.7469    19.846838    19.913726    20.380798    8054.9905    6629.2852     6484.881    5698.0745   -461.61157    187.02778    1060.9348   -4021.9217 
16049000    132.59449   -4993.4097   -4737.6901   -4993.4097            0    6421.2447    19.787643    19.804236    20.506399    8036.0298    5817.1774     7438.619    6007.9376   -485.32612   -164.90381    407.62985   -3985.1379 
16050000    124.86907   -4996.3614   -4755.5409   -4996.3614            0    5465.0835    19.945158    19.954655      20.3124    8084.3097    5841.2343     4676.856    5877.1602   -300.88819   -380.54808   -743.93264   -4111.2001 
16051000    138.59586   -4979.0194   -4711.7257   -4979.0194            0    6440.0761    19.773414    19.910737    20.500451    8071.0938    6357.2102    5854.5241    7108.4939     284.8797     513.2444    488.33307   -3953.6732 
16052000     132.1049    -5010.253   -4755.4776    -5010.253            0    5768.1505    19.766606    19.999192    20.390076    8060.5263    6598.1513    4325.3433     6380.957    75.705811    -600.9879    620.07827   -4077.4055 
16053000    124.19102   -4996.9882   -4757.4753   -4996.9882            0    6486.9922    19.807971    20.026557    20.227799    8024.0738    6081.7068    6078.4574    7300.8123   -220.97362    -486.4422    384.68731   -3998.3488 
16054000    132.62312   -4982.6023   -4726.8274   -4982.6023            0     6299.219    19.817552    19.909372    20.385888    8043.3545    6956.4831    4574.2727    7366.9011    203.32149    1458.7004     282.2238   -3987.9034 
16055000    128.35473   -4992.7752   -4745.2323   -4992.7752            0    5272.8064    19.803577    19.914774    20.610915    8128.6105    4398.7332     5962.284    5457.4021   -150.90119    817.33431   -560.62145   -4120.1545 
16056000    129.59748   -4971.2946    -4721.355   -4971.2946            0     6456.241    19.739183     19.82273    20.584609    8054.4383    6372.2775    6037.0608    6959.3848   -577.05623   -847.56546   -237.82944    -3962.968 
16057000    126.14218   -5002.8292   -4759.5534   -5002.8292            0    6469.7822    19.707295    19.906673    20.459168    8026.2682    6392.8048    6447.4652    6569.0765    -115.7959   -638.36827    616.60972   -4002.2338 
16058000    124.74452   -4975.6106   -4735.0304   -4975.6106            0    6966.5068    19.692364    19.758648    20.529806    7988.0346    6634.3011    7478.5142    6786.7052   -212.89249    1022.3168    159.05937   -3923.4512 
16059000    127.83409   -4992.7115   -4746.1727   -4992.7115            0    6222.1772    19.842133     19.80736    20.467066    8043.9715    7064.7588    5946.6845    5655.0882    165.10251     400.7714    797.58911     -4016.23 
16060000    126.99288   -4991.6532   -4746.7367   -4991.6532            0    5901.3083    20.064068    19.680734    20.454462    8076.9681    5692.4927    5956.9188    6054.5135    226.95985    -271.6223   -244.12983   -4051.5963 
16061000    130.25666   -4990.6463   -4739.4353   -4990.6463            0     5761.591    19.774526    19.975127    20.462326    8082.5914    6506.3654     3782.042    6996.3657   -228.63716    279.53267   -63.540895   -4060.2803 
16062000    133.97733   -4982.5469   -4724.1603   -4982.5469            0    4151.9289    19.769441    19.819416    20.652523    8092.0462    5271.9711     4261.248    2922.5675    65.141386    24.732194   -516.56931   -4234.1738 
16063000    133.90741   -4985.7746   -4727.5229   -4985.7746            0    7008.4511    19.788904    19.761859    20.589144    8051.7047    7767.6522     6648.161    6609.5402    331.25654   -203.28724    1092.7552   -3904.5496 
16064000     130.7656   -4996.2058   -4744.0133   -4996.2058            0    6043.5178    19.866605    19.803942    20.499768     8065.369    5722.4025    5991.8164    6416.3344   -281.50889    950.59331    43.178641   -4033.1437 
16065000    121.13586   -4979.9708   -4746.3501   -4979.9708            0    5675.2007     19.78202    19.855817     20.49387    8049.7496    4587.3982    6829.1727    5609.0312   -325.85084    -680.0978    553.28254   -4080.0967 
16066000    133.54703    -4978.078   -4720.5213    -4978.078            0    6681.0976    19.903329    19.814227    20.461728     8069.473    6246.1494    6580.9576    7216.1859   -696.06144   -508.89862    13.104557   -3934.2564 
16067000    127.32763   -4997.4246   -4751.8626   -4997.4246            0    5861.7674    19.888657    19.954688    20.329722    8068.2966    6188.2887    4643.4395    6753.5739   -128.05427    170.53004    641.17632   -4062.1211 
16068000    127.71163   -4985.3471   -4739.0445   -4985.3471            0    5983.9609    19.801178    19.815574    20.468593    8031.2965    5350.8646    6980.8061    5620.2119    149.47506   -316.36208    377.38236   -4038.1538 
16069000    123.75111   -4993.4213   -4754.7569   -4993.4213            0    7624.4924    19.687377    19.955811    20.349973    7995.0475    6722.3564    8424.9197     7726.201    -111.4229    -91.42919   -19.385789   -3865.7444 
16070000    124.68697   -4985.9391   -4745.4698   -4985.9391            0    4147.5417    19.952642    19.802304    20.619836    8147.0685    3150.8871    5385.6387    3906.0992   -261.50942    892.18065   -199.52997   -4252.6728 
16071000    130.86743   -4991.1652   -4738.7763   -4991.1652            0    5405.3415     19.80024    19.825363    20.526366    8057.5626     4512.231      6600.89    5102.9035    271.74806   -749.40675    670.45964   -4103.5877 
16072000    133.43926   -4975.1115   -4717.7627   -4975.1115            0    5244.9086    19.660375    19.883454    20.728948    8103.2806    5775.3218    4109.5377    5849.8663   -367.45133   -522.39344   -153.07389   -4097.9297 
16073000    118.41676   -4991.8245   -4763.4478   -4991.8245            0    6759.6588    19.815429    19.760451    20.594931     8064.188    6795.3535    6888.9797    6594.6432   -406.78196   -262.84031    347.13145   -3968.4585 
16074000    123.59568   -4996.4444   -4758.0797   -4996.4444            0    6391.5143     19.84181    19.834572    20.488645    8063.3847    6859.0653    6271.4472    6044.0306   -117.51911    172.54566    408.74802   -4006.4619 
16075000     129.0213   -4994.3201   -4745.4917   -4994.3201            0    8591.8154    19.734146     19.75806    20.550254    8012.7175    8224.7225    8820.1458    8730.5778    17.229474    306.63903   -732.66976   -3741.4757 
16076000    125.83647   -4984.4362     -4741.75   -4984.4362            0    7264.0311    19.786752    19.732816    20.504809    8006.0687    6208.2813    9280.0119    6303.8001   -218.71418   -380.68445    112.88222   -3893.5995 
16077000    118.20985   -4989.9275   -4761.9499   -4989.9275            0    6457.4046    19.695588    19.743721    20.636914    8024.9567    5121.5244    8086.2129    6164.4766   -232.81368    820.19311    -405.7686   -4006.2026 
16078000    130.98595   -4976.8772   -4724.2597   -4976.8772            0     6706.657     19.67231     19.89338    20.510257    8026.6636     7715.234    5855.0632    6549.6737   -63.087388    1033.5888   -571.08012   -3939.1741 
16079000    124.80681   -4992.8973   -4752.1969   -4992.8973            0     6189.117    19.781814    19.758964    20.589599    8047.8182     8071.051    4723.2561     5773.044   -166.75761    231.10733    189.74332   -4025.7853 
16080000    126.55865   -4980.7234   -4736.6444   -4980.7234            0    6304.8627    19.894096    19.919166    20.397859     8083.137    6327.7678    6005.2519    6581.5683    780.34931   -311.34693    1125.3189   -3993.4003 
16081000    131.63636   -4991.7376   -4737.8658   -4991.7376            0    6214.5944    19.735528    19.991758    20.478043    8079.5687    6293.5309    5826.5408    6523.7115   -339.84832   -356.46064    284.80365   -4005.5864 
16082000    125.76018   -4999.1786   -4756.6395   -4999.1786            0    6059.0292    19.796027    20.000156    20.401142    8077.2945    6889.3969    5376.1467    5911.5441   -582.49472    252.79348    125.63505   -4042.8916 
16083000    127.53388   -4980.1546   -4734.1948   -4980.1546            0    6854.9454     19.94208    19.724221     20.40707    8026.9575    6715.1499    7693.7156    6155.9706    115.67811    264.05348    65.100911    -3931.721 
16084000    138.15957   -4990.2849   -4723.8326   -4990.2849            0    6199.8493      19.8733    19.718068    20.592272    8069.3511    5960.5749    6542.1535    6096.8195   -119.75155    1384.7031    182.68425   -3994.2144 
16085000    121.35397   -4984.2859   -4750.2446   -4984.2859            0    5917.2916    19.649453    19.676567    20.734013    8016.4698    6852.7643    5930.0685    4969.0419   -288.37257   -299.77769    52.631817   -4058.4423 
16086000    123.18223    -4986.011   -4748.4437    -4986.011            0    6625.9521    19.849029    19.698341    20.586029    8048.9925    6152.6147    7461.4045     6263.837    -187.5243    430.97225   -291.22914   -3970.6477 
16087000    126.55731   -4999.4401   -4755.3637   -4999.4401            0    5790.3271    19.880266    19.749367    20.625484    8098.0325    5431.0657    7526.5094    4413.4061   -221.02572   -594.06027   -3.1248095   -4071.5174 
16088000    126.73903   -4986.8335   -4742.4067   -4986.8335            0    5811.1982    19.798828    19.840853    20.542491    8069.6173    6417.8458    5706.2607    5309.4882   -235.12586   -797.18929    74.409949   -4058.5036 
16089000    121.44607   -5003.8982   -4769.6793   -5003.8982            0    5086.5934    19.713715    19.867708      20.6427    8085.0505    4402.0749    6424.6556    4433.0496    35.082862    256.94564    1444.3769    -4169.908 
16090000    123.09556   -4984.7228   -4747.3227   -4984.7228            0    5977.9041    19.692764    19.831247    20.652547    8065.4817    5260.8915    7292.4724    5380.3485   -2.3444212    298.23641    170.43217   -4044.1611 
16091000    127.06348   -4995.4387    -4750.386   -4995.4387            0     5541.589    19.738164     19.91954    20.490165    8056.2235    5529.2542     5265.984    5829.5289   -340.24636    6.1784006    802.90677    -4099.295 
16092000    124.34352   -4986.9926   -4747.1856   -4986.9926            0    7012.3037    19.642317    19.809493    20.619669    8023.2025    7563.7567    6878.9744      6594.18   -912.09041    298.41977    -161.9179   -3926.6747 
16093000    134.86858    -4993.042   -4732.9367    -4993.042            0    6030.9112     19.79825    19.831189     20.55572    8070.6452    5812.2693    6794.4771    5485.9872   -254.45097   -214.64949    1091.7761   -4023.0859 
16094000    126.90222   -4988.7801   -4744.0385   -4988.7801            0    6112.8604    19.776372    19.893338    20.469148    8052.9323    5690.0371    6645.3154    6003.2285    304.76961   -111.19583    115.05299   -4026.1212 
16095000    124.52511   -4999.3532    -4759.196   -4999.3532            0    7467.9714    19.780039    19.825245    20.443423     8016.768    6443.5743    8306.7911    7653.5487   -236.00124    199.73029   -902.29534   -3886.0682 
16096000    132.63444   -4989.1949   -4733.3983   -4989.1949            0     7307.152    19.716861    19.794637    20.530261    8012.7169    5914.6538    8706.8737    7299.9285   -617.11696    1017.6007   -953.54909   -3879.5045 
16097000    129.50246   -4988.7248   -4738.9684   -4988.7248            0     5728.819    19.809319    19.698141    20.592876    8035.4795    6446.8477    5373.8515    5365.7577   -381.70815   -178.09671   -352.53045   -4067.6126 
16098000    126.83354   -4989.2863   -4744.6772   -4989.2863            0     6852.635    19.850736     19.77298    20.524769    8056.1402    6150.1832    6625.0099     7782.712   -195.22771     36.18041    173.07475   -3939.5574 
16099000     129.0116   -4996.0136   -4747.2039   -4996.0136            0    5695.5856    19.763223    19.921382    20.481119     8063.636     7654.209    3538.0509    5894.4968   -113.41392    568.16153    160.28017   -4077.4038 
16100000    130.04126   -4995.9656   -4745.1701   -4995.9656            0    7064.5057    19.923355    19.946864    20.303823    8068.9107    5803.8526    6811.0356     8578.629    -267.3517   -184.21716   -405.79449   -3913.8418 
16101000    122.44079   -4994.6305   -4758.4932   -4994.6305            0    6721.0794    19.731367     19.81063    20.445518     7991.965    7450.1799    6947.2444    5765.8139   -268.03175    550.03743   -448.40888   -3975.1204 
16102000    125.37484     -4984.24   -4742.4441     -4984.24            0    6647.1497    19.867593    19.900826    20.392204    8062.7005    6501.8094    6171.3123    7268.3274    265.48301   -290.86921    214.70559   -3960.8309 
16103000     128.3717   -4981.2036   -4733.6279   -4981.2036            0    5397.7738    19.755518     19.82358    20.631461    8079.7975    6074.9418    4787.3042    5331.0753   -223.16251    -146.3139    1337.3862   -4097.5782 
16104000    132.08495   -4994.0237   -4739.2867   -4994.0237            0    6324.8373    19.900321    19.748787    20.557625    8079.2947    6029.5566    7428.9531    5516.0021   -933.75883    1291.2986    257.84138   -3994.0424 
16105000    135.13463   -4982.7683   -4722.1498   -4982.7683            0    5907.6633     19.80704     19.78578    20.611746    8077.6967    6422.2315    4935.7014     6365.057   -338.36599    848.49227     305.5878    -4026.198 
16106000    125.75827    -5003.619   -4761.0836    -5003.619            0    5842.7503     19.90029    19.768556    20.597228    8102.9495    5195.9489    6294.7939    6037.5083   -72.346689    -283.2142    226.51905   -4070.6271 
16107000    128.29295    -4989.956   -4742.5323    -4989.956            0    6066.9137    19.897129    19.838469    20.447182    8071.0873    5738.6233    6049.2249    6412.8929    262.35675    398.97686    437.34498   -4028.4048 
16108000    124.79471   -4979.8851    -4739.208   -4979.8851            0    4614.7479    19.880962    19.969681    20.464566    8124.7698    4857.3006    4411.9741     4574.969    496.24033    -313.9454    36.856701   -4192.3999 
16109000    124.47962   -4990.5117   -4750.4423   -4990.5117            0    4762.1906    19.756054    19.929246    20.559409    8094.7177    4498.6643    5104.5379    4683.3694   -406.36347   -24.086653    509.30008   -4188.2507 
16110000    131.66847   -4981.8424   -4727.9087   -4981.8424            0    8158.2189    19.736764    19.747231     20.54376    8006.8573    6753.1954    9568.8463    8152.6149    169.13676    -230.6844   -1110.5609   -3775.2588 
16111000    133.04791   -4984.8885   -4728.2944   -4984.8885            0    5559.7666    19.971721    19.633814     20.58767    8072.8591    6067.8075    5213.0468    5398.4456   -571.62328    82.617891   -28.485946   -4073.7188 
16112000    131.06819   -4990.8488   -4738.0728   -4990.8488            0    5503.2296    19.773941    19.762393    20.677874    8080.5074    5837.1462    5394.7135     5277.829   -193.40359    331.45705    -168.2608   -4089.5397 
16113000    126.37372   -5001.8528   -4758.1305   -5001.8528            0    6961.1968    19.757988    19.629558    20.815424    8073.0656    8556.4841    7927.5072    4399.5991   -163.07891    -422.6766     338.6157   -3938.5374 
16114000    130.25975   -4990.6124   -4739.3955   -4990.6124            0    5811.7767    19.831702    19.760323    20.642224     8089.292    6577.0663    6233.3341    4624.9296   -49.470281    850.23837    660.80901   -4053.7568 
16115000     125.0346    -4989.288   -4748.1482    -4989.288            0    5456.7234    19.791147    19.822144    20.600435    8081.6115    6579.0436    5086.6323    4704.4942    85.782112    771.74738    915.87838   -4105.0078 
16116000    128.96913   -5003.2442   -4754.5164   -5003.2442            0    7109.3406    19.718523    19.863213    20.542344    8045.8856    6679.9101    7519.7167    7128.3952    88.558315       214.84   -771.57872   -3920.2993 
16117000    124.21833    -5000.022   -4760.4565    -5000.022            0    5606.4866    19.891058    19.822476    20.526471    8093.3826    4069.5566    6569.0361     6180.867   -103.48949    246.74784    68.611788   -4098.7022 
16118000    122.03649   -4980.6481   -4745.2905   -4980.6481            0     6675.446    19.651364    19.871992    20.447802    7985.1071    6955.0354    5924.1304    7147.1722   -589.51003    1983.5093   -47.681238   -3967.9041 
16119000    122.13109   -4990.9607   -4755.4206   -4990.9607            0    5981.0354    19.800708    20.001686    20.402955    8080.5399    5866.2443    6692.7744    5384.0875   -310.56628    581.24086    649.32588   -4050.5772 
16120000    126.22801   -4991.3292   -4747.8879   -4991.3292            0    5444.0494    19.935748    19.872016    20.462103    8106.3385     6294.854    4028.4332    6008.8611    212.10811    154.82457    637.93382   -4104.2781 
16121000    123.19734   -5004.3233   -4766.7269   -5004.3233            0    4259.5905    19.906704    19.964909     20.44495    8125.5492    4102.3871    3788.2815    4888.1029    154.05624   -152.69324    374.02263   -4261.9535 
16122000    128.56513   -4969.4178   -4721.4692   -4969.4178            0    8117.6514     19.62387    19.884189    20.449276    7979.4048    10217.833     5999.858    8135.2638    146.49867    1340.3834   -1193.4448   -3776.8064 
16123000    126.67724   -4993.9796   -4749.6719   -4993.9796            0    4392.6669    19.980993     19.84379    20.495612    8126.4822    4869.0195    3684.5478    4624.4334   -398.62156    900.45288   -158.73753   -4229.0688 
16124000    132.31337   -4998.4082   -4743.2307   -4998.4082            0    6029.8708    19.739223    19.888772    20.578425    8078.8612    6639.6786    5731.9944    5717.9395   -388.29649    193.73709   -202.54576   -4032.7799 
16125000    133.73396   -4988.4948   -4730.5776   -4988.4948            0    5170.8971    19.862739    19.799931    20.599555    8101.4106    5579.1119    4919.0689    5014.5106   -43.209196    401.21024    577.61966   -4119.6322 
16126000    120.07207   -4992.0994   -4760.5303   -4992.0994            0    6239.7942     19.79501    19.809397    20.582386    8070.9137    6824.1618    6347.2464    5547.9743   -304.14681    571.22137   -1236.1163   -4026.0691 
16127000    132.26084   -5003.8418   -4748.7657   -5003.8418            0    6164.6623    19.921257    19.626669    20.699195    8093.1349    6378.0462    6540.3834    5575.5572   -112.20732   -144.98143     378.0134   -4021.1501 
16128000    123.09079    -4990.651     -4753.26    -4990.651            0    6220.1943     19.85489     19.74822    20.634435    8090.7364    6410.5347     7003.926    5246.1223   -17.307925   -148.05871    199.85025   -4019.3076 
16129000    132.92444   -4980.4143   -4724.0584   -4980.4143            0    5997.3717    19.762897    19.786748    20.575226    8045.8073    7154.4467    5691.9398    5145.7285   -118.16406   -248.08768    255.71759   -4020.3277 
16130000    122.69995   -5000.3017   -4763.6646   -5000.3017            0    6100.0292    19.834671    19.783293    20.562264    8068.5318    6086.2637    6217.6895    5996.1343   -733.05311    228.08896   -727.43916   -4045.8664 
16131000    117.24104   -4994.0104   -4767.9012   -4994.0104            0    5043.2805    19.638661    19.996593    20.570023    8077.9775    6038.1721    4217.7586    4873.9107   -114.12087     938.5792     211.4926   -4173.7573 
16132000    131.51948   -4977.2571   -4723.6107   -4977.2571            0    7864.4541    19.852777    19.781671    20.446019    8029.5835    7889.5014     8339.732    7364.1287   -330.67655   -44.503949    943.79336   -3802.6577 
16133000    131.40958   -4984.4154    -4730.981   -4984.4154            0    5476.4973    19.798646    19.895212    20.608554    8117.6736    5162.5459    5450.6562    5816.2898    64.790352    676.23574    85.776393   -4082.6297 
16134000    129.05236   -5004.1921   -4755.3038   -5004.1921            0    5972.8937    19.940434    19.944053    20.293164    8070.4509    6076.0915    5359.9517    6482.6379    147.64457    338.96871    77.894533   -4052.2987 
16135000    127.26307   -4991.6483   -4746.2108   -4991.6483            0    5734.3598    19.796904     19.92482    20.446188    8064.9934    5345.3647    5901.5851    5956.1297   -351.17896   -89.636881    423.02204   -4071.7374 
16136000    130.87179   -4994.9844   -4742.5871   -4994.9844            0    5224.7881    19.961539    19.777285    20.463217    8078.5722    3972.7148    6946.9341    4754.7153    160.54443   -558.50709   -294.91244   -4127.0147 
16137000    126.74494   -4997.8628   -4753.4245   -4997.8628            0    6503.6934    19.873745     19.83536    20.407719    8044.7817    5965.8356    7195.2826    6349.9619   -310.59197    461.99941    381.42614   -3990.3794 
16138000    130.18321   -4998.5886   -4747.5193   -4998.5886            0    6178.7098    19.990661    19.751139    20.411066    8059.0711    5572.6416    6720.5913    6242.8965     38.71058   -515.55041   -890.82588   -4021.3152 
16139000    123.28276   -5002.9194   -4765.1582   -5002.9194            0    6179.3261    19.889498    19.819992    20.458282    8064.8528    6349.1801    6203.8503    5984.9479    -329.6054    32.323715    1002.8906   -4038.3606 
16140000    129.30031   -4988.2584   -4738.8919   -4988.2584            0    5451.9775    19.812154    19.800334    20.619337    8088.7034     5643.274    5627.5023    5085.1562   -142.67104   -733.73733    506.90506    -4095.747 
16141000    129.01136   -4996.2009   -4747.3916   -4996.2009            0     6610.094    19.737364    19.857679    20.515707    8040.8897    7108.1108    5920.2743    6801.8969    106.81109    256.68054   -155.98209   -3972.2383 
16142000     126.7804   -4993.7686   -4749.2619   -4993.7686            0    5722.2865    19.755674    20.001656     20.44922    8080.4317    5215.0186    5696.5195    6255.3213    31.970724    237.58726    2009.5306   -4074.9202 
16143000    125.99104   -4991.8265   -4748.8422   -4991.8265            0    5864.0192    19.838538    19.795448     20.53479    8064.2741    6698.5928    4618.2966    6275.1683   -224.04215    602.73084    698.35136   -4059.1798 
16144000    126.10908   -4991.1207   -4747.9087   -4991.1207            0     4567.072    19.746145    19.977018    20.542181    8103.2551    5401.0555    4558.7689    3741.3915   -37.977245    132.00507    1128.1141   -4208.1828 
16145000    130.20124   -4999.4612   -4748.3571   -4999.4612            0    5289.1531    19.858689    19.819945    20.558486     8091.782    5015.2488    6735.0513    4117.1591    532.40234   -458.94122   -58.476338   -4124.1824 
16146000    123.51733   -4993.9909   -4755.7774   -4993.9909            0    5599.5204    19.907351    19.794189    20.494966    8076.0386    5397.2954    5635.1855    5766.0804   -67.389297     262.6868   -180.41777   -4096.2617 
16147000    126.38856   -5001.0808   -4757.3298   -5001.0808            0    7207.4306    19.871243    19.751206    20.444006    8023.8842    7146.0586    6652.1314    7824.1019    484.25554    2492.2957    538.01956   -3913.9154 
16148000    124.81154   -4997.2901   -4756.5805   -4997.2901            0    5473.3128    19.805932    19.917569     20.45449    8069.0102    5261.8611    5500.0543     5658.023    126.39174      321.893    528.31565   -4112.4907 
16149000    135.32539   -4995.9754    -4734.989   -4995.9754            0    6410.4404    19.750166    20.013943    20.417087    8070.4396    7363.3602    5284.6399    6583.3211   -130.34378   -779.00114   -451.67407    -3980.486 
16150000    125.38844    -4989.813   -4747.9909    -4989.813            0    6260.9113    19.777619    19.864995    20.531295    8066.3823    6999.5087    6244.7381    5538.4872   -387.77172    227.73599    546.35216   -4011.4578 
16151000    132.84541   -4978.8903   -4722.6867   -4978.8903            0    6306.6538    19.687589    19.819619    20.608276      8041.36    5628.8018    7331.3558    5959.8037     143.9879    -1300.906    26.018173    -3983.074 
16152000    129.33167   -4984.3097   -4734.8827   -4984.3097            0    6383.9994    19.921862    19.692234    20.551316    8062.4038    7119.7857    6079.4923    5952.7202    389.33668    1111.3049    1132.8677     -3984.24 
16153000    125.84483   -4991.2891   -4748.5868   -4991.2891            0    5441.1497    19.795447    19.917916    20.507324     8085.711    5291.8234    5497.0475    5534.5782    120.72614    489.47854    4.5542683   -4106.9566 
16154000    129.49486   -4993.9826   -4744.2409   -4993.9826            0    5938.7164    19.966744    19.899439    20.293001    8062.9574    6129.8267    5305.1535    6381.1691     731.1163   -100.73873    112.72202   -4045.9074 
16155000    126.92025   -4993.7062   -4748.9298   -4993.7062            0    5500.2816     19.91664    19.828069    20.449525    8075.6913    5305.5669     5246.299    5948.9789    435.10852   -342.47947   -984.39493   -4101.1304 
16156000     126.8482   -5002.6799   -4758.0425   -5002.6799            0    5412.5297    19.926695    19.771659    20.499786    8076.5841    5433.7271    6261.0432    4542.8189   -135.29038    220.81549   -214.70246   -4120.5076 
16157000    132.94756   -4994.5345   -4738.1339   -4994.5345            0    5910.3816    19.770626    19.968124    20.404977    8055.5238    8502.6916     3207.714    6020.7392   -25.618116     659.9624    239.44666   -4043.7731 
16158000    121.95762   -4997.3093   -4762.1037   -4997.3093            0    5760.1456    19.860223    19.701385    20.648978    8079.4063     5323.069    7134.5749    4822.7929   -324.12408   -829.15847    942.41146   -4083.3866 
16159000    126.14083   -5001.7442    -4758.471   -5001.7442            0     4446.834    19.794026    19.846724    20.592129    8089.5471    2677.2966    6006.6848    4656.5205    130.26753   -112.44893    907.57885   -4233.8435 
16160000    133.12973   -4994.4062   -4737.6543   -4994.4062            0    7792.7379    19.781374    19.800942    20.362529    7975.7955    8409.8884    7485.2993    7483.0261   -720.49103    460.01961   -25.211116   -3831.2124 
16161000    124.37418   -4989.5514   -4749.6853   -4989.5514            0    7080.7662    19.862891    19.727581    20.466473    8019.7217    5510.0331     9425.861    6306.4046   -322.67654   -329.72642   -301.40351   -3921.5231 
16162000    131.87149   -4994.7882    -4740.463   -4994.7882            0    5776.7254    19.848944    19.708705    20.621793    8067.1833    6333.3665     6359.169    4637.6406   -76.705402    47.280596   -169.01597    -4060.822 
16163000    127.47127   -4984.8044   -4738.9653   -4984.8044            0     5130.714    19.719233    19.844355    20.588734    8056.6899    4882.5558    5578.3768    4931.2094   -466.70641    5.5921238   -431.73976   -4136.1138 
16164000    127.57335   -4995.4347   -4749.3987   -4995.4347            0    6141.5784    19.912659    19.543078    20.673557    8045.2111    5499.6875    7868.3743    5056.6733   -223.58186    122.63803     721.0353   -4028.8003 
16165000    125.75275    -4989.497   -4746.9723    -4989.497            0    6699.7446    19.726073    19.874143    20.528042    8047.7889    6950.8574    6330.1827    6818.1937   -763.76225   -136.68004   -873.56129   -3960.6317 
16166000    124.56656   -4979.9615   -4739.7244   -4979.9615            0    3262.1724    19.884894    19.805262     20.59368    8110.3169    2144.5113    4180.3531    3461.6528   -361.63233   -570.36528    75.447794   -4353.8725 
16167000    127.03775   -4990.8646   -4745.8616   -4990.8646            0    5481.2827    19.921967     19.89048    20.454944    8105.4245    4544.7944    5361.5731    6537.4807   -214.95068    105.20874    552.46134    -4097.923 
16168000    129.96651   -4982.8673    -4732.216   -4982.8673            0    4493.1147    19.955134    19.884257    20.504324    8135.9722    5427.9927    3413.6096    4637.7417    13.720128    1579.1027   -710.11112   -4199.0863 
16169000    129.67363   -4978.9277   -4728.8411   -4978.9277            0     6202.661    19.842824    19.787598    20.528581    8060.3797    6138.3622    5646.4698    6823.1509   -180.94014    659.29459   -544.92584   -3999.7037 
16170000    129.37313   -4985.1193   -4735.6123   -4985.1193            0    7516.6094    19.975595     19.60911    20.457797    8013.3936    6508.6777    8679.6725     7361.478   -171.53702    113.14108    774.19198   -3857.1678 
16171000    129.25752   -4983.3052   -4734.0212   -4983.3052            0    5101.0456    19.839135    19.692529    20.652156    8068.4409    3531.6569    6597.8727    5173.6074   -53.619573    59.705615    244.09175   -4133.7815 
16172000    128.42438   -4996.4275   -4748.7503   -4996.4275            0    6725.1802    19.917981      19.6715    20.557075    8054.6025    6839.6694    6863.6182    6472.2531   -673.99944    409.25162    184.98572    -3958.756 
16173000    126.05068   -5004.7608   -4761.6615   -5004.7608            0    6015.7528    19.920701    19.914626    20.416791    8099.6124    6669.1217    5055.8433    6322.2934   -14.337229   -1373.8463     -247.574   -4051.0535 
16174000    133.18929    -5003.021   -4746.1543    -5003.021            0    6268.3138    19.808942    19.889956     20.46503     8063.201    5556.8368    6414.5816    6833.5232    347.10141    75.758615     325.3002   -4009.0412 
16175000    125.82915   -4987.3492   -4744.6771   -4987.3492            0    5869.7639    19.841876    19.771059    20.524416     8051.624    5766.8338    6051.8948     5790.563   -389.88717   -219.81784    683.90373    -4055.422 
16176000     124.8036   -4993.6083   -4752.9141   -4993.6083            0    7547.9612    19.742412    19.832293     20.38596    7981.8637    7515.3157    7016.5497    8112.0181    -453.4367   -189.82507    143.95727   -3874.2763 
16177000    133.08468   -4998.0964   -4741.4313   -4998.0964            0    5487.3891    19.977464    19.676639    20.538056    8073.2909    4751.6368    6229.8483    5480.6821    17.728499    725.98311    566.72867   -4095.3425 
16178000    122.55136   -4977.8956    -4741.545   -4977.8956            0    7504.3932    19.792779     19.87434    20.375935    8015.2493    8179.1584    6880.6382    7453.3829   -31.786985   -647.22973    393.10008    -3864.325 
16179000    131.84497   -4988.6675   -4734.3934   -4988.6675            0    4191.6838    19.908272     19.80337    20.592791    8118.7259    3621.2396    6081.5904    2872.2213    477.39009   -581.91831    734.63244   -4238.0843 
16180000    131.54341   -4995.7155   -4742.0229   -4995.7155            0    5389.3321    19.915221    19.886436    20.534458    8132.5235    4827.2386    6437.5761    4903.1816   -318.01489    1141.4165   -303.03376   -4102.8238 
16181000    131.90219   -4998.8427   -4744.4582   -4998.8427            0    6148.9543     19.82819    19.780003    20.443153    8017.8383     6205.298    5952.3498    6289.2151    182.21299    285.75062    324.93882    -4025.449 
16182000    126.05078   -4990.3716    -4747.272   -4990.3716            0    4530.4314    19.961674     19.83508    20.441003    8093.4394    3194.2037    5716.0675     4681.023    474.79889    195.59478    478.71452   -4212.5248 
16183000    125.58295   -5004.6412   -4762.4439   -5004.6412            0    5500.5767    19.829197    19.945876    20.445607    8086.4565    5257.3921    5431.8648    5812.4733    304.58522     440.6933   -1180.2481   -4113.7462 
16184000    124.17022   -4996.7114   -4757.2387   -4996.7114            0     5444.742     19.74744    19.852945     20.50882     8040.377    5918.6155    4961.0421    5454.5685    563.84051    1113.3093    1265.2985   -4118.7847 
16185000    133.05362   -4991.4591    -4734.854   -4991.4591            0    5333.4353    19.959248    19.785619    20.473398    8085.0692    6769.3507    3971.4892    5259.4661    78.013887     1222.755   -329.63634   -4105.9756 
16186000    125.02476   -4972.2725   -4731.1518   -4972.2725            0    6198.2897    19.814068    19.790161    20.526053    8048.7496    6689.5397    6565.5801    5339.7492    437.11546   -167.19885    745.95203   -4003.5795 
16187000    124.12977   -4989.8704   -4750.4757   -4989.8704            0     5967.808    19.948736    19.720729    20.505073    8066.7695    5737.6971    5544.5288    6621.1981   -757.54631   -293.08796   -104.98184   -4048.3896 
16188000    127.97897   -4980.1068   -4733.2886   -4980.1068            0    6076.6119    19.666762    19.660873    20.727171     8014.486    5081.5989    7474.9014    5673.3356   -382.58549   -634.51963   -1089.9448   -4023.0356 
16189000    125.90503   -5003.0938   -4760.2753   -5003.0938            0    5670.3303    19.966145    19.711137    20.504214    8069.5447    5929.4327     6095.228    4986.3301   -214.09264   -41.674947    155.07817   -4092.9566 
16190000    131.82402   -4979.5528   -4725.3191   -4979.5528            0    5937.8098    20.017328    19.822412    20.352891    8075.8589    5419.0899     5546.332    6848.0075   -365.70001    129.38577    -49.82084    -4025.975 
16191000    129.61885   -4991.0816   -4741.1007   -4991.0816            0     5986.067    19.981521    19.799967    20.435734    8085.0603    5637.9845    6454.2732    5865.9434   -116.27667   -160.26033   -306.08935   -4035.2697 
16192000     128.6529   -4987.7746   -4739.6566   -4987.7746            0    6381.5857    19.794559    19.833244    20.548321    8067.0721    7649.7963    6004.4444    5490.5164    49.821457     316.3041    55.395515   -3988.8632 
16193000    130.75359   -4995.6982   -4743.5289   -4995.6982            0    6125.7161    19.706819    19.911068     20.63689    8097.5814    5916.4038    6642.0611    5818.6835   -474.91638    10.720277    1064.3972    -4020.113 
16194000     131.1167   -4982.2733   -4729.4037   -4982.2733            0    6401.6763    19.842808    19.728253    20.505176    8027.0369    5970.5281      7115.26    6119.2407   -330.56371    585.57611    1773.8693   -3979.9844 
16195000    126.26195   -4985.2864   -4741.7796   -4985.2864            0    6490.0433    19.793552    19.872558    20.439472    8039.8353    5380.5568    6883.0042    7206.5688   -667.09721   -754.92726    107.29011   -3980.8042 
16196000    125.24923   -4977.6533   -4736.0996   -4977.6533            0    7863.4012    19.795865    19.960295    20.221618    7990.1946    7875.4501    7451.7042    8263.0494   -260.61969   -161.40808   -144.98584    -3819.787 
16197000    126.59767   -4989.4482    -4745.294   -4989.4482            0    5112.8577    19.762963     19.91662    20.536787    8083.5142    5290.3315    4927.0888    5121.1528    287.42177   -39.573928    566.24007   -4142.5404 
16198000    131.22169   -4990.8196   -4737.7476   -4990.8196            0    6780.4958    19.695128    19.812551    20.563574    8024.1277    6939.9067    6560.9196    6840.6609    121.18166    616.28643   -50.643081   -3944.2691 
16199000    133.44596   -4988.2521   -4730.8903   -4988.2521            0    6102.7741    19.703124    19.937833    20.474226    8043.0459    7133.6084    5510.4675    5664.2464    110.84584   -696.26467   -515.78727   -4015.0375 
16200000    123.34774   -4990.6011   -4752.7146   -4990.6011            0    6472.4613    19.716278    19.961791    20.512897    8073.3067    8666.2947    5171.6114    5579.4777    155.88818    969.76429    -272.5728   -3990.6412 
16201000    126.18415   -4992.3142   -4748.9575   -4992.3142            0    6497.6405    19.787412    19.887081    20.514598    8072.7787    7358.8747    5306.7173    6827.3296   -41.729255    345.00885    1872.2687   -3983.9695 
16202000     128.1764   -4991.9872   -4744.7883   -4991.9872            0    5527.8057    19.811774    19.811455     20.51532    8052.2644    4504.1681    5308.3967    6770.8522    304.50411    68.620092    445.51645   -4095.6359 
16203000    123.99167   -4994.6552   -4755.5268   -4994.6552            0    8098.1996    19.757695    19.733141    20.510421    7996.6312    8236.8614    9165.4992    6892.2383   -216.93436    1062.3004    1263.8793   -3811.0932 
16204000    116.21269    -4982.734   -4758.6081    -4982.734            0    5907.8394    19.990233     19.75564    20.447302    8075.0456    3271.5069    8040.6918    6411.3196    5.6738711    433.01102    457.78903   -4062.8639 
16205000    123.60994   -5001.6135   -4763.2214   -5001.6135            0    5870.9697    19.924006    19.808789    20.397396    8050.2492    4959.2846    5752.4363    6901.1881    78.059103    1060.7075    493.02147   -4073.9423 
16206000    125.30316   -5001.5516   -4759.8939   -5001.5516            0    7267.6273    19.837311    19.836056    20.475111    8056.8334    8323.4762    6807.0494    6672.3563    121.09052    1107.0586    23.303346    -3905.943 
16207000    122.68448   -4989.0486   -4752.4413   -4989.0486            0    5492.2008    19.849497    19.963723    20.418808    8091.3582     3998.974    5509.8876    6967.7409    146.38794    15.409816   -775.33994   -4104.3387 
16208000    128.76872   -4991.7213     -4743.38   -4991.7213            0    5121.3513    19.920493     19.80784     20.57105     8116.965    4565.2256     6096.637    4702.1913   -488.20426    1456.7029   -1022.6611   -4137.1267 
16209000     132.3996   -5005.1344   -4749.7906   -5005.1344            0    5259.4003    19.753549    19.912383     20.58811    8098.1317    5878.0624    4781.7725     5118.366   -458.33597   -110.14482    16.711196     -4128.64 
16210000    129.72333    -4978.869   -4728.6867    -4978.869            0    6096.7782    19.761801    19.876755    20.540565    8068.3435    6031.6826     6350.968     5907.684   -346.37167    627.42063   -644.93376   -4011.2879 
16211000    128.09041   -4991.5966   -4744.5635   -4991.5966            0    6277.4798    19.781501    19.754424    20.644011    8067.1045    6723.5274    6427.7375    5681.1745    238.44208    595.04281   -308.01557   -4006.0152 
16212000    128.76783   -4992.3214   -4743.9818   -4992.3214            0      6472.78    19.716265     19.83166    20.555352    8037.2712    7754.8147    5254.7552    6408.7699    -159.9945   -429.62632   -1211.0086   -3985.2726 
16213000    132.25637   -4987.2878   -4732.2203   -4987.2878            0    5856.9307    19.795101    19.879234    20.501517    8067.5815    5980.5637    5401.6328    6188.5957   -105.36547   -354.98207    1121.2272    -4043.109 
16214000    129.19825   -4990.7032   -4741.5335   -4990.7032            0    5615.3803    19.867472    19.842094    20.461652    8066.2336    5850.0818    6009.5443    4986.5148   -234.37597    809.35742    438.72404   -4080.9529 
16215000    125.08732   -5011.6455   -4770.4041   -5011.6455            0    5081.2404    20.017971    19.810171     20.42249    8098.7306    4891.4632    4393.2476    5959.0105   -12.371658    242.55006    443.71379   -4170.2503 
16216000    133.01883   -5010.9125   -4754.3745   -5010.9125            0    5431.8031    19.966825    19.755779    20.477339    8077.4948    3781.5964    6265.4125    6248.4004   -373.22316   -227.97264    650.97179   -4114.4973 
16217000    118.66566    -4988.641   -4759.7843    -4988.641            0     5778.241    19.891124    19.791113    20.393754    8028.3577    5332.3241    5322.5306    6679.8682    9.9259909    542.59878   -675.88012   -4083.2369 
16218000    131.19008   -4988.4077   -4735.3966   -4988.4077            0    6278.1985    19.842904     19.75946    20.525158    8047.6083    6894.9587    5780.0685    6159.5683    267.13359    833.95499    111.14351   -3998.5489 
16219000    126.32041   -4981.8092   -4738.1896   -4981.8092            0    5906.5967    19.746878    20.015367    20.379821     8054.941    6130.5376    5010.9584    6578.2941    186.74303   -448.11002    672.59643   -4044.3237 
16220000    123.13108   -4997.5131   -4760.0445   -4997.5131            0    5883.6837    19.847041    19.883513    20.468262    8077.3678    5913.4181    6143.8417    5593.7913   -126.01688    131.49796   -623.89806   -4066.9458 
16221000    121.93573   -4985.0515   -4749.8882   -4985.0515            0    5268.0973    19.774599     19.91757    20.488696    8069.7179    4975.6047    5218.5583    5610.1288    450.68224    827.81009    989.36228   -4129.8934 
16222000    127.86708   -4998.7721   -4752.1696   -4998.7721            0    6723.6567    19.978728    19.749632    20.396694    8047.9755    6179.4094    6991.7927     6999.768    -428.0919   -943.13205    736.09423   -3963.0042 
16223000    124.60497   -4996.2737   -4755.9626   -4996.2737            0    6295.0983    19.867008     19.85573    20.467957     8074.076    5685.6975    6453.7388    6745.8586    221.11509    845.96607   -226.45858   -4014.7014 
16224000    126.16341   -4986.8486   -4743.5319   -4986.8486            0    5844.3937    19.958116      19.7973    20.433524    8073.6287    5441.0486    6337.5555    5754.5771    283.59834    240.30295   -687.73482   -4055.3803 
16225000    131.31883   -5013.0351   -4759.7756   -5013.0351            0    4246.8708    19.952844    19.873985    20.448034    8108.5151    3888.5288    4655.2042    4196.8795    -330.0254    1049.5039    286.80593   -4257.5646 
16226000    125.67496   -4990.9592   -4748.5845   -4990.9592            0    4812.9897    19.795587       19.895     20.50347    8074.9472    5595.4342    4645.0875    4198.4474   -181.66412   -1050.9237    626.33123   -4181.7836 
16227000    130.87336   -4972.1533    -4719.753   -4972.1533            0     4989.038    19.812637    19.910443    20.609963    8130.1849    3892.5904    5856.7645    5217.7591     25.71692    194.35973   -759.59039   -4128.2008 
16228000    127.45511   -4978.4502   -4732.6423   -4978.4502            0    5954.9556    19.765522    19.993776    20.454103    8083.2039     6299.297    5334.7105    6230.8593    60.439021    828.57691   -1311.5983    -4030.641 
16229000    132.20464   -4995.5306   -4740.5628   -4995.5306            0    5674.0145    19.831112    19.901021    20.495348    8088.6812    6076.1309    5434.4268    5511.4858   -53.867475    577.19462   -738.80156    -4071.227 
16230000    134.98784   -4987.8981   -4727.5627   -4987.8981            0    5431.7005    19.730136    19.938943    20.580478    8096.3205    5084.6435    6039.9283    5170.5297    151.50395      117.727   -279.16352   -4086.2063 
16231000    127.13004   -4975.0161   -4729.8351   -4975.0161            0    6647.3147    19.907223    19.798666    20.405564    8042.5765    6501.9344     5515.849    7924.1608   -111.76907    654.02913   -10.092467   -3950.1534 
16232000    124.36548   -4975.7499   -4735.9006   -4975.7499            0    6295.3843    19.872763     19.67216    20.523617    8023.5062    6318.0918    6075.9112    6492.1499    94.822513    536.96262    418.63929   -3999.2487 
16233000    126.91614   -4995.1027   -4750.3342   -4995.1027            0    5259.5067    19.935858    19.776755    20.437327    8057.7552    4055.1886    5385.7258    6337.6056    407.46427   -120.48423    485.04776   -4132.2681 
16234000    127.99481   -4988.1383   -4741.2896   -4988.1383            0    5149.5558    19.989611    19.803785    20.478439     8106.799    4898.4694    4936.0181    5614.1798   -116.77145    631.61492    1545.8794   -4132.4609 
16235000     120.9509    -4988.989    -4755.725    -4988.989            0    5612.0655    19.786319    19.844975    20.564342    8074.7738    4776.7692    6832.1559    5227.2712    -322.9202    -64.63547    847.16093   -4094.8353 
16236000    123.27123   -4992.0957   -4754.3567   -4992.0957            0    5566.6106    19.759123    19.965994    20.461689    8072.3518    6955.3944    4976.1299    4768.3074   -408.76281    -1124.855    706.78671   -4099.0165 
16237000    126.20455   -4987.1937   -4743.7976   -4987.1937            0      5770.04    19.773302    19.848271    20.496188    8044.0539    5326.3576    6477.4881    5506.2744   -176.62891    -129.9657   -198.89153   -4066.8895 
16238000    123.41897   -4979.6464   -4741.6226   -4979.6464            0    4536.7398    19.915152    19.887196    20.474789    8109.1739    5260.2684    3539.5921    4810.3588    230.64177    738.03111   -819.60135   -4205.0897 
16239000    131.63091   -4998.6837   -4744.8224   -4998.6837            0    6055.2264    19.801038    19.833034    20.485417    8044.9234    6583.2485    5880.4015    5702.0292   -758.57695    119.73341   -1001.3907   -4034.3811 
16240000    124.89375     -4981.18   -4740.3119     -4981.18            0    7036.8018    19.838218    19.909047    20.420551    8065.3011    7523.6359    6664.7293    6922.0402   -267.34475   -571.42329   -374.87211   -3912.6141 
16241000    119.60604    -4985.935   -4755.2646    -4985.935            0    6688.9383    19.795544    19.734923    20.628242    8058.7022    8035.4764    5740.6662    6290.6722   -118.49537    567.07983  -0.29812577   -3969.1277 
16242000    129.26711   -4989.5362   -4740.2337   -4989.5362            0       6447.1    19.691312    19.792631    20.586308    8023.3667    5668.1334    6473.8327    7199.3338   -314.81734    1433.5215   -261.25742    -3985.842 
16243000    125.41417   -4979.2058    -4737.334   -4979.2058            0    5493.7832    19.892089     19.78643    20.502404    8069.6115    5337.8281    5140.8587    6002.6629    185.33964   -56.445236    1192.9329   -4090.7871 
16244000    130.20714   -4985.8387   -4734.7233   -4985.8387            0    5708.7901    19.818354    19.982624    20.359494    8062.8222    5953.3167    4692.3969    6480.6565    26.417234    623.34155    570.21441   -4063.4381 
16245000    131.27911   -4979.5826   -4726.3998   -4979.5826            0    5770.2135    19.894287    19.827962    20.505012    8088.4722    5024.7334    6101.0962    6184.8109    327.38386    1067.3255    274.83472   -4045.7335 
16246000    134.61934   -4992.0211   -4732.3964   -4992.0211            0    6697.5864    19.675579    19.973834    20.449386    8036.5423    7329.1209    5283.0412    7480.5972    128.35596    728.29469   -132.88688   -3947.4076 
16247000    124.21912   -4988.5163   -4748.9492   -4988.5163            0    5947.2875    19.902957    19.863237    20.411092    8069.2626     4524.515    7059.8057    6257.5417   -214.54695    496.65921   -91.851176    -4049.061 
16248000     129.7494   -4982.6917   -4732.4591   -4982.6917            0    6848.0908    19.924899    19.798491    20.406504    8050.0173    5491.2434    7258.1489    7794.8801   -65.261897    810.27302   -965.63196   -3928.4847 
16249000    125.78537   -5003.2325   -4760.6448   -5003.2325            0    5782.0074    19.881125    19.927463    20.430178    8094.0361    5918.5832    4986.2766    6441.1623   -934.24561    1261.8868   -1018.3505   -4078.1181 
16250000    133.99458   -4976.5235   -4718.1037   -4976.5235            0    7024.7633    19.680469     19.95398    20.407062    8013.9287    7596.0101    6577.3013    6900.9786   -77.458098    324.97077    757.70114    -3897.085 
Loop time of 367.156 on 64 procs for 250000 steps with 972 atoms

Performance: 117.661 ns/day, 0.204 hours/ns, 680.909 timesteps/s
99.1% CPU use with 64 MPI tasks x 1 OpenMP threads

MPI task timing breakdown:
Section |  min time  |  avg time  |  max time  |%varavg| %total
---------------------------------------------------------------
Pair    | 19.416     | 28.461     | 38.829     |  86.6 |  7.75
Bond    | 0.25879    | 0.27508    | 0.28366    |   0.9 |  0.07
Kspace  | 144.96     | 155.48     | 164.7      |  37.5 | 42.35
Neigh   | 0.95428    | 0.97568    | 0.98961    |   0.9 |  0.27
Comm    | 85.635     | 86.26      | 86.923     |   3.7 | 23.49
Output  | 0.56557    | 0.56727    | 0.56883    |   0.0 |  0.15
Modify  | 86.113     | 87.617     | 90.514     |  10.9 | 23.86
Other   |            | 7.52       |            |       |  2.05

Nlocal:        15.1875 ave          20 max          11 min
Histogram: 2 6 7 9 9 13 11 3 3 1
Nghost:        2316.03 ave        2345 max        2299 min
Histogram: 2 6 20 13 9 8 4 0 1 1
Neighs:        4899.03 ave        6834 max        3187 min
Histogram: 3 4 7 9 13 10 9 4 3 2

Total # of neighbors = 313538
Ave neighs/atom = 322.56996
Ave special neighs/atom = 2.0000000
Neighbor list builds = 2708
Dangerous builds = 0

unfix		3
unfix		2
unfix		1

write_data	data.final.${pid}
write_data	data.final.1
System init for write_data ...
PPPM initialization ...
  extracting TIP4P info from pair style
  using 12-bit tables for long-range coulomb (../kspace.cpp:340)
  G vector (1/distance) = 0.37225386
  grid = 24 24 24
  stencil order = 5
  estimated absolute RMS force accuracy = 0.0035003787
  estimated relative force accuracy = 1.0541286e-05
  using double precision FFTW3
  3d grid and FFT values/proc = 2197 216
Last active /omp style is kspace_style pppm/tip4p/omp
WARNING: Not all mixed pair coeffs generated from mixing. Use write_data with 'pair ij' option to store all pair coeffs. (../write_data.cpp:312)

write_restart   restart.lmp.${pid}
write_restart   restart.lmp.1
System init for write_restart ...
PPPM initialization ...
  extracting TIP4P info from pair style
  using 12-bit tables for long-range coulomb (../kspace.cpp:340)
  G vector (1/distance) = 0.37225386
  grid = 24 24 24
  stencil order = 5
  estimated absolute RMS force accuracy = 0.0035003787
  estimated relative force accuracy = 1.0541286e-05
  using double precision FFTW3
  3d grid and FFT values/proc = 2197 216
Last active /omp style is kspace_style pppm/tip4p/omp
Total wall time: 0:06:07
