LAMMPS (30 Jul 2021)
  using 1 OpenMP thread(s) per MPI task
package omp 0
using multi-threaded neighbor list subroutines
echo both

include		in.partitions
variable        pid world 0
include		in.temp
variable        temperature equal 248.48
variable	tempDamp equal 100.0
include		in.pressure
variable        pressure equal 5125.0
variable        pressureDamp equal 1000.0 # This is 1 ps
include		in.seed
variable        seed world 745823

units		real
atom_style	full
read_restart    restart.lmp.${pid}
read_restart    restart.lmp.0
Reading restart file ...
  restart file = 30 Jul 2021, LAMMPS = 30 Jul 2021
  restoring atom style full from restart
  triclinic box = (-3.2532624 -0.19327858 -0.092286238) to (14.863261 22.773278 19.322284) with tilt (0.097591076 -6.5812508 0.090730666)
  4 by 4 by 4 MPI processor grid
  restoring pair style lj/cut/tip4p/long/omp from restart
  restoring bond style harmonic/omp from restart
  restoring angle style harmonic/omp from restart
  1008 atoms
  672 bonds
  336 angles
Finding 1-2 1-3 1-4 neighbors ...
  special bond factors lj:    0        0        0       
  special bond factors coul:  0        0        0       
     2 = max # of 1-2 neighbors
     1 = max # of 1-3 neighbors
     1 = max # of 1-4 neighbors
     2 = max # of special neighbors
  special bonds CPU = 1.022 seconds
  read_restart CPU = 1.283 seconds

include 	in.setup
variable	out_freq equal 1000
variable	out_freq2 equal 10000
variable	out_freq3 equal 1000

timestep	2.0

neigh_modify    delay 7 every 1

include		in.tip4p
# This is TIP4P/Ice

# create groups ###
group ox type 2
336 atoms in group ox
group hy type 1
672 atoms in group hy

# set charges - beside manually ###
set group ox charge -1.1794
Setting atom values ...
  336 settings made for charge
set group hy charge 0.5897
Setting atom values ...
  672 settings made for charge

# ### TIP3P Potential Parameters ###
pair_style lj/cut/tip4p/long/omp 2 1 1 1 0.1577 8.5
pair_coeff 1 1*2 0.000 0.000
pair_coeff 2 2 0.21084 3.1668
bond_style  harmonic
bond_coeff  1 450 0.9572
angle_style harmonic
angle_coeff 1 55 104.52
kspace_style pppm/tip4p/omp 1.0e-5
pair_modify tail yes

thermo          ${out_freq}
thermo          1000
thermo_style    custom step temp pe etotal epair emol press lx ly lz vol pxx pyy pzz pxy pxz pyz enthalpy

restart 	${out_freq3} restart.lmp.${pid} restart2.lmp.${pid}
restart 	1000 restart.lmp.${pid} restart2.lmp.${pid}
restart 	1000 restart.lmp.0 restart2.lmp.${pid}
restart 	1000 restart.lmp.0 restart2.lmp.0


include         in.dump
dump            myDump all atom ${out_freq2} dump.water.${pid}
dump            myDump all atom 10000 dump.water.${pid}
dump            myDump all atom 10000 dump.water.0
dump            myDump2 all dcd ${out_freq2} dump.dcd
dump            myDump2 all dcd 10000 dump.dcd
dump_modify     myDump append yes
dump_modify     myDump2 append yes


variable natoms 	equal  "count(all)"                        # NUMBER ATOMS
variable H      	equal  "enthalpy/v_natoms"                 # ENTHALPY-per-atom
variable Vol      	equal  "vol/v_natoms"                 # volume-per-atom
fix AVG all 		ave/time ${out_freq} 1 ${out_freq} v_Vol v_H file vol_enthalpy.dat
fix AVG all 		ave/time 1000 1 ${out_freq} v_Vol v_H file vol_enthalpy.dat
fix AVG all 		ave/time 1000 1 1000 v_Vol v_H file vol_enthalpy.dat



fix 		1 all shake 1e-6 200 0 b 1 a 1
       0 = # of size 2 clusters
       0 = # of size 3 clusters
       0 = # of size 4 clusters
     336 = # of frozen angles
  find clusters CPU = 0.456 seconds
fix             2 all nph tri ${pressure} ${pressure} ${pressureDamp}
fix             2 all nph tri 5125 ${pressure} ${pressureDamp}
fix             2 all nph tri 5125 5125 ${pressureDamp}
fix             2 all nph tri 5125 5125 1000
fix             3 all temp/csvr ${temperature} ${temperature} ${tempDamp} ${seed}
fix             3 all temp/csvr 248.48 ${temperature} ${tempDamp} ${seed}
fix             3 all temp/csvr 248.48 248.48 ${tempDamp} ${seed}
fix             3 all temp/csvr 248.48 248.48 100 ${seed}
fix             3 all temp/csvr 248.48 248.48 100 745823


run             250000
PPPM initialization ...
  extracting TIP4P info from pair style
  using 12-bit tables for long-range coulomb (../kspace.cpp:340)
  G vector (1/distance) = 0.37808259
  grid = 24 27 36
  stencil order = 5
  estimated absolute RMS force accuracy = 0.0025891976
  estimated relative force accuracy = 7.7972918e-06
  using double precision FFTW3
  3d grid and FFT values/proc = 4050 480
Last active /omp style is kspace_style pppm/tip4p/omp
Neighbor list info ...
  update every 1 steps, delay 7 steps, check yes
  max neighbors/atom: 2000, page size: 100000
  master list distance cutoff = 10.8154
  ghost atom cutoff = 10.8154
  binsize = 5.4077, bins = 5 5 4
  1 neighbor lists, perpetual/occasional/extra = 1 0 0
  (1) pair lj/cut/tip4p/long/omp, perpetual
      attributes: half, newton on, omp
      pair build: half/bin/newton/tri/omp
      stencil: half/bin/3d/tri
      bin: standard
Per MPI rank memory allocation (min/avg/max) = 9.327 | 9.338 | 9.354 Mbytes
Step Temp PotEng TotEng E_pair E_mol Press Lx Ly Lz Volume Pxx Pyy Pzz Pxy Pxz Pyz Enthalpy 
 7750000    256.00353   -4837.8339   -4325.7952   -4837.8339            0    4660.7511    18.116524    22.966556     19.41457    8077.9011    5089.3237    4428.9347    4463.9947    333.09137   -734.89437   -1328.9425   -3776.7219 
 7751000    242.19955   -4840.4149   -4355.9859   -4840.4149            0     5569.377    18.073083    22.970532    19.415844    8060.4557    6898.8687    4195.8422      5613.42   -24.046571   -259.30906    400.54845   -3701.2863 
 7752000    247.60306   -4840.3447    -4345.108   -4840.3447            0    5724.6666    18.112115    22.810441     19.47364    8045.4437    7126.6972     5414.016    4633.2866   -435.21155   -188.78082   -767.46513   -3673.4069 
 7753000    249.37647   -4845.0682   -4346.2845   -4845.0682            0    4647.1366    18.157259    22.836873    19.406113     8046.842    5645.0897    4602.9255    3693.3945   -1186.2557   -976.53423     366.4052   -3800.9201 
 7754000    241.28103   -4867.4114   -4384.8195   -4867.4114            0    3961.2476    18.259532    22.587929    19.545824    8061.5778    3526.2732    4869.7154    3487.7543    985.10082    333.26639   -1172.7038   -3919.0962 
 7755000    242.53286   -4828.1427    -4343.047   -4828.1427            0    6702.9053    18.334628    22.402887    19.584835    8044.4436    5423.7623    8146.3358    6538.6177   -697.64463   -602.65662    169.17329   -3556.6625 
 7756000     250.0225   -4832.4751   -4332.3992   -4832.4751            0    5433.1908    18.111003    22.781802    19.486746    8040.2563    5467.7129    5857.5264     4974.333    978.75914    273.27611    252.94873   -3695.3093 
 7757000    246.93112    -4846.089   -4352.1963    -4846.089            0    5490.3517     18.12097    22.983996    19.317845     8045.734    4422.1275    5615.2937    6433.6341   -367.23985   -46.475311   -1201.8054   -3707.9651 
 7758000    256.00038   -4853.4338   -4341.4014   -4853.4338            0     5473.028    17.935693     23.15536    19.352249    8037.1328      6697.17    4929.9401     4791.974    1280.1151    1166.2175    295.44547   -3699.8895 
 7759000    254.56849   -4826.5347   -4317.3663   -4826.5347            0    2965.0502     17.96543    23.435125    19.302782    8126.8977    1130.6117    3474.2991    4290.2397   -619.57697    242.39457   -548.93476   -3965.9412 
 7760000    252.42419   -4836.1593   -4331.2797   -4836.1593            0     5152.158    18.066953    23.101174     19.31246    8060.3993    4482.6259    4424.4831    6549.3649    501.22181    179.02957    271.09801   -3725.6299 
 7761000    244.83341   -4850.0194   -4360.3223   -4850.0194            0    5206.0515    18.145307    22.975307    19.336045     8061.081    6341.0262     4439.176    4837.9522   -896.00502   -254.21811    1232.0849   -3748.2854 
 7762000      252.914   -4809.4401   -4303.5809   -4809.4401            0    5118.7582    18.236226    22.844235    19.397134    8080.7031    3820.8132    5821.1663    5714.2951   -2036.9648    304.13174    1522.9407   -3700.3415 
 7763000    247.74399   -4812.3685   -4316.8499   -4812.3685            0    4225.8309    18.311452     22.72763    19.462083    8099.6502    2824.1024    5177.2542     4676.136    32.194229    702.64972   -133.00956   -3817.6733 
 7764000    252.13611   -4858.8575   -4354.5541   -4858.8575            0    6740.1282    18.225213    22.636198    19.468287    8031.6327    4839.5062    7094.2799    8286.5984    384.25267   -160.91271    416.39977   -3565.0618 
 7765000    248.00866   -4842.6463   -4346.5983   -4842.6463            0    5601.4657    18.218166    22.640958    19.539315    8059.5126    5732.6542    5832.1963    5239.5466    1083.9743   -811.95039   -465.41608   -3688.2036 
 7766000    236.13447   -4811.1523   -4338.8542   -4811.1523            0    6309.6868    18.071949     22.85915    19.440534    8031.0674    6488.1824    6219.9219    6220.9561    70.842914   -978.86761   -201.68161   -3599.8329 
 7767000    252.52804   -4851.8074   -4346.7201   -4851.8074            0    4990.5344    18.015406    23.043071    19.387681    8048.4134    5762.5939    5477.7929    3731.2164   -284.73942    540.22394   -976.76834   -3760.9419 
 7768000    237.38942   -4842.4124   -4367.6043   -4842.4124            0    2103.3089    18.024351    23.183235    19.516827     8155.355     3418.766    1568.0575    1323.1031   -305.69749    -214.2808    549.81701    -4117.442 
 7769000    242.73335   -4830.5787    -4345.082   -4830.5787            0     5515.742    17.944129    23.103087    19.382134      8035.15    4901.0878    7198.8154    4447.3228   -160.69068    304.97525   -683.54905   -3698.7229 
 7770000    249.99505   -4856.2391   -4356.2182   -4856.2391            0    4197.9408    18.178317    23.080027    19.283034    8090.3133    4619.2972    3858.8204     4115.705    1743.5407   -386.32339   -840.08797   -3860.9076 
 7771000    257.99543   -4891.2005   -4375.1777   -4891.2005            0    3990.6982    17.989326    23.005381    19.489947    8065.9402    4003.4387    3928.1547    4040.5011    260.19826   -670.93469   -1162.0504   -3905.7381 
 7772000    235.74294   -4811.9683   -4340.4533   -4811.9683            0     6471.486    18.217292    22.899367    19.259986    8034.5812    5563.6095    5464.2757    8386.5728   -119.69885   -673.50916   -84.352852   -3582.1496 
 7773000     246.1618   -4871.3906   -4379.0366   -4871.3906            0     4442.749    18.127267    22.767007    19.579027    8080.3349    5784.9307    3586.5266    3956.7896   -1109.6906   -680.83906    102.67375    -3855.488 
 7774000    249.45461   -4800.4432   -4301.5032   -4800.4432            0    5883.8945    18.278899     22.61647    19.474812    8050.9683    3135.3897    7767.1893    6749.1044   -32.152212    599.89476    2068.1239    -3610.645 
 7775000    244.74014   -4809.5024   -4319.9919   -4809.5024            0    5343.6873    18.309996    22.753771      19.3946    8080.2067    3764.4955    6395.1574    5871.4089   -38.213581   -228.91108   -295.59548   -3690.2836 
 7776000    249.91451   -4823.8061   -4323.9462   -4823.8061            0    4935.9989    18.195931    22.647533    19.581037    8069.2072    4420.6381    5881.5822    4505.7765    413.05806   -556.73521   -825.18771   -3743.0724 
 7777000    256.54922   -4828.5957   -4315.4655   -4828.5957            0    2332.2066    18.246106    23.067846    19.393021    8162.4907    2187.8328    2185.3543    2623.4326   -476.90104   -967.77522   -1354.4692    -4037.836 
 7778000    245.44558   -4855.2214   -4364.2999   -4855.2214            0    4004.2905    17.875527    23.204657    19.484495    8082.0803    5278.6068    3554.2347      3180.03   -390.13063    1067.5587   -56.633661   -3892.3188 
 7779000    249.23813   -4835.5037   -4336.9966   -4835.5037            0    6441.1253    18.049547    23.294026    19.129613    8042.9811    7249.8267    5919.6668    6153.8824   -444.02545   -165.05528    526.32301   -3581.4615 
 7780000    264.79849   -4846.7308   -4317.1011   -4846.7308            0    3675.2525    17.938699    23.239559    19.426819    8098.7972    4945.0941    2657.7507    3422.9128     62.36263   -1609.5219   -1181.1954   -3883.0073 
 7781000    249.83825   -4821.6608   -4321.9534   -4821.6608            0    3934.5136     18.15203     23.18279    19.329711    8134.2265     4578.688    2909.6652    4315.1876   -324.53576   -117.74311   -272.77716   -3855.2046 
 7782000      252.387   -4843.8006   -4338.9954   -4843.8006            0     4009.267    18.093089    22.706206    19.669102    8080.5667    5230.8471    3575.2253    3221.7286    439.56715   -955.50541     486.0586   -3866.5163 
 7783000    257.63016   -4861.4353   -4346.1431   -4861.4353            0    5829.0067     18.14136    22.814743    19.431503    8042.5139     5682.971    5796.8779    6007.1712   -1109.4906    467.08275   -2297.2521   -3662.4483 
 7784000    238.76467   -4858.2647   -4380.7059   -4858.2647            0    4336.9815    18.133492    22.897714    19.433594      8069.13    3360.7297    5726.8151    3923.3996     287.6038     538.6547    1418.7025     -3870.33 
 7785000    253.06931   -4887.6656   -4381.4958   -4887.6656            0    5524.6367     17.99194    22.930182    19.381307    7995.9224    5706.4634    5757.3149    5110.1318    1012.8186   -948.24597   -1030.4363    -3737.255 
 7786000    248.42984   -4871.4727   -4374.5823   -4871.4727            0    4450.3545    18.067714    23.168888    19.263902    8064.0398    3302.2321    4718.4721    5330.3594    96.880524    131.72548   -1316.3707   -3851.1951 
 7787000    250.04258   -4845.6641   -4345.5481   -4845.6641            0    7353.8532    17.996816    23.036172    19.252981    7981.8577    7761.1819    7048.2298     7252.148    1745.7891   -101.63003   -769.17425   -3489.5066 
 7788000    232.02671   -4810.2624   -4346.1803   -4810.2624            0    6210.0338    17.998679     23.08521    19.316439    8026.0439    6316.1918    5992.0672    6321.8425    2667.7191   -280.05115   -1163.8026   -3619.2858 
 7789000    249.17888   -4850.9645    -4352.576   -4850.9645            0     4490.577     18.08351    23.084821     19.30766    8060.0715    4268.9243    4605.5765    4597.2301   -374.92573    1281.8888   -30.197032   -3824.7182 
 7790000    243.50927   -4824.9902   -4337.9416   -4824.9902            0    6485.0984    18.140255    22.867556      19.4203     8055.993    5184.9341    7715.6465    6554.7145    1470.4459    1156.4651    1463.8744   -3576.0178 
 7791000     245.1835   -4828.8146   -4338.4174   -4828.8146            0    4442.6153    18.095515    22.820635    19.515466    8058.9338     5267.379    4161.5819    3898.8851   -729.68608    238.02746   -1422.3526   -3816.2711 
 7792000    247.56805   -4840.4209   -4345.2542   -4840.4209            0    5864.7499    18.145051    22.681257    19.487196     8020.006    5598.4831    7167.9004    4827.8661    867.25004   -645.61713    1567.2815   -3659.2922 
 7793000    261.11285   -4850.3808   -4328.1229   -4850.3808            0    4646.8064    18.082997    22.932352    19.464161    8071.5077    4179.8518    4930.5844    4829.9831    121.14006    21.085661   -551.65816   -3781.1256 
 7794000    251.59778    -4890.315   -4387.0883    -4890.315            0    4470.6596    18.129178    22.888316     19.40506    8052.0589    3644.8644    4675.6443    5091.4701    125.41576    302.43539     694.4005   -3862.0942 
 7795000    242.81514   -4861.2833    -4375.623   -4861.2833            0    5270.9913     18.12102    23.063595    19.232342    8037.8855    3374.6022    5559.6204    6878.7514   -738.85499    579.91726   -805.71231   -3757.7347 
 7796000    246.02335   -4859.0282   -4366.9511   -4859.0282            0    4469.4276    18.115893    22.802616    19.507175    8058.2139    4616.3398    4796.2907    3995.6522    1798.4362   -615.88491    126.61512   -3841.7005 
 7797000    252.35175   -4848.2105   -4343.4758   -4848.2105            0    4316.0763    18.141226    22.918263    19.435653    8080.6718    3167.6827    5887.5063    3893.0399    379.17053   -228.84084   -247.16148   -3834.8335 
 7798000    241.78992   -4854.3759   -4370.7662   -4854.3759            0    6684.1544    18.031385    22.729316    19.565133    8018.5945    8055.8505    6499.8678     5496.745    2582.2759   -933.39843   -564.28592   -3589.1013 
 7799000    265.91677   -4860.6322   -4328.7658   -4860.6322            0    5912.8841    18.040995    23.049793     19.29972    8025.6188    7171.0957    4613.5722    5953.9844   -321.49654   -378.52735   -372.30634   -3636.6898 
 7800000    236.91383   -4842.0363   -4368.1793   -4842.0363            0    4513.1446    17.880709    23.178835    19.390232    8036.3589    5527.6962    4143.1437    3868.5939    550.26123   -540.94851   -185.33353   -3839.2295 
 7801000    260.05336   -4811.6486   -4291.5097   -4811.6486            0    3982.2408    18.145004    23.231105    19.261298     8119.186    4246.8484    2814.6375    4885.2365   -196.99496   -78.087956   -216.11146   -3819.9726 
 7802000     242.6789   -4853.5554   -4368.1676   -4853.5554            0    5848.7846    18.152161    22.570432    19.522715    7998.4977    7028.0685    6569.0877    3949.1977   -428.10357    871.74365    106.25257   -3685.9076 
 7803000     244.1452   -4871.3396    -4383.019   -4871.3396            0    5567.8298    18.164853       22.639    19.496985    8017.8252    4528.6718    6545.3668    5629.4508    55.750634   -260.16454   -1833.5327   -3731.9629 
 7804000    258.16694   -4827.8071   -4311.4414   -4827.8071            0    4102.4599    18.260329    22.695899    19.541996    8098.8787    3713.5526    4681.0952    3912.7319    715.78318   -498.79978    2106.0357   -3826.8841 
 7805000    258.92232   -4843.4878   -4325.6112   -4843.4878            0    4961.0637    18.360794    22.611075    19.343648    8030.6564    3581.2077    6422.7254    4879.2579   -466.36649   -387.45356     825.0614   -3744.5769 
 7806000    250.30521   -4807.2185   -4306.5771   -4807.2185            0    4632.6353    18.157442    22.708991    19.670667    8110.9472    5761.2393    4797.0837    3339.5829    158.58606   -39.704454    1472.4201   -3758.5834 
 7807000    246.88347   -4874.9979   -4381.2005   -4874.9979            0    4389.2501    18.265335    22.745567    19.419872     8068.091    3742.8084    3826.3389    5598.6028    968.82095   -930.51934    2698.6267   -3864.7401 
 7808000     252.7087   -4852.2792   -4346.8306   -4852.2792            0    6899.2141     18.10609    22.823676    19.417602    8024.2763    5984.2317    6875.7212    7837.6896    1008.1086    1065.0454   -481.15527   -3539.4443 
 7809000    242.75659   -4837.6446   -4352.1014   -4837.6446            0    3817.3008    18.076385    22.998797    19.461155    8090.6857    3071.9676    4052.4919     4327.443    1713.8726    12.508259   -229.69033   -3901.6815 
 7810000     258.6642   -4859.1646   -4341.8043   -4859.1646            0    7646.3159    18.064102    23.223386      19.0373    7986.3302    5525.9234     7036.903    10376.121   -1039.0773    330.48708   -562.47098   -3451.2192 
 7811000    252.58425   -4834.2603   -4329.0606   -4834.2603            0    3017.2274    17.951721    23.121086     19.53908    8109.9547     3857.325    2354.6405    2839.7167    1308.8342   -272.56927    238.29217   -3972.1969 
 7812000     262.0811   -4825.4317   -4301.2371   -4825.4317            0    6021.2274    18.165708     23.10919     19.22835    8071.9612      4574.01    5846.0336    7643.6386    1702.0515   -38.267237    1574.7774   -3592.4106 
 7813000    263.28455   -4847.0629   -4320.4613   -4847.0629            0    5089.7091    18.081835    22.938395    19.491916    8084.6287    5255.0932    5562.1983    4451.8358    -1556.887    458.15994   -3331.5363    -3720.354 
 7814000    249.36356   -4859.9042   -4361.1463   -4859.9042            0    5004.0959    18.174203    22.820063     19.42315    8055.4881    4617.2729    5319.8984    5075.1164    373.27437   -647.09912    88.076348   -3773.2599 
 7815000    249.75156   -4871.2102   -4371.6762   -4871.2102            0    5853.4468    17.986689    22.761163    19.563707    8009.3417    4877.0056     6979.938    5703.3968    172.39862    527.49548    -1036.114   -3687.9466 
 7816000    260.59236   -4828.8205   -4307.6036   -4828.8205            0    5733.4107    18.075971    22.906793    19.480459    8066.1283    6252.4226    5751.8321    5195.9774    1193.9558    85.816765    1434.6499   -3633.1469 
 7817000    241.99187   -4849.9948   -4365.9811   -4849.9948            0    4791.9648    18.134415    22.935078    19.425778    8079.4574    5327.3898    4924.9248    4123.5799  -0.74656383    845.26511    995.66638    -3801.341 
 7818000    253.79106   -4853.6092   -4345.9958   -4853.6092            0    5999.9008    18.144828    22.793417    19.377093    8014.0289    4709.5424    6682.5257    6607.6341    1746.0526    470.84341   -160.13104    -3644.749 
 7819000    247.20556   -4883.3575   -4388.9159   -4883.3575            0    5191.7025    18.142817     22.68594     19.48529    8019.8892    6196.8731    5230.6375    4147.5969   -398.19681    339.00637    1890.1905   -3781.6847 
 7820000    252.02932   -4844.4629   -4340.3732   -4844.4629            0    4818.7124    18.142221    22.890591    19.426571    8067.5857    5337.8633     5194.792     3923.482   -1045.0332   -126.57854   -608.85947   -3773.4157 
 7821000    248.73765   -4841.5857   -4344.0796   -4841.5857            0    5424.0934    18.076973    23.207013    19.181346    8046.8154    4596.3867    5081.8376    6594.0558   -116.58062    28.252972    240.55379   -3707.5376 
 7822000     252.9218   -4795.7279    -4289.853   -4795.7279            0    4561.8468     17.86118    23.312678    19.443946    8096.3024    4795.2779    3434.0103    5456.2521   -1265.6538    401.48913    1433.9364   -3751.2072 
 7823000    238.60449   -4861.9202   -4384.6818   -4861.9202            0    5690.1898    18.080992    23.083568    19.317118    8062.4592    3063.2665    6520.1738    7487.1292    222.52238    837.59627     1767.296   -3715.6139 
 7824000    248.51524   -4880.6176   -4383.5564   -4880.6176            0    4520.3925     17.95061    23.185246    19.322975    8042.0157    4444.4923    3944.6122     5172.073   -224.17983    617.63446    1028.5381   -3853.3842 
 7825000    237.36007   -4829.6355    -4354.886   -4829.6355            0    5577.0684    17.780147    23.109353    19.554664    8034.7712     7928.269    4867.5873    3935.3489    1853.5928   -804.49318    561.84689   -3701.3713 
 7826000    267.63405   -4878.6558   -4343.3546   -4878.6558            0     2872.999     18.27176    22.946635    19.322749    8101.5538    2332.4636    3136.4527    3150.0807   -1814.7446   -182.45269   -253.39281   -4003.9016 
 7827000    238.54256   -4875.8416    -4398.727   -4875.8416            0    4361.7739    17.956036    23.006527    19.502773    8056.7131    4702.7587     3762.515    4620.0482    882.41765   -54.731693    171.05966   -3886.2234 
 7828000    255.14996   -4810.8375    -4300.506   -4810.8375            0    5903.8977    18.036777    22.928376    19.385343    8016.8863    5668.0269    6558.6507    5485.0153    650.96237   -535.72553    1338.9987   -3610.2337 
 7829000    258.12741   -4888.8931   -4372.6064   -4888.8931            0    4592.2631    18.137588    22.832203    19.458406    8058.1365    5201.6002    4655.6053    3919.5839    454.51641   -311.86157   -185.74118   -3832.9252 
 7830000    256.22448   -4835.1625   -4322.6819   -4835.1625            0    4597.9255    18.213062    22.521836    19.596921    8038.4922    3563.7568    6641.0414    3588.9782    266.04893    850.21792   -1674.0641   -3783.6526 
 7831000    252.72307   -4851.9343    -4346.457   -4851.9343            0    3762.9837    18.241271    22.827504    19.435581    8093.0282     4634.566    4142.2817    2512.1035    1337.2517   -115.54013   -447.95096   -3902.3176 
 7832000    242.82166   -4863.8469   -4378.1736   -4863.8469            0    4867.0602    17.995039    22.867474    19.571211    8053.5746    3974.1201    5349.6681    5277.3924   -1000.6685    143.41637    669.40372   -3806.5222 
 7833000     258.7165   -4853.0814   -4335.6164   -4853.0814            0    5837.5338    18.194105    22.913181    19.258401    8028.5352    4294.6607    6015.6513    7202.2894    343.78782    759.86104   -598.97862   -3652.1116 
 7834000     257.8362   -4827.0298   -4311.3255   -4827.0298            0    3877.0637    17.769883     23.14451    19.639661    8077.3065     6340.009    3426.5272    1864.6548    233.90167   -84.196496   -1123.4664   -3854.6104 
 7835000    232.01975   -4824.8268   -4360.7586   -4824.8268            0    6293.2425    18.098001    22.969594    19.246482    8000.8341    5542.5969    6238.8906    7098.2398    350.68077   -819.56101    1594.4579   -3626.4382 
 7836000    239.78928   -4843.0648   -4363.4566   -4843.0648            0    4561.6009    18.141562    22.960484    19.423629    8090.7002    4479.2426    4617.4788    4588.0813    146.43193    55.960575   -807.16811   -3825.2125 
 7837000    241.02054   -4847.9136   -4365.8427   -4847.9136            0    5499.3757    18.046212    22.930083    19.468725    8056.1802    5820.7369    5275.7053    5401.6849   -569.94902   -360.23624   -388.91905   -3719.7149 
 7838000    251.05429   -4844.6363   -4342.4967   -4844.6363            0    5803.2413    18.144222    22.737129    19.441027    8020.3473     6115.594    5706.8748    5587.2552    728.52258   -515.17056    1525.7162      -3663.7 
 7839000    240.88605   -4883.7718     -4401.97   -4883.7718            0    3237.8959    18.124505     22.94891    19.534475    8125.1231    4906.5923    2115.3791    2691.7163    760.73764   -545.72858   -1100.2567   -4018.2904 
 7840000     252.9064   -4873.5314   -4367.6874   -4873.5314            0    4910.5665    18.095915    22.759939     19.47867    8022.5227     5203.834    6118.8131    3409.0524    762.25862    143.60597    596.19794   -3793.1498 
 7841000    249.65565   -4861.2727   -4361.9305   -4861.2727            0    5106.3467    18.299081    22.741145    19.373344    8062.0635    4929.9367    5367.7845    5021.3188   -25.201161    119.98293    72.422606    -3761.542 
 7842000    249.41782   -4852.4187   -4353.5522   -4852.4187            0    6052.0967     18.05556    22.874935    19.425694    8023.1956    7303.2184    6006.7676    4846.3041    607.96809    398.48229     92.09158   -3645.3959 
 7843000    255.68509   -4839.4546   -4328.0528   -4839.4546            0    3697.3372    18.119359    22.908898     19.43587    8067.7235    4896.0114    2454.6316    3741.3685   -454.27571    -293.6274    1287.4786   -3893.0261 
 7844000    245.73842     -4849.75   -4358.2428     -4849.75            0    5662.3292    18.156684     22.92644    19.342091     8051.496    3592.7106    6581.0193    6813.2579   -2403.7291   -132.83472    876.25921   -3693.3561 
 7845000    238.70123   -4860.8725   -4383.4406   -4860.8725            0    6058.9346    18.082127    22.702532    19.548438     8024.831    7975.7193    5424.8389    4776.2457   -2839.3595    -712.9899   -325.46536   -3674.3397 
 7846000    258.03569   -4852.7908   -4336.6875   -4852.7908            0    4952.7523    18.121059    22.852266      19.4316    8046.7664    4576.3901    5644.7016    4637.1653    -1619.849    597.30571    957.44722    -3755.463 
 7847000    243.24218   -4834.5732   -4348.0588   -4834.5732            0    6237.0976    18.083823    22.722142    19.489828    8008.4324    7204.4297    5123.7023    6383.1609   -963.11666   -289.35888   -367.25813   -3619.5984 
 7848000    244.03787     -4848.74   -4360.6341     -4848.74            0    4482.2532    18.258856    22.788848    19.430385    8084.9503    2475.6174    5627.0506    5344.0917   -44.373177    839.52246   -44.277958   -3832.1285 
 7849000    234.44466   -4824.0134   -4355.0951   -4824.0134            0    7602.6252    18.111533    22.628965    19.511472     7996.684    7584.9813    8281.9835    6940.9109    20.900601   -377.60144   -169.23494   -3468.4508 
 7850000    243.94415    -4840.586   -4352.6675    -4840.586            0    4254.0998     18.22917    22.657607    19.617706    8102.6883    3281.4072     4775.934     4704.958   -923.26718   -1256.3519   -301.33881   -3849.9631 
 7851000    247.92047   -4889.7979   -4393.9263   -4889.7979            0    4498.9009    18.208092    22.779118    19.481473    8080.2192    5529.8391    5173.7981    2793.0655    1159.9413   -488.42234    2216.1353   -3863.7681 
 7852000    248.42779   -4848.5181   -4351.6319   -4848.5181            0     3449.733    18.294033    22.770579    19.450301    8102.3287    2724.3546    3642.4063    3982.4381   -347.60775    545.89987   -958.29654   -3943.9971 
 7853000    245.99313   -4829.3849   -4337.3682   -4829.3849            0    5445.3614    18.190543    22.686127    19.539737    8063.5211    6771.9938    5537.7379    4026.3524    1480.3083   -295.82174    549.50305   -3697.0036 
 7854000    255.35123   -4836.6959   -4325.9619   -4836.6959            0    5717.8043    18.229533    22.820516    19.334661    8043.3612    6910.7229    4633.6999    5608.9901    2.6281474   -685.19548   -234.12362   -3655.2396 
 7855000    261.03888   -4825.8454   -4303.7354   -4825.8454            0    4558.1608    18.050194    22.940956    19.535949    8089.6161    3976.5752    5299.2895    4398.6178   -379.62759   -680.90866   -267.58308   -3765.9693 
 7856000    242.54642   -4861.0182   -4375.8953   -4861.0182            0    4771.1713     18.17773    22.855875    19.392472    8056.9498     5671.627    4605.9535    4035.9335    1436.3772   -1404.5319    1199.0428   -3815.2715 
 7857000    248.96047   -4838.6242   -4340.6725   -4838.6242            0    5457.1603    18.107055    22.831695    19.481395    8053.8964    6535.7452     6504.734    3331.0018   -178.30069   -1019.2065   -2051.0589   -3699.6863 
 7858000    260.72803    -4851.444   -4329.9557    -4851.444            0     4615.641    18.282069     22.79105    19.395874    8081.6313     3521.315    4259.9695    6065.6385   -73.652679   -1210.4509    858.90731   -3785.9456 
 7859000    244.50006   -4853.2635   -4364.2332   -4853.2635            0    6825.1482    18.148687     22.69931    19.477712    8024.0907    6661.8729    7190.9211    6622.6507   -392.55671     1338.914   -1413.5689    -3565.533 
 7860000    256.07034   -4833.2688   -4321.0965   -4833.2688            0    4738.5881    18.183097    23.017592    19.270256    8065.2012    6816.9181    3054.1959    4344.6502    475.89011    1233.7058    810.82732   -3763.7311 
 7861000    260.66509   -4838.6636   -4317.3012   -4838.6636            0    5607.2826     18.14595    22.986272    19.350495    8071.2415    5144.6445    5140.6786    6536.5248    -271.5836    430.24822   -2174.6072   -3657.2636 
 7862000    252.73836   -4851.5387   -4346.0307   -4851.5387            0    4903.1538    18.082641    23.006821    19.401448    8071.4697    3887.4416     5967.342    4854.6778    205.34306    290.62753     545.5068   -3768.8604 
 7863000    255.53831   -4875.0246   -4363.9164   -4875.0246            0    5366.5798    18.025896    23.204462    19.198744     8030.474    6955.6837    3489.6547     5654.401    1427.3416    254.22852     461.0843   -3735.4029 
 7864000    257.96431    -4851.247   -4335.2865    -4851.247            0    5657.1262    17.939246    22.989255    19.520494    8050.4448    5617.2456     5534.309    5819.8239   -31.574588   -1476.4934   -26.964409   -3671.0976 
 7865000     246.3446   -4845.5975   -4352.8779   -4845.5975            0    5398.5854    18.210038      22.9744    19.274514    8063.7762    5175.3715    4771.1487    6249.2359    1200.6317   -256.47974   -82.485018    -3717.994 
 7866000    238.22526   -4854.5473   -4378.0674   -4854.5473            0    3863.7918    18.132391    22.725665    19.690193    8113.7503    4714.7028    4144.9601    2731.7125   -981.58891     782.8439   -1464.4408   -3920.8621 
 7867000    240.79627   -4870.3707   -4388.7484   -4870.3707            0    4315.3644    18.368429    22.527359    19.512613     8074.167    2659.1863    6710.0836    3576.8233   -57.843538     811.9903   -680.39505   -3880.5994 
 7868000    240.78819   -4853.7261     -4372.12   -4853.7261            0    6165.9226    18.143686    22.673759    19.498523    8021.4111    5265.0743    7640.9128    5591.7806     436.7166     857.0995   -41.146638   -3650.8054 
 7869000    239.21971    -4853.794    -4375.325    -4853.794            0     5164.581    18.132136    22.927697    19.394936    8063.0203    5848.1502     5359.398    4286.1949     1488.691    1056.8814    461.23693   -3768.0174 
 7870000    237.38325   -4827.9155   -4353.1197   -4827.9155            0    6355.7787    17.921039    23.145765    19.316506    8012.4122    8828.2334    4756.2423    5482.8603    60.553021    -486.4224   -118.89527   -3610.4291 
 7871000    250.34499   -4862.4363   -4361.7154   -4862.4363            0    6314.4524    17.951908    23.116905    19.263642    7994.2681    8233.2994    6095.8283    4614.2293    787.72111   -235.72204   -693.27738   -3625.5247 
 7872000    255.28123   -4839.0661   -4328.4721   -4839.0661            0    4424.2687    17.969957    23.297781    19.311329    8084.8835    5272.7708     4045.643    3954.3924    59.914959   -835.38447    124.37035   -3806.8077 
 7873000    243.52653   -4843.7895   -4356.7063   -4843.7895            0    5232.9206    17.957554    23.002614    19.395648    8011.7735    4930.1421    5277.7325    5490.8873    749.79561   -57.910942    635.24227   -3745.2736 
 7874000    252.22744   -4839.4961     -4335.01   -4839.4961            0    5098.4909    18.091402    23.043881    19.318708    8053.8942    4944.3004    5145.2364     5205.936    303.64507    1318.1106    -516.6539   -3736.1526 
 7875000    244.91469   -4812.9001   -4323.0405   -4812.9001            0    5454.9268     17.90903      23.1804    19.443685    8071.8222    7261.5198    4076.4233    5026.8372    2035.7025    209.35459    1567.3494   -3680.8906 
 7876000    244.22221   -4857.7369   -4369.2623   -4857.7369            0    4714.7095    18.124486    23.228995    19.164516    8068.5212    3974.2469    4115.1509    6054.7306   -126.39542   -68.133024    522.61329   -3814.4773 
 7877000     236.2417    -4831.816   -4359.3034    -4831.816            0    5948.8585    17.926444    22.886975    19.488909    7995.9499    7329.9272    6671.0554    3845.5929    1266.1615      340.456     553.8663   -3665.5908 
 7878000    242.30185   -4853.3349   -4368.7012   -4853.3349            0    4750.0611    18.356143    22.916309    19.219711    8084.8683    3781.3912    4480.5013    5988.2909   -906.20481    1254.9662   -876.77167   -3808.6239 
 7879000    259.67506   -4821.4557   -4302.0735   -4821.4557            0    4683.5966    18.044543    22.880481    19.641592     8109.381    5035.1746    4374.9723    4640.6429    310.78514    501.82669    91.350807   -3748.1586 
 7880000    245.02173   -4880.3023   -4390.2286   -4880.3023            0    3644.3513    18.348434    22.955789    19.217861    8094.6168    2772.7192    3392.7406    4767.5941   -592.08816   -1382.1734    2675.8161   -3960.0068 
 7881000    242.92712   -4871.2321   -4385.3478   -4871.2321            0     4856.421    18.112448    23.029636     19.30865    8054.0833    3728.1084    5611.7811    5229.3735    445.04495   -581.96254    359.08827   -3814.9099 
 7882000    252.77974   -4830.9968   -4325.4061   -4830.9968            0    3943.7257    17.955492    23.148393    19.459923    8088.3378    5491.8443    3982.7187    2356.6142   -741.30943    924.86205   -845.75681   -3860.2038 
 7883000     249.3306   -4823.5997   -4324.9077   -4823.5997            0    5124.7213    18.056625    23.116139    19.278547    8046.8553    6541.9407    3669.6602     5162.563    1140.6299   -88.266174     643.0292   -3723.4954 
 7884000    235.42276   -4847.7312   -4376.8566   -4847.7312            0    4179.6876    18.022563    23.058641    19.464469    8088.9624    6145.0036    3367.2826    3026.7765   -1042.2026   -581.69427   -1190.1982   -3883.7821 
 7885000    246.43577   -4853.8734   -4360.9714   -4853.8734            0    6561.8483    18.010663    22.841901    19.389344     7976.733    6529.2505    6262.9926     6893.302     1747.706    95.365737    1010.7514   -3597.6154 
 7886000    256.44944   -4837.8007   -4324.8702   -4837.8007            0     6868.896    18.266219    22.653857    19.423562     8037.476    6539.2421     7835.643     6231.803   -96.123745      952.524   -2289.4808   -3519.7095 
 7887000    244.04783   -4848.7376   -4360.6118   -4848.7376            0    5080.3614    18.030335    22.855712    19.526281    8046.7048     5611.933    5090.3698    4538.7813      571.364   -681.91831    96.859341   -3764.4165 
 7888000    253.83504   -4865.1816   -4357.4802   -4865.1816            0    5055.0525     18.16703    22.940723    19.314311     8049.525    6360.9962    4977.6123     3826.549   -917.45521   -178.51847   -204.82747    -3764.047 
 7889000    251.09352   -4885.3856   -4383.1676   -4885.3856            0    6253.4658    18.009961     22.86774    19.446543    8009.0026    6764.0344    5681.6372     6314.726   -341.97723   -779.99622    1253.7686   -3652.7434 
 7890000    249.14511   -4829.9695   -4331.6485   -4829.9695            0    3678.5065    18.303931    22.946445    19.361374    8131.9738    2470.6804    3929.5447    4635.2944   -1840.7266    659.61849    1259.2476   -3895.3905 
 7891000    244.70071    -4848.678   -4359.2463    -4848.678            0     5441.816    18.007846    23.100021    19.266706    8014.5955    4970.6955    4897.6138    6457.1385    150.14599   -866.28928   -1266.3626   -3723.1816 
 7892000    253.72022   -4857.2942   -4349.8224   -4857.2942            0    5445.3901    18.095536     23.03438    19.240029    8019.6182    5185.6397    4144.5294    7006.0014   -1020.2975   -226.90047   -921.41522    -3712.941 
 7893000    235.04006   -4832.0269   -4361.9177   -4832.0269            0    4500.9797    17.815791    23.235138    19.402405    8031.6713    5633.7692    3843.0724    4026.0974   -427.82158    339.84571    1587.3501   -3834.7014 
 7894000    252.45204   -4853.9688   -4349.0336   -4853.9688            0    5458.4255    18.079014    23.200245    19.185035     8046.924    5746.3095     5611.282    5017.6849    213.69272    342.58686   -879.15811   -3708.4539 
 7895000    246.24575   -4851.2695   -4358.7476   -4851.2695            0    3536.8084    18.073408    23.034397    19.444941    8095.1244    3607.0886    3228.3675    3774.9691    95.403827   -473.28869    769.36005   -3941.1952 
 7896000    237.80921   -4840.2356   -4364.5878   -4840.2356            0    5733.6094    18.225732    22.671737    19.466405    8043.6943     4711.587    6109.8818    6379.3593    -176.6144    338.02588    1150.8175   -3691.9836 
 7897000    240.03369   -4860.5279   -4380.4308   -4860.5279            0    5378.9287    18.259635    22.482122    19.594162     8043.704    3973.1012    6653.3951    5510.2898    386.82076    555.03135    986.93443   -3749.4332 
 7898000    246.55827   -4855.1808   -4362.0338   -4855.1808            0    5161.9049    18.215459    22.758203    19.428149    8053.9607    2926.9545     5227.485    7331.2752    787.31892    16.621904   -419.95902   -3755.7229 
 7899000    254.13249   -4832.8023    -4324.506   -4832.8023            0    4548.5922    18.054328    23.050371    19.454213    8096.0453     6436.953    5056.9053    2151.9183   -352.65893   -1393.5748   -285.07012   -3787.4422 
 7900000    247.06726   -4862.2811   -4368.1161   -4862.2811            0    4549.4423    18.089197    23.048638    19.335828    8061.7132    4148.6236    4635.1184    4864.5849    2107.5503   -130.36266    1514.1858   -3833.2299 
 7901000    258.82166   -4827.0377   -4309.3624   -4827.0377            0    2885.3673    18.064395    23.145272    19.438622    8127.3913     2492.914     3081.224    3081.9638   -430.88289    -534.0145    155.24623   -3967.3608 
 7902000    254.48593    -4855.925   -4346.9217    -4855.925            0    6055.4374    18.059741    23.052286    19.255972    8016.6139    7056.2923    5229.6498    5880.3702    1233.0375    505.43704   -638.60686   -3638.9557 
 7903000    252.00809   -4843.3471   -4339.2998   -4843.3471            0      3615.21    18.115687    23.082399    19.330869    8083.2708    4801.1732    3183.4829    2860.9739   -238.13248    690.25338    227.28182   -3913.1164 
 7904000    246.31574   -4846.8049   -4354.1429   -4846.8049            0    5887.5829    17.915843    23.017347    19.374924    7989.7379    5261.4752    5431.2988    6969.9746   -659.42571   -840.84678    217.14186   -3668.1092 
 7905000    235.73414   -4837.2361   -4365.7387   -4837.2361            0    3879.2433    18.272789    23.021512    19.304223    8120.6536     4644.004    2305.0715    4688.6545   -430.03904   -1058.2301   -411.53864   -3906.3144 
 7906000    239.35558   -4868.0409   -4389.3002   -4868.0409            0    3930.1387    18.161039    22.920814     19.38585    8069.6665    3283.4538    3702.2238    4804.7386   -1068.7943   -1134.3353   -1118.7598   -3926.7708 
 7907000    245.76303   -4857.2936   -4365.7372   -4857.2936            0    6089.4799    18.143325    22.811548    19.439835    8045.7072    5659.8639    7068.5346    5540.0413    1866.0849    1573.9227    874.39748   -3651.2074 
 7908000    237.05304   -4858.0816   -4383.9462   -4858.0816            0    5885.9774    18.134106    22.706956    19.483818    8022.8586    7506.8704    6025.1631    4125.8987   -1120.6248    936.32572   -117.32018   -3695.2564 
 7909000    245.73715   -4862.9087   -4371.4041   -4862.9087            0    4311.3288    18.267215     22.69285    19.483108    8076.4336    4510.7373    5262.6021    3160.6469    837.51825    694.83191    2172.8869   -3863.5877 
 7910000    254.89394   -4851.9286   -4342.1092   -4851.9286            0    4600.0938    18.164622    22.649676    19.596804    8062.5722    4881.2446    4502.6017     4416.435   -440.47287   -1365.2804   -338.09417   -3801.2102 
 7911000    231.88782   -4848.1963    -4384.392   -4848.1963            0    5154.6943    18.221851    22.746919    19.489906    8078.3904    4480.6836      5618.63    5364.7694    2230.5442    241.33776    851.50305   -3777.0915 
 7912000    245.52918   -4841.5482   -4350.4595   -4841.5482            0    5262.3928    18.088952    22.915757    19.450752    8062.7651    4640.2536    4763.9674    6382.9575    808.95563   -15.907949   -1733.3575   -3731.6697 
 7913000    243.53793   -4838.7815   -4351.6756   -4838.7815            0    5505.3239    18.061303    22.880251    19.501897    8059.1036    4015.5677    6651.2889    5849.1151     392.9793    141.76139    1038.1757   -3704.6142 
 7914000    240.34584    -4841.888   -4361.1666    -4841.888            0    5762.8373    18.152395    23.021939    19.207134    8026.7252    5295.2489    5945.5616    6047.7014    1909.2591    2085.8917   -20.717954   -3686.5599 
 7915000     244.5928   -4857.9666   -4368.7507   -4857.9666            0    4456.9269    18.081972    22.961286    19.403717    8056.1387    3683.9078    5011.4399    4675.4329   -291.41837    125.68557   -1301.5155   -3845.1041 
 7916000    257.22767    -4824.185   -4309.6978    -4824.185            0    5424.3275     18.03512    23.031306    19.395062    8056.1726    6439.3333    5299.7071     4533.942    2010.0166    449.22451   -471.41496   -3672.3881 
 7917000    244.38269   -4851.2083   -4362.4127   -4851.2083            0    5560.2206    18.246259    22.900743    19.210664    8027.2313    5201.1144    5842.3566    5637.1908    217.92065   -1312.5373    -386.5361   -3711.4836 
 7918000     239.9531   -4807.3254   -4327.3895   -4807.3254            0    5363.9561    18.035907    22.906834    19.527226    8067.5859    5999.5478    6287.5851    3804.7354   -428.43166    1245.4255   -848.46902     -3696.28 
 7919000     264.5125   -4839.1473   -4310.0896   -4839.1473            0    6623.2892    18.198362    22.724826    19.367796    8009.6411    6595.6476    5501.2178    7773.0023     88.63791   -650.59409    1011.6915   -3536.4073 
 7920000    252.46963    -4852.959   -4347.9885    -4852.959            0    4957.6938    18.150737    22.692081    19.621187    8081.5352    6045.3657    4941.0733    3886.6425    -749.0958    1467.3988    1415.7621   -3763.6702 
 7921000     252.9246   -4843.1039   -4337.2235   -4843.1039            0    5496.1378    18.146292    22.778977    19.487716    8055.3252    5076.4747    5457.1145    5954.8243    1006.3705    1016.3218    1510.1312   -3691.5446 
 7922000    235.69651   -4839.1552   -4367.7331   -4839.1552            0     4316.354    18.170575    22.902869    19.450747    8094.5894    5370.5028    4185.5597    3392.9994   -516.03235   -1092.9983   -972.44912    -3858.182 
 7923000    241.10797   -4857.7415   -4375.4958   -4857.7415            0    6399.0204    18.066201    22.823375    19.455305    8022.0384    7959.2982    6245.8262    4991.9367   -1576.0501   -379.85448   -616.76089   -3626.8539 
 7924000    255.07384   -4870.4168   -4360.2376   -4870.4168            0    4844.7994    18.045254    23.083267     19.36268    8065.3968    4202.3613    4346.1385    5985.8983   -1639.9304   -27.755649    1217.3974   -3790.3655 
 7925000    242.74652   -4840.7811    -4355.258   -4840.7811            0    7092.6705    17.952294    23.056722    19.313065    7994.0843    5861.5797    7334.4771    8081.9547     71.31144   -506.31778    2222.5166   -3528.3554 
 7926000     257.0698   -4875.5513   -4361.3799   -4875.5513            0    6655.1497    17.944362    23.044822    19.374686    8011.9099    6424.3373    5719.5469    7821.5648   -1445.8414    666.48073    1448.7075   -3583.7557 
 7927000    259.41364   -4849.9954    -4331.136   -4849.9954            0     4896.504    18.198985    23.052484    19.224974     8065.488    4357.0568    3717.4091     6615.046    228.53794    460.38437    2986.7748   -3755.1756 
 7928000    259.94293   -4859.9462   -4340.0282   -4859.9462            0    4232.6139    18.064423    22.970351    19.504878    8093.4738    4747.7599    4536.1222    3413.9594   -1124.5067    540.76488   -224.76776   -3840.4316 
 7929000    249.36359   -4835.2563   -4336.4983   -4835.2563            0    3274.6421    18.304609      22.9513    19.376211    8140.2284    2989.0894     3046.525    3788.3119   -838.55764   -352.64367    1451.2406    -3947.743 
 7930000    249.18644   -4836.1218   -4337.7181   -4836.1218            0    6286.4281    18.055808    22.823706    19.438162    8010.4756    5906.9392    7361.6717    5590.6735   -693.90167     559.1382   -798.70976   -3603.3089 
 7931000    242.18994   -4848.6464   -4364.2366   -4848.6464            0    6269.4107    18.041092     22.86857     19.45635    8027.1839    7289.3894      5407.82    6111.0228    136.31657   -1042.1838    726.48745   -3630.2877 
 7932000    249.29132   -4839.1324   -4340.5189   -4839.1324            0    4966.0153    18.229307    22.875147    19.379682    8081.2902     4015.421    5060.2183    5822.4067    406.28256   -241.60202   -59.188919   -3755.2376 
 7933000    244.43761   -4865.4688   -4376.5634   -4865.4688            0    6188.4976    17.967415    22.837689    19.491118     7997.873    7859.2135    6257.5444    4448.7348    617.23931   -683.39636   -1826.2183   -3654.7322 
 7934000    234.97724   -4853.5843   -4383.6008   -4853.5843            0    4154.7257    18.168866     22.83691    19.493226    8088.1439    3778.7668    4611.2357    4074.1747    380.27372   -220.42193   -314.70926   -3893.5206 
 7935000    254.86851   -4840.2975    -4330.529   -4840.2975            0    4384.4533    18.184965    22.801791    19.468296    8072.5241    3761.4748    5029.9936    4361.8914    1338.4482   -901.86284   -421.92067   -3814.3496 
 7936000    247.87646   -4834.6945    -4338.911   -4834.6945            0    4742.2669    18.337355     22.75029    19.373256    8082.1375    4546.8424    4776.7735    4903.1848    34.801556   -208.68571   -1442.9162   -3779.9415 
 7937000    242.74126    -4850.439   -4364.9265    -4850.439            0    4752.5197     18.06599    22.783116    19.581635    8059.7919    6195.5166    4290.2797    3771.7628    955.42585   -159.64997    -621.3321   -3806.2973 
 7938000    255.05135   -4835.9051   -4325.7709   -4835.9051            0     5488.465    18.221051    22.875498    19.278805    8035.7071    4378.0091    4605.0347    7482.3512   -420.24088   -262.03701   -1538.8652   -3682.5637 
 7939000    233.66204   -4852.8414   -4385.4884   -4852.8414            0     3925.312    18.100196    22.836118    19.606151    8103.9714     5842.962    3356.1893    2576.7848    1717.3435    115.03712    1289.8333   -3921.5632 
 7940000    261.88783   -4829.8227   -4306.0146   -4829.8227            0    5892.2837    18.277471    22.706803    19.364064    8036.5309    4365.9676    6088.7766    7222.1069    184.42619    27.312455   -604.35004   -3615.4121 
 7941000    247.41827   -4839.6311    -4344.764   -4839.6311            0    5720.4281    18.043076    22.804601    19.581907    8057.2726    6415.2595    4842.5644    5903.4604   -174.42975   -333.01761   -464.96371   -3672.5734 
 7942000    258.50074   -4850.8272   -4333.7938   -4850.8272            0    6447.8233    18.277903    22.847668    19.156719    7999.9886    4686.5984    6874.3744    7782.4969     1300.853    403.44973   -1198.9577   -3581.5157 
 7943000    253.19109   -4863.3355   -4356.9221   -4863.3355            0    5748.6989    17.993211    22.950187    19.446213    8030.2659    6499.0083    5272.8144    5474.2739   -730.30863    850.96422   -1856.3908   -3683.6736 
 7944000    252.12779   -4851.7791   -4347.4924   -4851.7791            0    5643.2453    18.086393    22.953233     19.38741    8048.5126    6460.0162    5859.0082    4610.7116    1163.8607    435.24608    51.809864   -3685.0922 
 7945000    246.82519   -4834.6793   -4340.9984   -4834.6793            0    6938.9874    17.951856    22.958149    19.402865    7996.7238    7048.7094    7299.1163    6469.1366    -434.9978   -247.06593   -1180.1205   -3531.7458 
 7946000     252.5658   -4862.6283   -4357.4655   -4862.6283            0    5632.5873    18.051662    23.128957     19.23322    8030.1793    5894.7209    4705.2428    6297.7983    1586.0259   -1123.9753   -854.50853   -3697.8224 
 7947000    244.37723   -4842.5937    -4353.809   -4842.5937            0    4543.9453    17.857203    23.319811    19.370944    8066.5765    5478.5813    3612.8877    4540.3668    798.96495    126.22203   -2441.0909   -3819.2468 
 7948000    250.21266    -4853.942   -4353.4858    -4853.942            0    3413.0278    18.236194     23.15581    19.257817    8132.0727    3436.9848    2616.0964    4186.0022    1442.7102    304.51242    624.88044   -3948.7077 
 7949000    244.60218   -4813.8953   -4324.6607   -4813.8953            0     6189.597    17.959815    23.096222    19.335992    8020.6443    6095.4786    6037.5256    6435.7868    141.34093    1447.5955   -114.54803   -3600.6458 
 7950000     251.7967   -4858.6114   -4354.9868   -4858.6114            0    5310.9769    18.073515     23.00009    19.388194    8059.5261    4767.6738    5385.0342    5780.2226    850.74397     429.7966   -1711.0651    -3730.735 
 7951000    245.15235   -4836.6923   -4346.3573   -4836.6923            0    5775.8383    18.135652    22.682437    19.544923     8040.015    6200.6641      6183.48    4943.3707    443.70101   -840.35468    1258.1279   -3669.1092 
 7952000    253.28277   -4859.5086   -4352.9118   -4859.5086            0       2838.4    18.262234    22.735326    19.503077    8097.6356    2587.9182    3751.8925    2175.3894   -436.19115   -940.84353    794.09479   -4017.7089 
 7953000    244.57508   -4871.6251   -4382.4448   -4871.6251            0    5081.5549    18.118765    22.757604    19.455699    8022.3566    4944.1766    4886.6475    5413.8407   -889.47774   -959.14198   -1.1266663   -3787.9138 
 7954000    249.28083   -4886.4458   -4387.8534   -4886.4458            0     4661.285    18.115745     22.86385    19.375687    8025.3259    5444.3871    3560.4976    4978.9702    1106.6126    70.879943     676.7498   -3842.2912 
 7955000    248.05042   -4878.8616   -4382.7301   -4878.8616            0    5064.2594    18.115747    22.961142    19.393787    8067.0058    4669.2292    4156.9252    6366.6238    336.30706   -147.13615   -1873.2848    -3786.925 
 7956000    256.76456   -4882.1331   -4368.5723   -4882.1331            0    5184.0877    18.124991      22.8597    19.314484    8002.6062    3268.9597    6521.8167    5761.4868    1208.0582   -131.46256    1940.7883   -3763.5384 
 7957000    246.99907   -4848.1073   -4354.0786   -4848.1073            0    4341.8372    18.120544    22.889453    19.399064    8046.1371    4270.2505    5240.9047    3514.3565   -186.29048    806.25097   -477.88236   -3844.5872 
 7958000    259.77118     -4850.55   -4330.9755     -4850.55            0    6121.8789    18.077196     22.78896    19.505755    8035.6007    5971.8431    7362.4444    5031.3493   0.70022223    1409.9753    -949.1573   -3613.5464 
 7959000    246.98198   -4847.3276   -4353.3331   -4847.3276            0    5572.9397    18.245208    22.922285    19.209966    8034.0275    5862.0775    6084.2317      4772.51   -348.50216    468.20244   -172.19357   -3700.3627 
 7960000    265.13022   -4859.9163   -4329.6231   -4859.9163            0    6055.0002    17.784121    23.084327     19.51124    8010.0368    6891.6766    6836.7337    4436.5902    1625.1912    1067.3437   -811.31311   -3622.2891 
 7961000    241.74122   -4828.9383    -4345.426   -4828.9383            0    5361.7057    18.219125    22.957234    19.232037    8044.0054    6451.5988    4293.3426    5340.1758    160.39085   -56.835196   -1613.6047   -3716.4252 
 7962000    241.75513   -4835.8716   -4352.3315   -4835.8716            0    3136.9624    18.032777    22.886876    19.622686    8098.5558    3062.8536    2712.5849    3635.4486   -199.87654   -355.91041   -690.47526   -3981.8276 
 7963000    245.40348   -4846.9297   -4356.0925   -4846.9297            0    4630.4375    18.318183    22.834392    19.247047     8050.743    2638.5879    5074.1802    6178.5445    543.34188   -291.12658    2270.5347   -3812.4243 
 7964000    239.55732   -4830.5968   -4351.4525   -4830.5968            0    4814.2832    18.012299    23.012312     19.42028    8049.7963    5374.1707    4610.3481    4458.3307   -26.749423    917.41157   -1988.9947   -3786.2652 
 7965000      238.778   -4882.9139   -4405.3284   -4882.9139            0     5386.588    17.997856    22.976939    19.440447    8039.3175    5827.8857     6391.017    3940.8612   -664.08147    1021.2337   -909.80782   -3773.7769 
 7966000    242.04109   -4844.1914   -4360.0793   -4844.1914            0    5959.0511    17.976185    22.907221    19.417503    7995.8258    4609.8509    6866.3441    6400.9583     1000.392    43.562166   -23.217201   -3665.1889 
 7967000    250.66556   -4882.7903   -4381.4282   -4882.7903            0    3317.0704    18.163757     22.85876    19.427912    8066.4877    4316.8956    2976.7452    2657.5705    383.06537   -1645.4286    753.09715   -3991.2033 
 7968000    258.72007    -4855.837   -4338.3649    -4855.837            0    4372.5529    18.138623     22.79729    19.512661    8068.7083    5077.9823    4897.1554    3142.5211   -367.08488   -623.72683   -997.46869   -3823.8298 
 7969000    244.52659   -4844.5127   -4355.4293   -4844.5127            0    6103.6249    18.173449    22.742482    19.433125     8031.892    7712.2238    6047.0157    4551.6352   -1247.1912    841.54834    412.38468   -3640.4695 
 7970000    241.31805    -4870.117   -4387.4511    -4870.117            0    3950.1174    18.149775    22.896171    19.420745    8070.4917    4660.2452    4032.9655    3157.1415    67.827529   -588.16355    174.96568   -3922.5229 
 7971000    247.32547   -4861.7371   -4367.0557   -4861.7371            0    5162.2282    18.204722    22.794226    19.400246    8050.3755    4137.5977    5805.2935    5543.7935    280.32792   -317.70851    317.64997   -3760.9767 
 7972000    241.41151   -4875.2962   -4392.4433   -4875.2962            0    4081.5545    18.299875    22.669506    19.500154    8089.6217    3229.1549     4349.154    4666.3547    98.570613   -204.65372    17.573839   -3910.9063 
 7973000    235.87453   -4857.5126   -4385.7344   -4857.5126            0    5164.4588    18.092273    23.123101    19.270561    8061.8291    4822.0069    4820.6109    5850.7587   -1168.9686    206.76599   -1884.4202   -3778.5309 
 7974000    258.87603   -4869.8635   -4352.0795   -4869.8635            0    5597.2482    18.155561    23.082767    19.207808    8049.6194    5859.3277    4933.6046    5998.8123   -540.34489     21.82678   -182.79511   -3694.9881 
 7975000    250.98807   -4872.8817   -4370.8745   -4872.8817            0    3824.4576    17.966159    23.176717    19.345856    8055.5483    4019.9106    2847.7063     4605.756   -361.48054    424.31463    502.20177     -3921.57 
 7976000    246.88934   -4848.3745   -4354.5653   -4848.3745            0    5360.8976    18.023967    23.114416    19.293415    8037.8967    5660.0547     4254.137    6168.5011    156.12746    81.160923   -846.44578   -3726.1369 
 7977000    259.84698   -4811.8314   -4292.1053   -4811.8314            0     4053.165    18.131076    23.079456     19.37848    8109.0288    4391.5218    3346.5606    4421.4127   -329.56743   -540.20048    1417.1254   -3812.7704 
 7978000    250.15026   -4827.0516   -4326.7202   -4827.0516            0    6189.5627    18.148831    22.790227    19.376656    8014.4948     5504.818    6686.8301    6377.0401   -741.85309   -344.67336    1578.7846   -3603.2644 
 7979000    251.73861   -4837.0658   -4333.5575   -4837.0658            0    4519.4705    18.141932    22.969293    19.414395    8090.1209    2530.5534    5558.1435    5469.7148   -1072.2033    394.62924   -469.39452   -3800.3227 
 7980000    265.96335   -4842.9776    -4311.018   -4842.9776            0     3934.743     17.93567    23.000682    19.591294    8082.0484    5891.3046    3379.0342    2533.8902     470.0703   -1415.3431    945.71708   -3847.2362 
 7981000    260.73257   -4855.8438   -4334.3465   -4855.8438            0    4532.2806     18.26966     22.76922    19.450915    8091.3064    4115.0761    5330.9545    4150.8113   -318.97824    314.04591   -1164.1065   -3799.5219 
 7982000     248.1952   -4847.6054   -4351.1844   -4847.6054            0    4920.6982    18.212751    22.625215    19.569281    8063.8631    3766.7445    5971.2077    5024.1424   -1439.2123   -621.37328    750.58365   -3772.4947 
 7983000    252.31033   -4879.5468    -4374.895   -4879.5468            0    4430.4876      18.0356    22.805284    19.624129    8071.5411     4787.584    5086.8513    3417.0276   -789.45763    85.921928   -747.07174   -3853.3595 
 7984000    258.63794    -4847.307   -4329.9992    -4847.307            0    5099.4487    18.187467    22.871149    19.377001    8060.2178    4678.5795    6190.6009    4429.1658    1166.4712    35.786262   -44.186283    -3730.559 
 7985000    244.35535    -4856.535   -4367.7941    -4856.535            0    5639.2582    18.028595    22.862425    19.459717    8020.8558    6247.5595    5736.6184    4933.5966   -429.99061    579.54816   -991.25306   -3708.1365 
 7986000    246.50371   -4856.6144   -4363.5765   -4856.6144            0    4212.7544    18.125795    23.010196    19.389514    8086.9413    5143.5366    3345.9779    4148.7488    105.45719   -478.03682    482.26138   -3866.7253 
 7987000    238.67939    -4843.476   -4366.0877    -4843.476            0    3947.5781    18.185149      22.9455    19.462922    8121.2419    2600.5386    3642.7436    5599.4521    1330.0457   -881.87981   -634.49739   -3898.5367 
 7988000    249.34694   -4833.8933   -4335.1686   -4833.8933            0    6114.8935    18.107286    22.943279    19.363949    8044.5688    3168.0903     7325.342    7851.2481     1006.673    686.26242   -180.34217   -3617.7584 
 7989000    243.39648   -4836.7766   -4349.9536   -4836.7766            0    5881.8339    18.056284    23.038692    19.269344    8015.9156    4771.6928    5873.1294    7000.6794   -536.70395    704.68813   -1981.1668   -3662.3442 
 7990000    256.54014   -4853.1532   -4340.0412   -4853.1532            0    5507.8697    18.049995    22.943999    19.461934    8059.9474    4995.4816    7248.8702    4279.2571    1846.6811    1769.4755    906.08656   -3692.6128 
 7991000    245.17574    -4861.276   -4370.8942    -4861.276            0    5637.1966    18.077171    22.943597    19.342515    8022.4111    5095.6432    5425.7644    6390.1822   -173.94954    -861.1794   -1995.0667   -3711.3499 
 7992000    248.12653   -4857.2137     -4360.93   -4857.2137            0     4649.066    18.045711    23.019561    19.407535    8061.9746     6045.778    4366.7668    3534.6533    486.59967    684.41841    455.69638   -3814.3131 
 7993000    254.27204   -4828.6682   -4320.0927   -4828.6682            0    5266.3103    18.044725    23.115482    19.353905    8072.7563    6915.9735    4584.4287    4298.5286   -436.63604    115.12764   -1233.7997   -3700.0749 
 7994000    253.18965   -4834.7038   -4328.2932   -4834.7038            0    5199.4469    18.142585    22.936483    19.388695    8068.1614    3380.2062    6058.6754     6159.459    750.46351    1299.7082   -1053.6375   -3716.4958 
 7995000    252.00668   -4819.6917   -4315.6472   -4819.6917            0    4917.0084    18.089268    23.003451    19.475674    8104.1313    2175.8735    5932.3725    6642.7793    416.66508    712.04417   -548.49309   -3734.5038 
 7996000    239.52697   -4840.7814   -4361.6979   -4840.7814            0    5159.1802    18.161286     22.85267    19.445563    8070.5677    5968.1661    4477.6734    5031.7012    719.41788   -108.43152    1030.6277   -3754.4575 
 7997000    253.03287   -4855.0984   -4349.0014   -4855.0984            0    4624.2064     18.15539    22.694512    19.492181    8031.3187    3461.4411    5710.8517    4700.3262   -1058.1702   -575.38252   -732.95808   -3807.3749 
 7998000    248.23525    -4826.462   -4329.9609    -4826.462            0    3689.0037    18.281316    22.729686    19.557159    8126.5585    2410.0344    4537.7887     4119.188     191.6383   -186.25677    1367.6876   -3892.7493 
 7999000    253.47743   -4873.1668   -4366.1807   -4873.1668            0    6046.2217    18.285271    22.498089    19.465651    8007.8504    5044.5789     6936.613    6157.4734   -932.58224    174.06593   -266.95295   -3660.0649 
 8000000    243.68987   -4810.4987   -4323.0889   -4810.4987            0         3881     18.27995    22.573977    19.638976    8104.0466    2995.4451    4757.5476    3890.0073   -485.63682    1280.0058    316.73111   -3864.3966 
Loop time of 613.318 on 64 procs for 250000 steps with 1008 atoms

Performance: 70.436 ns/day, 0.341 hours/ns, 407.619 timesteps/s
99.2% CPU use with 64 MPI tasks x 1 OpenMP threads

MPI task timing breakdown:
Section |  min time  |  avg time  |  max time  |%varavg| %total
---------------------------------------------------------------
Pair    | 27.866     | 31.564     | 34.972     |  30.2 |  5.15
Bond    | 0.28349    | 0.29244    | 0.30882    |   1.1 |  0.05
Kspace  | 286.48     | 298.06     | 321.7      |  50.0 | 48.60
Neigh   | 3.9802     | 4.8334     | 6.6316     |  31.4 |  0.79
Comm    | 111.32     | 134.51     | 147.68     |  81.4 | 21.93
Output  | 1.0623     | 1.0627     | 1.0679     |   0.1 |  0.17
Modify  | 128.3      | 133.66     | 138.99     |  22.1 | 21.79
Other   |            | 9.342      |            |       |  1.52

Nlocal:        15.7500 ave          20 max          12 min
Histogram: 2 2 8 21 0 14 7 4 4 2
Nghost:        2484.14 ave        2513 max        2465 min
Histogram: 6 8 9 9 12 8 5 5 1 1
Neighs:        5171.31 ave        6610 max        3902 min
Histogram: 2 2 8 20 7 8 7 4 4 2

Total # of neighbors = 330964
Ave neighs/atom = 328.33730
Ave special neighs/atom = 2.0000000
Neighbor list builds = 8742
Dangerous builds = 0

unfix		3
unfix		2
unfix		1

write_data	data.final.${pid}
write_data	data.final.0
System init for write_data ...
PPPM initialization ...
  extracting TIP4P info from pair style
  using 12-bit tables for long-range coulomb (../kspace.cpp:340)
  G vector (1/distance) = 0.37918174
  grid = 24 27 36
  stencil order = 5
  estimated absolute RMS force accuracy = 0.0024341888
  estimated relative force accuracy = 7.3304873e-06
  using double precision FFTW3
  3d grid and FFT values/proc = 4050 480
Last active /omp style is kspace_style pppm/tip4p/omp
WARNING: Not all mixed pair coeffs generated from mixing. Use write_data with 'pair ij' option to store all pair coeffs. (../write_data.cpp:312)

write_restart   restart.lmp.${pid}
write_restart   restart.lmp.0
System init for write_restart ...
PPPM initialization ...
  extracting TIP4P info from pair style
  using 12-bit tables for long-range coulomb (../kspace.cpp:340)
  G vector (1/distance) = 0.37918174
  grid = 24 27 36
  stencil order = 5
  estimated absolute RMS force accuracy = 0.0024341888
  estimated relative force accuracy = 7.3304873e-06
  using double precision FFTW3
  3d grid and FFT values/proc = 4050 480
Last active /omp style is kspace_style pppm/tip4p/omp
Total wall time: 0:10:15
