#include		in.partitions
include		in.temp
variable        temperature equal 264.10
variable	tempDamp equal 100.0
include		in.pressure
variable        pressure equal 5250.0
variable        pressureDamp equal 1000.0 # This is 1 ps
include		in.seed
variable        seed equal 745823

units		real
atom_style	full
read_restart	restart.lmp.${pid}
read_restart	restart.lmp.1
Reading restart file ...
  restart file = 30 Jul 2021, LAMMPS = 30 Jul 2021
  restoring atom style full from restart
  orthogonal box = (0.47347203 1.6492188 0.57763477) to (17.734100 21.979959 21.635561)
  2 by 4 by 4 MPI processor grid
  restoring pair style lj/cut/tip4p/long/omp from restart
  restoring bond style harmonic/omp from restart
  restoring angle style harmonic/omp from restart
  864 atoms
  576 bonds
  288 angles
Finding 1-2 1-3 1-4 neighbors ...
  special bond factors lj:    0        0        0       
  special bond factors coul:  0        0        0       
     2 = max # of 1-2 neighbors
     1 = max # of 1-3 neighbors
     1 = max # of 1-4 neighbors
     2 = max # of special neighbors
  special bonds CPU = 0.002 seconds
  read_restart CPU = 0.008 seconds
include 	in.setup
variable	out_freq equal 1000
variable	out_freq2 equal 10000
variable	out_freq3 equal 1000

timestep	2.0

neigh_modify    delay 7 every 1

include		in.tip4p
# This is TIP4P/Ice

# create groups ###
group ox type 2
288 atoms in group ox
group hy type 1
576 atoms in group hy

# set charges - beside manually ###
set group ox charge -1.1794
Setting atom values ...
  288 settings made for charge
set group hy charge 0.5897
Setting atom values ...
  576 settings made for charge

# ### TIP3P Potential Parameters ###
pair_style lj/cut/tip4p/long/omp 2 1 1 1 0.1577 8.5
pair_coeff 1 1*2 0.000 0.000
pair_coeff 2 2 0.21084 3.1668
bond_style  harmonic
bond_coeff  1 450 0.9572
angle_style harmonic
angle_coeff 1 55 104.52
kspace_style pppm/tip4p/omp 1.0e-5
pair_modify tail yes

thermo          ${out_freq}
thermo          1000
thermo_style    custom step temp pe etotal epair emol press lx ly lz vol pxx pyy pzz pxy pxz pyz enthalpy

restart 	${out_freq3} restart.lmp.${pid} restart2.lmp.${pid}
restart 	1000 restart.lmp.${pid} restart2.lmp.${pid}
restart 	1000 restart.lmp.1 restart2.lmp.${pid}
restart 	1000 restart.lmp.1 restart2.lmp.1


include         in.dump
dump            myDump all atom ${out_freq2} dump.water.${pid}
dump            myDump all atom 10000 dump.water.${pid}
dump            myDump all atom 10000 dump.water.1
dump            myDump2 all dcd ${out_freq2} dump.dcd
dump            myDump2 all dcd 10000 dump.dcd
dump_modify     myDump append yes
dump_modify     myDump2 append yes


variable natoms 	equal  "count(all)"                        # NUMBER ATOMS
variable H      	equal  "enthalpy/v_natoms"                 # ENTHALPY-per-atom
variable Vol      	equal  "vol/v_natoms"                 # volume-per-atom
fix AVG all 		ave/time ${out_freq} 1 ${out_freq} v_Vol v_H file vol_enthalpy.dat
fix AVG all 		ave/time 1000 1 ${out_freq} v_Vol v_H file vol_enthalpy.dat
fix AVG all 		ave/time 1000 1 1000 v_Vol v_H file vol_enthalpy.dat


timer           timeout 23:50:00 every 1000
New timer settings: style=normal  mode=nosync  timeout=23:50:00

fix 		1 all shake 1e-6 200 0 b 1 a 1
       0 = # of size 2 clusters
       0 = # of size 3 clusters
       0 = # of size 4 clusters
     288 = # of frozen angles
  find clusters CPU = 0.001 seconds
fix             2 all nph iso ${pressure} ${pressure} ${pressureDamp}
fix             2 all nph iso 5250 ${pressure} ${pressureDamp}
fix             2 all nph iso 5250 5250 ${pressureDamp}
fix             2 all nph iso 5250 5250 1000
fix             3 all temp/csvr ${temperature} ${temperature} ${tempDamp} ${seed}
fix             3 all temp/csvr 264.1 ${temperature} ${tempDamp} ${seed}
fix             3 all temp/csvr 264.1 264.1 ${tempDamp} ${seed}
fix             3 all temp/csvr 264.1 264.1 100 ${seed}
fix             3 all temp/csvr 264.1 264.1 100 745823

run             250000
PPPM initialization ...
  extracting TIP4P info from pair style
  using 12-bit tables for long-range coulomb (../kspace.cpp:340)
  G vector (1/distance) = 0.37444695
  grid = 24 24 25
  stencil order = 5
  estimated absolute RMS force accuracy = 0.0030513917
  estimated relative force accuracy = 9.1891755e-06
  using double precision FFTW3
  3d grid and FFT values/proc = 3822 576
Last active /omp style is kspace_style pppm/tip4p/omp
Neighbor list info ...
  update every 1 steps, delay 7 steps, check yes
  max neighbors/atom: 2000, page size: 100000
  master list distance cutoff = 10.8154
  ghost atom cutoff = 10.8154
  binsize = 5.4077, bins = 4 4 4
  1 neighbor lists, perpetual/occasional/extra = 1 0 0
  (1) pair lj/cut/tip4p/long/omp, perpetual
      attributes: half, newton on, omp
      pair build: half/bin/newton/omp
      stencil: half/bin/3d
      bin: standard
Per MPI rank memory allocation (min/avg/max) = 10.20 | 10.21 | 10.22 Mbytes
Step Temp PotEng TotEng E_pair E_mol Press Lx Ly Lz Volume Pxx Pyy Pzz Pxy Pxz Pyz Enthalpy 
13250000    270.07594   -3837.2409     -3374.34   -3837.2409            0    5172.2653    17.260628     20.33074    21.057926    7389.6759      5301.81     4987.387    5227.5987    1264.3033   -263.91741    934.07193   -2816.9206 
13251000    267.97281   -3870.8426   -3411.5464   -3870.8426            0    3922.3909    17.301978    20.379445    21.108373    7442.9118     3662.426    4886.3435    3218.4031    -1334.326    439.13256   -854.80805   -2985.7817 
13252000    256.76389   -3864.4646   -3424.3801   -3864.4646            0     4317.189    17.275412    20.348153    21.075962    7408.6798    4427.3664    4484.7234    4039.4773     720.1214    1228.7895   -949.30516   -2957.9165 
13253000    263.56117   -3872.6952   -3420.9604   -3872.6952            0    3648.7185    17.344185    20.429159    21.159866    7497.5145    3923.8756    3691.6423    3330.6378    1274.7517    185.60554    -2403.467   -3021.9965 
13254000    250.55226   -3900.3143   -3470.8763   -3900.3143            0    5684.8573    17.260698    20.330823    21.058012    7389.7659     5813.661    4859.6601    6381.2508     1271.168    -2315.835   -198.49597    -2858.207 
13255000    274.12202   -3854.1801   -3384.3443   -3854.1801            0    5205.0601    17.265547    20.336534    21.063927    7395.9954    3781.1903     6763.409    5070.5809   -261.00482   -379.07862   -760.59805   -2822.9109 
13256000    256.35361   -3850.3495   -3410.9681   -3850.3495            0    4134.3148    17.415483    20.513139    21.246849    7590.3567     5212.036    4597.4507    2593.4576   -965.21014   -737.60765   -572.75764   -2953.3095 
13257000    252.62226   -3841.3493   -3408.3634   -3841.3493            0    4257.4789    17.363524    20.451938    21.183459    7522.6216    4238.9839    4512.4141    4021.0386   -1586.9779   -1099.5379   -1377.5835   -2941.2766 
13258000    276.13475   -3870.1567   -3396.8712   -3870.1567            0    5737.8364    17.313932    20.393525    21.122957    7458.3495    3936.4841    7815.1582    5461.8667   -149.15827    444.25196   -549.39339   -2772.7531 
13259000    278.00852   -3859.5505   -3383.0534   -3859.5505            0    6312.0647    17.336526    20.420138    21.150521    7487.5858    7588.7175    5412.5627    5934.9138     984.3102      798.866    381.44667   -2693.7838 
13260000    268.08412   -3863.8503   -3404.3633   -3863.8503            0    5467.8918    17.413817    20.511176    21.244816    7588.1778    5376.9779    5435.0071    5591.6904    -335.5547   -468.60012   -18.732333   -2799.2548 
13261000    267.81395   -3861.5859   -3402.5619   -3861.5859            0    7387.3124    17.212867    20.274484    20.999658    7328.5029     7354.839    6991.6239    7815.4743    168.11127   -627.51356   -189.49565   -2613.0156 
13262000    275.87075    -3861.304    -3388.471    -3861.304            0    3302.0335    17.357835    20.445237    21.176518    7515.2295    3691.2751    3282.4923    2932.3331    19.649949    1711.7292   -1178.4123   -3026.5618 
13263000    273.34664   -3857.0066   -3388.4999   -3857.0066            0     6157.162    17.286462    20.361169    21.089443    7422.9052    5862.4806    5635.0831    6973.9223    1560.2243   -440.82807   -415.67198   -2721.9535 
13264000    256.42455   -3886.4937   -3446.9908   -3886.4937            0    5018.3425    17.251296    20.319748    21.046541    7377.6966    3247.9906    6547.2547    5259.7822    1749.0398    647.06156     1440.112   -2907.0365 
13265000    276.26124   -3879.9382   -3406.4359   -3879.9382            0    5692.2131    17.227191    20.291355    21.017132    7346.8125    5417.9576    6182.9771    5475.7046    1927.4673   -601.47557    310.98385   -2796.5395 
13266000    266.39048   -3881.0839   -3424.4998   -3881.0839            0    4951.9643    17.338315    20.422245    21.152704     7489.904    4504.8075    6370.5579    3980.5275    639.30549      -113.47    1117.4108    -2883.584 
13267000    271.31986   -3882.2722   -3417.2392   -3882.2722            0    5008.3437     17.28752    20.362415    21.090734    7424.2688    4782.9624    5599.2468    4642.8219   -625.72272    327.21619   -326.20634   -2874.9591 
13268000    251.85212    -3870.755   -3439.0891    -3870.755            0    4755.0091    17.271181     20.34317    21.070801     7403.238    5170.3874    4886.8687    4207.7713   -224.51591    1499.6608   -1686.4864   -2925.6972 
13269000    269.36264   -3859.1698   -3397.4914   -3859.1698            0    3222.5032    17.256141    20.325455    21.052452    7383.9138    5061.9123    2444.8415    2160.7556    84.899982   -1579.6175    -1570.156   -3050.4703 
13270000    252.23975   -3850.6696   -3418.3393   -3850.6696            0     4993.822    17.189843    20.247364    20.971568    7299.1331    4183.7527    5861.6029    4936.1105    50.008467   -950.85836   -340.47277   -2886.7451 
13271000    261.33358   -3875.4477   -3427.5309   -3875.4477            0    6928.5533    17.224345    20.288003    21.013661    7343.1726    6484.5593    6694.6833    7606.4173   -878.69213    439.60676   -1416.8655   -2685.5338 
13272000    266.67042   -3846.7482   -3389.6843   -3846.7482            0    5948.5117    17.315583     20.39547    21.124971    7460.4836    5851.5722     5311.524    6682.4388   -434.83658   -203.64924    308.72613   -2742.4654 
13273000    259.26061   -3860.6786   -3416.3147   -3860.6786            0     3808.839     17.24012    20.306584    21.032906    7363.3665    1928.4161    5305.3553    4192.7455   -244.14066   -947.99616   -1098.4842   -3007.2944 
13274000    281.35078   -3842.8825   -3360.6569   -3842.8825            0    4203.8003    17.281819      20.3557    21.083778    7416.9257    5047.5131    4535.4287    3028.4589   -1126.2492    724.38394    -626.1772   -2905.9392 
13275000    256.75814   -3808.1757    -3368.101   -3808.1757            0    4834.6775    17.217942    20.280461    21.005849    7334.9863    5684.6971    4363.1234     4456.212   -1592.6026    504.42281    634.99765   -2850.9199 
13276000    269.47998   -3811.2207   -3349.3412   -3811.2207            0    4554.7441     17.24167     20.30841    21.034797    7365.3531    4475.1508    5342.1412    3846.9403   -2429.9385   -190.33874    963.74007   -2860.0883 
13277000    274.02548   -3839.0017   -3369.3314   -3839.0017            0    4370.1868    17.294955    20.371173    21.099805     7433.852    5026.6477    4513.9615    3569.9514    90.428584   -515.25622    15.328118   -2895.5371 
13278000    263.22454   -3849.0137   -3397.8558   -3849.0137            0     5267.789    17.334621    20.417894    21.148197    7485.1181    5039.4303    5122.3875    5641.5492    1190.5407   -1186.3957   -129.66607   -2822.8094 
13279000    262.46009   -3853.4374   -3403.5898   -3853.4374            0    6691.5291    17.238527    20.304707    21.030962    7361.3255     5988.429      8457.36    5628.7983    1312.1874    -43.35947     674.4051   -2685.2048 
13280000    276.80306   -3811.5021   -3337.0711   -3811.5021            0    5760.4729    17.261405    20.331655    21.058873     7390.673    5917.8177    5001.6663    6361.9349    957.35877    810.20196   -1263.1236   -2716.1763 
13281000     268.2027   -3802.7803     -3343.09   -3802.7803            0    5320.8759    17.269259    20.340906    21.068455    7400.7661    4640.5212    5761.7745     5560.332    481.28947   -2475.9252   -22.179346   -2768.7941 
13282000    253.16057   -3788.1219   -3354.2133   -3788.1219            0     6359.619    17.268373    20.339862    21.067375    7399.6273    5705.1958    6693.8778    6679.7834    99.910942   -738.36172   -1289.4562   -2667.9088 
13283000    281.37196   -3838.4524   -3356.1905   -3838.4524            0    5359.4471    17.240613    20.307165    21.033508    7363.9991    5595.5807    4724.6655    5758.0953   -376.23276    1051.3992    1005.0601   -2780.6053 
13284000    271.32513   -3885.9974   -3420.9554   -3885.9974            0    5375.5233    17.237598    20.303614    21.029829     7360.136    4281.0473    6064.3751    5781.1476      100.233    529.36146   -420.78507   -2843.9466 
13285000    261.18619   -3885.1001   -3437.4359   -3885.1001            0    5477.7472    17.192292    20.250249    20.974556    7302.2534    5046.5473    6300.3743      5086.32    350.11883    1099.2909   -1207.5308   -2854.0784 
13286000    260.02965   -3872.8396   -3427.1576   -3872.8396            0    4357.7988    17.293528    20.369491    21.098063    7432.0114    4167.5932     5580.056    3325.7472    473.46597    -1640.238   -667.43004   -2954.8234 
13287000    262.21973   -3842.3286    -3392.893   -3842.3286            0    3504.8789    17.349198    20.435064    21.165981    7504.0168    3983.4708    4439.9754    2091.1906    229.82637   -1395.9281     1326.574   -3009.3247 
13288000    257.23171   -3840.9514   -3400.0651   -3840.9514            0     6483.135    17.309203    20.387955    21.117188    7452.2399     6325.778    5911.1817    7212.4455   -337.38186     830.5815   -674.53242   -2695.4567 
13289000    276.63772   -3864.0281   -3389.8805   -3864.0281            0    4114.9696    17.293814    20.369828    21.098413    7432.3805    6063.4247    3430.4794    2851.0048   -1.6242978     826.7001   -1845.6696    -2943.844 
13290000    266.45336   -3865.7635   -3409.0716   -3865.7635            0    5612.4673    17.250053    20.318284    21.045024    7376.1015     7285.143    4200.8341    5351.4248    177.75801   -964.32722   -138.32458   -2805.3224 
13291000    253.39243   -3849.1543   -3414.8483   -3849.1543            0    6159.4955    17.290405    20.365813    21.094253    7427.9859    7077.8422    6767.3276    4633.3168    1035.3735      2.58516   -995.37495   -2747.5929 
13292000    258.38994   -3836.2334   -3393.3619   -3836.2334            0    7449.1686    17.234055     20.29944    21.025507    7355.5984    7513.1984    8362.0677    6472.2397    1885.4444    495.95113     668.3711   -2594.2609 
13293000    276.38845   -3859.2161   -3385.4958   -3859.2161            0    4894.3945     17.26134    20.331579    21.058795    7390.5903    3726.6657    6591.4715    4365.0461   -166.55647   -89.963011   -608.06003   -2857.9575 
13294000    263.40996   -3864.2837   -3412.8081   -3864.2837            0     4250.714    17.342249    20.426879    21.157504    7495.0042    3795.5833    3496.2047    5460.3541   -215.12401   -34.425637   -667.37688   -2948.1755 
13295000    243.59768   -3886.7643   -3469.2462   -3886.7643            0    6398.1466    17.275979    20.348821    21.076654    7409.4094    6907.8046    5361.6442     6924.991    648.64019    756.80895   -383.35668   -2777.8712 
13296000    269.87586   -3871.9518   -3409.3938   -3871.9518            0    4985.7445    17.274247    20.346782    21.074542    7407.1818     1972.685    5588.0238    7396.5247   -62.883262   -208.21139   -339.18017   -2870.8031 
13297000    256.89699   -3859.7233   -3419.4107   -3859.7233            0      5959.54      17.3136    20.393134    21.122552    7457.9207    6943.7349    5072.5413    5862.3438    129.59395    922.99814   -513.36865   -2771.2146 
13298000    263.99868   -3817.9935   -3365.5088   -3817.9935            0    5886.9975    17.257162    20.326657    21.053697    7385.2245    7505.2579    4667.9175     5487.817    -698.3758   -824.05005     1392.233   -2731.4443 
13299000     266.4189   -3823.4281   -3366.7952   -3823.4281            0    6296.5023    17.248109    20.315994    21.042652    7373.6075     7074.428    6201.3245    5613.7543   -2499.3407   -893.95295    301.94807   -2689.6914 
13300000    272.96036   -3854.0923   -3386.2476   -3854.0923            0    7056.2842    17.231599    20.296547     21.02251    7352.4538    7352.7155    5539.7028    8276.4342    -1230.986    392.97961    777.37294   -2629.6164 
13301000    263.02839   -3825.1037   -3374.2821   -3825.1037            0     3873.153    17.342247    20.426876    21.157501    7495.0006    2115.0078    5866.2863    3638.1647   -1002.2086    735.07424   -681.85352   -2950.9198 
13302000    261.67451   -3862.3642   -3413.8631   -3862.3642            0    3746.4704    17.349064    20.434906    21.165817    7503.8427    4580.2946    3362.5032    3296.6134    885.53452    780.58892    665.42189   -3003.8649 
13303000    256.74391   -3853.4439   -3413.3936   -3853.4439            0    5876.3798    17.321512    20.402453    21.132204    7468.1486    4906.8413     7003.333    5718.9651   -2918.0444    869.84608    874.52078    -2773.366 
13304000    272.40437   -3815.8607   -3348.9689   -3815.8607            0    5434.0121    17.248131     20.31602     21.04268    7373.6368    5997.0421    3222.7177    7082.2766   -1844.9997   -1678.2257    62.231583   -2764.6119 
13305000    262.64724   -3813.8475   -3363.6791   -3813.8475            0    5459.1898    17.187297    20.244366    20.968462    7295.8912    4769.3064    5150.3832    6457.8797   -154.93691   -692.40358    99.566166   -2782.8044 
13306000    282.59336   -3845.7081   -3361.3527   -3845.7081            0    7087.5159    17.229916    20.294565    21.020458    7350.3003    8331.3186    7302.6376    5628.5915   -268.03802    609.77275   -52.518346   -2601.5952 
13307000    270.37095   -3856.9297   -3393.5232   -3856.9297            0    6840.1566    17.173397    20.227994    20.951505    7278.2045    7366.3601    4792.7743    8361.3353    598.11321    -2104.334     340.2622   -2667.4737 
13308000    254.94019   -3838.3967   -3401.4379   -3838.3967            0    6286.6027    17.133292    20.180755    20.902577    7227.3329    7014.5496    7063.6936    4781.5649   -117.80041    819.87503   -286.52114   -2738.8096 
13309000    255.89339   -3833.2521   -3394.6596   -3833.2521            0    5157.4206    17.250488    20.318796    21.045555    7376.6597    6223.7811    5575.8497     3672.631   -367.32924   -427.84139   -784.04237    -2839.819 
13310000    257.77895   -3842.6345   -3400.8102   -3842.6345            0    5712.1584    17.220632    20.283629     21.00913    7338.4244    5611.8482    5137.0639    6387.5631   -1785.5849   -778.35154     388.6543   -2789.4756 
13311000     255.9793   -3837.3056   -3398.5659   -3837.3056            0    3982.9477    17.309432    20.388224    21.117466    7452.5349    3623.3443    4328.4457    3997.0533     913.1297    58.779933   -140.72579   -2965.6689 
13312000    262.35152   -3862.6656   -3413.0041   -3862.6656            0    6482.3969    17.332655    20.415578    21.145798    7482.5711    8138.4707    5489.7305    5818.9894     298.5111    1628.6075    1044.6716   -2705.6085 
13313000    266.19894    -3837.645   -3381.3891    -3837.645            0    5128.8851     17.31531    20.395149    21.124638    7460.1307    4212.2478    5736.0181    5438.3894   -1090.7763    1929.1137   -410.21366   -2823.3748 
13314000      267.374   -3841.2774   -3383.0075   -3841.2774            0    3929.7291    17.353971    20.440686    21.171804     7510.212    4383.6387    3710.9906     3694.558    1095.5249    849.53583    2145.9034   -2952.5893 
13315000     246.5466    -3850.398   -3427.8256    -3850.398            0    6115.2335    17.333971    20.417129    21.147404    7484.2762    5707.2033    7149.7386    5488.7587   -403.30024   -663.50431    41.615305   -2760.3448 
13316000    271.73703   -3837.0728   -3371.3248   -3837.0728            0     4551.795    17.296155    20.372586    21.101269    7435.3996     4771.535    4501.5856    4382.2645     1285.773   -440.78446    369.94804   -2877.7387 
13317000    254.43975   -3868.3464   -3432.2454   -3868.3464            0    4156.4877    17.293426    20.369372     21.09794    7431.8809    3454.9487    3758.7396    5255.7749   -970.13023   -578.45652    518.61386   -2981.7388 
13318000    264.27743    -3845.387   -3392.4245    -3845.387            0    5792.9096     17.28533    20.359836    21.088063    7421.4478    5025.6593    7180.1611    5172.9084    -2259.384    382.16239    509.00212   -2765.4336 
13319000    260.17169   -3893.1273   -3447.2019   -3893.1273            0    5231.9627    17.208316    20.269124    20.994106    7322.6915    6150.2475    5235.9515    4309.6891    86.217031   -717.61169   -15.336233     -2888.46 
13320000    265.59166   -3843.4554   -3388.2404   -3843.4554            0    4564.7422    17.291483    20.367083    21.095569    7429.3753    5105.4924     4062.439    4526.2952   -1279.4341     1082.302   -1126.9405   -2893.6514 
13321000    252.39286   -3849.9816   -3417.3889   -3849.9816            0    4422.8471    17.259311    20.329189     21.05632    7387.9846    5233.7777     4144.614    3890.1497   -1047.3113   -88.307411   -432.70403    -2940.844 
13322000    274.36494   -3820.6495   -3350.3974   -3820.6495            0     7216.413     17.18004    20.235818    20.959609    7286.6536    6866.0379    9184.7032     5598.498   -1450.8648   -230.27871     -508.662   -2583.5209 
13323000    259.59809   -3867.6601   -3422.7178   -3867.6601            0    5431.2611    17.196663    20.255398    20.979889    7307.8249    5277.6438    4670.3569    6345.7827    321.54288   -570.84462   -1228.2572   -2843.8696 
13324000    267.02827   -3847.6818   -3390.0045   -3847.6818            0    3575.7995    17.224463    20.288142    21.013804    7343.3231    3857.1637    3082.0732    3788.1617   -1325.4844   -353.31952    566.18667   -3007.0548 
13325000     256.2792   -3846.1716   -3406.9178   -3846.1716            0     4298.536    17.280533    20.354186     21.08221    7415.2708    5485.1827    3554.9891    3855.4361    646.36877   -16.231375   -155.22125   -2942.0564 
13326000    271.33156   -3865.8473   -3400.7943   -3865.8473            0     5382.145    17.311576     20.39075    21.120082    7455.3047    6744.8077    4612.2856    4789.3416    1701.1141   -1066.5671    -798.8346   -2815.6046 
13327000      255.812   -3875.4008   -3436.9478   -3875.4008            0    5213.5856    17.352542    20.439002     21.17006    7508.3564    5745.0732    4982.3383    4913.3452   -213.68679    501.14512      254.505   -2866.0514 
13328000    280.54822   -3822.6656   -3341.8155   -3822.6656            0    5014.7185    17.309515    20.388322    21.117567    7452.6421    3677.5636    6748.1654    4618.4266    960.90775    170.55656    110.36887   -2796.7701 
13329000     264.7336   -3857.0351   -3403.2908   -3857.0351            0    4414.4076    17.310115    20.389029    21.118299    7453.4171    4434.5947    3556.5528    5252.0753    48.201842   -412.53492    938.78939   -2923.4427 
13330000    267.64072   -3813.1174   -3354.3904   -3813.1174            0    4919.4837    17.259802    20.329767    21.056919    7388.6152    4536.7376    6342.7207    3878.9928   -1162.9189   -482.10192   -2148.5072   -2824.2896 
13331000    248.33837   -3819.6622   -3394.0188   -3819.6622            0    4008.0232    17.318295    20.398664     21.12828    7463.9891    4493.8538     3591.377    3938.8388   -922.48373     146.6676   -531.52922   -2957.7269 
13332000    263.29512   -3861.0102   -3409.7313   -3861.0102            0     5527.905    17.239708    20.306099    21.032403     7362.839    6054.4755    6073.5628    4455.6766   -1441.7572    163.32411    987.47452   -2816.1479 
13333000    247.35145   -3840.3525   -3416.4005   -3840.3525            0    4391.9955     17.30165    20.379059    21.107973    7442.4888    3883.8476    5034.0247    4258.1141   -1228.5218    450.48737   -1499.3845   -2939.6887 
13334000    273.28656   -3807.1313   -3338.7275   -3807.1313            0    5708.1259    17.269265    20.340913    21.068462    7400.7735    7061.6388    5571.1837    4491.5554   -169.49275    239.29631   -1837.3772   -2722.6342 
13335000    268.11501   -3854.5223   -3394.9824   -3854.5223            0    6254.2967    17.225273    20.289097    21.014793    7344.3602    6947.8309    5272.6038    6542.4553    665.87678     847.6716     55.14428   -2725.0849 
13336000    258.96077   -3829.8663   -3386.0164   -3829.8663            0    5407.8431    17.170903    20.225056    20.948462    7275.0338    5295.6989    5450.8235    5477.0068    1124.1076   -684.63565    661.43805   -2812.2501 
13337000    265.62033   -3854.7574   -3399.4932   -3854.7574            0    4586.2461     17.22837    20.292744    21.018571    7348.3216    5556.1679    3316.4162    4886.1542    293.73341   -362.35407    -311.6129   -2907.9956 
13338000    268.52556    -3829.286   -3369.0424    -3829.286            0    4598.9493    17.312963    20.392384    21.121775    7457.0974    4916.0344    3370.6142    5510.1993    566.40597   -743.76707    401.75748   -2868.8877 
13339000    257.02318   -3857.3027   -3416.7737   -3857.3027            0    4965.3495    17.188881    20.246231    20.970395    7297.9083    5224.4745    5123.4252     4548.149   -1287.7186   -277.31756    113.87251   -2888.2992 
13340000    266.33146   -3852.3364   -3395.8534   -3852.3364            0    7064.7791    17.182171    20.238328    20.962209    7289.3655    7479.4365    6647.5981    7067.3026    84.771902   -50.209993    1826.2458   -2644.8115 
13341000    251.12438   -3856.0556    -3425.637   -3856.0556            0    5647.2567    17.211708    20.273119    20.998244    7327.0222    6037.9316    5003.0966    5900.7418    607.87361   -878.52411   -395.65633   -2822.1876 
13342000    274.43231   -3862.3011   -3391.9335   -3862.3011            0    4592.4402    17.338909    20.422944    21.153428    7490.6738    5536.3172    5814.2143    2426.7893   -331.20721    788.59464    389.14654   -2890.2379 
13343000    256.57938   -3859.9134   -3420.1451   -3859.9134            0    3606.5898    17.358499    20.446018    21.177328    7516.0916    3279.6763     3082.954    4457.1391    270.92451    609.73718   -288.72993   -3024.8106 
13344000    262.68544   -3838.8858   -3388.6519   -3838.8858            0    6183.8666    17.198172    20.257175     20.98173     7309.749    5016.1739    7298.5222    6236.9037    858.90271    964.01599    86.139845   -2729.4196 
13345000    249.64957   -3850.2202   -3422.3294   -3850.2202            0    4734.3526    17.337587    20.421387    21.151816    7488.9606    4231.8962    5741.8021    4229.3593    490.83985    996.98136    1371.1258    -2905.249 
13346000    270.89742   -3862.8379   -3398.5289   -3862.8379            0    5318.5079     17.27333    20.345701    21.073422    7406.0018    6804.8804    5623.8161    3526.8271    72.593129    137.95019    335.89132   -2824.0826 
13347000    255.83288   -3841.9254   -3403.4366   -3841.9254            0    4413.2705    17.257178    20.326676    21.053717    7385.2456    2934.4761    5310.9666    4994.3687   -106.61466    354.91346    1215.5796   -2928.0998 
13348000    257.77706   -3888.6089   -3446.7879   -3888.6089            0    5500.9663    17.269105    20.340725    21.068268    7400.5691    6060.8308    3683.2433    6758.8248    405.32151   -599.84524    379.26418   -2853.0702 
13349000    284.14513   -3895.2346   -3408.2196   -3895.2346            0    4683.3443    17.246888    20.314556    21.041163    7372.0425    3175.4344    4959.9853     5914.613   -351.45304   -189.94499    967.20414    -2904.696 
13350000    250.39045   -3849.8191   -3420.6584   -3849.8191            0    5156.4378    17.312051     20.39131    21.120662    7455.9191      5570.42    5446.7474    4452.1459   -455.28735    8.5896923     80.96037   -2859.9632 
13351000      259.085   -3884.7425   -3440.6796   -3884.7425            0    6230.8821    17.184368    20.240916    20.964889    7292.1615    6841.5024    5628.0789    6223.0649    459.97667    798.36332   -1123.4218   -2778.0334 
13352000    268.64646   -3853.2237   -3392.7728   -3853.2237            0    3741.3904    17.369541    20.459025    21.190799    7530.4442    3212.6892    4755.2451     3256.237    1058.6923   -1210.6492    908.51996   -2981.8791 
13353000    265.01423   -3854.5459   -3400.3206   -3854.5459            0    3974.2038    17.355168    20.442096    21.173265    7511.7662    2583.8539    2995.4609    6343.2966   -1173.4187    721.29195    167.22084   -2964.9409 
13354000    262.38931   -3858.8598   -3409.1335   -3858.8598            0    5328.9462    17.299454    20.376472    21.105293    7439.6545    4349.8513    6039.4466    5597.5406    -176.7414    963.44083    1481.7936   -2830.9443 
13355000    278.56407   -3847.9874   -3370.5382   -3847.9874            0    5024.1526     17.27049    20.342357    21.069958    7402.3498    4048.1308    5475.7108    5548.6164   -107.18613    672.94444    911.99115   -2828.1523 
13356000    263.44607   -3888.4698   -3436.9323   -3888.4698            0    5789.9291    17.251459     20.31994     21.04674    7377.9058     6305.505    5053.6656    6010.6168     899.0535    40.767678    1089.3331   -2813.9406 
13357000    265.19362   -3897.3232   -3442.7904   -3897.3232            0    3077.7668    17.342606    20.427299    21.157939    7495.4664    3275.5761    1957.4621    4000.2622   -772.06614    869.34043   -248.45533   -3106.3484 
13358000    250.38095   -3844.8543     -3415.71   -3844.8543            0    5810.6045     17.33604    20.419565    21.149928    7486.9558    7257.8748    5543.9254    4630.0135   -98.962751    -303.9906    725.53963   -2781.2525 
13359000    262.44315   -3864.8236    -3415.005   -3864.8236            0    3502.1486    17.263993    20.334704    21.062032    7393.9989    2918.8395    4035.2055    3552.4007   -1055.2835    756.63136   -21.414345   -3037.3547 
13360000    270.04552   -3892.0677    -3429.219   -3892.0677            0    4427.2527    17.277819    20.350989    21.078899    7411.7771    2878.5628    6074.9298    4328.2654   -2016.1721    249.84833    233.28235   -2950.6632 
13361000    264.44741   -3863.8221   -3410.5683   -3863.8221            0    5328.1893    17.247178    20.314897    21.041517    7372.4139    3971.5491    5478.9882    6534.0305    301.66423   -435.66833    634.89618   -2837.6862 
13362000    268.36996   -3868.4009   -3408.4239   -3868.4009            0    4451.1202    17.276992    20.350015     21.07789    7410.7129     4666.902    4003.6803    4682.7782    140.86018   -255.29766   -536.93391   -2927.3574 
13363000    271.62305   -3875.6785   -3410.1258   -3875.6785            0    3843.6906    17.320356    20.401091    21.130793    7466.6536    5156.3518    3154.3081    3220.4118   -1256.8769   -116.83699    1035.7345    -2991.573 
13364000    275.46795   -3819.8687   -3347.7261   -3819.8687            0    3945.4232    17.294478     20.37061    21.099222    7433.2363    4401.4305    2648.7186    4786.1207   -1372.4781   -394.23539   -147.87092   -2920.0181 
13365000    276.50683   -3866.2475   -3392.3243   -3866.2475            0    5152.5807    17.200209    20.259574    20.984215    7312.3462    5035.1456    5571.5795     4851.017   -935.44017   -882.53766     926.6128   -2842.8373 
13366000    273.63053   -3905.7529   -3436.7596   -3905.7529            0    5368.5998    17.259713    20.329662    21.056809    7388.4998     6662.282    5474.8322    3968.6851    951.55345   -1489.5363    84.327494   -2858.2731 
13367000    251.16216   -3890.3765   -3459.8931   -3890.3765            0    4560.0667    17.235727     20.30141    21.027547    7357.7394    3663.3406    5323.3354     4693.524    445.88582   -1121.0463    671.32773   -2970.5748 
13368000    266.53119   -3886.0272   -3429.2019   -3886.0272            0    6015.2022    17.151176     20.20182    20.924394    7249.9879    6255.7372    6848.3301    4941.5394   -339.55173    5.0176876   -873.70772   -2793.1927 
13369000    265.59232    -3795.066   -3339.8498    -3795.066            0    5297.2555    17.206706    20.267226    20.992141    7320.6353    5964.7779    5545.8297     4381.159    144.32652   -658.51197   -1961.9742   -2774.2939 
13370000    257.72969   -3836.4233   -3394.6835   -3836.4233            0    4865.1606    17.304821    20.382793    21.111841    7446.5805    4857.3401    5323.4393    4414.7023    1013.6771   -781.30941   -449.23383   -2866.3234 
13371000     265.8365   -3848.5979   -3392.9632   -3848.5979            0    4243.7906    17.296999     20.37358    21.102299    7436.4883    5860.4726    3179.6821    3691.2172   -702.83912     1079.775    563.04062   -2932.7091 
13372000    279.09494   -3833.6543   -3355.2951   -3833.6543            0    4796.8839    17.224468    20.288148    21.013811    7343.3302    3643.2964    5639.7403    5107.6149    -182.8546   -81.949549    1928.4099   -2841.5731 
13373000    245.95266   -3844.5903   -3423.0358   -3844.5903            0    6684.3778    17.195096    20.253552    20.977977    7305.8272     7079.593    6922.6531    6050.8874    1486.7221    876.97827   -479.27148   -2710.8288 
13374000    262.40328   -3845.2078   -3395.4575   -3845.2078            0    7463.7909    17.233005    20.298203    21.024225    7354.2536    7592.2862    6446.8274    8352.2591    256.67805   -1084.7271    1130.0582   -2594.9343 
13375000    276.10163   -3826.7245   -3353.4958   -3826.7245            0    3923.6551    17.307002    20.385362    21.114502    7449.3966    3456.8438    4150.4485    4163.6731    1468.3604    1708.9418   -332.28452   -2927.2228 
13376000    272.12229   -3877.5889   -3411.1806   -3877.5889            0    5554.1827    17.259489    20.329398    21.056536    7388.2122    5606.2561    3593.8758    7462.4162    287.31812   -236.55431    883.07399   -2812.7202 
13377000     275.5504   -3847.6888   -3375.4048   -3847.6888            0    5967.1504    17.233753    20.299084    21.025138    7355.2115     6932.839     5745.553    5223.0591   -15.481976    972.49491   -163.78034   -2735.3193 
13378000    273.81901   -3870.2916   -3400.9752   -3870.2916            0    6403.9566    17.142779     20.19193    20.914151    7239.3455    6884.0786    4716.4579    7611.3332    123.20913   -1077.6561   -254.00237   -2724.8555 
13379000    269.49424   -3853.5756   -3391.6717   -3853.5756            0    5091.4461    17.272984    20.345294       21.073    7405.5568    5747.5874     4410.991    5115.7598    426.19072   -320.65738   -807.79616   -2841.7831 
13380000    254.86826   -3858.6777   -3421.8422   -3858.6777            0     5682.469    17.243125    20.310123    21.036572    7367.2174    5713.0787     6192.404    5141.9243    178.58842     859.9537   -1963.3522   -2811.2989 
13381000    261.05052   -3888.1679   -3440.7362   -3888.1679            0    4994.6046    17.257281    20.326798    21.053843    7385.3776    4868.6302       4885.1    5230.0837    592.72119     100.5901   -430.55259   -2902.7766 
13382000    271.90515   -3852.6392    -3386.603   -3852.6392            0     4233.189    17.311738    20.390941     21.12028    7455.5146    4034.0173    4092.5985    4572.9513    741.54203   -1200.3987    2012.6777    -2926.324 
13383000    256.84037   -3869.8647   -3429.6491   -3869.8647            0    4841.7876    17.296513    20.373007    21.101705    7435.8606    6121.9049     3842.386    4561.0718    698.77364    687.32877   -545.66737   -2904.5844 
13384000    262.60211   -3863.6781   -3413.5871   -3863.6781            0    5535.5342     17.20289    20.262732    20.987485    7315.7661    5478.0106    6188.1521    4940.4399    805.96365    577.98831    839.17415   -2822.9846 
13385000    258.54634   -3873.1237   -3429.9842   -3873.1237            0    3767.8953     17.19923    20.258421     20.98302    7311.0974    4061.9045    4373.8226    2867.9588    -138.1003    329.70745    762.06559   -3028.2329 
13386000    271.07175   -3884.2384   -3419.6307   -3884.2384            0     5574.929    17.276605    20.349558    21.077418    7410.2146    6313.0528     4540.126    5871.6082   -564.86536    1249.5179    583.38046    -2817.146 
13387000    252.52539   -3870.0764   -3437.2565   -3870.0764            0     7675.083    17.231434    20.296353    21.022309     7352.243    10007.171    5559.5683    7458.5099    190.70331   -2488.2216    257.91441   -2614.2963 
13388000    258.36607   -3852.7489   -3409.9183   -3852.7489            0    4273.9672     17.31056    20.389553    21.118843    7453.9926    6070.9261    3353.5059    3397.4695     6.322655   -430.70904   -884.25157   -2945.3003 
13389000    245.07927   -3889.3354   -3469.2779   -3889.3354            0    4922.9737    17.296633    20.373149    21.101852    7436.0156    6589.2688    3827.5642    4352.0881   -642.84356   -7.0377057   -271.66663   -2935.3978 
13390000    270.05489   -3874.9539   -3412.0891   -3874.9539            0    4757.3642    17.344849    20.429941    21.160675    7498.3745    5279.4958    3266.3091    5726.2879    1394.2114    408.78201   -240.50214   -2891.8423 
13391000    254.79531   -3873.9124    -3437.202   -3873.9124            0    7295.4504    17.209608    20.270646    20.995682     7324.341    6495.2596    7430.9792    7960.1123    340.05423    238.68976    223.96121   -2657.9165 
13392000    253.19639   -3859.4558   -3425.4858   -3859.4558            0    5842.8981    17.305932    20.384102    21.113197    7448.0159    4261.7695     6678.501    6588.4238    240.74498     321.7184    376.86844   -2790.8205 
13393000    266.99345    -3873.683   -3416.0654    -3873.683            0    7327.0972    17.237493    20.303489    21.029701    7360.0009    9061.1045    6741.4493    6178.7377   -153.58838     312.1974   -446.93593    -2629.589 
13394000    247.78925    -3836.878   -3412.1757    -3836.878            0     7281.171    17.266478    20.337631    21.065063     7397.192    6928.7719    6215.3848    8699.3563    146.49722   -1306.3362     174.9917   -2626.6796 
13395000     274.5641   -3841.0461   -3370.4526   -3841.0461            0     5606.922    17.205339    20.265617    20.990473     7318.891    6444.2206    6772.3545     3604.191    2096.6387   -529.85386    339.34646    -2771.978 
13396000    267.84109   -3874.8459   -3415.7754   -3874.8459            0    6318.8092    17.252817    20.321539    21.048396    7379.6477    6458.8192    5970.9246    6526.6839   -1152.4148   -1724.8066    1358.8302   -2735.7161 
13397000    255.86734   -3882.7057   -3444.1579   -3882.7057            0    5409.5439    17.229171    20.293688    21.019549     7349.347    5261.7425    3998.9794    6967.9099   -1142.2329    1078.3311    1068.2838   -2864.3484 
13398000    254.42661   -3880.7497   -3444.6712   -3880.7497            0    4671.1108    17.262647    20.333118    21.060389    7392.2689    4149.5893    3946.1579     5917.585     398.9376   -1327.8801   -694.99133    -2941.085 
13399000    279.51117   -3860.5697   -3381.4971   -3860.5697            0    4524.8381    17.299075    20.376025    21.104831    7439.1655    4771.9252    5863.4379    2939.1513     1491.752   -486.55006    141.29376   -2890.5856 
13400000    255.69501   -3864.4562   -3426.2037   -3864.4562            0    4578.9349    17.317321    20.397516    21.127091    7462.7292    6330.0334    3869.0067    3537.7645    310.73761   -129.46408    457.66543   -2927.8496 
13401000    268.37896   -3830.3271   -3370.3347   -3830.3271            0    4436.7706    17.269138    20.340763    21.068308    7400.6104    3589.9145    4512.4633     5207.934   -1585.9892    607.04146   -871.87851   -2891.4727 
13402000    254.34078   -3876.6817   -3440.7503   -3876.6817            0     5426.134    17.254622    20.323665    21.050598    7381.9641    5646.2441     6446.497    4185.6608   -414.25274    908.33868    1306.4645   -2856.5816 
13403000    249.47071   -3806.6452    -3379.061   -3806.6452            0    4530.1501     17.25851    20.328245    21.055342    7386.9556    5359.1985    4671.5668     3559.685    -629.3279   -439.43918    520.09721   -2891.0226 
13404000    253.53529   -3854.7195   -3420.1687   -3854.7195            0    6444.1651    17.195538    20.254073    20.978516    7306.3909    6382.6706    4906.0522    8043.7725   -1003.3438    402.48565    27.868697   -2733.5029 
13405000    261.95671   -3859.5792   -3410.5944   -3859.5792            0    5053.0161    17.322429    20.403533    21.133323    7469.3355    6230.4315    3734.1743    5194.4426   -1616.5317   -439.49122    564.84736   -2860.1562 
13406000    236.28011   -3875.7057   -3470.7297   -3875.7057            0    3083.7153    17.468056    20.575062    21.310987    7659.3037    2572.3303    3452.0956    3226.7202     212.2459   -1514.3136   -798.57327   -3126.2692 
13407000    253.13071   -3883.3063   -3449.4489   -3883.3063            0    4826.3616    17.308414    20.387026    21.116225    7451.2207    3706.0259    6411.4445    4361.6145    952.99029   -1234.9691    7.5656621   -2924.9759 
13408000    267.24974   -3919.9351   -3461.8782   -3919.9351            0    3481.4607    17.419846    20.518278    21.252171    7596.0624    1724.3907    2696.8754     6023.116    482.51452     487.1065    1072.9873   -3076.1993 
13409000    256.96459   -3876.7428   -3436.3143   -3876.7428            0    5004.3436    17.349312    20.435198    21.166121    7504.1654    4027.6854    6096.6874    4888.6581   -409.81676    393.04241   -897.26054   -2888.6361 
13410000    276.90204   -3900.9792   -3426.3786   -3900.9792            0    5632.3984    17.323111    20.404337    21.134156    7470.2182    5051.1435    6223.4093    5622.6423   -1111.9758   -342.30961    976.50583   -2812.7543 
13411000    258.69597   -3898.2685   -3454.8725   -3898.2685            0    5716.1623    17.227196    20.291362    21.017139    7346.8201    5145.6762      5282.13    6720.6808    30.503721    276.72435   -99.516227   -2842.4095 
13412000    260.80366   -3882.4468   -3435.4382   -3882.4468            0    4073.2025    17.304592    20.382523    21.111561    7446.2849    2221.2463    5934.3523    4064.0088   -1084.2759   -959.13672    142.06654    -2993.103 
13413000    263.53407   -3856.8254    -3405.137   -3856.8254            0    4563.0423     17.29424    20.370331    21.098933    7432.9301    2048.8931    5654.3944    5985.8394    102.06663    91.150846   -601.08863   -2910.4956 
13414000    260.70087   -3894.9183   -3448.0859   -3894.9183            0    3881.0327    17.303139    20.380812    21.109789    7444.4098    3516.3355    3722.4197    4404.3427   -613.73851   -1144.0996    299.53601   -3026.7258 
13415000    253.60718     -3864.76    -3430.086     -3864.76            0    5378.2857    17.296629    20.373144    21.101846    7436.0101    5101.4183     5756.522    5276.9167   -173.04688   -205.31685   -432.94425   -2846.8293 
13416000    284.28551    -3897.183   -3409.9274    -3897.183            0    5538.4726    17.205118    20.265357    20.990204    7318.6093    5610.6482    5947.0189    5057.7508    -868.6244   -1315.3411    568.71243   -2818.7818 
13417000    253.09293   -3892.7868   -3458.9942   -3892.7868            0    4092.1225    17.285042    20.359496    21.087711    7421.0762    2502.1256    3895.9754    5878.2666    282.02382   -1007.9261   -814.44568   -3016.1087 
13418000       276.66   -3873.3614   -3399.1756   -3873.3614            0    4508.8582    17.271916    20.344035    21.071697    7404.1827     3609.918    4593.0194    5323.6373    1651.5032   -1136.7033     1157.118   -2912.2983 
13419000    268.37366   -3853.7121   -3393.7288   -3853.7121            0    4930.3912    17.239122    20.305409    21.031689    7362.0884    5320.6154    3845.9055    5624.6529   -633.01628   -1166.9118     313.9582   -2864.3601 
13420000    260.05031   -3863.1059   -3417.3886   -3863.1059            0     4931.872    17.216832    20.279154    21.004495    7333.5682    5104.4106    5722.9601    3968.2453   -31.684111    1617.0321    574.07155   -2889.9122 
13421000    260.40209   -3890.0212   -3443.7009   -3890.0212            0    4340.7514    17.336874    20.420547    21.150945    7488.0364    4228.0562    5353.5522    3440.6457    1154.2245    680.03934   -463.33456   -2969.6677 
13422000    260.12677    -3892.622   -3446.7736    -3892.622            0    5746.8421    17.281821    20.355703    21.083782    7416.9292    6396.2894    5053.0802    5791.1567   -347.51251    -1258.451    938.04295   -2825.1475 
13423000    247.85275   -3865.4681   -3440.6569   -3865.4681            0    7281.5718    17.284315     20.35864    21.086824    7420.1405    8297.8179    7447.3439    6099.5537    24.464483   -689.42823    2433.6908   -2652.6806 
13424000    252.77995   -3877.0059   -3443.7497   -3877.0059            0    5861.2001    17.232967    20.298159     21.02418    7354.2058    5076.3791    7977.3624    4529.8588   -345.07769   -1385.1254      367.298   -2815.1152 
13425000    266.62447   -3880.6966   -3423.7114   -3880.6966            0    3981.4769    17.353482     20.44011    21.171208    7509.5776    5356.8081    3871.5757    2716.0468    1141.7364   -2574.5158    612.13258   -2987.6621 
13426000    259.05253   -3898.6016   -3454.5945   -3898.6016            0    6397.9091    17.195856    20.254447    20.978904    7306.7956    7338.5559    6464.7656    5390.4059   -1133.7582   -595.13177   -35.619188   -2772.8197 
13427000    283.58342   -3870.4542   -3384.4019   -3870.4542            0    5241.0307    17.226407    20.290432    21.016177    7345.8105    3844.6369    5602.3279    6276.1274   -353.96091    557.60251    -187.8943   -2822.9245 
13428000    264.88322   -3832.7916   -3378.7908   -3832.7916            0    5892.1022    17.286861    20.361639     21.08993    7423.4199    5756.6111    6862.4352    5057.2602    422.44091    194.15198      403.149   -2740.8943 
13429000    259.04475   -3857.6419    -3413.648   -3857.6419            0    3941.4994    17.343112    20.427895    21.158556    7496.1221    2542.1888    5380.2947    3902.0146   -707.21744   -50.000191   -461.25584   -2982.7505 
13430000    268.37901   -3854.5938   -3394.6013   -3854.5938            0    6570.3902    17.271962     20.34409    21.071753    7404.2421    4533.4129    7860.4749    7317.2829      953.587   -740.57075   -578.87388   -2685.1091 
13431000    274.75778    -3855.484   -3384.5586    -3855.484            0     4340.807    17.312582    20.391934    21.121309    7456.6041    3774.3387    4578.7374    4669.3449    -815.2064   -1766.5188    162.23476   -2912.5092 
13432000    273.90285   -3842.2069   -3372.7468   -3842.2069            0    4961.6369    17.370907    20.460634    21.192466    7532.2211    5720.8357    5185.4856    3978.5895     144.8117   -728.06315    421.46002   -2827.7124 
13433000    256.55869   -3849.6419   -3409.9091   -3849.6419            0    6083.4395    17.361133    20.449122    21.180542    7519.5144    7022.1185    3851.5744    7376.6257   -216.56676    -940.4278   -683.46992   -2742.7723 
13434000    268.89113   -3897.9317   -3437.0615   -3897.9317            0    4818.7878    17.303365    20.381079    21.110065    7444.7021    3220.7456    4676.9862    6558.6316    1589.1889   -233.09003   -68.372763   -2913.8696 
13435000    260.84919   -3828.9307   -3381.8442   -3828.9307            0    5295.6896    17.324655    20.406156    21.136039    7472.2158    5768.0482    5414.9753    4704.0454   -2268.5085    500.55074   -1338.5436   -2804.7485 
13436000    276.92647   -3844.7629   -3370.1204   -3844.7629            0    4945.8796    17.314653    20.394374    21.123836    7459.2808    4703.3809    4899.0556    5235.2024    63.404552   -670.54673    342.20351   -2832.0781 
13437000    263.65846   -3880.5301   -3428.6285   -3880.5301            0    5165.4311     17.28471    20.359105    21.087305    7420.6483    5441.1493    4942.4491     5112.695    1087.6308    314.59576   -737.01137   -2869.6124 
13438000    258.66932   -3810.5858   -3367.2355   -3810.5858            0    5101.9498     17.30529    20.383346    21.112413    7447.1866    2825.6058    4573.3097    7906.9339    -68.44751   -1257.3367    1025.4536   -2813.1149 
13439000    251.87946   -3848.9594   -3417.2466   -3848.9594            0    5682.7808    17.265114    20.336023    21.063398    7395.4382    3472.4692    5919.5651     7656.308   -1174.6014    108.87243    838.00094    -2804.331 
13440000    274.44858   -3825.9848   -3355.5893   -3825.9848            0     4793.958    17.317045    20.397192    21.126755    7462.3734    5517.5457    3708.1049    5156.2234   -1284.5616   -1853.8719    140.20634   -2833.8577 
13441000    266.33753   -3844.9152   -3388.4218   -3844.9152            0    5745.9393    17.240193     20.30667    21.032995    7363.4605    6697.7609    5639.0076    4901.0495    734.80822    349.79656     134.2668   -2771.3739 
13442000    266.59793   -3861.7229   -3404.7832   -3861.7229            0     3915.837    17.242207    20.309042    21.035452    7366.0412    4586.3249    5578.8407    1582.3454   -9.3417379    1235.4912    934.30479   -2984.1199 
13443000    260.19897   -3836.0938   -3390.1216   -3836.0938            0    5199.9409    17.286987    20.361787    21.090083    7423.5816    5106.5476    3181.6893    7311.5859   -310.99226    800.70414    659.40065   -2827.1483 
13444000    266.11259   -3821.2398   -3365.1319   -3821.2398            0    6140.5273    17.173069    20.227607    20.951104    7277.7868    5570.3714    5553.7349    7297.4757   -1308.3604    1472.6068   -1394.0469   -2713.3822 
13445000    264.81886    -3861.739   -3407.8485    -3861.739            0     7119.906    17.117506    20.162161    20.883318    7207.3742    6444.0743    7595.8626    7319.7812    954.84843   -393.91574   -658.79645   -2659.4598 
13446000    269.18673   -3859.6458   -3398.2689   -3859.6458            0    3777.2972    17.225525    20.289393    21.015101    7344.6822    4506.6492    2422.2928    4402.9496    156.57657   -1113.4471   -1363.4375    -2993.665 
13447000    265.82096   -3843.1432   -3387.5351   -3843.1432            0    5123.4879    17.248107    20.315992     21.04265    7373.6057    6349.5646    4903.5004    4117.3987    -1543.841   -18.477136   -628.44611   -2836.5733 
13448000    259.24694   -3823.0142   -3378.6738   -3823.0142            0    4246.9836    17.186476    20.243399    20.967461    7294.8455    4930.5366    3045.5638    4764.8503   -267.29038   -901.88915     115.5774   -2926.8464 
13449000    264.15202   -3817.7144   -3364.9669   -3817.7144            0    6507.2765     17.26818    20.339635    21.067139    7399.3794    5899.0118    6370.0997     7252.718   -947.32847    209.79536    673.69931   -2662.7513 
13450000    263.30251   -3852.8893   -3401.5978   -3852.8893            0     4336.781    17.297898    20.374639    21.103395    7437.6472    5581.6064     4465.432    2963.3045    473.77267   -1381.4078    813.35301   -2931.1852 
13451000    262.13157    -3831.061   -3381.7764    -3831.061            0    6533.4317    17.241026    20.307651    21.034011    7364.5279    5131.7402    8295.7913    6172.7636    -574.6687   -1035.7188    30.769268   -2680.0592 
13452000    271.70829   -3853.0047    -3387.306   -3853.0047            0    5120.7185    17.352663    20.439145    21.170209    7508.5142    4086.0339    6144.7988    5131.3229   -643.32957    675.67029    681.54258   -2826.5669 
13453000    255.66444   -3859.8658   -3421.6657   -3859.8658            0    3778.3853    17.226623    20.290686     21.01644    7346.0862    5115.6954    2467.5165    3751.9441   -733.45606   -216.62909    1314.2193   -3016.8679 
13454000    261.48793   -3841.7048   -3393.5234   -3841.7048            0    4920.4091    17.163202    20.215985    20.939066    7265.2495    4730.1741    6237.9692    3793.0842   -894.46189   -304.73551   -178.35848   -2872.1755 
13455000    250.63061   -3861.9062   -3432.3339   -3861.9062            0    3175.0198    17.244002    20.311156    21.037642     7368.342     2179.913    3112.0907    4233.0555    853.68063    276.04766   -552.52312   -3091.1472 
13456000    255.49054   -3857.0643   -3419.1623   -3857.0643            0    5516.3975    17.228781    20.293228    21.019072    7348.8472     5510.762    6312.5215    4725.9089    750.97247   -10.432755    731.47308   -2827.9402 
13457000      259.421   -3878.4582   -3433.8195   -3878.4582            0    2774.9787    17.354075    20.440808    21.171931    7510.3465    2096.3868    2608.7663    3619.7831    727.88489    264.78241    648.80697   -3129.8741 
13458000     271.5331   -3870.3809   -3404.9825   -3870.3809            0    5987.8407    17.270057    20.341846    21.069429    7401.7924    5970.0848     5975.856    6017.5813   -103.49106   -554.70869   -615.55924   -2758.6098 
13459000    268.27768   -3879.1897   -3419.3709   -3879.1897            0    3800.0456    17.268544    20.340064    21.067584    7399.8477    4637.3698    3896.6829    2866.0842   -992.34517    848.88476    356.16879   -3009.2731 
13460000    279.52116   -3866.2081   -3387.1183   -3866.2081            0    5140.0316    17.285721    20.360296    21.088539    7421.9509    6660.3278    3197.8597    5561.9073   -552.50654   -290.60375    729.38729   -2830.7534 
13461000    258.49611   -3835.9701   -3392.9167   -3835.9701            0    4858.9095     17.19957    20.258821    20.983435    7311.5312    5202.7682      4525.76    4848.2004   -1010.0091   -17.745413    203.56953   -2874.8054 
13462000    265.11617    -3860.508   -3406.1079    -3860.508            0     4922.629    17.233437    20.298712    21.024752    7354.8067    6015.3348    4003.7997    4748.7524    538.91381   -341.17986    559.56646   -2878.0954 
13463000    268.49011   -3844.9594   -3384.7766   -3844.9594            0    2970.8331    17.330512    20.413054    21.143184    7479.7966     4025.419    2878.0538    2009.0266   -531.56042    842.62768    -182.6044   -3060.7028 
13464000    255.13942   -3834.5337   -3397.2335   -3834.5337            0    5610.7546    17.259122    20.328967    21.056089     7387.742    6076.5674    4943.1099    5812.5864    506.74912   -786.68988    313.55247    -2792.716 
13465000    255.40184   -3910.8406   -3473.0905   -3910.8406            0     6576.557    17.247766     20.31559    21.042234    7373.1677     6353.042    5661.7951     7714.834   -833.84444     -1487.35    2271.8125   -2765.9128 
13466000     249.0645   -3854.3991   -3427.5111   -3854.3991            0    5253.8609    17.289959    20.365288     21.09371    7427.4116    5161.6324    6788.9754    3810.9749    -537.0349     2305.368    353.07826   -2858.4067 
13467000    260.36226     -3865.98    -3419.728     -3865.98            0    4694.1004    17.399228    20.493993    21.227018    7569.1229    4113.2708    4775.3537    5193.6768   -621.96233    912.42819    1597.9068   -2901.5562 
13468000    269.17487   -3826.1815    -3364.825   -3826.1815            0    6494.1435    17.273128    20.345463    21.073176    7405.7416    6116.8268    4910.9509    8454.6528    1383.6039    1794.4069    734.88603   -2663.4241 
13469000    267.50572   -3825.3384   -3366.8427   -3825.3384            0    4957.8049    17.300663    20.377896    21.106769     7441.215    4601.2709    4877.5705    5394.5732   -3154.5256    440.25685   -201.30807   -2828.8094 
13470000    264.66364   -3903.9662   -3450.3418   -3903.9662            0    6049.1574    17.242017    20.308819    21.035221    7365.7985    6699.1162    6004.7523    5443.6037   -1420.8822     299.1549    600.51729   -2800.5255 
13471000    261.09871   -3876.1015   -3428.5873   -3876.1015            0    4885.5808    17.328189    20.410318    21.140351    7476.7894     1824.747    7546.2235     5285.772   -1253.2759    -205.4296    686.57986   -2895.8572 
13472000    255.12034   -3876.0666    -3438.799   -3876.0666            0    4802.7759    17.304761    20.382723    21.111768    7446.5035    6595.3455    4896.8001    2916.1822   -423.77639    1038.0681    87.880383   -2917.2194 
13473000     252.6432   -3847.6407   -3414.6189   -3847.6407            0     6211.957    17.212456    20.273999    20.999156    7327.9768    5049.3718    7898.5987    5687.9006    534.42402   -222.80289    1061.0656   -2750.7407 
13474000    252.42547   -3834.6877   -3402.0391   -3834.6877            0    6559.8816    17.235474    20.301112    21.027238    7357.4154    5068.0758     7126.803    7484.7659   -419.81208   -1289.5341    1151.8984   -2698.1614 
13475000    267.48604   -3881.1413   -3422.6794   -3881.1413            0    8460.0211    17.142206    20.191255    20.913452    7238.6195    7169.8068    10294.707    7915.5498   -334.25269    1204.8386     247.6174   -2529.5732 
13476000    268.47696   -3867.3184   -3407.1581   -3867.3184            0    3595.5009    17.253613    20.322477    21.049367     7380.669     3567.291    3882.0766    3337.1352   -939.29128    175.84367    2039.7409   -3020.1402 
13477000    272.88005   -3840.4583   -3372.7512   -3840.4583            0    6385.2029    17.159576    20.211714    20.934643    7260.6462    7917.8251    3684.0219    7553.7618   -377.15023   -146.98032    2753.8327    -2696.628 
13478000    267.39334   -3840.8481    -3382.545   -3840.8481            0     4519.096    17.194563    20.252924    20.977327    7305.1481    5088.9601    3149.8277    5318.5002    1074.9701    1913.1054     -23.8862   -2901.0892 
13479000    268.69569   -3876.1512    -3415.616   -3876.1512            0    4063.3911    17.200047    20.259383    20.984017    7312.1394    4207.6923     3553.076    4429.4051    131.28939   -303.13086    24.616194   -2982.2958 
13480000    263.08555   -3803.0175   -3352.0979   -3803.0175            0    5244.4911    17.203957    20.263989    20.988787    7317.1275    5796.2893    6591.1839         3346   -583.21794   -94.792087   -1161.4997   -2792.4435 
13481000    255.55197   -3825.1086   -3387.1013   -3825.1086            0    7576.5821    17.171847    20.226168    20.949613    7276.2335    8170.8666    7713.8043    6845.0754    327.27182   -774.18474    1360.4376   -2583.1017 
13482000    258.62536   -3830.5152   -3387.2401   -3830.5152            0    5353.4173    17.195612    20.254159    20.978606    7306.4845    4305.2473    4804.6917    6950.3128   -1183.6336     508.2456   -1043.3726    -2816.793 
13483000    253.78103   -3831.2699   -3396.2979   -3831.2699            0    5841.9498    17.208582    20.269436    20.994429    7323.0301    4175.4624     6937.507      6412.88    200.73064    517.32974    -1044.668   -2772.3842 
13484000    264.91154   -3819.7822   -3365.7329   -3819.7822            0    4221.6074    17.242452    20.309331    21.035751    7366.3552    1701.3569    4385.4688    6577.9963   -1433.5863   -55.064415    1682.8604   -2912.2025 
13485000    252.10716   -3863.7477   -3431.6446   -3863.7477            0    5812.8303    17.209242    20.270214    20.995235    7323.8728    6808.8185    5949.8547    4679.8175    40.309451   -961.83325    305.79874   -2810.7694 
13486000    261.16735   -3875.7255   -3428.0936   -3875.7255            0    2495.1107    17.294432    20.370557    21.099167    7433.1777    2709.5316    2319.8024     2455.998     380.3836   -1008.1154   -1604.3759   -3157.6104 
13487000    262.06584   -3875.8232   -3426.6513   -3875.8232            0    6442.7724    17.206392    20.266857    20.991758    7320.2346    4908.8951    5296.9999    9122.4221    518.97157     1037.534    -692.9241   -2738.8331 
13488000     269.6642   -3870.8254   -3408.6302   -3870.8254            0    5726.7366     17.27054    20.342415    21.070018    7402.4133    6263.6796    6598.2717    4318.2584   -61.302421   -796.58407    107.81162   -2790.3912 
13489000    265.85788   -3879.3782   -3423.7069   -3879.3782            0    4706.1226    17.280272    20.353878    21.081892    7414.9345    6489.9287    4005.4096    3623.0296   -862.71786    840.33608   -661.68015   -2914.7905 
13490000    257.33372   -3844.4136   -3403.3524   -3844.4136            0    5118.0985    17.303995    20.381821    21.110834    7445.5152    4386.7602    4330.6517    6636.8835    408.79358   -545.11818   -660.46477   -2847.6027 
13491000    250.10627   -3858.0205   -3429.3469   -3858.0205            0    4586.5299    17.263592    20.334232    21.061542    7393.4836     4633.056    5161.4809    3965.0528   -901.07606   -538.77731    479.59082    -2934.798 
13492000    257.59895   -3833.9693   -3392.4535   -3833.9693            0    6476.8521    17.326726    20.408594    21.138565    7474.8947     7633.899    6232.6625    5563.9947   -1001.8607   -177.25351    587.37551   -2686.3881 
13493000    266.91937   -3816.8968   -3359.4062   -3816.8968            0     4379.328    17.245041    20.312381     21.03891    7369.6744    2777.6714    4523.3798    5836.9328    307.93294     2044.718   -728.64623   -2888.7197 
13494000    265.12959    -3860.919    -3406.496    -3860.919            0    5690.0772    17.312012    20.391264    21.120615    7455.8687    6038.9182    5839.3045     5192.009     641.3908    756.89282   -172.53645   -2787.7786 
13495000    276.53038   -3872.9191   -3398.9554   -3872.9191            0    5754.2093    17.263235    20.333811    21.061106    7393.0243    6165.1185     7127.503    3970.0064   -318.54094   -1066.6851    1140.0415   -2778.5385 
13496000    253.17587   -3850.8613   -3416.9265   -3850.8613            0    3146.1579    17.390139    20.483286    21.215928    7557.2662    3779.2579    2912.7762    2746.4395   -444.64419    1089.8672   -54.922179   -3070.1728 
13497000    256.40322   -3859.3867   -3419.9203   -3859.3867            0    4809.7275    17.257486    20.327039    21.054093    7385.6411    4580.9478    4311.7313    5536.5034   -139.00347   -944.68689    977.60882    -2901.855 
13498000    268.07173   -3859.2932   -3399.8275   -3859.2932            0    5113.3825    17.337637    20.421447    21.151877    7489.0261    6329.0317    3263.1047    5748.0109     -206.538    115.06419    376.94897    -2841.345 
13499000      254.712   -3874.0803   -3437.5127   -3874.0803            0    3898.9095    17.250228     20.31849    21.045238    7376.3261    4550.2159    3259.5157    3886.9971     59.74009   -871.37732   -611.25421    -3018.083 
13500000    269.44172   -3838.4991   -3376.6853   -3838.4991            0     4959.654    17.230409    20.295146    21.021059    7350.9309    7479.6812    3140.5792    4258.7015    312.32719   -352.72407    236.67762   -2844.9816 
Loop time of 354.253 on 64 procs for 250000 steps with 864 atoms

Performance: 121.947 ns/day, 0.197 hours/ns, 705.711 timesteps/s
191.8% CPU use with 32 MPI tasks x 2 OpenMP threads

MPI task timing breakdown:
Section |  min time  |  avg time  |  max time  |%varavg| %total
---------------------------------------------------------------
Pair    | 24.314     | 31.645     | 36.726     |  57.5 |  8.93
Bond    | 0.89999    | 1.1198     | 1.7101     |  14.2 |  0.32
Kspace  | 156.06     | 164.4      | 174.58     |  33.1 | 46.41
Neigh   | 3.4528     | 4.0389     | 4.3615     |  13.2 |  1.14
Comm    | 69.037     | 72.735     | 78.804     |  30.4 | 20.53
Output  | 0.67226    | 0.67257    | 0.67423    |   0.0 |  0.19
Modify  | 65.711     | 67.738     | 71.48      |  16.3 | 19.12
Other   |            | 11.9       |            |       |  3.36

Nlocal:        27.0000 ave          34 max          21 min
Histogram: 3 2 3 5 4 3 7 4 0 1
Nghost:        2529.06 ave        2561 max        2490 min
Histogram: 1 2 2 4 5 7 2 1 4 4
Neighs:        8393.25 ave       11292 max        6033 min
Histogram: 5 2 2 5 6 2 3 5 1 1

Total # of neighbors = 268584
Ave neighs/atom = 310.86111
Ave special neighs/atom = 2.0000000
Neighbor list builds = 14375
Dangerous builds = 0

unfix		3
unfix		2
unfix		1

write_data	data.final.${pid}
write_data	data.final.1
System init for write_data ...
PPPM initialization ...
  extracting TIP4P info from pair style
  using 12-bit tables for long-range coulomb (../kspace.cpp:340)
  G vector (1/distance) = 0.37459092
  grid = 24 24 25
  stencil order = 5
  estimated absolute RMS force accuracy = 0.00303556
  estimated relative force accuracy = 9.1414988e-06
  using double precision FFTW3
  3d grid and FFT values/proc = 3822 576
Last active /omp style is kspace_style pppm/tip4p/omp
WARNING: Not all mixed pair coeffs generated from mixing. Use write_data with 'pair ij' option to store all pair coeffs. (../write_data.cpp:312)

write_restart   restart.lmp.${pid}
write_restart   restart.lmp.1
System init for write_restart ...
PPPM initialization ...
  extracting TIP4P info from pair style
  using 12-bit tables for long-range coulomb (../kspace.cpp:340)
  G vector (1/distance) = 0.37459092
  grid = 24 24 25
  stencil order = 5
  estimated absolute RMS force accuracy = 0.00303556
  estimated relative force accuracy = 9.1414988e-06
  using double precision FFTW3
  3d grid and FFT values/proc = 3822 576
Last active /omp style is kspace_style pppm/tip4p/omp
Total wall time: 0:05:54
