LAMMPS (30 Jul 2021)
Processor partition = 0
  using 2 OpenMP thread(s) per MPI task
using multi-threaded neighbor list subroutines
variable        pid world 0 1
variable        phase world IceIII Liquid

shell cd ${phase}
shell cd IceIII
include Restart.lmp
echo both
log log.lammps
#include		in.partitions
include		in.temp
variable        temperature equal 264.09
variable	tempDamp equal 100.0
include		in.pressure
variable        pressure equal 5625.0
variable        pressureDamp equal 1000.0 # This is 1 ps
include		in.seed
variable        seed equal 745823

units		real
atom_style	full

read_restart	restart.lmp.${pid}
read_restart	restart.lmp.0
Reading restart file ...
  restart file = 30 Jul 2021, LAMMPS = 30 Jul 2021
  restoring atom style full from restart
  orthogonal box = (-0.045026883 0.0021497316 0.021315185) to (20.045028 19.997851 20.678683)
  4 by 2 by 4 MPI processor grid
  restoring pair style lj/cut/tip4p/long/omp from restart
  restoring bond style harmonic/omp from restart
  restoring angle style harmonic/omp from restart
  972 atoms
  648 bonds
  324 angles
Finding 1-2 1-3 1-4 neighbors ...
  special bond factors lj:    0        0        0       
  special bond factors coul:  0        0        0       
     2 = max # of 1-2 neighbors
     1 = max # of 1-3 neighbors
     1 = max # of 1-4 neighbors
     2 = max # of special neighbors
  special bonds CPU = 0.002 seconds
  read_restart CPU = 0.008 seconds
include 	in.setup
variable	out_freq equal 1000
variable	out_freq2 equal 10000
variable	out_freq3 equal 1000

timestep	2.0

neigh_modify    delay 7 every 1

include		in.tip4p
# This is TIP4P/Ice

# create groups ###
group ox type 2
324 atoms in group ox
group hy type 1
648 atoms in group hy

# set charges - beside manually ###
set group ox charge -1.1794
Setting atom values ...
  324 settings made for charge
set group hy charge 0.5897
Setting atom values ...
  648 settings made for charge

# ### TIP3P Potential Parameters ###
pair_style lj/cut/tip4p/long/omp 2 1 1 1 0.1577 8.5
pair_coeff 1 1*2 0.000 0.000
pair_coeff 2 2 0.21084 3.1668
bond_style  harmonic
bond_coeff  1 450 0.9572
angle_style harmonic
angle_coeff 1 55 104.52
kspace_style pppm/tip4p/omp 1.0e-5
pair_modify tail yes

thermo          ${out_freq}
thermo          1000
thermo_style    custom step temp pe etotal epair emol press lx ly lz vol pxx pyy pzz pxy pxz pyz enthalpy

restart 	${out_freq3} restart.lmp.${pid} restart2.lmp.${pid}
restart 	1000 restart.lmp.${pid} restart2.lmp.${pid}
restart 	1000 restart.lmp.0 restart2.lmp.${pid}
restart 	1000 restart.lmp.0 restart2.lmp.0


include         in.dump
dump            myDump all atom ${out_freq2} dump.water.${pid}
dump            myDump all atom 10000 dump.water.${pid}
dump            myDump all atom 10000 dump.water.0
dump            myDump2 all dcd ${out_freq2} dump.dcd
dump            myDump2 all dcd 10000 dump.dcd
dump_modify     myDump append yes
dump_modify     myDump2 append yes


variable natoms 	equal  "count(all)"                        # NUMBER ATOMS
variable H      	equal  "enthalpy/v_natoms"                 # ENTHALPY-per-atom
variable Vol      	equal  "vol/v_natoms"                 # volume-per-atom
fix AVG all 		ave/time ${out_freq} 1 ${out_freq} v_Vol v_H file vol_enthalpy.dat
fix AVG all 		ave/time 1000 1 ${out_freq} v_Vol v_H file vol_enthalpy.dat
fix AVG all 		ave/time 1000 1 1000 v_Vol v_H file vol_enthalpy.dat


timer           timeout 02:55:00 every 1000
New timer settings: style=normal  mode=nosync  timeout=02:55:00

fix 		1 all shake 1e-6 200 0 b 1 a 1
Finding SHAKE clusters ...
       0 = # of size 2 clusters
       0 = # of size 3 clusters
       0 = # of size 4 clusters
     324 = # of frozen angles
  find clusters CPU = 0.001 seconds
fix             2 all nph aniso ${pressure} ${pressure} ${pressureDamp}
fix             2 all nph aniso 5625 ${pressure} ${pressureDamp}
fix             2 all nph aniso 5625 5625 ${pressureDamp}
fix             2 all nph aniso 5625 5625 1000
fix             3 all temp/csvr ${temperature} ${temperature} ${tempDamp} ${seed}
fix             3 all temp/csvr 264.09 ${temperature} ${tempDamp} ${seed}
fix             3 all temp/csvr 264.09 264.09 ${tempDamp} ${seed}
fix             3 all temp/csvr 264.09 264.09 100 ${seed}
fix             3 all temp/csvr 264.09 264.09 100 745823


run             250000
PPPM initialization ...
  extracting TIP4P info from pair style
  using 12-bit tables for long-range coulomb (../kspace.cpp:340)
  G vector (1/distance) = 0.37129225
  grid = 24 24 24
  stencil order = 5
  estimated absolute RMS force accuracy = 0.0036224508
  estimated relative force accuracy = 1.0908903e-05
  using double precision FFTW3
  3d grid and FFT values/proc = 3211 432
Last active /omp style is kspace_style pppm/tip4p/omp
Neighbor list info ...
  update every 1 steps, delay 7 steps, check yes
  max neighbors/atom: 2000, page size: 100000
  master list distance cutoff = 10.8154
  ghost atom cutoff = 10.8154
  binsize = 5.4077, bins = 4 4 4
  1 neighbor lists, perpetual/occasional/extra = 1 0 0
  (1) pair lj/cut/tip4p/long/omp, perpetual
      attributes: half, newton on, omp
      pair build: half/bin/newton/omp
      stencil: half/bin/3d
      bin: standard
Setting up Verlet run ...
  Unit style    : real
  Current step  : 14750000
  Time step     : 2
  Walltime left : 2:54:59.93
Per MPI rank memory allocation (min/avg/max) = 10.18 | 10.18 | 10.19 Mbytes
Step Temp PotEng TotEng E_pair E_mol Press Lx Ly Lz Volume Pxx Pyy Pzz Pxy Pxz Pyz Enthalpy 
14750000    261.04283   -4646.7702   -4143.3272   -4646.7702            0    5439.4373    20.090055    19.995702    20.657368     8298.369    6109.8109    5746.1413    4462.3598   -454.04846   -803.98979   -969.51721   -3485.0291 
14751000    252.84138   -4682.0523   -4194.4265   -4682.0523            0    4959.2606    19.982814    20.051676    20.761736    8318.9974    3770.5463    5308.2011    5799.0345   -342.51673    637.82779    330.34694   -3592.7489 
14752000    269.45774   -4688.5913   -4168.9194   -4688.5913            0    6372.3773    20.114062    19.977321    20.300342    8157.1866    6055.8389    6147.6922    6913.6008   -31.384076    1944.1281    544.08033   -3410.8346 
14753000    266.98589   -4698.8906   -4183.9859   -4698.8906            0    6000.4216    20.089536     19.86502    20.599258    8220.7324    6429.8862     6193.905    5377.4736   -104.52769   -672.95046   -1037.5895   -3464.5897 
14754000    257.96007    -4730.371   -4232.8733    -4730.371            0    4886.2523     19.93762    19.982181    20.862055    8311.3832    3644.0554    6329.7629    4684.9385    193.16064     1319.879    385.70573    -3640.596 
14755000    268.03731    -4699.636   -4182.7035    -4699.636            0    3593.9591    20.120472    20.064922    20.711456    8361.5402    3132.5109    4011.8955    3637.4709   -273.01395   -367.62508   -1449.2793     -3744.44 
14756000      266.862   -4684.1954   -4169.5296   -4684.1954            0    4423.4508    20.104495    20.062767    20.632805    8322.2792    5245.9305    3743.1805    4281.2414   -260.59104    958.43972    477.55807    -3632.647 
14757000    273.06148   -4709.6185   -4182.9964   -4709.6185            0    5993.8438    20.013618    20.294168    20.341113    8261.7404    6857.3427    3308.1025    7816.0863   -49.504503    917.52956    1887.3816   -3460.8041 
14758000    273.28555   -4706.0409   -4178.9867   -4706.0409            0    6253.6572    20.229783    19.814748    20.657941    8280.6956    4813.7506    8555.0125    5392.2087    163.72994   -202.22815    173.52542   -3423.7609 
14759000    276.34462   -4687.3601   -4154.4062   -4687.3601            0    5907.8126    19.831797    19.951003    20.984509    8302.8195    5333.7094    7979.3532    4410.3751    23.614478     469.6016    -697.9844   -3439.0404 
14760000    272.80025   -4688.7543   -4162.6361   -4688.7543            0    6101.3471    19.967405    20.077601    20.499125    8218.0499    6869.0917    5181.6203    6253.3294    462.35681    1368.4646   -289.00469   -3431.3785 
14761000    279.75658   -4724.9094   -4185.3753   -4724.9094            0     6380.106    20.034533    19.953927    20.657645     8258.257    4419.2874    8211.1023    6509.9282    -781.9132    143.28247   -478.56728   -3416.9667 
14762000    262.24033   -4637.0302   -4131.2776   -4637.0302            0    4501.5448    20.023009    19.917236    20.840617    8311.3006    4467.8614    4155.9162    4880.8569    513.41537   -88.290985    936.89471   -3585.6373 
14763000    289.27126   -4704.4019   -4146.5179   -4704.4019            0    5653.3597    19.970925    20.182516    20.561953     8287.773    4418.7902    5947.7277    6593.5612   -331.25079    990.34345    922.54208   -3463.2038 
14764000    271.05285   -4712.3472   -4189.5989   -4712.3472            0    8388.8881    19.999544    19.959749    20.542443     8200.253    7905.4929    10219.538    7041.6335   -331.73609   -1169.4002    388.11715   -3186.3527 
14765000    268.50078    -4701.543   -4183.7166    -4701.543            0    5861.2544    20.151216    19.718639    20.799118    8264.6243    5061.9176    7376.2659    5145.5798    286.16226   -540.61817   -91.197738   -3477.2534 
14766000    264.40893   -4694.4784   -4184.5435   -4694.4784            0    5063.8585    19.861353    20.036274    20.877487    8308.1443    6720.5297    5556.3768     2914.669    193.12318   -129.77016    1511.5145   -3570.9773 
14767000    262.09134   -4694.7904   -4189.3252   -4694.7904            0    5459.3689    20.154436    20.073377    20.572363    8322.9115    4975.2567    5251.6093    6151.2408    26.344621    185.95483    1292.3427   -3526.6609 
14768000    261.85629    -4709.239   -4204.2272    -4709.239            0    6671.9103    20.059555    19.917046    20.552994    8211.4778    7371.0171    5414.3205    7230.3933   -310.08834    517.00554    523.00328    -3405.226 
14769000    263.44707   -4696.7725   -4188.6927   -4696.7725            0    6730.9248    19.752302    20.106181    20.760399    8244.8544    9610.0734    4141.6222    6441.0787   -355.29484    348.71177    370.73567   -3379.3478 
14770000    254.25954   -4680.0302   -4189.6693   -4680.0302            0    5516.6724    20.249681    19.890533    20.620183    8305.3343    4340.5631    6512.3545    5697.0996    63.930119    437.12454    7.9873086   -3521.4635 
14771000    259.35248   -4706.1441    -4205.961   -4706.1441            0    7437.8721    20.152243    20.012228    20.476926    8258.1656    6707.3293    7496.8837    8109.4034    -8.711624    43.734557    727.41062   -3310.1669 
14772000     269.4472    -4705.796   -4186.1444    -4705.796            0    4233.3536     20.17287    20.017069    20.710527    8362.9467    3235.0703    4830.5998    4634.3906   -244.27458   -311.77685    344.85261   -3669.8234 
14773000    268.13177   -4721.5626   -4204.4479   -4721.5626            0    7070.2828    19.753934    20.013175    20.805528     8225.235    7971.9832    7919.8958    5318.9694   -123.26916   -145.41011   -263.64185   -3356.3207 
14774000    281.67371   -4679.7644   -4136.5329   -4679.7644            0    5219.9288    20.134212    19.883627    20.805267    8329.2045    7186.4952    2374.5881     6098.703   -505.19084   -729.28236    1007.6844    -3502.453 
14775000    275.94305   -4676.4325   -4144.2531   -4676.4325            0    6432.4663    20.070683    19.958892    20.575945    8242.4887    5821.6108    7447.7377    6028.0504   -164.40523   -1749.2759   -598.46737   -3371.0177 
14776000    267.55852   -4659.6633   -4143.6542   -4659.6633            0    5942.1479    20.046548    20.114019    20.505695    8268.2378    5291.2824    6460.3717    6074.7897    575.62675    616.91863   -1543.6774   -3427.1277 
14777000    273.38964   -4670.8578   -4143.6029   -4670.8578            0    6493.9487    20.143422    19.958587    20.657793    8305.1402    7980.3886    5952.7401    5548.7172   -367.35469   -374.06344   -425.21324   -3357.0431 
14778000    264.61906   -4704.3971   -4194.0569   -4704.3971            0    5430.5877    20.170227    19.889164    20.761778    8328.9812    4402.0776    6299.0519    5590.6336    -81.99203    624.62175    2304.6661   -3534.4054 
14779000    283.09167    -4723.413   -4177.4469    -4723.413            0    5629.4557    19.933344    19.990061    20.785252    8282.2739    6958.5969    5105.3585    4824.4116    80.908549    32.302709   -1150.6767   -3497.4735 
14780000    281.61778   -4700.8308   -4157.7073   -4700.8308            0    5998.6992    20.154546    19.856338    20.690282    8280.1575    4106.5773    6903.0535    6986.4668    512.83049    410.73211   -518.04677   -3433.3187 
14781000    271.61345    -4672.422   -4148.5927    -4672.422            0    7371.4597    19.931322    20.155911    20.493407    8232.8973    8693.2797    6103.3784     7317.721    71.235864    68.372643   -799.18652   -3263.5136 
14782000    265.71926   -4679.1288   -4166.6669   -4679.1288            0    6078.0564    20.151299     19.79571    20.833634    8310.7298    8247.1591    4454.9213    5532.0888    323.69071    1010.7708    645.69912   -3429.9854 
14783000    271.92982   -4690.1612   -4165.7217   -4690.1612            0    6528.3822    19.930317    20.139877    20.504188    8230.2608    6538.4343    6664.0925    6382.6197   -18.361263    353.40249   -548.92961   -3382.1206 
14784000     261.6422   -4700.5818   -4195.9828   -4700.5818            0    6281.4368    20.107635    19.851491    20.546655     8201.537    4633.9592    7186.6933     7023.658   -285.28559   -450.48732   -532.07844   -3444.6539 
14785000    240.81807   -4706.0293   -4241.5914   -4706.0293            0    4018.2852    19.918527    20.129793    20.905203    8382.0625    6567.1213    2040.5271    3447.2071   -156.74076    707.75024    -387.0399    -3750.381 
14786000    271.05047   -4733.5113   -4210.7677   -4733.5113            0      6266.62    19.971389     19.84496    20.671449    8192.7444    5136.7026    6966.7473    6696.4102   -137.85303    580.03615    894.31549   -3462.0145 
14787000    266.84789   -4700.3633   -4185.7247   -4700.3633            0    6021.0592    20.250659    19.915757    20.403819    8229.0073    6345.5575    4420.5599    7297.0603    143.25354    58.178532    284.05048   -3463.1276 
14788000     262.7291   -4668.2563   -4161.5611   -4668.2563            0    4995.4357     19.97395    20.004731    20.737042    8285.9725     4500.819    5296.9088    5188.5793    73.634571    1046.3601    206.43578   -3557.9006 
14789000    251.99161   -4684.8069   -4198.8199   -4684.8069            0    7675.7504    20.160958    19.890107    20.471364    8209.0913    7190.6552    7693.1204    8143.4758   -689.94358    434.31911    484.18356     -3279.87 
14790000    260.27806    -4693.012   -4191.0439    -4693.012            0    6066.9919     19.99473    20.191307    20.489926    8272.1877    4843.9247    7101.9249    6255.1262    95.553593    946.11627    507.54236   -3459.1137 
14791000    264.98097   -4685.1259   -4174.0878   -4685.1259            0    6495.4117    20.004332    19.975292    20.516498    8198.2363    6285.4739    6598.3344    6602.4268    656.87034   -329.80405    700.48496   -3397.4778 
14792000     263.7462   -4707.0191   -4198.3624   -4707.0191            0    4488.5692    19.965009    20.016048    20.772363    8301.0641       4459.7     4389.881    4616.1268    856.82271    438.15494    379.48808    -3654.965 
14793000    270.19405   -4680.7065   -4159.6145   -4680.7065            0    4512.7798    19.881322    19.839499     21.02273    8292.1103    6849.7893    3209.8037    3478.7464   -452.37857    1762.5781    710.30036   -3613.8754 
14794000    264.47684   -4718.8595   -4208.7937   -4718.8595            0    7020.7259    20.044688    19.920636    20.451751     8166.444    6894.7251    7039.9094    7127.5434    727.57507   -974.98445   -389.05176   -3372.6308 
14795000    254.49203    -4716.952   -4226.1428    -4716.952            0    3909.6845    20.161299    20.089349    20.571097    8331.8573     3923.285    3625.5282    4180.2404    121.87862    595.46967   -627.14483   -3751.0708 
14796000    262.78441   -4711.7326   -4204.9307   -4711.7326            0    4863.7612    19.965069    19.862624    20.953657    8309.3541    4836.3018    5445.1871    4309.7948   -155.28067    561.36058    1424.1161   -3615.5236 
14797000    269.51468   -4706.5879   -4186.8062   -4706.5879            0    6441.1045    19.880227    19.991084    20.858087    8289.5731     6168.016    7600.8771    5554.4204    415.08339   -846.40819   -604.91189   -3408.1094 
14798000    259.89288   -4718.7647   -4217.5394   -4718.7647            0    4081.6203    20.028643    19.899852    20.778484    8281.6185    5703.1855    2228.2314    4313.4438    240.49338    185.31952    1229.1187   -3724.5657 
14799000     266.3375   -4678.7015   -4165.0472   -4678.7015            0    6074.2785    19.870509    20.156184    20.481268     8203.027    6667.2326    6044.1549     5511.448   -1099.9145    839.63691   -650.17594   -3438.3646 
14800000    261.22832   -4715.1516   -4211.3509   -4715.1516            0    3256.8207    20.201521    20.008808    20.652476    8347.9034    2279.1522    4323.8036    3167.5063  -0.44208732    544.77154   -474.14662   -3814.8472 
14801000     287.1562   -4669.0014   -4115.1966   -4669.0014            0    2900.9529     20.05004    20.085541    20.800237    8376.5859    3323.8193    2488.8391    2890.2002    2.0325841   -302.63836    -82.86592   -3760.8048 
14802000    259.17622    -4717.251   -4217.4079    -4717.251            0    3978.3878    20.034435    20.091543     20.68184    8324.9105    4307.2465    3761.8425    3866.0745    567.38604   -741.77676   -796.07522   -3734.3907 
14803000    252.54734   -4713.0953   -4226.0366   -4713.0953            0    6032.5403    20.070855    19.934707    20.739937    8298.1861    4858.8234    5983.1426    7255.6549    332.64594   -221.31794   -427.00069   -3495.9753 
14804000    262.54168   -4666.3941   -4160.0604   -4666.3941            0    4791.4838     20.06576    20.032027    20.643833    8297.9508    3945.5056    4748.9327     5680.013   -83.471945     1158.476    773.41625   -3580.2089 
14805000    264.08376    -4689.358   -4180.0503    -4689.358            0    6837.2985    20.019799    20.001658    20.588866    8244.3827    7703.7693    7182.9023    5625.2238   -72.714256   0.88040957   -993.53421   -3357.9618 
14806000     273.2496   -4665.3942   -4138.4093   -4665.3942            0    5646.9794    19.823501    20.098454    20.953411     8348.294    6344.2444    4934.7523    5661.9414    605.33979   -672.56086   -855.10417   -3450.8822 
14807000    254.70327   -4712.2921   -4221.0754   -4712.2921            0    5405.8845    20.109429    19.914478    20.722517    8298.7213    4824.0256    6420.8699     4972.758   -3.2685066    27.600386    1012.1636   -3566.8102 
14808000    267.31894    -4691.913   -4176.3659    -4691.913            0    3627.7144    20.225702    20.164485    20.364926    8305.6492     2668.959    3006.7859    5207.3984   -402.82215   -154.60562    438.29304   -3736.9432 
14809000    252.04238   -4673.0856   -4187.0006   -4673.0856            0    5504.8675    19.892439    20.026301     20.80086    8286.4798     5997.668    6303.4117    4213.5228   -105.83494   -837.60134    749.54265   -3521.7384 
14810000    265.61391   -4696.7951   -4184.5363   -4696.7951            0    5445.9893    19.997656    19.877341    20.890628    8304.0294    5437.1851    4592.4385    6308.3443   -513.78461    1276.0776    545.85859   -3524.9957 
14811000    267.71116   -4683.5793   -4167.2759   -4683.5793            0    5028.1021    20.088626    20.065988    20.526041    8274.0086    4757.1895    4226.0233    6101.0933   -448.40784    1188.8328    2043.9304   -3560.5452 
14812000    279.56945   -4681.3303   -4142.1571   -4681.3303            0    3285.0692    20.221161    20.044585    20.785529    8424.8904    2911.8369    3210.8572    3732.5136    676.44214    29.983091   -1069.0909    -3738.526 
14813000    281.76332   -4693.3584   -4149.9541   -4693.3584            0    7517.2681    20.040652    19.907655    20.540189    8194.7627    6820.0249     8803.774    6928.0054   -866.16906   -1181.8379   -46.156958   -3251.5488 
14814000    268.12763   -4695.1694   -4178.0627   -4695.1694            0    5410.8931    19.893583    20.027685    20.729607    8259.1397    5057.0893    5517.8024    5657.7877    517.93861   -1142.5627    -514.1795   -3526.3148 
14815000    277.44021   -4720.9765   -4185.9097   -4720.9765            0    7960.0646    20.027755    19.775206    20.525216    8129.0728    8122.3465    7768.9332    7988.9141   -37.833576   -2350.8385    1398.4362   -3242.2107 
14816000     266.7603   -4652.0696   -4137.5999   -4652.0696            0    5609.6196    19.925448    20.217772    20.472477    8247.2996    4768.4502    5452.4281    6607.9806   -554.38225    389.08421    -749.6677   -3462.8838 
14817000    268.88107   -4720.1925   -4201.6327   -4720.1925            0    6740.5378     20.12978     19.89927    20.512833    8216.7827    6509.8109    6190.0524    7521.7501    -240.0745   -523.62467    738.45545   -3393.8915 
14818000    259.17951   -4682.6616   -4182.8121   -4682.6616            0    5364.8693    19.786659    19.959166    21.041034    8309.6348    4928.0147    6690.8908    4475.7024     915.9379    -735.5959   -1108.7843    -3532.657 
14819000    262.92147   -4723.8802    -4216.814   -4723.8802            0    7383.8343     19.92333     20.07224    20.511427    8202.6399    6981.3584    6801.8344      8368.31   -186.14872    -275.5612   -599.08206   -3333.5074 
14820000    256.74348    -4673.202   -4178.0506    -4673.202            0    5231.7581    20.049986    20.171212    20.466029    8277.1278    4756.8321    5736.4586    5201.9838    981.76056    251.09899     1174.342   -3546.5072 
14821000    260.43792    -4672.369   -4170.0925    -4672.369            0    6729.0275     19.96287      19.5863    20.937441    8186.5135    6355.8332    8160.5935    5670.6557   -1017.9872    937.20335    270.08535   -3366.7011 
14822000    284.67426   -4661.3052   -4112.2869   -4661.3052            0    5607.0304    19.976224    19.856369    20.768743    8238.0315    8191.6444    4233.3183    4396.1286    382.87118     1934.171    -303.8351   -3438.6401 
14823000    251.40567   -4704.1533   -4219.2963   -4704.1533            0    6923.1955    19.833747    20.018865    20.681414    8211.5365    9653.4032    5028.2791    6087.9042   -616.11788    826.11566   -433.68681   -3390.1964 
14824000    253.84693   -4697.4329   -4207.8678   -4697.4329            0    4811.1129    20.034948    20.131668    20.555039     8290.606    4505.4097    4298.4488    5629.4803    525.61719    527.41647    860.76596   -3626.1562 
14825000    266.39839   -4716.2231   -4202.4514   -4716.2231            0    5469.0478    19.871525    20.096416    20.852082    8327.2046    8369.2052    3898.7776    4139.1606   -1092.1118   -240.29091     534.4321   -3538.2698 
14826000    269.08974   -4708.9823   -4190.0201   -4708.9823            0    5649.8932    19.948432    19.847255     20.89078    8271.1114    4915.1488    7479.5256    4555.0052    -632.6034    214.85548   -467.13485   -3508.4979 
14827000    256.36969   -4728.5955    -4234.165   -4728.5955            0    4768.4661    20.005382    20.073331    20.583761    8265.9165    4941.2934    3883.2139    5480.8911   -568.60048    376.18882    258.76716   -3659.3268 
14828000    282.90304   -4688.6733    -4143.071   -4688.6733            0    6427.4896    20.149782    20.050135    20.380288    8233.7558    4679.0097    8768.9636    5834.4955   -583.74247    1036.3923   -666.20173   -3371.2524 
14829000    271.53689   -4730.1587    -4206.477   -4730.1587            0    4336.5427    20.005738    19.983041     20.63147    8247.9557    5710.0728    4269.7412     3029.814    890.73966   -290.57504    935.97919    -3684.843 
14830000    271.87082   -4687.9809   -4163.6551   -4687.9809            0    5238.6132    19.799782    20.025939    20.885808    8281.4157    5630.3101    4408.9479    5676.5815   -93.828191     470.9901    598.88928   -3530.9566 
14831000    269.61749   -4698.9405   -4178.9605   -4698.9405            0    5083.0991    20.088104    19.926648    20.729336    8297.7163    5011.3725    5432.6333    4805.2914   -141.17457    494.10069    1361.9041    -3563.836 
14832000    262.44027   -4722.9047   -4216.7666   -4722.9047            0    6290.2532    20.130003    20.030167    20.569758    8293.8771    4344.1125    8288.9587    6237.6884    -79.87211   -203.08641   -912.21381   -3455.9121 
14833000    269.36394    -4692.662    -4173.171    -4692.662            0    5814.0661    19.900953    20.203902    20.688805    8318.4906    7787.9603    4318.8409    5335.3971    -56.02133   -151.47404    1038.9255    -3467.828 
14834000    268.87602   -4659.7568   -4141.2068   -4659.7568            0    6625.2508    20.118412    19.792521    20.779992      8274.47    4767.9517     9335.588    5772.2126    781.15383   -724.23155   -202.02804   -3341.7069 
14835000    253.76762   -4691.3836   -4201.9714   -4691.3836            0    6624.0918     20.02157    20.054965    20.463952    8216.9297    9618.3341    4053.3019    6200.6393    164.51751    537.48068   -181.04207   -3408.1701 
14836000    258.27059   -4698.7737   -4200.6771   -4698.7737            0    3979.7187    20.320902    19.893449    20.527519    8298.3079    4740.5823    3775.6623    3422.9113   -112.29308   -851.05532   -28.035747   -3719.0424 
14837000    262.83227   -4705.6886   -4198.7945   -4705.6886            0    5671.0454    19.909478    19.966056    20.899168    8307.7068    5845.3063    5078.6763    6089.1536   -912.40893    1293.3534   -586.99801   -3511.6942 
14838000    266.73236   -4696.5311   -4182.1153   -4696.5311            0    5216.3932    19.961882    20.057586    20.635122    8262.0379    4197.3826    6823.5806    4628.2165   -201.05379    527.12454    291.60143   -3553.5746 
14839000    251.32569   -4716.7615   -4232.0588   -4716.7615            0    6495.1903    20.090001    19.994239     20.58576    8268.9763    5899.0016       5766.9    7819.6694   -706.67602     616.1932   -741.65364   -3448.7743 
14840000    256.68964   -4690.9322   -4195.8847   -4690.9322            0    4023.8535    20.080711     20.19966    20.514432    8321.1365    5279.6466    3231.6583    3560.2557   -172.51652    327.11414    625.22835    -3707.569 
14841000    265.39272   -4710.5325   -4198.7004   -4710.5325            0    5857.8349    19.995662    20.012878    20.626894    8254.2792    5549.0619    6937.5892    5086.8537      59.9557   -457.15316   -571.29033    -3493.533 
14842000    272.51237   -4712.2107   -4186.6477   -4712.2107            0    6796.4064    19.935913    19.844232    20.684847     8183.192    6284.4359    7993.4967    6111.2866    71.861649    -502.2037    55.285404   -3375.5411 
14843000    271.41092   -4682.2603   -4158.8215   -4682.2603            0    5914.9252    19.935446    19.867072     20.87615     8268.186    6686.3407    5729.2241    5329.2109   -485.82243    549.07224    1341.3666    -3445.582 
14844000    271.05898   -4701.5662   -4178.8061   -4701.5662            0    6353.8652    19.916315    19.995011    20.668044    8230.5719     8345.034    6467.8634    4248.6982    843.75687   -124.47276   -763.89452   -3416.1234 
14845000    258.50889   -4732.3408   -4233.7846   -4732.3408            0    4424.7299    20.169242    20.052462    20.508122    8294.3655    3992.9628    5238.8024    4042.4245    358.29516   -884.54296    291.04274    -3698.548 
14846000    265.48884   -4685.1752   -4173.1576   -4685.1752            0    7069.7499     19.95132     19.88247    20.770595    8239.3115    6176.8415    8922.5245    6109.8838    100.20452   -259.71228    -251.2051    -3323.643 
14847000    263.56772   -4699.5552   -4191.2426   -4699.5552            0    7156.5156    19.981385    19.864538    20.792174    8252.8506    7610.4834    6133.6032    7725.4602    595.51651   -553.69872   -936.07845    -3329.889 
14848000     258.6922    -4685.293   -4186.3833    -4685.293            0      6377.42    19.927579    19.798207    20.934521    8259.3036    5219.1348    8703.7444    5209.3807   -961.12813    930.27944    19.144979   -3418.2009 
14849000    258.74735   -4699.6186   -4200.6026   -4699.6186            0     4870.856    19.956949    20.186885    20.577941    8290.2071    3458.9685     5140.974    6012.6256    1275.2364    490.16513    770.36856   -3611.6958 
14850000    265.60571   -4693.3879    -4181.145   -4693.3879            0    6662.3284    20.062778    20.132469    20.479748     8272.042    8185.0101    5227.4177    6574.5575   -848.53075   -434.38249    430.74161   -3377.4067 
14851000    252.59243   -4718.7206   -4231.5748   -4718.7206            0    4005.8529    20.142056    19.948746    20.692587    8314.4628    5068.2724     3954.356    2994.9303    275.34464    57.395911    -598.6414   -3745.8335 
14852000    252.82547    -4675.568   -4187.9728    -4675.568            0    4619.5597    20.010968      20.1544    20.648218    8327.6132    4626.8324    4727.9789    4503.8679   -126.34458    1250.2906   -835.58495   -3626.9286 
14853000    266.80341   -4683.6713   -4169.1185   -4683.6713            0    6041.9333    20.149719    19.777149    20.782174    8281.7796    5045.1125    6676.6037    6404.0837    719.16696   -496.02978    230.88417   -3439.3662 
14854000    258.03758   -4668.6375   -4170.9904   -4668.6375            0    6362.1733    19.826496    20.205922    20.690883    8289.0291    6596.7142    7242.8521    5246.9537   -371.26849    1507.3419   -1649.7558   -3401.8864 
14855000    269.26418   -4657.1703   -4137.8717   -4657.1703            0    5285.7313    20.060608    20.073428    20.637767    8310.5227    5426.4127    5875.5583    4555.2228    755.83595   -433.17015    23.271154   -3497.2387 
14856000    247.92125   -4698.7428   -4220.6058   -4698.7428            0    4521.2601    19.927703    20.071111    20.776688    8310.0757    5214.5518    5525.4082    2823.8203   -478.10357   -47.915366    -778.5888   -3672.6566 
14857000    262.55378   -4690.0668   -4183.7098   -4690.0668            0    6108.6751    19.932274      19.8599    20.845465    8251.7394    6582.9465    6802.4764    4940.6024    831.37885    1983.2729    994.71115   -3448.5726 
14858000    267.76249   -4685.8077   -4169.4052   -4685.8077            0    5672.3094    20.081718    20.181879    20.499811    8308.3029    5126.3565    5954.5234    5936.0483    288.68339   -53.234681    534.61038   -3482.1024 
14859000    264.83407   -4698.7348   -4187.9801   -4698.7348            0     4787.716    20.181926    19.950854    20.559921    8278.3832    3878.4335    4553.4277    5931.2868   -116.21922     1233.859   -661.66764   -3609.9508 
14860000    271.54047   -4682.7159   -4159.0273   -4682.7159            0    5779.0323    19.768197    20.230519    20.800747    8318.6532    6219.0493    5765.8283    5352.2193   -28.849822   -316.26755     1407.039   -3457.9207 
14861000    267.29888   -4658.9619   -4143.4535   -4658.9619            0    6666.2178    20.081849    19.756916    20.790182     8248.617    6652.0233    7402.4963    5944.1339    87.860139    543.77681    207.88373   -3341.5234 
14862000    271.43748   -4694.8979   -4171.4078   -4694.8979            0    6490.9389    20.137366    19.938657    20.558542    8254.5022    5720.6154    6988.1843    6764.0169   -260.01417   -1724.3859   -139.45785   -3390.0062 
14863000    252.49156   -4701.8636   -4214.9124   -4701.8636            0    5405.1239    19.957306    19.965554    20.720954    8256.4436     6696.377     4061.476    5457.5186   -350.76082   -515.89076    -1132.467   -3564.0719 
14864000    262.05869    -4677.224   -4171.8218    -4677.224            0    6920.8115    19.863373    20.025639    20.697172    8232.8536    7572.6845    5961.8559     7227.894   -686.74102    199.71384    743.21715   -3340.8557 
14865000    264.44351   -4691.8647   -4181.8632   -4691.8647            0    6184.9339    20.023077    19.998161    20.640234    8264.8598    8180.2769    4727.6303    5646.8946   -239.43752    1073.4302   -131.84727   -3436.3652 
14866000    258.19923   -4709.5654   -4211.6065   -4709.5654            0    6653.6653    20.023783    19.837117    20.616397    8189.1241    5274.6109    8134.6008    6551.7841    162.27307   -317.55187   -465.43756   -3416.9594 
14867000    251.13252   -4709.4816   -4225.1514   -4709.4816            0    4991.2359    19.895956    20.070019    20.811665    8310.3524     3566.269    5918.2296    5489.2092    862.44427   -586.35803   -192.88981   -3620.2237 
14868000    248.67604   -4687.7338   -4208.1411   -4687.7338            0    5229.2265    20.238227    20.016619    20.501957    8305.3607    4585.2043    5136.0355    5966.4397   -724.39035       -214.2    1341.6158   -3574.7502 
14869000    253.07897   -4697.8902   -4209.8061   -4697.8902            0    5747.2151    20.077131    19.802153    20.813272    8274.7413    3161.8293    7099.6059    6980.2099   -516.78842    -224.6393    247.31134   -3516.2402 
14870000    262.71234   -4688.6692   -4182.0063   -4688.6692            0    6081.5045    20.088249    19.815223    20.719078    8247.2937     6036.995    6109.4862    6098.0324    1020.8524    45.617267    15.348337   -3450.5332 
14871000    258.52337    -4720.044     -4221.46    -4720.044            0    5006.1044    20.045471    20.037416    20.650263    8294.3732    4518.3777    5921.8956      4578.04    182.74871    1777.8873    484.53677   -3615.8969 
14872000    261.29548   -4656.6635   -4152.7332   -4656.6635            0    4732.7422    20.188389    19.955755    20.638058    8314.5481    2570.1541    5815.9598    5812.1128    1313.8987   -307.57072    307.61562   -3578.8449 
14873000     269.4437   -4704.3182   -4184.6733   -4704.3182            0    6079.8322    20.033391     19.90631    20.715898    8261.3115    5300.2945    6916.2781     6022.924   -109.26546    784.38455   -201.33276   -3452.1584 
14874000    278.56208   -4718.6608   -4181.4304   -4718.6608            0    5453.4379    19.954964    20.003955    20.646432    8241.6056    4592.7197    6792.0369     4975.557    9.4575712   -810.05057    467.18854   -3525.9525 
14875000    272.30004   -4681.3801   -4156.2266   -4681.3801            0    3879.8134    20.025036    20.053109    20.673243     8301.635    5661.3838    2435.4012    3542.6552   -688.27765     2799.846    332.73396   -3686.4944 
14876000    256.66282   -4716.8383   -4221.8424   -4716.8383            0    5404.6689    19.852457    20.138033    20.708625    8279.0897     5843.342      4789.37    5581.2947    48.870142    62.930302    -434.3037   -3569.2718 
14877000    263.80644   -4703.1741   -4194.4012   -4703.1741            0    4682.4488    20.206716    19.973596    20.559166    8297.6952    3757.6758    4610.2805    5679.3899    799.33326    1376.4573    472.02226   -3627.7623 
14878000    260.90408   -4706.4166   -4203.2411   -4706.4166            0    5435.6625    20.137959    20.085094    20.557074    8314.7769    6811.8558    3579.1336    5915.9982    1261.5699   -618.98988   -613.51653   -3544.0991 
14879000    275.05319   -4681.4218   -4150.9586   -4681.4218            0    3663.3654    19.930598    20.045584    20.854479    8331.7913    4335.4358    3577.9285    3076.7318   -921.50321   -587.56947   -1000.6886   -3705.8208 
14880000    245.86363   -4693.3254   -4219.1567   -4693.3254            0    6478.9855    19.923847    19.845487     20.69882    8184.2813    7698.9239    5252.8543    6485.1781   -376.47824    1087.5289    1496.4084   -3445.8293 
14881000    248.06562   -4707.0123   -4228.5969   -4707.0123            0     4732.617    20.134088    20.232091    20.392005    8306.7791    3495.5518    4985.6636    5716.6355    497.25974    1780.6069    222.89836   -3655.2599 
14882000    267.19076   -4676.5165   -4161.2167   -4676.5165            0    3791.7133    20.122297    20.094415    20.715976    8376.4176    2945.8943    4978.9244    3450.3212   -452.93988    503.90884   -314.13403   -3698.0155 
14883000     267.1832    -4673.762   -4158.4767    -4673.762            0    4345.4606    19.966007    19.920224    20.993269     8349.597     5401.398    4057.3602    3577.6235    217.60352    673.16503    -1239.341   -3629.3287 
14884000    263.99015   -4713.9878   -4204.8606   -4713.9878            0    6351.1717    20.026759     19.93226    20.708207    8266.2726    6089.3281    6100.0276    6864.1595    -269.5006    762.39931   -894.55644   -3439.1945 
14885000     269.9053   -4713.0505   -4192.5155   -4713.0505            0    7091.8444    20.116583     20.00776    20.421818     8219.532    5231.0448    8050.4503     7994.038    410.36782    1230.3772   -233.91896   -3342.3917 
14886000    271.89986   -4710.7173   -4186.3356   -4710.7173            0    6708.0275    20.005565    20.058782    20.532826    8239.5617    6929.3854    7624.2607    5570.4364    12.709416    1123.0011    60.395521   -3380.2617 
14887000    255.68917   -4698.7768   -4205.6587   -4698.7768            0    5697.0383    19.930789    19.967228    20.846831    8296.2593    6766.0224    5029.8053    5295.2872    274.76465   -402.75996    58.648173   -3516.3602 
14888000    240.11635   -4663.9064   -4200.8218   -4663.9064            0    5913.4535    20.038571    19.976234    20.555623    8228.3166    6468.6626    4504.0231    6767.6749   -561.13201    779.79159     813.8408   -3491.1982 
14889000    251.96121   -4713.4309   -4227.5025   -4713.4309            0    7201.4869    19.996291    19.947747    20.558287    8200.3088     8789.892    6200.8885    6613.6802   -13.755367    1975.3475   -358.92597   -3366.2544 
14890000    263.83923   -4684.5324   -4175.6962   -4684.5324            0    5065.6085    20.097868    20.017276    20.495405    8245.3951    6361.4077    3567.8356    5267.5824    233.01094    446.11116    634.03634   -3566.5536 
14891000    250.55444   -4674.5232   -4191.3079   -4674.5232            0    6017.8574    20.051288    19.916525    20.586361     8221.204    6259.3989    5787.5769    6006.5965    376.87919    306.46536   -332.09949   -3469.7799 
14892000    266.28141   -4706.4903   -4192.9442   -4706.4903            0    6868.6116     20.15539    19.841304    20.564421    8223.9014     5293.693    8489.0953    6823.0467    721.62118    1115.6233    1776.1429   -3369.1424 
14893000    260.48897   -4691.6988   -4189.3239   -4691.6988            0    6088.6706    19.958629    20.042261    20.653274    8261.6408    8417.7562    4054.6192    5793.6363    342.50109    683.24969   -37.227422   -3455.7149 
14894000    257.69354    -4689.182   -4192.1984    -4689.182            0    5534.9303    20.097795    20.102734    20.651307    8343.5537     6496.203    5367.2425    4741.3454   -147.32805   -113.14604    1454.3202    -3518.696 
14895000    254.63084   -4685.9038   -4194.8268   -4685.9038            0    6146.4305    19.943611    19.996334    20.782391    8287.9986    5089.4307     7124.695    6225.1658    412.07879    15.424558   -286.71465   -3451.8957 
14896000     258.2556   -4706.6064   -4208.5387   -4706.6064            0    5610.5834    20.112972    19.814968    20.683841    8243.2949    4621.1961    6451.7324    5758.8217    -441.4879    179.25123     455.3396   -3534.0344 
14897000    260.57966   -4722.6741   -4220.1244   -4722.6741            0    5006.2739    19.896296    20.087038     20.62668    8243.6108    4319.1269    5296.2795    5403.4152   -1049.7386   -811.65716   -1031.1035    -3618.247 
14898000    259.21546   -4711.1918    -4211.273   -4711.1918            0    5925.8405    19.839317    20.128602    20.783513    8299.6405    5872.7053    4755.8834    7148.9327    1012.6591   -362.38561   -533.64039   -3493.9989 
14899000    267.74122   -4678.0701   -4161.7086   -4678.0701            0    3910.9159    20.112721    19.746933    21.038066    8355.5741    4946.0076     4041.753    2744.9871   -279.45621   -387.70583     1802.108   -3685.1343 
14900000    255.71847   -4690.1195   -4196.9449   -4690.1195            0    5872.2397     20.10212    19.973059    20.675142    8301.0869    5574.8018    6197.6624     5844.255   -232.65087    483.60422   -175.57763   -3486.0349 
14901000    269.12447   -4670.7993   -4151.7702   -4670.7993            0    4310.6627    20.140366    20.138204    20.578514    8346.4559    3871.8104    3828.9975    5231.1803    390.25732   -417.19191   -857.92697   -3627.0569 
14902000    274.15752   -4689.2535   -4160.5177   -4689.2535            0     6407.585    19.874526    20.028524    20.652456    8220.8638    7636.3487      3932.72    7653.6861    542.08418    389.87715    338.63241    -3392.294 
14903000    262.31161   -4705.7794   -4199.8894   -4705.7794            0    4541.6806    20.235196    19.854351    20.648791    8295.7898    2017.0921    5540.5773    6067.3725    165.71955   -277.74266   -1571.9806   -3650.4115 
14904000    260.87538   -4690.6117   -4187.4916   -4690.6117            0    6292.0916    19.990658    20.011587    20.623893     8250.481    7122.5315    5893.9586    5859.7849    503.99761   -698.82334    914.52014   -3430.3969 
14905000    257.29355   -4697.5578   -4201.3455   -4697.5578            0    4773.6424    20.152724    20.238922     20.40402    8322.1757    3266.0461    4930.2041    6124.6769   -19.248393   -903.99916   -183.50447   -3621.9667 
14906000    248.42335   -4698.0916   -4218.9862   -4698.0916            0    4556.1963    20.062521    20.034477    20.778453    8351.7353    7704.6752    1766.4967     4197.417   -965.94848   -356.64786   -406.15455   -3664.0347 
14907000    263.46581   -4684.8535   -4176.7375   -4684.8535            0    4838.8868    19.708711     20.15573    20.763365    8248.1108    6140.8837    4170.3292    4205.4476   -42.373527   -636.82862    145.83414   -3594.6666 
14908000    260.85245   -4724.1162   -4221.0403   -4724.1162            0    5454.7691    20.101172     19.92125    20.636761    8263.7942    5766.8133    5279.5116    5317.9824   -27.545701    1263.2927    645.13032   -3563.6372 
14909000    250.76789    -4700.605    -4216.978    -4700.605            0    5803.6024    19.868063    20.088506    20.912645    8346.6484    5468.9807    6475.7287    5466.0979   -537.49363   -169.21283    283.79288   -3510.5211 
14910000    262.52284   -4679.0151   -4172.7177   -4679.0151            0    4733.6731    20.181737    19.826628    20.713239    8288.1084    4211.2143    5471.3528    4518.4522    197.63215    888.81361    902.62867   -3600.5418 
14911000    261.17043   -4704.2413   -4200.5522   -4704.2413            0    6539.5367     19.84126    20.121943    20.569128    8212.1153    3743.3917    7457.7845    8417.4341    438.26962    389.38275   -591.07476   -3417.3428 
14912000    262.33144   -4688.1385   -4182.2102   -4688.1385            0    6065.6541    20.037717    19.846703    20.829856    8283.6716    4890.1741    7229.4337    6077.3547   -26.074949    125.06724   -1218.8486   -3449.4255 
14913000    271.63872   -4706.1186   -4182.2405   -4706.1186            0     4408.233     20.19243    19.897158    20.611691    8281.1995    3606.9729    4139.7926    5477.9336    -508.4965    1706.2989   -261.45484   -3649.8459 
14914000    261.36768   -4705.2168   -4201.1472   -4705.2168            0    6674.0113    19.876207     19.91106     20.83639    8246.1335    7139.7068    7005.9914    5876.3358   -156.22869   -631.28475    563.90114   -3398.5213 
14915000    272.06734    -4724.123   -4199.4182    -4724.123            0    4105.6229    20.077112     20.07903    20.691577    8341.3735    3249.8892    5631.6231    3435.3565    502.62937    646.65494   -879.43106   -3699.9676 
14916000    263.28533    -4678.135   -4170.3671    -4678.135            0    5100.9505    19.998555    20.031783    20.676297     8283.063    4927.3833     4783.087    5592.3813    243.50784   -377.97887    559.95476   -3554.1724 
14917000    279.21347   -4727.2279   -4188.7413   -4727.2279            0     5109.126    19.865943    19.985807    20.918823    8305.5447    4704.3066    7254.5896    3368.4817    727.68815   -1182.7342   -281.39676   -3569.8838 
14918000    280.90219   -4691.2199   -4149.4764   -4691.2199            0     5534.785    20.208671     19.79457    20.666861    8267.1983    5122.2406    6243.1693    5238.9451   -210.37607    1734.2728    463.17949   -3482.1551 
14919000    270.41263   -4671.9837   -4150.4702   -4671.9837            0    7673.4926    20.012261    19.947874    20.588611    8219.0159     7598.499    6814.3615    8607.6173   -352.38313    920.59732    608.72909     -3230.68 
14920000    272.44097   -4704.4729   -4179.0476   -4704.4729            0    4809.2815    19.940548    19.824712    20.888834    8257.6823    7402.2647    3535.2952    3490.2847   -311.84317    544.66852    473.99035   -3599.8666 
14921000    274.60085   -4701.0366   -4171.4458   -4701.0366            0    4471.5909    19.992193    20.108641    20.622612    8290.6164    3021.5621    4951.4351    5441.7755   -157.85804    544.37923    1746.5239   -3630.7851 
14922000     276.4678   -4723.5337   -4190.3423   -4723.5337            0    5503.6911    20.274592    19.883438    20.471409    8252.6102       5471.2    4625.3265    6414.5468   -1145.1581    146.77766    578.67824   -3527.9409 
14923000    261.80929   -4714.4262    -4209.505   -4714.4262            0    4107.9367    19.924312    20.025056    20.741064    8275.3829    4511.5853    3655.1045    4157.1202    266.22445    609.01502     769.2045   -3713.7264 
14924000    266.71718    -4698.126   -4183.7395    -4698.126            0    5923.2857    19.919263    20.083709    20.571151     8229.544    5112.8799     6402.406    6254.5712   -843.92917    1547.6065      878.739     -3472.83 
14925000    263.60244   -4702.8992   -4194.5198   -4702.8992            0    6068.8131    20.232578    19.949133    20.446857     8252.809    4365.2717    6237.3532    7603.8146    279.12395   -287.23083    487.37668    -3464.085 
14926000    264.91301   -4734.3625   -4223.4554   -4734.3625            0    6030.1021    19.880032     20.06971    20.613558     8224.531     5140.871    8110.2744     4839.161   -258.80155   -367.95387    1101.5007   -3500.1667 
14927000    262.88807   -4692.0453   -4185.0435   -4692.0453            0    5217.1554    20.033115    19.891937    20.802352    8289.6845    5948.6929    5276.6388    4426.1344   -930.74042     119.2826    183.23748   -3554.3075 
14928000    271.45635   -4704.4032   -4180.8768   -4704.4032            0    7151.7767    19.898224    19.957088    20.615557    8186.6566    7468.7784    6539.4948    7447.0569    681.07739   -66.261272    315.06526   -3326.9976 
14929000    273.54089   -4686.1036    -4158.557   -4686.1036            0     7088.878    20.073691    19.858281    20.647708    8230.7751    7922.9451    5576.9893    7766.6996    61.107174    708.60974   -1272.9856   -3307.6264 
14930000    260.94788   -4671.9787   -4168.7188   -4671.9787            0    4615.6066    19.966312    20.121317    20.682183    8309.0359    5515.3601    4090.8038    4240.6558   -244.79901     1577.322   -769.27984   -3609.4053 
14931000     274.1609   -4727.7407   -4198.9983   -4727.7407            0     4778.103     20.08574     20.13144    20.584588    8323.4787    5887.9861    2699.4925    5746.8305    214.69822    904.94587    599.76644   -3618.9873 
14932000    264.16416   -4699.2634   -4189.8006   -4699.2634            0    5567.5843    19.795093    19.947297    20.900158     8252.607    6141.8352     5605.181    4955.7368   -1288.1965    300.08216    301.29566   -3519.7095 
14933000    268.81052   -4736.6045   -4218.1808   -4736.6045            0    3944.2611      20.2212    19.924406    20.710469    8344.1523    3106.7805    4694.1045    4031.8983    85.655897    1562.1972    707.78198   -3738.2001 
14934000    258.57563   -4708.4019   -4209.7171   -4708.4019            0    5302.9247    20.073984    19.977426    20.629529    8272.9884    3254.0617    7049.9887    5604.7238    -268.3394    294.06541    669.45241    -3569.903 
14935000    261.78897   -4667.0395   -4162.1574   -4667.0395            0    5581.2019    20.098476    19.743616    21.134575    8386.5502    5750.4411       7094.2    3898.9645    168.87476   -464.80944   -1014.9848   -3479.5249 
14936000     268.8953   -4674.3856   -4155.7984   -4674.3856            0     5997.091    19.833574    20.017139    20.726169    8228.5255    5760.5382    6837.0647    5393.6701   -545.35575   -446.86836   -839.71926   -3436.1199 
14937000     270.0896   -4721.2791   -4200.3886   -4721.2791            0    5154.2479    19.991329     19.85877    20.778703    8249.2116    3861.2315    6203.8635    5397.6488    148.96102   -350.97765   -677.31879   -3580.3001 
14938000    266.60469   -4682.6877   -4168.5181   -4682.6877            0    5903.2119     19.94708    20.010548    20.658336    8245.8163     5673.458     4263.463    7772.7147    37.039072   -423.11967    43.022447   -3458.6169 
14939000    253.92925   -4707.1836   -4217.4597   -4707.1836            0    6620.6289    19.812267    20.137374    20.596146     8217.183     7958.713    5487.8127    6415.3609    194.12075    916.96176   -1451.5138   -3424.0489 
14940000    262.46535   -4650.6428   -4144.4563   -4650.6428            0    5862.2416    19.881935    20.056504    20.640282    8230.5626    6197.7223    6228.4073    5160.5952   -314.12293     96.85068    -477.6322   -3440.7862 
14941000    257.89314   -4679.8084   -4182.4398   -4679.8084            0    6256.8528    20.166301     19.82496    20.737673    8290.8411    5072.9113    8433.3034    5264.3438   -395.90666    553.17498    318.89617   -3425.9024 
14942000    261.04541   -4678.0317   -4174.5837   -4678.0317            0    3194.9903    19.892059    20.125276    20.864639    8352.8074    3364.0637    4511.6956    1709.2117   -83.846835    504.82443    1776.7159   -3785.3791 
14943000    252.46184    -4663.985   -4177.0911    -4663.985            0    4534.5423    20.094393      19.9525    20.644327    8276.9999    2782.8472    5519.3136     5301.466   -357.21372    2046.5384   -18.773405   -3629.7195 
14944000    265.80241   -4670.8487   -4158.2264   -4670.8487            0    5331.4598    19.999165    20.017351    20.656816    8269.5494     6106.593    3008.9532    6878.8332    17.439261   -20.454821    133.04557   -3515.2369 
14945000    263.83332   -4678.3649   -4169.5402   -4678.3649            0    7437.7238    19.901837     20.09838    20.439285    8175.6056    7399.6032    7088.1327    7825.4353   -12.216066     232.8643    -230.4597   -3282.7194 
14946000    258.92037   -4683.8153   -4184.4656   -4683.8153            0    4454.5477    19.995446      19.9937    20.788568    8310.9151    5264.6247    4829.1422    3269.8761   -1396.5137    1095.3469   -813.57243   -3644.5469 
14947000    260.15676   -4688.5134   -4186.7792   -4688.5134            0    5977.3346     20.05907    19.848592    20.833201    8294.6201    6359.3497    6712.9141    4859.7399   -774.85399    362.09585   -853.38085   -3463.7099 
14948000    274.26266   -4716.4894   -4187.5508   -4716.4894            0    5324.4458    20.123815    20.096392    20.552023    8311.5687    5747.5539    4376.4697    5849.3138    377.70216   -530.97798    -12.71166   -3542.1443 
14949000    266.45345   -4665.7955   -4151.9176   -4665.7955            0    7491.0701    20.248736    19.906829    20.366398    8209.4534    6817.4072     7421.264    8234.5391   -10.762506    844.03321   -260.40585   -3255.0383 
14950000    253.98067   -4690.5529   -4200.7298   -4690.5529            0    5998.2874    19.998191    19.899901    20.762595    8262.7241    3480.6092    7460.1813    7054.0717    324.42688    1708.1089    228.69181   -3477.9161 
14951000    253.02381   -4682.9488   -4194.9711   -4682.9488            0    5029.3333    19.948456    20.057115    20.754443    8304.0287    4644.8122    4599.8319    5843.3558   -231.64422    -326.6396    1983.8776   -3585.8899 
14952000    259.65804   -4681.3713   -4180.5989   -4681.3713            0     5629.767    20.117927      20.0858    20.590953     8320.488    6454.8106    3844.7871    6589.7032   -238.92099    1436.7162   -1182.7834   -3497.4504 
14953000    255.44903   -4710.3421   -4217.6872   -4710.3421            0    5296.1562    20.126099    20.184541    20.378435    8278.4554    5077.5202    4508.9635    6301.9849   -31.310675    379.55184    1956.6171   -3578.2675 
14954000    250.68196   -4691.2833    -4207.822   -4691.2833            0    6292.0786    19.866953    20.109267    20.696191    8268.3323    4908.9884    5789.2823     8177.965   -719.42857    225.37465    1104.9904   -3449.0908 
14955000    246.80207    -4701.562   -4225.5834    -4701.562            0    6212.4028    19.853295     19.98511    20.795752    8251.1365    8360.4443    5214.4813    5062.2827   -136.54703    1422.5999    115.59918   -3478.0179 
14956000    252.89299   -4708.0251   -4220.2997   -4708.0251            0    6512.7684    20.043174    19.864838    20.822853    8290.7104    5811.4755     7871.433    5855.3968   -104.95728   -359.69018   -1141.9943    -3432.831 
14957000    253.93412   -4683.6496   -4193.9163   -4683.6496            0    4854.9972    20.148067    19.884865    20.694235    8290.9713    3311.9343    6421.3654    4831.6917   -239.24457   -435.72479   -58.864849   -3606.8728 
14958000    270.57528   -4701.2253   -4179.3981   -4701.2253            0    4492.1659    19.977503    20.123633    20.538014    8256.6911    3028.7338    5458.8847    4988.8793   -39.067365   -1101.0462    419.72769   -3638.4723 
14959000    256.46735   -4688.7852   -4194.1664   -4688.7852            0    5779.5074    20.028302    20.034568     20.71392    8311.6341    6270.9559    5074.9879    5992.5785     345.8253   -1781.0748    88.452622   -3493.5938 
14960000    279.16498   -4701.6007   -4163.2076   -4701.6007            0    4469.4459    20.021984    19.957253    20.801126    8311.7929    3926.1308    5041.1877    4441.0193   -114.95965   -120.99194   -814.99256   -3621.4259 
14961000    274.07292    -4707.083   -4178.5103    -4707.083            0    6025.0615    19.803426    20.164673    20.701347    8266.6608    7914.3033    5120.6065    5040.2748    111.99216    511.01608     -871.608   -3452.1243 
14962000    266.95699    -4699.669     -4184.82    -4699.669            0     5496.367    20.205441    20.107753    20.569825    8357.2321    2913.9005    5846.8373    7728.3633    27.585634   -816.64312   -1335.4879   -3514.9137 
14963000    262.60953   -4668.1634   -4161.6988   -4668.1634            0    5571.9743    20.109748    19.965316    20.650817    8291.2507    5814.5105    5919.0994     4982.313   -386.58895    1091.7415    -32.95018   -3487.9391 
14964000    269.91714   -4683.5992   -4163.0413   -4683.5992            0    8004.9403    19.949259    19.812543    20.620018    8149.9705    7868.4463    8830.0328    7316.3419    -246.2075   -597.19911   -1782.4828   -3211.5824 
14965000    260.96254   -4739.4891   -4236.2009   -4739.4891            0    4672.4453    20.167238    19.919837    20.730984    8328.2187    3313.4545    6598.5015    4105.3799   -206.29933    18.552476   -35.844582   -3668.6926 
14966000    259.34018   -4705.3497   -4205.1903   -4705.3497            0    6586.8349    20.082246    20.087517    20.448173    8248.8433    5092.6335    7350.2617    7317.6094    -55.73961    -577.8287      1051.51   -3412.7881 
14967000    251.20524   -4705.9202   -4221.4497   -4705.9202            0    6630.2701    19.944203    20.071502    20.527683     8217.439    6054.1126    6762.0528    7074.6449   -165.74675    649.51215    -1585.517   -3426.8588 
14968000    269.53767   -4689.8321   -4170.0061   -4689.8321            0     6577.054    19.874014    19.881275    20.903265    8259.3137    6294.2899    7978.4478    5458.4244    -127.8832    282.96422     569.9199   -3377.7761 
14969000    275.55797   -4700.8652   -4169.4285   -4700.8652            0    7806.7007    19.960242     19.93636    20.592374    8194.4174    6576.4694    7865.9673    8977.6653   -532.18583    1048.6725    42.291602   -3236.4718 
14970000    264.20406    -4724.034   -4214.4943    -4724.034            0    6274.2501    20.036657    20.053453    20.371703    8185.4348    6254.5356    5917.4009    6650.8137   -547.43374    282.92646    197.15173   -3465.4983 
14971000    254.95859   -4693.9332   -4202.2241   -4693.9332            0    4041.7734    19.821918    20.156592    20.974743    8380.2972    5666.3405    4103.0052    2355.9745   -395.23928    861.97693    -254.7961   -3708.2465 
14972000    261.43004   -4716.4851   -4212.2952   -4716.4851            0    5461.0122    19.948632    19.901273    20.780449    8249.9041    6315.4942    4645.5825    5421.9598   -579.23452   -254.68574   -915.03734    -3555.246 
14973000    253.90165   -4689.0563   -4199.3856   -4689.0563            0    6309.8457    20.154197    19.966973    20.575605    8280.0003    4297.7772    7660.7038    6971.0562   -634.73943    750.60512     71.39363   -3437.4382 
14974000    258.28635   -4682.9923   -4184.8654   -4682.9923            0      5738.57    20.030565    19.984722    20.560932    8230.6494    6342.4587    5907.0493     4966.202    303.45568   -647.91531   -209.85222   -3496.0328 
14975000    257.68897   -4692.8565   -4195.8817   -4692.8565            0    6301.3029    19.923803    19.927756     20.62257    8187.9168    6438.8809    6539.2857    5925.7421    438.81837   -397.91352    1023.8256   -3443.4282 
14976000    267.28299   -4701.9087    -4186.431   -4701.9087            0    6934.0025    20.057609    19.916304    20.545223    8207.2705     6557.155    7177.2523    7067.6002    -101.6382    59.820928   -43.045965   -3356.4682 
14977000    283.11158   -4678.7723   -4132.7678   -4678.7723            0    5778.7374    20.150992    20.058842    20.612933    8331.8621    5436.5754    6532.0868    5367.5498    590.94415   -816.02995   -572.44221   -3430.5838 
14978000    279.48192   -4705.8802   -4166.8758   -4705.8802            0    5088.5171    20.045852     20.06975    20.802244    8369.0598    4865.6411    6000.7569    4399.1532    101.12261   -185.38527   -476.93199   -3545.8012 
14979000    268.55583   -4692.7992   -4174.8667   -4692.7992            0    5829.2438    20.045646    20.128298    20.653002    8333.1711     4947.041     5806.427    6734.2635    141.69545    320.24517   -414.74633   -3466.4343 
14980000    273.86914   -4675.8676    -4147.688   -4675.8676            0    3292.6502    20.234045    19.999704    20.745205    8395.0642    2287.7038    3525.9443    4064.3026    77.917269    -911.1459    529.49109   -3744.5576 
14981000    277.19241   -4700.2307   -4165.6418   -4700.2307            0    5312.7628    19.979752     20.09826    20.576411    8262.6274    5997.3683    5177.4728    4763.4473   -486.22418   -491.67864   -825.65489   -3525.4435 
14982000    251.74731   -4680.5156   -4194.9998   -4680.5156            0    4705.4218    19.981904    19.880858    20.940868    8318.9148    2761.7176     7780.985    3573.5628   -722.26084   -690.26019   -317.67626   -3624.1246 
14983000    259.93354   -4707.1109   -4205.8072   -4707.1109            0    5506.6309    19.909541    20.056827     20.77938     8297.668    4186.1437    5315.0128    7018.7363    116.41683   -1309.0285   -236.02859   -3539.4334 
14984000    265.75854   -4685.0033   -4172.4656   -4685.0033            0    4603.6443    20.133422    20.206973     20.57823    8371.9545    6198.7584    2437.3963     5174.778    152.89656    318.33104   -233.59908   -3610.3773 
14985000     259.5555   -4708.7265   -4208.1518   -4708.7265            0    4993.4116    20.005096    20.045956    20.709169    8304.8174    3873.4056    7085.5573    4021.2719    209.51036   -392.73299    470.61169   -3603.3636 
14986000    264.49637    -4718.166   -4208.0625    -4718.166            0    4843.3807     20.08908     19.61079    21.047785    8292.0427    4745.8301    6467.9429     3316.369    -147.2211   -425.34032   -88.143136    -3622.348 
14987000    261.58669   -4684.3638   -4179.8719   -4684.3638            0    6078.8582    20.007891     20.00465    20.662583    8270.2166    5564.0707    5486.6499    7185.8541    387.23074    -196.8638    323.25388   -3446.6848 
14988000    269.45639    -4685.746   -4166.0767    -4685.746            0    6700.4934    20.119616    19.897675    20.615384    8253.0306    6463.1896    5633.8944    8004.3961    17.842115    425.43592    763.38948    -3359.592 
14989000    255.33728   -4689.6242   -4197.1848   -4689.6242            0    6603.7559    19.786819    19.830126    20.968506    8227.5198     7500.522    6476.9688     5833.777     70.45645   -436.04656    294.78841   -3404.8005 
14990000    260.68288    -4668.228   -4165.4791    -4668.228            0    6459.3169    19.926047    20.152259    20.552131    8252.8079     4688.104    7860.0985    6829.7482   -427.33314    1036.1918   -1200.8349   -3388.0439 
14991000    256.05719   -4696.8368    -4203.009   -4696.8368            0    5111.3276    20.252743     19.90159    20.452475    8243.6115     4675.185    5649.4284    5009.3694    1029.8045   -453.85971    141.41363   -3588.5016 
14992000    255.93232   -4680.0097   -4186.4227   -4680.0097            0    4180.7203    19.980625    20.123287    20.616362    8289.3417    3273.7577    5860.4178    3407.9854    288.58959   -788.21965    261.09227    -3681.009 
14993000     275.0195   -4697.0023   -4166.6041   -4697.0023            0    6041.5228    20.146402    20.031804    20.528005     8284.462    6006.6482    6129.4484    5988.4718    453.81887   -107.42801    -520.7298    -3436.665 
14994000    267.11837   -4689.9716   -4174.8114   -4689.9716            0    6440.5285    19.799768      20.0096    20.824318    8250.2917    7465.5732    6684.7993    5171.2131   -367.46841    828.35439   -158.91897   -3399.8738 
14995000    265.49435   -4646.8727   -4134.8445   -4646.8727            0    5608.5512    20.084015    19.779912    20.934784    8316.5531    6276.9812    5623.9362    4924.7363    378.70687   -1137.4622    106.61704   -3454.5923 
14996000    264.23056   -4669.0097   -4159.4189   -4669.0097            0    4659.0453    19.982689    20.131798    20.648575    8306.6628    5538.9731    3898.8259     4539.337    195.63514   -1381.9694    456.28006   -3595.0027 
14997000    269.80208   -4714.4867   -4194.1507   -4714.4867            0    4880.3334     20.00207    20.095134    20.584925     8273.993    7427.7173    2003.7393    5209.5436   -266.84708   -849.99757   -1446.9009   -3605.2521 
14998000      264.929   -4669.4964   -4158.5585   -4669.4964            0    5579.0389    20.047934    19.893368    20.712383    8260.5318    4025.7126    6382.2007    6329.2034   -1048.7649    47.239991     936.7941    -3486.444 
14999000    264.22642   -4717.7181   -4208.1353   -4717.7181            0    5570.3306    19.916886    19.815249    20.979772    8279.8361    5344.2948    7261.5655    4105.1316   -442.58612   -658.75664    45.630215   -3535.5016 
15000000    272.77022   -4669.2507   -4143.1903   -4669.2507            0    3294.8704    20.209642    20.164306    20.627341    8405.9182    3456.5171    2391.8141    4036.2799     245.3788   -492.97608   -691.72777   -3739.2666 
Loop time of 397.913 on 64 procs for 250000 steps with 972 atoms

Performance: 108.567 ns/day, 0.221 hours/ns, 628.278 timesteps/s
193.0% CPU use with 32 MPI tasks x 2 OpenMP threads

MPI task timing breakdown:
Section |  min time  |  avg time  |  max time  |%varavg| %total
---------------------------------------------------------------
Pair    | 27.541     | 35.309     | 46.552     |  74.4 |  8.87
Bond    | 0.85851    | 1.1819     | 2.2403     |  22.6 |  0.30
Kspace  | 167.99     | 180.61     | 197.05     |  43.0 | 45.39
Neigh   | 2.4254     | 2.7091     | 3.3937     |  17.2 |  0.68
Comm    | 70.954     | 81.348     | 85.947     |  43.3 | 20.44
Output  | 0.51732    | 0.51757    | 0.51903    |   0.0 |  0.13
Modify  | 77.043     | 79.518     | 83.575     |  16.0 | 19.98
Other   |            | 16.72      |            |       |  4.20

Nlocal:        30.3750 ave          35 max          23 min
Histogram: 2 0 2 0 5 6 3 4 5 5
Nghost:        2567.22 ave        2602 max        2533 min
Histogram: 2 4 3 4 2 6 4 3 0 4
Neighs:        9370.72 ave       11599 max        6083 min
Histogram: 1 1 2 2 4 2 6 9 4 1

Total # of neighbors = 299863
Ave neighs/atom = 308.50103
Ave special neighs/atom = 2.0000000
Neighbor list builds = 8164
Dangerous builds = 0

unfix		3
unfix		2
unfix		1

write_data	data.final.${pid}
write_data	data.final.0
System init for write_data ...
PPPM initialization ...
  extracting TIP4P info from pair style
  using 12-bit tables for long-range coulomb (../kspace.cpp:340)
  G vector (1/distance) = 0.37096487
  grid = 24 24 24
  stencil order = 5
  estimated absolute RMS force accuracy = 0.0036630029
  estimated relative force accuracy = 1.1031024e-05
  using double precision FFTW3
  3d grid and FFT values/proc = 3211 432
Last active /omp style is kspace_style pppm/tip4p/omp
WARNING: Not all mixed pair coeffs generated from mixing. Use write_data with 'pair ij' option to store all pair coeffs. (../write_data.cpp:312)

write_restart   restart.lmp.${pid}
write_restart   restart.lmp.0
System init for write_restart ...
PPPM initialization ...
  extracting TIP4P info from pair style
  using 12-bit tables for long-range coulomb (../kspace.cpp:340)
  G vector (1/distance) = 0.37096487
  grid = 24 24 24
  stencil order = 5
  estimated absolute RMS force accuracy = 0.0036630029
  estimated relative force accuracy = 1.1031024e-05
  using double precision FFTW3
  3d grid and FFT values/proc = 3211 432
Last active /omp style is kspace_style pppm/tip4p/omp
Total wall time: 0:06:38
