LAMMPS (30 Jul 2021)
  using 1 OpenMP thread(s) per MPI task
package omp 0
using multi-threaded neighbor list subroutines
echo both

include		in.partitions
variable        pid world 0
include		in.temp
variable        temperature equal 245.85
variable	tempDamp equal 100.0
include		in.pressure
variable        pressure equal 4750.0
variable        pressureDamp equal 1000.0 # This is 1 ps
include		in.seed
variable        seed world 745823

units		real
atom_style	full
read_restart	restart.lmp.${pid}
read_restart	restart.lmp.0
Reading restart file ...
  restart file = 30 Jul 2021, LAMMPS = 30 Jul 2021
  restoring atom style full from restart
  orthogonal box = (0.51905687 1.7029117 0.63324817) to (17.688516 21.926266 21.579948)
  4 by 4 by 4 MPI processor grid
  restoring pair style lj/cut/tip4p/long/omp from restart
  restoring bond style harmonic/omp from restart
  restoring angle style harmonic/omp from restart
  864 atoms
  576 bonds
  288 angles
Finding 1-2 1-3 1-4 neighbors ...
  special bond factors lj:    0        0        0       
  special bond factors coul:  0        0        0       
     2 = max # of 1-2 neighbors
     1 = max # of 1-3 neighbors
     1 = max # of 1-4 neighbors
     2 = max # of special neighbors
  special bonds CPU = 0.672 seconds
  read_restart CPU = 0.881 seconds
include 	in.setup
variable	out_freq equal 1000
variable	out_freq2 equal 10000
variable	out_freq3 equal 1000

timestep	2.0

neigh_modify    delay 7 every 1

include		in.tip4p
# This is TIP4P/Ice

# create groups ###
group ox type 2
288 atoms in group ox
group hy type 1
576 atoms in group hy

# set charges - beside manually ###
set group ox charge -1.1794
Setting atom values ...
  288 settings made for charge
set group hy charge 0.5897
Setting atom values ...
  576 settings made for charge

# ### TIP3P Potential Parameters ###
pair_style lj/cut/tip4p/long/omp 2 1 1 1 0.1577 8.5
pair_coeff 1 1*2 0.000 0.000
pair_coeff 2 2 0.21084 3.1668
bond_style  harmonic
bond_coeff  1 450 0.9572
angle_style harmonic
angle_coeff 1 55 104.52
kspace_style pppm/tip4p/omp 1.0e-5
pair_modify tail yes

thermo          ${out_freq}
thermo          1000
thermo_style    custom step temp pe etotal epair emol press lx ly lz vol pxx pyy pzz pxy pxz pyz enthalpy

restart 	${out_freq3} restart.lmp.${pid} restart2.lmp.${pid}
restart 	1000 restart.lmp.${pid} restart2.lmp.${pid}
restart 	1000 restart.lmp.0 restart2.lmp.${pid}
restart 	1000 restart.lmp.0 restart2.lmp.0


include         in.dump
dump            myDump all atom ${out_freq2} dump.water.${pid}
dump            myDump all atom 10000 dump.water.${pid}
dump            myDump all atom 10000 dump.water.0
dump            myDump2 all dcd ${out_freq2} dump.dcd
dump            myDump2 all dcd 10000 dump.dcd
dump_modify     myDump append yes
dump_modify     myDump2 append yes


variable natoms 	equal  "count(all)"                        # NUMBER ATOMS
variable H      	equal  "enthalpy/v_natoms"                 # ENTHALPY-per-atom
variable Vol      	equal  "vol/v_natoms"                 # volume-per-atom
fix AVG all 		ave/time ${out_freq} 1 ${out_freq} v_Vol v_H file vol_enthalpy.dat
fix AVG all 		ave/time 1000 1 ${out_freq} v_Vol v_H file vol_enthalpy.dat
fix AVG all 		ave/time 1000 1 1000 v_Vol v_H file vol_enthalpy.dat


timer           timeout 23:50:00 every 1000
New timer settings: style=normal  mode=nosync  timeout=23:50:00

fix 		1 all shake 1e-6 200 0 b 1 a 1
       0 = # of size 2 clusters
       0 = # of size 3 clusters
       0 = # of size 4 clusters
     288 = # of frozen angles
  find clusters CPU = 0.433 seconds
fix             2 all nph iso ${pressure} ${pressure} ${pressureDamp}
fix             2 all nph iso 4750 ${pressure} ${pressureDamp}
fix             2 all nph iso 4750 4750 ${pressureDamp}
fix             2 all nph iso 4750 4750 1000
fix             3 all temp/csvr ${temperature} ${temperature} ${tempDamp} ${seed}
fix             3 all temp/csvr 245.85 ${temperature} ${tempDamp} ${seed}
fix             3 all temp/csvr 245.85 245.85 ${tempDamp} ${seed}
fix             3 all temp/csvr 245.85 245.85 100 ${seed}
fix             3 all temp/csvr 245.85 245.85 100 745823

run             250000
PPPM initialization ...
  extracting TIP4P info from pair style
  using 12-bit tables for long-range coulomb (../kspace.cpp:340)
  G vector (1/distance) = 0.37331998
  grid = 24 24 24
  stencil order = 5
  estimated absolute RMS force accuracy = 0.0032701203
  estimated relative force accuracy = 9.8478703e-06
  using double precision FFTW3
  3d grid and FFT values/proc = 2535 216
Last active /omp style is kspace_style pppm/tip4p/omp
Neighbor list info ...
  update every 1 steps, delay 7 steps, check yes
  max neighbors/atom: 2000, page size: 100000
  master list distance cutoff = 10.8154
  ghost atom cutoff = 10.8154
  binsize = 5.4077, bins = 4 4 4
  1 neighbor lists, perpetual/occasional/extra = 1 0 0
  (1) pair lj/cut/tip4p/long/omp, perpetual
      attributes: half, newton on, omp
      pair build: half/bin/newton/omp
      stencil: half/bin/3d
      bin: standard
Per MPI rank memory allocation (min/avg/max) = 9.233 | 9.237 | 9.240 Mbytes
Step Temp PotEng TotEng E_pair E_mol Press Lx Ly Lz Volume Pxx Pyy Pzz Pxy Pxz Pyz Enthalpy 
 9000000    250.02081   -3885.1244   -3456.5973   -3885.1244            0    5404.8481    17.169459    20.223354    20.946699    7273.1978    5614.2356    4641.4599    5958.8487    1941.7878   -947.08102   -256.65512   -2883.2935 
 9001000    264.03198   -3950.6963   -3498.1545   -3950.6963            0    4078.2477    17.282488    20.356488    21.084595    7417.7878    1883.8504    4669.4818    5681.4108   -1179.5875   -599.30281    -426.9167   -3056.9663 
 9002000    254.23949   -3927.6428    -3491.885   -3927.6428            0    4164.9226    17.250459    20.318762     21.04552    7376.6226    4734.2463    3537.7146    4222.8068   -543.44958   -591.72274   -263.67374   -3043.8206 
 9003000    258.10709   -3972.7791   -3530.3924   -3972.7791            0    5872.4228    17.274511    20.347092    21.074863    7407.5204    5305.8106    6154.7186    6156.7392   -109.02444   -1136.4075    945.06944   -2895.9882 
 9004000    236.63872   -3958.7907   -3553.2001   -3958.7907            0    4697.1302    17.284358     20.35869    21.086876     7420.195    5300.3687    4977.3056    3813.7165    727.41272   -1262.8803    162.04359   -3044.8957 
 9005000    239.19214   -3899.5595   -3489.5923   -3899.5595            0    4058.2815    17.321538    20.402484    21.132236    7468.1833    2595.5947     5068.934    4510.3157     1127.296    807.55426   -820.84109   -3047.5814 
 9006000    258.37064    -3934.332   -3491.4935    -3934.332            0     3140.267     17.28966    20.364936    21.093345    7427.0262    794.04205    4765.4998    3861.2592     322.3607   -973.95835      464.224   -3151.3538 
 9007000    252.12175   -3922.4958   -3490.3678   -3922.4958            0    4423.3568    17.183635    20.240052    20.963995    7291.2286    5317.5182     4326.208    3626.3444    445.91522    435.70757   -340.68545   -3020.0097 
 9008000    246.61201   -3927.0227   -3504.3381   -3927.0227            0    5702.1206     17.26065    20.330765    21.057952    7389.7034    4388.3229     6660.134    6057.9051    1404.1851    1083.0646    468.64754   -2889.8135 
 9009000    263.28752   -3927.1896   -3475.9238   -3927.1896            0    5223.1368    17.175287    20.230219     20.95381    7280.6072    4400.4373    6342.8708    4926.1024   -1194.8124   -469.36521    148.56866   -2921.3301 
 9010000    244.16043    -3915.609   -3497.1263    -3915.609            0    5042.0032    17.216604    20.278885    21.004216    7333.2759    5380.6863    5267.7624    4477.5609    1579.8576   -299.21467   -997.58464   -2957.8926 
 9011000    254.01995   -3949.0834   -3513.7019   -3949.0834            0    4914.8211    17.243686    20.310785    21.037257    7367.9376     5286.308    4230.2533    5227.9019    617.60264   -885.49674   -478.22878   -2985.5856 
 9012000    254.07138   -3916.6114   -3481.1418   -3916.6114            0    2261.4701    17.326047    20.407795    21.137737    7474.0172    993.21473    3068.1132    2723.0822   -556.88998    198.35965    124.31392   -3234.6396 
 9013000     269.0255   -3932.1901   -3471.0896   -3932.1901            0     4806.992     17.21919    20.281932    21.007372    7336.5818    5165.5865    5414.7625    3840.6269     1008.538    649.26679    1907.4296   -2956.7582 
 9014000    249.06226   -3944.7941   -3517.9099   -3944.7941            0    6490.7871     17.15243    20.203297    20.925925    7251.5787    5853.5813    7689.2851     5929.495    74.811069    377.34757     1388.421   -2831.4648 
 9015000    248.15998    -3936.699   -3511.3613    -3936.699            0    4186.0008    17.271514    20.343562    21.071207     7403.666    3974.2559    2101.0837    6482.6628    981.08475    -446.5289    1660.2994   -3059.3784 
 9016000    249.50819   -3930.7822   -3503.1337   -3930.7822            0    3671.0366    17.308906    20.387605    21.116824    7451.8555    4040.4109    3687.2476    3285.4515    1129.8686    1345.6837   -139.24577    -3104.174 
 9017000    249.03283   -3908.3665   -3481.5327   -3908.3665            0    6158.6672    17.213732    20.275503    21.000713    7329.6075    5826.1134    8005.1209    4644.7673   -318.66276   -468.46805    62.175131   -2823.2032 
 9018000    240.14323   -3938.4822   -3526.8849   -3938.4822            0    5020.8367    17.249004    20.317048    21.043745    7374.7561    4433.7542    4533.7153    6095.0406   -584.83949   -472.95167   -1253.6379   -2986.8776 
 9019000    247.07787   -3917.5321   -3494.0491   -3917.5321            0    5694.4105    17.251194    20.319628    21.046417    7377.5657    5838.1253    6837.4305    4407.6757    632.81526     -644.322   -271.64518   -2881.3634 
 9020000     237.2984   -3921.4369   -3514.7155   -3921.4369            0    4561.1841    17.269551    20.341251    21.068812    7401.1425    4310.9221    4626.7513    4745.8789    981.27597   -163.31236   -608.82855   -3022.3901 
 9021000    248.74529   -3950.4119    -3524.071   -3950.4119            0    3471.6041    17.318245    20.398604    21.128218    7463.9237    3298.1802    3700.0775    3416.5546   -525.21899   -527.26264   -884.28457   -3146.1741 
 9022000     252.0573   -3921.9919   -3489.9744   -3921.9919            0    4083.6108    17.309161    20.387906    21.117136    7452.1855    4670.9034    3793.3696    3786.5594    785.39058    142.04722   -145.23689   -3046.1574 
 9023000    230.56556   -3923.4167   -3528.2352   -3923.4167            0    5021.6439    17.340752    20.425115    21.155676    7493.0622    6103.3945    6059.6301    2901.9071    227.75038   -35.916376    852.75906   -2979.4768 
 9024000    250.06223   -3880.8342   -3452.2361   -3880.8342            0    5223.0133    17.301143    20.378461    21.107354    7441.8335    5431.2739    3942.0341    6295.7321   -2766.4753    45.716967    243.80448   -2885.3746 
 9025000    247.66993   -3931.5198   -3507.0221   -3931.5198            0    5513.5271    17.308693    20.387354    21.116565    7451.5812    5484.9034    6699.2469     4356.431     615.3845   -151.34584     385.2954   -2907.8468 
 9026000    251.96408   -3906.7195   -3474.8617   -3906.7195            0     6915.016    17.261033    20.331217     21.05842    7390.1962    7164.4589    7718.7439    5861.8452   -1225.7535    575.90404   -524.57681   -2729.5722 
 9027000      251.073   -3924.9762   -3494.6457   -3924.9762            0    3687.9019    17.392587     20.48617    21.218916    7560.4587    3643.9562    4669.2004    2750.5492   -322.49283   -368.68345    1832.4682    -3088.012 
 9028000    243.80892   -3950.2212    -3532.341   -3950.2212            0    4857.5407    17.298933    20.375858    21.104658    7438.9824    4495.1273     6131.953    3945.5418    986.11909    203.12295   -525.84513   -3005.3468 
 9029000    244.39818     -3947.71   -3528.8199     -3947.71            0    5438.7262    17.219686    20.282516    21.007977    7337.2161    5679.8339    6387.5064    4248.8384   -411.71412   -1293.9414    2926.6624   -2946.8448 
 9030000    252.31806   -3918.8834   -3486.4189   -3918.8834            0    5778.2025    17.277411    20.350509    21.078402    7411.2526    6169.4776    4193.8375    6971.2924   -1090.2293    916.86741   -31.288264   -2861.8789 
 9031000    253.14076   -3924.0547   -3490.1801   -3924.0547            0    3940.5018    17.428394    20.528346      21.2626    7607.2497    3668.9968    4051.3139    4101.1947   -1630.7391   -1066.3245    989.95048   -3053.0054 
 9032000    248.64378   -3923.9702   -3497.8033   -3923.9702            0    4719.5856    17.295833    20.372207    21.100876    7434.9839     5081.054    3156.9807    5920.7222    461.29036   -66.007827   -796.51511    -2986.051 
 9033000    254.11394   -3922.2861   -3486.7435   -3922.2861            0    5000.9441    17.319237    20.399774    21.129429    7465.2071    4079.7074    5345.0215    5578.1034   -397.35835   -1077.2358   -69.296799   -2942.2788 
 9034000     256.5507    -3950.827   -3511.1079    -3950.827            0    4543.6802    17.191287    20.249065    20.973329    7300.9727    3501.2116    4775.4632    5354.3656   -189.91244    451.66107   -667.63397   -3027.3096 
 9035000    233.77798   -3925.3829   -3524.6954   -3925.3829            0    6534.0084    17.191635    20.249475    20.973754    7301.4162    6127.7296    5590.0195    7884.2762      174.588   -773.34388    354.19435   -2828.9303 
 9036000    237.53111   -3902.4298   -3495.3096   -3902.4298            0    7108.1438    17.186632    20.243582    20.967651    7295.0439     7502.125    6846.9981    6975.3085   -188.58803    970.14048   -548.76956   -2739.0689 
 9037000      251.828   -3902.5016    -3470.877   -3902.5016            0    4176.1087    17.246582    20.314196     21.04079      7371.65    3904.4243    3537.2878    5086.6141   -1402.2494   -463.96821   -707.69047   -3021.9121 
 9038000    242.47204   -3886.6135   -3471.0247   -3886.6135            0    4505.8115    17.260413    20.330486    21.057663    7389.3988    6412.6235     2715.006    4389.8051   -154.28889   -54.161486   -2854.3969   -2985.4478 
 9039000    248.77929   -3920.1205   -3493.7213   -3920.1205            0    4412.5988    17.260394    20.330464     21.05764    7389.3751    4104.5245    5077.3419    4055.9299    882.62183    201.57727    182.65729   -3018.1912 
 9040000    236.74552   -3899.2933   -3493.5196   -3899.2933            0     4062.237    17.267835    20.339229    21.066719    7398.9364    1804.3274    3183.8851    7198.4985    -1.558882      970.048   -802.18882   -3055.1803 
 9041000    237.38843   -3895.7592   -3488.8836   -3895.7592            0    3401.0473    17.274871    20.347516    21.075302    7407.9839    2249.5104    2220.4224    5733.2091    506.02959    -205.9424   -938.68659   -3121.4418 
 9042000    241.35635   -3921.2084   -3507.5319   -3921.2084            0    3980.8543    17.281211    20.354983    21.083037    7416.1426    3234.7355    4232.0577    4475.7698   -777.05777   -747.57749    97.008837   -3076.9753 
 9043000    239.92236   -3898.0886   -3486.8699   -3898.0886            0    3477.2542    17.281818    20.355699    21.083777    7416.9244    4753.7597    2866.9274    2811.0756   -74.725394    391.64898   -1550.9408   -3110.7415 
 9044000    243.71027   -3928.4394   -3510.7284   -3928.4394            0    5195.4224    17.241888    20.308667    21.035063    7365.6329    6190.9929    4092.8405    5302.4337   -209.87913    553.84451    964.03176   -2952.6351 
 9045000    229.49201   -3954.7107   -3561.3692   -3954.7107            0     6653.181    17.212819    20.274427    20.999599    7328.4407    5658.5991    7678.1177    6622.8261     198.5618    458.66401    528.44619   -2850.2919 
 9046000    249.38564   -3912.2786   -3484.8402   -3912.2786            0    3954.1888    17.234537    20.300008    21.026094    7356.2152    3959.8276    4873.3608     3029.378    37.214529    88.980007    1419.4735   -3060.6235 
 9047000    239.05955   -3930.7259    -3520.986   -3930.7259            0    5096.7098    17.222077    20.285332    21.010894    7340.2722    4202.4677    6959.2286    4128.4331    239.88821   -30.980735    1775.5997   -2975.3814 
 9048000    249.72874   -3924.6173   -3496.5908   -3924.6173            0    3878.5843    17.274637    20.347241    21.075017    7407.6828    2342.8428     4598.025    4694.8851    283.83185     477.4363    -1416.455   -3077.5739 
 9049000    255.40413   -3922.9948   -3485.2409   -3922.9948            0    4642.7027    17.344051    20.429001    21.159701    7497.3399    4535.7771    5139.3253    4253.0057   -346.32393   -1399.6258    1082.7493   -2977.6031 
 9050000    251.17414   -3950.5088   -3520.0049   -3950.5088            0    3989.0661     17.33469    20.417975    21.148281    7485.2073    2906.5041    5311.3429    3749.3514   -1019.7559   -743.31047   -367.50119   -3084.5422 
 9051000    247.52802   -3896.7164   -3472.4619   -3896.7164            0    4529.1432    17.268813     20.34038    21.067911    7400.1925    5909.2966    3858.5084    3819.6245   -1454.5366    803.11368   -662.87002   -2983.6577 
 9052000     249.4548   -3945.9002   -3518.3432   -3945.9002            0    4974.6231    17.284828    20.359245     21.08745    7420.8013    6987.7902    3412.5544    4523.5246    -648.3388    303.08116   -224.70934   -2979.9658 
 9053000    232.51159   -3931.5627   -3533.0458   -3931.5627            0    5074.2526    17.242089    20.308903    21.035308    7365.8901    4804.8742    5070.1845     5347.699    665.07966   -172.70317   -858.76562   -2987.9495 
 9054000     248.2667   -3909.2322   -3483.7116   -3909.2322            0    3850.7072    17.292764    20.368592    21.097132    7431.0272    4961.7842    2181.0151    4409.3224    1394.2672    1596.9443    1588.1279   -3066.3954 
 9055000    234.05624   -3925.1591   -3523.9947   -3925.1591            0    5239.7124    17.280162    20.353748    21.081757    7414.7926    4523.6129    5692.5516    5502.9726   -253.00358    -45.60216   -470.52833   -2957.3871 
 9056000    259.22826   -3938.9745   -3494.6662   -3938.9745            0    4418.9653    17.363517    20.451929     21.18345    7522.6118    5300.4302    4742.5968    3213.8689   -690.51623   -763.98175    564.12643   -3009.8634 
 9057000    251.91492    -3958.907   -3527.1334    -3958.907            0    5630.7782    17.352812     20.43932     21.17039    7508.7072     5462.821    6648.2011    4781.3125   -933.79534   -541.64229    1669.1105    -2910.525 
 9058000    247.44568   -3925.0249   -3500.9115   -3925.0249            0    7152.4009    17.275493    20.348249    21.076061    7408.7844    6563.5767    9118.0752    5775.5509   -637.18145   -175.97247    701.71108    -2728.098 
 9059000    238.42989   -3924.4822   -3515.8215   -3924.4822            0    3865.0469    17.423657    20.522766     21.25682    7601.0484    4331.5994    3621.4929    3642.0484   -221.85595   -436.31503    642.05213   -3087.3676 
 9060000    237.31721   -3957.9896    -3551.236   -3957.9896            0    2936.9827     17.46353    20.569731    21.305465    7653.3515    2162.8718    2150.7972     4497.279   -103.31804   -699.38252   -262.17025   -3223.4209 
 9061000    230.31508   -3913.8876   -3519.1354   -3913.8876            0    4758.2856    17.377999    20.468988    21.201119    7541.4511    5918.3999    3126.8481    5229.6088    979.18183   -1614.2263   -489.38496   -2995.7986 
 9062000    241.57946   -3902.7216   -3488.6627   -3902.7216            0    4577.1197    17.422125    20.520962    21.254952    7599.0441    4070.6004    6603.7344    3057.0244   -246.81889   -664.22381   -766.54044   -2981.4068 
 9063000    260.54776   -3895.3249    -3448.755   -3895.3249            0    5241.9566     17.29496    20.371178     21.09981    7433.8577    5512.5435    5068.4097    5144.9165    36.103302    -91.98673   -680.70269   -2880.4473 
 9064000    244.25068   -3914.9643    -3496.327   -3914.9643            0    3875.6773    17.342509    20.427185     21.15782    7495.3406     3534.603    3751.2475    4341.1814    1260.3323    122.68064    -187.1166   -3072.6695 
 9065000    224.31878   -3917.2139   -3532.7392   -3917.2139            0    3685.2615    17.385171    20.477435    21.209868    7550.7916    3246.7131    4740.4706    3068.6009    645.38734   -502.05613     1602.552   -3126.9161 
 9066000    267.22853   -3900.8273   -3442.8068   -3900.8273            0    2917.7035     17.36915    20.458565    21.190323    7529.9365    2585.8681    2858.5321    3308.7101    381.45535   -43.558493   -470.79339   -3122.3951 
 9067000    244.86378   -3942.0633   -3522.3752   -3942.0633            0    5086.8015    17.303521    20.381262    21.110255    7444.9031     5583.531    6222.3636    3454.5099    60.049773    978.39255   -73.329297   -2970.0692 
 9068000    242.57825   -3905.1554   -3489.3846   -3905.1554            0    5041.3961    17.348033    20.433692     21.16456    7502.5055    4845.1532    5411.2467    4867.7886    1484.9259   -1855.2262    509.70947   -2937.7734 
 9069000    239.46043   -3933.9774   -3523.5504   -3933.9774            0    4966.8286    17.339608    20.423767    21.154281    7491.5793    4385.9745    5605.4874     4909.024   -727.94264    121.42554    321.56351   -2980.8896 
 9070000    241.25119   -3905.3611   -3491.8648   -3905.3611            0    4258.2045    17.346489    20.431872    21.162676    7500.5019     4851.129    2704.9476    5218.5368   -60.657478    1206.3493    1657.8099   -3026.0721 
 9071000    241.80674   -3914.4903   -3500.0418   -3914.4903            0    4954.2614    17.307827    20.386334    21.115509    7450.4627    6525.2646    3220.5339    5116.9856    28.084097   -368.29079     -244.133   -2961.7249 
 9072000    262.10671   -3885.4227   -3436.1808   -3885.4227            0    4318.1279    17.318687    20.399126    21.128758    7464.4957    4471.6764    3623.0084     4859.699    158.37619     260.6016   -169.47127   -2966.1007 
 9073000    225.01117   -3912.3838   -3526.7223   -3912.3838            0    4445.4494    17.267186    20.338465    21.065927     7398.102    4112.3405    5616.8334    3607.1744     1442.272    730.37953    600.83391   -3047.0862 
 9074000    236.29378   -3902.4621   -3497.4626   -3902.4621            0    4106.0304    17.373579    20.463781    21.195726    7535.6977    4433.0897    4796.3913    3088.6102    1008.0838    423.57914    199.51994   -3046.2082 
 9075000    239.80767   -3899.7975   -3488.7753   -3899.7975            0    3264.9905    17.402659    20.498034    21.231203    7573.6009    3674.6459    2490.8607     3629.465   -351.59289     486.9524   -427.40477   -3128.1467 
 9076000    251.22905   -3929.6509   -3499.0529   -3929.6509            0     6202.643    17.300014    20.377131    21.105976    7440.3769    6369.7173    6528.9519    5709.2597   -817.44909   -344.27238   -899.74723   -2826.0025 
 9077000    240.90751   -3940.0142    -3527.107   -3940.0142            0    4603.8048    17.342179    20.426796    21.157418    7494.9131    5475.3119    4521.5056    3814.5968    826.93934   -310.64479   -601.22243   -3023.8852 
 9078000    254.89975   -3876.9391   -3440.0496   -3876.9391            0    4849.9948    17.274187    20.346711    21.074468     7407.104    4132.7007    5290.3757    5126.9082   -32.422657   -850.79359   -935.30651   -2916.1289 
 9079000    244.08555   -3899.7223    -3481.368   -3899.7223            0    4047.8303    17.245444    20.312856    21.039402    7370.1913    6319.6348    3173.4796    2650.3764   -423.59957    494.92251    2094.4359   -3046.2801 
 9080000    252.16927   -3867.1761   -3434.9666   -3867.1761            0    4835.1378    17.286783    20.361547    21.089835    7423.3192    4797.8718    5090.3716    4617.1699    1401.9224   -991.38675   -1289.4907   -2911.5073 
 9081000    247.32804   -3920.5801   -3496.6683   -3920.5801            0    4501.4857    17.263419    20.334027    21.061331    7393.2604    3968.6259    5585.8171    3950.0141   -607.94149    980.16988   -988.41219   -3011.3041 
 9082000    249.32398   -3952.2633   -3524.9305   -3952.2633            0    4117.9756    17.312973    20.392395    21.121787    7457.1099    3461.1112    4327.3592    4565.4566   -1542.3552    915.41258    -1023.818    -3077.083 
 9083000    241.07336   -3939.0914   -3525.8999   -3939.0914            0    6295.6158    17.243213    20.310227     21.03668    7367.3309    7071.2778    5095.2243    6720.3454    1058.0441    389.16145    507.75499   -2849.4677 
 9084000    256.80256   -3919.0185   -3478.8677   -3919.0185            0    3609.0389    17.270529    20.342402    21.070005    7402.3989     4303.839    3091.5643    3431.7133    260.72965    210.02527    448.44394   -3089.2489 
 9085000    245.99762   -3940.7944   -3519.1629   -3940.7944            0     6029.334     17.21267    20.274251    20.999417    7328.2501    6616.0961    5342.7868    6129.1192    644.56845    253.95943   -471.40105   -2874.7778 
 9086000    239.55767   -3916.5817    -3505.988   -3916.5817            0    6826.5456    17.266412    20.337552    21.064982    7397.1062    4251.1454    8423.3121    7805.1792   -483.20908    -533.2212   -753.93718   -2769.5457 
 9087000    245.39191   -3949.2869   -3528.6936   -3949.2869            0    5572.9783    17.260878    20.331035    21.058231    7389.9969    2969.3229    7209.7417    6539.8702   -1164.6699    2083.7718    697.86556   -2928.0629 
 9088000    257.50721   -3906.1285   -3464.7699   -3906.1285            0    5011.8573    17.277549     20.35067    21.078569    7411.4293    3765.6301    5723.0989    5546.8428     686.6906    540.65511   -929.22048   -2923.0478 
 9089000    230.73161   -3925.6376   -3530.1715   -3925.6376            0    3280.7936    17.264056    20.334778    21.062108    7394.0792    2927.6748    4010.2775    2904.4285   -36.398773   -542.54251   -572.09133   -3176.3869 
 9090000    229.77688   -3892.0428   -3498.2131   -3892.0428            0    3460.4645    17.337982    20.421852    21.152297    7489.4722    3658.7387    3917.7744    2804.8805   -336.27299    838.34079   -2042.3319   -3120.2395 
 9091000    234.99379   -3924.2904    -3521.519   -3924.2904            0    4235.6093     17.29331    20.369235    21.097798    7431.7311    4566.4653    3728.5874    4411.7751   -347.23857   -1458.9137    923.66091    -3062.446 
 9092000    251.01968   -3900.4991     -3470.26   -3900.4991            0    3158.2529    17.322162    20.403219    21.132997    7468.9902    1881.7846    3359.1809    4233.7931   -342.57356    314.09028     1066.157   -3126.2392 
 9093000    240.93852   -3921.7547   -3508.7944   -3921.7547            0    4581.9282     17.26161    20.331896    21.059124    7390.9366    3425.7396    5845.5394    4474.5055    1477.9494    292.61151     1237.178   -3014.9119 
 9094000    244.74314   -3920.6759   -3501.1946   -3920.6759            0     5090.241    17.250126     20.31837    21.045113    7376.1953    5394.2353    4620.5669    5255.9208   -101.59942    1408.2051    1429.9893   -2953.6158 
 9095000    225.92866   -3881.3778   -3494.1438   -3881.3778            0    6094.9059    17.266459    20.337608     21.06504    7397.1672    6732.3454    5382.2216    6170.1508   -132.80346   -604.99894   -726.66858   -2836.6248 
 9096000    254.61769   -3912.6866   -3476.2806   -3912.6866            0    5050.5957    17.339905    20.424118    21.154644    7491.9647    6050.9205     6074.859    3026.0076    910.17429   -1306.7524   -99.765035   -2924.4393 
 9097000    254.76093   -3911.0174   -3474.3659   -3911.0174            0    4963.4227    17.262612    20.333077    21.060346    7392.2241    5558.4229    5109.8649    4221.9803    324.52618   -1058.4549    770.18035   -2939.2692 
 9098000    245.11668   -3950.3986    -3530.277   -3950.3986            0    3975.1009    17.380811    20.472299    21.204548    7545.1117    3563.0948    4051.6294    4310.5787   -4.8170918    596.33234    1591.5866    -3092.866 
 9099000    254.92536   -3917.6892   -3480.7558   -3917.6892            0    6375.2696    17.248791    20.316797    21.043485    7374.4826    7277.5556    5447.4574     6400.796    574.70909    853.26326    1443.1762   -2795.1002 
 9100000    251.52521   -3939.2476   -3508.1419   -3939.2476            0    4189.0917    17.206054    20.266458    20.991345    7319.8032    4034.2511    3595.8588    4937.1651    414.78276    829.28723    2036.4641   -3060.9488 
 9101000    249.72598   -3943.8062   -3515.7845   -3943.8062            0     4973.817    17.250958     20.31935    21.046129    7377.2627    5272.8175    4220.0313    5428.6021     1631.408    1075.0602    526.21805   -2980.6524 
 9102000    254.98326   -3901.1575   -3464.1249   -3901.1575            0    6782.8076    17.206365    20.266825    20.991725    7320.2008      9766.54    5331.4921    5250.3909   -261.02445    -1175.809   -587.78112   -2740.0085 
 9103000    248.33564   -3912.9552   -3487.3165   -3912.9552            0     5896.269    17.237632    20.303654    21.029871    7360.1798    5838.3171    5261.8087    6588.6812   -306.89044   -357.51946    -20.82118    -2854.407 
 9104000    236.66512   -3903.6283   -3497.9923   -3903.6283            0    3476.0085    17.264823    20.335682    21.063044    7395.0653    3920.2143    3414.7057    3093.1055   -1289.5115    251.73362    371.62935   -3123.1068 
 9105000    256.68979   -3927.8241   -3487.8666   -3927.8241            0    3120.4416    17.342894    20.427638     21.15829    7495.8395    3447.0971    3233.7315    2680.4961    577.63674   -265.49689    2359.9689   -3146.7427 
 9106000    241.10402   -3925.9671   -3512.7231   -3925.9671            0    5008.9728    17.220511    20.283488    21.008984    7338.2707    5407.3456    5000.4839    4619.0889     -246.157   -246.44479   -904.66443    -2976.657 
 9107000    236.86668   -3915.6573   -3509.6759   -3915.6573            0    4444.1359    17.256473    20.325846    21.052857    7384.3407    6023.7512    2914.1837    4394.4729    655.49763    827.90269    716.26107   -3031.0734 
 9108000    245.03573   -3922.3654   -3502.3825   -3922.3654            0    4773.9446      17.3164    20.396431    21.125967    7461.5386    4208.7747     4548.685    5564.3742      545.274     13.85159    1380.5328   -2982.8872 
 9109000    245.85221   -3945.3695   -3523.9873   -3945.3695            0    3988.4918    17.278699    20.352025    21.079972    7412.9093    4147.8942    5580.0343    2237.5469   -129.92633    1210.4043    1013.9176   -3092.7927 
 9110000    236.57815   -3936.4799   -3530.9931   -3936.4799            0    4887.4705    17.307764     20.38626    21.115432    7450.3811    3944.2898    5101.2523    5616.8692    295.70253   -733.47575    561.92965   -2999.9393 
 9111000    247.55794   -3935.1747   -3510.8688   -3935.1747            0    2993.2378    17.311218    20.390328    21.119645    7454.8423    3529.5153    3323.7934    2126.4047  -0.85084057   -28.230232    -710.8438   -3185.4403 
 9112000    251.71715   -3932.2321   -3500.7975   -3932.2321            0    4590.8648    17.249523     20.31766    21.044378    7375.4218    4901.7848    3360.8212    5509.9884    642.70758   -806.69143   -499.76961   -3006.9905 
 9113000    241.36194   -3936.9841    -3523.298   -3936.9841            0    5564.7117    17.231694     20.29666    21.022627     7352.576    7076.0345    5272.4617    4345.6388   -490.20651   -264.38736    128.17426   -2926.5952 
 9114000    252.70939   -3909.5945   -3476.4593   -3909.5945            0    6053.3241    17.298501    20.375349    21.104131    7438.4249    6433.7906    5379.8213    6346.3603   -1178.5416   -1546.9714    797.84069   -2819.7838 
 9115000    257.88754   -3945.7582   -3503.7477   -3945.7582            0    3951.3241    17.306115    20.384317     21.11342    7448.2516    5637.6862    3087.7188    3128.5674   -243.98925    787.70012    319.25179   -3074.5347 
 9116000    240.11033   -3945.9405   -3534.3997   -3945.9405            0    6286.8222    17.263539    20.334169    21.061478    7393.4154    6688.0568    4825.3122    7347.0975   -709.51909    2273.8442    983.43883   -2856.5207 
 9117000    234.84494   -3962.5484   -3560.0323   -3962.5484            0    5174.2827    17.272317    20.344507    21.072186    7404.6981    4000.8936    5642.9745      5878.98    298.33029    918.48319   -143.67832   -3001.2618 
 9118000    241.30502   -3947.5107   -3533.9222   -3947.5107            0    5072.5318    17.261762    20.332076     21.05931    7391.1327     6632.371    4563.7895    4021.4348    1580.6795   -668.53816    923.71631   -2987.1434 
 9119000     234.1474   -3914.4127   -3513.0921   -3914.4127            0     5343.647    17.315995    20.395954    21.125473    7461.0149    5290.4974    4420.6163    6319.8275     516.6117    276.29946   -358.41662   -2931.6432 
 9120000    240.97707   -3957.9536   -3544.9272   -3957.9536            0    3052.2899    17.406663     20.50275    21.236088    7578.8299    3716.1311    3393.7691    2046.9696    606.20795   -851.49389    135.87148   -3207.5592 
 9121000    244.20555   -3945.4191   -3526.8592   -3945.4191            0    5250.0056    17.371409    20.461225    21.193078    7532.8741    6511.9112    4847.8873    4390.2183   -251.48357     952.9421   -1567.9879   -2950.0975 
 9122000    242.74024   -3873.5367   -3457.4882   -3873.5367            0     4602.066    17.335646    20.419102    21.149448    7486.4463    5718.3906    4342.7829    3745.0245   -1099.5104   -1060.0218   -1466.5089   -2955.0248 
 9123000    241.06326    -3932.326   -3519.1518    -3932.326            0    4713.6248    17.287709    20.362638    21.090965    7424.5123    4770.0854    3828.8584    5541.9305    1008.7928   -1367.6803     136.6885   -3008.7658 
 9124000    252.94469   -3907.4027   -3473.8642   -3907.4027            0    4217.8102    17.322035    20.403069    21.132842    7468.8258    4034.5678    2855.1806    5763.6822    101.30836   -565.03455   -454.76277   -3014.4385 
 9125000    265.50127   -3908.1111    -3453.051   -3908.1111            0    4357.7538    17.373744    20.463976    21.195927    7535.9126    3233.6477    5649.5084    4190.1055    671.02863     4.419341   -717.99721   -2974.1184 
 9126000     248.5192    -3910.712   -3484.7586    -3910.712            0    4338.2224     17.34302    20.427787    21.158444    7496.0035    3228.7016    4428.6213    5357.3444    -705.7911   -1713.7593   -685.68498   -3010.4975 
 9127000    256.48811   -3918.2141   -3478.6022   -3918.2141            0      4794.88    17.306973    20.385328    21.114467    7449.3597    5309.2563    5777.5669     3297.817   -421.96751   -1989.4983   -625.46796   -2957.6804 
 9128000    252.70346   -3920.4413   -3487.3162   -3920.4413            0    5142.0803    17.252215    20.320831    21.047662    7378.8757    5554.4752    5228.5658    4643.2001    1581.0083    794.70522    663.41561   -2933.9598 
 9129000    246.59393   -3878.7371   -3456.0836   -3878.7371            0    4969.9037    17.278663    20.351983    21.079928    7412.8633    5309.7484     3916.982    5682.9806    407.30335    201.41268    686.30539   -2918.7922 
 9130000    235.39786   -3917.9783   -3514.5145   -3917.9783            0      6703.72    17.167624    20.221194    20.944462    7270.8671    5657.4822     8051.684    6401.9938    1297.3043   -1560.6954   -963.61356   -2803.6645 
 9131000    246.34516   -3964.2828   -3542.0556   -3964.2828            0    4446.2007    17.282615    20.356638    21.084751    7417.9515    5927.3655    3864.8541    3546.3826   -1131.7193   -869.36788   -56.317522   -3061.0513 
 9132000    261.87854   -3937.9429   -3489.0921   -3937.9429            0    4071.8431    17.346897    20.432353    21.163174    7501.0312    4932.0549    3149.4684    4134.0059    1109.9307   -8.9124548   -51.650862   -3043.6534 
 9133000    239.65822   -3940.8434   -3530.0774   -3940.8434            0    3598.3886    17.348575     20.43433    21.165221    7503.2086    4362.0813    3824.5225    2608.5619    260.53616    109.70108    2220.1313   -3136.3179 
 9134000    230.01027   -3928.2557    -3534.026   -3928.2557            0    4031.1207    17.297738    20.374451    21.103201    7437.4416    4471.1589    4526.0262    3096.1771   -283.27482    598.81951    656.18105   -3096.7805 
 9135000    235.67495   -3953.8146   -3549.8758   -3953.8146            0    4475.3402    17.285269    20.359764    21.087988     7421.369    5808.8544    3775.7399    3841.4264   -672.76969    1601.4851    -1274.004   -3065.4961 
 9136000    238.90766   -3930.2128   -3520.7332   -3930.2128            0    4873.9904    17.324868    20.406406    21.136298    7472.4902    4767.0956    5073.7818    4781.0939   -513.52183    1323.5871    540.80393   -2989.5725 
 9137000    238.44463   -3945.4133   -3536.7274   -3945.4133            0    4427.9386     17.32052    20.401285    21.130994    7466.8666    4206.8597    4091.6219    4985.3342   -761.66037    1420.4672    433.11287     -3054.54 
 9138000     244.0423   -3924.1953   -3505.9151   -3924.1953            0    5599.2365    17.303524    20.381266    21.110259    7444.9071    5478.1944    4458.1852    6861.3298    760.06393   -1001.1236   -599.96076   -2897.9706 
 9139000    235.80238   -3976.9631   -3572.8059   -3976.9631            0     4861.231    17.291114    20.366648    21.095119       7428.9    6393.1649    2601.9674    5588.5606    953.21727   -57.577209    1979.0662   -3046.1261 
 9140000    261.37816   -3967.5556   -3519.5624   -3967.5556            0    3461.1419    17.299769    20.376843    21.105678     7440.061    4703.5449    3924.5885    1755.2922   -712.73696    1010.2283   -91.243737   -3144.0089 
 9141000    233.89163    -3943.059   -3542.1768    -3943.059            0    3824.7052    17.221374    20.284503    21.010036    7339.3729    5519.6572    4641.5282    1312.9301   -129.01971   -40.999079   -462.09419   -3132.7909 
 9142000    237.76072   -3930.0125   -3522.4987   -3930.0125            0    3932.1775     17.26295    20.333475    21.060758     7392.658    3342.9047    4344.2401    4109.3877   -970.66034    387.54955    927.23998   -3098.5536 
 9143000    236.28522   -3920.5414   -3515.5566   -3920.5414            0    6871.1067    17.203774    20.263773    20.988564    7316.8938     6683.749    4982.9608    8946.6103   -667.33258    18.219393    547.06512    -2782.345 
 9144000    237.90853   -3924.4523   -3516.6852   -3924.4523            0    3783.4676    17.274985    20.347651    21.075442    7408.1309    4614.8366    1408.0024    5327.5637   -1403.9993   -2025.4766    1926.2258   -3107.9194 
 9145000     246.6134   -3891.8348   -3469.1478   -3891.8348            0    6000.6898    17.255205    20.324352     21.05131    7382.7127    6549.0841      4419.14    7033.8454   -1382.6867    22.904171     3654.063   -2823.0578 
 9146000    237.89986   -3935.3307   -3527.5785   -3935.3307            0    6999.1093    17.258234     20.32792    21.055005    7386.6015    5635.2615    8863.0421    6499.0245    865.54647   -86.985989    896.58976   -2773.5924 
 9147000    233.39919   -3944.3238   -3544.2856   -3944.3238            0    5677.9141    17.250833    20.319203    21.045976    7377.1022    5828.2466    5218.7487    5986.7471     690.2785   -1086.6836    2534.2411   -2933.4132 
 9148000    236.06592   -3958.4456   -3553.8367   -3958.4456            0    5028.1989    17.250908    20.319291    21.046068     7377.199    4599.3464     7182.107    3303.1433    -34.60595   -853.69574    2053.7899   -3012.8584 
 9149000    259.48816   -3924.6066   -3479.8527   -3924.6066            0     3821.126    17.264075      20.3348    21.062131    7394.1034    1906.2503    4742.4247     4814.703    623.84824   -1233.6536    1269.7283      -3067.8 
 9150000    232.85022    -3929.132   -3530.0347    -3929.132            0    4953.6941    17.291996    20.367687    21.096194    7430.0366    4811.1412    5214.6589    4835.2823   -573.94584   -542.64475   -231.70889   -2993.2551 
 9151000    245.15369   -3936.5024   -3516.3174   -3936.5024            0    3344.9137    17.283237     20.35737    21.085509    7418.7517    2707.9042    2645.8296    4681.0072    790.62623    1615.7311      98.2226   -3154.4149 
 9152000    239.85433   -3964.3048   -3553.2027   -3964.3048            0    4511.6758    17.218562    20.281192    21.006606    7335.7792    2657.6029     3971.543    6905.8816    106.38992   -661.57513    825.59703   -3070.5219 
 9153000    241.42917   -3951.6702   -3537.8688   -3951.6702            0    4857.2417    17.289585    20.364847    21.093253    7426.9292    4277.2097    4446.8745    5847.6409   -141.29321    58.827058   -87.391009   -3011.7609 
 9154000    232.15515    -3947.291    -3549.385    -3947.291            0    2576.1865    17.323279    20.404535     21.13436    7470.4356    3334.1222    1716.4157    2678.0216   -230.06954    273.89857   -122.72962    -3268.713 
 9155000    242.19419    -3928.177   -3513.0644    -3928.177            0    5047.2209    17.187085    20.244116    20.968203    7295.6209    5669.7981    3799.7813    5672.0833   -22.509001   -1330.2951   -326.41285   -2976.0444 
 9156000    223.73428   -3948.6835   -3565.2106   -3948.6835            0    3107.0719    17.240235    20.306719    21.033046    7363.5137    3492.7919    2130.0171    3698.4067    416.52875    764.55728   -178.90398   -3231.5444 
 9157000    249.70619    -3968.548   -3540.5602    -3968.548            0    3787.0575    17.253208       20.322    21.048874    7380.1498    3489.6591    4525.7661    3345.7472     283.6934    417.78376    801.18838   -3132.9519 
 9158000    239.20927   -3947.0156   -3537.0191   -3947.0156            0    4194.3634    17.257936    20.327569    21.054642    7386.2189     4463.256    5166.4781    2953.3559    195.83928    346.55883    412.91804   -3085.2005 
 9159000    246.91463   -3955.9128   -3532.7096   -3955.9128            0    5670.3131     17.26285    20.333357    21.060637    7392.5298    3415.9685    4916.2752    8678.6955    548.26926   -112.52978    649.74596   -2921.3792 
 9160000    260.52506   -3932.2362   -3485.7052   -3932.2362            0    6647.2787     17.29785    20.374583    21.103337    7437.5856    5108.8213    8292.5509    6540.4639   -1601.0033   -149.34326    734.56344   -2764.6778 
 9161000    241.60086   -3957.5135   -3543.4179   -3957.5135            0     7235.394    17.240146    20.306614    21.032937    7363.3996    7190.4604    8974.9317    5540.7898   -827.72798    31.132571   -1521.7128   -2766.4261 
 9162000    242.22179   -3953.2169   -3538.0571   -3953.2169            0    5654.1124    17.290083    20.365434    21.093861    7427.5711    4622.8421    5546.0239    6793.4711    493.93868   -1338.4454    733.99689   -2925.5838 
 9163000    250.83014   -3924.6339   -3494.7196   -3924.6339            0    4679.4382    17.304583    20.382513    21.111551    7446.2738     5956.099    4429.4749    3652.7408    259.35141   -31.176005    83.909237   -2986.5501 
 9164000    249.76623   -3957.1636   -3529.0729   -3957.1636            0    5050.8537    17.315816    20.395744    21.125255     7460.784    5204.2923    4544.3606    5403.9083    1453.6079    743.78056   -1325.1318   -2979.5002 
 9165000    245.50084   -3946.3184   -3525.5384   -3946.3184            0    4551.7073    17.314606    20.394319    21.123779    7459.2201    3582.5733     5307.558    4764.9905    1807.0564    581.80787   -367.77052   -3030.3806 
 9166000    257.91443   -3947.3011   -3505.2445   -3947.3011            0    4579.0806    17.287108     20.36193    21.090232    7423.7383    4423.4361    5077.9528    4235.8529    903.92209   -1065.8996   -347.05606   -3009.4784 
 9167000    241.02588   -3973.3454   -3560.2353   -3973.3454            0    2238.7034    17.276927    20.349938    21.077811    7410.6297    2339.8942    2424.5448    1951.6712   -1870.9122    217.33506    264.89132   -3318.2842 
 9168000     264.1943   -3940.9301   -3488.1101   -3940.9301            0    3384.1798    17.228082    20.292405     21.01822    7347.9537     4638.641    3615.1298    1898.7685   -889.07773   -676.48804     1704.657   -3125.4533 
 9169000    256.55472    -3932.427    -3492.701    -3932.427            0    5038.6567    17.222419    20.285734     21.01131     7340.709    5693.5546    5432.4319    3989.9837    997.67884    -858.6926   -870.15182    -2953.279 
 9170000    243.65782   -3934.8159   -3517.1948   -3934.8159            0    6578.4479    17.212556    20.274117    20.999278    7328.1045    6157.5259     7776.259    5801.5588    538.54262    1194.9992    1235.6885    -2814.137 
 9171000    245.32934   -3948.9385   -3528.4524   -3948.9385            0    1188.0981    17.310669    20.389682    21.118976    7454.1332    2339.6106    782.84522    441.83846   -1355.8865    77.337381    374.44922   -3399.2932 
 9172000    247.50747   -3949.7394     -3525.52   -3949.7394            0    4631.5958     17.30341    20.381132     21.11012    7444.7603    4504.9934    5696.9569    3692.8371   -774.41809    805.80224    225.11545   -3022.6483 
 9173000     247.5886    -3947.979   -3523.6206    -3947.979            0    6179.8149    17.229651    20.294253    21.020134    7349.9611    7250.0563     4902.189    6387.1995   -163.08159    904.22973   -788.52531   -2861.1961 
 9174000     243.3768   -3953.9564   -3536.8169   -3953.9564            0    3680.4572    17.271559    20.343615    21.071262    7403.7241    2687.0201    4423.1221    3931.2295    620.50646    -171.1535   -671.41724   -3139.4169 
 9175000     253.2998   -3935.1121   -3500.9649   -3935.1121            0    4928.8054    17.253031    20.321791    21.048657    7379.9219    4417.1727    4084.5386    6284.7049   -892.08504    442.17185   -1973.5683   -2970.4845 
 9176000    232.91785   -3911.0679   -3511.8547   -3911.0679            0    4888.5265     17.21889    20.281579    21.007006    7336.1986    5049.0353    4184.6624     5431.882    44.583526    231.08766    8.6280037   -2988.8267 
 9177000    250.96915   -3919.5533   -3489.4008   -3919.5533            0    3223.5887     17.34336    20.428187    21.158859    7496.4441    4394.4786    2278.8102    2997.4774      927.876    1303.1364   -778.07497   -3136.9724 
 9178000    246.51468   -3922.5682   -3500.0505   -3922.5682            0    3224.3671    17.331408    20.414109    21.144277    7480.9564     1571.924    4013.4231    4087.7542   -555.76862    1805.5937   -913.85668   -3148.2653 
 9179000    242.74525   -3918.0018   -3501.9447   -3918.0018            0    3947.0664    17.304599    20.382531     21.11157    7446.2939    3811.6317    1857.6882    6171.8793    991.83989   -417.28734   -605.39043   -3073.3069 
 9180000    226.22546   -3896.2814   -3508.5387   -3896.2814            0    3165.6977    17.370611    20.460285    21.192105    7531.8364    3070.5718    1714.0359    4712.4853   -429.76643   -1102.9132    59.082333   -3160.8054 
 9181000    254.83487   -3922.6658   -3485.8876   -3922.6658            0    6474.6274     17.29752    20.374194    21.102934    7437.1599    6594.6674    6408.2843    6420.9305     1182.594    1161.1668    1834.1633   -2783.6278 
 9182000    255.20845    -3896.903   -3459.4844    -3896.903            0     7202.293    17.222751    20.286126    21.011716    7341.1342    5857.7767    6475.7813    9273.3211    1326.0901   -347.79174    544.45722   -2688.3859 
 9183000    234.94376   -3923.5974   -3520.9118   -3923.5974            0     5605.641    17.265346    20.336297    21.063682    7395.7372    5031.7997    5922.7879    5862.3354   -584.73365   -578.60212   -1349.3318   -2916.2916 
 9184000    240.06661   -3945.7459   -3534.2799   -3945.7459            0    4332.5633    17.232708    20.297854    21.023864    7353.8739    4547.7817    5652.3047    2797.6035   -1407.1192   -1118.5185    847.07119   -3069.6181 
 9185000    246.38203   -3911.9767   -3489.6863   -3911.9767            0    4514.1576    17.255609    20.324828    21.051803    7383.2312    3137.1599    4197.4839    6207.8288   -769.55155    801.12471   -422.03354    -3003.616 
 9186000    242.08381   -3883.2842   -3468.3608   -3883.2842            0    5532.1996     17.23896    20.305218    21.031492    7361.8813    5968.8171    4204.1491    6423.6326   -63.666391   -30.124052    1187.3517   -2874.3935 
 9187000     231.7958   -3926.8482   -3529.5582   -3926.8482            0    5201.9221    17.296885    20.373446    21.102159    7436.3407    4738.4951    6470.2186    4397.0525   -708.95755   -231.10163    -357.8691   -2965.4024 
 9188000    247.35057   -3926.3621   -3502.4117   -3926.3621            0    5723.8843    17.241162    20.307811    21.034177    7364.7021    6100.7142    5684.9942    5385.9443    1236.8246   -194.38982   -210.30523   -2887.6286 
 9189000    241.59313   -3990.2568   -3576.1745   -3990.2568            0     3961.412     17.26989    20.341649    21.069225    7401.5771    3828.9836    3290.2898    4764.9625     1028.039    140.66099    1174.9896   -3148.5622 
 9190000    250.55035   -3917.0377    -3487.603   -3917.0377            0    4121.4709    17.270287    20.342117     21.06971     7402.088     4867.881    4479.5832    3016.9484    1762.1251   -1358.4972    769.02095   -3042.6825 
 9191000    246.64715   -3930.2469   -3507.5022   -3930.2469            0    5072.3552    17.231655    20.296613    21.022579    7352.5257    3662.9874    7535.7934    4018.2849   -791.68906   -1343.1464    2097.4583   -2963.5984 
 9192000    242.71366   -3943.7171   -3527.7142   -3943.7171            0     2749.736     17.28749     20.36238    21.090697      7424.23    4011.1682    3536.2712     701.7686    1231.1328    -129.7214   -396.46007   -3229.9872 
 9193000     242.5319   -3922.6532   -3506.9618   -3922.6532            0    4321.0849    17.231094    20.295952    21.021894    7351.8074    3582.5643    5520.7862    3859.9042    831.24318   -678.73398     155.6645   -3043.6612 
 9194000    244.85924   -3926.9409   -3507.2605   -3926.9409            0    4968.5658    17.247103    20.314809    21.041426    7372.3182    3973.2379    6303.4587    4629.0009   -141.98474   -1123.6859   -1035.0858   -2973.0518 
 9195000    239.33946   -3929.2011   -3518.9815   -3929.2011            0    5497.3489     17.19471    20.253097    20.977506    7305.3349    6109.5929    4471.7838    5910.6701    229.97591   -561.20095   -68.260547   -2933.2894 
 9196000    234.58378   -3925.7518   -3523.6832   -3925.7518            0    4137.1162    17.231845    20.296837     21.02281    7352.7686    3642.0708    2896.4279    5872.8499   -1849.8094   -144.54568   -1586.3352   -3080.0495 
 9197000    249.14381   -3926.4125   -3499.3886   -3926.4125            0    6864.5455    17.242079    20.308892    21.035296    7365.8776    5710.1733    9059.5409    5823.9224   -55.787102    1065.5692   -632.83303   -2761.9732 
 9198000    237.51368   -3887.5295   -3480.4391   -3887.5295            0    4347.9405    17.226866    20.290972    21.016736    7346.3971    3833.7814    4622.9208    4587.1195   -589.69494   -962.14521    34.499995   -3014.6022 
 9199000    258.79392   -3891.8203   -3448.2564   -3891.8203            0    4188.6997    17.218917     20.28161    21.007039    7336.2331    4917.8651    2773.3824    4874.8515   -73.877611    1007.3161     211.8088   -3000.1014 
 9200000    249.15262   -3924.7008   -3497.6617   -3924.7008            0    5235.6944    17.189156    20.246556     20.97073    7298.2589    6738.1868    5107.8877    3861.0085    1313.7284    495.84201    -439.1048   -2940.3868 
 9201000    241.99502   -3894.2554   -3479.4842   -3894.2554            0     3200.614    17.339578    20.423733    21.154245    7491.5412    3191.2909    4521.5863    1888.9647   -6.4422953    828.82708    -212.2809   -3129.7965 
 9202000    252.93024   -3915.5869   -3482.0732   -3915.5869            0    4516.9957    17.325878    20.407595     21.13753    7473.7973    4406.3002    4985.0718    4159.6151   -1072.0081   -868.62184   -1468.6031   -2989.7312 
 9203000    249.53768   -3965.1001   -3537.4011   -3965.1001            0    5631.8022    17.241167    20.307817    21.034183    7364.7081    5688.4111    6133.1713    5073.8244   -1801.9948   -496.17771   -1177.1963   -2932.5077 
 9204000    229.28289   -3926.7194   -3533.7364   -3926.7194            0     5469.434     17.23369    20.299011    21.025062    7355.1313    5628.7051    5537.0086    5242.5885    1695.4149    588.49987    -660.9026   -2947.0464 
 9205000    236.61396   -3944.6878   -3539.1396   -3944.6878            0    3983.1208    17.268256    20.339724    21.067232    7399.4766    3532.2061    4727.4701    3689.6862    1824.2439   -2084.2185   -288.58742    -3109.306 
 9206000    242.24036   -3953.4152   -3538.2235   -3953.4152            0    4596.9542    17.203872    20.263889    20.988684    7317.0192    5168.5678     4467.784    4154.5107    1146.8655    664.78214   -339.41805    -3047.677 
 9207000    244.98153   -3942.5736   -3522.6837   -3942.5736            0    5760.0491    17.243799    20.310917    21.037394    7368.0817    4912.8052    7949.4479    4417.8944    1008.6479    1523.1942    70.441864   -2903.7323 
 9208000    247.48761   -3926.3126   -3502.1274   -3926.3126            0    5192.4048    17.279137    20.352542    21.080507     7413.474    5672.8049    3888.7534    6015.6559    105.83139    470.16633    829.47512   -2940.7354 
 9209000    252.83754   -3961.3189    -3527.964   -3961.3189            0    4152.5837    17.268014    20.339439    21.066937    7399.1658    2429.4463    5370.5954    4657.7092    1734.5296    26.240659   -717.50279   -3079.8618 
 9210000    252.49296   -3916.8195   -3484.0552   -3916.8195            0    5360.1197    17.258081     20.32774    21.054819    7386.4051    4503.8212    5995.1675    5581.3703    990.46404   -245.25561   -231.75638   -2906.6463 
 9211000    241.53905   -3949.9716   -3535.9819   -3949.9716            0    4068.5994    17.258788    20.328573    21.055681    7387.3129    6105.7574    2180.9063    3919.1344    1096.5865   -453.30707    1664.5686   -3097.6458 
 9212000    245.96281   -3932.1413   -3510.5695   -3932.1413            0    4635.7708    17.221217    20.284319    21.009845    7339.1728    4456.7862    4626.9141    4823.6122    1548.4581    1269.6104    746.42325    -3014.383 
 9213000    248.45578   -3908.1816   -3482.3369   -3908.1816            0    6827.7957    17.108028    20.150997    20.871754    7195.4082    6435.9577     4892.446    9154.9835    824.61114    763.04927   -1928.0533    -2765.844 
 9214000    240.98358   -3940.9796    -3527.942   -3940.9796            0    2787.9595     17.27859    20.351897     21.07984    7412.7699    2800.8085    3236.2339    2326.8362     1367.498   -479.74612    174.76039   -3226.5423 
 9215000    225.75913   -3955.3159   -3568.3725   -3955.3159            0    4305.9675    17.194321    20.252639    20.977031    7304.8392    4253.7774    3009.7332    5654.3919    53.260015    1246.8233   -981.53721   -3109.6423 
 9216000    231.98821    -3930.543   -3532.9232    -3930.543            0     3990.034    17.233397    20.298665    21.024704    7354.7559    3851.4439    3942.3428    4176.3153    957.94554    47.534648   -794.56637   -3104.9458 
 9217000    237.60896   -3941.0503   -3533.7966   -3941.0503            0    5686.6618    17.123826    20.169605    20.891027    7215.3597    6014.8455    4712.8212    6332.3187     820.8871   -87.723417    678.57345   -2935.3971 
 9218000    246.44871   -3911.2714   -3488.8668   -3911.2714            0    6626.9787    17.205443    20.265739      20.9906    7319.0238    6387.3597     5706.399    7787.1774    2230.8158    647.71467    -491.8136   -2781.5001 
 9219000    241.91611   -3909.2174   -3494.5814   -3909.2174            0    6121.6524    17.269312    20.340969    21.068521    7400.8352    6931.5836    5744.5141    5688.8596    899.80801   -1529.1232   -701.27557   -2833.8495 
 9220000    241.66947   -3949.1505   -3534.9373   -3949.1505            0    4906.1122    17.229928    20.294579    21.020472    7350.3154    5707.2818    5192.8335    3818.2212   -167.11203     672.8273     434.5275   -3009.0177 
 9221000     249.9998   -3933.1972    -3504.706   -3933.1972            0     6015.564    17.238358    20.304508    21.030756    7361.1089    5082.3558    6396.2365    6568.0996    17.640468    1272.9491   -1050.0313   -2858.9098 
 9222000     240.6749   -3942.5451   -3530.0365   -3942.5451            0    5285.8728    17.302573    20.380145    21.109098    7443.6792    5849.1094    5087.3108    4921.1982    73.824008    1293.0751   -102.21823   -2956.2105 
 9223000    235.31622   -3910.9509    -3507.627   -3910.9509            0    6018.0839    17.285357    20.359868    21.088096    7421.4828    4959.9167    6372.1211     6722.214   -212.74834    672.69872   -186.34627   -2856.2614 
 9224000    243.87857   -3895.3591   -3477.3595   -3895.3591            0    3221.5446    17.270556    20.342434    21.070038    7402.4345    2479.2415    3819.3138    3366.0784    -106.9218   -936.06856    48.320415   -3129.5715 
 9225000    245.90468   -3942.2622   -3520.7899   -3942.2622            0      5142.57    17.227898    20.292188    21.017995    7347.7178    4232.6827    6452.3313    4742.6961    573.71696    6.3520742    -211.9925   -2969.7177 
 9226000    245.90136   -3924.1046   -3502.6381   -3924.1046            0    5919.0867    17.287613    20.362524    21.090847    7424.3883    3912.5577    6549.7635    7294.9388   -1067.8047    451.66028   -939.81692   -2861.7366 
 9227000    256.36622   -3894.0863   -3454.6834   -3894.0863            0    5866.5888    17.260549    20.330647     21.05783    7389.5742    6174.6198    4641.7411    6783.4055     104.7717   -485.73835     1312.184   -2822.4449 
 9228000    248.49299   -3916.8739   -3490.9654   -3916.8739            0    4572.2474    17.365763    20.454575     21.18619    7525.5318    6747.4346    2611.3982    4357.9095    27.448273   -33.055106    -897.3771   -2989.1514 
 9229000    258.35979   -3933.0995   -3490.2796   -3933.0995            0    4550.0455    17.311777    20.390987    21.120328    7455.5648    4401.5309    3636.2334    5612.3722    85.330206   -734.11505   -457.83946   -2995.5452 
 9230000    249.98911   -3897.5483   -3469.0756   -3897.5483            0    5784.0268    17.327361    20.409342     21.13934    7475.7168     6787.037    6515.0684    4049.9748    611.94506    960.85352     517.5906   -2838.4682 
 9231000    254.26875   -3903.2341   -3467.4262   -3903.2341            0    5889.8241    17.232529    20.297643    21.023645    7353.6446    6328.0097    5869.9364    5471.5261   -52.706303   -372.72304    568.57986   -2835.7699 
 9232000    249.48688   -3892.3627   -3464.7508   -3892.3627            0    5866.2897    17.225639    20.289528     21.01524     7344.828     7247.767    5874.8666    4476.2354    608.71355    424.37907   -583.98018   -2836.3727 
 9233000    246.94546   -3935.6637   -3512.4076   -3935.6637            0    6967.0566    17.177971    20.233381    20.957085     7284.021    7254.0123    8193.4572    5453.7004   -292.37292    148.65016   -1547.6062   -2772.2974 
 9234000    256.05704   -3917.4833   -3478.6103   -3917.4833            0     7006.433    17.178102    20.233535    20.957244     7284.187    6242.3935    7685.1321    7091.7734    971.42508   -754.72077    176.08504   -2734.3001 
 9235000    232.57576   -3904.8761   -3506.2492   -3904.8761            0    4966.8286    17.226381    20.290401    21.016145    7345.7769    6106.2878    4064.7097    4729.4883   -600.57229    1749.4751   -1146.6395   -2974.1498 
 9236000    242.02093   -3935.2511   -3520.4355   -3935.2511            0    4942.7587    17.257472    20.327023    21.054076    7385.6231    4696.2236    5687.6821    4444.3704   -1234.8067    724.93587   -851.48902   -2988.0423 
 9237000    249.55992   -3959.5927   -3531.8556   -3959.5927            0    5154.9302    17.261897    20.332235    21.059475    7391.3061    4666.0898     5779.077    5019.6237   -342.08888    766.58162     -1235.08   -2976.1818 
 9238000    244.36144    -3930.106   -3511.2788    -3930.106            0    4236.7627    17.241296    20.307969    21.034341     7364.874    3311.0967     5369.312    4029.8794   -926.17982    270.41937   -811.42491   -3056.2118 
 9239000    251.59791   -3948.4837   -3517.2535   -3948.4837            0    5484.1866    17.246439    20.314027    21.040616    7371.4668    5989.2068    5246.4502    5216.9028    266.03446    2242.4391   -2289.9901   -2927.6745 
 9240000    244.97401     -3936.43   -3516.5529     -3936.43            0    5328.6723    17.271927    20.344049    21.071711    7404.1975    5734.3605    5232.0322    5019.6241   -2426.4384   -553.82651    905.89995   -2941.1489 
 9241000    233.78283   -3929.4007   -3528.7049   -3929.4007            0    6977.5581    17.224772    20.288506    21.014181    7343.7184     7858.312    7107.5643    5966.7981    1138.4158    84.330647   -1417.8551   -2781.4043 
 9242000    246.89967   -3914.9662   -3491.7887   -3914.9662            0    4000.3419    17.353522    20.440157    21.171257    7509.6296    5148.6347    3822.9063    3029.4846   -1119.9782    392.63827    66.237369   -3053.6702 
 9243000    251.67546   -3901.4278   -3470.0647   -3901.4278            0     4410.562    17.309683     20.38852    21.117773    7452.8597    3806.2892    4371.9163    5053.4806    692.69429    1366.7918    248.65473   -2990.6705 
 9244000    236.88783   -3917.3452   -3511.3275   -3917.3452            0    5840.0656    17.302682    20.380273    21.109231    7443.8195    5795.6711    4806.6337     6917.892    721.07724    165.68226   -1532.2605   -2877.3273 
 9245000    252.74473    -3906.694   -3473.4982    -3906.694            0    4541.0875    17.268014    20.339439    21.066936    7399.1653    3874.9149    5997.3509    3750.9966   -218.12427   -253.87512    852.93586   -2983.4729 
 9246000    253.70836    -3932.095   -3497.2476    -3932.095            0    4630.4786    17.298702    20.375586    21.104376    7438.6844    4072.0175    5263.0892    4556.3291    334.66447    377.77212    -100.2585   -2994.9074 
 9247000    239.62784   -3916.6058   -3505.8919   -3916.6058            0    2913.1634    17.374357    20.464697    21.196675    7536.7097    3513.6998     3525.695    1700.0955   -1729.4295    616.40194   -863.39319    -3185.691 
 9248000    262.02924   -3907.8579   -3458.7488   -3907.8579            0    5082.8275    17.205948    20.266334    20.991217    7319.6687    5271.5661    5163.6423    4813.2741    325.19735    1286.1746    672.06656   -2916.1576 
 9249000    241.38286   -3936.2916   -3522.5696   -3936.2916            0    5095.4003     17.35157    20.437857    21.168874    7507.0945    4874.6991    6921.8826    3489.6191   -538.38183   -797.69495    16.694444   -2964.7085 
 9250000    252.64725   -3915.0246   -3481.9959   -3915.0246            0    4580.6291    17.341903    20.426471    21.157082    7494.5553    6088.2625         3901    3752.6249    386.86947   -62.344824   -873.60704   -2981.3313 
Loop time of 489.872 on 64 procs for 250000 steps with 864 atoms

Performance: 88.186 ns/day, 0.272 hours/ns, 510.338 timesteps/s
99.1% CPU use with 64 MPI tasks x 1 OpenMP threads

MPI task timing breakdown:
Section |  min time  |  avg time  |  max time  |%varavg| %total
---------------------------------------------------------------
Pair    | 19.224     | 25.34      | 29.7       |  49.0 |  5.17
Bond    | 0.2876     | 0.29716    | 0.31575    |   1.2 |  0.06
Kspace  | 216.59     | 226.18     | 243.6      |  39.9 | 46.17
Neigh   | 4.7194     | 5.396      | 7.1665     |  28.8 |  1.10
Comm    | 91.897     | 112.87     | 121.54     |  62.4 | 23.04
Output  | 1.1839     | 1.1924     | 1.1991     |   0.1 |  0.24
Modify  | 110.29     | 113.57     | 118.62     |  22.9 | 23.18
Other   |            | 5.022      |            |       |  1.03

Nlocal:        13.5000 ave          20 max           9 min
Histogram: 5 5 14 10 12 5 7 2 3 1
Nghost:        2147.80 ave        2192 max        2104 min
Histogram: 5 3 3 9 13 11 6 6 7 1
Neighs:        4116.19 ave        6853 max        1983 min
Histogram: 1 3 7 18 11 13 6 4 0 1

Total # of neighbors = 263436
Ave neighs/atom = 304.90278
Ave special neighs/atom = 2.0000000
Neighbor list builds = 12285
Dangerous builds = 0

unfix		3
unfix		2
unfix		1

write_data	data.final.${pid}
write_data	data.final.0
System init for write_data ...
PPPM initialization ...
  extracting TIP4P info from pair style
  using 12-bit tables for long-range coulomb (../kspace.cpp:340)
  G vector (1/distance) = 0.37406046
  grid = 24 24 25
  stencil order = 5
  estimated absolute RMS force accuracy = 0.0030942632
  estimated relative force accuracy = 9.3182817e-06
  using double precision FFTW3
  3d grid and FFT values/proc = 2730 288
Last active /omp style is kspace_style pppm/tip4p/omp
WARNING: Not all mixed pair coeffs generated from mixing. Use write_data with 'pair ij' option to store all pair coeffs. (../write_data.cpp:312)

write_restart   restart.lmp.${pid}
write_restart   restart.lmp.0
System init for write_restart ...
PPPM initialization ...
  extracting TIP4P info from pair style
  using 12-bit tables for long-range coulomb (../kspace.cpp:340)
  G vector (1/distance) = 0.37406046
  grid = 24 24 25
  stencil order = 5
  estimated absolute RMS force accuracy = 0.0030942632
  estimated relative force accuracy = 9.3182817e-06
  using double precision FFTW3
  3d grid and FFT values/proc = 2730 288
Last active /omp style is kspace_style pppm/tip4p/omp
Total wall time: 0:08:12
