LAMMPS (30 Jul 2021)
  using 1 OpenMP thread(s) per MPI task
package omp 0
using multi-threaded neighbor list subroutines
echo both

include		in.partitions
variable        pid world 0
include		in.temp
variable        temperature equal 279.42
variable	tempDamp equal 100.0
include		in.pressure
variable        pressure equal 10750.0
variable        pressureDamp equal 1000.0 # This is 1 ps
include		in.seed
variable        seed world 745823

units		real
atom_style	full
read_restart	restart.lmp.${pid}
read_restart	restart.lmp.0
Reading restart file ...
  restart file = 30 Jul 2021, LAMMPS = 30 Jul 2021
  restoring atom style full from restart
  orthogonal box = (-0.092051527 -0.13751617 -0.024167062) to (24.822053 24.867517 22.834167)
  4 by 4 by 4 MPI processor grid
  restoring pair style lj/cut/tip4p/long/omp from restart
  restoring bond style harmonic/omp from restart
  restoring angle style harmonic/omp from restart
  1920 atoms
  1280 bonds
  640 angles
Finding 1-2 1-3 1-4 neighbors ...
  special bond factors lj:    0        0        0       
  special bond factors coul:  0        0        0       
     2 = max # of 1-2 neighbors
     1 = max # of 1-3 neighbors
     1 = max # of 1-4 neighbors
     2 = max # of special neighbors
  special bonds CPU = 0.198 seconds
  read_restart CPU = 0.284 seconds
include 	in.setup
variable	out_freq equal 1000
variable	out_freq2 equal 10000
variable	out_freq3 equal 1000

timestep	2.0

neigh_modify    delay 7 every 1

include		in.tip4p
# This is TIP4P/Ice

# create groups ###
group ox type 2
640 atoms in group ox
group hy type 1
1280 atoms in group hy

# set charges - beside manually ###
set group ox charge -1.1794
Setting atom values ...
  640 settings made for charge
set group hy charge 0.5897
Setting atom values ...
  1280 settings made for charge

# ### TIP3P Potential Parameters ###
pair_style lj/cut/tip4p/long/omp 2 1 1 1 0.1577 8.5
pair_coeff 1 1*2 0.000 0.000
pair_coeff 2 2 0.21084 3.1668
bond_style  harmonic
bond_coeff  1 450 0.9572
angle_style harmonic
angle_coeff 1 55 104.52
kspace_style pppm/tip4p/omp 1.0e-5
pair_modify tail yes

thermo          ${out_freq}
thermo          1000
thermo_style    custom step temp pe etotal epair emol press lx ly lz vol pxx pyy pzz pxy pxz pyz enthalpy

restart 	${out_freq3} restart.lmp.${pid} restart2.lmp.${pid}
restart 	1000 restart.lmp.${pid} restart2.lmp.${pid}
restart 	1000 restart.lmp.0 restart2.lmp.${pid}
restart 	1000 restart.lmp.0 restart2.lmp.0


include         in.dump
dump            myDump all atom ${out_freq2} dump.water.${pid}
dump            myDump all atom 10000 dump.water.${pid}
dump            myDump all atom 10000 dump.water.0
dump            myDump2 all dcd ${out_freq2} dump.dcd
dump            myDump2 all dcd 10000 dump.dcd
dump_modify     myDump append yes
dump_modify     myDump2 append yes


variable natoms 	equal  "count(all)"                        # NUMBER ATOMS
variable H      	equal  "enthalpy/v_natoms"                 # ENTHALPY-per-atom
variable Vol      	equal  "vol/v_natoms"                 # volume-per-atom
fix AVG all 		ave/time ${out_freq} 1 ${out_freq} v_Vol v_H file vol_enthalpy.dat
fix AVG all 		ave/time 1000 1 ${out_freq} v_Vol v_H file vol_enthalpy.dat
fix AVG all 		ave/time 1000 1 1000 v_Vol v_H file vol_enthalpy.dat




fix 		1 all shake 1e-6 200 0 b 1 a 1
       0 = # of size 2 clusters
       0 = # of size 3 clusters
       0 = # of size 4 clusters
     640 = # of frozen angles
  find clusters CPU = 0.001 seconds
fix             2 all nph aniso ${pressure} ${pressure} ${pressureDamp}
fix             2 all nph aniso 10750 ${pressure} ${pressureDamp}
fix             2 all nph aniso 10750 10750 ${pressureDamp}
fix             2 all nph aniso 10750 10750 1000
fix             3 all temp/csvr ${temperature} ${temperature} ${tempDamp} ${seed}
fix             3 all temp/csvr 279.42 ${temperature} ${tempDamp} ${seed}
fix             3 all temp/csvr 279.42 279.42 ${tempDamp} ${seed}
fix             3 all temp/csvr 279.42 279.42 100 ${seed}
fix             3 all temp/csvr 279.42 279.42 100 745823


run             250000
PPPM initialization ...
  extracting TIP4P info from pair style
  using 12-bit tables for long-range coulomb (../kspace.cpp:340)
  G vector (1/distance) = 0.37448954
  grid = 30 30 30
  stencil order = 5
  estimated absolute RMS force accuracy = 0.0032705647
  estimated relative force accuracy = 9.8492086e-06
  using double precision FFTW3
  3d grid and FFT values/proc = 3600 512
Last active /omp style is kspace_style pppm/tip4p/omp
Neighbor list info ...
  update every 1 steps, delay 7 steps, check yes
  max neighbors/atom: 2000, page size: 100000
  master list distance cutoff = 10.8154
  ghost atom cutoff = 10.8154
  binsize = 5.4077, bins = 5 5 5
  1 neighbor lists, perpetual/occasional/extra = 1 0 0
  (1) pair lj/cut/tip4p/long/omp, perpetual
      attributes: half, newton on, omp
      pair build: half/bin/newton/omp
      stencil: half/bin/3d
      bin: standard
Per MPI rank memory allocation (min/avg/max) = 9.331 | 9.339 | 9.345 Mbytes
Step Temp PotEng TotEng E_pair E_mol Press Lx Ly Lz Volume Pxx Pyy Pzz Pxy Pxz Pyz Enthalpy 
 3250000    284.02867   -8993.2578    -7910.411   -8993.2578            0    11363.201    24.914104    25.005033    22.858334    14240.239    11859.313     11533.03    10697.261    124.49576    431.04009    840.65664   -5550.5094 
 3251000    282.28756   -9039.6701   -7963.4611   -9039.6701            0    11003.758    24.855111    24.849321     23.08827    14260.069    10723.334     12017.15     10270.79   -165.09717   -414.38782   -421.48013   -5675.0264 
 3252000     276.1555   -9005.9887    -7953.158   -9005.9887            0     11171.23    25.009533    24.993419    22.783762    14241.531    11222.022     10583.23    11708.439    194.18815    142.43935    1106.2239   -5632.9144 
 3253000    285.54863   -9046.0367   -7957.3951   -9046.0367            0     10313.22    24.943242     24.96908    22.923286    14276.847    11147.762    9472.1935    10319.705    272.88208   -100.87795    795.48912   -5810.0469 
 3254000    277.49346   -9053.5543   -7995.6227   -9053.5543            0    10266.281    24.776337    24.931438    23.102133    14270.412    11767.849    8694.9279    10336.065    268.03507   -351.35689   -876.67088   -5859.0114 
 3255000    276.27521   -8995.5369   -7942.2498   -8995.5369            0    9687.6344    25.034344    25.079126    22.813196    14323.025    9363.1329    8780.4255    10919.345    538.81121    166.14505    573.42555   -5918.6326 
 3256000    282.43637   -8997.8484   -7921.0722   -8997.8484            0    9611.1318      24.8995    24.966644    23.076208    14345.485    10138.099    9105.6684    9589.6276     343.6347   -91.541072    212.15069    -5910.287 
 3257000    271.28769   -9025.0255   -7990.7531   -9025.0255            0    9900.9912    24.812319    25.052611    23.009626    14303.091    11224.392    9537.7302    8940.8515   -464.01826    208.69146    117.08781   -5925.4468 
 3258000    272.05134   -9021.1674   -7983.9836   -9021.1674            0    10822.846    24.913393    25.014692    22.881984    14260.072    11024.975      10485.9    10957.664    673.64925   -75.633591    40.840053   -5733.1722 
 3259000    284.34845   -9001.2631   -7917.1971   -9001.2631            0    10617.895    24.962365    24.818973    23.111191    14318.313    9421.1646    11860.589    10571.932    423.48514   -725.46486   -76.937293   -5699.9905 
 3260000    281.41387   -9006.6566   -7933.7786   -9006.6566            0    11374.623    24.972601    24.890931    22.931829    14254.224    11395.996    12147.903    10579.971   -342.08683   -260.62169    250.40818   -5569.1851 
 3261000    276.13532   -9027.6946   -7974.9408   -9027.6946            0    9837.6643    25.109223    24.814728    23.031448    14350.401    9136.1216    10117.657    10259.214    424.58586    -1030.155   -181.44414   -5916.0565 
 3262000    284.10993   -8995.7382   -7912.5815   -8995.7382            0    10574.135    24.924292    24.940627     23.00997    14303.629    10456.776    10149.235    11116.393    1251.2311   -24.456686    439.99447   -5706.7774 
 3263000    281.71345    -9020.417   -7946.3969    -9020.417            0    9449.5806    25.038611    25.015596    22.875472    14328.184     8411.739    9650.9365    10286.066    457.33758    507.37779   -1451.5078   -5971.7949 
 3264000    276.44661   -9074.2811   -8020.3405   -9074.2811            0    9593.7084    24.865206    24.922761    23.046094    14281.885    10724.362    9443.9288     8612.834   -60.359458    285.08048   -262.01227   -6022.0992 
 3265000    274.53724   -9012.1915   -7965.5303   -9012.1915            0     10392.15      24.9614    24.953829    22.981502    14314.775    10383.548    10509.544    10283.359    419.79174    229.04769    5.9417739   -5795.9994 
 3266000    289.76899    -9053.184   -7948.4525    -9053.184            0    10727.918    24.908541    24.985635    22.904958    14255.032    9471.1034    10366.149    12346.501    744.32086    524.79338    661.15291   -5718.1719 
 3267000    282.28191   -9014.2179   -7938.0305   -9014.2179            0    11955.636    24.842486    24.953447    22.901495    14196.766    11632.897     11841.89    12392.121   -252.83319    290.56529   -130.90117   -5462.6725 
 3268000    278.29582   -9063.1875   -8002.1969   -9063.1875            0     10730.38    24.771597     25.06881    22.937508    14244.066    10885.311    9626.4972    11679.333   -366.94879    788.91988   -545.30845   -5773.1204 
 3269000    268.62772   -8988.2457   -7964.1143   -8988.2457            0    12173.947    24.797052    25.017449    22.897953    14204.951    13711.707    10973.504    11836.632    -439.6251    796.12181    275.36923   -5442.1029 
 3270000    275.30779   -9033.9286   -7984.3298   -9033.9286            0     11249.88    24.790224    24.947186     23.00811    14229.281    12703.123    10296.854    10749.664    292.34044     285.9472    89.580615   -5649.7606 
 3271000    273.60492   -9018.9826   -7975.8758   -9018.9826            0    11261.147    24.805263    25.072495    22.907586    14246.911    11211.055    10544.998    12027.387     96.20409   -537.28209    797.27084   -5636.0732 
 3272000    280.86394   -8999.6462   -7928.8648   -8999.6462            0    11421.364    24.887462    24.995216    22.946156    14274.058    11911.464    10933.015    11419.614   -575.60269   -674.83287   -156.30296    -5551.251 
 3273000    276.73144   -9056.4362   -8001.4097   -9056.4362            0    11278.326    24.886119      24.9026    22.904948    14194.863    11689.852    11327.007     10818.12    440.92106   -565.40148   -227.81651   -5666.5987 
 3274000    287.70948   -8989.6764   -7892.7967   -8989.6764            0    10223.878     24.98152    25.003967    22.948655    14334.581    9927.3932    10484.089    10260.153   -1042.5168   -1743.8541    843.00193   -5755.4421 
 3275000    274.78361   -9010.1846   -7962.5841   -9010.1846            0    9612.6854    24.887448    25.011844    23.070389    14360.878    9872.3495    9425.8748    9539.8318    185.36427    861.61779     357.6495   -5949.3161 
 3276000    280.13586   -8998.4204   -7930.4147   -8998.4204            0    10286.541    24.927698    25.004648    22.988338    14328.821    10478.197    10721.841    9659.5856   -243.75086   -408.82858    586.72396   -5780.8242 
 3277000    283.57669   -9029.0671   -7947.9435   -9029.0671            0    9802.6018    25.015491    24.859712    23.010293    14309.593     9725.077    9969.2789    9713.4495   -92.324442   -340.13306   -143.90943   -5902.2313 
 3278000    274.34243   -9029.7284   -7983.8099   -9029.7284            0     9915.493    25.057041    24.920935    22.929825    14318.412    9579.9628    9993.5518    10172.964   -783.09551   -268.53199    248.35848   -5913.2631 
 3279000    274.56289   -9028.3744   -7981.6154   -9028.3744            0    9975.4386     24.95472    24.880842    22.991291    14275.165    8879.2516    11130.807    9916.2573   -44.623053    17.340406    545.19941   -5904.8425 
 3280000    276.35917   -8977.0384   -7923.4312   -8977.0384            0    10307.581    24.962492    25.038856    22.879501    14300.426    10905.535     9461.761    10555.447    230.40948   -1060.2302    786.82926   -5773.7125 
 3281000    280.21499   -8974.1209   -7905.8136   -8974.1209            0    10224.931    24.896526    24.941549    23.067661    14324.047    10090.013    10772.876    9811.9032    683.24798    757.94745   -66.411348   -5769.8098 
 3282000    278.09533   -8986.6729   -7926.4467   -8986.6729            0     10992.89    24.855517     24.91962    23.036485     14268.57    11032.873    11031.961    10913.837    1206.4683   -684.89444    230.60422   -5638.9091 
 3283000    290.39343   -9059.9113   -7952.7991   -9059.9113            0    9408.4273    25.040704    25.032221    22.814164    14300.475    8474.7389    10219.962    9530.5807   -371.79322    384.78788   -374.79229   -5990.5986 
 3284000    275.24432   -9062.2507   -8012.8938   -9062.2507            0    10020.704    24.855076    24.859344     23.11141    14280.098    10942.714    9908.0961    9211.3007   -1192.4134   -108.48801   -286.18174   -5925.9762 
 3285000    278.94566   -9094.8675   -8031.3994   -9094.8675            0      10532.3    24.971297    24.939937    22.865448    14240.202    9547.7714    12031.226    10017.901   -779.12147    963.08962   -86.527149   -5844.0647 
 3286000     282.4867   -9061.6887   -7984.7205   -9061.6887            0    9917.6933    25.020822     24.92781    22.939969    14307.987    9851.9635    9837.6544    10063.462   -252.03551   -322.63647    519.72663   -5915.2221 
 3287000    285.04174   -9055.0513   -7968.3422   -9055.0513            0    10464.551    24.878634    24.863198    23.039997    14251.676    10573.901     11112.11    9707.6406    463.57152   -1034.9466   -531.82824   -5793.3264 
 3288000    291.25188   -9048.9294   -7938.5444   -9048.9294            0    11465.032    24.942621    24.883663     22.93361    14234.061    10310.655    11321.208    12763.233   -125.95967   -1114.5481    -610.2282   -5558.5278 
 3289000    278.14673   -9053.8516   -7993.4294   -9053.8516            0    10161.773    25.092895    24.862996    22.910241    14293.346     8277.168    11200.639    11007.513    88.077186    173.50902    846.38254   -5875.1693 
 3290000    266.17969      -8989.7   -7974.9016      -8989.7            0     11980.12    24.997095    24.762442    22.968873    14217.482    10377.042    13524.788     12038.53   -425.17483    716.42009    1028.2107    -5490.855 
 3291000    273.84924   -9051.4959   -8007.4577   -9051.4959            0    12687.818    24.971313    24.898053    22.791264    14170.173    11043.719    12538.351    14481.384   -1792.9425    942.27593   -681.07953   -5385.4257 
 3292000    275.92274   -9020.8887   -7968.9454   -9020.8887            0    10856.889    24.925045    24.961744    22.961347    14285.921    11030.377      10680.5    10859.791   -288.82283    386.70804    595.30891   -5706.9613 
 3293000    279.31591   -9011.4862   -7946.6065   -9011.4862            0    10851.865    24.976887    24.936903    22.940096    14288.152    9803.8399    11571.594     11180.16   -419.32835   -766.51196    416.55473   -5685.3163 
 3294000    280.69093   -9034.6957   -7964.5739   -9034.6957            0    12774.399    25.011059    24.893484    22.773003    14178.754    10921.846    12419.393    14981.958    302.02241   -547.22348   -56.188904   -5323.0507 
 3295000    263.20169   -9043.5805   -8040.1356   -9043.5805            0    10942.375    24.946395    24.879379    22.967811     14254.99    10814.564    12143.642      9868.92   -572.46768   -496.95241    -36.36629   -5765.2769 
 3296000    292.19065   -9026.6917   -7912.7276   -9026.6917            0      11050.4    25.127306    24.852859    22.809904    14244.452    9403.7696    11793.578    11953.853    404.73022     451.0911   -521.75438   -5617.1096 
 3297000    285.04522   -9057.7952   -7971.0728   -9057.7952            0    11930.028    24.908126     24.79166    22.986998    14194.788     11346.28    13120.315     11323.49     -755.893   -1589.6665   -92.435737    -5501.361 
 3298000    281.80278   -9053.5537    -7979.193   -9053.5537            0     10027.18    24.956129    25.046783    22.816069    14261.658    10178.324    9579.1415    10324.075   -820.48207   -241.11552    405.61596   -5893.6232 
 3299000    284.02301   -9023.2409   -7940.4156   -9023.2409            0    9801.4146    24.904827    25.002421    23.006744    14325.861    10253.038    10305.719    8845.4863   -457.20829    400.09284    381.20735   -5892.6257 
 3300000    283.02817   -9000.6238   -7921.5913   -9000.6238            0    11748.451    24.785014    24.972667    22.969386    14216.853    12400.164    11172.776    11672.414    594.65365    294.80541    120.80424   -5485.6883 
 3301000    277.66539   -9002.9196   -7944.3325   -9002.9196            0    10603.013    24.862241    25.141396     22.83592    14274.082    11215.549    10080.924    10512.565   -1060.6831   -790.38118    713.05994   -5737.0732 
 3302000    280.95139    -9043.982   -7972.8672    -9043.982            0    9941.8044    24.932808    24.988363    22.973771     14313.35    9293.0966    9651.5914    10880.725    -772.1095    330.43038   -19.332918     -5897.56 
 3303000    276.90968   -9032.5773   -7976.8713   -9032.5773            0    9470.5816    25.023358    24.809824    23.092159    14336.192    8727.9501     10409.77     9274.025    479.28958   -797.86789    680.10743   -5996.7748 
 3304000    276.84551   -9002.4494   -7946.9881   -9002.4494            0    9549.4016    25.118225    24.961606    22.896475    14355.889    8230.4203    9502.6972    10915.087    553.61756   -787.32476    -916.9322   -5947.6688 
 3305000    273.45622   -8982.1485   -7939.6086   -8982.1485            0     10604.75    25.106522    24.849446    22.950746    14318.584     7982.751    13040.109    10791.389    78.053483   -1569.5788   -532.94569    -5725.105 
 3306000    282.87407   -9000.0493   -7921.6043   -9000.0493            0    10478.974    25.076369    24.866239    22.949809    14310.467    9316.7479    11051.533    11068.641     1069.918    403.24117   -1193.1996   -5734.6059 
 3307000    278.23897   -9020.9274   -7960.1536   -9020.9274            0    10358.449    25.012676    24.806962    22.986393    14262.792    10077.475    11311.666    9686.2045   -157.03486    207.09106    7.8665967   -5805.5113 
 3308000    272.83834   -9014.4078   -7974.2236   -9014.4078            0    10938.352    25.009055     24.86288    22.934886    14260.847     10626.24    12034.638    10154.178   -160.03479   -292.64236   -27.224082   -5699.2671 
 3309000    282.07799      -9033.3     -7957.89      -9033.3            0    10994.027    24.878719     24.99994    22.877678    14229.149    11731.268    10296.301    10954.513    257.80599   -494.60724    1142.8828   -5676.4365 
 3310000    273.40444   -9051.5269   -8009.1845   -9051.5269            0    10405.534    24.804394    24.968224    23.024949     14259.85    12114.774    9649.3698    9452.4589    -1053.571    822.20898    421.60138   -5845.1946 
 3311000    274.68768   -9024.7166   -7977.4819   -9024.7166            0    11051.359    24.833598    25.004962    22.914268    14228.917    10795.923    10207.614     12150.54   -289.51067   -419.94849    1393.8445   -5684.1685 
 3312000    279.98718   -9022.0013   -7954.5625   -9022.0013            0    11122.397    24.978876    24.910948    22.874368    14233.517    10211.186        11605    11551.005    -351.1895   -207.05903   -472.28262   -5645.7615 
 3313000    277.74185   -8952.7558   -7893.8772   -8952.7558            0    11728.517    24.886732    24.981825    22.947058    14266.553    12298.052    10676.095    12211.404   -631.81065   -744.17664    659.43912   -5453.6063 
 3314000      284.475   -9031.0468   -7946.4983   -9031.0468            0    11260.759    24.837558    24.927392    23.011663    14247.338     11617.97    10525.906    11638.403   -874.63004   -136.40005    859.61755    -5606.706 
 3315000    275.41145   -9065.8802   -8015.8862   -9065.8802            0    9623.1599    24.915132    25.067921    22.895329    14299.748    9569.8599    9661.7429     9637.877   -993.47758   -369.56713    608.33378   -6009.0035 
 3316000    288.26217   -8984.1782   -7885.1913   -8984.1782            0    10432.721    24.913746    24.987935    23.008011    14323.478    10202.645    10826.744    10268.775    107.58736   -671.86283    -384.1204   -5705.8664 
 3317000    277.93739   -9080.8116   -8021.1875   -9080.8116            0    9485.0386    24.916996    24.924877    23.027561    14301.338    9559.4033    9626.5948    9269.1177   -39.588689   -313.24221   -1092.2448   -6042.8898 
 3318000    278.06907   -9059.6822    -7999.556   -9059.6822            0    10980.708    24.879137    24.957054    22.939649    14243.457    11411.045    11098.952    10432.129   -996.56751   -249.56755   -1162.6061   -5718.5752 
 3319000     278.9006   -9052.3545   -7989.0582   -9052.3545            0    11945.907    24.850364     24.98635     22.86634    14198.166    12701.567    11211.618    11924.537    -379.6482    321.58864    518.73841   -5515.4708 
 3320000    274.55149    -9031.405   -7984.6895    -9031.405            0    10641.025    24.915005    24.802546    23.044442    14240.441    10398.816    11544.579    9979.6802    227.40663    715.44789    478.61669   -5774.7377 
 3321000    286.65063   -9043.0678   -7950.2249   -9043.0678            0    10088.432     25.08235     24.93692    22.872054    14305.933     8681.229     10453.03    11131.037   -280.48209   -341.54653   -248.82686   -5845.4011 
 3322000    290.50272   -9021.7651   -7914.2362   -9021.7651            0    10140.339    24.884023    24.811591    23.166444    14303.245    9487.9216    12728.625      8204.47   -410.84186     31.65744    231.10998   -5798.9802 
 3323000    273.33201   -9081.8317   -8039.7654   -9081.8317            0    9817.4116    24.880455    25.022087    22.899712    14256.465    9569.2829    9564.2751    10318.677   -620.78457    495.04788    216.19515   -5998.5692 
 3324000    288.21116   -9030.0172   -7931.2248   -9030.0172            0    11355.891    24.891081    24.937219    22.945794    14242.783    11812.064    10168.707    12086.901   -811.31345   -363.82859   -200.58914   -5572.4203 
 3325000    279.94112    -8988.445   -7921.1817    -8988.445            0    11478.395    24.883551    25.005704    22.929593    14267.497    10228.783    10736.992     13469.41    913.47612    1406.4363   -97.497552   -5532.7939 
 3326000    289.02816   -9052.1301   -7950.2229   -9052.1301            0    11558.338    24.732141    25.023214    22.942228    14198.432    11982.594    11222.439    11469.981   -66.311018    -494.0328   -487.33283   -5556.8429 
 3327000    276.39357   -9055.0803   -8001.3419   -9055.0803            0    11268.137    24.791977     25.00859     22.95277    14231.002    12840.938    10362.624    10600.847    868.97906   -831.25645   -562.62363   -5662.7014 
 3328000    283.00485   -9001.4256    -7922.482   -9001.4256            0    10629.663    24.809398    25.103834     22.93808    14286.089    12054.712    10424.151    9410.1268    299.55121    501.33194   -567.66485   -5707.8134 
 3329000    279.15774   -9048.0136    -7983.737   -9048.0136            0    11118.337    24.839385    24.930145    23.006189     14246.57    11502.841    11401.629    10450.542   -1264.9491    999.47221    682.67553   -5673.6621 
 3330000    283.67732   -9046.3646   -7964.8573   -9046.3646            0    9663.6929    25.030408     24.97165    22.892727    14309.112     8947.016    9852.4536    10191.609   -412.20352   -960.72407    1237.6029   -5948.2019 
 3331000    284.81965   -9022.5496   -7936.6872   -9022.5496            0    10325.292    24.936555    24.890317     23.03798    14299.185    10083.777    10167.515    10724.583   -97.196776    273.21254    522.84718   -5783.4618 
 3332000    276.76708   -9025.6105   -7970.4482   -9025.6105            0    10004.559    25.005422    24.983918    22.884722     14296.85    8562.3694    10689.115    10762.193     -314.225   -192.29184   -872.25707   -5884.4486 
 3333000    271.03093   -9048.6016   -8015.3081   -9048.6016            0    11211.527    24.950984    24.825042    22.987558    14238.706    10690.572    12124.673    10819.335   -72.312365   -445.69922    588.28927    -5687.157 
 3334000     287.5148   -9011.0193   -7914.8817   -9011.0193            0    9447.3575    25.014914     24.99241    22.952531    14349.531    8883.5059    8610.8639    10847.703     311.3005   -485.14832     109.6949    -5937.803 
 3335000    268.86349   -9012.6725   -7987.6423   -9012.6725            0     11144.03    24.914023    24.962812    22.956251    14277.046    11839.498    9734.9875    11857.605   -57.931393    174.40663    263.63773   -5667.2762 
 3336000    278.01298   -9022.0574   -7962.1451   -9022.0574            0    10134.077    24.806448    25.167148    22.906806    14300.893     10999.94    9205.0233    10197.267   -587.65058    1058.3085   -1087.0204   -5848.5431 
 3337000    279.61885   -9034.6805   -7968.6459   -9034.6805            0    11893.408    24.843906    25.020191    22.869212    14215.486    11347.745    11413.154    12919.324    295.84052    813.33123   -247.69932   -5502.9251 
 3338000    284.54042   -9000.4015   -7915.6036   -9000.4015            0    12088.641    24.914725    24.933157    22.896289    14223.238    11455.721    12195.469    12614.734    914.76286    275.01627   -18.544165   -5408.0406 
 3339000    269.38275   -9044.7237   -8017.7139   -9044.7237            0    11298.924    24.815839    24.869921    23.029676    14213.178    11973.434    11545.951    10377.386    372.59253   -514.63406    317.39913   -5675.6207 
 3340000    286.77505   -9040.7203    -7947.403   -9040.7203            0    10204.223    25.002888    25.015294    22.843107    14287.326    9319.4673    10622.648    10670.553   -157.91297   -1722.2654    -55.84243   -5821.1899 
 3341000    269.42908   -9035.2297   -8008.0432   -9035.2297            0    10905.855    24.915349    24.927036    22.991112    14278.993     10345.08    11719.181    10653.303    951.76132    297.35764   -697.42226   -5736.9592 
 3342000     283.9944   -9043.3876   -7960.6714   -9043.3876            0     9911.183    24.941893    24.983669    22.950792    14301.557    9883.6211    10377.309    9472.6191   -288.72309    324.42478   -536.06084   -5893.4609 
 3343000    287.70295   -9052.8726   -7956.0177   -9052.8726            0    10066.809    24.972867    24.973448    22.910759    14288.492    9673.7933    9328.9741    11197.659   -823.44527    385.99893    172.99513    -5858.266 
 3344000    284.44786    -9070.947    -7986.502    -9070.947            0    9524.0118    24.902337    24.869934    23.144733    14333.984    9075.3844    10770.681    8725.9702    58.746706     489.3383   -291.30134   -5995.5411 
 3345000    265.65221   -9047.7815   -8034.9941   -9047.7815            0    10537.355    25.015227    24.976091    22.786767    14236.775    9826.7851    11481.134    10304.145    286.19055    -241.1956    115.46767   -5847.1362 
 3346000    283.64507   -9040.6801   -7959.2958   -9040.6801            0    10184.233    24.913134    25.021461    22.941115    14300.642    10026.978    10321.273    10204.449    369.92553    248.92777   -985.37555   -5835.2701 
 3347000    281.08595   -9024.8585   -7953.2307   -9024.8585            0    10500.189     24.92592    24.879066    23.051097     14294.76     11087.07    10120.861    10292.635   -1116.1845    314.94156   -687.87576     -5764.21 
 3348000     275.4361   -9071.1857   -8021.0976   -9071.1857            0    10032.717    24.947926    24.978412    22.872853    14253.438     9206.266    9530.3612    11361.525    486.31005   -166.26796    291.00529    -5935.579 
 3349000     276.4785   -8993.5669   -7939.5047   -8993.5669            0    10848.679    24.750669    25.058325    23.081742    14315.534    12197.105    8938.3198    11410.612    325.46388   -967.88833   -698.47117   -5674.5459 
 3350000    276.02109   -9056.3401   -8004.0218   -9056.3401            0     10769.37    24.900569    25.033137    22.886292    14265.927    11111.537    10516.212    10680.363   -79.678783   -1703.5881    540.63441   -5763.4122 
 3351000    277.72705   -9039.9558   -7981.1337   -9039.9558            0    11198.966    24.856279    24.881674    23.011138    14231.602    12016.654     10445.67    11134.575    164.34059    575.89885    1278.8952    -5656.751 
 3352000    278.86405    -8984.325   -7921.1681    -8984.325            0    11073.104    25.075065    24.883705    22.900319    14288.895    10956.113    11756.319    10506.878    27.680591   -223.79357    428.27479   -5613.6565 
 3353000    280.32135   -9023.7899   -7955.0771   -9023.7899            0    9473.8619      25.0793    24.838065    22.992449    14322.486     9070.572    7968.1658    11382.848    236.45223    626.95819    1060.8511   -5976.1885 
 3354000    270.49191    -9014.071   -7982.8325    -9014.071            0    9778.9626    25.073459    24.875355    22.992562    14340.718     8526.399    10995.529    9814.9598   -340.16458    441.37888   -273.97522   -5937.6146 
 3355000    282.68609   -9025.9139   -7948.1856   -9025.9139            0     11023.91    24.995708    24.936306       22.895    14270.467    9477.7307    12101.157    11492.842    1111.1397    75.697887    1086.0382   -5653.8881 
 3356000     286.0839   -9078.8614   -7988.1792   -9078.8614            0    11416.474    24.858766    24.933763    22.949684    14224.732    11968.111    11088.171     11193.14    182.04213    741.12151    337.27528    -5619.796 
 3357000    273.97292   -9013.9708   -7969.4611   -9013.9708            0     11323.52    24.848723    25.085411    22.914056    14283.257     12529.81    9084.8057    12355.944   -198.96268   -637.66992    711.39537   -5610.6966 
 3358000    276.26667    -9016.123   -7962.8685    -9016.123            0    11942.127    24.771277    25.007949    22.964565    14226.062    12159.603    11996.854    11669.924    452.27778   -488.20602    245.79695   -5485.2052 
 3359000    275.40969     -9024.54   -7974.5527     -9024.54            0    10953.637    24.931305    24.933371    22.930076    14253.828    11595.016    10300.857    10965.038    699.59032    273.56384    134.66809   -5697.5385 
 3360000    273.20115   -9028.8536   -7987.2862   -9028.8536            0    10208.135    25.013799    24.856082    22.947158    14267.282    10725.572     10495.65    9403.1841    15.591788   -636.20109    215.93972    -5863.242 
 3361000     278.8495   -9014.5221   -7951.4206   -9014.5221            0    11204.369     24.96466    24.855604    22.993978    14268.033    10064.929    12109.689    11438.488    717.67405    -830.8014    68.484938   -5619.9638 
 3362000    276.81732   -9000.5512   -7945.1973   -9000.5512            0    10230.966    25.024786    24.938629    22.920936    14304.586    9840.4318       9700.1    11152.367    -473.3689     368.2133   -589.39424   -5810.8366 
 3363000    278.00722   -9030.4093    -7970.519   -9030.4093            0    9218.7212    24.960058    24.989294    22.987848    14338.308    10238.961    8442.0341    8975.1682   -682.43166    650.07967    154.56868   -6042.7967 
 3364000    274.52271   -8950.9454   -7904.3396   -8950.9454            0    10531.894    25.015098    24.967496    22.952023    14335.015      10238.5    9461.4161    11895.767   -1457.9653    985.83287    87.224732   -5702.5261 
 3365000    276.81024   -8966.0663   -7910.7394   -8966.0663            0    10990.835    24.937896    24.831356    23.061942    14280.918    11056.673    11869.027    10046.805    346.38274   -2065.6897   -428.16176   -5621.6502 
 3366000    284.29773   -9074.0576    -7990.185   -9074.0576            0    11192.562    25.044568    24.875602     22.81961    14216.588    10408.338    11074.638     12094.71   -373.75907   -681.99932   -89.919832   -5669.5824 
 3367000    272.27858   -9066.9471    -8028.897   -9066.9471            0    10727.688    25.006796    24.810166    22.982487    14258.858     9716.676    11669.832    10796.557    296.47449   -1011.0183    -383.8888   -5798.0655 
 3368000    278.31886    -9093.302   -8032.2236    -9093.302            0    10289.102    24.964213    24.955144    22.885451    14257.304    9431.8551    10467.022    10968.429   -551.09929   -775.96035    795.92579   -5892.8296 
 3369000    274.92526   -9012.1242   -7963.9837   -9012.1242            0    11341.259    24.980277    24.720331    23.076901    14250.464    11120.552    13098.184    9805.0398   -581.00706   -1162.1234    857.63558    -5606.948 
 3370000    269.62371   -9004.0097   -7976.0812   -9004.0097            0    10835.126    25.022981    24.886023    22.956798    14295.714    10787.126     11199.99    10518.263    394.26754    -140.8613    9.1431672   -5717.0838 
 3371000    278.56918   -9049.1427     -7987.11   -9049.1427            0    10032.009    25.029414     24.95642    22.920565    14317.207    7968.7598    10811.341    11315.925   -160.72718    -688.3217   -438.69711   -5892.4088 
 3372000    278.64589   -9004.1992   -7941.8739   -9004.1992            0    9875.4659    25.045573    24.859598    23.012162    14327.899    8937.8196    11090.919    9597.6594   -198.11987    59.264759   -63.161431   -5878.3192 
 3373000    275.51384   -9042.9497   -7992.5653   -9042.9497            0    10172.563    25.015519    24.921082    22.900644    14276.578    9504.0021    10750.558    10263.129    71.226093   -81.223076   -715.95987   -5874.5436 
 3374000    282.15316   -9012.2495    -7936.553   -9012.2495            0    9438.4622    24.958751    24.874596    23.115902     14351.25    10078.176    9361.8408    8875.3697    105.85071    133.57384    567.57943   -5961.0993 
 3375000    279.96882   -8976.3056   -7908.9368   -8976.3056            0    10961.236    24.961834    25.016521    22.841936    14263.835    10529.598    11912.151    10441.958   -447.74109   0.59095899    519.74046   -5628.7432 
 3376000    287.02868    -9062.156   -7967.8717    -9062.156            0    11400.681    24.790732    24.879722    23.069823    14229.156    12348.062    11605.504    10248.478    199.19335   -976.64685   -227.93945   -5602.0292 
 3377000    277.54547   -9006.1185   -7947.9886   -9006.1185            0      11326.1    24.835073    25.023806    22.932766    14251.982    12633.609    10078.278    11266.413   -106.28535   -778.21518   -103.73838   -5593.8527 
 3378000    275.12558   -9012.5681   -7963.6639   -9012.5681            0    11791.972    24.810723    25.053542    22.885048    14225.266    12607.339    9914.0883    12854.489    68.782254    -208.5379    -191.5357   -5517.2906 
 3379000    277.12887   -8989.7553   -7933.2136   -8989.7553            0    11400.788    24.790896    25.055712    22.923717    14239.148    10989.686     12069.26    11143.417   -566.79202    -1316.229     69.11606   -5565.6876 
 3380000    274.90701   -9043.7899    -7995.719   -9043.7899            0     11978.96    24.852162    25.054607    22.813461    14205.056    11120.905    11709.078    13106.897    1344.1018    313.78504    460.94344   -5514.0837 
 3381000    269.60231   -9026.8692   -7999.0222   -9026.8692            0    12261.449     24.84076    24.906097    22.966209     14208.88     11607.92    13261.687    11914.739   -203.32195    794.70562    466.29535   -5458.1809 
 3382000    279.45695   -9039.9116   -7974.4942   -9039.9116            0    8600.8269    24.955553    25.197217    22.833181    14357.743    8687.8567    7757.4322    9357.1919   -352.55108    298.23172    1101.7912   -6173.5416 
 3383000    275.11405   -9031.0257   -7982.1655   -9031.0257            0     9520.093    24.925307     24.90028    23.100982    14337.558    9668.0279    9374.0547    9518.1963   -618.56544   -110.12629   -225.62258   -5991.5276 
 3384000    272.98634   -9060.8003   -8020.0519   -9060.8003            0    8303.0953    24.969025    25.019793    23.024372    14383.782     9171.273    7764.5621    7973.4508   -663.28146   -165.48541      448.529   -6278.2892 
 3385000    277.78793   -9100.8816   -8041.8273   -9100.8816            0    9093.6967    25.004339    24.920399    22.964299     14309.47    8663.0312    9356.7036    9261.3551   -296.58772   -468.37924   -1040.7597   -6144.0733 
 3386000    277.12329   -9019.1988   -7962.6785   -9019.1988            0    8982.4643    25.053288    24.936522    22.958959    14343.423     9225.427    7895.1916    9826.7742    258.50962    680.52525    464.88316   -6083.6897 
 3387000    269.59419   -9036.6089   -8008.7929   -9036.6089            0    9492.7532    24.982586    24.958556    22.986003    14332.445    10173.205    9173.2146    9131.8405   -335.08516    436.65791   -1219.7813   -6024.5796 
 3388000    280.43528   -9044.1301   -7974.9829   -9044.1301            0    9746.2975    24.988693     25.08535    22.837323    14315.578    9480.7564    8965.3033    10792.833   -578.53787   -289.47729    212.62421   -5940.1702 
 3389000    281.09468   -9081.6914   -8010.0303   -9081.6914            0    10428.289    24.831292    24.902193    23.065447    14262.603    10941.669    11310.061    9033.1379   -219.59212   -902.72456    416.17363   -5840.8894 
 3390000    288.12601   -9064.3672   -7965.8995   -9064.3672            0    10700.931    24.970376    24.975799    22.851313    14251.338    10272.282    10603.556    11226.956   -179.29194     811.7052   -763.95327   -5741.8057 
 3391000    279.29483   -9073.1147   -8008.3155   -9073.1147            0     9911.782    24.861459    25.003146    22.961125    14272.973    10166.456    9560.3163    10008.574    -1518.471    136.59155   -74.781142   -5945.1119 
 3392000    268.10839   -9029.7608   -8007.6094   -9029.7608            0    12050.854    24.640014    25.025936    23.052395    14215.015    13714.271    10574.052     11864.24   -830.30789    62.911475   -285.30688   -5509.3297 
 3393000    280.29369   -9025.9956   -7957.3882   -9025.9956            0    11295.852    24.958491     25.05216    22.719807    14205.879    10900.312    10039.542    12947.702    -574.3835   -373.86468    545.13044    -5617.134 
 3394000    275.81027   -9021.7534   -7970.2388   -9021.7534            0    10928.838    24.873014    24.867513    23.057674    14261.863    11905.091    11829.027    9052.3966    238.02024    758.60495   -586.94289    -5697.099 
 3395000    303.00611   -9058.1364   -7902.9389   -9058.1364            0    11080.094    25.010497    24.884611    22.946693    14281.483    10333.331     11064.27    11842.682   -542.08591    545.44722    -1317.742   -5595.1684 
 3396000    282.16266   -9052.0385   -7976.3058   -9052.0385            0    9927.7515      25.0365     24.91625    22.897392    14283.752         9674    9986.6567    10122.598    319.58193    169.96951   -611.36517   -5908.2174 
 3397000    275.98174   -9026.2287   -7974.0605   -9026.2287            0      10668.7    24.868525    24.885305    23.064687    14273.832    11066.976    10875.943    10063.182    274.45087    910.97299     1651.431   -5753.1657 
 3398000    277.73285   -9065.2903    -8006.446   -9065.2903            0    11590.484    24.947202     24.95495    22.844606    14222.051    11693.015    10543.838      12534.6    101.69808    656.14598    155.35586    -5602.417 
 3399000    283.64682   -9033.6637   -7952.2726   -9033.6637            0    11114.107     24.87778    25.012732    22.880302    14237.525    11074.649    10972.539    11295.134   -220.16388    149.35861    127.53656   -5644.5428 
 3400000    279.77244   -9055.4196   -7988.7994   -9055.4196            0    11328.403    24.836095    24.911417    22.987631      14222.5    11977.382    11547.353    10460.475    953.22571   -886.42979    43.014449   -5639.0556 
 3401000    278.59194   -9003.0998   -7940.9803   -9003.0998            0    11869.082    24.929227    24.979416    22.833929    14219.088    12710.423      10419.5    12477.322    792.52362    684.13272    1361.6043   -5479.6792 
 3402000    275.39251    -9034.186   -7984.2641    -9034.186            0    10997.072    24.801118    24.930472    23.034247    14242.157    10447.632    12276.013     10267.57   -1802.5317   -921.60259    356.81914   -5700.0924 
 3403000    280.53114   -9014.9933   -7945.4807   -9014.9933            0    11135.477    24.989186    24.895115    22.942506    14272.731    11009.284    11035.788     11361.36   -1088.2204   -1398.1737    960.04905   -5627.5961 
 3404000    275.60145    -9053.959   -8003.2406    -9053.959            0    10130.743    25.000736    24.915737    22.901141     14265.39    9808.1661    10739.728    9844.3346   -9.2847741   -314.85621   -88.523941   -5895.5792 
 3405000    274.94305   -9008.3146   -7960.1064   -9008.3146            0    11741.059     24.80033    24.948091    22.989735     14224.23    12539.268    10858.599    11825.309    530.59841   -371.89389    312.41796    -5524.473 
 3406000    268.20408   -9077.5743    -8055.058   -9077.5743            0    11364.297    24.896113    25.014477    22.788572    14191.886    12785.408    9786.0117    11521.471   -762.60619   -707.26684    154.60499   -5702.9429 
 3407000    282.12749   -9053.0814   -7977.4827   -9053.0814            0    11373.004    24.870275    24.992316    22.875879    14218.863    11251.961    10764.767    12102.283   -264.12411    789.02007    888.31569    -5619.091 
 3408000    274.24045   -9011.1577    -7965.628   -9011.1577            0    10344.466    24.803868    25.012858    23.031372    14289.023    11673.999     9910.951    9448.4499    267.76627   -669.06993   -60.679895    -5809.937 
 3409000    274.24793   -8995.0234   -7949.4652   -8995.0234            0     9462.431    24.889769    24.911279    23.086839     14314.67    10075.174    10633.042    7679.0765   -880.51972   -675.94988   -239.90765   -5974.0428 
 3410000     263.2301   -8963.0338   -7959.4806   -8963.0338            0    11333.116    25.007232    25.035793    22.773433    14257.898    10573.782    10676.798    12748.767   -41.548266    224.48863    -489.4498   -5602.9086 
 3411000    277.52508   -9075.1792    -8017.127   -9075.1792            0    11678.166    24.936125    24.730568    23.001199    14184.483    10870.186    12788.517    11375.794   -972.79195   -372.62361    1166.0081   -5601.3099 
 3412000    281.55889   -9054.0388    -7980.608   -9054.0388            0    10672.965    25.024941    24.906075    22.914721    14282.128    9128.5451    11573.714    11316.636    428.30505     831.1871   -682.95357    -5757.534 
 3413000    284.72685   -9029.2347   -7943.7261   -9029.2347            0     11249.79    24.960705    24.852902     22.95406    14239.458    10687.284    11469.453    11592.633    17.905947    -452.3808    607.62205    -5607.506 
 3414000     274.0345   -9045.2977   -8000.5533   -9045.2977            0    10419.661    24.986289    24.805422    23.022513    14269.249    9284.5741    11814.939     10159.47    131.64573   -16.907907    548.29589   -5832.1971 
 3415000    273.43126   -9018.8245   -7976.3799   -9018.8245            0    9845.6183      25.0414    24.932052    22.927575    14314.453    10159.228     9717.778    9659.8495   -1478.5371   -962.88147    706.51819   -5920.9927 
 3416000    278.45848   -9006.8452   -7945.2344   -9006.8452            0    9258.0953    24.913656    25.057453    23.033872    14379.419    10409.148    7345.2949    10019.843    286.48609   -678.72863    -353.0939   -6003.7278 
 3417000    269.29657   -9074.8638   -8048.1825   -9074.8638            0    8340.4008    24.957405    25.001869    22.965433    14330.011    9315.5879    8070.4142    7635.2004   -57.377711    387.69623    342.45883   -6305.1345 
 3418000    283.26463   -8987.6893   -7907.7553   -8987.6893            0    9973.8396    24.951399    25.062046    22.914367    14329.113    9637.5231    10062.601    10221.395   -456.32812   -1611.8421    1137.2957   -5823.4681 
 3419000    283.32388   -9048.5149   -7968.3551   -9048.5149            0    8798.6372    24.863706    24.999729    23.062065    14335.055    9739.7724    8626.4503    8029.6889    154.91057   -443.71696   -77.251527   -6128.8938 
 3420000    279.12002   -9028.2056   -7964.0728   -9028.2056            0    11738.396    24.850135    25.015472    22.887682    14227.849    11679.461    10988.177    12547.549   -355.96411    390.45527   -101.26729   -5528.3723 
 3421000      268.299   -8999.6374   -7976.7593   -8999.6374            0    11310.155    24.910345    24.951647    22.896348     14231.32    11815.929    11217.319    10897.219    1231.4826   -479.18965    291.54959   -5629.3456 
 3422000     276.2902   -9033.7777   -7980.4334   -9033.7777            0    9550.0516    24.870333    24.987319    23.013922    14301.839    10777.265    8847.2097    9025.6797    849.76336    468.44592   -1010.5057   -5988.5061 
 3423000    276.09997    -9026.243    -7973.624    -9026.243            0    11707.878    24.794912    25.007676    22.988058    14254.047    11173.697    11552.218     12397.72    770.39873   -417.50814     -770.426   -5539.7826 
 3424000     273.6591   -9022.9309   -7979.6176   -9022.9309            0    10852.327    24.945206    25.081192    22.781709    14253.502    11091.001    9303.1308    12162.848   -876.32446    250.58178   -66.586379   -5723.7151 
 3425000    284.24706   -9071.2319   -7987.5525   -9071.2319            0     10012.72    24.828285     25.01355    22.994973     14280.88    11871.691    8979.1616    9187.3069   -758.33283    291.20701     982.8798   -5902.1835 
 3426000    274.86491   -9044.8493   -7996.9389   -9044.8493            0    11388.602    24.756712    25.034204    22.947699    14222.171    11565.508    11255.025    11345.274   -739.90715   -17.884811     521.2624   -5634.7632 
 3427000    279.47144   -9028.7072   -7963.2346   -9028.7072            0    10220.874    24.859074    25.003876    22.989578    14289.706    10308.378    10538.755    9815.4892    411.82266   -171.92686   -156.74665   -5833.1972 
 3428000    272.20477   -9029.3929   -7991.6242   -9029.3929            0    8286.8506    25.051067    25.024967    22.949544    14387.118    9022.1254    8178.9288    7659.4977   -613.19099   -947.90218   -81.420385   -6252.8659 
 3429000    274.90062   -9040.9593   -7992.9127   -9040.9593            0    10362.337    24.982614    25.001318    22.883732     14293.14    10661.485    10203.847    10221.679    198.07717   -434.93877    234.68103   -5832.8754 
 3430000     280.4557   -9077.8697   -8008.6447   -9077.8697            0    8783.4186    24.879525    24.842767    23.187389    14331.574    8792.3235    10286.105    7271.8272    294.52515   -739.40409   -445.55606   -6172.8109 
 3431000    275.14659   -9024.4917   -7975.5074   -9024.4917            0    10487.165    24.944391    25.071543    22.805634    14262.515     10337.85    9528.6548    11594.989   -977.92973    461.98195    288.39629   -5794.1336 
 3432000     275.2635   -8977.3419   -7927.9119   -8977.3419            0    10477.355    24.831555    25.094585    22.964777    14310.215    13121.498    9019.9747    9290.5933   -2.1070603    394.89637   -330.27334   -5741.2899 
 3433000    277.81095   -9029.0573   -7969.9153   -9029.0573            0    11706.751    24.820199    24.954465    22.963323    14222.904    12368.337    10876.884    11875.031    296.01027    31.918667    20.758311   -5541.6254 
 3434000    286.01982   -9037.5676   -7947.1296   -9037.5676            0    11573.108    24.919063    24.908568    22.890046     14207.81    11190.463    10737.879    12790.983    267.11065    203.56402    197.03724   -5549.1083 
 3435000    290.69872   -9020.7956   -7912.5195   -9020.7956            0    11931.135    24.923005    24.911102    22.892716    14213.161    11267.148    12872.532    11653.725    258.72199    840.54069    576.35447   -5439.3816 
 3436000    288.34359   -9023.2548   -7923.9575   -9023.2548            0    11252.186    24.884114    25.034075    22.886834    14257.371    11606.585    12112.041    10037.931    162.07418   -1284.5669   -86.900728   -5584.3003 
 3437000     275.8794   -9088.2587   -8036.4806   -9088.2587            0    9870.5071    24.819476    25.019208    23.009417    14288.011    10655.146    10232.588     8723.788    297.54131     945.8408    58.573289   -5979.7039 
 3438000    283.97514   -9012.7538   -7930.1111   -9012.7538            0    10874.446    24.940259    25.005125    22.863205    14258.279    11263.951    9978.3255    11381.061   -531.17968    348.25128    -1125.514    -5668.853 
 3439000    269.59106    -9050.564   -8022.7599    -9050.564            0     10929.69    24.911444     24.90901    22.949286    14240.477    11971.259    10913.887    9903.9251   -23.440094   -109.08636   -43.829927   -5752.8517 
 3440000    293.55906   -9043.3644   -7924.1834   -9043.3644            0    10320.067    24.887319    25.014007    22.930099    14274.711    11045.278    9112.3881    10802.535   -33.924321   -922.26799    521.23266    -5775.731 
 3441000    279.81236   -9022.6993    -7955.927   -9022.6993            0    9978.2065    24.812271    24.965724    23.101898    14310.616     10127.73    10331.406    9475.4837    1512.6354    287.40282    -616.1309   -5873.4188 
 3442000    282.78199    -9015.572    -7937.478    -9015.572            0    10696.158    25.030008    25.044337    22.774352     14276.33    9756.2196    10297.657    12034.598   -898.40184   -989.73678   -114.81904   -5710.4777 
 3443000     275.8011    -9020.394   -7968.9144    -9020.394            0    11295.599     24.93226    24.916576    23.003162    14290.176    11503.098    11082.316    11301.385    233.16818   -1031.6459   -223.45059   -5614.8262 
 3444000    278.69272   -9063.5733   -8001.0696   -9063.5733            0     9473.221    24.987637    24.863792    23.065324    14330.195    9681.0921     9436.872     9301.699    381.91542   -190.05002    337.21652   -6021.2498 
 3445000    277.57426        -9025   -7966.7604        -9025            0    10955.115    24.970062    25.014026    22.849225    14271.667    9631.6189    12079.085    11154.641   -146.49411    736.53768   -990.02402   -5686.5889 
 3446000    291.26696   -9054.5211   -7944.0786   -9054.5211            0     10346.72     24.76417    24.911138     23.21226    14319.728    12080.044    8740.9507    10219.165   -228.74331    69.776074   -245.10128   -5783.2847 
 3447000    280.80932   -9038.5391   -7967.9659   -9038.5391            0    9197.4967    24.976512    25.023332    22.915433    14322.043    9483.3409    9693.0268    8416.1223   -450.06695   -541.78408   -774.84285   -6046.8635 
 3448000    286.54102   -9042.0773   -7949.6522   -9042.0773            0    9530.1149     24.96546    24.964193    22.973145    14317.841     9353.224    9592.8892    9644.2315   -28.025227   -1874.4064    870.13287   -5959.6591 
 3449000    278.16293   -8991.7387   -7931.2547   -8991.7387            0    12083.812    24.840407    24.892584    23.014126    14230.598    12395.271    12585.862    11270.305    366.75598   -419.98055   -466.30799   -5423.3962 
 3450000    277.97782   -9016.4017   -7956.6235   -9016.4017            0    12606.468    24.896913    24.991029    22.806301    14190.069    12177.673    12622.837    13018.893    33.149767   -56.005529    232.70111   -5347.7452 
 3451000    285.73595   -9001.0742   -7911.7184   -9001.0742            0    12875.015    24.790017    24.827315    23.070292    14199.062    12651.525    14314.661    11658.859    209.97326   -984.58748   -436.82864   -5245.5763 
 3452000    275.91413   -9015.3606   -7963.4501   -9015.3606            0    12621.269     24.81696    24.961503    22.846981    14152.988    13492.346    11239.685    13131.776   -27.733188   -1055.6321   -347.08691   -5358.3342 
 3453000    270.21237   -9052.2417   -8022.0689   -9052.2417            0    11318.434    24.849519    25.013152    22.877107    14219.604    10077.765    11891.986     11985.55   -549.38862   -160.78271   -580.94172   -5674.8709 
 3454000    287.62692    -9046.844    -7950.279    -9046.844            0     10063.82    24.845217    24.882062    23.081587    14269.042    9368.6246    10470.014     10352.82     530.0286   -566.75916    846.45342   -5856.0048 
 3455000    281.79076   -9086.7967   -8012.4818   -9086.7967            0    9245.8617    24.979492    25.004228    22.914835    14312.444    9185.2479    9348.2073    9204.1301    -38.59828   -399.44197     735.7575   -6082.5717 
 3456000    277.98012   -9122.1009   -8062.3139   -9122.1009            0       9307.2    24.959457    24.869906    22.995878    14274.446    9117.9611    9731.9974    9071.6413     44.11985   -354.07842    14.465522   -6124.7582 
 3457000    279.71722   -9035.1401   -7968.7304   -9035.1401            0    10676.746    24.952959    25.050569     22.82541     14267.84      10302.9    9767.8768     11959.46    82.195359   -563.47086   -227.04686   -5747.0938 
 3458000    278.63694   -9037.8088   -7975.5178   -9037.8088            0    9418.1041    24.873247    24.886144    23.120325    14311.463    10551.613    10577.133    7125.5669    410.53721    515.78871    891.36081   -6009.7898 
 3459000    274.05237   -8972.4447   -7927.6321   -8972.4447            0    9134.9381    25.019049    25.011582    22.972501     14375.41    9272.8834    9582.2195    8549.7115    153.60169   -503.05597    1002.2328   -6012.4867 
 3460000    286.01973   -9045.0355   -7954.5979   -9045.0355            0    10039.563    24.892257    25.102496    22.881008    14297.376    10759.645    9003.4028     10355.64    992.33429    -163.1833   -469.60933   -5861.2229 
 3461000    290.03451   -9053.9312   -7948.1874   -9053.9312            0    8847.1774    24.858819     24.99851     23.11558    14364.794    10026.814    8237.6301    8277.0875     183.0206   -534.50149    297.96311    -6094.741 
 3462000    270.65158   -9020.4079   -7988.5606   -9020.4079            0    10419.221    25.016956    24.958892    22.893438     14294.56    9912.6084    10358.199    10986.857   -613.62972    133.54914   -705.48378   -5816.4499 
 3463000    272.41421   -9020.6586   -7982.0914   -9020.6586            0    10924.985    24.954323    24.923395    22.929409    14260.864    8765.3478    11873.617    12135.989    41.348602   -348.83449    545.14381   -5709.9122 
 3464000    284.24634   -9025.1827   -7941.5061   -9025.1827            0    11499.899    24.904069    24.790039    23.059646    14236.399    11962.542    11748.925    10788.231   -58.490988    193.04463   -1421.3985   -5553.8592 
 3465000     274.0612   -9035.9645   -7991.1183   -9035.9645            0    10754.135    25.100017     24.88753    22.853784    14276.243    9655.7716    11107.237    11499.397    257.38609   -67.662878   -54.500186   -5752.0605 
 3466000    274.50117   -9048.8707    -8002.347   -9048.8707            0    10013.816    25.088186    24.752679    22.992444    14278.303    9440.5412    10915.051    9685.8563    583.79506   -901.06296   -249.71669   -5917.1259 
 3467000    287.18146   -9042.5819   -7947.7152   -9042.5819            0    10996.849    24.919779    24.901013    22.966594    14251.408    11135.736     11520.12     10334.69   -217.32923    521.97831   -74.440084   -5662.1064 
 3468000    273.79051   -8991.8928   -7948.0786   -8991.8928            0    12323.252    25.060472     24.81335    22.856319    14212.842    10865.139    13020.535    13084.082   -1196.3428    461.15626   -509.78928   -5393.7182 
 3469000    270.35381   -9036.6438   -8005.9318   -9036.6438            0    11448.726    24.834043    24.853291    23.001048    14196.423    11808.812    11223.974    11313.391   -214.02658   -799.83024   -67.205772   -5635.5844 
 3470000    288.51349   -9080.0601   -7980.1151   -9080.0601            0    10233.876    25.077436    24.913881    22.832387    14265.133    9993.2996    10966.839    9741.4904    463.89063    363.91278    737.81366   -5851.0355 
 3471000      280.945   -9041.2451   -7970.1547   -9041.2451            0    11392.812    25.057649    24.875928    22.849129    14242.599    10390.169      11489.9    12298.366   -680.54962   -59.628489   -43.667968   -5603.7116 
 3472000    273.14178   -9030.1625   -7988.8215   -9030.1625            0    12196.906    24.888304    24.824383    22.970862    14192.244    12218.331    13669.972    10702.413   -675.58802    714.00043   -211.16753   -5464.3143 
 3473000    281.78184    -9037.124   -7962.8432    -9037.124            0    12259.553     24.89297    24.887089    22.856976    14160.206    12268.877    12155.735    12354.047    108.04959    1050.0092    508.28982   -5431.0973 
 3474000    287.95028   -8974.6945   -7876.8967   -8974.6945            0    12914.895    24.867205    24.922789    22.872879    14175.698    14165.052    12061.373     12518.26    72.416736   -908.98497   -209.05574   -5206.8969 
 3475000    266.32904   -9008.9557    -7993.588   -9008.9557            0    11753.855    24.964189    24.953682     22.81789    14214.368    11120.284    12006.939    12134.344     29.94644   -775.85597    464.36794   -5556.9904 
 3476000    281.38411   -9040.7137   -7967.9492   -9040.7137            0    11413.867    24.848033    24.935328    22.944955    14216.553    12714.057    10441.462    11086.081     716.2226   -134.93517    124.75983   -5601.4683 
 3477000    283.32119   -9020.4338   -7940.2842   -9020.4338            0     8938.437    24.832193    25.073688    23.045516    14348.937    9788.1379    8334.0618    8693.1115    363.69032   -299.73302   -150.04834   -6069.7864 
 3478000     284.4511   -9024.3173   -7939.8599   -9024.3173            0    9869.2571    24.832297    25.059965    23.000289    14312.999    11858.228     8941.407    8808.1366    1287.5839   -473.96751   -376.84771   -5879.7471 
 3479000    276.93491   -9041.8977   -7986.0955   -9041.8977            0    8843.2586    24.919267    25.077699    22.902975    14312.479    8911.5426    8418.0771    9200.1559   -178.33242    499.29166   -315.72452   -6140.2172 
 3480000    273.97615    -8997.816    -7953.294    -8997.816            0    10466.087    24.988873    24.938789    22.940107    14296.097    9359.3488    11190.621    10848.291    652.62414    815.79659    446.31121   -5771.1787 
 3481000    285.20186   -9021.0012   -7933.6817   -9021.0012            0    10148.371    24.977791    24.844534    23.128587    14352.712    7702.1899    12632.309    10110.615   -388.79294   -297.29616    907.39022   -5809.4288 
 3482000    277.29263   -8993.2857   -7936.1198   -8993.2857            0    11034.522    24.978344    24.949609    22.863342    14248.433    10248.056    11439.042    11416.468   -7.5057919    56.675527   -174.21731   -5643.1596 
 3483000    281.46901    -9007.634   -7934.5458    -9007.634            0    11774.296    24.810934    24.915632    23.031979    14237.911    11615.646    12462.984    11244.258    290.86932   -105.95929   -167.92837   -5489.6683 
 3484000    275.03185   -8997.4482   -7948.9013   -8997.4482            0    10579.742    24.976363    24.979967     22.91525    14297.025    9916.3165    11042.325    10780.586   -224.28716   -88.859484    748.60172   -5742.9463 
 3485000    272.28708   -9041.8442   -8003.7617   -9041.8442            0    9634.4644    24.822815    24.998868    23.040045    14297.322    11557.072    8645.4187    8700.9025   -585.23624   -1155.7675   -76.373064   -5994.8624 
 3486000    278.78276   -9014.6076   -7951.7606   -9014.6076            0    11268.629    24.791272    24.981207    23.041755    14270.125    12119.452    10730.366    10956.068    462.71107    307.35344   -527.30707   -5606.5883 
 3487000    272.60673   -9028.9758   -7989.6746   -9028.9758            0    10759.364    24.959636    25.028205    22.854416    14277.037    10675.636    10687.537    10914.921    29.556328    1258.5976    10.949287   -5749.4034 
 3488000    286.62088   -9011.6649   -7918.9354   -9011.6649            0    9726.6808    24.838587    25.066787    23.081241    14370.925    10955.864    8575.1798    9648.9986   -559.66694    1157.6436   -762.87743   -5880.3671 
 3489000    275.49893   -9011.9039   -7961.5764   -9011.9039            0     9872.044    24.887348    25.029458    22.972736    14310.104    10422.371    9730.5984    9463.1627    19.099558    394.72109    578.72974   -5901.2987 
 3490000    280.84874   -8999.0462   -7928.3228   -8999.0462            0    10801.137    24.918818    25.105241    22.810256    14269.935    10251.607    9754.2556    12397.548    51.577902   -137.12059   -567.22487   -5680.4726 
 3491000     286.0131   -9042.6652   -7952.2528   -9042.6652            0    9923.0784    24.792571    25.013774    23.059473    14300.465    11006.521    8810.9622    9951.7522   -742.33352    281.17919    138.35088   -5882.7192 
 3492000     287.7853   -9027.1278   -7929.9589   -9027.1278            0    10504.553    24.819693    25.004225    22.981711    14262.385    11244.287    10067.107    10202.264    730.50473   -1220.2021    178.37499   -5744.9882 
 3493000    275.09848   -9016.3445   -7967.5437   -9016.3445            0    10358.952    24.845037    25.083125    22.892109     14266.16     10961.33    9293.7907    10821.736    221.20126    620.82074    -122.1617   -5812.2879 
 3494000    276.75038   -9058.5302   -8003.4315   -9058.5302            0    9993.2984    24.845927    24.993408    23.037328    14305.821    10157.254    9620.8439    10201.798   -290.30495    66.422111   -417.39812   -5918.4725 
 3495000     277.2178   -9013.4735   -7956.5928   -9013.4735            0    10393.748    24.842871    25.008071    22.991926    14284.246    10435.291    10427.387    10318.567   -345.30354    119.64519   -354.33121    -5791.356 
 3496000    279.51359   -9041.1058   -7975.4726   -9041.1058            0    10234.718    24.909234    24.921543    22.980375    14265.678    9803.6983    11110.109    9790.3454   -292.49898    156.16336   -433.53868   -5846.1367 
 3497000    288.48818   -9004.9066   -7905.0581   -9004.9066            0    10987.719     24.88128    24.883725    23.026485    14256.593    11338.353    11214.842    10409.963    626.75766    -944.7802    864.48438   -5620.5157 
 3498000    270.53554   -9046.2434   -8014.8386   -9046.2434            0    9685.4458    25.013608    25.041086    22.819124    14293.168    10063.551    9192.8094    9799.9774   -606.14994   -58.602471   -938.46523   -5995.8959 
 3499000     266.0815   -9055.7395   -8041.3155   -9055.7395            0    10798.527    24.875136    24.911348    22.992778    14248.008    10833.301    11451.319    10110.959   -9.6973584   -220.54758   -190.18263   -5797.4618 
 3500000    291.28935   -9039.5543   -7929.0265   -9039.5543            0    9947.1706    24.911023    24.983355     22.96941    14295.263    11166.683    9043.7139    9631.1144   -357.71147    -948.6343    22.610306    -5855.223 
Loop time of 518.274 on 64 procs for 250000 steps with 1920 atoms

Performance: 83.354 ns/day, 0.288 hours/ns, 482.370 timesteps/s
99.1% CPU use with 64 MPI tasks x 1 OpenMP threads

MPI task timing breakdown:
Section |  min time  |  avg time  |  max time  |%varavg| %total
---------------------------------------------------------------
Pair    | 63.428     | 65.481     | 68.351     |  12.8 | 12.63
Bond    | 0.27399    | 0.28258    | 0.29203    |   0.6 |  0.05
Kspace  | 224.72     | 228.96     | 237.76     |  20.0 | 44.18
Neigh   | 6.8713     | 7.4629     | 8.4371     |  13.2 |  1.44
Comm    | 89.838     | 98.246     | 104.28     |  35.0 | 18.96
Output  | 1.5196     | 1.5215     | 1.5342     |   0.3 |  0.29
Modify  | 101.47     | 108.48     | 112.87     |  30.2 | 20.93
Other   |            | 7.842      |            |       |  1.51

Nlocal:        30.0000 ave          34 max          26 min
Histogram: 1 2 7 19 0 9 14 8 3 1
Nghost:        2831.30 ave        2867 max        2797 min
Histogram: 4 3 7 8 13 7 6 8 7 1
Neighs:        10627.5 ave       12172 max        9348 min
Histogram: 4 4 11 11 7 8 10 6 2 1

Total # of neighbors = 680163
Ave neighs/atom = 354.25156
Ave special neighs/atom = 2.0000000
Neighbor list builds = 13182
Dangerous builds = 1

unfix		3
unfix		2
unfix		1

write_data	data.final.${pid}
write_data	data.final.0
System init for write_data ...
PPPM initialization ...
  extracting TIP4P info from pair style
  using 12-bit tables for long-range coulomb (../kspace.cpp:340)
  G vector (1/distance) = 0.37443139
  grid = 30 30 30
  stencil order = 5
  estimated absolute RMS force accuracy = 0.0032745683
  estimated relative force accuracy = 9.8612651e-06
  using double precision FFTW3
  3d grid and FFT values/proc = 3600 512
Last active /omp style is kspace_style pppm/tip4p/omp
WARNING: Not all mixed pair coeffs generated from mixing. Use write_data with 'pair ij' option to store all pair coeffs. (../write_data.cpp:312)

write_restart   restart.lmp.${pid}
write_restart   restart.lmp.0
System init for write_restart ...
PPPM initialization ...
  extracting TIP4P info from pair style
  using 12-bit tables for long-range coulomb (../kspace.cpp:340)
  G vector (1/distance) = 0.37443139
  grid = 30 30 30
  stencil order = 5
  estimated absolute RMS force accuracy = 0.0032745683
  estimated relative force accuracy = 9.8612651e-06
  using double precision FFTW3
  3d grid and FFT values/proc = 3600 512
Last active /omp style is kspace_style pppm/tip4p/omp
Total wall time: 0:08:39
