LAMMPS (30 Jul 2021)
  using 1 OpenMP thread(s) per MPI task
package omp 0
using multi-threaded neighbor list subroutines
echo both

include		in.partitions
variable        pid world 0
include		in.temp
variable        temperature equal 254.06
variable	tempDamp equal 100.0
include		in.pressure
variable        pressure equal 10375.0
variable        pressureDamp equal 1000.0 # This is 1 ps
include		in.seed
variable        seed world 745823

units		real
atom_style	full

read_restart	restart.lmp.${pid}
read_restart	restart.lmp.0
Reading restart file ...
  restart file = 30 Jul 2021, LAMMPS = 30 Jul 2021
  restoring atom style full from restart
  orthogonal box = (0.16545041 0.087712213 0.078377812) to (19.834551 19.912289 20.621620)
  4 by 4 by 4 MPI processor grid
  restoring pair style lj/cut/tip4p/long/omp from restart
  restoring bond style harmonic/omp from restart
  restoring angle style harmonic/omp from restart
  972 atoms
  648 bonds
  324 angles
Finding 1-2 1-3 1-4 neighbors ...
  special bond factors lj:    0        0        0       
  special bond factors coul:  0        0        0       
     2 = max # of 1-2 neighbors
     1 = max # of 1-3 neighbors
     1 = max # of 1-4 neighbors
     2 = max # of special neighbors
  special bonds CPU = 1.363 seconds
  read_restart CPU = 1.697 seconds
include 	in.setup
variable	out_freq equal 1000
variable	out_freq2 equal 10000
variable	out_freq3 equal 1000

timestep	2.0

neigh_modify    delay 7 every 1

include		in.tip4p
# This is TIP4P/Ice

# create groups ###
group ox type 2
324 atoms in group ox
group hy type 1
648 atoms in group hy

# set charges - beside manually ###
set group ox charge -1.1794
Setting atom values ...
  324 settings made for charge
set group hy charge 0.5897
Setting atom values ...
  648 settings made for charge

# ### TIP3P Potential Parameters ###
pair_style lj/cut/tip4p/long/omp 2 1 1 1 0.1577 8.5
pair_coeff 1 1*2 0.000 0.000
pair_coeff 2 2 0.21084 3.1668
bond_style  harmonic
bond_coeff  1 450 0.9572
angle_style harmonic
angle_coeff 1 55 104.52
kspace_style pppm/tip4p/omp 1.0e-5
pair_modify tail yes

thermo          ${out_freq}
thermo          1000
thermo_style    custom step temp pe etotal epair emol press lx ly lz vol pxx pyy pzz pxy pxz pyz enthalpy

restart 	${out_freq3} restart.lmp.${pid} restart2.lmp.${pid}
restart 	1000 restart.lmp.${pid} restart2.lmp.${pid}
restart 	1000 restart.lmp.0 restart2.lmp.${pid}
restart 	1000 restart.lmp.0 restart2.lmp.0


include         in.dump
dump            myDump all atom ${out_freq2} dump.water.${pid}
dump            myDump all atom 10000 dump.water.${pid}
dump            myDump all atom 10000 dump.water.0
dump            myDump2 all dcd ${out_freq2} dump.dcd
dump            myDump2 all dcd 10000 dump.dcd
dump_modify     myDump append yes
dump_modify     myDump2 append yes


variable natoms 	equal  "count(all)"                        # NUMBER ATOMS
variable H      	equal  "enthalpy/v_natoms"                 # ENTHALPY-per-atom
variable Vol      	equal  "vol/v_natoms"                 # volume-per-atom
fix AVG all 		ave/time ${out_freq} 1 ${out_freq} v_Vol v_H file vol_enthalpy.dat
fix AVG all 		ave/time 1000 1 ${out_freq} v_Vol v_H file vol_enthalpy.dat
fix AVG all 		ave/time 1000 1 1000 v_Vol v_H file vol_enthalpy.dat


timer           timeout 02:55:00 every 1000
New timer settings: style=normal  mode=nosync  timeout=02:55:00

fix 		1 all shake 1e-6 200 0 b 1 a 1
       0 = # of size 2 clusters
       0 = # of size 3 clusters
       0 = # of size 4 clusters
     324 = # of frozen angles
  find clusters CPU = 0.189 seconds
fix             2 all nph aniso ${pressure} ${pressure} ${pressureDamp}
fix             2 all nph aniso 10375 ${pressure} ${pressureDamp}
fix             2 all nph aniso 10375 10375 ${pressureDamp}
fix             2 all nph aniso 10375 10375 1000
fix             3 all temp/csvr ${temperature} ${temperature} ${tempDamp} ${seed}
fix             3 all temp/csvr 254.06 ${temperature} ${tempDamp} ${seed}
fix             3 all temp/csvr 254.06 254.06 ${tempDamp} ${seed}
fix             3 all temp/csvr 254.06 254.06 100 ${seed}
fix             3 all temp/csvr 254.06 254.06 100 745823


run             250000
PPPM initialization ...
  extracting TIP4P info from pair style
  using 12-bit tables for long-range coulomb (../kspace.cpp:340)
  G vector (1/distance) = 0.37222536
  grid = 24 24 24
  stencil order = 5
  estimated absolute RMS force accuracy = 0.003506523
  estimated relative force accuracy = 1.055979e-05
  using double precision FFTW3
  3d grid and FFT values/proc = 2197 216
Last active /omp style is kspace_style pppm/tip4p/omp
Neighbor list info ...
  update every 1 steps, delay 7 steps, check yes
  max neighbors/atom: 2000, page size: 100000
  master list distance cutoff = 10.8154
  ghost atom cutoff = 10.8154
  binsize = 5.4077, bins = 4 4 4
  1 neighbor lists, perpetual/occasional/extra = 1 0 0
  (1) pair lj/cut/tip4p/long/omp, perpetual
      attributes: half, newton on, omp
      pair build: half/bin/newton/omp
      stencil: half/bin/3d
      bin: standard
Per MPI rank memory allocation (min/avg/max) = 9.225 | 9.228 | 9.231 Mbytes
Step Temp PotEng TotEng E_pair E_mol Press Lx Ly Lz Volume Pxx Pyy Pzz Pxy Pxz Pyz Enthalpy 
25750000    253.31707   -4668.6085   -4180.0653   -4668.6085            0     11423.59      19.6691    19.824577    20.543242     8010.459    12351.527     11001.92    10917.322    -269.7977   -118.24852    804.62692   -2845.5121 
25751000     248.9744   -4699.6287   -4219.4606   -4699.6287            0    11411.315    19.514726    19.881285    20.598242    7991.6612    16034.504    9071.7511    9127.6915   -310.99876     2384.964   -287.35375   -2889.4697 
25752000    259.02077   -4712.7868   -4213.2435   -4712.7868            0    11416.084     19.85462    19.783308     20.30172    7974.3139    11836.714    11180.686    11230.853    669.13961    935.22644    405.02576    -2885.585 
25753000    261.22877   -4725.5049   -4221.7033   -4725.5049            0    9397.0299    19.723376    19.917729    20.359857    7998.2651    9421.7037    9138.9216    9630.4646    -320.8557    1479.8725   -711.82176   -3125.5727 
25754000    235.24001   -4714.6757   -4260.9956   -4714.6757            0    9895.6282    19.694135    19.866084    20.482918    8013.8461    10704.709    7965.6694    11016.506    305.31382   -121.85658    252.48284   -3104.4567 
25755000    247.93921   -4689.1126    -4210.941   -4689.1126            0    11708.666    19.708781    19.821976    20.292131     7927.466    13156.061    9440.1641    12529.774    349.50505   -625.19998   -127.20655   -2857.2557 
25756000    255.50846   -4692.6582   -4199.8887   -4692.6582            0    11094.888    19.859534    19.673835     20.43035    7982.4074    10943.993    11186.081    11154.589   -687.43092    132.26947    1502.1136   -2908.2748 
25757000     267.0671   -4735.1916   -4220.1302   -4735.1916            0    8681.3834    19.967682    19.759897    20.339858     8025.281    7510.0422    9765.7294    8768.3786   -87.369909    1064.4875   -69.426431   -3204.0568 
25758000    257.38039   -4717.1344   -4220.7546   -4717.1344            0    10717.116     19.96953     19.81889    20.297305    8033.1439    10941.577    9407.5805    11802.191   -533.72758     -89.0361    765.45486   -2965.1891 
25759000    269.97528   -4705.0384   -4184.3684   -4705.0384            0    11441.335      19.4559    19.715119    20.699654    7939.8778    10949.532    11946.673      11427.8   -129.78692     912.3825   -128.99639   -2859.5193 
25760000    258.45156   -4704.0746   -4205.6291   -4704.0746            0    9001.0778    19.714891    19.814632    20.515723    8014.3301    8381.5836    10566.285    8055.3646   -638.29682     98.67839   -693.60564    -3153.576 
25761000    245.64595   -4686.4559    -4212.707   -4686.4559            0    12302.593    19.790643    19.860897    20.152025    7920.9535    13231.809    11215.746    12460.224   -557.96276    138.63653    83.378328    -2791.524 
25762000    262.75216   -4675.5561   -4168.8165   -4675.5561            0     10136.07    19.989377    19.701625      20.2801    7986.7743    8594.7856    10773.082    11040.342   -47.010556    718.84696   -384.68649   -2988.1781 
25763000    268.32729   -4699.6761   -4182.1844   -4699.6761            0    9747.5271    19.768318    19.666423    20.623593    8017.8779     11282.29    9356.1981    8604.0936    48.411653   -55.371831    1056.9621   -3042.3814 
25764000    247.89843    -4711.066   -4232.9731    -4711.066            0    9957.1542    19.867656    19.711831    20.469783    8016.5376    8776.2164    10816.079    10279.167   -153.15893    922.96745   -569.35108   -3068.8525 
25765000    250.74217   -4714.0362   -4230.4589   -4714.0362            0    9425.2673    19.953288    19.791407    20.295497    8014.7656    8663.0392    9827.9915    9784.7712     499.6151   -459.11111     645.1924   -3128.7664 
25766000    246.72595   -4692.8171   -4216.9853   -4692.8171            0      10055.9    19.941488    19.760411    20.258358    7982.8464    10114.485    9864.8779    10188.337    626.44412    736.47811   -927.28523   -3046.2611 
25767000     258.5701   -4714.0577   -4215.3835   -4714.0577            0    11075.489    19.823378    19.562787    20.521351    7958.1908    9586.9103    12866.444    10773.114    90.951176    65.612251   -2567.8071   -2929.9395 
25768000    250.08458   -4722.1982   -4239.8891   -4722.1982            0    11154.341    19.732735    19.922121    20.197544    7940.0168    11229.786    10741.459    11491.778    267.42242    630.30643    174.28659   -2948.2498 
25769000     247.0279   -4693.8631    -4217.449   -4693.8631            0    9585.3638    19.769138    19.969619    20.141815    7951.6291     8897.832    8424.8198     11433.44   -35.061903   -535.24668    441.73699   -3105.8693 
25770000    252.65106   -4712.5513   -4225.2924   -4712.5513            0    10586.816    19.496555    19.820943    20.543917    7938.9936    13113.122    9589.2979    9058.0288    447.77774   -560.00686   -864.63298   -2999.5289 
25771000    255.19282     -4737.05   -4244.8892     -4737.05            0    8649.2175    19.853318    19.771891    20.312554    7973.4419    8557.6212    7837.5201    9552.5111    141.56149   -253.05464   -502.73499   -3239.1195 
25772000    255.13575   -4700.5293   -4208.4786   -4700.5293            0    10386.245    19.683135     19.92105    20.274933    7949.9779    9978.9283     10792.81    10386.997    484.26463    974.03222   -844.60023   -3004.2737 
25773000    246.68614   -4719.8726   -4244.1176   -4719.8726            0    10262.114    19.739487    19.653881    20.605642    7994.1141    10207.432    11130.625    9448.2858   -483.45567    515.15563    738.85614   -3047.6993 
25774000    268.47184    -4695.904   -4178.1335    -4695.904            0      8542.54    19.882095    19.729297    20.533477     8054.457      7542.66     10407.57    7677.3898   -331.09194    21.106028   -1076.2266   -3174.6755 
25775000    252.27275   -4688.5986   -4202.0694   -4688.5986            0    9389.1722    20.061684    19.809163    20.336454    8081.8119    6494.4893    12060.411    9612.6167   -489.08334   -499.11803    -122.7941   -3095.4152 
25776000    257.79021   -4695.4854   -4198.3153   -4695.4854            0     9769.424    19.710593    19.964763    20.431569    8040.1762    11131.032    9570.8691    8606.3709   -46.133296    434.97759    932.50194   -3052.7749 
25777000    263.43052   -4678.3703   -4170.3224   -4678.3703            0    13015.066     19.87241    19.667043    20.354012      7954.99    13466.553     12148.83    13429.816    219.22729   -48.935221     220.6939   -2660.3747 
25778000    250.44878   -4717.3302   -4234.3186   -4717.3302            0    8150.3247    19.730237    19.801709    20.456571    7992.2272     9411.948     8631.994    6407.0321   -93.105272    716.77226   -402.27797   -3284.3295 
25779000    254.99715   -4703.5296   -4211.7462   -4703.5296            0    10442.945     19.91861    19.684924    20.318846     7966.945    9430.7502    9755.1224    12142.961    240.33107    376.39159    781.32101   -2998.3833 
25780000    248.44824   -4678.6958   -4199.5424   -4678.6958            0    11463.633    19.817001    19.550856     20.65167    8001.2688    12782.726    11607.311    10000.862    502.62167   -1190.9494   -110.77801   -2861.8477 
25781000    255.04187   -4680.7541   -4188.8844   -4680.7541            0    10625.273    19.805124    19.736639    20.494119     8010.876    12324.841    9545.3652    10005.612    792.65174    468.44959    -376.3764   -2947.5294 
25782000    258.95411   -4702.2444   -4202.8296   -4702.2444            0    10060.866    19.891017    19.862376    20.188631    7976.1819    8763.7835    9806.7604    11612.055    602.79613    465.86628   -1017.3748   -3032.5051 
25783000    255.92288   -4710.4095   -4216.8407   -4710.4095            0    10273.429    20.077373    19.694403    20.259545    8010.8646    8380.9519    11093.963    11345.372    553.82486    1444.0562   -796.99072   -3016.5935 
25784000    243.44377    -4707.476   -4237.9742    -4707.476            0    8473.8074    19.491135    19.942381    20.576675    7998.1457    9396.1425    8634.2268    7391.0529   -90.358065    636.52826     699.6688    -3249.549 
25785000    247.07748   -4734.7909   -4258.2813   -4734.7909            0    10584.538    19.711111    19.743959    20.373894    7929.0177     9526.848    10008.096     12218.67    -1120.261    375.86459    590.11821   -3034.3214 
25786000    241.36462   -4704.9973   -4239.5053   -4704.9973            0    9931.0493    19.730135     19.56516     20.57826    7943.6867    10357.561    9506.8862    9928.7002    -324.6719    831.36651   -849.56671   -3088.9881 
25787000    245.94333   -4690.1067   -4215.7843   -4690.1067            0    11781.894    20.005278    19.620522    20.220946    7937.0043    11009.944     13524.17    10811.569   -553.46314    1017.8357   -451.19914   -2851.9939 
25788000    255.08998   -4696.5208   -4204.5583   -4696.5208            0    10090.456    19.727738    19.852759    20.441005    8005.7197    10657.287    9084.7311     10529.35    226.26194    1044.0071    697.58495    -3026.445 
25789000    253.00224    -4720.016   -4232.0799    -4720.016            0     10728.25    19.660454    19.601647    20.560798    7923.6645    10445.288    11667.669    10071.792   -36.358115    1418.4242   -514.63395   -2992.3392 
25790000    251.92123   -4700.6167   -4214.7654   -4700.6167            0    10319.711    19.807057    19.852851     20.25032    7962.9634    9756.9107    9498.7535    11703.467   -361.03371    924.08227    274.12278   -3016.3204 
25791000    257.71225   -4717.7828   -4220.7631   -4717.7828            0    9678.9329    19.728372    19.867829    20.457086    8018.3577    9153.4813    10289.893    9593.4248    203.98562    -756.0644   -164.31981   -3088.9133 
25792000    248.00133   -4714.8665   -4236.5751   -4714.8665            0    10072.798    19.688441     19.85499    20.530327    8025.5881      10783.1    9572.1749    9863.1181   -853.45335    1004.8621   -1292.4728   -3057.6048 
25793000     260.4714   -4700.0005   -4197.6595   -4700.0005            0    10625.523    19.805612    19.824588    20.391543    8006.4968    9542.9439    11373.984    10959.641     1200.461   -742.73113   -142.23089   -2956.9539 
25794000    245.10729   -4730.1716   -4257.4616   -4730.1716            0    10386.933    19.769934    19.939887    20.352755    8023.2648    11873.848     7863.527    11423.423   -432.02626   -406.36329   -703.14015   -3042.0753 
25795000    244.81916    -4739.446   -4267.2917    -4739.446            0    9005.0002    19.768657    19.679418    20.723331    8062.1149    8181.5291    10746.941    8086.5302    151.13397    922.20098   -601.90224   -3208.5047 
25796000    252.04578   -4728.5101   -4242.4186   -4728.5101            0    10294.161     19.75779    19.818685    20.426766    7998.5786     8946.865    12057.957    9877.6609    1155.4443     119.1039     884.7938   -3041.5938 
25797000    250.58591   -4700.8463   -4217.5703   -4700.8463            0     12291.58    19.984621    19.658822    20.176673    7926.8921    11842.436    11264.417    13767.886    619.33303    642.78126   -399.45115    -2796.595 
25798000    248.24466   -4736.2541   -4257.4934   -4736.2541            0    9192.1226    19.837625    19.746949    20.510921    8034.7961    9805.9399    9173.1166    8597.3113    938.75564   -82.710683    689.42363   -3180.3673 
25799000    255.98176   -4701.8978   -4208.2154   -4701.8978            0    10093.786    19.778483    19.660672    20.537429    7986.1493    9479.2138    9191.1966    11610.947   -133.67142   -1057.5351    -1398.021   -3032.5943 
25800000    245.02445   -4727.1757   -4254.6254   -4727.1757            0    8620.1642    19.962519    19.835066    20.329159    8049.4908    7064.7108    9741.9686    9053.8132    2047.5827    -171.3192   -812.68338   -3242.6736 
25801000    257.99166   -4659.1846    -4161.626   -4659.1846            0    10958.037    19.644094    19.679229    20.723531    8011.3155    12789.517    10749.778     9334.817     682.2175    372.08216   -700.39492   -2881.3238 
25802000    244.67256    -4713.755   -4241.8834    -4713.755            0    11496.497    19.613846    19.829616    20.512266    7977.9387    9135.7152    14154.912    11198.862    764.42334    1531.4773    916.08331   -2904.2654 
25803000     245.9561   -4727.8298   -4253.4828   -4727.8298            0    9787.9558    19.565422    19.938306    20.435121    7971.7686    10493.444    8279.4562    10590.967   -38.585075   -474.26018   -848.92059   -3115.5343 
25804000    261.70662   -4702.8141   -4198.0909   -4702.8141            0    9512.4115    19.710009    19.835979    20.561491    8038.8713    10653.063    8349.4201    9534.7517   -9.7637589    307.66429    1086.3164   -3082.8682 
25805000    256.47322   -4699.9027   -4205.2725   -4699.9027            0     11946.44    19.530571    19.881134    20.479318    7951.9124    8858.2992    14530.265    12450.757    690.05121    1723.6684   -466.79783    -2819.838 
25806000    256.95666   -4679.3488   -4183.7862   -4679.3488            0    10293.555    20.254124    19.653722    20.261333    8065.4068    9213.4768    12305.017    9362.1721    -648.0129    181.23876   -433.55828   -2972.9998 
25807000     244.3146   -4732.0163    -4260.835   -4732.0163            0    11351.518    19.692305    19.908192    20.327966    7969.3388    11958.462    10904.784    11191.307    73.511699    -750.9754    58.439261   -2941.5091 
25808000    247.18775   -4693.7735   -4217.0512   -4693.7735            0     9996.014    19.854812    19.793972    20.345281    7995.8093    11191.308    9086.0421    9710.6918    105.82816   -6.4671722   -1449.5758   -3051.4092 
25809000    252.47641   -4714.0374   -4227.1154   -4714.0374            0    11378.336    19.699209    19.742001    20.492511    7969.5745    12873.691    10475.524    10785.794   -631.13419    10.768187    789.58906   -2904.6333 
25810000    246.78101   -4703.6126   -4227.6747   -4703.6126            0     8448.668    19.929041    19.944969     20.15976    8013.1842    7547.6784    8348.9217    9449.4039   -900.69034    95.914638    327.65383    -3240.329 
25811000    254.15845   -4697.9541   -4207.7881   -4697.9541            0    12549.549     19.89651    19.784649    20.262855    7976.3812    11268.267     13305.22    13075.159    47.422221   -1624.9673    135.08693   -2747.9326 
25812000    257.32368   -4666.5421   -4170.2717   -4666.5421            0    10726.486    19.381204    20.030752    20.553673    7979.3491    12427.061    8999.4355    10752.962   -417.04547   -141.96466    1958.6993   -2922.0239 
25813000    264.38444     -4706.76   -4196.8724     -4706.76            0    10256.152     19.94529    19.600526    20.486099    8008.7983    8351.0103    11620.512    10796.935    87.744955    485.31421    237.46612   -2998.9527 
25814000    244.16211   -4683.9807   -4213.0935   -4683.9807            0    11146.032    19.559608    19.835666    20.514485    7959.1658    11791.997    10013.239    11632.859    108.71622    897.24567    1186.9693   -2919.3037 
25815000    263.33566   -4732.8319   -4224.9669   -4732.8319            0    10546.647    19.552638    19.541989    20.771982    7936.9209    11604.001    10287.651    9748.2877   -274.25942    1715.4158   -95.943735    -3004.173 
25816000    256.53103   -4683.3974   -4188.6557   -4683.3974            0    8962.7668    19.647584    19.993065     20.62034    8099.9878    10416.124    7654.2752    8817.9009    195.10694    408.99931    414.69686    -3129.884 
25817000    242.46691   -4693.8768   -4226.2589   -4693.8768            0    12444.434    19.608901    19.904349    20.224842    7893.8049    12434.792    11305.697    13592.811   -302.58163    1070.6295    384.95127   -2793.6178 
25818000    250.02927   -4710.6542   -4228.4517   -4710.6542            0    9725.9672    19.753977    19.866895    20.362601    7991.3066    9393.9251    9855.6777    9928.2987   -298.71374   -206.04287   -405.40755   -3094.9387 
25819000    245.34365   -4729.0533   -4255.8874   -4729.0533            0    10144.609     19.66522    19.796027    20.448085    7960.3013    9243.6313    10065.423    11124.773    130.91078    484.13402    289.77548   -3078.1711 
25820000     257.9696   -4715.1867   -4217.6707   -4715.1867            0    8625.6333    19.810397    19.954076    20.368163    8051.4975    8560.5443    7971.3948     9344.961    426.44297   -929.33505    259.52505   -3204.8244 
25821000    251.29288   -4699.8073   -4215.1679   -4699.8073            0    9317.1934    19.736706    19.859153    20.543339    8052.0495    8081.6787    10567.857    9302.0445      -380.89    -1228.951    172.07074   -3121.0416 
25822000    260.66009   -4670.4893   -4167.7844   -4670.4893            0    10303.499    19.501723    19.985311    20.617564    8035.6544    12015.984    9414.0235    9480.4908    256.86141    1103.1822    1259.7072    -2960.299 
25823000    254.45614     -4743.69   -4252.9499     -4743.69            0    9796.8086    19.712824    19.731568    20.434919     7948.467    9055.4094    10348.354    9986.6625   -858.91659    669.42332    705.72459   -3117.3015 
25824000    246.77832   -4728.5415   -4252.6087   -4728.5415            0     8177.986    19.679429    19.967247    20.466102    8042.0326    10101.917    6057.5723     8374.469    644.53139    1279.0709    162.69354   -3293.4553 
25825000    256.70482   -4720.5926   -4225.5158   -4720.5926            0    11179.812    19.658922    19.735007     20.45912    7937.5035    9671.8033    11227.254    12640.378   -806.25573   -1386.9258    437.07115   -2931.3369 
25826000    249.06252   -4704.4888   -4224.1507   -4704.4888            0    10576.697     19.53423    19.809048    20.698128    8009.2337    11835.203    9367.0008    10527.886    10.046808   -962.03927     888.4366   -2988.7243 
25827000    234.37489   -4716.2657    -4264.254   -4716.2657            0    9838.1631     19.64753    19.929313    20.404186    7989.4996    8930.8894    10687.426    9896.1738    290.84471    679.79427    1146.9481   -3117.9244 
25828000    260.73279    -4688.052   -4185.2069    -4688.052            0    10229.752    19.653218    19.795167    20.469566     7963.454     9480.071    9621.4735    11587.712    204.82213   -247.35826   -585.32209   -2997.1357 
25829000    265.48507   -4746.9835   -4234.9732   -4746.9835            0    10397.239    19.787528    19.714985    20.429876    7969.9156    11534.111    10072.796    9584.8105    647.26238    671.08137    154.04832   -3026.4704 
25830000     252.5891   -4694.3239   -4207.1846   -4694.3239            0    6792.3223    20.061287    20.152865    20.006009    8088.2773    6135.7977    6725.6685    7515.5009   -309.89033   -800.89878    55.109292   -3405.9675 
25831000    252.48577   -4693.1647   -4206.2246   -4693.1647            0    10864.813    19.790615    19.836795    20.336805    7983.8713    10858.599    12090.279    9645.5611   -986.94837    2191.6238    645.75086    -2941.163 
25832000    242.71552   -4707.1491   -4239.0518   -4707.1491            0    11397.226    19.693815    19.695508    20.460183    7936.0894    12343.213    10045.747    11802.719    138.97194   -2289.5572   -67.020195     -2919.94 
25833000    265.22474   -4720.2557   -4208.7475   -4720.2557            0    9796.2817    19.939629    19.662841    20.420785    8006.3723    10296.197    10188.985     8903.664    227.70804    1067.6818   -183.46255   -3064.8873 
25834000    257.35881   -4672.5127   -4176.1746   -4672.5127            0    10770.195    19.730546    19.959513    20.283065     7987.716    11285.515    8360.2231    12664.847   -849.16182   -549.86541    1137.3931   -2921.5261 
25835000    250.79853   -4720.3176   -4236.6315   -4720.3176            0    10776.918    19.918026    19.710428    20.209559    7934.1276    11116.855    9832.9257    11380.972   -492.15231    1180.9326    1759.7261   -2989.6224 
25836000    246.38802   -4704.3141   -4229.1341   -4704.3141            0    9161.5461    19.813226    19.765444    20.377924     7980.346     6815.926    10886.848    9781.8641    254.08358    1539.3896   -1084.4345   -3162.8661 
25837000     246.6699   -4701.0931   -4225.3695   -4701.0931            0    11090.871     19.83196    19.542355    20.473234    7934.6722    10744.069     10283.71    12244.833    119.36965    -1651.486    319.50584   -2941.9444 
25838000    252.15174   -4701.1022   -4214.8064   -4701.1022            0    8708.3282    19.915691    19.761805    20.409055    8032.3919    10562.054    7731.1762     7831.754     38.01593    526.83125    919.89276   -3194.6763 
25839000    245.12748   -4747.0292   -4274.2802   -4747.0292            0    10484.307    19.846322    20.024573    20.126088    7998.3915    8819.8663    11392.547    11240.509   -585.27804     605.2007   -395.17689   -3051.3032 
25840000    252.39836   -4728.3784   -4241.6069   -4728.3784            0    9863.4788    19.946744    19.769935    20.292819    8002.3884    7631.2741    11563.086    10396.076   -223.75197    279.66239    131.46703   -3090.4736 
25841000    252.32537   -4713.3476   -4226.7169   -4713.3476            0    9356.7045    19.927841    19.770966    20.245164    7976.4462     9164.057    10018.825    8887.2312    235.35018   -20.136558   -226.68808   -3138.2675 
25842000    249.35324   -4700.4611   -4219.5624   -4700.4611            0    10509.003    19.674257    19.625313    20.530185    7926.9805    11246.805    9316.8053    10963.399   -294.50455    1091.1117   -1611.8961   -3004.6493 
25843000    261.60482   -4696.4405   -4191.9136   -4696.4405            0    10346.196    19.851221    19.493984    20.597616     7970.853    8039.4515    13350.225    9648.9105   -769.29478    134.47768     2607.458   -2989.2024 
25844000    261.87033   -4711.4221   -4206.3831   -4711.4221            0    12467.684    19.788923    19.736428    20.176769    7880.2924    12995.141    10538.339    13869.571   -558.51977   -2030.2235    1189.0178   -2773.5223 
25845000    234.17402   -4716.0519   -4264.4276   -4716.0519            0    12683.851    19.663122    19.711007     20.52256    7954.1325    13033.572    12800.045    12217.936    55.699946     96.10165   -404.01808   -2793.0645 
25846000    257.60569   -4722.4686   -4225.6543   -4722.4686            0    8994.0865    20.033177    19.784937    20.447697    8104.5498    8763.9566    8677.5542    9540.7487   -51.971713    271.71778   -1168.5894   -3162.5844 
25847000    254.70104   -4705.9399   -4214.7275   -4705.9399            0    10193.537    19.733181    19.690006    20.538444    7980.1397    10856.195    8781.8051    10942.611   -1363.9856   -973.64686   -483.86036   -3028.3817 
25848000    249.28972   -4705.0422    -4224.266   -4705.0422            0    10546.587    19.788271    19.900506    20.305342     7996.175    12344.208    9143.8447    10151.709    147.68038   -156.79418   -415.21545    -2994.365 
25849000    251.27406   -4706.6875   -4222.0843   -4706.6875            0    11512.604    19.786209    19.602486    20.368897    7900.2575    11651.023    11286.857    11599.933    336.56922    37.860126   -156.88175   -2895.6349 
25850000    252.03238   -4713.6912   -4227.6256   -4713.6912            0    10124.078    19.864921    19.720844    20.443291    8008.7208    10974.038    10672.809    8725.3875   -339.95791   -230.91764    1098.9313   -3045.1436 
25851000    242.98879   -4741.8374   -4273.2131   -4741.8374            0     8934.899     19.91244    19.840013    20.289884    8015.7841    6824.2316     11021.58    8958.8856    435.94975    47.822231    660.01894   -3228.7056 
25852000    241.78817   -4684.7152   -4218.4064   -4684.7152            0    10693.253    19.692257    19.778365     20.53208    7996.8477     11516.14    11341.562    9222.0575    307.95351    1251.8657   -807.48096    -2971.297 
25853000    260.13257   -4713.3489   -4211.6614   -4713.3489            0    7806.1344    19.741494    19.805688    20.538314     8030.355     8422.989    6779.9372    8215.4772   -698.16547   -549.47342    1137.9898   -3297.4499 
25854000     266.4207   -4729.7975   -4215.9828   -4729.7975            0    7848.7893     19.95366    19.844843     20.40263    8078.9772    8756.7879    6996.9599    7792.6202     429.6398   -745.70876   -272.50297   -3291.2102 
25855000    266.11129   -4699.2012   -4185.9832   -4699.2012            0    7734.2416    20.029773    19.751188    20.337844    8045.8914    7375.9898    7375.5715    8451.1637   -1142.9935   -10.109754   -835.77365    -3278.439 
25856000     240.3446   -4715.2555   -4251.7307   -4715.2555            0    10939.429    19.909127    19.649998     20.44241    7997.3634    11466.842    10387.286    10964.159   -173.73039    724.42921    301.75545   -2975.8286 
25857000    252.52642   -4705.7237   -4218.7053   -4705.7237            0     10853.35    19.634704    19.786194     20.54496     7981.636    11666.494    11033.503    9860.0536   -134.52271   -959.05471     130.7726   -2955.3322 
25858000     257.1172   -4679.1504   -4183.2783   -4679.1504            0    11596.914    19.626925    19.814791     20.29113    7891.2896    10545.702    11657.347    12587.694   -913.20286    261.41215   -611.72646   -2848.6315 
25859000    251.80959   -4718.9473   -4233.3114   -4718.9473            0    10394.567    19.738444    19.761844    20.609275    8039.0198    10715.442    10615.274    9852.9863    200.26091    449.54748   -118.25216   -3014.6434 
25860000    262.25845   -4702.5702   -4196.7827   -4702.5702            0    9956.7198    19.765024    19.990487    20.198067    7980.5078    7510.8997    11659.199    10700.061    276.80239    1027.1744    248.22435   -3037.9448 
25861000     272.3568    -4708.285    -4183.022    -4708.285            0    10933.438    19.867287    19.771302    20.271841    7962.8223    11094.444    10274.565    11431.305    -544.5135   -756.43361    -742.7687   -2913.3262 
25862000    258.72237   -4708.6212   -4209.6534   -4708.6212            0    9707.4223    19.591629    19.905561    20.571987     8022.712    10003.794    9913.0054    9205.4676   -828.64706    3.5185893   -615.91587   -3073.8556 
25863000    246.90682   -4712.5956    -4236.415   -4712.5956            0    12182.288    19.875578    19.712316    20.200318    7914.3566    13292.817    10852.982    12401.065   -414.75379   -661.33248   -1142.6544   -2830.3015 
25864000    246.13606   -4688.7729   -4214.0789   -4688.7729            0    9939.7693    19.672512    19.815924    20.574061    8020.3659    10780.605    11019.216    8019.4873   -711.88199   -844.42665    627.52482   -3051.4359 
25865000    265.80627   -4742.0151   -4229.3853   -4742.0151            0    8810.5042     19.93425    19.708228    20.407093    8017.3091    7495.3304    9528.3551    9407.8271   -385.15345   -559.74828   -939.64376   -3199.2239 
25866000    250.17765   -4741.8939   -4259.4053   -4741.8939            0    8397.2814    19.589644    19.761278     20.73479    8026.7768     9002.669    9845.4065    6343.7688     -143.933   -259.32286    570.43955   -3276.4002 
25867000    255.37571   -4757.4339   -4264.9204   -4757.4339            0    9316.6431    19.788799    19.796852    20.496805    8029.7448    9032.2076     10268.23    8649.4918    188.48192     384.9892   -796.02206   -3173.8893 
25868000    249.78759   -4721.0959   -4239.3595   -4721.0959            0    10768.506    19.724303    19.893404    20.319875    7973.1842    13383.948    8972.2007    9949.3704   -834.77446    457.67916    1050.8199   -2987.1899 
25869000    253.59358   -4731.3296   -4242.2531   -4731.3296            0    11439.881    19.586085    19.858157    20.484838    7967.4455    11344.779    10527.703    12447.162    436.83101    1544.9721   -584.81953    -2912.973 
25870000    257.49565   -4711.6027   -4215.0007   -4711.6027            0    8461.8836    19.722203    19.859625    20.393751    7987.7339    8746.4486    8890.1806    7749.0216    -196.2599   -505.07689    1103.5919   -3229.2513 
25871000    249.07173   -4728.4161   -4248.0603   -4728.4161            0    12201.527    19.686808    19.761331    20.384482    7930.3285    12681.037    11360.135    12563.408   -299.76323    734.19007   -193.12022   -2836.8841 
25872000    257.92285   -4693.3241   -4195.8982   -4693.3241            0    10971.465    19.770119    19.858274    20.405349    8011.1491    9631.0664     11726.26    11557.069   -53.087863    588.64928     1287.043   -2914.0538 
25873000    244.73031   -4692.4249   -4220.4419   -4692.4249            0    9862.7228    19.803786    19.689738     20.52756    8004.3397     10623.17    9536.6385    9428.3596   -401.63508    374.06202     814.1962   -3069.1162 
25874000    253.26317    -4700.045   -4211.6056    -4700.045            0    11269.175    19.843533    19.627782    20.466758    7971.4858    9910.9109    11968.568    11928.047   -100.99026      484.104   -382.94978    -2901.497 
25875000     267.7849   -4702.0067    -4185.561   -4702.0067            0    10833.093    20.059689    19.444371    20.438097    7971.8395    10432.006    11345.944    10721.329    609.44817    658.46222    325.45189   -2926.0937 
25876000    247.39159   -4726.7801   -4249.6646   -4726.7801            0    9778.2919    19.771744    19.678357    20.494015    7973.7179    9893.1123     9184.533     10257.23    663.23122    845.71461    351.45329   -3112.5618 
25877000    251.22527   -4711.8998   -4227.3908   -4711.8998            0    11692.797    19.789656     19.74799     20.39204    7969.3302    12043.815    10867.661    12166.917   -783.57452   -204.09402   -768.72076   -2868.4012 
25878000    254.29092    -4729.286   -4238.8646    -4729.286            0    8854.0025    19.990527    19.731174    20.320464    8015.1339    7575.3061    8184.7083    10801.993   -748.57356    -1916.143   -662.80272    -3203.898 
25879000    256.51656   -4673.9326   -4179.2188   -4673.9326            0    10822.278    19.717729    19.922154    20.399131    8013.1792    9823.5701    10723.699    11919.563   -379.95884   -446.08315    1163.2373   -2914.4842 
25880000    240.09648   -4718.4625   -4255.4163   -4718.4625            0    11238.968    19.631047    19.549951    20.713286    7949.4691    11531.791    12180.166    10004.948    139.25139    998.88224   -606.15391   -2952.4281 
25881000    245.72346   -4730.4198   -4256.5214   -4730.4198            0    10570.376    19.849274    19.494377    20.577406    7962.4116    10721.259    11024.929      9964.94    531.48485    1534.8944    884.50699   -3029.0512 
25882000     271.5816   -4712.5431   -4188.7752   -4712.5431            0    10140.803    20.046005    19.710685    20.169793     7969.498    9407.4742    10774.946    10239.988   -177.80944   -239.15731   -577.01002   -3010.1405 
25883000    264.90977   -4692.5519   -4181.6512   -4692.5519            0    11575.894    19.769438    19.739911    20.339695    7937.5043    12594.728    11443.344     10689.61    1338.4107    135.35563   -1610.9402   -2841.6216 
25884000    244.88444    -4725.688   -4253.4077    -4725.688            0    8482.2282    19.910637    19.579441    20.628805    8041.9157    8219.2572     9072.303    8155.1245    524.89356    223.26823   -140.47449   -3258.5858 
25885000    246.91958   -4702.7282   -4226.5231   -4702.7282            0    9618.9329    19.605909    19.907706    20.516591     8007.803    10327.879    9674.0201    8854.9001   -734.69341   -687.82664   -410.40847   -3103.1703 
25886000    258.23592   -4702.9471   -4204.9174   -4702.9471            0    10039.295    19.754662    19.658053    20.546082    7978.8283     11080.02    9882.2986     9155.568    982.26695   -383.09272   -92.950339   -3036.7146 
25887000    252.63893   -4726.9598   -4239.7244   -4726.9598            0    8839.7444    19.690702    20.027832    20.261902    7990.5255    6575.1196    9430.9033     10513.21   -460.46915    508.91961    1029.9588    -3209.597 
25888000    254.59282   -4725.8601   -4234.8564   -4725.8601            0    10684.053    19.934659    19.730687    20.299168    7984.1604    10400.991    11392.545    10258.622   -70.899698    837.27319   -737.85768   -2990.7969 
25889000    237.52878   -4724.5236   -4266.4293   -4724.5236            0    10234.703    19.852474    19.756017    20.397077    7999.8522    10261.954    9718.9169    10723.239    563.53754    1513.7401    112.95021   -3072.3502 
25890000    264.43732   -4708.9341   -4198.9445   -4708.9341            0    12376.217    19.927022    19.623366    20.293235    7935.3699    10650.712    14056.712    12421.226   -478.13472   -509.96475    2160.1024   -2766.6545 
25891000    248.74655   -4712.3095   -4232.5809   -4712.3095            0    9441.8565    19.725192    19.741008    20.526801     7993.037    11099.009    8390.9543    8835.6058    55.695979      488.023     897.5339   -3131.9413 
25892000    245.21302   -4695.5475   -4222.6336   -4695.5475            0    10368.295    19.932155    19.899041    20.126168    7982.6575    9523.8612    9578.2163    12002.807   -481.06229     340.5386   -1066.8267   -3015.5684 
25893000    254.54894   -4718.1494   -4227.2304   -4718.1494            0    10741.796    19.724044    19.559826     20.53396    7921.9787    10957.183    11577.041    9691.1634    486.06151    840.18867   -1614.1295   -2986.1885 
25894000    256.06339   -4707.5552   -4213.7154   -4707.5552            0    10757.741    19.776562    19.768781    20.430416    7987.4454    7403.5718    14120.695    10748.958   -862.17168    1817.7168    553.48985   -2960.5601 
25895000    258.43581   -4712.1359   -4213.7207   -4712.1359            0    11563.388    19.721826    20.000175    20.185259    7961.8732    11940.722    9056.9301    13692.511    1250.3368   -126.55568   -879.70232   -2871.0292 
25896000    251.25903   -4733.9828   -4249.4086   -4733.9828            0    8605.7868    19.543648    19.859068    20.665895    8020.8187    9210.0967    9636.9833    6970.2805   -36.462879    57.943305   -89.454852   -3242.7432 
25897000    246.69721   -4725.8079   -4250.0316   -4725.8079            0    10373.323    19.502902    19.764861    20.647544    7959.0535    11739.334    9733.2481     9647.387   -401.21565   -120.80366    472.77702   -3045.9519 
25898000    257.15524   -4726.9215    -4230.976   -4726.9215            0    10641.501    19.748323    19.775666    20.318776    7935.2181    7966.9549    13409.976    10547.571     281.2346    1462.8985    1357.1203   -2999.4669 
25899000    254.97649   -4697.5477   -4205.8041   -4697.5477            0    9829.7682       19.858    20.005729    20.193144    8022.2068    10029.665    9084.2843    10375.355    625.35109    1396.5445   -1392.1642   -3055.7639 
25900000    248.30924   -4716.9001   -4238.0148   -4716.9001            0    8798.6562    19.741821    19.815496     20.46171    8004.4979    9159.9724    9492.5258    7743.4703    503.22404    67.999062   -230.21772   -3210.8827 
25901000    274.01588   -4711.5704   -4183.1077   -4711.5704            0    10198.727    19.854216    19.559438    20.557689    7983.3174    10899.292    11300.027     8396.861   -182.57031    823.28512   -263.55667   -2995.6853 
25902000    250.05405   -4679.4016   -4197.1513   -4679.4016            0    10208.014    19.911048    19.739481    20.289284    7974.3738    11165.224    9951.7381    9507.0809   -337.45457    455.69392   -374.51098    -3009.979 
25903000    258.09074   -4732.1492   -4234.3995   -4732.1492            0    8209.2345    20.121968    19.969065    20.082313    8069.4128    6285.9504    8876.3891     9465.364   -956.85497    50.700504     118.6873    -3268.303 
25904000    262.82706   -4720.4726   -4213.5885   -4720.4726            0    12213.626    19.707128    19.532911    20.576611    7920.7107    12696.716    13709.812    10234.349    276.66945   -645.70888    247.50904   -2802.7261 
25905000    254.94178   -4719.7816    -4228.105   -4719.7816            0    9855.1471    19.455764    19.947405    20.474937    7946.1594    11036.767    7409.6071    11119.067    -140.8279    1552.4323   -576.81744   -3086.0256 
25906000    249.22183   -4714.5843   -4233.9391   -4714.5843            0    11219.534    19.988841    19.412361    20.585206    7987.6897    10692.316     11659.54    11306.746    71.381072    728.04628   -97.875852   -2926.9502 
25907000    253.31289   -4703.2534   -4214.7182   -4703.2534            0    12253.716    19.732226    19.841219    20.336703    7962.0516    9110.8465    15133.791    12516.511    175.11945     -548.647    1331.8595   -2791.8368 
25908000    246.23817   -4732.4755   -4257.5845   -4732.4755            0    9955.9357    19.889713    19.805296    20.259078    7980.4893    9897.1966    9312.3412    10658.269    856.01906   -281.29124    1459.8107   -3098.8405 
25909000    257.70027   -4745.8266     -4248.83   -4745.8266            0    8659.8277    19.588872    19.852962     20.50912    7975.9378    8497.5286     9263.368    8218.5866   -221.31361   -591.06084   -550.22688   -3241.5113 
25910000    267.61246   -4742.9774   -4226.8643   -4742.9774            0    9911.9626    19.956394    19.794207    20.328916    8030.3489    9658.1178    10444.712    9633.0586    382.41723    58.784676    1359.9006   -3066.0307 
25911000    248.47747   -4702.1914   -4222.9817   -4702.1914            0    13474.803    19.733465    19.504378    20.401634     7852.364    14011.484    12671.425    13741.501   -14.165308   -245.22886    702.52432   -2679.8651 
25912000    255.09305   -4699.2666   -4207.2981   -4699.2666            0    12164.046    19.916298    19.538747    20.417199    7945.1387    11606.379    13211.003    11674.755    550.63114   -89.429226    914.41181   -2797.8295 
25913000     253.3812    -4697.973    -4209.306    -4697.973            0    11339.652    19.654541    19.731513    20.631681    8001.2509     12013.79    11631.229    10373.936   -965.57944    1302.2252   -450.16956   -2886.0816 
25914000    260.07461   -4737.0723   -4235.4966   -4737.0723            0    10901.257    19.935953    19.667386    20.347296    7977.9324    10792.013     11282.29    10629.467    450.79449   -677.46111   -1187.8303   -2967.1358 
25915000    253.71023   -4724.1108   -4234.8093   -4724.1108            0    10285.881    19.761105    19.848645    20.397651    8000.5943    9502.5848    10658.688     10696.37    152.14496    2819.4336   -1188.3171   -3034.6479 
25916000    256.88544   -4705.8751   -4210.4499   -4705.8751            0    9600.5941    19.673497    19.728734    20.578203    7987.0834    10319.319    10198.057    8284.4061   -692.20089     1188.899   -59.941889   -3092.1399 
25917000     251.1169   -4703.2587   -4218.9587   -4703.2587            0    10074.016    19.904264    19.915088    20.141004    7983.7967    9050.5973    10037.616    11133.834    65.563533   -1266.5006    1419.8071   -3045.9858 
25918000    261.20582   -4680.8968   -4177.1394   -4680.8968            0    10369.468    19.573224    19.818075    20.451011    7933.0214    9033.1404    10888.276    11186.987   -790.85912     410.3845    951.02385   -2977.4441 
25919000     264.8394   -4703.7361    -4192.971   -4703.7361            0    10406.186    19.620285    19.812445    20.603757    8009.2123    12146.561    8534.5674    10537.428    89.743508    1118.2752   -1895.1524   -2977.4646 
25920000    261.90538   -4710.1031   -4204.9965   -4710.1031            0    9990.0391     20.03421    19.636453    20.210621     7950.875    9467.6149    9638.4443    10864.058    293.66378   -112.29407     -616.654    -3046.598 
25921000    259.54901   -4706.5574   -4205.9953   -4706.5574            0    10640.847    19.610424    19.913285     20.47569    7995.9199     12517.21    9328.1797    10077.152    249.44236     1034.528   -1404.3382   -2965.1417 
25922000    259.38479   -4731.7508   -4231.5055   -4731.7508            0    9699.2451    19.796461    19.669213    20.441295    7959.4479    8688.2019    10325.126    10084.407    1019.2913     873.4731   -781.30205   -3105.6134 
25923000    239.42822   -4717.8321   -4256.0746   -4717.8321            0    8770.2436    19.720509    19.948179    20.390905    8021.5425    8276.2823    9911.2815     8123.167   -467.82714    736.14355    493.63255   -3230.0792 
25924000    255.14848    -4722.894   -4230.8187    -4722.894            0    10686.831     19.78977    19.759553    20.479555    8008.2644    9571.2908    13000.276    9488.9261   -736.77233    589.93343      908.055   -2982.6789 
25925000    252.48822   -4714.9912   -4228.0464   -4714.9912            0    10940.953     19.78097    19.882229    20.252122    7964.9524    11178.638    9333.7912    12310.429   -1039.0623    668.71435   -384.96948   -2957.1381 
25926000    259.28579   -4737.8663   -4237.8118   -4737.8663            0    12988.858     19.82151    19.949181    19.933214    7882.0489    13103.854    11659.908    14202.814   -985.92076   -215.98878    1076.6091   -2744.7218 
25927000    244.30463   -4687.1764   -4216.0144   -4687.1764            0    10652.351     19.70708    19.679512    20.608068    7992.3388    9283.6812    12280.329    10393.045    175.55796   -1315.6718   -133.58944   -2974.3756 
25928000    246.17924   -4700.5079   -4225.7305   -4700.5079            0    11305.608    19.746395    19.813571    20.401703    7982.0972    10710.688    12306.213    10899.923   -1558.1451    1297.5424    482.14117   -2909.6368 
25929000    258.29591   -4706.2055   -4208.0601   -4706.2055            0    10878.059    19.757162     19.88058    20.403162    8014.0317     12551.38    9935.6305    10147.165    49.306694    769.64146   -670.03841   -2936.6714 
25930000    261.70783   -4704.8834   -4200.1578   -4704.8834            0     11960.01    20.080973    19.630161    20.234903    7976.4516    8579.9413    15062.862    12237.228    609.76641    945.64793   -1981.2088   -2808.8694 
25931000    253.20642   -4718.7067   -4230.3768   -4718.7067            0    12583.825     19.83841    19.774753     20.31767    7970.6148    12258.472     13030.68    12462.324      415.837    560.33976   -943.45487   -2767.5922 
25932000    253.72793   -4716.7368   -4227.4012   -4716.7368            0    9864.5021     19.66338    19.702644    20.637397    7995.3521     10415.63     10443.71    8734.1662    757.16496    -396.6916     1105.187   -3077.1607 
25933000    239.62614   -4712.1787   -4250.0395   -4712.1787            0    10137.559     19.58587    19.976338    20.458722    8004.5562    9767.9591    10495.999    10148.719     238.6584   -583.05591    512.79538   -3066.5987 
25934000    251.72223   -4742.7769   -4257.3094   -4742.7769            0    9013.1709     19.82418    19.717776    20.557785    8035.8072    8213.0952    10388.277    8438.1402    558.52457   -970.41745    669.12262   -3201.0198 
25935000    270.73536   -4715.3243   -4193.1884   -4715.3243            0    10170.778    19.535717    19.708552    20.569592    7919.7187    9932.4278    10322.595    10257.312   -77.414367     152.0416   -1426.2621   -3018.4536 
25936000    267.92501   -4708.2857   -4191.5698   -4708.2857            0    10833.587    19.556163    19.977717    20.387838    7965.2734     11845.69    9479.4646    11175.605   -398.05651    1252.9533   -289.19422   -2933.0825 
25937000    261.91481   -4736.7191   -4231.5943   -4736.7191            0    10385.458    19.855636    19.792328    20.297933    7976.8696    10424.391    8780.5853    11951.397   -95.584409   -1028.7279    290.77344   -3023.4077 
25938000    258.67497   -4702.2708   -4203.3943   -4702.2708            0    10039.134    19.613254    19.852743    20.439122    7958.5219    10639.557    10876.035    8601.8089    350.16494    847.24884   -997.30352   -3038.1834 
25939000    248.85748    -4721.909   -4241.9664    -4721.909            0    11311.952     19.77681    19.584102    20.505192    7941.8877    12253.694    11013.547    10668.617    452.28579     790.8564    1976.3535   -2931.7676 
25940000    250.92554   -4666.6071   -4182.6761   -4666.6071            0    10269.744    19.980615    19.536858    20.393932    7960.9433    10059.803    10861.744    9887.6849   -231.63889    1754.6636   -515.24521   -2990.3363 
25941000    251.35851   -4691.0425   -4206.2765   -4691.0425            0    10081.357    19.995865    19.636426    20.234119    7944.8729    9452.6792    9546.3992    11244.992    271.94124    244.97872   -402.30794   -3038.1716 
25942000    263.92086   -4720.3964   -4211.4028   -4720.3964            0    10337.954    19.674399    19.856572    20.443259    7986.4888    10873.615    10442.117    9698.1301    689.96866   -463.65077    1687.0835   -3007.2922 
25943000    247.62715   -4692.4964   -4214.9266   -4692.4964            0     10956.35    20.115758    19.421409    20.428682    7981.0032    8432.4529    13570.135    10866.461    473.83632   -1009.0177    -234.9354   -2939.6651 
25944000    253.64791   -4701.2951   -4212.1137   -4701.2951            0    8023.8361    19.734937    19.831204    20.637264    8076.7559    9393.8928    6892.1405     7785.475   -293.39291    1507.2507   -14.394051   -3266.9765 
25945000    259.36448   -4723.6073   -4223.4011   -4723.6073            0    9747.8598    19.852666     19.60272    20.574761    8007.0027    9740.2475    10023.304    9480.0278    189.17455    589.41057   -817.46732   -3085.1053 
25946000    253.77181   -4701.1986   -4211.7783   -4701.1986            0    8521.2989    19.797508     19.77648    20.340738    7963.9078    7839.5511    9651.7949    8072.5507    239.24477    1511.9855    477.89521   -3222.0684 
25947000    247.91114   -4690.1543   -4212.0368   -4690.1543            0    10372.604    20.047874    19.511569    20.315624     7946.771    10213.323    10077.013    10827.476     723.9936   -1052.6239     934.0598   -3009.8986 
25948000    260.96351   -4725.3455   -4222.0554   -4725.3455            0    9470.9678    19.845527    19.546253     20.67062    8018.2511    9892.0937    10098.311    8422.4984    123.49167   -344.38666    1744.1367   -3114.5397 
25949000    265.21101   -4705.6541   -4194.1724   -4705.6541            0    11522.101    19.942815    19.727971    20.304541    7988.4411    10097.833    12055.296    12413.174   -463.58316   -1900.2013   -197.13815   -2851.8105 
25950000    249.52527   -4733.0409   -4251.8104   -4733.0409            0    9255.8108    19.670246    19.864724    20.602394    8050.2622    9606.1224    8438.2122    9723.0977   -390.32343    -1823.703   -712.57018   -3165.1336 
25951000    248.80739   -4714.2996   -4234.4536   -4714.2996            0    10570.309    19.951608    19.637718    20.375668    7983.2691    9113.3395    11785.585    10812.002    71.764535    399.70334    470.74714   -3003.7759 
25952000    256.24228   -4702.9824   -4208.7976   -4702.9824            0    12150.651    19.600807    19.828896    20.388193    7924.1236    10506.814     14311.66     11633.48   -70.089184    2583.8936    604.55277    -2804.605 
25953000    250.33951   -4733.8401   -4251.0393   -4733.8401            0    9797.7528    19.812487    19.754689    20.308582    7948.5662    10026.091    9367.5082    9999.6591   -553.29861    738.10502   -1143.9578   -3115.2673 
25954000    252.35684   -4737.6367   -4250.9453   -4737.6367            0    9746.2059    19.673639    19.912914    20.453212    8012.7398    9488.4919    7636.2621    12113.864    15.429933   -492.75564     1339.467   -3112.0272 
25955000    240.26744   -4711.3637   -4247.9877   -4711.3637            0    12932.181    19.950286    19.348788    20.483179    7906.7911    9651.6643    16531.293    12613.587    427.07356    547.26906    840.96684   -2756.7464 
25956000     250.5444   -4723.6846   -4240.4887   -4723.6846            0    11573.879    19.704324    19.788468    20.314045    7920.8194     12054.18    10586.143    12081.315    58.409164    712.71294    2385.1903   -2903.5085 
25957000      257.085   -4722.0286   -4226.2185   -4722.0286            0     10064.59    19.932891    19.626335    20.405859     7982.968    9976.4248    9746.2701    10471.076   -154.70453   -74.736634     661.4265   -3054.4647 
25958000     256.8994   -4708.8585   -4213.4064   -4708.8585            0    10868.122    19.820356    19.868655    20.213663    7960.2176    10742.981    11249.209    10612.178   -155.35304    182.71426   -1704.3409   -2951.7086 
25959000     252.6479   -4725.1755   -4237.9228   -4725.1755            0    8908.1926    19.835895    19.871543    20.350731    8021.6443    7576.6962    10296.356    8851.5258    -329.3632    67.603014    67.684059    -3195.776 
25960000    259.98746   -4699.3947    -4197.987   -4699.3947            0    9337.3928    19.763118    19.772918    20.596988    8048.7777    10677.659     7522.737    9811.7823    -50.47608    1017.7495    813.90478   -3101.9343 
25961000    257.50967    -4715.028    -4218.399    -4715.028            0    9759.6162    19.586624    20.036444    20.325495    7976.6656    9965.7426    8779.0566    10534.049   -785.63514   -385.62982    69.535729   -3083.0483 
25962000    250.72343   -4720.6262   -4237.0849   -4720.6262            0    8774.2493    19.855846    19.872132    20.501754    8089.5409    7728.6791     10299.02    8295.0484    68.806823   -576.62974    918.57605   -3201.9196 
25963000    262.02288   -4708.4857   -4203.1525   -4708.4857            0    11236.965    19.654651    19.841634    20.531658     8006.944    12045.977     11304.36    10360.557   -551.37999    1546.8194   -874.90757   -2890.9777 
25964000    248.10472    -4708.181   -4229.6902    -4708.181            0    8757.4601     19.79597    19.946736    20.358718     8038.945    8114.3195    9408.6957    8749.3651    204.79858   -1011.6484   -559.36324   -3202.9676 
25965000    239.72015   -4728.4762   -4266.1557   -4728.4762            0    11112.206    19.708882    19.695632    20.449089    7937.9041    10876.774    11660.659    10799.184   -188.91712        749.4    780.37408    -2979.738 
25966000    252.28263   -4721.9732   -4235.4249   -4721.9732            0    9545.9083    19.650982    19.934817    20.311425    7956.7717    9478.6993    9756.8022    9402.2235    661.15804    120.13627    367.81066   -3127.7048 
25967000    246.80994     -4739.14   -4263.1463     -4739.14            0    10257.938    19.888121    19.665971    20.421769    7987.3463    9688.6651     10771.01    10314.139     193.9714    288.16187   -805.15593   -3068.2273 
25968000    266.86439   -4714.1967   -4199.5263   -4714.1967            0    11646.324    19.749113    19.880345    20.254601    7952.3448    12844.792    9725.6263    12368.553   -341.70595   -13.703709    1654.3368    -2848.823 
25969000    262.93417   -4713.0523   -4205.9617   -4713.0523            0    11664.088    19.998424     19.79875    20.122064    7967.2065    9491.1519    14069.174    11431.938   -644.12027   -19.224688   -940.11392   -2850.6701 
25970000      235.907   -4697.5661   -4242.5997   -4697.5661            0     11660.82    19.775683    19.531445     20.57117    7945.5665    10382.191    13585.142    11015.125   -1131.4219    1119.0168     1393.854   -2891.3679 
25971000     258.2853   -4713.4103   -4215.2854   -4713.4103            0    11257.033     19.69321    19.797815    20.266299    7901.4759    12550.979    10808.565    10411.555   -704.33727   -1049.3645   -459.82927   -2918.0821 
25972000    257.02789    -4749.482   -4253.7821    -4749.482            0    8433.9324    20.139033    19.758566    20.394027    8115.1587    7365.6837    9569.2863    8366.8273    894.63939   -504.34479    1391.3516   -3255.6156 
25973000    249.35051   -4723.8276   -4242.9342   -4723.8276            0    9571.4855    19.908847    19.755227    20.365897    8009.9848    7377.2319    12561.991    8775.2338   -706.89469   -439.43438    471.44691    -3124.818 
25974000    257.30009   -4718.9051   -4222.6802   -4718.9051            0    10127.559    19.867276    19.828933    20.227437    7968.5354     10554.52    8568.3895    11259.768   -287.57363   0.81572236    402.60124    -3045.727 
25975000    251.82825   -4754.3447   -4268.6728   -4754.3447            0    8279.8425    19.889301    19.976866    20.331191    8078.1084    7374.1818    8199.7002    9265.6455   -597.34915    774.07842    1316.1498   -3293.2169 
25976000    259.97785   -4727.5395   -4226.1504   -4727.5395            0    9016.7234    19.719222     19.71554    20.589264    8004.5931    8858.0027    9328.6267    8863.5408    1022.5307    386.55687   -601.41418   -3173.5491 
25977000    269.36019    -4681.465   -4161.9812    -4681.465            0    10174.935    19.817278     19.86446    20.368697    8018.3316      11954.9     8323.404    10246.502    808.42897   -166.97388    1029.9427    -2972.133 
25978000    254.27151   -4688.5352   -4198.1512   -4688.5352            0    11196.281    19.711553    19.877958    20.363827    7979.0652    11760.625    9830.1058    11998.112   -1290.1195    857.34615    280.74219   -2895.2793 
25979000    252.55651   -4697.7247   -4210.6482   -4697.7247            0    10580.991    19.841096    19.413536    20.742373    7989.6683    10861.113    11575.827    9306.0326   -5.5122796     259.3523    -436.3777   -2977.7393 
25980000    263.84485   -4691.9067   -4183.0597   -4691.9067            0    9450.1348    19.660079    19.936578    20.359575     7980.031    10877.321    8127.9393    9345.1446    639.91562   -273.74583   -730.90476   -3083.2477 
25981000    263.82188   -4715.1449   -4206.3422   -4715.1449            0     8971.827    19.871558    19.751714    20.410464    8011.0524    8632.9923    9625.5014    8656.9872   -706.77518   -158.06995   -1189.4007   -3158.1369 
25982000    255.65542   -4700.2164   -4207.1634   -4700.2164            0    11119.962    19.461683     19.79947    20.582475    7931.0657    14288.262    9098.8754    9972.7472   -821.86593      739.739    -153.5202   -2920.9568 
25983000    255.72141   -4726.7426   -4233.5623   -4726.7426            0      9980.63    19.653006    19.947523    20.233101    7931.9581    9914.6745    8948.3543    11078.861    186.47928     590.6645    819.79392   -3079.0083 
25984000    248.96918   -4691.3686   -4211.2106   -4691.3686            0    9849.6472    19.865449    19.725791    20.496114     8031.642    8536.1108    10236.863    10775.968     91.14317   -197.57612    98.449897   -3057.4893 
25985000    246.83204   -4728.5336   -4252.4972   -4728.5336            0    9367.9486    19.483566    20.132522    20.450923    8021.9426    12111.221    7032.1837    8960.4413    47.182332   -230.89037   -1233.8107    -3156.524 
25986000    245.20006   -4722.3774   -4249.4884   -4722.3774            0    10326.492    19.832484    19.775508    20.473704    8029.7344    12006.624    8512.7929    10460.059    149.29563   -1609.5464    -106.5625      -3040.2 
25987000    246.35829   -4693.4308   -4218.3081   -4693.4308            0    11076.084    19.731131    19.622526    20.551477    7957.0107    10453.886    13362.235    9412.1321   -89.321877   -89.880701   -729.56658   -2932.9856 
25988000     248.1169     -4688.58   -4210.0657     -4688.58            0    12702.995    19.844633    19.875755    20.243528    7984.5952    11181.242    13552.887    13374.856    297.94792    1077.9191   -296.47696   -2730.8384 
25989000     246.6902   -4691.7167   -4215.9539   -4691.7167            0    12950.075    19.755891    19.882918       20.096    7893.8046    12861.952    11710.593    14277.679    976.38842   -878.14765   -435.86236   -2725.1019 
25990000    254.16679   -4711.0326   -4220.8506   -4711.0326            0    9973.3271      19.9714    19.586338    20.598463    8057.4308    8827.7427    12488.614    8603.6242   -335.20332    1357.8669   -603.80263   -3048.8913 
25991000    245.78546   -4724.5569   -4250.5389   -4724.5569            0    8075.3942    19.836019    19.940882    20.320931    8037.8977    8159.2111    6739.0864     9327.885    178.19873    186.92609    655.15845   -3303.9049 
25992000    255.65506   -4716.2538   -4223.2016   -4716.2538            0    10734.179    19.880467    19.780633    20.354834    8004.5025    11425.508    9790.7112    10986.319   -220.19662    175.67267    843.47518   -2970.1208 
25993000    263.65329   -4725.6202   -4217.1426   -4725.6202            0    8409.7428    20.042866    19.706432    20.376288    8048.0915    8864.0234    8839.5617    7525.6433    123.70182    418.25576   -508.43506   -3230.0645 
25994000    261.38539   -4700.7862   -4196.6825   -4700.7862            0    11414.289    19.547924    19.821508    20.381057    7897.0348    12744.661    9414.8907    12083.316   -55.503478    331.51511    627.49165   -2882.0971 
25995000     267.1926   -4703.4639   -4188.1605   -4703.4639            0    9731.0206    19.660833    19.812812    20.637538    8039.0718    11593.665    8962.4987    8636.8979    83.579868    1147.4102   -918.95253   -3047.2799 
25996000    249.91155   -4673.8836   -4191.9082   -4673.8836            0    11832.927    19.686779    19.669067    20.484334    7931.9553    12562.705    11393.723    11542.354    1227.8846    -529.4431    447.66465   -2823.0819 
25997000    246.96931   -4697.4018   -4221.1007   -4697.4018            0    10313.706      19.6512    19.921744    20.443431    8003.3206    12180.976    9411.1872    9348.9546    902.04858    740.34175    1255.5612   -3017.2827 
25998000    252.29143   -4682.4844   -4195.9191   -4682.4844            0    10450.591    19.905725    19.690647    20.388915    7991.5697     10124.45    11731.293    9496.0303   -324.88271   -273.85105    805.10977   -2977.9148 
25999000    247.16889   -4717.2211   -4240.5351   -4717.2211            0    10354.602    19.855752    19.606091     20.53159    7992.8184    10294.154    10401.789    10367.862    163.89444    -1686.254    659.05823   -3033.5296 
26000000    259.19151   -4683.9687   -4184.0961   -4683.9687            0    9437.8493    19.808713    19.801326    20.424642    8011.3368    11010.089     8255.652    9047.8074    633.43201    2284.8358   -389.28394   -3081.4049 
Loop time of 457.927 on 64 procs for 250000 steps with 972 atoms

Performance: 94.338 ns/day, 0.254 hours/ns, 545.939 timesteps/s
99.0% CPU use with 64 MPI tasks x 1 OpenMP threads

MPI task timing breakdown:
Section |  min time  |  avg time  |  max time  |%varavg| %total
---------------------------------------------------------------
Pair    | 21.435     | 29.273     | 38.216     |  79.1 |  6.39
Bond    | 0.26244    | 0.28081    | 0.30107    |   1.1 |  0.06
Kspace  | 192.35     | 203.14     | 221.64     |  45.4 | 44.36
Neigh   | 3.0163     | 3.4363     | 4.3488     |  17.3 |  0.75
Comm    | 82.621     | 99.481     | 108        |  50.2 | 21.72
Output  | 1.1176     | 1.1181     | 1.124      |   0.1 |  0.24
Modify  | 112.55     | 114.74     | 116.88     |   9.7 | 25.06
Other   |            | 6.454      |            |       |  1.41

Nlocal:        15.1875 ave          20 max          10 min
Histogram: 2 2 2 9 8 9 12 14 4 2
Nghost:        2308.38 ave        2352 max        2272 min
Histogram: 5 5 8 5 13 9 7 9 2 1
Neighs:        4895.17 ave        6785 max        3038 min
Histogram: 4 6 6 5 8 13 10 5 5 2

Total # of neighbors = 313291
Ave neighs/atom = 322.31584
Ave special neighs/atom = 2.0000000
Neighbor list builds = 7267
Dangerous builds = 0

unfix		3
unfix		2
unfix		1

write_data	data.final.${pid}
write_data	data.final.0
System init for write_data ...
PPPM initialization ...
  extracting TIP4P info from pair style
  using 12-bit tables for long-range coulomb (../kspace.cpp:340)
  G vector (1/distance) = 0.37226517
  grid = 24 24 24
  stencil order = 5
  estimated absolute RMS force accuracy = 0.0034988138
  estimated relative force accuracy = 1.0536574e-05
  using double precision FFTW3
  3d grid and FFT values/proc = 2197 216
Last active /omp style is kspace_style pppm/tip4p/omp
WARNING: Not all mixed pair coeffs generated from mixing. Use write_data with 'pair ij' option to store all pair coeffs. (../write_data.cpp:312)

write_restart   restart.lmp.${pid}
write_restart   restart.lmp.0
System init for write_restart ...
PPPM initialization ...
  extracting TIP4P info from pair style
  using 12-bit tables for long-range coulomb (../kspace.cpp:340)
  G vector (1/distance) = 0.37226517
  grid = 24 24 24
  stencil order = 5
  estimated absolute RMS force accuracy = 0.0034988138
  estimated relative force accuracy = 1.0536574e-05
  using double precision FFTW3
  3d grid and FFT values/proc = 2197 216
Last active /omp style is kspace_style pppm/tip4p/omp
Total wall time: 0:07:41
