#include		in.partitions
include		in.temp
variable        temperature equal 86.54
variable	tempDamp equal 100.0
include		in.pressure
variable        pressure equal 1293.8
variable        pressureDamp equal 1000.0 # This is 1 ps
include		in.seed
variable        seed equal 745823

units		real
atom_style	full
box tilt large
read_restart	restart.lmp.${pid}
read_restart	restart.lmp.0
Reading restart file ...
  restart file = 30 Jul 2021, LAMMPS = 30 Jul 2021
  restoring atom style full from restart
  triclinic box = (-10.641134 -9.2028830 0.082445274) to (12.621134 12.192881 21.777554) with tilt (-9.0973394 2.0427443 2.9506133)
  4 by 4 by 4 MPI processor grid
  restoring pair style lj/cut/tip4p/long/omp from restart
  restoring bond style harmonic/omp from restart
  restoring angle style harmonic/omp from restart
  1296 atoms
  864 bonds
  432 angles
Finding 1-2 1-3 1-4 neighbors ...
  special bond factors lj:    0        0        0       
  special bond factors coul:  0        0        0       
     2 = max # of 1-2 neighbors
     1 = max # of 1-3 neighbors
     1 = max # of 1-4 neighbors
     2 = max # of special neighbors
  special bonds CPU = 0.007 seconds
  read_restart CPU = 0.015 seconds
include 	in.setup
variable	out_freq equal 1000
variable	out_freq2 equal 10000
variable	out_freq3 equal 1000

timestep	2.0

neigh_modify    delay 7 every 1

include		in.tip4p
# This is TIP4P/Ice

# create groups ###
group ox type 2
432 atoms in group ox
group hy type 1
864 atoms in group hy

# set charges - beside manually ###
set group ox charge -1.1794
Setting atom values ...
  432 settings made for charge
set group hy charge 0.5897
Setting atom values ...
  864 settings made for charge

# ### TIP3P Potential Parameters ###
pair_style lj/cut/tip4p/long/omp 2 1 1 1 0.1577 8.5
pair_coeff 1 1*2 0.000 0.000
pair_coeff 2 2 0.21084 3.1668
bond_style  harmonic
bond_coeff  1 450 0.9572
angle_style harmonic
angle_coeff 1 55 104.52
kspace_style pppm/tip4p/omp 1.0e-5
pair_modify tail yes

thermo          ${out_freq}
thermo          1000
thermo_style    custom step temp pe etotal epair emol press lx ly lz vol pxx pyy pzz pxy pxz pyz enthalpy

restart 	${out_freq3} restart.lmp.${pid} restart2.lmp.${pid}
restart 	1000 restart.lmp.${pid} restart2.lmp.${pid}
restart 	1000 restart.lmp.0 restart2.lmp.${pid}
restart 	1000 restart.lmp.0 restart2.lmp.0


include         in.dump
dump            myDump all atom ${out_freq2} dump.water.${pid}
dump            myDump all atom 10000 dump.water.${pid}
dump            myDump all atom 10000 dump.water.0
dump            myDump2 all dcd ${out_freq2} dump.dcd
dump            myDump2 all dcd 10000 dump.dcd
dump_modify     myDump append yes
dump_modify     myDump2 append yes


variable natoms 	equal  "count(all)"                        # NUMBER ATOMS
variable H      	equal  "enthalpy/v_natoms"                 # ENTHALPY-per-atom
variable Vol      	equal  "vol/v_natoms"                 # volume-per-atom
fix AVG all 		ave/time ${out_freq} 1 ${out_freq} v_Vol v_H file vol_enthalpy.dat
fix AVG all 		ave/time 1000 1 ${out_freq} v_Vol v_H file vol_enthalpy.dat
fix AVG all 		ave/time 1000 1 1000 v_Vol v_H file vol_enthalpy.dat


timer           timeout 10:00:00 every 1000
New timer settings: style=normal  mode=nosync  timeout=10:00:00

fix 		1 all shake 1e-6 200 0 b 1 a 1
       0 = # of size 2 clusters
       0 = # of size 3 clusters
       0 = # of size 4 clusters
     432 = # of frozen angles
  find clusters CPU = 0.003 seconds
fix             2 all nph tri ${pressure} ${pressure} ${pressureDamp}
fix             2 all nph tri 1293.8 ${pressure} ${pressureDamp}
fix             2 all nph tri 1293.8 1293.8 ${pressureDamp}
fix             2 all nph tri 1293.8 1293.8 1000
fix             3 all temp/csvr ${temperature} ${temperature} ${tempDamp} ${seed}
fix             3 all temp/csvr 86.54 ${temperature} ${tempDamp} ${seed}
fix             3 all temp/csvr 86.54 86.54 ${tempDamp} ${seed}
fix             3 all temp/csvr 86.54 86.54 100 ${seed}
fix             3 all temp/csvr 86.54 86.54 100 745823


run             250000
PPPM initialization ...
  extracting TIP4P info from pair style
  using 12-bit tables for long-range coulomb (../kspace.cpp:340)
  G vector (1/distance) = 0.36599595
  grid = 30 40 32
  stencil order = 5
  estimated absolute RMS force accuracy = 0.0048612241
  estimated relative force accuracy = 1.4639432e-05
  using double precision FFTW3
  3d grid and FFT values/proc = 5168 640
Last active /omp style is kspace_style pppm/tip4p/omp
Neighbor list info ...
  update every 1 steps, delay 7 steps, check yes
  max neighbors/atom: 2000, page size: 100000
  master list distance cutoff = 10.8154
  ghost atom cutoff = 10.8154
  binsize = 5.4077, bins = 7 5 5
  1 neighbor lists, perpetual/occasional/extra = 1 0 0
  (1) pair lj/cut/tip4p/long/omp, perpetual
      attributes: half, newton on, omp
      pair build: half/bin/newton/tri/omp
      stencil: half/bin/3d/tri
      bin: standard
Per MPI rank memory allocation (min/avg/max) = 9.436 | 9.442 | 9.447 Mbytes
Step Temp PotEng TotEng E_pair E_mol Press Lx Ly Lz Volume Pxx Pyy Pzz Pxy Pxz Pyz Enthalpy 
 3000000    90.325112   -6774.9431   -6542.5873   -6774.9431            0    1245.6154    23.262267    21.395764    21.695108    10797.959    547.90176    2140.7791    1048.1653    -149.9802     285.1806   -617.08268   -6346.4313 
 3001000    87.020286   -6795.6412   -6571.7868   -6795.6412            0    912.12224    23.288264    21.396413    21.674882    10800.275    930.63923    1098.9002    706.82732   -637.16315   -900.33443   -428.18862   -6428.1175 
 3002000    84.489268   -6789.0991   -6571.7556   -6789.0991            0    1492.5932    23.285454    21.405993    21.609331    10771.133    1042.5368    1887.2038    1548.0388   -398.49729    642.38012   -854.19099   -6337.2902 
 3003000    84.851581   -6790.5212   -6572.2457   -6790.5212            0     1325.141    23.291992    21.355553    21.658908    10773.431    1129.3825     1225.096    1620.9445     594.3226   -48.670226   -428.54176   -6364.0403 
 3004000    82.042181   -6795.5032   -6584.4547   -6795.5032            0    1602.9693    23.256087    21.374305    21.655751      10764.7    2141.8379    1319.4147    1347.6553   -134.72137   -198.92357   -628.07263   -6332.8011 
 3005000    88.843355   -6804.8676   -6576.3235   -6804.8676            0    1264.5894    23.269157    21.295683    21.760943    10783.256    1561.0811    1417.9608    814.72633    524.89274    12.104699   -4.0454037   -6377.4507 
 3006000    90.659262   -6800.7547   -6567.5393   -6800.7547            0    1377.4973    23.193689    21.351058    21.746473    10769.067      2002.61     1629.371    500.51078    1067.4009   -506.94669    144.42721   -6351.1953 
 3007000     84.66337   -6795.0438   -6577.2524   -6795.0438            0     1062.318    23.198742    21.339273     21.76683    10775.545    1150.6004     1576.431    459.92272    232.45431    146.55877   -120.64111   -6410.3088 
 3008000    88.604154   -6795.6755   -6567.7467   -6795.6755            0    1406.0171    23.227566    21.347768    21.724446    10772.212    1768.7948    1501.7013    947.55515   -58.285449    18.785308   -136.81838   -6346.8591 
 3009000    90.177336    -6791.549   -6559.5733    -6791.549            0    1261.4249    23.210952    21.404276    21.682948    10772.384    1804.4338     652.7035    1327.1374    327.47708    -638.0114    665.17041   -6361.3982 
 3010000    91.097209   -6802.4105   -6568.0685   -6802.4105            0    1571.7818    23.291242    21.350006    21.649031    10765.374    1095.5842    1944.9349    1674.8264   -8.8883928   -267.25744    166.51552   -6321.2957 
 3011000    91.413867   -6807.0365   -6571.8799   -6807.0365            0    1689.4516    23.220364    21.364403    21.666777    10748.655    1878.1818     1202.625     1987.548   -382.75947   -151.61728    1184.7955   -6307.0447 
 3012000      85.9734    -6779.756   -6558.5947    -6779.756            0    1058.2783    23.237519    21.382713    21.712755     10788.66    1170.1319    1293.5725    711.13037   -744.32935   -43.140814    859.65057   -6392.0835 
 3013000    91.312164   -6799.8786   -6564.9836   -6799.8786            0    1252.1917    23.202795    21.381135     21.70589    10768.338    2030.7718    1022.5556    703.24783    121.77489   -460.83797    452.96081   -6368.3329 
 3014000    82.600987   -6797.1458   -6584.6598   -6797.1458            0    1469.0091     23.27707    21.295567    21.733372    10773.198    1658.9278    1565.0702    1183.0294   -292.66324   -484.53101     1107.454   -6353.8549 
 3015000    88.917299   -6800.9684   -6572.2341   -6800.9684            0    1565.1202     23.16787    21.418118    21.700087    10767.847    1596.5581    1705.5463    1393.2562    347.51206    494.76193   -206.90109   -6326.4507 
 3016000    87.486749   -6800.3006   -6575.2463   -6800.3006            0    1078.3124    23.307456    21.300419    21.726112    10786.115    1469.8051    1115.4454    649.68648    -21.36088   -638.61531   -123.04017    -6405.623 
 3017000    87.421223   -6796.4521   -6571.5663   -6796.4521            0    1402.8883    23.172866    21.483245    21.643613    10774.804    1699.4824    1145.8258    1363.3568   -168.33828   -661.40836   -296.56683   -6351.1172 
 3018000    82.505247   -6791.9114   -6579.6717   -6791.9114            0    1424.1616    23.402386    21.311051    21.624214    10784.632    721.19098    1847.5837      1703.71   -876.31347    524.21241    -216.8453   -6355.6756 
 3019000    90.130028   -6810.0635   -6578.2095   -6810.0635            0    1059.3786    23.214447    21.465513    21.639918    10783.388    1301.2849    41.833332    1835.0174   -244.07267   -42.047612    62.800248   -6411.6067 
 3020000     85.39283   -6795.6635   -6575.9957   -6795.6635            0    1051.7374    23.360261    21.306223    21.674863     10787.99    1376.8233    829.99354    948.39524   -98.607028   -336.07503   -122.62964    -6410.524 
 3021000    86.392001   -6805.9894   -6583.7512   -6805.9894            0    1458.4629    23.199895    21.462186    21.632337    10771.184    1206.5764    1865.7384    1303.0737    88.203395    558.56105   -522.75803   -6354.6462 
 3022000    86.653316   -6795.4209   -6572.5105   -6795.4209            0    705.03842     23.30933     21.36004    21.704924    10806.626    730.42532    1359.7318    24.958173   -418.94421    181.42094   -180.42737   -6461.3939 
 3023000    86.227175   -6801.6246   -6579.8104   -6801.6246            0    1098.0752    23.201719     21.44864     21.65793    10777.967    920.36503    1025.5957    1348.2648     647.7854   -140.67016   -658.81004   -6407.2088 
 3024000    92.834296   -6786.6558   -6547.8452   -6786.6558            0    1462.2064    23.284771    21.339001    21.683472    10773.948    1167.0932     1328.074     1891.452    77.371285   -279.00668   -586.97626   -6318.0931 
 3025000    88.426601    -6786.769    -6559.297    -6786.769            0     1173.067    23.246533    21.423229    21.688076    10801.005    1661.6126    538.82331    1318.7651   -37.688334    176.70949    12.507744   -6374.5136 
 3026000    85.985943   -6783.2798   -6562.0862   -6783.2798            0    1771.9996    23.286465    21.338645    21.676034    10770.856    2090.3484    1429.7379    1795.9126   -732.98187    -243.7119   -309.65925   -6283.7372 
 3027000    88.104315   -6794.4621   -6567.8191   -6794.4621            0    1003.8585    23.208326    21.409095    21.734073    10798.993    1722.1617    916.38876    373.02512   -247.94872   -498.22473    48.865623   -6409.7192 
 3028000    84.178403   -6800.0342   -6583.4904   -6800.0342            0    643.77082    23.265241     21.36047    21.715745     10791.78    519.31183    786.59817    625.40245   -275.96483    79.806195    291.16909   -6482.1692 
 3029000    88.129756   -6808.7953   -6582.0869   -6808.7953            0    1748.4529    23.268311    21.330712    21.659105    10750.056    1935.0813    1318.6503    1991.6272    42.494155   -396.73444    359.23872    -6307.967 
 3030000    90.659821   -6792.5284   -6559.3115   -6792.5284            0     1330.132    23.209143    21.426062      21.6569    10769.555    1636.2092    470.88023    1883.3067   -7.1985064    167.16664    236.39647   -6350.3971 
 3031000    88.690073   -6790.6036   -6562.4538   -6790.6036            0    1666.8916    23.254408    21.315016    21.716828    10764.338    1752.7961    1206.8207     2041.058    248.27431    374.69612    167.96547   -6300.7737 
 3032000    88.134296   -6794.0815   -6567.3613   -6794.0815            0    700.67966    23.183786    21.425964    21.746399    10802.197    295.08252     968.4183    838.53815    331.69434    871.97747   -17.736849    -6456.977 
 3033000    85.185072   -6791.2292   -6572.0958   -6791.2292            0    1258.1464    23.263946    21.259044    21.806625    10784.886    2034.1238    591.42062    1148.8949    1071.2111   -733.84833    988.28892   -6374.2064 
 3034000    85.789112   -6798.0123    -6577.325   -6798.0123            0    1279.3735    23.195434    21.385867    21.748409    10788.395    1053.9972    2307.8817    476.24178     456.1391    838.52744   -662.09789   -6376.0313 
 3035000    85.788829   -6803.5114   -6582.8249   -6803.5114            0    1600.5013    23.287781    21.259435    21.736842    10761.586    1985.9563    1367.6709    1447.8767   -781.29411    225.14983    122.58375   -6331.6315 
 3036000    83.402303   -6791.2602   -6576.7129   -6791.2602            0    1430.6145     23.14602    21.487643     21.65796    10771.661    1869.9192    1696.5616    725.36267   -11.966839     394.4846   -318.01487   -6351.9724 
 3037000    85.600964    -6791.311   -6571.1077    -6791.311            0    1308.1389    23.394151    21.238049    21.684895    10774.056    1261.0279    1534.0627    1129.3261   -574.92772    -107.5459   -445.07211   -6365.5617 
 3038000    87.256912   -6798.6282   -6574.1651   -6798.6282            0    878.55604    23.200308    21.522094    21.609299    10789.938    1296.3231    100.57055    1238.7745    267.38725   -614.43241    96.542884   -6435.9154 
 3039000    89.821633   -6802.4497    -6571.389   -6802.4497            0    1362.9107    23.325843    21.353074    21.631131    10774.001    641.41547    1359.1906    2088.1262   -58.121169   -268.69859   -215.18755   -6357.2379 
 3040000    88.126341   -6804.6431   -6577.9435   -6804.6431            0     942.9405    23.207901     21.50598    21.602919    10782.204    1632.4468    239.88226    956.49245   -455.37556   -381.73356   -13.167339   -6429.6685 
 3041000    84.382127   -6799.0943   -6582.0264   -6799.0943            0    1145.9649    23.349513    21.298216    21.692477    10787.734    600.99682     2079.069    757.82905   -542.56134    278.77242    -328.9059    -6401.734 
 3042000    86.550191   -6799.7145   -6577.0694   -6799.7145            0    602.73188    23.185937    21.448305    21.714761     10798.73    1088.7264   -21.193036    740.66228    202.12766    43.999235    15.508398   -6482.1461 
 3043000    86.928723   -6791.8081   -6568.1893   -6791.8081            0    1224.5008    23.287809     21.32038    21.754151    10801.043    1021.9578    1174.7994    1476.7454    52.734398   -67.660605    146.23177   -6375.3033 
 3044000    88.747528   -6797.8138   -6569.5162   -6797.8138            0    1282.6146    23.175622    21.416474    21.731677    10786.303     1345.682    610.60865    1891.5532    105.46912    385.04072    489.78371   -6367.7517 
 3045000    82.736995   -6807.5865   -6594.7506   -6807.5865            0    2327.7005    23.268906    21.238036    21.669538     10708.78    2667.2321    2071.5773    2244.2919    675.32077   -513.33817    235.19557   -6231.2183 
 3046000    85.151782   -6787.8909   -6568.8432   -6787.8909            0    2188.5223    23.208328    21.369336    21.665513    10744.937    1907.3062    2032.4276    2625.8332    497.73465    1262.9991     460.9323   -6225.8932 
 3047000    84.128047   -6799.9488   -6583.5345   -6799.9488            0    115.19088    23.329746    21.388331    21.695085    10825.507   -717.47042    1055.5798    7.4632453    562.95136   -251.35217   -700.48926   -6565.3483 
 3048000    87.218124   -6790.9202   -6566.5569   -6790.9202            0    1335.0565    23.231561    21.352717    21.737354    10782.966    959.04817    1388.0921    1658.0293    751.15035   -167.45941   -57.660403    -6356.608 
 3049000    87.127682   -6789.2112   -6565.0805   -6789.2112            0     1571.155    23.138842    21.421434    21.703466    10757.695    1972.3175    1258.1923    1482.9551     28.96676   -464.15352    284.62423   -6318.5821 
 3050000    87.416203   -6794.2134   -6569.3406   -6794.2134            0    1582.2308    23.250852    21.329594    21.696565    10760.004    1275.8999    1897.2877    1573.5048   -319.12587    362.65488     273.2998   -6321.0512 
 3051000      86.8328   -6788.0794   -6564.7073   -6788.0794            0    1412.9475    23.195838    21.434494    21.668231    10773.251      2369.64    588.78854    1280.4138   -406.85217    558.73144    293.54628   -6342.7095 
 3052000    85.084262   -6799.4429   -6580.5688   -6799.4429            0    996.75607    23.333607    21.303501    21.675809    10774.774    1321.7432    698.92739    969.59766    204.60988   -834.36352    817.67006   -6423.9395 
 3053000    84.501859   -6796.1752   -6578.7994   -6796.1752            0    1343.5575    23.184829    21.468139    21.641842    10771.905    2157.9673    593.94603    1278.7591   -361.65155   -850.45757    766.26669   -6367.7303 
 3054000     88.58923   -6793.3664    -6565.476   -6793.3664            0    1334.5436    23.353862    21.262417     21.68081    10765.813    839.17363    1734.5129    1429.9441   -632.05584   -17.537062   -112.99811   -6355.9416 
 3055000    89.273345   -6798.9386   -6569.2884   -6798.9386            0    768.48274    23.174639    21.513161    21.643128    10790.392    559.85922     175.7017    1569.8873    439.90118    437.30825    20.724854   -6448.3547 
 3056000    86.541135   -6783.8274   -6561.2056   -6783.8274            0    1482.3051    23.339081    21.227396    21.732075    10766.677    1953.0269    2022.5997    471.28874    672.15793   -764.12661   -490.91172   -6328.4526 
 3057000    90.102075   -6802.9043   -6571.1222   -6802.9043            0    1163.6534    23.124413    21.430068    21.732488    10769.702     2165.177    475.17925    850.60387    617.01652    115.94521   -18.714536   -6388.3529 
 3058000    84.745233   -6794.1955   -6576.1936   -6794.1955            0    838.52702    23.333597    21.281015    21.753716    10802.082    692.23844    1273.1055    550.23707    403.63791   -251.74911    -627.8855   -6444.0943 
 3059000     85.68561   -6791.9574   -6571.5364   -6791.9574            0     1231.559    23.197947     21.44749    21.669363    10781.326    1474.2194    411.73587    1808.7218    540.94909   -1.4066229    52.185291   -6377.8927 
 3060000    83.344332   -6801.5564   -6587.1582   -6801.5564            0    1238.3325    23.338839    21.318969    21.635209    10764.814     1176.123    798.62086    1740.2535    737.68289    -521.9705   -171.15245   -6392.7477 
 3061000    86.467635   -6796.8787    -6574.446   -6796.8787            0    1600.6574    23.200448    21.445987    21.655704    10774.936    1703.2643    1310.3035    1788.4045    227.62898   -530.45592   -113.91148   -6322.9164 
 3062000    85.159907   -6786.6134   -6567.5447   -6786.6134            0    807.06775    23.297757     21.37952    21.699209    10808.265    140.99399    1426.3041    853.90518    173.68583   -169.79249   -161.04243   -6440.3287 
 3063000    90.404035   -6787.5145   -6554.9556   -6787.5145            0    1897.5454    23.186368    21.392585    21.693436    10760.299     2680.374    1223.2201    1789.0421    98.293329    -757.2702    374.26765   -6257.1778 
 3064000    86.102337    -6797.521    -6576.028    -6797.521            0    1218.5568    23.215752      21.3792     21.71381    10777.307    1098.5934    798.75124    1758.3256   -829.38656    -438.4249    346.60947   -6384.5002 
 3065000    82.885977   -6803.9345   -6590.7154   -6803.9345            0     1356.558    23.245098      21.3473    21.726215    10780.984    1686.7446    716.98003    1665.9494   -220.11734   -135.06815    286.30621   -6377.4243 
 3066000    88.555052   -6790.8073   -6563.0048   -6790.8073            0    892.55074    23.241308    21.423428    21.718099    10813.626    1465.0667    438.73445     773.8511    377.98822    290.44002    203.07163   -6422.2445 
 3067000    83.876014   -6805.3749    -6589.609   -6805.3749            0     481.4847    23.308585    21.310365    21.738844    10797.998   -141.98476    871.58123    714.85762    510.14128   -368.92701    747.61502   -6513.7859 
 3068000     89.83331   -6812.8136   -6581.7229   -6812.8136            0    1723.4417    23.148029    21.388755    21.693805    10740.766    2407.3757    1422.6623    1340.2872    66.307301    -12.53874    667.77558   -6311.7578 
 3069000    84.954911   -6808.0343   -6589.4929   -6808.0343            0    1230.9976     23.30395    21.242581     21.74266    10763.401    765.72741    1809.0082    1118.2573   -66.069601   -92.234106    205.34944   -6396.2593 
 3070000    84.684124   -6793.9201   -6576.0754   -6793.9201            0     843.1727    23.163064    21.472425    21.726766     10806.18    955.09213    258.21025    1316.2157    686.24179    121.66695    296.37424   -6443.1939 
 3071000    89.360746   -6800.7195   -6570.8444   -6800.7195            0    1378.5498    23.342253    21.290057      21.6745    10771.314    474.80886    1647.2038    2013.6366    531.61113    325.75268    151.12431     -6354.29 
 3072000    93.977034   -6793.9997   -6552.2495   -6793.9997            0    1702.7948    23.222061    21.474738    21.538367    10740.918    1111.8953    1256.8449    2739.6442    769.73092    -144.0608    720.90599   -6285.5148 
 3073000    82.770538   -6794.7958   -6581.8736   -6794.7958            0    1882.0389    23.308111    21.342824    21.599048    10744.682    1689.3414    1871.4519    2085.3234     91.63538   -433.48767   -100.66015   -6286.9578 
 3074000    86.710275   -6798.4733   -6575.4164   -6798.4733            0    1200.7156    23.245194    21.392394    21.669765    10775.732    1313.6144    1008.6696     1279.863   -1074.3517   -28.747875   -258.11606   -6386.7204 
 3075000    87.366994   -6799.2122   -6574.4659   -6799.2122            0    506.05593    23.209577    21.416829    21.754368    10813.564     880.3535    161.17294    476.64136   -16.927378   -214.81805    494.04973   -6494.6585 
 3076000    86.701134   -6797.0819   -6574.0485   -6797.0819            0    1288.9999    23.168941    21.390374    21.775316    10791.679    1878.0069    1281.0697    707.92321    74.669145   -409.86797    531.91647   -6371.1785 
 3077000     82.80717   -6792.7596   -6579.7432   -6792.7596            0    2148.5067    23.159383    21.374048    21.724589    10753.884    2458.5232    2098.9767    1888.0201    -613.0176    40.623944    221.68348   -6242.7835 
 3078000    90.216455   -6790.3741   -6558.2977   -6790.3741            0     1329.439    23.243522    21.306084    21.799511    10795.738    1986.7432    1255.8754    745.69842   -1372.2547   -175.66054   -304.93959   -6348.9845 
 3079000    82.973938   -6797.3017   -6583.8563   -6797.3017            0    640.58818    23.149065     21.47579    21.760169    10817.947    1264.2665    516.11025    141.38774   -204.76074    552.72685   -555.50815   -6482.7916 
 3080000    88.610825   -6788.7863   -6560.8404   -6788.7863            0     1681.707    23.313721    21.323591    21.661153    10768.458    1286.3897     2490.966    1267.7652    86.099654    595.38554   -615.74978   -6296.7335 
 3081000     84.97164   -6797.0189   -6578.4345   -6797.0189            0     1008.328    23.228879     21.46557    21.618436    10779.409    986.68619    144.87551    1893.4222   -132.01147   -364.47075   -294.44976   -6419.9187 
 3082000    86.161966   -6799.5892   -6577.9428   -6799.5892            0    1359.9441    23.323977    21.390825    21.625748    10789.499    450.64655     1834.484    1794.7018    783.61873   -354.77493   -832.66862   -6363.9504 
 3083000    87.550933   -6801.0118   -6575.7924   -6801.0118            0    1434.1097    23.284466    21.396129    21.624269    10773.156     1155.112    1257.8615    1889.3554    38.181878    -172.4505   -28.101487   -6350.4717 
 3084000    90.891293    -6789.964   -6556.1517    -6789.964            0    1382.4666    23.316145    21.390397    21.588809    10767.237    1727.3638    878.83161    1541.2045   -256.49575   -79.064017   -61.883497   -6339.0642 
 3085000    85.634357    -6797.982   -6577.6928    -6797.982            0    1614.4102    23.232213    21.410799    21.628863    10758.635    2255.7373    1323.5673    1263.9261   -588.65246   -538.70769   -385.95269    -6324.386 
 3086000    86.623243   -6803.1651   -6580.3321   -6803.1651            0    942.66902    23.300499    21.364444    21.661677     10783.23    834.84536    423.92399    1569.2377    153.19414    290.34991    485.05311   -6432.0857 
 3087000    84.545957   -6802.4993     -6585.01   -6802.4993            0    439.50396    23.208362    21.412062     21.73314    10800.042    1053.1803   -407.84245    673.17399   -497.36622    417.51772    498.50377   -6515.7848 
 3088000    86.320032   -6792.7796   -6570.7266   -6792.7796            0    1950.4714     23.17803    21.285533    21.774482    10742.587    2301.6905    2194.6581    1355.0657    404.06405   -52.986506     381.7007    -6265.147 
 3089000    83.625996   -6806.3451   -6591.2223   -6806.3451            0    1062.4813    23.157738    21.334239    21.825181     10782.79    1268.7776    1964.0059   -45.339521    362.60175     50.48515   -324.35205   -6424.1408 
 3090000    84.249792   -6797.6326   -6580.9051   -6797.6326            0    1030.8195    23.182278     21.33364    21.805279     10784.07    1008.5964    1094.1491    989.71298    221.37224    141.52989    791.04849   -6418.7834 
 3091000    87.357715   -6808.7979   -6584.0755   -6808.7979            0    1312.5958     23.31651    21.225806    21.734861    10756.837    592.17645    2766.8768    578.73427    484.74062    453.20635    354.03432   -6378.1588 
 3092000    85.903091   -6793.8225    -6572.842   -6793.8225            0    1433.9473    23.189043    21.459197    21.641736    10769.322    1419.3604    924.81102    1957.6704   -118.97439    329.77476    685.79527   -6347.6269 
 3093000    84.380634   -6793.6898   -6576.6258   -6793.6898            0    1038.1283     23.36428    21.291167    21.662498     10776.07    1094.1687    1108.3297    911.88635   -119.07612    106.34875    1045.2077   -6413.4757 
 3094000    87.706901   -6793.8403   -6568.2196   -6793.8403            0    2170.2037    23.125684    21.471391    21.629807    10740.078    2673.2242    1616.5798    2220.8072    54.333449    832.15836    270.25344    -6228.294 
 3095000    84.138319   -6804.7893   -6588.3486   -6804.7893            0    1890.8342    23.311998    21.296761    21.666392    10756.714    1616.5907    1809.8449    2246.0669    61.375802    572.02751   -50.456473   -6291.7228 
 3096000    88.759342    -6792.664    -6564.336    -6792.664            0    1073.9977    23.181852     21.47929    21.687673    10798.937    1092.4459    1528.6975    600.84979   -46.741607    81.443151   -450.55181   -6395.1906 
 3097000    86.054781    -6796.635   -6575.2643    -6796.635            0    888.86363    23.294285    21.322082    21.757618    10806.631   -89.943264    1050.0434    1706.4907     105.9523   -303.43778    -48.02661   -6435.1762 
 3098000    83.968952   -6807.1565   -6591.1515   -6807.1565            0    992.94989    23.156187    21.431349    21.723935    10780.901    1556.1753    1215.2831    207.39133   -27.194506   -712.99714   -494.01353   -6435.0316 
 3099000    86.382279   -6794.2049   -6571.9917   -6794.2049            0     687.4635    23.274112     21.33893    21.764914    10809.428    1142.7751    678.82001    240.79541   -705.87319    182.63128   -431.64008   -6463.6169 
 3100000     84.97843   -6800.3677   -6581.7659   -6800.3677            0    1295.5062    23.158233    21.410869    21.728041    10773.586     3042.694    283.35036    560.47415    260.61482   -1164.3947    349.87613   -6378.2137 
 3101000     83.51987   -6802.3477   -6587.4979   -6802.3477            0    933.70826    23.238945    21.379352     21.72173    10792.085    963.66751    1141.4333    696.02395    509.24362    -761.3642    271.56575   -6440.5402 
 3102000    88.849795   -6804.5654   -6576.0047   -6804.5654            0    1282.6021    23.274457    21.340625    21.678396    10767.474    1651.6669    1261.0543    935.08502    106.95488   -332.20138   -419.33018   -6374.5944 
 3103000    92.735599   -6803.5281   -6564.9714   -6803.5281            0    1225.7144    23.199049    21.450527    21.655562    10776.497    961.14444    251.25977    2464.7389   -254.72239    1284.3681    180.04564    -6372.333 
 3104000    88.614362   -6800.8297   -6572.8747   -6800.8297            0    1703.9036    23.353826    21.251863    21.657128    10748.699    825.91008    2679.7815    1606.0192   -238.77349     1227.443    -68.39172   -6305.7729 
 3105000    84.829239   -6787.3081   -6569.0901   -6787.3081            0    1405.5822    23.207748    21.428553    21.645607    10764.543    1679.9899    1618.7576    917.99908    171.35635    -65.69444    29.730489    -6348.428 
 3106000    83.265955   -6793.6726    -6579.476   -6793.6726            0    1686.9097    23.380509    21.230706      21.6946    10768.867    1137.5586    1659.9558    2263.2148    154.33103    107.01074    62.257106   -6314.5419 
 3107000    84.408565   -6795.1977   -6578.0618   -6795.1977            0    1033.2807     23.09673    21.527644    21.714858    10797.022    1139.6556     852.6499    1107.5365   -169.99383    243.18404    -276.5892   -6415.3578 
 3108000    87.798719   -6800.5643   -6574.7075   -6800.5643            0    1909.1166    23.322521    21.253872    21.702022     10757.56    1549.6783    2420.4251    1757.2464   -881.64773   -76.386624    -647.3353     -6275.19 
 3109000    83.291442   -6795.3219   -6581.0598   -6795.3219            0    1145.8757    23.179586    21.471111    21.667063    10783.512    1865.5412    533.50035    1038.5855   -1051.2461   -357.59836   -274.66029    -6400.852 
 3110000    84.472422   -6797.2449   -6579.9447   -6797.2449            0    1425.9462    23.343399    21.333186    21.649327    10781.128    1224.4795    1464.4042    1588.9549   -226.13295   -105.80645   -235.97625   -6355.7408 
 3111000    84.228124    -6789.431   -6572.7593    -6789.431            0    1911.3175     23.14889    21.438784    21.641782    10740.471    1555.5219    1578.5335    2599.8973    110.66807   -56.805144   -193.05481   -6273.3729 
 3112000    87.646637   -6798.3402   -6572.8746   -6798.3402            0    961.66616    23.306893    21.288829    21.760512    10797.054     1402.943    1228.9473    253.10821    127.53116   -363.96367     132.0611   -6421.4468 
 3113000    89.873256   -6802.8477   -6571.6542   -6802.8477            0    673.12623    23.208734    21.370624    21.773054    10799.111     906.2408    1177.6309   -64.492992    -90.25829   -107.97722    138.79244   -6465.6409 
 3114000    90.260665   -6800.9238   -6568.7338   -6800.9238            0    1818.0575    23.242551    21.292812    21.712138    10745.321    1765.7809    2134.0741    1554.3174    160.65705    13.870241    1051.4094   -6283.8269 
 3115000    84.086443   -6787.7774   -6571.4702   -6787.7774            0    1321.7889    23.251853    21.394055    21.676999    10783.254    1163.7596     853.0466    1948.5604    73.972122    71.521951    451.79885   -6363.6021 
 3116000    82.660715   -6800.4434   -6587.8038   -6800.4434            0    595.16027    23.241218    21.408988    21.707035     10800.79     741.8343     807.7903     235.8562   -270.04762     -71.3209     502.7505   -6494.0551 
 3117000    82.184525   -6807.5073   -6596.0927   -6807.5073            0    1325.3328    23.303109    21.263179    21.719709    10762.077    1057.1946    1498.7982    1420.0055    360.01163   -148.30414    592.00208   -6388.0766 
 3118000    84.223733   -6800.4113   -6583.7509   -6800.4113            0    1211.9995    23.175178    21.361432    21.759352    10772.076    1173.0954     1667.793    795.11007    338.32349    582.16986    190.55021   -6393.3461 
 3119000    88.320893   -6803.0358   -6575.8356   -6803.0358            0    1445.4557     23.28089    21.228005    21.767402      10757.6     653.4639    2248.3127    1434.5905    839.86825    876.81343   -200.30466   -6349.0602 
 3120000    87.553768   -6801.9051   -6576.6784   -6801.9051            0    1172.5248    23.223385    21.433513    21.651191     10777.07    1032.7298    1113.6304    1371.2142     846.4229    425.52809    110.24426   -6392.3897 
 3121000    84.867533   -6796.8266   -6578.5101   -6796.8266            0    1246.0336    23.357812    21.299458    21.662479    10777.272    305.66888    2226.8637    1205.5683   -360.24434   -22.351158   -539.52032   -6382.6642 
 3122000    88.592753   -6789.6071   -6561.7076   -6789.6071            0    1130.6319    23.218489    21.505474    21.604835    10787.826    1257.0901    433.25585    1701.5498    63.545962   -404.74356   -185.46826    -6383.826 
 3123000     84.40504   -6795.7379    -6578.611   -6795.7379            0    691.60061    23.281404    21.373773    21.706334    10801.321    410.14253    553.44932      1111.21   -448.18381   -300.20019    501.37047   -6469.6658 
 3124000    84.931161   -6788.0847   -6569.6045   -6788.0847            0    1216.4999    23.179393    21.472848    21.676303    10788.894    916.73015    1031.9991    1700.7704    126.45815   -292.57448    507.20505   -6378.1944 
 3125000    87.215127   -6788.6699   -6564.3143   -6788.6699            0    1554.4833    23.329598    21.254545    21.733012    10776.531    1658.1897    1543.2562    1462.0041   -133.10441   -1003.6182   -168.84756   -6320.0045 
 3126000    85.720968   -6796.2819   -6575.7699   -6796.2819            0    1639.1675    23.107758    21.462524    21.692566    10758.445    1623.9358    1954.5142    1339.0525    10.769326    568.93541   -204.06265   -6318.5831 
 3127000    84.570419   -6795.6905   -6578.1382   -6795.6905            0     1097.914    23.294799    21.304962     21.73618    10787.553    990.86269    1610.5338    692.34535    50.737177   -23.345484   -314.51583   -6405.4085 
 3128000    86.989905   -6798.5332   -6574.7569   -6798.5332            0    1077.2627    23.232429    21.410101    21.678926    10783.286    1102.9997     1105.556    1023.2323    50.092273    857.75933   -447.83889   -6405.3432 
 3129000     89.73969   -6789.9293   -6559.0794   -6789.9293            0    1344.2745    23.360155    21.319179    21.636312    10775.301    844.48087    2226.5031    961.83962    88.581781    225.81433    -934.4308   -6347.8311 
 3130000     81.15466   -6800.1724    -6591.407   -6800.1724            0    2011.6431    23.235921    21.386152     21.61797    10742.552     1908.109    1743.6415    2383.1788   -4.3131348    334.96494   -174.59791   -6276.2447 
 3131000    81.115163    -6797.729   -6589.0652    -6797.729            0    1208.0403    23.296242    21.345927    21.689266    10785.636    308.40485    1929.3427    1386.3734    1072.0758   -147.68746     -230.391   -6399.0436 
 3132000    89.366123   -6793.5867   -6563.6978   -6793.5867            0     1011.675    23.183306    21.417154     21.76963    10809.066    1438.3684    368.86576    1227.7909   -444.80865    180.31122    123.56789   -6404.2182 
 3133000    87.145303   -6794.2433   -6570.0673   -6794.2433            0    1226.8525    23.201479    21.391884    21.739152    10789.648    1114.0732    860.11872    1706.3657   -414.82555    392.55205    434.59895   -6377.0147 
 3134000    85.141491   -6805.7682   -6586.7469   -6805.7682            0     688.3808    23.272472    21.335337     21.76935    10809.049    110.67785    1610.4252     344.0393   -160.01634   -126.32259   -237.83558   -6478.2313 
 3135000    84.589329    -6805.718   -6588.1171    -6805.718            0    1669.4118    23.187968    21.409263     21.66099    10753.324    2009.1551    2515.9812     483.0991   -351.52703   -351.72361   -432.72294   -6326.3096 
 3136000     89.14259   -6795.0277   -6565.7138   -6795.0277            0     944.9629    23.338241    21.339009    21.629592     10771.86    119.50277    1435.8427    1279.5432     284.6877    126.67083    146.72148   -6417.2634 
 3137000    86.095707   -6797.4296   -6575.9537   -6797.4296            0    1337.8589    23.256266    21.412878     21.59317    10753.044      1559.02    576.22801    1878.3287    259.90618    240.48889    372.52761   -6366.1478 
 3138000    84.330855   -6799.5957   -6582.6597   -6799.5957            0    1429.1087    23.305531     21.36148    21.606267    10756.477     1237.295    1003.0923    2046.9387    365.22116    806.30538   -4.2850772   -6358.4723 
 3139000    86.229624   -6803.4297   -6581.6092   -6803.4297            0    1282.3828    23.277409    21.371747    21.651469    10771.149    1132.6938      1086.79    1627.6646   -522.26223    288.68858     238.0012   -6380.1646 
 3140000    87.005265   -6800.5194   -6576.7037   -6800.5194            0    1658.8821    23.159311    21.375587    21.733172    10758.873    2379.2577    1870.3546    727.03408    29.220136   -108.90677   -413.12474   -6316.4132 
 3141000    84.611791   -6800.7584   -6583.0997   -6800.7584            0    626.69747    23.245498    21.322076    21.793254    10801.658    46.336365    865.57428    968.18178   -535.57885    286.71236    666.30467   -6484.3754 
 3142000    88.011976   -6802.4467   -6576.0412   -6802.4467            0    944.86954    23.144363    21.370827    21.836172     10800.48    1422.4899    1476.8085   -64.689845    21.668468   -521.97692    234.96918   -6427.2111 
 3143000    85.175638   -6791.9413   -6572.8321   -6791.9413            0    1433.6987    23.171569     21.31831    21.829212    10783.165    1875.0873    1486.9368    939.07212   -376.92154   -99.763216    362.71298   -6347.3666 
 3144000    85.706271   -6798.5201   -6578.0459   -6798.5201            0    939.03181    23.108876    21.418272    21.807362    10793.602    1967.5736    690.56423    158.95754   -185.06848    -828.1014    154.84135   -6430.2295 
 3145000    88.889739   -6792.0887   -6563.4253   -6792.0887            0     514.1991    23.297351    21.398146    21.713529    10824.631    433.81825   -117.56761    1226.3467    258.96699   -472.67342   -16.955617   -6482.2506 
 3146000    87.856057   -6806.8345   -6580.8301   -6806.8345            0    1584.1777    23.268144    21.392974    21.600012    10751.942    1867.0242    932.04706    1953.4619    621.12021    -144.7029   -430.22106   -6332.4215 
 3147000     85.19417   -6800.8033   -6581.6465   -6800.8033            0    1731.1417     23.37177    21.283403    21.584188     10736.64    1417.5536    1500.1592    2275.7123    774.85908   -101.22771    390.87745   -6310.5794 
 3148000    81.461858   -6795.0386   -6585.4829   -6795.0386            0    1195.6017    23.285972    21.424619    21.627786    10789.953    945.94829    792.27808    1848.5786     340.8408    687.86113    278.38525   -6397.3426 
 3149000    89.383499   -6794.1147   -6564.1811   -6794.1147            0     822.9789    23.351212     21.37049    21.628957    10793.431    405.10772    752.69883    1311.1302    7.6904786   -85.263265    312.13418   -6434.6351 
 3150000    85.688836   -6803.0813    -6582.652   -6803.0813            0    1576.7476    23.231132    21.412609    21.628839    10759.031    1193.1688    2042.8619    1494.2122    747.06627    256.64487   -485.76187   -6335.2454 
 3151000    86.421375   -6789.4095   -6567.0958   -6789.4095            0    577.05897    23.309222    21.348279    21.715903    10806.089    525.85522    191.51325    1013.8084     642.0234     -489.593    433.92546   -6476.1538 
 3152000    86.214881   -6805.4447   -6583.6622   -6805.4447            0    1753.7577    23.156591    21.397462    21.712473    10758.363    1982.9048    2153.0057    1125.3627   -410.21614   -214.95084   -517.90009   -6308.4982 
 3153000    89.027488   -6791.1348    -6562.117   -6791.1348            0    1002.2589     23.24514    21.334811    21.787634    10805.156    933.64347    862.48215    1210.6511   -258.01193   -167.23168    287.46436    -6404.179 
 3154000    87.114129   -6800.4953   -6576.3995   -6800.4953            0    1731.5336    23.179579    21.407061    21.691613    10763.523    1528.8031    1544.6033    2121.1943    81.845807    57.936694    91.446441   -6304.5922 
 3155000     84.02839    -6801.925   -6585.7671    -6801.925            0    1060.2311    23.244252     21.40174    21.663219    10776.746    1094.2455    825.28513    1261.1628   -605.28273   -212.01949    -267.5362   -6419.1329 
 3156000    83.847703   -6810.7939   -6595.1008   -6810.7939            0    1235.4962    23.262669    21.334844    21.712238    10775.901    2147.9303    1088.3006    470.25761     -972.862   -306.08272    85.193054   -6400.9359 
 3157000    83.870555   -6799.3102   -6583.5583   -6799.3102            0    944.06404    23.220341    21.416796    21.678463    10780.815    1078.1852    741.89514    1012.1118   -211.35458    364.01137   -169.63021   -6435.1258 
 3158000    86.650294   -6805.2453   -6582.3427   -6805.2453            0    1374.9464    23.317801     21.25284    21.712112     10759.86    698.09786    2039.5509    1387.1904    409.27861    652.29822    366.03119    -6366.584 
 3159000    89.512244   -6802.0612   -6571.7965   -6802.0612            0    1171.1562    23.164556    21.448433    21.672738    10767.957    1655.1101    849.33147     1009.027    263.50202    28.720783     167.5971   -6387.8785 
 3160000    84.460267   -6795.3762   -6578.1073   -6795.3762            0    1950.1544     23.30588    21.273069    21.675596    10746.492    1719.2811    2444.3829     1686.799    161.81962    -118.1042   -222.51914   -6272.4663 
 3161000     83.81073   -6802.9181   -6587.3201   -6802.9181            0    1067.5589    23.127481    21.465732    21.725143     10785.41    1238.5925    440.86272    1523.2216    689.32068    569.40707   -79.564566   -6419.3994 
 3162000     84.83639   -6792.9689   -6574.7324   -6792.9689            0    1636.0465    23.317488    21.254281    21.749311    10778.881    1008.5181    1592.9365    2306.6849    563.30357    301.67709    174.49182   -6317.5477 
 3163000    86.764815   -6799.6723   -6576.4751   -6799.6723            0    1470.3498    23.156136    21.422866    21.698307    10763.896    1745.6263    1651.1287    1014.2944    362.33226    -193.9818   -600.75766    -6345.659 
 3164000     86.73003   -6809.0171   -6585.9094   -6809.0171            0      1579.22    23.332901    21.235352    21.725592    10764.648    1365.4156    2226.7361    1145.5082    174.68285    538.28783   -16.771832   -6337.9855 
 3165000     85.59489   -6797.3093   -6577.1216   -6797.3093            0     285.7771    23.195424    21.474424    21.718956    10818.394    1127.5017   -626.94276    356.77235   -590.56178   -29.953103    690.67213   -6532.0331 
 3166000    88.712461   -6791.5986   -6563.3912   -6791.5986            0    1818.9038    23.275205    21.312357    21.664972    10746.898    1885.1564    1982.9558    1588.5991   -404.83198    213.96206   -252.88262   -6278.3099 
 3167000    88.024738   -6804.5079   -6578.0697   -6804.5079            0    1238.7264    23.187895    21.486701    21.630904    10777.195    2138.8318    524.74829    1052.5992   -865.58086    -656.8065    139.52873   -6383.3737 
 3168000    88.785282   -6793.7672   -6565.3725   -6793.7672            0    767.55788    23.317385    21.355581    21.683978    10797.674    552.09427    760.13066    990.44871    235.21053    198.09921    21.203567   -6444.5029 
 3169000    91.866504   -6791.5577   -6555.2367   -6791.5577            0    1720.1022    23.193169      21.3609    21.716089    10758.736     2024.058    1993.5542    1142.6943   -754.67323   -70.748614   -732.56323   -6285.3439 
 3170000    85.321344   -6797.1693   -6577.6854   -6797.1693            0    1058.9155    23.205122     21.37025    21.766677    10794.079    976.71152    593.46745    1606.5674     206.5579    224.97156    412.89316   -6410.9903 
 3171000    83.959673   -6793.1867   -6577.2056   -6793.1867            0    982.73251      23.2631    21.369635    21.748718    10811.808    760.09464     972.2017    1215.9012    345.23368    309.75294   -246.25847   -6422.2492 
 3172000     86.82404   -6799.6925   -6576.3429   -6799.6925            0    1003.9927    23.224126    21.384484    21.709898    10781.916    947.52164    968.00632    1096.4501     548.3171    190.89614   -214.01459   -6418.4719 
 3173000    85.852156    -6801.678   -6580.8285    -6801.678            0    1463.4068    23.335785    21.285735    21.657171    10757.535    1057.1074    2011.1576    1321.9554    505.65988   -146.50436   -521.48996   -6351.2381 
 3174000    81.690217   -6793.5371    -6583.394   -6793.5371            0    1025.9901     23.23424    21.481685    21.605329     10783.45    800.19908    761.25633     1516.515    823.75654    77.846557   -160.36677   -6422.0411 
 3175000    84.005853   -6788.3151   -6572.2151   -6788.3151            0    1489.9626    23.402699    21.208556    21.722477    10781.679     603.4913    2389.6935    1476.7031   -259.38264    216.21242     47.25534   -6337.9338 
 3176000    85.340384   -6801.9615   -6582.4286   -6801.9615            0    1733.6033    23.158985    21.414756    21.659036    10741.669    2120.6972    1653.3756    1426.7371   -52.579311    787.85417   -323.75399   -6310.8488 
 3177000    88.010087   -6786.5149   -6560.1143   -6786.5149            0    973.14243    23.381062    21.261977    21.722571     10798.89    647.17012    524.49329    1747.7639   -36.786252   -430.15449    128.30916   -6406.8534 
 3178000     89.14141   -6799.7331   -6570.4222   -6799.7331            0    1150.5367    23.173024    21.467378    21.665346    10777.731     868.2451    1051.4025    1531.9626   -148.11705    174.21972   -245.63213   -6389.5784 
 3179000    84.297137   -6794.0534   -6577.2042   -6794.0534            0    152.53165    23.426288    21.269804    21.741057    10832.972   -652.89211    1164.7037   -54.216585    497.18066   -584.78736    78.806025   -6553.1061 
 3180000    83.247193   -6784.7016   -6570.5533   -6784.7016            0    1158.2309    23.242278    21.464666    21.602666    10777.305    458.88801    791.70139    2224.1033   -130.44531    639.08786    230.78004   -6388.5072 
 3181000     85.53898   -6797.7504   -6577.7066   -6797.7504            0    2054.0434    23.297326    21.324046    21.625389    10743.347    1586.2655    1964.8793    2610.9855    41.804182    2.0640522    158.43974   -6255.8776 
 3182000    87.501138   -6794.9035   -6569.8122   -6794.9035            0    1214.8573     23.25681    21.469478     21.61131    10790.777    818.89303    311.21459    2514.4641    403.36913    15.510641      570.528   -6378.6271 
 3183000     86.09011   -6804.2938   -6582.8322   -6804.2938            0    839.12085    23.296585    21.349648    21.679309    10782.722    537.62278    799.67554    1180.0642   -160.66368    -166.4953   -410.60649   -6450.8763 
 3184000     83.69459   -6796.7176   -6581.4184   -6796.7176            0    1425.8663    23.225785    21.324344    21.747916    10771.191    1772.6121    1540.8941    964.09256   -168.34701    384.22539   -137.81046   -6357.4336 
 3185000    88.272699   -6794.7927   -6567.7166   -6794.7927            0    1520.9295    23.149727    21.335238    21.802275    10768.251    2415.1496    1733.6491    413.98982    622.27636   -349.26447    266.67127   -6328.8638 
 3186000    86.784077   -6790.5151   -6567.2683   -6790.5151            0    1019.1461    23.229942    21.308472    21.837565    10809.476    664.67992    1839.8635    552.89495   -460.93248    455.27277   -276.78959   -6406.6049 
 3187000    83.340323   -6802.3849    -6587.997   -6802.3849            0    517.66066    23.208056    21.429603    21.725801    10805.097     1313.007   -294.79558    534.77058   -22.455787   -449.24311    323.96939   -6506.4233 
 3188000    89.103092   -6795.2408   -6566.0285   -6795.2408            0    1183.2076    23.354104    21.320711    21.650488    10780.343    1482.1088    814.92656    1252.5875   -847.21844   -239.98517    358.37334   -6380.0043 
 3189000    83.034097   -6803.6419   -6590.0417   -6803.6419            0    1711.2086    23.159042    21.496963    21.567443    10737.331    2633.5732    1174.2615    1325.7912   -511.08239    467.47213   -264.38048   -6322.0785 
 3190000    91.442456   -6787.6616   -6552.4314   -6787.6616            0    1918.7973    23.375715    21.278559    21.603708    10745.717    1506.7284     2189.536    2060.1276   -399.71828   -101.31783    618.44466   -6251.7266 
 3191000    90.105496   -6797.6251   -6565.8342   -6797.6251            0    860.28411    23.205014    21.543425    21.587336    10791.843    708.80662    727.67525    1144.3704    194.46703    685.54797   -370.65642   -6430.4358 
 3192000    84.879336    -6789.958   -6571.6111    -6789.958            0    806.62617    23.383534    21.337248    21.653225    10803.666    423.74516    836.59727    1159.5361   -618.73615    558.48614   -3.5982636   -6444.5188 
 3193000     87.92763   -6804.3643   -6578.1759   -6804.3643            0    1932.3613    23.184098    21.376702     21.67487    10742.056    1952.6454    2350.5998    1493.8387   -106.11315   -37.753651   -868.54197   -6275.4485 
 3194000     83.93309   -6788.5972   -6572.6844   -6788.5972            0    1396.4575    23.212835     21.30843    21.812191    10788.944    2263.7374    2019.6515   -94.016302   -428.13635   -478.98597   -766.23248   -6352.9578 
 3195000     86.38389   -6790.2089   -6567.9916   -6790.2089            0    362.16895    23.170233    21.413135     21.83259    10832.181    1163.7415    498.81149   -576.04618    553.69572   -581.49919    48.831616   -6510.7775 
 3196000    85.728877   -6799.3689   -6578.8366   -6799.3689            0    1275.4689     23.24103    21.330243    21.758976    10786.726    916.04151    2269.8206    640.54471     -601.414     140.1348   -41.079022   -6378.1883 
 3197000    87.267828   -6797.7557   -6573.2645   -6797.7557            0    1337.1194    23.149281    21.417677    21.726244    10771.955    1905.2803    1127.9445    978.13355   -737.97722    91.517626    767.85532   -6363.2058 
 3198000    87.161142   -6792.2306   -6568.0139   -6792.2306            0     1202.859    23.304098     21.34629    21.671186    10780.462    225.72698    1967.1644    1415.6855   -18.995464    278.11364   -56.965912    -6378.898 
 3199000    89.257088    -6798.067   -6568.4585    -6798.067            0    806.39441    23.277463    21.465751    21.601242    10793.454    115.55974    1028.4289    1275.1946    25.922909    538.84256    227.42189   -6441.5228 
 3200000    85.411102    -6799.905   -6580.1901    -6799.905            0    1009.8273    23.299232     21.35086    21.676296    10783.061    439.81806    1692.9057    896.75798    554.58853    555.09832   -54.627649   -6421.3848 
 3201000    88.728081   -6802.6673   -6574.4197   -6802.6673            0    1530.1253    23.239478    21.335306    21.713404     10765.97    831.65368    1757.3198    2001.4023    219.49279    740.35316     426.5911   -6334.1737 
 3202000    87.412261   -6801.3432   -6576.4805   -6801.3432            0     1430.964    23.201679    21.377145    21.694759    10760.289    1435.6103    1536.9879    1320.2939   -635.84291    605.34344    16.428351   -6351.9225 
 3203000    78.712224   -6793.5428   -6591.0604   -6793.5428            0    1699.8786    23.209134    21.264529    21.807408    10762.639    2261.3107    2468.9953    369.32981    342.29811   -67.749556   -521.78814    -6324.244 
 3204000    86.376329    -6802.774   -6580.5762    -6802.774            0       1597.6    23.137663    21.363644    21.787273    10769.554    2975.6889    1231.8284    585.28281    231.98971   -543.26766   -9.8746153   -6329.6525 
 3205000    85.604628   -6802.1231   -6581.9104   -6802.1231            0    1781.5322    23.261389    21.276582    21.733858    10756.583    1736.9477    2111.1021    1496.5469   -94.402554   -198.26057    112.89799   -6302.4348 
 3206000    84.211256     -6804.31   -6587.6817     -6804.31            0    1459.1644    23.182959    21.464838    21.588852    10743.011    898.32548    740.77986    2738.3879     392.1697    115.70936    223.75014   -6359.0659 
 3207000    84.752932   -6803.2405   -6585.2188   -6803.2405            0    1448.2601     23.35615    21.293415    21.632834    10758.705    1252.5537    1414.9562    1677.2704   -687.50065   -17.835032    412.39992     -6357.98 
 3208000    88.576216   -6802.0589    -6574.202   -6802.0589            0    652.91494    23.209371    21.481187    21.662619     10800.22    532.56573    1134.4014    291.77772   -626.59605    455.39834    2.3374165   -6471.3613 
 3209000    86.875152   -6790.0461   -6566.5651   -6790.0461            0    1715.3851    23.382328    21.234091    21.658494    10753.496    1058.3333     2736.862      1350.96     54.18571   -857.67039     637.2007   -6297.5435 
 3210000    87.835428   -6805.0125   -6579.0612   -6805.0125            0    1647.4799    23.180812    21.425963    21.651661    10753.757    1124.6245    1997.6544    1820.1609   -427.73156    265.04933    42.712043   -6320.6828 
 3211000    88.849357   -6797.8384   -6569.2788   -6797.8384            0    1376.8524    23.317391    21.295531    21.700592    10775.564    1162.9126    2087.7908    879.85365     90.52505   -41.639537    729.77194   -6352.9057 
 3212000    87.014618   -6806.0311   -6582.1913   -6806.0311            0    1342.1474    23.145703    21.420674    21.709134    10763.314    1444.6377    1706.4429    875.36147    272.08776    572.31319   -278.45832   -6371.5119 
 3213000    88.101788   -6806.2338   -6579.5973   -6806.2338            0    1444.1035    23.268734    21.276319    21.738239    10762.015    1475.8297    1864.2231    992.25776   -303.87044     221.1664   -671.80709    -6352.941 
 3214000    86.323412   -6796.8786   -6574.8168   -6796.8786            0    1237.9567    23.227963     21.36822    21.706633    10773.875    1772.9465    854.57475    1086.3488   -485.62868    -108.6477   -180.49345   -6380.3018 
 3215000     83.18708   -6804.9847    -6590.991   -6804.9847            0    433.47524    23.236313    21.394206    21.730509    10802.724    986.21118     629.3484   -315.13386    211.62266    462.02404    109.14496   -6522.6984 
 3216000    83.840054   -6792.3154    -6576.642   -6792.3154            0    1321.2173    23.278186    21.337278    21.685769    10771.173    1247.6609    1712.7263    1003.2647   -462.31723    641.79195    151.07359   -6369.0966 
 3217000    86.385505   -6797.8793   -6575.6579   -6797.8793            0    1969.8597    23.199805    21.363313     21.66453    10737.476     1306.074    2377.4031     2226.102    446.72202    829.94917    533.36207   -6267.1876 
 3218000    88.783646   -6796.4864   -6568.0958   -6796.4864            0    1276.9134    23.281356    21.307989    21.723991    10776.813    1428.9309    1793.4672    608.34202    -367.9179   -482.82028   -35.096994   -6367.4049 
 3219000    85.923176    -6799.225   -6578.1928    -6799.225            0    553.98118     23.17161    21.535113    21.660641     10808.73    143.42971    208.47981     1310.034    678.88541   -347.41349    912.10609   -6490.8664 
 3220000    84.445567    -6808.896    -6591.665    -6808.896            0    1145.4655    23.304211    21.326714    21.671401    10770.735    838.91884    1550.9483    1046.5295   -507.06174   -255.09999      277.215   -6411.7351 
 3221000    84.182334   -6795.9923   -6579.4384   -6795.9923            0    2130.6326    23.110208    21.477777    21.632922    10737.628    2570.9412    1474.6826     2346.274    492.23875   -285.40358    545.22522   -6245.7871 
 3222000    86.577445   -6806.0899   -6583.3747   -6806.0899            0    1292.5015     23.33843    21.251582    21.742688    10783.907    1274.4251    2005.4961    597.58318   -548.21774   -256.11254   -519.12295   -6380.1001 
 3223000    86.428371   -6803.4739   -6581.1422   -6803.4739            0    960.16123    23.101071    21.529551    21.694894    10790.079    1271.7811    722.65806    886.04452    363.16428   -170.22167   -121.86172   -6430.0491 
 3224000    89.605812   -6794.9955     -6564.49   -6794.9955            0    1145.8316    23.330164    21.278168    21.740525      10792.5    1347.1578    1291.0271    799.30991    220.69521     128.0734      343.116    -6384.139 
 3225000    86.135663     -6801.08   -6579.5013     -6801.08            0    1399.3826    23.195686    21.440229    21.625822    10754.972    1158.0484    1978.7074    1061.3919   -116.40814    877.45693   -766.83764   -6360.0078 
 3226000    86.804063   -6800.7704   -6577.4722   -6800.7704            0    1326.3125    23.344003     21.31741    21.656901    10777.203     852.0589    1691.5743    1435.3044   -537.93788    237.79317   -372.46768   -6369.0097 
 3227000    89.364582   -6787.9928   -6558.1078   -6787.9928            0    436.48188    23.225622    21.460867    21.713458    10822.899    1250.9458   -686.24513    744.74497   -522.27475     435.1555   -341.21446   -6489.2132 
 3228000    88.289379   -6786.8242   -6559.7051   -6786.8242            0    1877.9618    23.226805     21.33506     21.73517    10770.761    1981.6579    1985.2512    1666.9765    272.38375   -469.17881    377.84759   -6264.7139 
 3229000    87.955307   -6798.9336    -6572.674   -6798.9336            0    1472.6659    23.234517    21.374418    21.683526    10768.565    1437.9689    835.49912    2144.5297    298.64685   -594.33455    537.15999    -6341.394 
 3230000    92.832912     -6804.46    -6565.653     -6804.46            0    1074.5372    23.225218     21.43078    21.681516    10791.639     1410.125    471.39729    1342.0894   -96.542568   -214.91522    834.92606   -6396.5369 
 3231000    88.464036   -6792.7056   -6565.1373   -6792.7056            0    1085.7077    23.327566    21.342699    21.657358    10782.618    1327.5816    866.76581    1062.7757   -73.175634   -705.04119   -37.308112    -6394.406 
 3232000    84.317536   -6786.4804   -6569.5787   -6786.4804            0    2075.3859     23.17579    21.451204    21.584196    10730.553    2977.7263    880.16979    2368.2616    29.380387   -832.81826   -349.70723    -6244.793 
 3233000    87.527245   -6805.2648   -6580.1063   -6805.2648            0    1649.6351    23.314095    21.318072    21.622084    10746.426    1082.7787    1546.0632    2320.0633    -249.5995    135.40316    180.78803   -6321.5662 
 3234000    85.908614    -6795.934   -6574.9394    -6795.934            0    1584.1342    23.191245    21.394676    21.705893    10769.795    1448.1014    1420.2286    1884.0727     229.5097   -79.807391    228.07605   -6326.1251 
 3235000    84.647259   -6798.5319    -6580.782   -6798.5319            0    1496.5894    23.264225    21.260481    21.791641    10778.333    1541.5567    2033.9772    914.23418   -221.13379    128.22968   -744.25662   -6345.5317 
 3236000    89.253367     -6807.49   -6577.8912     -6807.49            0    1318.0629    23.062486    21.448399    21.743566    10755.529    1657.9329    1359.0816    937.17422    583.99585    487.37693   -365.24553    -6371.142 
 3237000    83.535315   -6798.2555    -6583.366   -6798.2555            0    1687.4361    23.261124    21.295498    21.716386    10757.369    1769.1737    1735.0683    1558.0664    60.488264   -522.09181    765.10888   -6318.6323 
 3238000    89.089069    -6794.393   -6565.2168    -6794.393            0     1201.333    23.125651    21.517442    21.685577    10790.848    2174.9344   -33.034599    1462.0993    375.86853   -275.93847    523.21178   -6376.1589 
 3239000    87.843471   -6804.9325   -6578.9606   -6804.9325            0    733.73488    23.384912    21.282687    21.720776    10810.295    39.460127    1686.3279    475.41657   -315.30038    24.521512   -288.06646   -6463.2821 
 3240000    92.415385   -6808.9802   -6571.2472   -6808.9802            0    1683.9932    23.153274    21.495195    21.624537    10762.189    2232.4985    602.90891    2216.5722   -12.271316    135.89901   -103.05577   -6306.9352 
 3241000    84.821383   -6798.4871   -6580.2892   -6798.4871            0    1935.3596     23.29649    21.287933    21.682634    10753.158    2114.9694    2273.6061    1417.5034   -763.60104    333.26595   -423.27112   -6276.7788 
 3242000    83.681924   -6794.9409   -6579.6743   -6794.9409            0    282.61043    23.215322    21.575198     21.64433    10841.108    71.937959    383.15947    392.73385    471.75431   -125.71771    -708.0365   -6534.9917 
 3243000     87.60022   -6796.0791   -6570.7328   -6796.0791            0    645.29631    23.349412    21.315786    21.735471    10817.984   -85.190105     1435.905    585.17409   -472.94712   -168.38207    75.430979    -6468.925 
 3244000    85.106297   -6791.5007     -6572.57   -6791.5007            0    1701.6842    23.118811    21.453263    21.697579    10761.434    2597.1383    1461.0462    1046.8681   -562.42383   -756.27927   -661.88325      -6305.5 
 3245000    92.290184   -6796.2581   -6558.8472   -6796.2581            0    1807.0975    23.231863    21.281146    21.771849    10764.017    1839.6287    1596.4236    1985.2401    -654.6168   -273.36939   -87.321342   -6275.1651 
 3246000    84.741476    -6799.714   -6581.7217    -6799.714            0    636.91764    23.243393    21.427367    21.707683    10811.397    777.89334    231.29356    901.56602   -187.49712    450.61672   -126.49382   -6481.2969 
 3247000      85.1893   -6794.0491   -6574.9048   -6794.0491            0    1174.7187    23.291927    21.367465      21.6812    10790.504    1642.4837    845.82404    1035.8485    78.774242   -67.627918    138.94231   -6390.0411 
 3248000    86.239501   -6793.7167   -6571.8709   -6793.7167            0    1530.4557    23.246929    21.413823    21.626475    10765.781    1142.7479    1782.7553    1665.8638     234.4311    -111.5924   -1015.5328   -6331.5773 
 3249000    84.468597   -6798.4271   -6581.1367   -6798.4271            0    1517.0073    23.267942     21.39468    21.619892    10762.602    912.33071     2038.904    1599.7872    66.559497    402.06446   -480.24603    -6343.025 
 3250000    90.637931   -6790.7214   -6557.5608   -6790.7214            0    756.80201    23.334023    21.335784    21.697362    10802.025    352.52318    910.31088     1007.572    230.94958    530.81862    196.56996   -6438.3369 
Loop time of 534.803 on 64 procs for 250000 steps with 1296 atoms

Performance: 80.777 ns/day, 0.297 hours/ns, 467.461 timesteps/s
99.1% CPU use with 64 MPI tasks x 1 OpenMP threads

MPI task timing breakdown:
Section |  min time  |  avg time  |  max time  |%varavg| %total
---------------------------------------------------------------
Pair    | 29.004     | 40.486     | 52.638     | 117.0 |  7.57
Bond    | 0.28087    | 0.29023    | 0.2989     |   0.8 |  0.05
Kspace  | 270.04     | 282.82     | 294.73     |  44.5 | 52.88
Neigh   | 1.0382     | 1.0562     | 1.0696     |   0.7 |  0.20
Comm    | 91.24      | 92.391     | 94.724     |  11.5 | 17.28
Output  | 0.6376     | 0.63788    | 0.63949    |   0.0 |  0.12
Modify  | 103.67     | 105.74     | 108.53     |  10.8 | 19.77
Other   |            | 11.39      |            |       |  2.13

Nlocal:        20.2500 ave          27 max          13 min
Histogram: 3 3 16 5 0 9 5 14 5 4
Nghost:        2594.59 ave        2618 max        2562 min
Histogram: 1 3 4 5 9 9 14 8 7 4
Neighs:        6462.19 ave        8592 max        4098 min
Histogram: 3 3 13 8 0 9 5 14 5 4

Total # of neighbors = 413580
Ave neighs/atom = 319.12037
Ave special neighs/atom = 2.0000000
Neighbor list builds = 1981
Dangerous builds = 0

unfix		3
unfix		2
unfix		1

write_data	data.final.${pid}
write_data	data.final.0
System init for write_data ...
PPPM initialization ...
  extracting TIP4P info from pair style
  using 12-bit tables for long-range coulomb (../kspace.cpp:340)
  G vector (1/distance) = 0.36762431
  grid = 27 40 32
  stencil order = 5
  estimated absolute RMS force accuracy = 0.0044569334
  estimated relative force accuracy = 1.3421923e-05
  using double precision FFTW3
  3d grid and FFT values/proc = 4845 560
Last active /omp style is kspace_style pppm/tip4p/omp
WARNING: Not all mixed pair coeffs generated from mixing. Use write_data with 'pair ij' option to store all pair coeffs. (../write_data.cpp:312)

write_restart   restart.lmp.${pid}
write_restart   restart.lmp.0
System init for write_restart ...
PPPM initialization ...
  extracting TIP4P info from pair style
  using 12-bit tables for long-range coulomb (../kspace.cpp:340)
  G vector (1/distance) = 0.36762431
  grid = 27 40 32
  stencil order = 5
  estimated absolute RMS force accuracy = 0.0044569334
  estimated relative force accuracy = 1.3421923e-05
  using double precision FFTW3
  3d grid and FFT values/proc = 4845 560
Last active /omp style is kspace_style pppm/tip4p/omp
Total wall time: 0:08:54
