#include		in.partitions
include		in.temp
variable        temperature equal 15.22
variable	tempDamp equal 100.0
include		in.pressure
variable        pressure equal 2199.7
variable        pressureDamp equal 1000.0 # This is 1 ps
include		in.seed
variable        seed equal 745823

units		real
atom_style	full

read_restart	restart.lmp.${pid}
read_restart	restart.lmp.1
Reading restart file ...
  restart file = 30 Jul 2021, LAMMPS = 30 Jul 2021
  restoring atom style full from restart
  orthogonal box = (0.068691607 0.080175221 0.0075555809) to (19.931309 19.919826 20.692442)
  4 by 2 by 4 MPI processor grid
  restoring pair style lj/cut/tip4p/long/omp from restart
  restoring bond style harmonic/omp from restart
  restoring angle style harmonic/omp from restart
  972 atoms
  648 bonds
  324 angles
Finding 1-2 1-3 1-4 neighbors ...
  special bond factors lj:    0        0        0       
  special bond factors coul:  0        0        0       
     2 = max # of 1-2 neighbors
     1 = max # of 1-3 neighbors
     1 = max # of 1-4 neighbors
     2 = max # of special neighbors
  special bonds CPU = 0.002 seconds
  read_restart CPU = 0.008 seconds
include 	in.setup
variable	out_freq equal 1000
variable	out_freq2 equal 10000
variable	out_freq3 equal 1000

timestep	2.0

neigh_modify    delay 7 every 1

include		in.tip4p
# This is TIP4P/Ice

# create groups ###
group ox type 2
324 atoms in group ox
group hy type 1
648 atoms in group hy

# set charges - beside manually ###
set group ox charge -1.1794
Setting atom values ...
  324 settings made for charge
set group hy charge 0.5897
Setting atom values ...
  648 settings made for charge

# ### TIP3P Potential Parameters ###
pair_style lj/cut/tip4p/long/omp 2 1 1 1 0.1577 8.5
pair_coeff 1 1*2 0.000 0.000
pair_coeff 2 2 0.21084 3.1668
bond_style  harmonic
bond_coeff  1 450 0.9572
angle_style harmonic
angle_coeff 1 55 104.52
kspace_style pppm/tip4p/omp 1.0e-5
pair_modify tail yes

thermo          ${out_freq}
thermo          1000
thermo_style    custom step temp pe etotal epair emol press lx ly lz vol pxx pyy pzz pxy pxz pyz enthalpy

restart 	${out_freq3} restart.lmp.${pid} restart2.lmp.${pid}
restart 	1000 restart.lmp.${pid} restart2.lmp.${pid}
restart 	1000 restart.lmp.1 restart2.lmp.${pid}
restart 	1000 restart.lmp.1 restart2.lmp.1


include         in.dump
dump            myDump all atom ${out_freq2} dump.water.${pid}
dump            myDump all atom 10000 dump.water.${pid}
dump            myDump all atom 10000 dump.water.1
dump            myDump2 all dcd ${out_freq2} dump.dcd
dump            myDump2 all dcd 10000 dump.dcd
dump_modify     myDump append yes
dump_modify     myDump2 append yes


variable natoms 	equal  "count(all)"                        # NUMBER ATOMS
variable H      	equal  "enthalpy/v_natoms"                 # ENTHALPY-per-atom
variable Vol      	equal  "vol/v_natoms"                 # volume-per-atom
fix AVG all 		ave/time ${out_freq} 1 ${out_freq} v_Vol v_H file vol_enthalpy.dat
fix AVG all 		ave/time 1000 1 ${out_freq} v_Vol v_H file vol_enthalpy.dat
fix AVG all 		ave/time 1000 1 1000 v_Vol v_H file vol_enthalpy.dat


timer           timeout 02:55:00 every 1000
New timer settings: style=normal  mode=nosync  timeout=02:55:00

fix 		1 all shake 1e-6 200 0 b 1 a 1
       0 = # of size 2 clusters
       0 = # of size 3 clusters
       0 = # of size 4 clusters
     324 = # of frozen angles
  find clusters CPU = 0.000 seconds
fix             2 all nph aniso ${pressure} ${pressure} ${pressureDamp}
fix             2 all nph aniso 2199.7 ${pressure} ${pressureDamp}
fix             2 all nph aniso 2199.7 2199.7 ${pressureDamp}
fix             2 all nph aniso 2199.7 2199.7 1000
fix             3 all temp/csvr ${temperature} ${temperature} ${tempDamp} ${seed}
fix             3 all temp/csvr 15.22 ${temperature} ${tempDamp} ${seed}
fix             3 all temp/csvr 15.22 15.22 ${tempDamp} ${seed}
fix             3 all temp/csvr 15.22 15.22 100 ${seed}
fix             3 all temp/csvr 15.22 15.22 100 745823


run             250000
PPPM initialization ...
  extracting TIP4P info from pair style
  using 12-bit tables for long-range coulomb (../kspace.cpp:340)
  G vector (1/distance) = 0.37296151
  grid = 24 24 25
  stencil order = 5
  estimated absolute RMS force accuracy = 0.0033405691
  estimated relative force accuracy = 1.0060025e-05
  using double precision FFTW3
  3d grid and FFT values/proc = 3458 576
Last active /omp style is kspace_style pppm/tip4p/omp
Neighbor list info ...
  update every 1 steps, delay 7 steps, check yes
  max neighbors/atom: 2000, page size: 100000
  master list distance cutoff = 10.8154
  ghost atom cutoff = 10.8154
  binsize = 5.4077, bins = 4 4 4
  1 neighbor lists, perpetual/occasional/extra = 1 0 0
  (1) pair lj/cut/tip4p/long/omp, perpetual
      attributes: half, newton on, omp
      pair build: half/bin/newton/omp
      stencil: half/bin/3d
      bin: standard
Per MPI rank memory allocation (min/avg/max) = 10.19 | 10.20 | 10.21 Mbytes
Step Temp PotEng TotEng E_pair E_mol Press Lx Ly Lz Volume Pxx Pyy Pzz Pxy Pxz Pyz Enthalpy 
47750000    16.323494   -5221.9688   -5190.4876   -5221.9688            0    2269.0996    19.862618    19.839651    20.684887    8151.2395    2702.8508    2119.9498    1984.4983   -58.133803    196.68962    244.87876   -4920.7428 
47751000    14.953575   -5223.1658   -5194.3266   -5223.1658            0    1772.7222    19.913165    19.884232    20.608535    8160.1141    1488.8931    1878.3432    1950.9303   -141.60215    351.55473    133.40901   -4983.3604 
47752000    15.492956   -5223.0099   -5193.1304   -5223.0099            0     2120.746    19.880924    19.880926    20.585812    8136.5662    1952.5822     2328.814    2080.8418   -84.633469    76.748659   -100.20709   -4941.4753 
47753000    15.277183   -5224.0734   -5194.6101   -5224.0734            0    2093.1906    19.919547    19.869252    20.605633    8155.4311     2113.357    1861.8326    2304.3821   -124.24409    350.02302    119.58988   -4945.6489 
47754000    14.636619   -5222.8354   -5194.6074   -5222.8354            0    2131.0112    19.894412    19.853716    20.622263    8145.3406    2018.8364    2210.7458    2163.4515   -174.82686    672.08284    205.36578   -4941.4615 
47755000    14.878216   -5221.0018   -5192.3079   -5221.0018            0    2221.0532    19.898398    19.895505    20.570415    8143.5942     2222.795    2014.2274    2426.1371   -42.686534    226.29523    147.62114   -4928.5223 
47756000    15.133461   -5221.8029   -5192.6167   -5221.8029            0    2057.6833    19.875628    19.886153    20.630194    8154.0795    2184.9912    1745.9956    2242.0632   -251.50553     302.3045   -17.582169   -4947.9193 
47757000    15.013649   -5221.4577   -5192.5026   -5221.4577            0    2145.8339    19.924581    19.850749    20.578954    8139.3439     1980.005    2073.4058    2384.0909   -147.04038    114.57359   -107.91356   -4937.7836 
47758000    15.001278   -5221.6841   -5192.7529   -5221.6841            0    2141.7436    19.844968    19.926563    20.626897    8156.7411    2594.7883    1399.4794    2430.9632   -24.913526    167.45058    131.34067    -4937.976 
47759000    16.195538   -5222.1686   -5190.9341   -5222.1686            0    2191.9028    19.883965    19.883405    20.575064    8134.5759    2270.9597    2103.2024    2201.5462    31.080909    301.12472   -76.588787    -4930.899 
47760000    15.590714   -5223.3729   -5193.3049   -5223.3729            0     2205.187    19.861608    19.887272    20.656345    8159.1156    2662.0573    1816.7999    2136.7039   -38.240077    247.06635   -38.572484   -4930.9046 
47761000    14.643373   -5221.0468   -5192.8059   -5221.0468            0    2153.3142    19.865244    19.822454    20.666745    8138.1071    1987.9945     2400.582     2071.366    28.123416    47.921367   -5.5655425   -4937.2377 
47762000    15.860005   -5221.3369   -5190.7496   -5221.3369            0    1922.1624     19.91802    19.901037    20.591031     8162.063    1870.5214    2080.0683    1815.8975   -83.679482    102.29097    -124.8454   -4961.9444 
47763000    15.862038   -5220.6016   -5190.0103   -5220.6016            0    2387.3758    19.894301    19.826846    20.637029    8140.0952     1977.225    2933.1901    2251.7124   -65.502964   -47.398208    59.052609   -4906.5932 
47764000    14.882866   -5222.0305   -5193.3276   -5222.0305            0     2295.024     19.85305    19.885203    20.640201    8148.3783    2724.9556    1998.6698    2161.4465   -213.13926    21.274111   -236.82468   -4920.5968 
47765000    14.664557   -5221.7134   -5193.4316   -5221.7134            0    2084.8942    19.875119    19.828698    20.675437     8148.143    2182.4862    2328.0906    1744.1058   -126.32855    544.44541   -179.81622   -4945.6788 
47766000     14.95877   -5222.1043   -5193.2551   -5222.1043            0    1958.0827    19.920608    19.850638    20.626523    8156.4858    2155.2078     1740.813    1978.2272   -87.183929     147.4343   -175.00487   -4960.3333 
47767000    15.643257   -5223.5772   -5193.4079   -5223.5772            0    2282.0585    19.867195    19.830082    20.698256    8154.4528    2260.3718    2449.7671    2136.0365   -63.100941   -62.828623     65.82145   -4922.0156 
47768000    15.587358   -5224.3983   -5194.3367   -5224.3983            0    2200.6685     19.89347    19.868497    20.588183    8137.5483     2205.238    2055.5838    2341.1836    -109.0221    294.69803   -162.75533   -4933.1662 
47769000    15.273056    -5221.469   -5192.0137    -5221.469            0    2244.5217     19.87801    19.879977    20.513428    8106.3813    2233.6901    2189.8305    2310.0447    -84.50595    247.47039   -4.9473524    -4926.659 
47770000    14.821033   -5222.3922   -5193.8086   -5222.3922            0    2145.6089    19.920687    19.870171     20.63847    8169.2733    2299.3968    1666.2009    2471.2289   -228.43031     304.4406     191.8338   -4938.1797 
47771000    14.662279    -5224.219   -5195.9415    -5224.219            0    1638.9441    19.904815    19.862775    20.631087    8156.8072    1140.2932    1985.1858    1791.3532   -83.016911    703.65081   -116.04685   -5000.9749 
47772000    15.567769   -5223.2455   -5193.2218   -5223.2455            0    2239.0671    19.903471    19.884838    20.589932    8149.0272    2144.6964    2126.0465    2446.4584   -52.539706     -181.207   -162.96873   -4927.1194 
47773000     14.40892   -5222.8167   -5195.0279   -5222.8167            0    2145.3264    19.912931    19.833962    20.638799    8151.3415    1938.6864    2230.1571    2267.1357   -64.383358   -273.60905   -145.99117   -4939.9937 
47774000    15.681531   -5219.8916   -5189.6484   -5219.8916            0    2225.7486    19.840823    19.871797     20.64916     8141.402    2484.7797    2308.7337    1883.7323   -53.113938    123.87141     270.8043   -4925.3764 
47775000    15.278913   -5220.9105   -5191.4439   -5220.9105            0    2212.6505    19.846188    19.824255    20.678749     8135.762    2290.1765    2256.0519     2091.723   -106.78452    292.58424    152.06977    -4928.909 
47776000     15.69982   -5221.8635   -5191.5851   -5221.8635            0    2012.9327    19.920669    19.833292     20.60104    8139.3155    1872.3921     2153.096    2013.3099    70.355845    278.51821    19.320764   -4952.6428 
47777000    15.472427   -5221.2899     -5191.45   -5221.2899            0    2055.5744    19.938464     19.82904    20.608823    8147.9167    1429.5015    2258.1145    2479.1072   -35.324187    332.20484    533.51775   -4947.1882 
47778000    14.894873   -5222.4336   -5193.7076   -5222.4336            0    2272.2143    19.914736    19.854577    20.568641    8132.8128    2121.8149    2603.9149     2090.913   -133.47619    215.17943   -135.05588   -4924.2031 
47779000     16.02835   -5222.8639   -5191.9519   -5222.8639            0    2162.6768    19.882385    19.831368     20.64036    8138.3883    1762.4779     2515.067    2210.4855   -151.77095     513.0561   -37.071362   -4935.2637 
47780000    15.359728   -5222.4831   -5192.8606   -5222.4831            0    1945.1096    19.862659    19.862506    20.688562    8162.0967     2170.973    1921.4051    1742.9505   -297.77871    408.88502   -23.769596   -4961.3229 
47781000    15.281924   -5220.7647   -5191.2922   -5220.7647            0    2329.4627    19.905697     19.83299    20.581739    8125.4543    1989.7258    2679.6491    2319.0133   -44.022131   -65.642745     108.3368   -4915.2476 
47782000    15.956609   -5223.0498   -5192.2761   -5223.0498            0    2182.1809    19.892643    19.859971    20.604866    8140.3091    2173.7208    2009.7367    2363.0852   -116.77473    499.25372    368.69692   -4933.2118 
47783000    15.109619   -5223.2387   -5194.0985   -5223.2387            0    1862.9121    19.915919    19.869897    20.640443    8167.9862     1884.491    1848.0868    1856.1584    -78.28676    105.91975    243.73064   -4972.1852 
47784000    14.427733   -5221.2561    -5193.431   -5221.2561            0    2165.8575    19.936862    19.905664    20.525727    8145.7675    1722.6801     2186.784    2588.1084   -134.33019    284.06589   -189.50458   -4936.1322 
47785000    14.593972   -5224.4721   -5196.3264   -5224.4721            0    2076.5099     19.91517     19.84758    20.612471    8147.4489    1662.6746    2495.3412    2071.5138   -171.34843     172.4726   -109.65068   -4949.5909 
47786000    14.662379   -5223.6098   -5195.3322   -5223.6098            0    1903.1626    19.892145    19.887324     20.62802    8160.4763    2227.0917    1309.4742     2172.922   -1.0841685    326.15001    59.730983   -4968.8327 
47787000    14.947174   -5221.6334   -5192.8065   -5221.6334            0     2362.803    19.804044    19.910008    20.604105    8124.1713    2564.1771     2043.497    2480.7348   -52.942726    256.32802     241.1836   -4912.8552 
47788000    15.650584   -5222.3548   -5192.1713   -5222.3548            0    2291.7877    19.866016    19.875278    20.626095    8144.0607     2419.164    2378.3864    2077.8129   -20.010356    317.91194    151.63896   -4919.9694 
47789000    15.053735   -5224.0136   -5194.9812   -5224.0136            0    2153.1362    19.873912    19.842209    20.643297    8140.5257     2514.867    1926.6264    2017.9153   -139.90849   -150.23705    -200.4916   -4939.3582 
47790000    15.049022   -5222.5012   -5193.4779   -5222.5012            0    2127.2022    19.932969    19.896996    20.567073    8157.0291     2005.304    1845.8293    2530.4734   -234.14911   -206.40712   -154.09232   -4940.4219 
47791000    14.919277   -5221.9966   -5193.2235   -5221.9966            0    2078.7253    19.892651    19.841689    20.618923    8138.3671    1825.5811    2402.8406    2007.7543   -146.65651     361.8415    15.440026   -4946.5002 
47792000    14.974035   -5223.2311   -5194.3524   -5223.2311            0      2052.15    19.914561    19.913493    20.596272    8167.8317     1844.872    1961.4468    2350.1312   -228.17031    72.997266    142.87032   -4949.9014 
47793000    15.483301   -5222.0219   -5192.1611   -5222.0219            0    2320.5718    19.926801    19.806338     20.62955    8142.0082    1958.1367    2893.0628    2110.5157   -176.71372    27.607549     224.1342   -4916.6098 
47794000    14.762418   -5223.0994   -5194.6288   -5223.0994            0    2299.9824     19.87146    19.855262    20.648698     8147.007    2412.0213    2345.2278     2142.698   -51.081622    15.579214   -240.79955   -4921.3547 
47795000    15.132728   -5224.3391   -5195.1544   -5224.3391            0    2184.6806    19.849745    19.865064     20.61686    8129.5674    2223.8528    2141.3238    2188.8651   -106.95029    84.369553    242.61518   -4936.1356 
47796000    14.516725   -5222.7278   -5194.7311   -5222.7278            0    1894.4406     19.87093    19.916194    20.623894    8161.9738    2098.2886    1423.4816    2161.5517   -137.48012    78.150055    122.80587   -4969.2282 
47797000    15.644199   -5223.5168   -5193.3456   -5223.5168            0    2339.9207    19.885594    19.853679    20.644292     8150.412    2447.9026    2354.2091    2217.6504   -301.39741   -6.6019362    247.39913     -4915.21 
47798000     14.98564   -5224.3568   -5195.4558   -5224.3568            0    2176.6663    19.891445    19.901606    20.604341    8156.6753    2179.9127    1952.7731    2397.3131   -176.07708    427.32437     258.6265   -4936.5266 
47799000      15.6687   -5221.8901   -5191.6717   -5221.8901            0    2241.8307    19.887058    19.822692    20.647679    8139.6256    2261.7521    2477.6974    1986.0426   -184.10322    283.04641    95.086934   -4925.5482 
47800000     15.13773   -5223.7127   -5194.5183   -5223.7127            0    2503.2692    19.870995    19.875952    20.626976    8146.7266    2922.7472     2274.092    2312.9684   -239.90832    369.81084    13.727815   -4897.1007 
47801000    16.640328   -5222.5041   -5190.4118   -5222.5041            0    2102.7763    19.858368    19.863113     20.67545    8155.4109    2499.3748    1912.2853    1896.6689   -133.31053   -382.79421    11.818781   -4940.3112 
47802000    14.485936   -5222.5579   -5194.6206   -5222.5579            0    2218.7051    19.904441    19.889134     20.58439    8148.9916     2250.573    2020.7699    2384.7724    -85.16638    49.715456    169.12508   -4930.9393 
47803000    14.142851    -5222.133   -5194.8573    -5222.133            0    2056.3096    19.897995    19.850066    20.622074    8145.2348    2315.9599     2044.646    1808.3229   -26.388572   -43.474517   -18.073304   -4950.5885 
47804000    15.733589   -5223.9539   -5193.6103   -5223.9539            0    2356.5199    19.903764    19.871683    20.621463    8156.2275    2332.6342    2238.2369    2498.6886   -244.04444   -24.172575   -178.42382   -4913.3018 
47805000    15.005761   -5221.3773   -5192.4375   -5221.3773            0    2332.3762    19.859954    19.832998    20.668699    8141.0373    2588.3208    2271.2005    2137.6074   -212.68073    501.11212    317.99177   -4915.5175 
47806000    15.368583   -5220.7983   -5191.1587   -5220.7983            0    2445.7552     19.89794    19.836309    20.640715    8146.9251     2458.445    2631.6703    2247.1504   -257.99715    267.05352   -48.599456   -4900.5674 
47807000    14.309907   -5222.7859    -5195.188   -5222.7859            0    2150.8458    19.886782    19.821145    20.680422    8151.7836    2148.8579    2407.7299    1895.9495   -73.378782    449.28982    271.40731   -4939.4839 
47808000    15.481274   -5223.0121   -5193.1552   -5223.0121            0    2322.1964    19.921545    19.863206    20.576437    8142.2143    1810.7339    2487.2467    2668.6087   -93.764714    521.53031   -34.560192    -4917.404 
47809000    15.091958    -5221.386   -5192.2799    -5221.386            0    2255.2658    19.884024    19.827051    20.614462    8127.0777    2188.7291      2354.02    2223.0482   -96.850483   -63.818344    -86.20746   -4924.9743 
47810000    14.921987   -5222.5755   -5193.7972   -5222.5755            0    2251.2069    19.813607    19.904412    20.676055     8154.185    2881.2735    1504.9756    2367.3717   -135.33184   -10.533801    321.69617   -4926.0827 
47811000    15.111238   -5221.8812   -5192.7379   -5221.8812            0    2056.7244    19.944788    19.797391    20.688111    8168.7996    1962.4829    2300.9408    1906.7497   -111.27036    484.50424     357.3248    -4947.713 
47812000    15.879115   -5220.8057   -5190.1815   -5220.8057            0    2449.0708    19.902099    19.879115    20.587352    8145.1001    2606.8879    1866.3413    2873.9831   -248.66549    172.02417    18.040177   -4899.2615 
47813000     15.62108   -5221.7195    -5191.593   -5221.7195            0    2341.8924    19.926725    19.851114    20.574297    8138.5271    2195.7696     2190.611    2639.2967   -220.35728    296.32049   -35.633109   -4913.6289 
47814000    15.112634   -5223.0835   -5193.9375   -5223.0835            0    2330.0669    19.936548    19.833764    20.594506    8143.4133    2117.7503    2142.6169    2729.8334   -195.08482    343.71196    311.75935    -4917.211 
47815000    14.937631   -5222.5535    -5193.745   -5222.5535            0    2418.7249    19.861443    19.864826    20.633349    8140.7661    2684.2506    2603.2496    1968.6746   -83.424228    278.86025   -183.99212   -4906.5826 
47816000    15.223567   -5220.3843   -5191.0243   -5220.3843            0    2416.0865    19.873919    19.855705    20.634862    8142.7368    2471.3763     2714.929     2061.954    7.4319533    138.76933    55.833705   -4904.1057 
47817000    15.040035   -5223.1043   -5194.0983   -5223.1043            0    2537.8073    19.848431    19.854016    20.656096    8139.9699    2459.1759    2906.1041    2248.1421   -261.74707    97.814628   -214.36884   -4892.8273 
47818000    15.728187   -5223.6928   -5193.3597   -5223.6928            0    2527.3731    19.882011    19.854747     20.60502    8133.8789    2416.5679     2934.139    2231.4122   -142.26564    289.77151    191.75925   -4893.5519 
47819000     14.68995   -5224.2092   -5195.8784   -5224.2092            0    2133.5569    19.917997    19.872747    20.603085    8155.2227    2049.4739    2212.0388     2139.158   -149.68408    126.10883   -336.32624   -4942.1226 
47820000    15.706407   -5222.1284   -5191.8372   -5222.1284            0    2181.3185    19.916222    19.869137    20.566595     8138.575    1579.1062    2330.5767    2634.2727   -123.27291    434.64735    46.277497   -4932.9305 
47821000    15.130371   -5221.5466   -5192.3664   -5221.5466            0     1949.737    19.901203    19.875289     20.61837    8155.4346    1953.6706    1811.2095    2084.3309   -132.36569    25.109252   -209.88465   -4960.4674 
47822000     16.17621   -5220.0948   -5188.8976   -5220.0948            0    2279.8735    19.857326     19.83133    20.637745     8127.086    2246.4793    2219.2928    2373.8485   -120.22672    49.865569    222.40616   -4918.6751 
47823000    14.627784   -5223.2232   -5195.0123   -5223.2232            0    2151.9789    19.845039    19.897974     20.63936    8149.9894     2411.173    1957.5698     2087.194   -121.66576    378.44797    78.051943   -4939.2297 
47824000    14.858111   -5223.6703   -5195.0152   -5223.6703            0    2260.9328    19.849369    19.878762    20.637592    8143.1991    2349.6329    2316.3413    2116.8243   -221.17276    237.74779    32.465179   -4926.5064 
47825000    15.081136   -5223.3118   -5194.2266   -5223.3118            0    2096.8991    19.871386    19.826857    20.642817    8133.0044    1608.4909    2386.0176    2296.1887   -196.13336   -95.443318    129.52227   -4945.5102 
47826000    15.635836   -5223.0931    -5192.938   -5223.0931            0    2162.1482    19.923372    19.869967    20.543609    8132.7372    1994.7378    2026.9452    2464.7616   -110.37635    197.36194    38.343417   -4936.4908 
47827000    14.276562   -5223.4631   -5195.9296   -5223.4631            0    2276.7457    19.876745    19.860889    20.633204     8145.366    2977.0495    1616.9404    2236.2473   -243.94269    299.39452    473.41023   -4925.4709 
47828000    15.604421   -5220.3369   -5190.2425   -5220.3369            0    2067.7442    19.896817    19.911026    20.571012    8149.5364    2090.7061    1793.3483    2319.1781     -59.4782    373.07176   -88.318914   -4944.4856 
47829000    15.515189   -5223.6464    -5193.724   -5223.6464            0    2276.6042     19.87428    19.827857    20.626376    8128.1198    2261.8458     2470.664    2097.3029   -316.20265    2.7244587    120.37297   -4923.8547 
47830000    15.416025   -5222.0489   -5192.3178   -5222.0489            0    2031.1019    19.853783    19.915947    20.650305    8165.2727    2299.7187    1876.4759     1917.111   -160.38631    103.59663   -302.87577   -4950.4499 
47831000    15.892327   -5222.6855   -5192.0358   -5222.6855            0    2261.1366    19.848958    19.846576    20.619106    8122.5639    2320.0095    2436.2203      2027.18   -282.13034     58.47469    61.618063   -4924.1832 
47832000    15.511524   -5224.7713    -5194.856   -5224.7713            0    2159.1572    19.924813    19.855318    20.583973    8143.2974     2285.028    1835.6179    2356.8258   -193.62947   -8.8756803    199.99654   -4938.4309 
47833000    15.607603   -5222.3102   -5192.2096   -5222.3102            0    2263.7582    19.873516    19.815563     20.66439    8137.7382    2413.7564    2597.1545    1780.3635   -151.47253    123.23897    363.37971   -4923.5455 
47834000    16.261655   -5222.3454   -5190.9834   -5222.3454            0     2165.908    19.944331    19.886924     20.55777    8153.8571    1809.4382    2032.3697    2655.9162    -45.73655    394.29444    265.07566   -4933.4231 
47835000    14.980348   -5223.7748   -5194.8839   -5223.7748            0    2557.0015    19.851852    19.828091    20.652443    8129.3038    2810.2375     2484.372     2376.395   -116.79101    313.73777     139.5205   -4891.7321 
47836000    15.006784   -5223.1206   -5194.1788   -5223.1206            0     2139.748    19.893817    19.899115    20.584692    8148.8488    2415.5633    1690.4089    2313.2717   -142.91856    390.01925    335.71639   -4939.8856 
47837000    14.398237   -5220.6408   -5192.8726   -5220.6408            0    2419.1144    19.929212    19.767163    20.659174    8138.5576    2361.4946    2812.0699    2083.7786   -101.53201    365.62861    133.70998   -4905.7418 
47838000     14.92779   -5221.6704   -5192.8809   -5221.6704            0    2262.3213    19.923874    19.891174    20.565464    8150.2836     2340.875    2081.8615    2364.2274   -130.31123    199.14105   -356.00317   -4923.9734 
47839000    14.536686    -5223.897   -5195.8618    -5223.897            0    2279.3705    19.856599    19.852323    20.651193    8140.6922    2483.1103    2383.8736    1971.1277   -124.19724    344.92769   -53.343188   -4925.2466 
47840000    14.879888   -5222.6394   -5193.9423   -5222.6394            0    2143.9554    19.871938    19.934363    20.592779    8157.5084    2709.2168    1411.4396    2311.2099   -52.367728    414.15116    145.06385   -4938.8783 
47841000    14.946511   -5222.6063   -5193.7807   -5222.6063            0    2341.8844    19.846922    19.879271    20.610903    8131.8735    2473.4739    2418.5599    2133.6195   -42.813237    396.22975    -168.6674   -4916.0448 
47842000    15.083182   -5223.3133   -5194.2241   -5223.3133            0    2209.2031    19.910396    19.873761    20.588145    8146.6148    2861.7519    1506.2269    2259.6305   -164.54992    84.611245    140.14472   -4931.7486 
47843000    15.369321   -5221.7738   -5192.1327   -5221.7738            0    2057.0783    19.897925    19.841508    20.620058    8140.8988    2026.4952    1984.6918     2160.048   -55.326709    121.88984    316.59975   -4947.9027 
47844000    15.278871   -5222.1785   -5192.7119   -5222.1785            0    2355.0254    19.925352    19.863529    20.560962    8137.7781    1653.6855    2740.3263    2671.0644   -66.590529    33.899495   -78.481896   -4913.2148 
47845000    14.603868   -5223.1834   -5195.0186   -5223.1834            0     2187.071    19.906377    19.856848    20.587165    8137.6513    2030.5036     2319.371    2211.3385   -40.699024    216.70061   -65.277192   -4935.4586 
47846000    15.505501   -5222.9104   -5193.0068   -5222.9104            0     1994.555    19.922525    19.868033    20.607599    8156.9286    1842.3914      1902.08    2239.1935   -267.78846    247.99768    140.62921   -4955.7336 
47847000    14.685328   -5220.2524   -5191.9305   -5220.2524            0    2539.0601    19.845115    19.886227    20.580856    8122.1206    2910.3436    2107.8525    2598.9842   -80.005805    52.189537    27.268216   -4891.1717 
47848000    15.122117   -5223.3294   -5194.1651   -5223.3294            0    2109.4241    19.887297    19.862343    20.640037    8152.9859    2559.5187    1991.2738    1777.4797   -93.388093   -61.097685    -10.78704   -4943.3484 
47849000    14.401101   -5221.7422   -5193.9685   -5221.7422            0    2197.6275    19.884925    19.912201    20.564591    8142.6037    2420.2454    2140.0865    2032.5505   -120.04225   -24.767274    107.09482   -4932.9968 
47850000    14.634381   -5221.5922   -5193.3685   -5221.5922            0    2409.7263    19.884371    19.877456    20.604047     8143.764    2744.2083     2150.326    2334.6446   -88.183362    256.34952    36.764844   -4907.1691 
47851000    13.832124   -5222.4878   -5195.8114   -5222.4878            0    2218.0969    19.932871    19.839418    20.607223    8149.2615    2190.9804    2364.0126    2099.2979   -48.572157    843.04646   -7.7420397   -4932.1937 
47852000    15.598053   -5222.7695   -5192.6873   -5222.7695            0      2111.41     19.89936    19.846897    20.604999    8137.7492    2144.0195    2320.9935    1869.2171    -152.6317     221.7313    120.13226   -4942.1037 
47853000    15.489222   -5221.9711   -5192.0988   -5221.9711            0    1985.9822    19.867027    19.927986     20.61944    8163.4389    2234.3961    1276.3088    2447.2417    7.1706005    427.00159   -8.4160074    -4955.657 
47854000    15.372389   -5223.3069   -5193.6599   -5223.3069            0    2189.6839    19.939826    19.857612    20.605462    8158.8834    2134.9807    2007.5228    2426.5482   -185.68952    174.96295     543.9108   -4933.1118 
47855000    16.067982   -5222.6672   -5191.6787   -5222.6672            0     2047.252    19.905192    19.904749    20.611848     8166.576    1847.2262    1809.7419    2484.7878   -168.87183    267.79824    25.694715   -4947.8487 
47856000    14.882839   -5223.3056   -5194.6028   -5223.3056            0    2148.0279    19.908419     19.81454    20.650039    8145.9479    1477.1996    2803.9766    2162.9076   -62.132585    489.28381    216.20639   -4939.4165 
47857000    15.296457   -5222.8822   -5193.3817   -5222.8822            0    2254.7274    19.848281    19.858305    20.709362    8162.6616    2377.7208    2457.2413    1929.2202   -140.10487    124.84118    262.71105   -4924.9699 
47858000    15.636517   -5222.1041   -5191.9477   -5222.1041            0    2243.5656     19.86527    19.852437     20.62714     8134.808     2477.342    2308.7202    1944.6345   -77.479071    10.144571    204.50675    -4925.776 
47859000    14.975926   -5224.0105   -5195.1281   -5224.0105            0    2100.7573    19.867304    19.877245    20.662133    8159.6262    2085.0526    2369.9867    1847.2325   -86.810439    346.51032    189.49892   -4945.1385 
47860000    15.759692    -5221.939   -5191.5451    -5221.939            0      2097.97    19.918141    19.853071    20.606281    8148.4706    2123.5363    1883.1889    2287.1848    -17.81067    147.07611    138.41759   -4942.2285 
47861000    16.013948   -5222.0794   -5191.1952   -5222.0794            0    2210.6312    19.848932    19.912099    20.600943    8142.1908    2387.6025     1853.764    2390.5273   -66.212782    14.639103    36.190519   -4928.6927 
47862000    14.893895   -5222.6804   -5193.9562   -5222.6804            0    2111.3063    19.851605    19.861911    20.668944    8149.5749    2079.4733    2028.7158    2225.7297   -200.66882    431.41213   -1.1945304   -4943.0208 
47863000    14.872339   -5223.6027   -5194.9201   -5223.6027            0    2064.4349    19.879952    19.843955    20.665661    8152.5388    1970.6151     2185.963    2036.7266   -92.107682    516.89727   -62.335391   -4949.4662 
47864000    15.472766   -5221.3802   -5191.5397   -5221.3802            0    2422.1247    19.840066    19.829733    20.641954    8121.0239    2543.0727    2582.0094    2141.2918   -165.71631    102.81343    337.12799    -4904.671 
47865000    15.340462   -5222.9051   -5193.3197   -5222.9051            0    1940.9374    19.901575    19.863342    20.620123    8151.3777    1745.2201    2070.2632    2007.3288   -192.15297    331.11604    426.42872   -4962.5821 
47866000    14.960738     -5223.71   -5194.8569     -5223.71            0    2339.9791    19.863505    19.836029    20.658497    8139.7177    2366.1532    2346.9659    2306.8181   -259.64697    403.60422   -148.95647   -4917.0793 
47867000    14.890371   -5224.7356   -5196.0183   -5224.7356            0    2164.1243    19.895552    19.891304    20.588367    8147.8146    2123.1835    1996.9743    2372.2152   -226.59517    405.81356    123.28782   -4938.8608 
47868000    14.513122   -5221.5843   -5193.5945   -5221.5843            0    2378.1252    19.894303    19.830269    20.578466    8118.3976    2335.6713    2348.4929    2450.2114   -39.281948    476.27126    54.054079    -4912.028 
47869000    15.420827    -5225.295   -5195.5547    -5225.295            0    1857.4408    19.873475    19.919899    20.618385    8162.3572    1861.9595    1448.8441    2261.5189   -145.27875    309.38468     114.7802   -4974.4457 
47870000    15.088352   -5222.5699   -5193.4707   -5222.5699            0    2336.7214    19.878187    19.817491    20.679516    8146.4016    2344.7106    2359.9103    2305.5432   -38.756272    391.83091   -66.460878   -4915.8521 
47871000    14.683644   -5223.6748   -5195.3561   -5223.6748            0    2489.6497      19.8788    19.855708    20.591323    8127.5526    2661.3968    2274.8964    2532.6559   -224.61107    317.36369   -123.49772   -4900.2529 
47872000    15.312859   -5220.2486   -5190.7165   -5220.2486            0    2652.3061    19.948852    19.885581    20.508749     8135.708    2241.9964    2971.4212    2743.5006   -63.570992    379.81381    162.75794   -4876.0179 
47873000     15.15209   -5220.9696   -5191.7475   -5220.9696            0    2388.1523    19.915821    19.868649    20.567584    8138.6026    2082.3582    2654.7284    2427.3704    65.406221    135.81482   -157.25445   -4908.2902 
47874000    14.681567   -5220.6378   -5192.3232   -5220.6378            0    2418.9523    19.937509     19.88406    20.558742    8150.2794    2675.1711     1856.682    2725.0036   -121.96004    494.33572   -39.573739   -4904.7981 
47875000    15.028733   -5219.2839   -5190.2998   -5219.2839            0    2648.3137    19.869219    19.805175    20.633448    8119.5375    2235.1592    3182.6028    2527.1793   -182.97409    481.45962    55.998202   -4876.6994 
47876000    14.574317      -5223.6   -5195.4922      -5223.6            0    2157.2242     19.88615    19.906167    20.570752    8143.0767    2317.3242    1944.4472    2209.9012     9.555574    401.90628    172.26234   -4939.3037 
47877000    15.407912    -5223.256   -5193.5406    -5223.256            0    1972.4226    19.896809    19.834638    20.634037    8143.1401    1860.2196     2093.529    1963.5193   -138.74012    -142.7174    219.13053   -4959.2969 
47878000    15.451293   -5224.5412    -5194.742   -5224.5412            0    2122.2548    19.882527    19.895043    20.582437    8141.6657    1942.0164    2373.4644    2051.2835   -167.78119     413.7479    210.22377   -4942.7501 
47879000    16.226085   -5222.0937   -5190.8003   -5222.0937            0    2054.4552     19.87841    19.840644    20.660827    8148.6396     2347.499    1822.2123    1993.6545   -156.29863    207.13351   -138.65809   -4946.6498 
47880000    14.855289   -5224.0665   -5195.4168   -5224.0665            0    2026.7065     19.90404     19.86867    20.595173    8144.7075    1929.0392    2133.2522     2017.828   -84.234469    347.62824   -35.152959   -4954.6802 
47881000    14.508081   -5224.2346   -5196.2546   -5224.2346            0    2236.3947    19.872359     19.86533    20.629008    8143.7335    2025.8737    2572.4083    2110.9021   -52.075206     702.8343   -6.5076238   -4930.6424 
47882000    16.067814   -5222.9725   -5191.9844   -5222.9725            0    2299.9331    19.904138    19.866653    20.584372    8139.6492    2490.6092    1847.0958    2562.0943   -33.159963    120.01538    240.47346   -4918.9629 
47883000    16.264488   -5223.1963   -5191.8289   -5223.1963            0     2011.015    19.896314    19.785649    20.683016    8142.1069    1603.9133    2552.6257    1876.5059    -12.41025    252.97697    185.21483   -4953.0324 
47884000    14.549092   -5222.3794   -5194.3203   -5222.3794            0     2006.085    19.886048    19.906316    20.588365    8150.0682    2185.5918    1683.3726    2149.2905    17.472158    365.60177   -82.577524   -4955.8762 
47885000    15.007453   -5222.2373   -5193.2942   -5222.2373            0    2289.7307    19.907009    19.856179    20.579791    8134.7206    2013.4787    2172.5224     2683.191   -6.3435393    215.51257    82.067171   -4921.6484 
47886000    15.687642   -5224.0639    -5193.809   -5224.0639            0    1977.2595    19.917651    19.852554    20.621244     8153.975    1786.6677    2149.4221    1995.6885   -78.571281    306.68114    298.13682   -4958.6785 
47887000    14.948821   -5223.1968   -5194.3667   -5223.1968            0    2044.6465    19.896363    19.899982    20.566536    8143.0577    1741.0474    2099.3046    2293.5876    2.9582957   -141.41548   -118.85809   -4951.5483 
47888000    14.963996   -5222.9478   -5194.0885   -5222.9478            0    2248.3806    19.906704    19.855892    20.578905    8134.1282    1961.4917    2486.3131     2297.337   -168.54472    338.67187    -1.744177   -4927.3678 
47889000    14.246173    -5222.932   -5195.4571    -5222.932            0      2306.33     19.91671    19.845248    20.602363    8143.1261    2333.2808    2249.7152    2335.9941   -277.25457    323.43653   -158.07465   -4921.5593 
47890000    15.375971   -5222.3515   -5192.6976   -5222.3515            0    1929.5979    19.905582    19.852786    20.591095    8137.2147    2098.8914    1724.7218    1965.1804   -208.92248    378.95335    341.24141   -4963.7066 
47891000    15.271955   -5223.0325   -5193.5793   -5223.0325            0    2024.3308    19.922511      19.8519    20.610868    8151.5919    2150.3891    1953.2108    1969.3924   -167.03481    215.67495   -152.66309   -4952.9216 
47892000    15.776062   -5223.7027   -5193.2773   -5223.7027            0    2090.3564    19.872324    19.864282    20.603149     8133.082    2121.7485    2151.6975    1997.6231   -149.28243     184.0302    37.717585   -4945.3345 
47893000    15.080421   -5223.6978   -5194.6139   -5223.6978            0    2073.7645    19.939457    19.879949      20.5735    8155.2403    2010.4248    1771.0379    2439.8308   -76.602055     105.4181   -226.27881   -4947.9691 
47894000    15.283782   -5222.3762   -5192.9001   -5222.3762            0    2177.9179     19.87442    19.866726    20.583344    8127.1202    2481.0705     1812.093    2240.5901    65.346344    335.23341   -78.331443   -4934.7609 
47895000    15.214897   -5224.3957   -5195.0525   -5224.3957            0    1848.9214    19.891793    19.927671     20.59167     8162.478     1937.469    1526.9194    2082.3756   -111.94219    657.06485   -131.46279   -4974.9544 
47896000    14.909775   -5224.1101   -5195.3554   -5224.1101            0    2064.6956    19.915184    19.819852    20.672237     8159.663    1805.4494    2285.1887    2103.4486   -292.87641     69.45485    262.13359    -4949.656 
47897000    14.836975   -5225.3484   -5196.7341   -5225.3484            0    2099.8514    19.909237    19.877991    20.610564     8156.747    2107.8859    2151.7899    2039.8785   -18.264006   -97.421759    18.887563   -4946.9404 
47898000    15.273392   -5224.8514   -5195.3954   -5224.8514            0    1869.3037    19.838637    19.863521    20.682504     8150.255    2117.6646    1863.1331    1627.1133    -309.1775    535.88656    177.34313   -4973.2041 
47899000    15.383398    -5221.578   -5191.9098    -5221.578            0    2226.0148    19.930351    19.816011    20.618187     8142.948    1862.4128    2281.0981    2534.5335   -192.92542     -28.8673   -365.00404    -4927.556 
47900000    14.890139   -5223.2495   -5194.5326   -5223.2495            0    2132.2587    19.830072    19.914562    20.668963    8162.3221    2373.7935    1851.0195    2171.9631   -46.414506    317.91927   -152.20636   -4940.7105 
47901000    15.388329   -5220.2449   -5190.5672   -5220.2449            0    2364.6308    19.909983    19.905789    20.549406    8144.2209    2115.7755    2032.9696    2945.1473   -6.9191612    299.53555    519.07785   -4909.7079 
47902000    15.779018   -5222.3165   -5191.8853   -5222.3165            0     2412.684    19.934817    19.838196    20.547366    8125.8832    1999.7724    2490.8755     2747.404   -55.362806    165.86626    44.836783   -4905.9638 
47903000    15.580084   -5222.5676   -5192.5201   -5222.5676            0    2361.0786    19.827593    19.877956    20.637446    8133.8785    2595.3752    2377.2758    2110.5847    -79.35967    131.41163   -200.97256   -4912.4389 
47904000    14.868293   -5222.3741   -5193.6994   -5222.3741            0    2140.4254    19.912567    19.894836    20.607277    8163.7226    2121.2362     2087.192     2212.848    -67.26722    184.03998   -31.050511   -4938.8614 
47905000    15.069533   -5222.9528     -5193.89   -5222.9528            0     2051.489    19.925328    19.817818    20.623808    8143.8577    2217.8565     2109.101    1827.5094   -215.84649     308.0686    17.003256    -4950.235 
47906000    15.283884   -5225.4365   -5195.9602   -5225.4365            0    2112.4079    19.862117    19.888903     20.61761    8144.6924    2335.2206     1588.086    2413.9172   -315.15381   -57.416439    412.75259   -4945.0442 
47907000    15.162085   -5222.6165   -5193.3751   -5222.6165            0    1989.2076    19.890613    19.896316     20.63686    8167.0361    2304.0141    1499.6394    2163.9691   -189.92134    44.185847   -330.86731   -4956.4449 
47908000    14.646845   -5223.3071   -5195.0594   -5223.3071            0    2228.8496    19.884887    19.884149     20.58476    8139.0919    1748.0713    2627.6316    2310.8458   -145.53274    516.63109   -12.008427   -4930.4943 
47909000    14.788481   -5222.5636   -5194.0428   -5222.5636            0    2367.6078    19.845157    19.852944    20.652776    8136.8794     2567.884    2243.3157    2291.6238   -220.19652    551.12472   -162.63031   -4913.0834 
47910000    15.154532   -5222.2542   -5193.0275   -5222.2542            0    2287.1137    19.860022    19.854575    20.673843    8151.9504    2638.7466    2248.3893    1974.2052   -143.07055    323.46503   -276.55409   -4921.1175 
47911000    15.426435   -5224.4393   -5194.6882   -5224.4393            0    2003.6202    19.898159    19.844078    20.633258    8147.2612     2076.551    1738.9243    2195.3853   -15.806132    294.95207   -178.51009   -4956.6191 
47912000    14.255509    -5221.014    -5193.521    -5221.014            0    2114.9935    19.913034    19.830392    20.637056    8149.2282    2131.2917    2056.9285    2156.7603   -116.14518    331.09817    -51.97218    -4942.158 
47913000    15.036591   -5221.9273    -5192.928   -5221.9273            0     2626.275    19.860431    19.893968    20.606904    8141.8446     2692.443      2563.39    2622.9921   -36.102332    593.56151    433.74504   -4881.0829 
47914000    14.992367   -5223.2223   -5194.3083   -5223.2223            0    2543.4441    19.902643    19.805594    20.664194    8145.4878    2135.6927    2847.3632    2647.2762   -228.47654    206.93397    316.35465   -4892.1634 
47915000    15.213276   -5222.8655   -5193.5254   -5222.8655            0    2084.5389    19.892292     19.85373    20.639876    8151.4338    2344.1238    2220.2878    1689.2052   -49.806077    422.06274   -203.07141   -4945.7148 
47916000    15.378769   -5221.9745   -5192.3152   -5221.9745            0    2451.1223    19.855967    19.872304    20.611407    8132.9271    2423.3456    2102.4807    2827.5407   -55.147595     315.7599   -78.691867   -4901.5866 
47917000    15.096565   -5222.1846   -5193.0696   -5222.1846            0    2127.4944    19.890883    19.891306    20.593562    8147.9589    2220.8723    1854.3371    2307.2737   -41.495202    315.56723    319.65115   -4940.2602 
47918000    15.629579   -5220.9779    -5190.835   -5220.9779            0    2169.3533    19.887124    19.842535    20.668403    8155.9782    1813.9626    2766.1212    1927.9761   -95.290041    467.76841    30.565207   -4932.7978 
47919000    16.063242   -5221.5439   -5190.5646   -5221.5439            0    2134.8365    19.929704     19.88338    20.542759    8140.4767     1974.156    2102.9924    2327.3611   -162.12082    9.0134546    100.47461   -4937.1157 
47920000    15.569304   -5223.3851   -5193.3584   -5223.3851            0    2127.9614    19.913951    19.880259    20.579369    8147.2593    1645.9739    2371.1227    2366.7875   -145.37339   -33.831804    397.25768   -4940.5152 
47921000      15.6377   -5222.6674   -5192.5087   -5222.6674            0    2301.7359     19.86776    19.795885    20.715817    8147.5286    2381.1112    2662.9029    1861.1936   -176.88154     108.4772    107.73258   -4919.0088 
47922000    14.741432   -5223.1163   -5194.6862   -5223.1163            0    2212.6446    19.876354    19.832016    20.653083    8141.2011    1707.8339    3010.0068    1920.0931   -77.790978    235.88499   -29.927789   -4931.9766 
47923000    14.598822   -5222.6529   -5194.4978   -5222.6529            0    2219.7771    19.860074    19.878085    20.625291    8142.4572    2650.7493    2000.1033    2008.4787      188.012    54.462483    135.81812   -4930.9007 
47924000    15.495596   -5223.3648   -5193.4802   -5223.3648            0    2511.1667    19.851413    19.874787    20.635482    8141.5767    2622.9929    2395.0149    2515.4924   -201.69857     128.8194    47.222196   -4895.3129 
47925000    14.602263   -5221.4601   -5193.2984   -5221.4601            0    2419.1513    19.919918     19.85205    20.551377    8127.0667    2319.4278    2059.7572    2878.2688   -89.938207    39.174743    401.61699   -4906.5686 
47926000    14.676749   -5223.4982   -5195.1928   -5223.4982            0    2185.0254     19.92535    19.800846    20.651181     8147.692    1657.7956    2663.3442    2233.9365    -57.79837   -47.330274    325.81755   -4935.5556 
47927000    14.921113    -5222.063   -5193.2864    -5222.063            0    2258.7304    19.881777    19.830545     20.65623    8144.0587    2291.1515    2670.7609    1814.2788   -125.64128     524.2213   -65.290443   -4925.0108 
47928000    14.722253   -5222.0641    -5193.671   -5222.0641            0    2076.7818    19.953943    19.814709    20.615784    8151.1016    1938.2897    2252.1754    2039.8805   -67.251073      258.837    69.730483   -4946.7926 
47929000    15.756083   -5221.4197   -5191.0328   -5221.4197            0     2333.056    19.888567    19.851352    20.627875    8144.1933    2442.1131    2066.5377    2490.5173   -57.021952    159.93493   -24.181363   -4913.9247 
47930000    15.805482   -5223.3848   -5192.9026   -5223.3848            0    2172.1976    19.871907    19.873201    20.645575    8153.3176    2455.4018    2085.3034    1975.8875   -95.051559    409.76196     -210.548   -4934.6114 
47931000    14.969901   -5222.7994   -5193.9287   -5222.7994            0     2213.099    19.913993    19.875541    20.579447    8145.3735    2089.1555    2113.2281    2436.9134   -39.941684    143.64212   -398.95149   -4931.0304 
47932000     14.66504   -5220.7087   -5192.4259   -5220.7087            0    2564.1571    19.915841    19.858763    20.560361    8131.7047    2365.6747    2629.3856     2697.411   -123.68843    285.45554   -111.28006   -4888.3359 
47933000    14.803277   -5223.6923   -5195.1429   -5223.6923            0    2529.3042    19.898195    19.821133    20.628847    8136.1153    2374.3998    2697.2339     2516.279   -170.65881    70.152913    349.62625   -4895.0235 
47934000    14.629425   -5223.2818   -5195.0677   -5223.2818            0    2182.8208    19.912889    19.818027    20.665358    8155.2564    1923.1212    2744.7417    1880.5997   -160.04753   -172.97506    -211.4229   -4935.4516 
47935000    15.563671   -5222.1957   -5192.1798   -5222.1957            0    2197.7456    19.858682    19.852837    20.665506       8147.4    2331.4367    2284.5913    1977.2088   -77.794116    84.280973   -84.448834   -4931.0405 
47936000    14.892842   -5222.5253   -5193.8032   -5222.5253            0    2091.6741     19.92301    19.843281    20.626986    8154.6295    1738.0525    2593.5696    1943.4004   -179.57205    479.64916   -41.133367   -4945.0469 
47937000    14.950602   -5223.0216   -5194.1881   -5223.0216            0    2150.6869    19.933711    19.832163    20.592774    8140.9124    1912.5177    2372.8808    2166.6622   -266.06002    705.96512   -63.616505   -4938.8438 
47938000    15.602511   -5222.9228   -5192.8321   -5222.9228            0    2339.5899    19.905954    19.878906      20.5611    8136.2039    2009.2981    2515.5697    2493.9019   -30.611262      541.445   -78.743342   -4915.2206 
47939000    14.521921   -5223.5495   -5195.5428   -5223.5495            0    2147.1759    19.871664    19.856463    20.651014    8148.4972    2298.8786    1994.9241     2147.725    32.694624    444.01845    116.35669   -4940.3778 
47940000    15.678884   -5220.7669   -5190.5288   -5220.7669            0    2228.3935    19.902745    19.890402    20.569941    8143.0965    2104.8856    2211.5798     2368.715    122.53012    399.67494    209.82332   -4925.8877 
47941000     15.57202    -5223.506    -5193.474    -5223.506            0    2197.5992     19.85891    19.897351    20.612109    8144.6626    2782.1543    1714.0433       2096.6   -11.014241    449.25559    213.02855   -4932.4398 
47942000    16.086782   -5223.0984   -5192.0737   -5223.0984            0    2189.7917    19.877413    19.869567    20.592736    8133.2162    2386.5599    1913.8701    2268.9451   -196.75524   -19.834905   -35.357669   -4932.3324 
47943000    15.090816   -5221.3845   -5192.2806   -5221.3845            0    2188.5926    19.962705    19.845132    20.550144    8141.1967    2080.9593    2094.6038    2390.2146    6.9850608    228.39451   -176.37561   -4932.4268 
47944000    15.778302   -5222.3407   -5191.9109   -5222.3407            0    2176.4406    19.942024    19.850573     20.57997    8146.7994    2211.8828    1944.4617    2372.9774   -142.21828    164.92409   -48.952802   -4933.3221 
47945000    15.090673   -5222.1365   -5193.0329   -5222.1365            0    2094.5494    19.926465     19.83634    20.632873    8155.5171    2322.8709    1952.8648    2007.9126    -137.1002     319.9359   -349.35428   -4943.9075 
47946000    15.252762   -5223.8706   -5194.4543   -5223.8706            0     1912.742    19.902785    19.850494    20.641328    8154.9778    1752.0695    2040.9238    1945.2325   -121.12514    133.48674     384.6167   -4966.9681 
47947000    15.291196   -5222.2961   -5192.8057   -5222.2961            0    2182.6466    19.915638    19.814548    20.610019    8133.1126    2277.1346    2263.0622    2007.7429   -136.50149    546.16534    47.980687   -4933.9152 
47948000    14.878376   -5221.5198   -5192.8256   -5221.5198            0    2304.3776    19.892228    19.866351    20.630253    8152.7869    2497.4592    2047.3148    2368.3586   -143.82382    164.69709   -54.276349    -4918.835 
47949000    15.008255    -5219.713   -5190.7683    -5219.713            0    2551.7058     19.89535    19.812368    20.590272    8116.1496    2356.4188    2967.6846    2331.0139   -19.327597    389.35687   -164.84672   -4888.7338 
47950000    14.676296   -5222.1538   -5193.8494   -5222.1538            0    2319.3101    19.889718    19.892232    20.569606    8138.3831    2117.2014    2337.0178     2503.711   -54.055472    391.41733    -77.48213   -4918.5705 
47951000     15.14873   -5222.5013   -5193.2857   -5222.5013            0    2395.5258    19.897257    19.862639    20.591657    8138.0703    2168.2416    2353.8158      2664.52   -38.901429    459.11517   -66.992035   -4908.9718 
47952000    15.154576   -5221.8288   -5192.6019   -5221.8288            0    2306.1222    19.915239    19.908417    20.570765    8155.9152    1909.9494    2485.4484    2522.9687   -72.121822    276.42802     211.0147   -4918.2987 
47953000    14.749433    -5222.657   -5194.2114    -5222.657            0    2276.5336    19.876274    19.822579    20.637323    8131.0849    1971.2004    2431.7155    2426.6849   -201.48819    343.47489    471.29423    -4924.252 
47954000    15.063268   -5223.9417   -5194.8909   -5223.9417            0    2197.6199     19.81385    19.954177    20.610619    8148.8012    2582.3842    1676.9385    2333.5369    223.80249    172.64878    35.416935   -4933.7216 
47955000    14.877849    -5223.174   -5194.4809    -5223.174            0    2264.8588    19.891977    19.821659    20.625592    8132.5058    1874.7957    2778.5721    2141.2087   -279.03634     353.9819   -122.69561    -4925.859 
47956000    14.702674   -5224.2069   -5195.8516   -5224.2069            0      2173.29    19.890053    19.893149    20.588339    8146.3075    1810.7907    2079.6783     2629.401   -46.214948    102.01878   -28.374271   -4937.6527 
47957000    14.798412   -5221.4725   -5192.9325   -5221.4725            0    2215.8731     19.90942     19.88259    20.575188    8144.7052    2203.0692    2194.1927    2250.3573   -186.35927    21.916678    230.61225   -4929.7263 
47958000    15.827608   -5222.8551   -5192.3302   -5222.8551            0    2107.5282    19.887508    19.879486     20.55615    8126.9447    2054.6988    2042.9692    2224.9164    -162.2226    294.18087    97.911212   -4942.5393 
47959000    14.917523   -5222.5057    -5193.736   -5222.5057            0     2020.502    19.914099    19.842502    20.625772    8150.1818    1952.5385    2124.5656    1984.4019   -80.945552    502.34716   0.79417259   -4953.5751 
47960000    16.412259   -5224.1117   -5192.4593   -5224.1117            0    1863.9335    19.920449    19.833828    20.680027    8170.6533     1901.606    2151.8446      1538.35   -35.797747    217.46594    319.34226   -4970.3518 
47961000    15.525173   -5223.3944   -5193.4528   -5223.3944            0    2206.2873    19.918157    19.829005    20.615424     8142.211    1968.6764    2332.7212    2317.4644    -223.6379   -60.928167     111.6918   -4931.4654 
47962000    15.225438   -5222.1069   -5192.7433   -5222.1069            0    2292.8576    19.885685    19.833772    20.641524    8141.1848    2190.9396    2588.6556    2098.9776   -198.94725   -81.083623    14.319832   -4920.5104 
47963000    16.514169   -5224.1752   -5192.3262   -5224.1752            0    1990.4239    19.926756    19.855665    20.565386    8136.8798    1774.5215     2001.012    2195.7382   -121.05161    122.89464    269.97804   -4956.1265 
47964000    15.643355   -5223.1726   -5193.0031   -5223.1726            0    2144.4059    19.895225    19.917661    20.562074    8148.0579    1918.0805    2048.7404    2466.3967   -284.88181    124.09242    -210.7364   -4938.1811 
47965000    14.443681   -5223.5278   -5195.6719   -5223.5278            0    2389.4811    19.868261    19.827416    20.668951    8142.2495    2504.2022      2080.71    2583.5313   -131.13964    21.689588   -204.07831   -4911.9298 
47966000    15.103454   -5223.9517   -5194.8234   -5223.9517            0     2154.677    19.881818    19.905828    20.586822    8147.5243     2648.979    1387.9759    2427.0762   -131.42812    498.76798   -386.05799   -4938.7976 
47967000    14.378857   -5222.7345   -5195.0036   -5222.7345            0     2332.738    19.899272    19.848307    20.611059    8140.6856    2195.2377    2465.9476    2337.0285   -122.50613    613.23392    119.90034   -4918.0527 
47968000    15.033595   -5222.2658   -5193.2722   -5222.2658            0    2154.3728    19.887366    19.881817    20.618741     8152.588    2408.8264    2002.4411    2051.8508   -28.160156    67.420447    -227.6467   -4937.1235 
47969000    15.327255    -5222.964   -5193.4041    -5222.964            0    2127.0891    19.893059     19.87925    20.595505    8144.6795    1874.6827    2277.8206     2228.764   -100.60395    23.948291   -270.62227   -4940.7446 
47970000    14.971618   -5223.4763   -5194.6023   -5223.4763            0    2137.0752    19.950072    19.872303    20.557142    8149.9586    1738.8334    2192.2826    2480.1096   -58.288957    388.75215    104.04922   -4940.5921 
47971000    15.308263   -5223.5256   -5194.0023   -5223.5256            0    2074.4919     19.87269    19.880967    20.611298    8143.2825    2302.4925    1804.3482     2116.635   -159.64349    361.02451    140.26028   -4947.6327 
47972000    14.692991   -5223.4507    -5195.114   -5223.4507            0    2359.9751     19.86307    19.854393    20.633417    8137.1838    2497.5532    2440.0063    2142.3659    14.478777     459.9257     176.9705   -4915.0499 
47973000    14.460189   -5222.0004   -5194.1127   -5222.0004            0    2308.6622    19.795779    19.885063    20.648305     8128.005      2884.45    2269.2423    1772.2942    53.424475    243.50501   -73.156018    -4920.447 
47974000    15.190171   -5222.8837   -5193.5882   -5222.8837            0    2666.2214    19.893023    19.870056    20.588333    8138.0635    2692.0977    2444.0286     2862.538   -177.65297    29.133528   -81.190639   -4877.1469 
47975000    14.908916   -5223.1234   -5194.3704   -5223.1234            0    2220.2827    19.900522    19.886988    20.556576       8135.5     2165.934     2077.638     2417.276    12.446148    390.38366   -211.93105   -4930.9384 
47976000    15.315377   -5223.4945   -5193.9575   -5223.4945            0    2256.4851    19.916447    19.875675    20.574346    8144.4133    2516.7477    1806.0417    2446.6661   -124.29718    34.199058    37.408912   -4925.9369 
47977000    16.463866   -5221.1582   -5189.4062   -5221.1582            0    2112.6226    19.825122    19.879879    20.690942    8154.7351    2228.7068    2322.2584    1786.9025    42.503361    384.58138    168.48081   -4938.1553 
47978000    14.691233   -5220.0873   -5191.7541   -5220.0873            0    2490.5377    19.856667    19.887492    20.605005    8136.9025    2551.8811    2405.3637    2514.3682    -179.1539    148.08921   -51.976603    -4896.206 
47979000    15.783018   -5221.7898   -5191.3509   -5221.7898            0    2108.5825     19.88965    19.847851    20.643794    8149.4848    2186.1067    2126.1906    2013.4502   -325.59755   -35.283822   -44.815431   -4940.7419 
47980000    15.841055   -5222.4449   -5191.8941   -5222.4449            0    2130.5881    19.875034    19.869878    20.609416    8138.9573    2434.3893    2109.1452    1848.2298   -222.60057    232.83844    176.26391   -4938.9968 
47981000    15.433092   -5221.9162   -5192.1522   -5221.9162            0    2230.9692    19.871929    19.841337    20.661277    8146.4451    2107.3474    2319.6234    2265.9367   -65.198285    170.54267   -1.9872805   -4927.0963 
47982000    15.213994   -5222.8436   -5193.5021   -5222.8436            0    2528.0112    19.889192    19.831425    20.659638    8148.8022    2198.1508    2850.1114    2535.7715    14.210684   -275.25547   -120.04837   -4893.0684 
47983000    14.749093   -5221.9089    -5193.464   -5221.9089            0    2291.3729     19.88606    19.855546    20.609523    8137.6411    2270.2839    1925.1177     2678.717   -89.696657    231.20189   -283.17002   -4921.5259 
47984000    15.206741   -5221.4154   -5192.0879   -5221.4154            0    2240.3909    19.929693    19.853415    20.602166    8151.7097    1886.4762     2709.059    2125.6374   -147.04687    422.13524    224.85438   -4925.7405 
47985000    14.609224   -5223.1154   -5194.9403   -5223.1154            0    2088.7611     19.87093    19.855309    20.651576    8147.9446    2211.4659    2059.0699    1995.7474    96.952017     262.9577   -173.65091   -4946.7341 
47986000    14.414551    -5221.991   -5194.1913    -5221.991            0    2272.3001    19.851985    19.869079    20.632013     8138.105    2568.8733    1946.7715    2301.2555   -210.94608   -230.36384    79.201959   -4924.5013 
47987000    15.327108    -5222.807   -5193.2474    -5222.807            0    2290.1973    19.861564    19.926251    20.534383     8126.821    2344.9969    1930.4229     2595.172   -241.74181    184.72669     52.96236   -4921.8101 
47988000    15.091877   -5220.6926   -5191.5866   -5220.6926            0    2625.7217    19.872116    19.857132    20.613448    8134.1331    2740.2494    2499.3223    2637.5934    121.96222     204.2904    83.635026   -4880.1026 
47989000    14.973059   -5223.6304   -5194.7536   -5223.6304            0    1941.8206    19.909235    19.901707    20.590019    8158.3371    1593.1108    1860.1572    2372.1938   -16.815594   -94.327062   -137.43427   -4963.7139 
47990000    15.604381   -5221.8723   -5191.7779   -5221.8723            0    2161.3658    19.913606    19.848205    20.583244    8135.5135    1816.4608    2385.7679    2281.8687   -72.263224    10.871305    264.24189   -4935.3359 
47991000    14.242037   -5222.7179   -5195.2509   -5222.7179            0    2077.6699    19.868107    19.881725    20.614128    8142.8332     2240.849    1763.6143    2228.5464   -73.288563    388.78061     23.29822   -4948.5175 
47992000    15.462398   -5222.9193   -5193.0988   -5222.9193            0    2437.7647    19.915657    19.824437    20.605825    8135.5239     2228.984    2915.3099    2169.0002   -329.43304   -140.09459     -79.0676   -4903.8622 
47993000    15.267544   -5222.0085   -5192.5638   -5222.0085            0    2242.1268    19.885163    19.883733     20.58592    8139.4927    2152.6976    2025.0876    2548.5951   -145.72172    182.87046     8.508705   -4926.4096 
47994000    15.569428   -5223.2772   -5193.2502   -5223.2772            0    2064.1054     19.87059    19.856479    20.649285    8147.3811    2466.8619     2114.811    1610.6432   -118.00028    367.22519    170.16103   -4947.9907 
47995000    15.772196    -5221.741    -5191.323    -5221.741            0    2218.9718    19.888366    19.860726     20.61435    8142.6146     1916.954    2269.9471    2470.0143   -151.46028     226.8661   -84.342143   -4927.8164 
47996000    15.432635   -5222.4332   -5192.6701   -5222.4332            0    2337.8735    19.838394    19.902504    20.615236      8139.59    2482.1715    2179.2383    2352.2106   -91.640104    614.37447    202.92353   -4915.1468 
47997000     14.95212   -5220.7976   -5191.9612   -5220.7976            0    2517.1866    19.873434    19.859489    20.557058    8113.3822    2653.2091    2113.6079    2784.7429   -21.686613    317.82266   -32.215509   -4894.1142 
47998000    15.112616   -5220.0839   -5190.9379   -5220.0839            0    2431.6484    19.901239     19.83214     20.63583    8144.6353    2520.6401    2231.5169    2542.7881   -122.74505    445.04868    12.265305   -4902.1039 
47999000    14.459625   -5221.7945   -5193.9079   -5221.7945            0     2347.742    19.863145    19.844189    20.643933     8137.178    2047.2963    2658.9197      2337.01    -157.6526    237.03612    31.783331   -4915.2957 
48000000    16.312245   -5222.1522   -5190.6927   -5222.1522            0     2258.924    19.929114    19.841779    20.620718    8154.0315    2300.8836    2073.5234    2402.3649    27.377453    2.9243351    189.32712   -4922.0656 
Loop time of 362.496 on 64 procs for 250000 steps with 972 atoms

Performance: 119.174 ns/day, 0.201 hours/ns, 689.663 timesteps/s
194.7% CPU use with 32 MPI tasks x 2 OpenMP threads

MPI task timing breakdown:
Section |  min time  |  avg time  |  max time  |%varavg| %total
---------------------------------------------------------------
Pair    | 24.925     | 33.918     | 41.641     |  77.0 |  9.36
Bond    | 1.0503     | 1.2364     | 1.7107     |  13.2 |  0.34
Kspace  | 160.02     | 167.23     | 176.59     |  34.0 | 46.13
Neigh   | 0.11852    | 0.12315    | 0.12885    |   0.8 |  0.03
Comm    | 67.053     | 69.715     | 72.355     |  16.2 | 19.23
Output  | 0.48129    | 0.48167    | 0.48311    |   0.0 |  0.13
Modify  | 72.639     | 74.444     | 76.54      |  11.4 | 20.54
Other   |            | 15.35      |            |       |  4.23

Nlocal:        30.3750 ave          36 max          22 min
Histogram: 1 1 3 3 1 8 2 6 3 4
Nghost:        2682.72 ave        2709 max        2663 min
Histogram: 4 3 5 4 2 7 3 1 1 2
Neighs:        9670.62 ave       12270 max        6568 min
Histogram: 2 1 2 4 5 4 4 6 1 3

Total # of neighbors = 309460
Ave neighs/atom = 318.37449
Ave special neighs/atom = 2.0000000
Neighbor list builds = 250
Dangerous builds = 0

unfix		3
unfix		2
unfix		1

write_data	data.final.${pid}
write_data	data.final.1
System init for write_data ...
PPPM initialization ...
  extracting TIP4P info from pair style
  using 12-bit tables for long-range coulomb (../kspace.cpp:340)
  G vector (1/distance) = 0.37175186
  grid = 24 24 24
  stencil order = 5
  estimated absolute RMS force accuracy = 0.0035652185
  estimated relative force accuracy = 1.073655e-05
  using double precision FFTW3
  3d grid and FFT values/proc = 3211 432
Last active /omp style is kspace_style pppm/tip4p/omp
WARNING: Not all mixed pair coeffs generated from mixing. Use write_data with 'pair ij' option to store all pair coeffs. (../write_data.cpp:312)

write_restart   restart.lmp.${pid}
write_restart   restart.lmp.1
System init for write_restart ...
PPPM initialization ...
  extracting TIP4P info from pair style
  using 12-bit tables for long-range coulomb (../kspace.cpp:340)
  G vector (1/distance) = 0.37175186
  grid = 24 24 24
  stencil order = 5
  estimated absolute RMS force accuracy = 0.0035652185
  estimated relative force accuracy = 1.073655e-05
  using double precision FFTW3
  3d grid and FFT values/proc = 3211 432
Last active /omp style is kspace_style pppm/tip4p/omp
Total wall time: 0:06:02
