LAMMPS (30 Jul 2021)
  using 1 OpenMP thread(s) per MPI task
package omp 0
using multi-threaded neighbor list subroutines
echo both

include		in.partitions
variable        pid world 0
include		in.temp
variable        temperature equal 263.36
variable	tempDamp equal 100.0
include		in.pressure
variable        pressure equal 4375.0
variable        pressureDamp equal 1000.0 # This is 1 ps
include		in.seed
variable        seed world 745823

units		real
atom_style	full

read_restart	restart.lmp.${pid}
read_restart	restart.lmp.0
Reading restart file ...
  restart file = 30 Jul 2021, LAMMPS = 30 Jul 2021
  restoring atom style full from restart
  orthogonal box = (-0.089844524 0.062339617 -0.089255798) to (20.089846 19.937661 20.789254)
  4 by 4 by 4 MPI processor grid
  restoring pair style lj/cut/tip4p/long/omp from restart
  restoring bond style harmonic/omp from restart
  restoring angle style harmonic/omp from restart
  972 atoms
  648 bonds
  324 angles
Finding 1-2 1-3 1-4 neighbors ...
  special bond factors lj:    0        0        0       
  special bond factors coul:  0        0        0       
     2 = max # of 1-2 neighbors
     1 = max # of 1-3 neighbors
     1 = max # of 1-4 neighbors
     2 = max # of special neighbors
  special bonds CPU = 0.553 seconds
  read_restart CPU = 0.748 seconds
include 	in.setup
variable	out_freq equal 1000
variable	out_freq2 equal 10000
variable	out_freq3 equal 1000

timestep	2.0

neigh_modify    delay 7 every 1

include		in.tip4p
# This is TIP4P/Ice

# create groups ###
group ox type 2
324 atoms in group ox
group hy type 1
648 atoms in group hy

# set charges - beside manually ###
set group ox charge -1.1794
Setting atom values ...
  324 settings made for charge
set group hy charge 0.5897
Setting atom values ...
  648 settings made for charge

# ### TIP3P Potential Parameters ###
pair_style lj/cut/tip4p/long/omp 2 1 1 1 0.1577 8.5
pair_coeff 1 1*2 0.000 0.000
pair_coeff 2 2 0.21084 3.1668
bond_style  harmonic
bond_coeff  1 450 0.9572
angle_style harmonic
angle_coeff 1 55 104.52
kspace_style pppm/tip4p/omp 1.0e-5
pair_modify tail yes

thermo          ${out_freq}
thermo          1000
thermo_style    custom step temp pe etotal epair emol press lx ly lz vol pxx pyy pzz pxy pxz pyz enthalpy

restart 	${out_freq3} restart.lmp.${pid} restart2.lmp.${pid}
restart 	1000 restart.lmp.${pid} restart2.lmp.${pid}
restart 	1000 restart.lmp.0 restart2.lmp.${pid}
restart 	1000 restart.lmp.0 restart2.lmp.0


include         in.dump
dump            myDump all atom ${out_freq2} dump.water.${pid}
dump            myDump all atom 10000 dump.water.${pid}
dump            myDump all atom 10000 dump.water.0
dump            myDump2 all dcd ${out_freq2} dump.dcd
dump            myDump2 all dcd 10000 dump.dcd
dump_modify     myDump append yes
dump_modify     myDump2 append yes


variable natoms 	equal  "count(all)"                        # NUMBER ATOMS
variable H      	equal  "enthalpy/v_natoms"                 # ENTHALPY-per-atom
variable Vol      	equal  "vol/v_natoms"                 # volume-per-atom
fix AVG all 		ave/time ${out_freq} 1 ${out_freq} v_Vol v_H file vol_enthalpy.dat
fix AVG all 		ave/time 1000 1 ${out_freq} v_Vol v_H file vol_enthalpy.dat
fix AVG all 		ave/time 1000 1 1000 v_Vol v_H file vol_enthalpy.dat


timer           timeout 02:55:00 every 1000
New timer settings: style=normal  mode=nosync  timeout=02:55:00

fix 		1 all shake 1e-6 200 0 b 1 a 1
       0 = # of size 2 clusters
       0 = # of size 3 clusters
       0 = # of size 4 clusters
     324 = # of frozen angles
  find clusters CPU = 0.064 seconds
fix             2 all nph aniso ${pressure} ${pressure} ${pressureDamp}
fix             2 all nph aniso 4375 ${pressure} ${pressureDamp}
fix             2 all nph aniso 4375 4375 ${pressureDamp}
fix             2 all nph aniso 4375 4375 1000
fix             3 all temp/csvr ${temperature} ${temperature} ${tempDamp} ${seed}
fix             3 all temp/csvr 263.36 ${temperature} ${tempDamp} ${seed}
fix             3 all temp/csvr 263.36 263.36 ${tempDamp} ${seed}
fix             3 all temp/csvr 263.36 263.36 100 ${seed}
fix             3 all temp/csvr 263.36 263.36 100 745823


run             250000
PPPM initialization ...
  extracting TIP4P info from pair style
  using 12-bit tables for long-range coulomb (../kspace.cpp:340)
  G vector (1/distance) = 0.37220823
  grid = 24 24 25
  stencil order = 5
  estimated absolute RMS force accuracy = 0.0034325516
  estimated relative force accuracy = 1.0337027e-05
  using double precision FFTW3
  3d grid and FFT values/proc = 2366 288
Last active /omp style is kspace_style pppm/tip4p/omp
Neighbor list info ...
  update every 1 steps, delay 7 steps, check yes
  max neighbors/atom: 2000, page size: 100000
  master list distance cutoff = 10.8154
  ghost atom cutoff = 10.8154
  binsize = 5.4077, bins = 4 4 4
  1 neighbor lists, perpetual/occasional/extra = 1 0 0
  (1) pair lj/cut/tip4p/long/omp, perpetual
      attributes: half, newton on, omp
      pair build: half/bin/newton/omp
      stencil: half/bin/3d
      bin: standard
Per MPI rank memory allocation (min/avg/max) = 9.227 | 9.231 | 9.237 Mbytes
Step Temp PotEng TotEng E_pair E_mol Press Lx Ly Lz Volume Pxx Pyy Pzz Pxy Pxz Pyz Enthalpy 
 1500000    268.87294   -4655.0023   -4136.4582   -4655.0023            0    4125.7832     20.17969    19.875322     20.87851    8373.9074    3330.9417    5053.1931    3993.2147    285.90865     1848.617   -38.260915   -3632.5975 
 1501000    264.70105   -4692.5308   -4182.0326   -4692.5308            0    4310.2189    19.856106    20.048849    20.842203    8297.1161    5200.9528    3245.5788    4484.1251   -952.75056   -454.03337    -200.1018   -3660.4749 
 1502000    265.66988   -4670.4203   -4158.0536   -4670.4203            0    6484.6911    19.924445    19.847814    20.913238      8270.28    6252.9452    7102.8821    6098.2459   -85.997549   -371.25549    1967.4948    -3375.912 
 1503000    271.63979   -4714.3697   -4190.4895   -4714.3697            0    2602.1077    20.235073    20.012431    20.725065    8392.6774    2373.5081    2331.9238    3100.8913   -271.77591   -68.270486   -47.441987   -3871.9952 
 1504000    245.68422   -4687.4031   -4213.5804   -4687.4031            0    3595.9918    19.948866    20.185314    20.661126    8319.7009    3908.4294    2841.8871    4037.6588     635.8672    162.18811    900.94452   -3777.2632 
 1505000    263.67826   -4688.7981   -4180.2724   -4688.7981            0    1924.1492    20.058742    20.006511    20.955805    8409.6788     3793.903    348.75905    1629.7855    590.71754    1057.5208   -234.03931   -3944.2822 
 1506000    272.86823   -4671.8203    -4145.571   -4671.8203            0    5498.5528    19.849322    20.007696    20.829753    8272.3115    4890.8715    6302.9154    5301.8715   -251.00698   -1631.2171    1464.2332   -3482.2081 
 1507000    260.33433   -4657.5051   -4155.4285   -4657.5051            0    7067.2306    20.177359     19.71463    20.605663    8196.7094     5448.249    8480.3904    7273.0525    375.21214    225.50249   -456.24714   -3310.6075 
 1508000    267.71583   -4664.1012   -4147.7887   -4664.1012            0     5382.058    20.046005    20.041515    20.648006    8295.3839    3790.2412    6430.3407    5925.5922   -732.56956    132.68906   -596.26759   -3496.6691 
 1509000    267.76152   -4646.7092   -4130.3086   -4646.7092            0    5675.5101    20.169036    20.130944    20.455194    8305.2532    3571.5942    7025.8588    6429.0772   -1603.1441    624.51291   -603.19454   -3442.8704 
 1510000    283.63796   -4684.5955   -4137.5759   -4684.5955            0     5052.969    20.176907    19.922902    20.796587    8359.8651    2349.3522    7878.5651    4930.9896    267.62777    664.60059    694.85089   -3521.5176 
 1511000    258.57889   -4676.9023   -4178.2112   -4676.9023            0    2969.4315    19.987595    20.001479    21.021565    8404.0319    2453.9688    3135.4167    3318.9091    15.694135   -963.89567    524.13387   -3814.2652 
 1512000    268.56893   -4637.8289   -4119.8711   -4637.8289            0    3801.0272    20.230062    19.962614    20.655016    8341.4237    2408.3912    4060.6272    4934.0633   -564.43835    767.08891    -350.1967    -3657.472 
 1513000    276.45466   -4654.3127   -4121.1467   -4654.3127            0    4138.7392    20.309562    19.995976    20.537046    8340.2899    2219.6236    5938.9806    4257.6133   -632.06645   -27.160127   -1513.3991   -3617.7329 
 1514000     256.5551    -4671.691    -4176.903    -4671.691            0    5061.1972    19.960706     20.01526    20.794491    8307.7882    5485.8883    5211.3734    4486.3299    -521.6112   -68.327805   -267.80659   -3563.6854 
 1515000    269.92989   -4687.7484   -4167.1659   -4687.7484            0    4751.5656    19.972181    19.893624    20.990478    8339.9168    3821.5951    6122.4141    4310.6876   -473.39549    1675.7629    913.35613   -3589.2371 
 1516000    265.63967   -4684.4298   -4172.1213   -4684.4298            0    2695.5737    20.286014    19.825632    20.953987    8427.3387    2893.9364    2255.4198    2937.3649   -831.94194    909.97905   -1512.9959   -3840.8243 
 1517000    267.79417   -4694.0244   -4177.5608   -4694.0244            0    4143.2099    20.046229    20.263972    20.661151     8392.895     6902.624    2707.4632    2819.5425   -836.62571    296.11536   -169.49254   -3670.4246 
 1518000    252.80535   -4694.6478   -4207.0914   -4694.6478            0    3743.4785    20.086951    20.133498    20.727348    8382.5663    2145.2683    5487.4448    3597.7224    743.70634    909.23304    69.900814   -3749.4469 
 1519000    246.15913   -4659.6769   -4184.9383   -4659.6769            0     3703.648    20.006717    20.005129    21.010075    8409.0082    3515.1197    4266.0874     3329.737    203.80402    634.74082    1185.0255   -3730.7349 
 1520000    268.96941   -4701.9887   -4183.2586   -4701.9887            0    4105.1659     20.08328     19.96431     20.79644    8338.3083    4273.2043    4401.6021    3640.6913   -41.659882    1006.5143    48.062195   -3684.0471 
 1521000    259.32555   -4712.7927   -4212.6616   -4712.7927            0    4345.3541    20.076926    20.208488    20.732733     8411.774    5790.1514    2996.8496    4249.0614    881.38429   -618.94311    482.52066   -3679.5862 
 1522000    256.07523   -4655.1682   -4161.3056   -4655.1682            0    6283.9701     19.88653    20.097194    20.586849    8227.8113     7469.038    5255.1739    6127.6984   -36.269637    1224.5522   -84.207634   -3407.2657 
 1523000    257.36917   -4703.3203   -4206.9622   -4703.3203            0    3375.3515    20.110031     19.98663    20.849094    8379.9128     4508.697    2668.5924    2948.7651   -244.26754    1377.0043    -1039.484   -3794.4523 
 1524000    274.92201   -4656.9673   -4126.7571   -4656.9673            0    3676.8444    20.060692    20.132541    20.909467    8444.7627     2793.088    3196.8596    5040.5857    176.36898   -1081.3155   -193.52921   -3673.9236 
 1525000    274.93515   -4666.6306    -4136.395   -4666.6306            0    4860.9314    19.982077    20.143115    20.706853    8334.5346     4952.896    3990.0602     5639.838   -955.75392    935.45979   -783.37011   -3545.5457 
 1526000    272.21187   -4666.2776   -4141.2942   -4666.2776            0    4026.4937    20.112139    19.800014    21.071422    8391.0752    3556.9527    4203.6161    4318.9124    237.87737    1533.2438   -592.14741   -3648.5511 
 1527000    261.21805   -4631.8849   -4128.1039   -4631.8849            0    5536.9649    20.065383    19.980246    20.802133    8339.8101     4352.166    6165.7638     6092.965    820.84401    1923.4023    1884.2413   -3454.6563 
 1528000    259.00829   -4689.6099   -4190.0906   -4689.6099            0    2984.8552    20.205611    20.002448    20.978134    8478.5578    2445.8173    4219.4332    2289.3153   -180.27004    1480.8646    804.85657   -3821.0101 
 1529000    272.19875   -4690.4368   -4165.4786   -4690.4368            0    4312.7295    20.383587    19.761318    20.752898    8359.4034    2321.2843    6548.5207    4068.3836    105.67385    128.89827   -16.194524   -3639.6995 
 1530000    266.77957   -4669.7268   -4155.2199   -4669.7268            0    3987.7452    20.254253    19.996525    20.780493    8416.4046    2580.4127    4785.8964    4596.9265   -462.70215   -259.10314    457.40392   -3665.7456 
 1531000    272.32465   -4667.4884   -4142.2875   -4667.4884            0       1390.1    20.096938    20.253882    20.935433    8521.5799    1656.7927    1744.9078    768.59952    36.448105    404.98625    398.21587   -3969.5279 
 1532000    269.89767   -4675.3092   -4154.7888   -4675.3092            0    4871.3343     20.00054    20.024776    20.816658     8337.203    6459.3023    3956.6097    4198.0909   -498.98699    440.56571    461.25681   -3562.4854 
 1533000    263.51783   -4670.4872   -4162.2709   -4670.4872            0    4600.3082    19.916827    19.957808    20.993528    8344.8476    6446.6853    4917.9657    2436.2735   -280.34578    499.54016    437.14928   -3602.4086 
 1534000    266.15672   -4698.6791   -4185.3735   -4698.6791            0    5446.9675    20.065249    19.914253    20.747848    8290.5176    6672.0983    3832.0982    5836.7061   -921.65555   -1616.7805    851.86965   -3526.7877 
 1535000    254.87675   -4714.8911   -4223.3399   -4714.8911            0    3431.4507    20.107146    20.137517    20.638975    8356.8861    3517.9764    2572.6918    4203.6838   -218.28318   -4.4460361    1561.5507   -3805.1263 
 1536000    247.06746    -4679.171   -4202.6806    -4679.171            0    4030.9326    20.050794    19.888128    20.933074    8347.5399     3253.408    4954.7759    3884.6141        282.3    735.87847    677.90574   -3711.9536 
 1537000    256.18085   -4679.1699   -4185.1036   -4679.1699            0    2671.5646    19.980553    19.950762    21.055037    8393.1118    3744.7849    2902.9744    1366.9344    252.87112   -156.53808   -211.23949    -3858.091 
 1538000    263.09594   -4657.2323   -4149.8296   -4657.2323            0    5720.0559    19.876082     20.08224    20.931172    8354.8081    5512.8352    5979.6811    5667.6512   -9.6334435    1482.6417   -1185.5631    -3452.862 
 1539000    254.40724   -4686.1575   -4195.5118   -4686.1575            0    6341.8952    20.028891    19.985237    20.667923    8273.0001    6993.0227    5434.0558    6598.6071    -280.8916    1325.8415   -506.78063   -3430.3417 
 1540000    260.77506   -4689.0125   -4186.0858   -4689.0125            0    4019.3865    20.005985    20.098055    20.819977    8371.3253    5564.2121    3226.8339    3267.1135   -354.47026   -188.00002   -982.76323   -3695.3702 
 1541000    253.56068   -4663.3833   -4174.3702   -4663.3833            0    3701.9702    20.174017    19.945555    20.992805    8447.1264    3658.3191    3458.2991    3989.2925   -578.25017    297.61805    304.72099   -3718.3146 
 1542000    274.11676   -4703.6452    -4174.988   -4703.6452            0    5173.7842    19.747239    20.202841    20.756286     8280.727     4959.542     4592.537    5969.2737   -367.29581    2239.2185     1527.578   -3550.1712 
 1543000    261.03805   -4648.8032   -4145.3694   -4648.8032            0    5118.8354    20.073911    20.028576    20.676128    8312.8755    7296.1956     4212.045    3848.2656   -822.62562    1396.7058    118.23054   -3524.7886 
 1544000    253.10613   -4699.4854   -4211.3489   -4699.4854            0    5602.6036    20.014538    20.115462    20.647123    8312.5666    7407.8527    3639.8932     5760.065    157.85728    836.74068   -423.86016   -3532.1438 
 1545000    263.09746   -4709.8225   -4202.4169   -4709.8225            0    3582.3886     20.00978    20.220608    20.770785    8404.0659    3813.6179    1878.3852    5055.1627    996.59367   -607.21254   -907.57632   -3763.3426 
 1546000    252.89991   -4686.1622   -4198.4234   -4686.1622            0    3785.9805    19.983915    19.816595    21.234658    8409.2042    3993.1521    5391.6783    1973.1111   -552.78918     133.4859    -449.8577   -3734.1122 
 1547000    268.89567   -4692.7883   -4174.2004   -4692.7883            0    5085.7541    20.106336    19.800937    20.922361    8329.6998     3648.637    7179.0896    4429.5358   -792.69357    634.56755    432.47221   -3556.3823 
 1548000    249.04961   -4695.7931     -4215.48   -4695.7931            0    4254.4998    20.096567    20.181769    20.699011    8395.1933    4378.1526    5269.1153    3116.2315   -199.97326   -1414.0787   -1245.3833   -3694.5791 
 1549000    271.72903   -4688.3779   -4164.3256   -4688.3779            0    4627.5555    20.090807    19.978516    20.777763     8339.872    3748.2348    5224.1089    4910.3228   -396.38683    1519.6988   -1300.1486   -3601.4831 
 1550000    261.63448   -4708.5263   -4203.9422   -4708.5263            0    4375.4323    20.017649    19.882447     20.95967    8341.9449    3944.4799    5286.0736    3895.7435    162.76504    443.50058    297.35626   -3671.6328 
 1551000    272.47936   -4631.0696   -4105.5703   -4631.0696            0    3934.6725    20.076284    19.997756    21.067913    8458.3591     2707.283    4852.5857    4244.1487   -685.60851    1100.6691    861.80288   -3620.2029 
 1552000    258.70953   -4698.0248   -4199.0817   -4698.0248            0    4317.5674    20.037833      20.0892    20.689816    8328.5623     4560.625    3461.9589    4930.1183   -66.066093    1280.6792    734.42778   -3674.6547 
 1553000    252.48301    -4703.611   -4216.6763    -4703.611            0    4351.9702    20.171453    20.005026     20.83739     8408.521    4421.9145    3904.0288    4729.9673   -198.20641   -384.70738    1162.7038   -3682.9957 
 1554000    255.24009   -4636.1009    -4143.849   -4636.1009            0    3776.7056    19.917552    19.996585    21.064345    8389.5711    5567.2157    3362.7965    2400.1045    187.21351   -218.78455    626.57629   -3681.7566 
 1555000     257.3079   -4667.9976   -4171.7576   -4667.9976            0    4109.2265    20.035698    20.226275    20.716414    8395.2753     4614.324    2997.6494    4715.7062    129.19123    734.86516    261.56969   -3668.6384 
 1556000     278.9676   -4672.5897   -4134.5772   -4672.5897            0    4217.5208    20.142346    20.000887    20.806629    8382.2584    1861.7968    6667.9502    4122.8153   -33.391805    784.90971   -535.23358   -3618.9994 
 1557000    251.57632   -4694.2332   -4209.0471   -4694.2332            0    3408.4625    20.058338    19.888413    20.999539    8377.3149    1968.7337     4953.027    3303.6268     -543.168   -106.04508    425.97577   -3792.6197 
 1558000    268.78301   -4689.6168   -4171.2462   -4689.6168            0    2955.7237    20.052686    20.048003    20.875685    8392.3657    3665.5966     1862.903    3338.6716    406.19146    555.33794    688.83083   -3809.4832 
 1559000    273.13615   -4710.7544   -4183.9883   -4710.7544            0    3685.8868     20.02117    20.043171    20.867554    8373.8934    1263.1614    6116.8594    3677.6395   -10.593482    1306.1299   -176.68055   -3733.8507 
 1560000    260.38318   -4679.8846   -4177.7138   -4679.8846            0    4298.1353    19.866319    19.922782    21.213928    8396.3102    5441.7631    6197.5994    1255.0434   -560.97671   -625.10503   -197.97128   -3651.4004 
 1561000    262.92221   -4672.3167   -4165.2491   -4672.3167            0    4378.1863    20.068189    19.859495    20.778386    8281.1031    5146.4986    3648.1884     4339.872   -499.38584    918.06949    1487.4218   -3636.4894 
 1562000    280.37122   -4668.7813   -4128.0619   -4668.7813            0    5583.1042    20.204418    20.096956    20.577899       8355.6    4648.0495    6435.9637    5665.2992   -578.00118    899.32152   -485.69031   -3447.7168 
 1563000    273.84118   -4666.9416   -4138.8158   -4666.9416            0    5583.0963     20.02743     19.91942    20.837051    8312.6246    5524.5977    6070.3944    5154.2969   -80.953483    207.69766   -381.06568   -3461.9709 
 1564000    266.53533   -4692.5663   -4178.5305   -4692.5663            0    3983.8187    20.226872    19.926856    20.841942    8400.5105    5428.0127    3066.8533      3456.59    30.390173    71.583144    749.46409   -3690.4616 
 1565000    259.86748   -4681.5051   -4180.3288   -4681.5051            0    4208.1013     19.93847    20.171306    20.767237    8352.2706    3630.0088     3303.235    5691.0602    52.966582   -1220.6251    387.81449    -3667.743 
 1566000    275.87433   -4673.6897   -4141.6428   -4673.6897            0    3170.3314    20.249722    20.007921    20.878778     8459.138    3460.3709    3015.6973     3034.926   -295.81714    998.89019   -554.80527   -3750.5259 
 1567000    260.79427   -4698.2092   -4195.2455   -4698.2092            0    5448.8266    19.875977    20.072517    20.816665    8305.0347    5041.1316    5237.2505    6068.0977     261.7168    279.39239    2087.0058   -3535.2814 
 1568000    271.13754   -4700.7662   -4177.8547   -4700.7662            0    4675.7277    20.333636     20.02711    20.513687     8353.665    2721.6251    5249.9589    6055.5992   -672.18008   -1883.2179    692.93092   -3608.2125 
 1569000    249.45969   -4695.4733   -4214.3693   -4695.4733            0    5060.4366    20.137508    19.912829    20.824946    8350.6944    4071.4695    5607.1592     5502.681      1385.58    27.468144    1231.4881   -3598.0774 
 1570000    258.60716   -4668.4822   -4169.7365   -4668.4822            0    2965.4257    20.041449    20.047328    21.069882    8465.4045    3608.8867    1979.4508    3307.9397    32.826222    1486.0578   -358.37226   -3803.6273 
 1571000     268.6425   -4683.5485   -4165.4488   -4683.5485            0    4927.5687     20.28086    19.990539    20.716946    8399.1742    4925.8302    4429.4313    5427.4447    553.39786   -297.21949   -46.719162   -3561.8545 
 1572000    278.36842   -4646.5697   -4109.7128   -4646.5697            0    5164.2107    19.803416    20.206664    20.891338    8359.8983    5810.4797    5349.2335     4332.919   -212.62648   -124.26136   -679.84475   -3480.0894 
 1573000    253.70138   -4707.2746   -4217.9902   -4707.2746            0    4257.9637    20.072733    20.040748    20.834033    8380.9602    4995.7042    3015.4551     4762.732    584.77813    237.86954    737.44846    -3697.549 
 1574000    260.59497   -4708.7682   -4206.1889   -4708.7682            0    5614.4711    20.030268    19.905243    20.875935    8323.3887     4535.762    5438.3733    6869.2779   -303.06364   -937.03635    164.53997    -3524.659 
 1575000    264.53302   -4702.3159   -4192.1417   -4702.3159            0    5552.6781    19.809615    20.116444    20.976033    8358.9287    6599.2795    5030.9192    5027.8356   -204.23827    5.3182088   -134.22442   -3515.2347 
 1576000    259.60579   -4671.0658   -4170.3942   -4671.0658            0    6886.7651     19.77702    20.042598    20.705858    8207.4473    6544.1931    9231.3298    4884.7723   -579.04756    779.05425   -968.73999   -3346.0677 
 1577000    255.64701   -4708.5199   -4215.4831   -4708.5199            0    5229.0445    20.012982    19.949256    20.739878    8280.2736    4750.9944    5527.1441    5408.9948   -125.95665    551.67546    630.55189   -3584.0274 
 1578000    274.38054   -4666.9743   -4137.8084   -4666.9743            0    4283.7932    20.135848    20.056267    20.751264    8380.3967    5576.4661    1749.5687    5525.3448    7.9228863    916.11295    408.22143   -3614.2453 
 1579000    267.76406   -4705.6988   -4189.2933   -4705.6988            0    4789.5254    20.024698    20.088212    20.677038    8317.5532    5556.3885    3585.5883    5226.5995    294.83746      763.504    -134.0797   -3608.3096 
 1580000    273.53472   -4684.5732   -4157.0385   -4684.5732            0    4037.8473    20.027864     19.90181    21.085561    8404.5092    4516.7435    4975.8895    2620.9088    739.79743    816.34291   -242.99062   -3662.1149 
 1581000    269.01584   -4686.1299   -4167.3102   -4686.1299            0    4216.0512    20.140745    19.955324    20.877644    8391.0403    1715.2814    6212.8199    4720.0523     188.4935    1018.8448    654.17454   -3651.3721 
 1582000    262.28055   -4702.8452   -4197.0151   -4702.8452            0    4106.8385     20.02647    20.192704     20.55535    8312.3489    4212.9933     2661.306    5446.2163   -27.087701    780.59758    369.18655   -3699.1551 
 1583000    267.21229   -4682.0366   -4166.6952   -4682.0366            0    4419.8547    20.214105    19.966012    20.818174    8402.1122    3799.7002    5853.9925    3605.8712    76.102325    162.43881   -891.00679   -3625.1031 
 1584000    277.79981   -4662.5021   -4126.7418   -4662.5021            0    4096.2736    19.964179    20.094927    20.912561    8389.6744    4860.4175     4451.256    2977.1472   -511.51887     439.1931   -343.60941   -3625.5431 
 1585000    261.83993   -4695.1688   -4190.1885   -4695.1688            0    4668.4356    20.206012     19.83855    20.821727    8346.5554    4614.1639    4953.0103    4438.1326    505.40323    58.170796   -52.565342   -3621.9187 
 1586000    262.50588   -4690.0553   -4183.7907   -4690.0553            0    2964.7534    20.003499    20.081998    20.894695    8393.6127    3041.2705    3382.5058    2470.4839    387.33778   -759.38746    1194.5309   -3820.8686 
 1587000    253.04159   -4663.5581   -4175.5462   -4663.5581            0    5486.3181     20.28745    19.732602    20.704286     8288.426    2457.3184    7020.9024    6980.7336   -1161.3915   -1627.4503   -608.99982   -3512.3699 
 1588000    266.15682   -4686.5134   -4173.2076   -4686.5134            0     4910.765    19.989701     19.99874     20.81637     8321.736    3239.7705    5943.8973    5548.6272   -139.33872   -658.92039   -1009.3615   -3577.2176 
 1589000    264.36742   -4729.0102   -4219.1554   -4729.0102            0    4667.0069    20.096865    19.800554    21.007554    8359.5163    3085.3595    6968.2566    3947.4046    236.41452    222.31506    927.87554   -3650.1774 
 1590000    261.36654   -4692.5375   -4188.4701   -4692.5375            0    3919.6781    20.138671     19.87689    20.946256    8384.6636    4458.4858    3727.6624    3572.8861   -122.33711    232.19012    999.59037   -3709.1652 
 1591000    254.93645   -4679.8025   -4188.1361   -4679.8025            0    4305.9876    19.955323    19.988201    20.797156    8295.3823    4026.1047    4314.1084    4577.7497    57.606372   -97.982347   -1614.5717   -3667.1993 
 1592000    271.90955   -4711.9366   -4187.5361   -4711.9366            0    3337.8592    19.999104    20.074539    20.933036    8404.0447    3013.7897    4325.5536    2674.2343    684.03369    326.92551   -593.29999   -3778.4335 
 1593000    263.24604   -4659.6829   -4151.9908   -4659.6829            0    2876.9999    20.089572     20.03063    21.143336    8508.2221    2557.4385    3099.5601    2974.0012   -209.94783    1663.2708    1378.3857    -3795.002 
 1594000    258.82642   -4679.3437   -4180.1752   -4679.3437            0    4665.5571     19.96447    20.042017    20.965447    8388.8676    5739.6351    3798.7088    4458.3273   -1012.2431   -607.35612   -55.196945   -3609.3768 
 1595000    252.76475   -4701.6232   -4214.1451   -4701.6232            0    5229.6147     20.15055    20.064658    20.592136    8325.6865    6364.9148    3920.7404    5403.1889    135.80807    192.85924    -339.1586   -3579.1569 
 1596000    260.63082   -4659.5546   -4156.9062   -4659.5546            0    3522.1189    20.305105     19.81757    20.788834    8365.3819    1452.3745    5783.1534    3330.8286   -759.40988   -785.45453   -646.36204   -3727.2059 
 1597000    263.98853   -4680.9138   -4171.7897   -4680.9138            0    3809.0664    20.012729    20.141357    20.770236    8372.1397    5926.3048    1876.3695    3624.5249   -232.92328    487.63886   -719.57965   -3706.7063 
 1598000     270.8152   -4713.8688   -4191.5789   -4713.8688            0    3826.8169    20.086166    19.858408    21.047945     8395.589     2920.765    5060.7666     3498.919    268.45003   -47.889039    531.47685   -3723.0194 
 1599000    255.08235   -4676.9818    -4185.034   -4676.9818            0    5877.8489     19.81149    20.053145    20.914121    8308.8179     8007.902    5323.3662    4302.2785    854.84035   -566.57664   -223.59873   -3472.7822 
 1600000    266.94763   -4686.1242   -4171.2933   -4686.1242            0    2826.7372    20.333244     20.03032    20.748238    8450.3709    1484.0291    3745.2674    3250.9151    375.95945   -936.59465     81.76017   -3822.9262 
 1601000    253.79028    -4710.236   -4220.7801    -4710.236            0    3350.5686    20.150033    20.197996    20.624159    8393.8326    1067.0661    4152.4528    4832.1867   -359.12198    341.82549   -183.49021   -3810.6188 
 1602000    259.15197   -4671.2995   -4171.5031   -4671.2995            0    4190.8619     19.77766    20.306962     20.99655    8432.7226     6095.123    3545.5341    2931.9285   -77.245493   -805.44923    833.75174      -3656.1 
 1603000    262.84836   -4664.8511   -4157.9259   -4664.8511            0    5790.2719    19.932166    20.030568     20.86488    8330.3578    6040.4444    5384.0794    5946.2919   -46.061168    9.0850998   -570.70026   -3454.4674 
 1604000    271.34834   -4678.5295   -4155.2114   -4678.5295            0    6014.2603     19.90539    19.803036    21.115936    8323.6304    6430.7393    4897.0015    6715.0401    44.216295   -838.21403    295.67976   -3425.1306 
 1605000     277.1631   -4656.3418   -4121.8095   -4656.3418            0    5131.4085     20.01609    20.156398    20.787317    8386.6902    5193.0607    5829.1311    4372.0338   -196.33597   -239.76333   -988.38671   -3494.1804 
 1606000    259.19169   -4712.0492   -4212.1762   -4712.0492            0    2683.0066    20.046108    20.147026    20.929238    8452.6803    2504.9197     2485.287    3058.8131   -119.09943    1081.7832   -61.447052   -3881.4321 
 1607000     267.7153   -4688.5219   -4172.2104   -4688.5219            0    4781.1455    20.075426     19.89963     20.93329    8362.7146    6241.9437    4787.7698    3313.7232   -206.25926    634.16459    184.59891   -3589.0942 
 1608000    277.96846   -4692.3713   -4156.2857   -4692.3713            0    3912.8538    20.079839    20.088281    20.863028    8415.5078    4284.2521    3852.7922    3601.5171   -546.19028    205.68983   -631.41659   -3676.0551 
 1609000    265.12574   -4688.3437   -4177.0264   -4688.3437            0    3003.5767    20.272718    20.048636    20.634786    8386.8097    1200.8918    3973.6272    3836.2111    359.61817   -347.01899    408.18214   -3809.6499 
 1610000    284.33185   -4693.7568    -4145.399   -4693.7568            0    5125.8807     19.89195    20.274855    20.639402     8324.003    8297.4025    890.11716    6190.1226    70.410401   -1097.9263    90.879301   -3523.1322 
 1611000    270.03449   -4661.2951   -4140.5109   -4661.2951            0    4779.9666    20.068102    19.774813    21.129089    8384.9302    3723.5542    7244.4523    3371.8933    504.86146    13.489677    1226.3071   -3555.9898 
 1612000    256.68477   -4656.6179   -4161.5798   -4656.6179            0     4212.705    20.010579    20.018584    20.888544     8367.605    6333.4341    2914.3209    3390.3601   -782.78869   -1661.8501   -1260.0887    -3647.491 
 1613000    269.82542   -4724.4923   -4204.1113   -4724.4923            0    3758.6613    20.173789    19.974217    20.750777    8361.6424    3874.6654    3591.5352    3809.7834    -683.4853    -1056.773   -169.82883   -3745.7576 
 1614000    271.82229   -4693.4329   -4169.2007   -4693.4329            0    4238.6689     20.13804    20.110358    20.676599    8373.6751    4905.0177    2178.1259    5632.8632   -167.24928   -387.22637   -152.82097   -3651.5683 
 1615000    252.10729   -4673.6314   -4187.4213   -4673.6314            0    5663.4917    20.125049     20.07696     20.74685    8382.7608      7043.57     5099.601     4847.304   -342.65059     274.0544   -962.06766    -3495.037 
 1616000    257.69375   -4701.7756   -4204.7915   -4701.7756            0    3844.8907    20.120369    19.938202    20.895468    8382.5091     3509.212    4241.1425    3784.3176     161.6346    657.82513   -235.54591   -3734.7525 
 1617000    260.94668   -4714.1699   -4210.9123   -4714.1699            0    4016.4412    19.873381    20.064922    20.843408    8311.4721    5588.0805    3142.2091    3319.0339    753.78687   -200.20327   -1050.4866   -3724.0622 
 1618000    263.73959   -4706.0417   -4197.3977   -4706.0417            0    4938.4845    20.061666    19.889179     20.91915    8346.9512    3261.4475     5710.394    5843.6119   -19.311685    960.73701    332.64331   -3596.2275 
 1619000    264.32721   -4714.6761   -4204.8988   -4714.6761            0    3195.1665    19.843681    20.161372    20.884899    8355.5435    3798.0645    3379.7168    2407.7182    284.69766   -1086.5098   -462.45648   -3815.5453 
 1620000    256.99791   -4658.4252   -4162.7831   -4658.4252            0    5963.9003    20.012431     20.25145    20.572804    8337.7612    6625.3536    5910.7361    5355.6112    94.688025    922.83877    219.55653   -3437.5866 
 1621000    248.75455   -4692.9803   -4213.2362   -4692.9803            0    3382.7997    20.052771    20.135037    20.794448    8396.0343    3921.7171    4052.2846    2174.3974    508.17082    852.32111   -565.29736   -3799.0207 
 1622000    277.02854   -4670.5047   -4136.2318   -4670.5047            0    4112.3373    20.029292    19.898309    20.971431    8358.1437    4544.0086    4119.5935    3673.4098    34.490585     756.3188    586.42139   -3634.9587 
 1623000    261.99206   -4682.4029   -4177.1292   -4682.4029            0    2963.9929    20.064753    20.205595    20.794367    8430.4578    5301.4379   -271.42251    3861.9635    800.23365   -653.26303    541.43644   -3812.7075 
 1624000    260.38131   -4667.1466   -4164.9794   -4667.1466            0    3836.1839     20.09191    20.340976    20.581734     8411.529    3454.0842    3295.0493    4759.4183    408.12007    159.01317   -614.02672   -3694.3812 
 1625000    259.89585   -4645.7616   -4144.5306   -4645.7616            0    2860.1365    20.242324    20.098928    20.775213    8452.3753    3375.1032    2760.6467    2444.6595   -618.03339   -423.27275    170.70308   -3791.9638 
 1626000    254.37838   -4701.9234   -4211.3333   -4701.9234            0    3685.3609     20.01727    20.070529    20.818413    8363.9468    5205.9926    2872.7571     2977.333   -585.17637    482.89484    1091.8953   -3761.7945 
 1627000     259.3362   -4685.2361   -4185.0844   -4685.2361            0    4379.6834    20.076529    19.963098    20.886062     8370.919    4425.2608    3664.2995    5049.4901    636.46194    1059.5356    1623.6314   -3650.4071 
 1628000    260.92315   -4692.4244   -4189.2121   -4692.4244            0    2456.6721    20.093714    20.234337    20.771611    8445.3838     914.2496    2950.6331    3505.1336    1.0073644   -1725.4798    157.84322   -3886.6305 
 1629000    275.81552   -4664.6456   -4132.7122   -4664.6456            0    3832.7083    20.050478       20.076    20.867454     8399.847    3303.9418    4159.4821     4034.701   -466.01137   -593.79221   -56.411106   -3663.1934 
 1630000    246.67745   -4695.7338   -4219.9956   -4695.7338            0    1857.7089    20.038224    19.938247     21.02395    8399.6368    599.24526    3172.9696    1800.9118   -953.47753   -599.44872    -497.0451   -3992.4261 
 1631000    252.97334   -4702.0957   -4214.2154   -4702.0957            0    5858.3483    19.922714    20.146468    20.726904    8319.2051    6641.1659    5611.1164    5322.7625    -73.21873    134.00326   -298.75943   -3503.4391 
 1632000    270.30694   -4669.4092   -4148.0995   -4669.4092            0    2754.7359    20.213973    20.180963    20.778978    8476.5235    4104.1228    1405.0038    2755.0811    248.55181    982.50917    386.62507   -3807.5552 
 1633000    262.68752   -4651.5979   -4144.9829   -4651.5979            0    4444.7023    19.873683    20.132438    21.058466    8425.6118     6113.725    3762.3539    3458.0281   -180.33879    1637.0789    -373.5118   -3598.8228 
 1634000    262.39429   -4703.5945    -4197.545   -4703.5945            0    5165.4528    20.025815    19.704711    21.095481    8324.3378    5150.4191     7608.197    2737.7422   -611.07805    2122.6745    705.76721   -3570.4491 
 1635000    261.40053   -4689.1734   -4185.0405   -4689.1734            0    5200.8617    20.029068    20.069732    20.791454    8357.7077    4468.9633    5117.8359     6015.786    -167.2293   -82.588456   -31.711983   -3551.1148 
 1636000    268.84398   -4694.3091   -4175.8209   -4694.3091            0    3879.3383    20.153793     20.18993    20.548453    8361.2414    2524.3541    4054.5621    5059.0988    225.95206   -1012.0877    113.97117   -3702.7739 
 1637000    254.49819   -4689.9305   -4199.1094   -4689.9305            0    2729.5935    20.164197    20.006301    20.841992    8407.8892    2362.1477    2951.6563    2874.9766   -332.45233    449.30037    5.0791569   -3864.4054 
 1638000    265.31254     -4701.85   -4190.1724     -4701.85            0    4897.7973    19.739467    20.075424    21.008893     8325.366    4746.4615     6794.905    3152.0254   -381.84722   -459.96566    700.95014    -3595.497 
 1639000    247.26112   -4701.8154   -4224.9515   -4701.8154            0    3855.0698    20.090565    20.110186    20.789316    8399.4033    4218.0274    3288.5127    4058.6691   -22.801838   -614.49562    -142.6957   -3752.7182 
 1640000    254.09265   -4656.3005   -4166.2615   -4656.3005            0    3925.6168    20.325057    19.916695    20.742169    8396.5953    4076.5155    2869.3358    4830.9991   -164.37826    -881.5602    97.730144   -3685.5472 
 1641000    271.91709   -4710.0052   -4185.5902   -4710.0052            0    4598.0979    19.989672     20.05211    20.900903    8377.8157    5558.1353    4632.2186    3603.9398    -598.3719    75.787465    734.76093   -3623.7861 
 1642000    264.32619   -4689.9532   -4180.1779   -4689.9532            0    4260.6972    20.142403    20.015457    20.731154    8357.9597    1787.2084    6201.9556    4792.9277   -786.99818    40.308217   -63.842975   -3660.8318 
 1643000    260.40419   -4692.9232   -4190.7118   -4692.9232            0    3274.3022     20.10067    20.046625    20.826437    8392.0252    4717.6411    2565.9507    2539.3147    291.57311   -77.952306    1674.3839    -3789.973 
 1644000    264.01256   -4687.7228   -4178.5524   -4687.7228            0    4753.4087    19.883641    20.320359    20.759595    8387.7634    5066.7182    3058.6131    6134.8946   -350.61747   -322.40562    1016.2665   -3597.0825 
 1645000    258.29335   -4688.7061   -4190.5657   -4688.7061            0     3041.744    20.292021    19.894487    20.924728    8447.2989    2073.0466    4840.5519    2211.6334   -194.51157    794.12893    582.35205   -3815.8374 
 1646000    246.75977   -4673.3367   -4197.4398   -4673.3367            0    4565.8854    20.062678    19.924831    20.851008    8335.0959    4161.3384    6040.1783    3496.1395    -39.34613    112.84659    344.50412   -3642.4161 
 1647000    246.12152   -4680.7218   -4206.0558   -4680.7218            0     5646.773    19.935397    20.220499    20.522103    8272.5354    6176.1272    5877.4197    4886.7719   -262.74258    335.11406   -604.62707   -3524.7927 
 1648000    263.12343   -4716.0522   -4208.5966   -4716.0522            0    3715.3051    20.160183    20.185634    20.677637    8414.6833    4153.2546    2902.1457    4090.5152   -445.43245   -27.762489    -693.8843   -3752.6561 
 1649000    272.58359   -4673.8497   -4148.1493   -4673.8497            0    3557.0663       20.054    20.107295    20.692202    8343.7515    4461.1375    2916.9233     3293.138   -590.99815    869.68556   -499.38758   -3715.3075 
 1650000    270.47994   -4700.9429   -4179.2996   -4700.9429            0    4997.7289     20.10261    19.851216    20.805456    8302.6513    4294.1494    5104.6769    5594.3604     465.7132      830.708    604.64409   -3574.1464 
 1651000    276.14638   -4660.8555    -4128.284   -4660.8555            0     4833.936    19.919715    20.215556    20.816032    8382.3687    4817.6916    4015.8928    5668.2236   -361.66245   -376.36336     373.6674   -3537.3438 
 1652000    276.37034   -4697.4121   -4164.4086   -4697.4121            0    2955.2345    20.190521    19.980074    20.793556    8388.2889     2216.957     3161.827    3486.9195   -509.20431    1238.8399   -464.51427   -3802.8812 
 1653000    257.98601   -4682.1063   -4184.5585   -4682.1063            0    3809.4513    20.123423    19.770755    21.028465    8366.2857    2730.3601    6491.6539    2206.3397    41.559174   -1164.8981   -121.74913   -3719.7533 
 1654000    258.77445   -4679.4618   -4180.3935   -4679.4618            0    3032.6526    19.882159     20.22652    20.826311    8375.2362    2754.7055    4753.1344    1590.1178   -28.610475   -543.77029    414.72155   -3809.9725 
 1655000    256.19886   -4683.5966   -4189.4955   -4683.5966            0    3619.4056    20.164696    20.135816    20.771814    8434.0342    3859.4284    3562.4616    3436.3267    486.33298    189.92632   -1386.3722   -3744.3024 
 1656000    244.55794   -4672.8623   -4201.2118   -4672.8623            0    2576.4782    19.852241    20.184083    21.125407    8464.9353    4150.8131    651.71578    2926.9057   -495.52949    1418.9938   -1018.6989   -3883.1393 
 1657000    262.46186   -4678.8047   -4172.6249   -4678.8047            0    3366.7088    20.027549    20.037263    20.907882    8390.2756    3974.1209    2933.3747    3192.6308   -47.260987    778.86502    -919.1479   -3760.6624 
 1658000    248.29092   -4690.2646   -4211.4146   -4690.2646            0    5356.1027    20.152265    19.940827    20.665862    8304.6348    4782.5636    4897.5074    6388.2371   -395.83982   -1506.3505   -650.87716   -3562.7125 
 1659000    254.18631    -4684.232   -4194.0123    -4684.232            0    2466.1583     20.04708    20.290677    20.621891    8388.3428    3552.1872     1447.948    2398.3398   -434.94207    1006.0844   -1018.7085   -3892.3139 
 1660000    262.59621   -4684.1517   -4177.7128   -4684.1517            0    5220.9538    19.997977    20.016725    20.852899    8347.2903    4983.9705    5025.9649     5652.926    78.085904   -286.34464    1106.6997   -3542.1313 
 1661000    254.43729   -4685.4786   -4194.7749   -4685.4786            0    3953.1925      19.8194    20.010698    20.996691    8327.2883    2705.1909    5159.5495     3994.837    630.56225   -775.81735    1387.4142   -3714.6796 
 1662000    258.54827   -4657.7944   -4159.1623   -4657.7944            0    2884.8096    20.107594    19.907352    20.963862    8391.6025    3480.4493    2484.2685     2689.711   -305.51102    758.84021   -833.47001   -3806.1109 
 1663000     271.0054   -4678.6382   -4155.9815   -4678.6382            0     3848.592    20.095859    20.142885     20.61521    8344.8013    2468.6039    4481.1164    4596.0558    75.856248   -408.10377   -157.62419   -3687.6064 
 1664000    264.72341   -4707.1628   -4196.6214   -4707.1628            0    3237.3235    20.171602    20.166922    20.716673    8427.5243    2619.6343    2381.0924    4711.2436   -200.96726   -295.07052    32.127025   -3798.7324 
 1665000    268.47584    -4707.053   -4189.2748    -4707.053            0    2797.5052    19.993598    20.034448    21.073264    8441.1211    3672.9366    3064.3255    1655.2535   -191.74021    1030.0591     613.2349   -3844.8877 
 1666000    265.39842   -4662.2405   -4150.3974   -4662.2405            0    5225.6261    20.164235    20.041035    20.638282    8340.1806    4412.6968    5709.2945     5554.887   -456.45304   -1235.3666   -1207.2289   -3514.7889 
 1667000    264.87768   -4673.1583   -4162.3194   -4673.1583            0    3884.9334    20.052746    20.174198    20.739839    8390.2616    3282.6728    4458.1605    3913.9669   -536.53034   -101.63352    796.81181   -3686.9459 
 1668000    275.78605   -4680.1024   -4148.2258   -4680.1024            0    4214.6465    20.194761    19.900293    20.806587    8361.7857    3687.7391    4850.4773    4105.7232    344.16832    194.39535   -74.762248   -3634.2578 
 1669000    266.38882   -4654.7834   -4141.0301   -4654.7834            0    5802.2455    19.901397    20.125754    20.783639    8324.4835    6208.6906    4889.2899    6308.7561    112.38946    1348.0529    141.37343    -3436.614 
 1670000    277.45809   -4706.6073    -4171.506   -4706.6073            0     4207.504    19.954775    20.007698    20.879998    8336.3207    5877.6867    3641.0671    3103.7583    72.363097    740.71315   -170.62885   -3659.9716 
 1671000     261.9796   -4664.6024   -4159.3527   -4664.6024            0    3802.6045    20.236265    20.097078    20.594973    8375.7658    3874.9989     2733.675    4799.1395   -704.29072   -143.53516   -313.74114   -3694.8571 
 1672000    252.50064   -4676.4432   -4189.4745   -4676.4432            0    4429.5122    20.105988    20.097797    20.596158    8322.6207    3110.5855     4171.519    6006.4322   -895.76548    4.6818058   -859.16207   -3651.8341 
 1673000     253.3703   -4692.3259     -4203.68   -4692.3259            0    3591.9432    20.048071    19.902172      20.9643    8364.7591    4462.0835    3406.2256    2907.5205    429.35088    183.78936   -352.05494   -3765.4937 
 1674000    268.75389   -4699.0044   -4180.6899   -4699.0044            0     3687.826     20.16211    20.074345    20.833475    8432.1646    5015.7643      1551.13    4496.5837    302.56514   -143.87697   -1054.9374   -3727.1815 
 1675000     258.2174   -4687.4619   -4189.4679   -4687.4619            0     3391.015    20.143879     20.07531    20.655971    8353.1638    2884.6309    3167.8768    4120.5372   -188.12228   -687.65579   -784.68526   -3776.3666 
 1676000    262.78093   -4719.1785   -4212.3834   -4719.1785            0    3093.0411    19.991963    20.077327    20.831613    8361.5005    3627.4199    3302.2323     2349.471    145.22232    935.27153   -779.71991   -3835.2059 
 1677000    258.38532   -4664.0874   -4165.7696   -4664.0874            0    5225.5512    19.958297    20.066066    20.817851    8337.2267    5965.3422    4936.0022    4775.3093   -367.16264   -736.23913   -574.48435   -3530.3954 
 1678000    260.18808   -4683.9245   -4182.1299   -4683.9245            0    1420.2681    19.969446    20.009113    21.213207    8476.1798    1357.9577    2709.7582    193.08827   -618.51324    722.46331    17.416883   -4006.5615 
 1679000    270.70738     -4677.49    -4155.408     -4677.49            0     2696.041    20.066483    20.229886    20.954874    8506.4777    2402.0529    2721.2126    2964.8576    160.82109     765.1655    1307.2211   -3820.9419 
 1680000     254.4048   -4653.4099   -4162.7689   -4653.4099            0     3788.102    20.148593    19.846694    20.918976    8365.1423    2270.3416    5268.7227    3825.2418    443.55298   -730.05296    -474.6405   -3700.6317 
 1681000     258.9815   -4688.6859   -4189.2183   -4688.6859            0    4323.0749    19.974552    19.942001    20.948997    8344.6671     4283.913    4990.5638    3694.7478   -89.722885   -773.47533     322.4796    -3663.107 
 1682000    253.28061   -4662.2888   -4173.8159   -4662.2888            0    5983.9288    20.091947     19.74066    20.780395    8242.0925    4572.8592    7010.2218    6368.7055    10.588364    537.56687    -495.9299   -3454.5329 
 1683000    260.09593   -4713.6601   -4212.0432   -4713.6601            0    5354.7545     20.16093    19.867113    20.780868    8323.5581    4363.9623    6274.6858    5425.6153    118.21815    857.09973    423.74795   -3562.0266 
 1684000    261.75456   -4711.6133   -4206.7977   -4711.6133            0     5066.662    20.015589    20.058984    20.670774    8299.1582    5558.6646    4918.8708    4722.4506    7.1155108   -1451.3742    1095.8259   -3593.5557 
 1685000    276.40282   -4692.0292   -4158.9631   -4692.0292            0    4581.6757    20.030123    19.919229     20.89992    8338.7466    4201.5328    4487.6374    5055.8567   -319.67864   -617.69826    1283.6899   -3601.7761 
 1686000    272.65434   -4667.5286   -4141.6918   -4667.5286            0    4615.8307    20.111843    19.831956    20.884439    8329.9086    4456.5747      6079.25    3311.6676    44.422447    1555.0882    93.351896    -3580.946 
 1687000    263.33599   -4700.2968   -4192.4312   -4700.2968            0    3637.6204    20.164057    20.133198    20.690103     8399.498    2085.4181    5615.2591     3212.184   -281.56227   -315.86108   -978.48339   -3746.8297 
 1688000    267.43661    -4677.244     -4161.47    -4677.244            0     4726.536    20.018211    20.272754    20.603283    8361.3122    5966.0091    3220.0618     4993.537   -909.83957   -337.51638    1054.3747   -3585.1108 
 1689000     257.7425   -4705.4116   -4208.3336   -4705.4116            0    5362.7974    20.006135    19.955126    20.801664    8304.5431    4978.9113    4400.5137    6708.9673    363.20618   -125.58151   -475.40651   -3558.8278 
 1690000    267.92003   -4660.1102   -4143.4039   -4660.1102            0    3986.6142     19.93194    20.100541    20.914594    8379.2811    3824.8877     4344.724     3790.231    682.29132   -1230.3345    18.335781   -3656.2268 
 1691000    257.23471   -4668.8167   -4172.7179   -4668.8167            0     4156.134    20.100368    19.869018    20.946206    8365.3822    5373.9608    4129.7678    2964.6736   -176.48857    370.10949   -50.493112   -3665.6674 
 1692000    271.81461   -4691.5073   -4167.2899   -4691.5073            0    2688.4327    20.282274    20.043553    20.736765    8430.0931    2758.1029    3191.6218    2115.5734   -367.61522   -327.22284   -354.64849   -3836.7626 
 1693000    262.66431    -4684.407   -4177.8368    -4684.407            0    4051.1468    19.989132     20.15869    20.784816    8375.3394    4247.1041    3788.9562    4117.3801   -582.82754    176.37046   -251.05416   -3683.0065 
 1694000    260.74558   -4654.7239   -4151.8541   -4654.7239            0     2679.432     20.11444    20.145311    20.808842    8431.9853     1662.711    2033.3041    4342.2809   -252.99454    1237.3118    273.62591   -3822.3594 
 1695000    263.10075   -4680.0306   -4172.6186   -4680.0306            0    4463.7115    20.117532     19.77419    21.001345     8354.501    4674.2721    4974.7702    3742.0921   -203.90042    622.58674    -37.85019   -3628.7519 
 1696000    267.28804   -4691.0394    -4175.552   -4691.0394            0    4976.3128    19.980757    19.960143    20.810305    8299.5404    5039.1717    5092.0616     4797.705    312.03768    563.23261    485.41759   -3573.2177 
 1697000    270.82646   -4697.2235   -4174.9119   -4697.2235            0    2127.0737    20.193118    20.121608    20.665934    8396.9409    896.94144    2541.9282    2942.3516   -30.016701    812.22806    707.77056   -3914.4288 
 1698000    259.24936   -4670.9378   -4170.9536   -4670.9378            0    4447.5756    19.998388    20.091687    20.793696    8354.9351    4713.6952    4908.0747    3720.9568   -499.10724   -710.40322    106.27609   -3629.0247 
 1699000    259.41663   -4650.0345   -4149.7277   -4650.0345            0    4027.0227    19.941263    19.952281    20.950501    8335.6529    5677.5031    2457.7318    3945.8332   -771.69659    1750.4017    1752.4109   -3660.1749 
 1700000    260.02267   -4691.8175   -4190.3419   -4691.8175            0    5695.6054    20.009254    19.936759    20.955497    8359.5601     6945.958    5777.8123     4363.046   -538.87361    124.49616    335.39115   -3495.9587 
 1701000     262.1596   -4689.9726   -4184.3757   -4689.9726            0    2951.9065    20.189487     20.04969    20.775559    8409.8002    3743.7618     1834.345    3277.6128     -94.8214   -764.82056    633.38158   -3822.3294 
 1702000    268.31902    -4690.588   -4173.1122    -4690.588            0    4295.0183    20.115754    20.050258    20.879577    8421.2775    5643.8416     3249.472    3991.7413   -224.14097   -439.27527   -369.71318   -3645.6165 
 1703000    251.74815   -4686.2697   -4200.7522   -4686.2697            0    5842.7467    19.994717    20.060021    20.689632    8298.4965    6521.3961    5502.0184    5504.8257    -66.58353    743.90179    151.68107   -3493.6334 
 1704000    258.79015   -4700.1581   -4201.0595   -4700.1581            0    3045.8687    20.023994    19.999122    20.856735     8352.336    2187.8199    3268.7983    3680.9878   -365.51564    592.86391   -772.40431   -3830.0415 
 1705000    256.62833   -4714.5334   -4219.6041   -4714.5334            0    4085.2509    20.117051    20.018464    20.817966    8383.6546    5024.5916    4141.8753    3089.2859   -579.21381    504.87008    450.93525   -3720.1127 
 1706000    269.01776   -4723.0643   -4204.2409   -4723.0643            0    4386.2413     19.92603    20.055233    20.740111    8288.1874    5826.4462    3142.6364    4189.6412   -432.42168   -249.63521    455.50015   -3674.0552 
 1707000    267.85716   -4699.6829   -4183.0979   -4699.6829            0    4364.8848    20.065708    19.975975    20.778126    8328.5395     5515.552    2956.3572    4622.7453   -140.55302   -377.91026    -737.0957    -3652.925 
 1708000    261.82508   -4669.7123   -4164.7606   -4669.7123            0    5342.7671    19.923263     20.05814    20.884155    8345.8015    4372.6296    5417.6295    6238.0421    282.97318    1471.3063   -438.42313    -3514.466 
 1709000    264.34957   -4687.4529   -4177.6325   -4687.4529            0    5497.6999    19.886726    20.032849     20.73523    8260.6624    5361.4617    4775.0765    6356.5616    4.4402441    1242.6673    1770.8599   -3515.3065 
 1710000    265.93025   -4654.2959    -4141.427   -4654.2959            0    4970.6107    20.117735    20.017952    20.719231    8343.9626    3855.8584    6463.4585    4592.5152   -157.48191     -389.709   -830.05178   -3536.5627 
 1711000    266.89339   -4684.6887   -4169.9623   -4684.6887            0    3483.9554    20.021276    20.344188    20.678728    8422.7894    1103.2977    4806.6105    4541.9581   -84.976379    186.39059    197.83952   -3742.0011 
 1712000    266.42626    -4691.255   -4177.4296    -4691.255            0    3610.1298    20.061716    20.004566    20.859177    8371.3286    2928.1186    4060.1374    3842.1332    690.93605   -13.029812   -478.41871   -3736.6788 
 1713000    277.78915    -4682.216   -4146.4763    -4682.216            0    5443.1734    19.980243    19.882594    21.006845    8345.1597    4446.9919    5941.4855    5941.0427   -577.82584   -1041.8338     978.1452   -3484.0116 
 1714000    267.10968   -4671.9819   -4156.8385   -4671.9819            0    4690.6506    20.258445    19.911933     20.77779    8381.4447    4830.2654    5052.0421    4189.6443   -120.51523   -151.79906    462.39505   -3583.4778 
 1715000    274.31629   -4755.2924   -4226.2504   -4755.2924            0    5328.1438    20.167249    20.270369    20.381053    8331.7251    4210.5783    5347.5604    6426.2927   -16.963094   -358.63016   -747.13894   -3578.8294 
 1716000    245.13083   -4664.1721   -4191.4167   -4664.1721            0    5062.5453     20.06915    20.211318    20.555008    8337.6038    6054.8273      4121.31    5011.4985   -108.14053    1172.6729   -222.39183   -3575.8345 
 1717000    239.53144   -4683.7159   -4221.7594   -4683.7159            0    4525.6724    20.155957    20.023758    20.718593    8361.9827    4723.8504    3482.1963    5370.9707   -19.423213   -566.23808   -90.320417   -3669.8494 
 1718000     270.6785   -4680.4294   -4158.4032   -4680.4294            0    5451.2117    19.988043    19.968283    20.894754    8339.6582    6702.2714    4152.6315    5498.7322     579.2217    880.16152    214.25105   -3495.3976 
 1719000    268.79047   -4680.0487   -4161.6637   -4680.0487            0    4497.2534    20.103949    20.018298    20.807453    8373.8936    3540.2724    5730.9979      4220.49    -366.1554   -269.60198   -350.62461   -3612.4382 
 1720000    252.10869    -4690.797   -4204.5842    -4690.797            0    6727.7263    19.906415    20.049366    20.731355    8274.1117    8236.7357    5247.1169    6699.3263   -410.10907   -293.06423    1092.0957   -3392.7533 
 1721000    263.07291   -4689.7034   -4182.3452   -4689.7034            0    3768.7922    20.147333    19.998191    20.742978    8357.5574    4150.7128      3362.15    3793.5139   -573.62687   -8.9389695   -190.38852   -3722.9807 
 1722000     254.9463   -4692.3909   -4200.7055   -4692.3909            0     5443.217    19.987457     20.11439     20.84386    8379.9719    3148.1736    6759.2858    6422.1916   -630.52293   -654.38128   -832.60342    -3535.472 
 1723000    265.45966   -4699.7362   -4187.7749   -4699.7362            0    5579.1988    19.946259    20.052571    20.754622    8301.3046    6802.1003     4109.656    5825.8401    116.95335   -126.67774   -795.94458   -3512.3236 
 1724000    257.41457   -4667.1313   -4170.6856   -4667.1313            0    4637.4757    20.052076    19.865642    20.874259    8315.2063    4130.9551    5602.9588    4178.5132   -128.29351    759.17977     532.1062   -3608.3047 
 1725000    251.86894   -4674.6571   -4188.9067   -4674.6571            0    4759.2544    20.146036     20.01571    20.785609    8381.5308    5139.7043    4585.2475    4552.8114    -114.4364    184.86949   -1288.6732   -3607.1543 
 1726000    258.95785   -4676.8271   -4177.4051   -4676.8271            0    3535.4432    20.043254    20.195585    20.679851    8370.8984    5070.9863    2386.2338    3149.1096    415.10806    914.26547    800.92292   -3745.7948 
 1727000    291.58575   -4679.6055   -4117.2579   -4679.6055            0    4030.3637    20.270099    20.092224    20.599946    8389.7681    5090.5412     2989.409    4011.1409    809.45918     -1121.02   -1550.0347   -3624.1181 
 1728000    279.39274   -4688.0331   -4149.2008   -4688.0331            0    5351.2663    20.082275    20.061407    20.722151    8348.5131    5369.9894    5510.2755     5173.534    775.72683   -199.89727    1040.3952     -3497.66 
 1729000     264.0282   -4668.3391   -4159.1385   -4668.3391            0    4330.1389    20.064486     19.96114    20.958194    8393.9668    4535.7345    4887.4712    3567.2111    8.2365041   -832.96334    239.02105   -3629.0542 
 1730000    268.48742   -4655.5989   -4137.7983   -4655.5989            0    3892.6223    20.271354    19.774809    20.977817    8409.2127    2709.7235    5127.5801    3840.5634    806.73592   -28.703522    -126.7226   -3660.4081 
 1731000    267.54438   -4678.1416   -4162.1598   -4678.1416            0    4676.4461    20.112211    20.024003    20.806996    8379.5384    4622.4826    4488.3617    4918.4941   -127.76756   -1341.7308    852.49417   -3590.6654 
 1732000    270.06004   -4689.9793   -4169.1458   -4689.9793            0    4153.7203    20.256651    20.228751    20.396468    8357.7946    6227.6196    1231.4532    5002.0881   -247.58809    964.86731     331.9064   -3662.8494 
 1733000    260.47978   -4691.2067   -4188.8495   -4691.2067            0    2380.6138    20.157607    20.019746    20.921241    8442.7705    2816.3447    2541.7261    1783.7706   -204.34451     18.37928    783.02845   -3895.7266 
 1734000    271.91773   -4684.8007   -4160.3845   -4684.8007            0    3522.7742    19.875923    20.049527     21.03097    8380.9015    5378.0781    2791.8989    2398.3457   -552.33887     2485.759    -2137.925   -3729.8069 
 1735000    261.01267   -4707.5416   -4204.1567   -4707.5416            0    3056.3067    20.154807     19.94823    20.942021    8419.7969    3357.2953    2763.6536    3047.9713   -88.241297    628.85837    2203.5166   -3828.8602 
 1736000    258.98063   -4692.0113   -4192.5453   -4692.0113            0    5075.1912    20.009584    20.108027    20.663344    8313.9636    4431.0833     4836.833    5957.6573    -222.1477    358.75774    787.52179   -3577.1752 
 1737000    267.82895   -4690.4807   -4173.9501   -4690.4807            0    4618.0375    19.981528    20.042319    20.752105    8310.7232    4166.0142    4626.4257    5061.6727   -143.36032    484.91196    360.40645   -3614.2283 
 1738000    257.16812   -4653.1582   -4157.1878   -4653.1582            0         4794    20.203396    19.720054    20.892656    8323.8862    1325.9074    8988.1276    4067.9649    -1017.263    33.846133     209.5721   -3575.2186 
 1739000     252.7435   -4677.9537   -4190.5166   -4677.9537            0    4965.4484    20.136095    20.109654    20.610277    8345.7172    4555.7312    3714.7802    6625.8337   -823.71724    1089.0373    628.19418   -3586.1534 
 1740000    269.75122   -4688.2091   -4167.9712   -4688.2091            0    4271.2559    20.182003    20.106198    20.740703     8416.232    2221.0274     5356.472    5236.2683    429.77928    1302.4069    296.64636   -3643.7082 
 1741000     258.5244   -4702.3671   -4203.7811   -4702.3671            0    2785.9413    20.017245    20.122542    20.904063    8420.1121    4225.0479    2352.8186    1779.9575    271.57117    686.91794   -703.33273   -3861.6711 
 1742000    268.95842   -4701.6584   -4182.9495   -4701.6584            0    3876.3845     20.27253    19.955147    20.829479    8426.3848    2481.5196    4827.9578    4319.6761   -911.26234    1606.6831    -1627.979   -3706.5799 
 1743000    259.76248   -4661.3156   -4160.3418   -4661.3156            0    3509.0315    20.104915    20.291166    20.655258    8426.3574    3064.9868     3026.554    4435.5539    390.93714    413.18407   -803.33784   -3729.1177 
 1744000     270.7648   -4685.7584   -4163.5657   -4685.7584            0    4159.2271    20.132289    19.919015    20.878538    8372.6145    5142.4513    4207.1677    3128.0624   -262.08906     1105.674   -341.56757   -3655.6992 
 1745000    284.76443   -4680.7783   -4131.5861   -4680.7783            0    5462.3398    20.014759    19.896179    20.963528    8348.0378     6240.894    5092.1661    5053.9594   -16.673006    447.19985    1090.0577   -3466.5595 
 1746000    279.54232   -4691.5788   -4152.4579   -4691.5788            0     3444.767    19.966062    20.045636    20.943132    8382.1202    3205.7662    3407.6826    3720.8522   -744.26564   -42.509593   -766.73485   -3731.3537 
 1747000    259.37333   -4678.4309   -4178.2077   -4678.4309            0     5163.018    20.070995    20.061999    20.683888    8328.6633    6538.4029    2870.1916    6080.4594    135.60889    -1256.693   -573.16063   -3551.0816 
 1748000    270.21993   -4674.1981   -4153.0563   -4674.1981            0    3035.4201    19.985863    20.021491    20.942469    8380.0615    3631.3417    3498.7493    1976.1693   -744.55503    1858.0311    27.394221   -3782.0836 
 1749000     242.4729   -4663.4367   -4195.8073   -4663.4367            0    2541.2784    20.217987    19.802809    20.976442    8398.3994    2893.0697    3085.5486    1645.2169   -208.04384   -755.33473   -711.25259   -3884.5463 
 1750000    264.78624   -4640.2814   -4129.6189   -4640.2814            0    3915.6131    19.936371    20.324026     20.62039    8355.1204    4778.2564    2155.3599     4813.223   -339.32507    932.89794    999.63082    -3652.498 
Loop time of 480.77 on 64 procs for 250000 steps with 972 atoms

Performance: 89.856 ns/day, 0.267 hours/ns, 519.999 timesteps/s
99.1% CPU use with 64 MPI tasks x 1 OpenMP threads

MPI task timing breakdown:
Section |  min time  |  avg time  |  max time  |%varavg| %total
---------------------------------------------------------------
Pair    | 20.057     | 27.835     | 36.077     |  76.4 |  5.79
Bond    | 0.26871    | 0.27721    | 0.29276    |   1.0 |  0.06
Kspace  | 195.96     | 209.86     | 234.48     |  59.4 | 43.65
Neigh   | 3.063      | 3.8675     | 5.3149     |  31.0 |  0.80
Comm    | 92.308     | 113.59     | 128.64     |  82.0 | 23.63
Output  | 0.94748    | 0.94945    | 0.95088    |   0.1 |  0.20
Modify  | 114.34     | 117.32     | 122.69     |  16.3 | 24.40
Other   |            | 7.08       |            |       |  1.47

Nlocal:        15.1875 ave          20 max          11 min
Histogram: 3 3 7 12 11 9 10 7 1 1
Nghost:        2202.45 ave        2227 max        2175 min
Histogram: 3 3 6 10 6 14 7 3 5 7
Neighs:        4708.44 ave        6155 max        3343 min
Histogram: 4 6 6 11 8 6 7 6 5 5

Total # of neighbors = 301340
Ave neighs/atom = 310.02058
Ave special neighs/atom = 2.0000000
Neighbor list builds = 8532
Dangerous builds = 0

unfix		3
unfix		2
unfix		1

write_data	data.final.${pid}
write_data	data.final.0
System init for write_data ...
PPPM initialization ...
  extracting TIP4P info from pair style
  using 12-bit tables for long-range coulomb (../kspace.cpp:340)
  G vector (1/distance) = 0.37110965
  grid = 24 24 24
  stencil order = 5
  estimated absolute RMS force accuracy = 0.0036456901
  estimated relative force accuracy = 1.0978887e-05
  using double precision FFTW3
  3d grid and FFT values/proc = 2197 216
Last active /omp style is kspace_style pppm/tip4p/omp
WARNING: Not all mixed pair coeffs generated from mixing. Use write_data with 'pair ij' option to store all pair coeffs. (../write_data.cpp:312)

write_restart   restart.lmp.${pid}
write_restart   restart.lmp.0
System init for write_restart ...
PPPM initialization ...
  extracting TIP4P info from pair style
  using 12-bit tables for long-range coulomb (../kspace.cpp:340)
  G vector (1/distance) = 0.37110965
  grid = 24 24 24
  stencil order = 5
  estimated absolute RMS force accuracy = 0.0036456901
  estimated relative force accuracy = 1.0978887e-05
  using double precision FFTW3
  3d grid and FFT values/proc = 2197 216
Last active /omp style is kspace_style pppm/tip4p/omp
Total wall time: 0:08:02
