LAMMPS (30 Jul 2021)
Processor partition = 0
  using 1 OpenMP thread(s) per MPI task
using multi-threaded neighbor list subroutines
variable        pid world 0 1
variable        phase world IceII IceIII

shell cd ${phase}
shell cd IceII
include Restart.lmp
echo both
log log.lammps
#include		in.partitions
include		in.temp
variable        temperature equal 114.93
variable	tempDamp equal 100.0
include		in.pressure
variable        pressure equal 3918.8
variable        pressureDamp equal 1000.0 # This is 1 ps
include		in.seed
variable        seed equal 745823

units		real
atom_style	full
box tilt large
read_restart	restart.lmp.${pid}
read_restart	restart.lmp.0
Reading restart file ...
  restart file = 30 Jul 2021, LAMMPS = 30 Jul 2021
  restoring atom style full from restart
  triclinic box = (-10.655377 -9.1121074 0.088243470) to (12.635377 12.102105 21.771756) with tilt (-9.3431816 1.9260861 2.8335414)
  4 by 4 by 4 MPI processor grid
  restoring pair style lj/cut/tip4p/long/omp from restart
  restoring bond style harmonic/omp from restart
  restoring angle style harmonic/omp from restart
  1296 atoms
  864 bonds
  432 angles
Finding 1-2 1-3 1-4 neighbors ...
  special bond factors lj:    0        0        0       
  special bond factors coul:  0        0        0       
     2 = max # of 1-2 neighbors
     1 = max # of 1-3 neighbors
     1 = max # of 1-4 neighbors
     2 = max # of special neighbors
  special bonds CPU = 0.006 seconds
  read_restart CPU = 0.015 seconds
include 	in.setup
variable	out_freq equal 1000
variable	out_freq2 equal 10000
variable	out_freq3 equal 1000

timestep	2.0

neigh_modify    delay 7 every 1

include		in.tip4p
# This is TIP4P/Ice

# create groups ###
group ox type 2
432 atoms in group ox
group hy type 1
864 atoms in group hy

# set charges - beside manually ###
set group ox charge -1.1794
Setting atom values ...
  432 settings made for charge
set group hy charge 0.5897
Setting atom values ...
  864 settings made for charge

# ### TIP3P Potential Parameters ###
pair_style lj/cut/tip4p/long/omp 2 1 1 1 0.1577 8.5
pair_coeff 1 1*2 0.000 0.000
pair_coeff 2 2 0.21084 3.1668
bond_style  harmonic
bond_coeff  1 450 0.9572
angle_style harmonic
angle_coeff 1 55 104.52
kspace_style pppm/tip4p/omp 1.0e-5
pair_modify tail yes

thermo          ${out_freq}
thermo          1000
thermo_style    custom step temp pe etotal epair emol press lx ly lz vol pxx pyy pzz pxy pxz pyz enthalpy

restart 	${out_freq3} restart.lmp.${pid} restart2.lmp.${pid}
restart 	1000 restart.lmp.${pid} restart2.lmp.${pid}
restart 	1000 restart.lmp.0 restart2.lmp.${pid}
restart 	1000 restart.lmp.0 restart2.lmp.0


include         in.dump
dump            myDump all atom ${out_freq2} dump.water.${pid}
dump            myDump all atom 10000 dump.water.${pid}
dump            myDump all atom 10000 dump.water.0
dump            myDump2 all dcd ${out_freq2} dump.dcd
dump            myDump2 all dcd 10000 dump.dcd
dump_modify     myDump append yes
dump_modify     myDump2 append yes


variable natoms 	equal  "count(all)"                        # NUMBER ATOMS
variable H      	equal  "enthalpy/v_natoms"                 # ENTHALPY-per-atom
variable Vol      	equal  "vol/v_natoms"                 # volume-per-atom
fix AVG all 		ave/time ${out_freq} 1 ${out_freq} v_Vol v_H file vol_enthalpy.dat
fix AVG all 		ave/time 1000 1 ${out_freq} v_Vol v_H file vol_enthalpy.dat
fix AVG all 		ave/time 1000 1 1000 v_Vol v_H file vol_enthalpy.dat


timer           timeout 10:00:00 every 1000
New timer settings: style=normal  mode=nosync  timeout=10:00:00

fix 		1 all shake 1e-6 200 0 b 1 a 1
Finding SHAKE clusters ...
       0 = # of size 2 clusters
       0 = # of size 3 clusters
       0 = # of size 4 clusters
     432 = # of frozen angles
  find clusters CPU = 0.001 seconds
fix             2 all nph tri ${pressure} ${pressure} ${pressureDamp}
fix             2 all nph tri 3918.8 ${pressure} ${pressureDamp}
fix             2 all nph tri 3918.8 3918.8 ${pressureDamp}
fix             2 all nph tri 3918.8 3918.8 1000
fix             3 all temp/csvr ${temperature} ${temperature} ${tempDamp} ${seed}
fix             3 all temp/csvr 114.93 ${temperature} ${tempDamp} ${seed}
fix             3 all temp/csvr 114.93 114.93 ${tempDamp} ${seed}
fix             3 all temp/csvr 114.93 114.93 100 ${seed}
fix             3 all temp/csvr 114.93 114.93 100 745823


run             250000
PPPM initialization ...
  extracting TIP4P info from pair style
  using 12-bit tables for long-range coulomb (../kspace.cpp:340)
  G vector (1/distance) = 0.36730567
  grid = 30 40 32
  stencil order = 5
  estimated absolute RMS force accuracy = 0.0045533739
  estimated relative force accuracy = 1.371235e-05
  using double precision FFTW3
  3d grid and FFT values/proc = 5168 640
Last active /omp style is kspace_style pppm/tip4p/omp
Neighbor list info ...
  update every 1 steps, delay 7 steps, check yes
  max neighbors/atom: 2000, page size: 100000
  master list distance cutoff = 10.8154
  ghost atom cutoff = 10.8154
  binsize = 5.4077, bins = 7 5 5
  1 neighbor lists, perpetual/occasional/extra = 1 0 0
  (1) pair lj/cut/tip4p/long/omp, perpetual
      attributes: half, newton on, omp
      pair build: half/bin/newton/tri/omp
      stencil: half/bin/3d/tri
      bin: standard
Setting up Verlet run ...
  Unit style    : real
  Current step  : 7500000
  Time step     : 2
  Walltime left : 9:59:59.91
Per MPI rank memory allocation (min/avg/max) = 9.438 | 9.442 | 9.448 Mbytes
Step Temp PotEng TotEng E_pair E_mol Press Lx Ly Lz Volume Pxx Pyy Pzz Pxy Pxz Pyz Enthalpy 
 7500000    117.90515   -6711.7558   -6408.4519   -6711.7558            0     4066.726    23.290754    21.214213    21.683512    10713.715    3274.7569    4478.7158    4446.7054    241.09336   -191.94443    439.82639   -5773.0319 
 7501000    115.57123   -6718.9487   -6421.6488   -6718.9487            0    3681.9235    23.322438    21.231614    21.602016    10696.735    3237.8236    4169.4949    3638.4519   -337.86525   -18.897675   -17.646752   -5847.2654 
 7502000    116.04461   -6720.9674   -6422.4497   -6720.9674            0    3989.3137    23.179075    21.362924    21.596722     10694.11    3498.2275    3719.9345    4749.7793    15.878794   -339.14378     723.1269   -5800.2658 
 7503000    113.56236   -6714.3166   -6422.1843   -6714.3166            0    3977.2974    23.122658    21.458748    21.517792    10676.769    4903.9161    2429.1706    4598.8053    -501.7898   -49.749106    209.96799   -5802.8805 
 7504000    111.15514   -6727.3517   -6441.4119   -6727.3517            0    3569.9979    23.113756    21.427654    21.633963     10714.73    3325.8467     3698.532    3685.6149     1214.495    1281.6167   -116.73837   -5883.5521 
 7505000     118.4231   -6729.8458   -6425.2096   -6729.8458            0    4579.3274    23.132633    21.344481    21.588873    10659.593    4920.2725    4786.9844    4030.7253   -589.17914     509.0749   -431.27409   -5713.3109 
 7506000    117.84529   -6716.4622   -6413.3123   -6716.4622            0    2705.9419    23.388595    21.294492    21.569497     10742.65     1765.482    3291.9645     3060.379    147.60061    5.1825502    74.198634    -5989.371 
 7507000    111.39118   -6717.8028   -6431.2558   -6717.8028            0    3602.9132    23.278675    21.202964    21.708504    10714.817    2641.0605    4546.1088    3621.5703    1272.2396   -154.87141    630.02711    -5868.248 
 7508000    117.53843    -6722.447   -6420.0865    -6722.447            0    4137.8078    23.259126     21.31617    21.582696    10700.603    3690.5588     4250.555    4472.3094   -281.92344   -64.966482   -264.85551   -5774.3513 
 7509000    119.04627   -6706.2944   -6400.0551   -6706.2944            0     4647.573    23.171693    21.355258    21.592727    10684.891     5500.562    4060.5935    4381.5635   -721.25979   -218.62695    111.65041   -5675.8323 
 7510000    116.21453   -6716.7041   -6417.7493   -6716.7041            0    3722.0877    23.147066    21.280638    21.727525    10702.638    3458.2411    4978.4943    2729.5276     678.5167    1028.6752   -178.46161   -5836.7798 
 7511000    114.43601   -6717.5655   -6423.1858   -6717.5655            0    3863.1869    23.224622    21.397817    21.524788    10696.877    3869.2258    3408.0991    4312.2358    55.823903    97.367191   -123.09257   -5820.5171 
 7512000    116.73274   -6706.0976   -6405.8097   -6706.0976            0    3338.6801    23.193909    21.386266     21.64693    10737.551    4359.9376    2178.0955    3478.0073   -85.267104   -1146.3153   -483.91515   -5882.9852 
 7513000    117.36146   -6714.3284   -6412.4232   -6714.3284            0    3945.7799    23.282547    21.282643    21.560839    10683.701    3678.8013    3949.3802    4209.1583    502.97678    322.15225   -527.74727    -5797.628 
 7514000    112.56767   -6725.8274   -6436.2539   -6725.8274            0     3915.174    23.216419    21.299139    21.629682    10695.656    3441.0474    3467.5973    4836.8773    1298.4656    90.912851    553.81339   -5825.5448 
 7515000    116.23444   -6720.9076   -6421.9016   -6720.9076            0    4601.0724    23.177886    21.304604    21.612813    10672.314    5139.3623    4164.9556    4498.8995   -477.34303   -300.38529    338.49205   -5705.7688 
 7516000     116.4553    -6724.025   -6424.4508    -6724.025            0    4629.8209    23.159613    21.321084    21.615473    10673.462    5206.1171    4226.6325    4456.7132   -400.15644    883.63971    109.13553   -5703.7659 
 7517000    114.81342   -6718.0102   -6422.6597   -6718.0102            0    3225.9234    23.148775    21.426031    21.651363    10738.781    3585.2615    2810.8606    3281.6482   -329.09674   -269.99409    180.68966   -5917.4346 
 7518000    113.03479   -6728.3236   -6437.5485   -6728.3236            0    4325.6695    23.242588    21.393498    21.449505    10665.557    3247.0388    4200.9495    5529.0203   -741.82495    1243.0838    21.912885    -5764.707 
 7519000    118.11478   -6731.8314   -6427.9884   -6731.8314            0    3842.3628    23.176031    21.291848    21.688686     10702.51    3838.6352    4411.8994    3276.5538    1335.7789    230.60763   -846.49244   -5828.2527 
 7520000    115.12727   -6725.0236   -6428.8657   -6725.0236            0    4554.2943    23.241617    21.330767    21.498106    10657.934    4199.6596    3930.6324     5532.591   -426.86816   -38.622879    1087.8345   -5720.9689 
 7521000    114.69667    -6736.307   -6441.2568    -6736.307            0     4016.913    23.160023    21.297088    21.678406    10692.679    3588.8547    4352.0755    4109.8089    440.20003   -144.97755    -151.6133   -5814.8523 
 7522000    115.16776   -6723.3884   -6427.1263   -6723.3884            0    2709.4213    23.308798    21.333661    21.633517    10757.526    3108.6548     2033.196    2986.4131   -703.71315    552.88462    348.36152   -6002.0521 
 7523000    118.05312   -6732.8221   -6429.1377   -6732.8221            0    4229.0409    23.296047    21.305065    21.528333    10685.024    4372.1033    3603.7163    4711.3031    444.92014   -587.65764    515.29978   -5770.1258 
 7524000    121.21795   -6701.8423   -6390.0165   -6701.8423            0    5098.3278     23.18179    21.222171    21.671814    10661.837    5564.6973    6566.9006    3163.3855    26.882242    353.36027   -738.89979   -5597.2675 
 7525000    119.89651   -6712.7202   -6404.2937   -6712.7202            0    3478.3213    23.324002    21.404447    21.479955    10723.596    3131.9605    1995.6064     5307.397    287.70123    603.52059    922.13671   -5860.3099 
 7526000    122.33549   -6721.0272   -6406.3265   -6721.0272            0    4073.8502    23.128913    21.350801    21.604325    10668.665    4053.9915    4360.3579    3807.2013    577.75406   -623.19309    -463.3229   -5772.4699 
 7527000    111.80032   -6706.2687   -6418.6692   -6706.2687            0    3444.7222    23.171909    21.445029    21.633288    10750.062    3449.1576    3143.1305    3741.8785    226.32861   -730.50572   -667.64319   -5878.6104 
 7528000    113.54695   -6727.8459   -6435.7533   -6727.8459            0    4796.4495    23.181604    21.375533    21.461345    10634.507    4763.4167    4017.0739    5608.8579   -451.12742   -337.72782   -444.11727   -5691.8557 
 7529000    115.34903   -6732.2337   -6435.5054   -6732.2337            0    2918.7245    23.218063    21.332188     21.66505    10730.528    2359.6765     3002.394    3394.1031    371.52405    403.60385     416.5678   -5978.7432 
 7530000    118.24666   -6708.7579   -6404.5756   -6708.7579            0    4580.9739    23.225733    21.276963    21.584161    10666.311    4472.3766    4983.4849    4287.0602     314.2319    380.96418    449.81791    -5691.972 
 7531000    115.86624   -6708.5178   -6410.4589   -6708.5178            0    3410.4397    23.211719    21.277205    21.738111     10736.03    4456.7965    3996.9305    1777.5921     309.3364   -864.60012     -1011.67   -5876.4728 
 7532000     117.6752   -6715.8474   -6413.1351   -6715.8474            0     4691.928    23.316182    21.274157    21.502853    10666.106    3399.7999    5798.1437    4877.8405   -759.84415    387.12446   -388.00698   -5683.2859 
 7533000    115.38228   -6720.3163   -6423.5024   -6720.3163            0    4989.3494    23.199363    21.302656    21.601676    10675.722    5627.4068    4033.1316    5307.5099    705.14199   -1458.1386    127.92528   -5646.6884 
 7534000    115.75569   -6725.5587   -6427.7842   -6725.5587            0    4450.8195    23.165046    21.292793    21.628526    10668.239    4921.0103    4365.9626    4065.4858   -119.70922   -204.43365   -17.882106    -5735.302 
 7535000    114.82826   -6730.3992   -6435.0105   -6730.3992            0    3558.9333    23.241212    21.339684    21.582731    10704.174     2707.638     4327.052    3642.1098    523.55197    22.290885    658.61033   -5879.4276 
 7536000    113.70219   -6725.6681   -6433.1761   -6725.6681            0    2593.8046    23.158249    21.410024    21.693783    10756.182    3052.0949    2795.7651    1933.5537    -1269.257    236.22181   -44.152471   -6026.2915 
 7537000    115.61179   -6719.5058   -6422.1015   -6719.5058            0    3684.3408    23.254816    21.375488    21.547237    10710.766    2879.2011    3694.0649    4479.7563     280.3656   -459.78233    22.269886   -5846.5871 
 7538000    116.17412   -6723.6523   -6424.8015   -6723.6523            0    4489.3429    23.193208    21.294825    21.627253    10681.599    3932.5595     4539.917    4995.5522   -185.53175    221.64183    326.67656   -5725.4509 
 7539000    115.76964   -6718.4938   -6420.6835   -6718.4938            0    4348.1999    23.247315    21.274696    21.605295    10685.537    4222.7868    4272.2788    4549.5342   -252.43289   -839.21646    264.15829   -5743.0704 
 7540000    112.52592   -6719.2831    -6429.817   -6719.2831            0    4067.2919    23.184144    21.337817    21.615813    10693.322    4524.0568    3751.9681    3925.8509   -253.45654    177.66921   -868.10861   -5795.5182 
 7541000    110.67625   -6716.5806   -6431.8727   -6716.5806            0    4281.6627    23.256822    21.381403    21.466537    10674.525    4017.3759    4459.2127    4368.3994    -94.15425   -550.28984   -273.10391   -5765.3163 
 7542000    108.13917   -6706.7227   -6428.5413   -6706.7227            0    2806.0363    23.143459    21.344991    21.783258    10760.863    3238.4824    2776.8102    2402.8163   -453.89745    58.052636    902.49979   -5988.1728 
 7543000     115.4267   -6714.8849   -6417.9567   -6714.8849            0    4127.2057    23.284903    21.308485    21.539124    10686.981    3823.0123    4695.0917    3863.5131    518.72245    512.95938    30.641519    -5774.696 
 7544000    114.65174    -6714.465   -6419.5304    -6714.465            0     4052.298    23.223948    21.297471    21.664021    10715.271    3871.5922    4800.5505    3484.7514     519.6956   -1225.9589   -277.94844   -5786.2728 
 7545000    111.04088   -6738.7675   -6453.1216   -6738.7675            0    3650.4352    23.276473    21.265513    21.642515    10712.745    3894.1952    3330.9799    3726.1304    17.983462    57.261196   -787.59585   -5882.7981 
 7546000    118.28093   -6718.6072   -6414.3367   -6718.6072            0    5072.5524    23.305233    21.256871    21.480234    10641.229     4169.631    5102.4122    5945.6139    162.16146    395.79775   -136.65715   -5627.1201 
 7547000     111.0189   -6724.4367   -6438.8473   -6724.4367            0    2470.0232    23.168621     21.32038     21.79646    10766.663    3206.3468    2997.2317     1206.491   -155.18046    -590.5634    146.39369   -6051.0025 
 7548000    121.40541   -6727.2941   -6414.9861   -6727.2941            0    3838.3353    23.240512    21.366506    21.536888    10694.541     3281.148    4231.5231    4002.3347    269.92832    87.537601   -499.35822   -5816.3252 
 7549000    117.23546   -6719.5915   -6418.0104   -6719.5915            0    3499.0841    23.195049    21.395868    21.643604    10741.249    3116.5219    3630.0092    3750.7213   -800.00866    530.72802    -21.93215   -5869.8785 
 7550000    121.27083   -6734.8247   -6422.8629   -6734.8247            0    3869.0326    23.191674    21.431451    21.523936    10698.068    3853.4619    4007.6629     3745.973    9.4107284   -581.71629   -1033.4937   -5819.2151 
 7551000     116.0116    -6710.031   -6411.5982    -6710.031            0    4021.2921    23.289953    21.341094    21.509663    10691.014    3970.5396    3320.2574    4773.0792    10.047947    319.27599   -659.56726   -5784.6085 
 7552000    116.12194   -6734.0533   -6435.3367   -6734.0533            0    3195.3118    23.216007    21.164524    21.821187    10721.966    2999.1082    4858.9385    1727.8887   -972.21555    262.03447   -176.17606   -5935.6894 
 7553000    112.53038   -6722.1803   -6432.7028   -6722.1803            0    4410.1488     23.31844     21.23263    21.555689    10672.476    3720.4366     4285.878     5224.132   -684.30199    1229.7245    276.52366   -5746.2758 
 7554000    117.05886   -6717.9836   -6416.8568   -6717.9836            0    3486.5287    23.239896    21.264138    21.708805    10727.978    3086.2268     4073.065    3300.2944   -513.26441   -84.489085   -364.47255   -5871.3665 
 7555000    118.17648   -6720.2234   -6416.2216   -6720.2234            0    3942.0728    23.343273    21.358004    21.429211     10683.87    3106.5203    3797.9109    4921.7872    -98.40234   -382.33338    31.330241   -5801.9944 
 7556000    115.23546    -6702.453   -6406.0168    -6702.453            0    4008.7609    23.181768    21.382443    21.582001    10697.827    3233.8403    4273.1838    4519.2585     217.2187   -110.86553   -792.18572   -5780.5826 
 7557000    117.66014   -6725.1857   -6422.5121   -6725.1857            0    5155.8155    23.105901    21.351312    21.584207    10648.381    4647.5521    4777.5597    6042.3346   -133.26431    957.75071    696.63463   -5621.8361 
 7558000    113.58275   -6716.8888   -6424.7041   -6716.8888            0    4723.8719    23.186984    21.409239    21.522249    10683.982    5062.9262    3559.6162    5549.0734    258.05354    329.31573    781.82188   -5688.6544 
 7559000    117.87602    -6723.766   -6420.5371    -6723.766            0    3929.6577    23.139545    21.266199    21.730294    10693.264    4084.2029    4633.7667    3071.0036   -201.82849    643.00162   -112.35822   -5807.7058 
 7560000     109.5886   -6724.8933   -6442.9833   -6724.8933            0    3275.1323    23.327024    21.319823    21.561753    10723.264    2144.4483    3702.5007    3978.4479   -25.645457     184.9886    97.822843   -5930.7925 
 7561000    116.65972   -6723.6492   -6423.5492   -6723.6492            0    4153.6022    23.253316    21.244642    21.654959    10697.731    4898.5048     4132.836    3429.4657   -555.93466   -430.97206   -1214.9037   -5775.5231 
 7562000    114.76124   -6715.0725   -6419.8563   -6715.0725            0    2337.2254    23.330096    21.382291    21.574803     10762.61    1448.0975    2661.8145    2901.7641   -678.34347     286.8183    231.21098   -6053.0016 
 7563000     118.1922   -6706.4653    -6402.423   -6706.4653            0    4374.4222    23.081724    21.392156    21.648067    10689.119    5475.3124    4549.3801     3098.574   -534.00168   -210.04746     829.0065   -5720.4951 
 7564000    116.15967   -6724.7878   -6425.9742   -6724.7878            0     4752.576    23.110547    21.317667    21.643459     10662.93    5562.2286    4813.5888    3881.9108    442.11963    341.57349     136.8245    -5686.911 
 7565000    109.83088   -6729.0825   -6446.5492   -6729.0825            0    4249.5937    23.180569    21.340808    21.600356    10685.525    4618.4448    3626.7533    4503.5829    246.13644    52.472462    124.80229   -5784.3035 
 7566000     121.8186   -6724.2925   -6410.9216   -6724.2925            0     2696.683    23.187551     21.51231    21.584047    10766.507    3392.1539    1939.8612    2758.0339   -756.44764   -625.24884   -972.06804   -5987.4925 
 7567000    109.65851   -6725.8615   -6443.7716   -6725.8615            0    3692.5647    23.192049    21.415858    21.552099    10704.445    4169.3874     3256.618    3651.6887   -131.87673   -491.28718   -889.63904    -5867.313 
 7568000    114.59342   -6733.1968   -6438.4122   -6733.1968            0    3424.2003    23.204283    21.336775    21.632652    10710.425    2956.0684    3961.3692    3355.1633   -493.55123    540.69609   -375.24544   -5903.5502 
 7569000    111.56748   -6730.5819   -6443.5814   -6730.5819            0    5242.9651    23.263398    21.227818    21.515286    10624.919    5018.1314    5199.6816    5511.0823    1018.3295    394.42476    390.02829   -5631.1654 
 7570000    117.71463   -6729.9999   -6427.1862   -6729.9999            0    4327.5694    23.168885    21.270064    21.681869    10684.904    4417.4734    4263.6755    4301.5593   -552.11799    279.14534      525.648   -5752.8281 
 7571000    114.71926   -6715.2905   -6420.1822   -6715.2905            0    4466.0141    23.270522    21.268509    21.561119     10671.23    4191.8928    4326.7036    4879.4459    550.09682   -252.31692    826.38837   -5725.1412 
 7572000    117.21089    -6699.269   -6397.7511    -6699.269            0     3808.076    23.236585    21.221016    21.750682    10725.347    4631.6082    3341.4504    3451.1694    435.96122   -68.465748   -642.92699   -5802.0988 
 7573000    111.80136   -6724.5038   -6436.9017   -6724.5038            0    4334.0237    23.318698    21.292186    21.525103    10687.344    4224.4284    4562.9243    4214.7183    33.333357   -798.84181    -84.26628   -5761.3836 
 7574000    119.66357   -6732.1624   -6424.3351   -6732.1624            0    4471.6414    23.219151    21.240123    21.627007    10665.956    4219.2813    4922.1325    4273.5104   -222.55137    104.11049    434.33499   -5728.7622 
 7575000    115.68381   -6724.8042   -6427.2147   -6724.8042            0    3946.4579    23.174301    21.330457    21.659175     10706.53    4085.3783    4041.6955       3712.3    120.74818     182.2316   -4.0890979   -5810.9999 
 7576000    117.60828   -6730.0733   -6427.5332   -6730.0733            0    3166.3964    23.155042    21.435115    21.616566    10728.971    3611.2989    2920.7631    2967.1271   -433.04569   -457.74772   -165.33059   -5932.0839 
 7577000    115.20016   -6729.5604    -6433.215   -6729.5604            0    4785.9863    23.118638    21.446079    21.525148    10672.257    4378.9807      4216.73    5762.2481   -175.65889    62.364797    381.83018   -5688.3053 
 7578000    113.23458   -6699.7699   -6408.4809   -6699.7699            0    3155.1103    23.196163    21.345413    21.701863     10745.28    3051.6203    3928.6389    2485.0716    623.47953    531.53818    294.66243   -5914.0471 
 7579000    112.73044   -6727.5318   -6437.5396   -6727.5318            0    4225.5246    23.238474    21.245307    21.633509    10680.648     4595.248    4015.9548    4065.3709    218.01204    311.77815   -590.22115   -5779.3453 
 7580000    119.82042   -6713.9952   -6405.7645   -6713.9952            0    4921.9542    23.265253    21.204622    21.632089    10671.778    4445.1622     5868.543    4452.1574    225.72685   -502.60173   -756.35183   -5639.7266 
 7581000    111.45928   -6717.5531   -6430.8309   -6717.5531            0    4526.7793     23.30287    21.229564    21.591765    10681.657    4456.5922    4445.3366    4678.4092    -28.60448   -221.31485   -303.09889   -5725.6447 
 7582000    106.22576   -6705.8836   -6432.6243   -6705.8836            0    3907.1272    23.226744    21.321517    21.633895    10713.741    4768.5029    3319.6492    3633.2296   -754.59067    150.27002    55.184719   -5822.1399 
 7583000    115.65797   -6722.3868   -6424.8637   -6722.3868            0    4148.6064    23.152658    21.454747    21.486644    10673.155    4841.2366    3021.0283    4583.5544   -1018.2311   -212.82756    332.93043   -5779.1039 
 7584000    121.54113    -6717.318   -6404.6608    -6717.318            0    3588.8279    23.163515    21.404934     21.62409    10721.516    3015.0894    3254.0277    4497.3665   -221.42582    588.10884    112.43514   -5843.5034 
 7585000    113.97216   -6718.2836   -6425.0972   -6718.2836            0    4835.7202    23.123015    21.368995    21.601233    10673.506     5317.301    4855.0864    4334.7731    -692.9123    97.369386   -1312.8461   -5672.3586 
 7586000    118.31265   -6740.8014   -6436.4493   -6740.8014            0    3236.5643    23.323075    21.315737    21.577773    10727.358    2403.5588    3307.0379    3999.0962   -54.290841    792.93459    176.04071   -5930.0969 
 7587000    113.57644   -6731.5567   -6439.3882   -6731.5567            0    3561.8836     23.26605    21.221394    21.686212    10707.307    3854.3834    4409.4961    2421.7712    94.855066   -974.12555   -324.22784   -5883.1819 
 7588000     116.1231   -6719.4711   -6420.7516   -6719.4711            0    3959.4911    23.235074    21.247507    21.665787    10696.126    3545.9217    3726.1074    4606.4443   -670.40266    243.17216    828.65893   -5803.1025 
 7589000    112.44601   -6736.2423   -6446.9817   -6736.2423            0    5321.6176    23.179877    21.319697    21.511176    10630.564    5258.8301    5169.2466    5536.7762    167.95647     -178.852    568.94244   -5621.9401 
 7590000    115.83939   -6729.4055   -6431.4158   -6729.4055            0    4316.9023    23.145597    21.360366    21.617175    10687.497    4443.0612    4056.0316    4451.6139   -580.84662    509.60995   -432.50128   -5758.5567 
 7591000    116.19851   -6738.4393   -6439.5257   -6738.4393            0    4356.4203    23.208136    21.388608     21.49107    10667.946    4516.2655    3484.3633    5068.6323    376.22246   -273.90143   -161.79701   -5761.7493 
 7592000    115.71422   -6723.5137   -6425.8459   -6723.5137            0    3831.0566     23.17626    21.271058    21.704695    10700.058    3577.5928    4626.7473    3288.8297    -420.9069   -33.793128    231.24636   -5828.0119 
 7593000    115.65225   -6724.1979   -6426.6896   -6724.1979            0    3921.5962      23.2904    21.260697    21.594303    10692.854    2665.2158    4661.7379     4437.835    685.30566    246.73349    1234.3005    -5815.139 
 7594000    115.76242   -6718.8964   -6421.1046   -6718.8964            0    3921.0471    23.224074    21.236583    21.696715    10700.819    4156.2929    4063.2642    3543.5842    748.38687    507.27839    366.31784   -5809.1841 
 7595000    110.35115   -6733.6873   -6449.8157   -6733.6873            0    3765.2043    23.256241    21.331761    21.605196    10718.264    3488.1477    4452.6243    3354.8409    347.13131   -206.82291   -616.29066   -5861.2583 
 7596000     119.0331   -6719.0737   -6412.8683   -6719.0737            0    4250.0714    23.270414    21.379604    21.506941    10699.967    3827.1756    4379.7501    4543.2885    137.43867   -631.99168   -1011.0596    -5749.653 
 7597000    112.93453   -6719.1174   -6428.6002   -6719.1174            0    2960.8836    23.193906    21.334926    21.700421    10738.242     3643.373     3056.748    2182.5299   -39.532307    371.81515   -300.28708   -5964.9073 
 7598000    113.32984   -6737.8775   -6446.3434   -6737.8775            0     3825.175    23.178245    21.381768    21.521911    10666.084    4974.0289    2263.2484    4238.2476   -765.10055    633.07543    719.80657   -5851.3226 
 7599000    119.92881   -6732.0585    -6423.549   -6732.0585            0    3157.2913    23.166102    21.403521    21.636518    10728.168     3101.447    3325.4344    3044.9926    513.85978   -991.75378   -28.305581   -5929.5613 
 7600000    116.68235   -6733.6707   -6433.5125   -6733.6707            0    4367.6372    23.272991    21.314558    21.522255    10676.191    4476.9983    4959.1965    3666.7168    503.53785    617.49587   -1477.2594   -5753.4657 
 7601000    113.39382   -6734.2616   -6442.5629   -6734.2616            0    4104.7393    23.291891    21.283045    21.570758    10693.107    3898.6555    4648.1858    3767.3767   -344.87794   -185.30423   -537.66293    -5802.437 
 7602000    118.19715   -6732.6123   -6428.5573   -6732.6123            0    3665.1619     23.25862    21.241291    21.678171    10709.951    3501.0085    4727.8842    2766.5929    208.19352     76.95786    351.12778   -5856.0823 
 7603000    117.32326   -6712.5068   -6410.6999   -6712.5068            0    3641.1163     23.22907    21.280427    21.638219    10696.302    2903.7241    4175.6283    3843.9964   -432.46741     1102.189    784.14773   -5842.7054 
 7604000    119.62914   -6734.1167    -6426.378   -6734.1167            0    2796.7308    23.197992    21.351525    21.687344    10742.012    2548.9937    3179.2442    2661.9544    288.85696    490.88266    392.89863   -5988.2387 
 7605000    113.53145   -6712.4941   -6420.4414   -6712.4941            0    3363.7857    23.223428     21.44533    21.539901    10727.604    4159.8535    1864.3937    4067.1099   -198.31252    -278.0866    75.238069   -5894.1734 
 7606000    113.52526   -6722.7327   -6430.6959   -6722.7327            0     4617.463    23.140417    21.432514    21.490239    10658.241    5051.4317    4255.4524    4545.5049    710.98354   -242.04101   -458.83997   -5712.9597 
 7607000    114.04845   -6719.3535   -6425.9708   -6719.3535            0    5518.5089    23.027144    21.316577    21.662487    10633.246    6000.2842    5205.7648    5349.4775   -481.52029    131.73629   -286.40676   -5570.1881 
 7608000    113.30258   -6721.5311   -6430.0671   -6721.5311            0    3534.6754    23.179813    21.430592    21.523637     10692.02    3944.3305    3282.4872    3377.2086   -175.69889   -177.06986   -254.54664   -5878.8976 
 7609000    111.56778   -6721.2971   -6434.2957   -6721.2971            0    3225.5579    23.235038    21.286494    21.670355    10717.995    3211.2052    3144.6819    3320.7866    480.30213   -8.2319465   -92.715059   -5930.1057 
 7610000    114.43659   -6729.8647   -6435.4835   -6729.8647            0     2952.314    23.365838    21.224186    21.638614    10731.041    3268.8798    3464.4267    2123.6356    -747.7355   -409.56803   -751.46155   -5973.4428 
 7611000     115.6203   -6717.3559   -6419.9297   -6717.3559            0    4979.4095    23.252626    21.228434    21.562042    10643.387    4345.6249    5180.2643    5412.3392   -765.00715    704.81171    191.34183   -5647.0114 
 7612000    116.44543   -6722.2955   -6422.7467   -6722.2955            0    4172.6907    23.254118    21.250905    21.644888    10696.277    4322.0887    4211.4844     3984.499    585.01716    207.22141   -31.766907    -5771.831 
 7613000    121.26197    -6733.905   -6421.9659    -6733.905            0    4200.4478    23.254336    21.320884    21.531287    10675.277    3506.1132    4534.7449    4560.4855    140.77062   -78.645377   -931.89795   -5768.0068 
 7614000    119.46599   -6727.9212   -6420.6022   -6727.9212            0    3230.7986    23.126026    21.490158    21.582929    10726.326    3748.7517     2276.868    3666.7762   -33.286891   -748.77881    965.73017   -5915.2004 
 7615000    116.01778   -6716.5082   -6418.0596   -6716.5082            0     4320.486    23.081213    21.440878    21.560985    10670.132    5043.4871    2712.6392    5205.3318    486.16722    252.10322    951.89418    -5745.736 
 7616000    111.86783   -6735.2417   -6447.4685   -6735.2417            0    2386.1347    23.144414    21.509128    21.634742    10770.124    2397.6223    2032.9595    2727.8223    848.16915   -51.349062   -536.53195   -6072.6754 
 7617000    114.36615   -6746.3829    -6452.183   -6746.3829            0    4859.1324    23.166123    21.331808    21.539875    10644.474    4901.8242    5267.5839    4407.9892   -735.86298   -56.382844     355.0488   -5697.8574 
 7618000    116.65461     -6740.26   -6440.1731     -6740.26            0    3290.3354    23.297015    21.289704     21.61166    10719.093    3551.6467    3206.0795      3113.28     -467.596    94.042548   -483.29914   -5925.8049 
 7619000    117.64352   -6731.8182   -6429.1874   -6731.8182            0    3821.1768     23.31973    21.183417    21.661387    10700.542    3336.3184    4279.3457    3847.8662    528.89393    48.999102    537.87134   -5832.8682 
 7620000    113.17754   -6721.3768   -6430.2345   -6721.3768            0    4079.8104     23.26936    21.283928    21.615398    10705.315    4509.2602    4155.5951     3574.576   -814.92057   -368.30304   -270.97532   -5793.2699 
 7621000    112.14101   -6719.1011   -6430.6252   -6719.1011            0    3986.7107    23.241606    21.364211    21.548397     10699.61    3802.6956    3984.9487    4172.4879   -133.12089    661.34483   -395.34354   -5808.5275 
 7622000    119.26919    -6718.076   -6411.2633    -6718.076            0    3265.6253    23.013276    21.517138    21.685089    10738.018    5001.4472    2501.5854    2293.8432   -422.08526   -914.43166   -643.37364   -5899.8566 
 7623000     114.2075    -6724.167   -6430.3751    -6724.167            0    4462.5906    23.026434    21.447637    21.609163    10671.957    4816.5866    3990.6107    4580.5744    266.60024    210.88205    177.38033   -5735.8196 
 7624000    115.55747   -6719.7906   -6422.5261   -6719.7906            0    3902.8081    23.183264    21.394455    21.548611    10687.967    4289.5514    3669.3439     3749.529    104.40566    148.67663   -68.653825   -5814.1835 
 7625000    119.16245   -6719.2663   -6412.7282   -6719.2663            0    3629.2992    23.239414    21.322725     21.64175    10724.085     3897.787      4036.04    2954.0708   -105.71467    75.692934    104.00169   -5845.1066 
 7626000    112.46233   -6718.2352   -6428.9327   -6718.2352            0    3985.3904    23.363775    21.221723    21.595497     10707.47    3876.6197    4423.7852    3655.7664   -827.56257   -671.50799   -723.86273   -5806.5842 
 7627000    117.65247   -6732.4052   -6429.7513   -6732.4052            0    3633.2018    23.290264    21.218024    21.651589    10699.639    2877.3582    4768.2959    3253.9513    926.20005    383.46561   -449.51423   -5862.8147 
 7628000    115.54998   -6721.4922   -6424.2469   -6721.4922            0    5098.8702    23.170936    21.297569    21.586634    10652.672     5641.234    4756.9763    4898.4004    366.60109   -503.70278   -51.678939   -5632.0951 
 7629000    117.25555    -6708.992   -6407.3592    -6708.992            0    4499.6285    23.080288    21.447845    21.576615    10680.909    4383.3337    4142.8044    4972.7474    578.14144   -179.29374    178.57009   -5706.4516 
 7630000    104.75021   -6717.7039   -6448.2404   -6717.7039            0    3847.3678    23.106514    21.495115    21.545112    10700.966    4449.8657    2507.3844    4584.8533    -255.7472    52.629412   -525.06203   -5847.8101 
 7631000    112.51385    -6733.767    -6444.332    -6733.767            0    4200.1663    23.080917     21.44946    21.584863    10686.087    4410.2137    3227.3503     4962.935    174.09039    244.73701    400.45743   -5789.7544 
 7632000    115.86479    -6710.682   -6412.6269    -6710.682            0    3713.3959    23.254164    21.264712    21.656566    10709.022     3109.214    4655.3728     3375.601    500.26141      803.753    343.45414   -5832.6683 
 7633000    114.91511   -6714.4261   -6418.8139   -6714.4261            0    4060.2012    23.290049    21.219883    21.645316    10697.377    3958.6625    3355.7382     4866.203   -106.57517   -572.56097    1137.7794   -5785.3808 
 7634000    115.66437   -6738.7937   -6441.2541   -6738.7937            0    4678.8896    23.305115    21.218955    21.538441    10650.978    3896.0508    5286.6505    4853.9676     475.1923   -209.46876   -449.12274   -5714.4654 
 7635000    107.60502   -6720.2152   -6443.4078   -6720.2152            0    3298.8648    23.341914    21.316745    21.581366    10738.319    2773.7839    3454.4022    3668.4082   -624.65592   -130.72761   -395.12001   -5926.7813 
 7636000    112.82062   -6704.8683   -6414.6442   -6704.8683            0     3926.865    23.210882    21.329609    21.609326    10698.324    3902.7762    3869.0447    4008.7742    341.71796   -675.36077   -265.84891   -5801.9587 
 7637000    118.02529   -6737.5418   -6433.9289   -6737.5418            0    3462.1569    23.142971    21.382466     21.66205    10719.548    3316.4817    3202.8554    3867.1337    546.59774    629.30577    835.06235   -5892.6774 
 7638000    111.74306   -6725.6762    -6438.224   -6725.6762            0    3556.9939    23.117232    21.547082    21.459086    10688.962    3156.4823    2794.4606    4720.0389    8.4515598    1386.8855    883.91847    -5883.733 
 7639000    113.64003   -6722.9721     -6430.64   -6722.9721            0    4756.1634     23.03264    21.358415    21.694501    10672.407     5572.471    5106.2102     3589.809    513.38878    44.080105   -406.20065   -5690.3617 
 7640000    113.78281   -6720.8175   -6428.1182   -6720.8175            0    4306.2586    23.266309    21.358253    21.522234    10694.994    4417.6184    3862.7716    4638.3856    407.52371   -280.43671   -106.60083   -5756.4472 
 7641000    108.74861   -6718.8179   -6439.0688   -6718.8179            0    3764.3285    23.260273    21.257669    21.659066    10709.524    2976.1982     4230.854    4085.9334   -294.62162      185.425   -251.50377    -5851.128 
 7642000    114.52769   -6718.8392   -6424.2237   -6718.8392            0    4953.7474    23.286624    21.250941    21.550704    10664.639    5026.1994    4198.5955    5636.4474   -1476.6098   -37.066801    655.11881   -5653.7534 
 7643000    112.67363   -6716.8565   -6427.0104   -6716.8565            0    4114.7818    23.223316    21.277738    21.666638    10706.344    4661.0444    4371.9199    3311.3812   -570.12677   -222.04808   -210.91258    -5784.524 
 7644000    115.99841   -6731.0038   -6432.6049   -6731.0038            0    3386.0533    23.239906    21.355298    21.622831    10731.306    2736.8862    3764.3125    3656.9612    627.22245    156.57891   -103.71948   -5902.6704 
 7645000    119.84163   -6714.6257   -6406.3404   -6714.6257            0    4355.8102    23.207614    21.454656     21.46254    10686.443     3891.204     3926.833    5249.3935    -393.6993   -387.73204    428.71254   -5727.4839 
 7646000    113.35378   -6726.5416   -6434.9459   -6726.5416            0    3782.1013    23.113997    21.426199    21.648584    10721.355    4190.4444    3233.5393    3922.3201   -345.76212    142.99702   -285.75985   -5843.5767 
 7647000    113.09821   -6729.4024   -6438.4642   -6729.4024            0    4239.2553    23.161284      21.4318    21.500967    10672.822    4670.1142    3433.1201    4614.5315   -405.77128    168.41491   -559.42771   -5778.6149 
 7648000    112.35154   -6729.5352   -6440.5177   -6729.5352            0    3364.0183    23.142757    21.340726    21.715413    10724.878    3668.6265    2914.1228    3509.3055    -16.73071    494.06641     944.5632   -5914.3471 
 7649000    121.48544   -6725.3793   -6412.8654   -6725.3793            0    3721.9211    23.284153    21.270763    21.591311    10693.565    3358.7412    3692.2371    4114.7848    -118.2734   -15.489902   -399.07466   -5832.4144 
 7650000    113.01885   -6723.5657   -6432.8316   -6723.5657            0    4489.1144    23.248709    21.242877    21.622461    10678.673    3611.6159    6165.3274    3690.3998   -635.95618    294.25555   -574.28891   -5733.7082 
 7651000    117.74495   -6716.5285   -6413.6368   -6716.5285            0    3977.5059    23.301481    21.310866     21.58648    10719.301    3279.2183    4248.0186    4405.2807   -99.118039   -508.39583   -171.21155   -5791.8332 
 7652000     110.3943    -6724.152   -6440.1694    -6724.152            0    3490.9174    23.288216    21.328515    21.573088    10715.418    2895.8975    3779.4908     3797.364     486.8929   -295.20381   -115.76263   -5894.6319 
 7653000    119.45442   -6720.6402    -6413.351   -6720.6402            0    4132.6598    23.146688    21.323607    21.678837    10700.042    4255.4627    4863.2439    3279.2728   -414.48872    422.82476    144.10867    -5768.453 
 7654000      110.912    -6710.381   -6425.0667    -6710.381            0    4021.2231    23.184942    21.432261    21.490773    10678.888    4331.0115    3629.3069    4103.3509    42.939023   -969.12985    417.65602   -5798.7988 
 7655000    110.83139   -6726.7889   -6441.6819   -6726.7889            0    3038.3347    23.092804    21.391345    21.727556    10733.111    3433.9612    2449.8993    3231.1436    840.26098     177.2935    795.95514   -5966.0871 
 7656000    109.84198   -6733.5011   -6450.9393   -6733.5011            0    3859.5523    23.163711     21.39235    21.580587    10693.747    3587.4575     3677.256    4313.9435    380.17613   -128.64062   -280.07847   -5849.0139 
 7657000    110.46959    -6721.944   -6437.7677    -6721.944            0    3659.5024    23.204738    21.392531    21.569525    10707.287     4060.445    3335.1967    3582.8655   -49.920611   -125.33044   -43.016417   -5866.3189 
 7658000    113.71635   -6728.1689   -6435.6406   -6728.1689            0    4692.4845    23.184122    21.241865    21.686295    10679.936    4520.9466    4671.2669    4885.2401   -760.77792    26.445283    158.00302   -5704.7583 
 7659000    115.56778   -6721.0304   -6423.7393   -6721.0304            0    4401.7773    23.338358    21.236362    21.521517    10666.534    3772.3467    4835.4081    4597.5771     233.7734   -528.93254    401.70067   -5738.9968 
 7660000    115.36585   -6732.6878   -6435.9162   -6732.6878            0    3040.0402    23.310674    21.215666    21.733649    10748.408     3114.404    3435.1882    2570.5283   -532.69057   -69.626937     -60.5828   -5959.3761 
 7661000    111.38888    -6730.312   -6443.7708    -6730.312            0    3352.6446    23.313806    21.267945    21.599225    10709.689     3612.275    3109.5889    3336.0699   -500.91301   -235.79653   -827.80557   -5920.1218 
 7662000    113.90977   -6720.3631   -6427.3371   -6720.3631            0    4489.3394    23.191314    21.318584    21.598176    10678.267    4859.1992    3971.6557    4637.1632    330.62326   -909.72085    188.42798   -5728.2052 
 7663000    110.07264   -6711.9002    -6428.745   -6711.9002            0    4009.7279    23.039396    21.442634     21.69155    10716.175    4534.7248    3719.1038    3775.3551    190.41969    -86.15175   -668.44997    -5802.087 
 7664000    112.41179    -6722.634   -6433.4615    -6722.634            0    4859.8976    22.973886    21.611478    21.455589    10652.692    6300.4056    3459.9043    4819.3829    70.122268    -696.9101   -56.027492   -5678.4347 
 7665000    114.35137   -6719.0505   -6424.8885   -6719.0505            0    3959.3285    23.060825    21.430866     21.66518    10707.224    4658.5214    3004.2582     4215.206    298.19857    382.33899    1332.4303    -5806.624 
 7666000    120.18065   -6721.1883   -6412.0309   -6721.1883            0    4281.7946    23.212458    21.342002    21.547038     10674.41    3914.5393    4654.1371    4276.7075   -149.75088   -132.74182   -279.00383   -5745.4612 
 7667000    108.37089   -6709.5356   -6430.7581   -6709.5356            0    3178.5665    23.291327    21.216473    21.761474    10753.646    1840.8623    5181.1798    2513.6575    143.30614    1330.5753   -372.80246   -5932.2607 
 7668000    116.60492   -6711.0746   -6411.1156   -6711.0746            0    3603.5151    23.363391     21.25868    21.537333    10697.052    3788.8365    3269.4672    3752.2414   -490.03851    300.52104   -232.30592   -5848.9473 
 7669000     110.7654   -6688.0644   -6403.1272   -6688.0644            0     4194.139    23.264384    21.224799    21.691444    10710.842    4311.3775    4503.1228    3767.9167   -468.24329   -669.20406   -148.65743   -5747.9748 
 7670000    113.93076    -6718.737   -6425.6571    -6718.737            0    4475.3837    23.270008    21.260103    21.564606    10668.502    3778.9035    5284.4812    4362.7663   -161.10789    401.25176   -741.53139   -5729.3359 
 7671000    112.74126    -6716.534    -6426.514    -6716.534            0    3789.0115    23.171984     21.43698     21.55556    10707.452    3983.8075     3879.948    3503.2788    210.52647    111.99599   -603.61167   -5834.8326 
 7672000     115.6617   -6720.3778   -6422.8451   -6720.3778            0    3663.1009    22.970292    21.514363    21.680548    10714.336    2977.3914    4399.0469    3612.8645    910.82597    606.25363    17.527854   -5850.4578 
 7673000    111.68075   -6720.3704   -6433.0785   -6720.3704            0    4643.5744    23.191752    21.382816    21.479906    10651.992    5108.6356      4003.18    4818.9077    7.2322074    626.93357    86.495841   -5711.7067 
 7674000    110.98863   -6722.7755    -6437.264   -6722.7755            0    4168.3961    23.133224    21.313137    21.712212    10705.023    4755.4167    3400.5272    4349.2443    921.75078   -442.77504   -112.80819   -5786.4866 
 7675000    116.67812    -6719.203   -6419.0556    -6719.203            0    4801.0822    23.286869    21.297012    21.486362    10655.962    4389.1744    4948.9213     5065.151   -19.490637    -199.5886   -134.18776   -5672.9374 
 7676000    109.37443   -6721.9437   -6440.5847   -6721.9437            0      3050.61    23.287626    21.304714    21.634555    10733.686    2297.2969    4043.7534    2810.7796    402.74123   -482.60057    -269.2782   -5963.0428 
 7677000    117.46852   -6712.4054   -6410.2248   -6712.4054            0    3701.9003    23.238091    21.306599    21.609726    10699.509    3430.7996    4030.8919    3644.0094   -239.40888    351.29709    191.13812   -5832.5753 
 7678000    115.64014   -6713.4379   -6415.9606   -6713.4379            0     5351.544     23.10943    21.319591    21.596465    10640.224    5973.6479     4975.908    5105.0762   -734.48793    322.02082    921.63029   -5585.5254 
 7679000    112.73215   -6713.9021   -6423.9055   -6713.9021            0    5063.4894    23.157529    21.309931    21.595655     10657.14    5887.5238    4122.5779    5180.3666    -23.89539   -24.218736    71.962479   -5636.9205 
 7680000     116.8065   -6723.3121   -6422.8345   -6723.3121            0     3236.765    23.250723     21.38082    21.582776    10729.219    3047.3711    3007.8067    3655.1172   -895.64242   -643.87794   -394.48799   -5916.3628 
 7681000    118.38234    -6735.883   -6431.3516    -6735.883            0    4359.4204    23.181816    21.377485    21.524363    10666.806    3775.2102    4461.2226    4841.8285    267.41482   -623.17117   -140.33584   -5753.1809 
 7682000    115.35512   -6714.2642   -6417.5202   -6714.2642            0    3587.1965     23.20105    21.344801    21.613719    10703.585    4128.5191    3402.2615    3230.8088    140.24839    1030.4461    582.95172   -5857.5559 
 7683000    111.19796   -6722.8849    -6436.835   -6722.8849            0    4115.4063     23.18544    21.226223    21.739131    10698.681    4237.8392    4656.1018     3452.278    759.29194    -502.2186    1005.1792    -5794.711 
 7684000    114.11166   -6727.8571   -6434.3118   -6727.8571            0    3515.4131     23.27744    21.304429    21.574666    10699.148    2750.1533    3493.1397    4302.9464   -72.308267    47.827197    490.04328   -5885.7805 
 7685000    115.47977   -6714.9795   -6417.9149   -6714.9795            0    3875.0044    23.204422    21.320988    21.632562     10702.52    4026.7286    3570.2518    4028.0327   -35.705244    491.26605   -38.250766   -5813.0838 
 7686000    116.33561   -6718.9099   -6419.6436   -6718.9099            0    3953.0137    23.200793    21.376645    21.596121    10710.706    3902.2124    3521.4651    4435.3635    -569.3097     400.8164   -37.765195   -5802.1644 
 7687000    111.21707   -6727.0344   -6440.9353   -6727.0344            0    4271.6945    23.172171    21.395891    21.541267    10679.929    3903.1191    5012.0928    3899.8714     604.7282   -1082.6338   -428.22593   -5775.5941 
 7688000    117.32914   -6717.4334   -6415.6113   -6717.4334            0    3367.0555    23.178902    21.377708    21.660608    10733.087    3330.1803    3245.8703    3525.1158    60.785136    888.40103    160.02392   -5888.5625 
 7689000    109.71772   -6725.5198   -6443.2777   -6725.5198            0    4283.1055    23.211086    21.352056    21.533497    10672.096    3930.1318    3951.0516    4968.1331    894.62059   -94.904173    517.72231   -5776.6484 
 7690000    118.21351   -6708.7693   -6404.6723   -6708.7693            0    3131.1861    23.289084    21.281668    21.674731    10742.659    3002.9953    3752.0008    2638.5622   -310.16291   -164.11844   -84.775001   -5914.1073 
 7691000    115.57268   -6709.5135   -6412.2099   -6709.5135            0    4038.8955    23.260448    21.334005    21.584644    10711.132    3607.3713    4619.1462    3890.1689    357.84081   -333.54623   -620.62387   -5781.2905 
 7692000    116.90539   -6722.6701   -6421.9381   -6722.6701            0    4502.0711    23.241307    21.292193    21.567795    10673.004    4377.6697    4567.7865    4560.7571   -413.60328    172.54294   -241.76513   -5721.1691 
 7693000    114.40226   -6726.1011   -6431.8082   -6726.1011            0    3436.0914    23.203587    21.359507    21.627245    10718.834    3844.5324    2798.2221    3665.5196   -272.02099   -232.61185    -509.5513   -5894.6674 
 7694000    115.71167   -6724.5362    -6426.875   -6724.5362            0    3425.8825     23.17473    21.354486    21.649199    10713.852    2908.2995    3877.8789     3491.469    599.91495   -230.48046    799.01423    -5891.579 
 7695000    114.30372    -6711.796   -6417.7567    -6711.796            0    4125.1567    23.204085    21.275554    21.661621    10693.904    4373.4664    4288.5244    3713.4792    492.46487    143.71295    451.27173   -5774.3988 
 7696000    114.10696   -6724.6931   -6431.1599   -6724.6931            0    4328.3569    23.250703    21.290014    21.573824    10679.211     4391.107    4684.6558    3909.3078   -263.47622   -552.07146   -303.60993   -5757.0385 
 7697000    116.56724   -6722.3922   -6422.5301   -6722.3922            0     3614.026    23.269342    21.324058      21.5908    10713.286    3203.0237    3394.8125    4244.2416   -798.92989    232.10289   -177.06332   -5857.8665 
 7698000    110.79287   -6704.5625   -6419.5546   -6704.5625            0    4383.2814    23.257503     21.33697    21.563316     10700.68    4882.3939    3821.7607    4445.6898    382.21127      -796.83   -510.05574   -5735.5065 
 7699000    121.73237   -6727.4811    -6414.332   -6727.4811            0    3946.9814    23.163903    21.355822    21.594467    10682.441     4191.224    2895.7534    4753.9667   -650.72848    361.93747    463.15169   -5799.4221 
 7700000    112.93198   -6725.0528   -6434.5422   -6725.0528            0    3732.4356    23.197214    21.328447    21.624569    10698.984     4110.076    3741.2711    3345.9596    150.30627   -453.51082    446.04819   -5852.1564 
 7701000     118.1458   -6728.3861   -6424.4632   -6728.3861            0    3963.4166    23.226804    21.292493    21.632563    10698.526    4039.0828    5130.0653    2721.1017    292.81479   -348.73584   -493.02262   -5806.0631 
 7702000    114.26158   -6721.0906   -6427.1597   -6721.0906            0    3514.3705    23.341986    21.291664    21.563601    10716.888     3628.065    3423.8076     3491.239    722.14341   -543.12839    14.481784   -5877.8817 
 7703000    110.19735   -6734.8315   -6451.3556   -6734.8315            0    4329.3372    23.204626    21.284312    21.630448    10683.159     3709.463    4795.3676    4483.1809    109.03162    -364.3865   -333.77713   -5776.8322 
 7704000    116.72748    -6732.295   -6432.0207    -6732.295            0    4089.0959    23.238677    21.353631    21.548955    10693.241    4039.0961    3601.5685    4626.6232   -792.02867    402.47099    752.89039   -5794.3264 
 7705000    110.86429   -6720.9302   -6435.7385   -6720.9302            0    3971.0482    23.144628    21.296102    21.701196     10696.31    3540.4493    4613.4763    3759.2189   -71.865448    454.64231    532.68657    -5816.276 
 7706000    109.32966    -6727.974   -6446.7301    -6727.974            0    3558.3593     23.20599     21.34399     21.66145    10729.099    4046.6126    3497.7706    3130.6946    534.52429   -239.51756    119.47458   -5889.9433 
 7707000    111.98385   -6726.3604   -6438.2888   -6726.3604            0    4120.3056    23.286196    21.334507    21.486634    10674.549    2666.8238    4835.8034    4858.2897    831.77112   -111.37765    -377.2539   -5796.8506 
 7708000    115.24668   -6727.0752   -6430.6102   -6727.0752            0    3735.4134    23.230506    21.283387    21.675776    10717.021    3630.6864    4213.9547    3361.5989   -387.79549   -1046.8305   -62.110263   -5846.7772 
 7709000    115.71654   -6711.3621   -6413.6883   -6711.3621            0    4678.9896    23.346097      21.2102    21.560327    10676.143    4186.3633    4977.4394     4873.166    1170.5195    107.99729    1159.7725   -5685.1668 
 7710000    113.21649   -6723.5661   -6432.3235   -6723.5661            0     3843.077    23.196294    21.324608     21.66415    10716.212    3837.3725    4066.5979    3625.2606    599.40747   -60.779683   -48.215618   -5831.7084 
 7711000    119.88048   -6727.5655   -6419.1803   -6727.5655            0    3561.5537    23.166161    21.396666    21.622543    10717.832    4157.0741    3095.6532    3431.9338   -94.090832    382.22231    -443.8265   -5862.4789 
 7712000    112.46741   -6723.7147   -6434.3991   -6723.7147            0    5712.2855    23.092166    21.398656    21.487243    10617.735    5689.8507    5547.8004    5899.2053   -582.11445   -41.355202   -105.03381   -5549.8588 
 7713000    113.36703   -6724.5125   -6432.8828   -6724.5125            0    3093.3727     23.12786    21.424021    21.670529    10737.569    3214.7881    3944.5876    2120.7424   -120.14094    493.11346   -1516.0147   -5948.4716 
 7714000    116.89744   -6726.7704   -6426.0589   -6726.7704            0    4979.3424    23.205155    21.370417     21.48379    10653.894    5145.2563    3849.0894    5943.6814    221.25406    203.40149    512.45045    -5652.388 
 7715000    110.54127    -6731.483   -6447.1223    -6731.483            0    4209.3971    23.273649    21.265236    21.630731    10705.474    4437.2387    4569.5404    3621.4122    149.32319   -791.94568   -1005.9123   -5789.9161 
 7716000    114.53884   -6721.5372    -6426.893   -6721.5372            0    3940.3118    23.299472    21.239927    21.605372    10692.046    2896.0493    4886.2223    4038.6637   -643.02909   -43.048017   -135.55864   -5812.4702 
 7717000    115.07503   -6722.6153   -6426.5918   -6722.6153            0    3572.2867    23.238146    21.311827    21.634358    10714.359    4346.4103    3262.3415    3108.1085   -114.10445   -966.86501    708.73151   -5868.3937 
 7718000    116.80139   -6716.1283   -6415.6638   -6716.1283            0    3713.9683    23.216432     21.33426    21.614717    10705.886    3853.9668    3660.8526    3627.0855    164.20063    832.38917   -15.204915   -5835.7857 
 7719000    109.47704   -6714.3626   -6432.7396   -6714.3626            0    3496.2806    23.116912    21.406054    21.667673    10722.072    3302.4477    2842.3791    4344.0148    647.72753    552.21456    866.47771   -5886.0248 
 7720000    111.94016    -6735.087   -6447.1277    -6735.087            0    3931.8698    23.185579    21.468652    21.443539    10673.803    4118.6608     3058.716    4618.2328   -418.10564   -111.87707   -534.48862   -5835.0674 
 7721000    112.63118   -6722.8111   -6433.0742   -6722.8111            0    4461.5484    23.133023    21.370349    21.613185    10684.711    4104.8772    4429.3948    4850.3732   -403.74587    1044.7003   -750.52198    -5737.851 
 7722000    115.60438   -6734.9676   -6437.5824   -6734.9676            0    3966.0236     23.21969    21.352981    21.563159    10691.221    4084.1653    3637.8639    4176.0415   -661.56688    371.81242    235.86406   -5819.1981 
 7723000    114.03482   -6732.9093   -6439.5617   -6732.9093            0     3485.241    23.247345    21.250168    21.695377    10717.732    2932.8323    4688.2093    2834.6813   -262.43376   -257.18641   -257.94963   -5894.7936 
 7724000    118.68386   -6716.3161   -6411.0091   -6716.3161            0    4548.1521    23.261101    21.254078    21.603033    10680.394    3841.5776     4574.805    5228.0738    1545.9873    343.74044    1322.6726   -5702.5771 
 7725000    116.34759   -6733.2859   -6433.9888   -6733.2859            0     3376.127    23.178917    21.349664     21.64895    10713.245    4362.4375    2610.5607    3155.3829   -249.94714   -1007.9646   -53.634329    -5906.497 
 7726000    116.08224   -6727.8324   -6429.2179   -6727.8324            0    3758.7122    23.231105    21.378463     21.53969    10697.586    3424.4733    3515.2459    4336.4175   -164.61447   -594.45778    -852.6187   -5842.8087 
 7727000     122.3029   -6718.4617    -6403.845   -6718.4617            0    3485.3638    23.218479    21.396714    21.576572    10719.223    3936.4821    3442.8201    3076.7891   -165.14695    50.006463   -329.78092    -5858.982 
 7728000    121.15528   -6717.2541   -6405.5895   -6717.2541            0    3881.0187    23.164089     21.32436    21.661118    10699.712    3513.1076    4445.0937    3684.8549     940.9655   -1423.3871    711.63274   -5799.9785 
 7729000    116.22529   -6719.6438   -6420.6613   -6719.6438            0    3892.7052     23.21304    21.295551    21.624713    10689.841    4016.8039      3763.35    3897.9615    479.27188     647.6696    427.31958   -5813.7871 
 7730000    120.97587   -6720.2956   -6409.0925   -6720.2956            0    4092.2734    23.285368    21.293961    21.564277    10692.382    4197.6455    4158.2342    3920.9404    318.56569   -522.51986   -401.36328   -5770.9539 
 7731000    117.49614   -6715.1641   -6412.9124   -6715.1641            0    3858.3123    23.190424    21.333695    21.638463    10705.358    3899.8141    4150.4492    3524.6735   -308.96323   -850.78324     222.8786    -5810.527 
 7732000    117.40406   -6722.4896   -6420.4749   -6722.4896            0     3505.815     23.26797    21.357604    21.564225      10716.3    3639.3459    3375.2352     3502.864    812.23689   -892.96392    127.22106   -5872.5642 
 7733000    115.95478   -6733.7704   -6435.4838   -6733.7704            0    4099.5081    23.161968    21.283007    21.669505     10682.12    3623.8815    4898.3768     3776.266    -20.37468    1003.8005    250.50155   -5796.8306 
 7734000    112.66316     -6715.39   -6425.5709     -6715.39            0    4230.4675    23.175096    21.379256    21.546561    10675.596    4371.4668    4418.1424    3901.7932    235.93326   -307.96936   -58.771235   -5766.9183 
 7735000    114.78356   -6726.1176   -6430.8438   -6726.1176            0    3463.0863    23.099524    21.399799    21.639092    10696.748    4143.6617    3512.9515    2732.6456     270.9993    320.65155     204.7775   -5890.5986 
 7736000    115.92517   -6730.6204   -6432.4099   -6730.6204            0     3947.022     23.17042    21.348595    21.633589    10701.183     4072.072    3977.3611    3791.6329    374.66501    -311.6471   -451.95187   -5816.4149 
 7737000    112.26593   -6724.2815   -6435.4843   -6724.2815            0    3795.4685    23.253437    21.347906    21.550865    10698.113    3807.8823    3549.0664    4029.4569   -712.34576    96.746363   -395.58537   -5843.3115 
 7738000    119.11746   -6722.2301   -6415.8077   -6722.2301            0    3553.8112    23.283884    21.201452    21.719718    10721.986    3060.7721    4466.7682    3133.8933   -323.60588    79.564895   -239.19618   -5860.1012 
 7739000    115.17346   -6723.0783   -6426.8016   -6723.0783            0    4381.8835    23.362079    21.190787    21.538126    10662.683    3601.8439    5461.7145    4082.0921     1005.513    -108.6198    42.231836   -5745.3999 
 7740000    116.83332   -6722.5021   -6421.9555   -6722.5021            0    4056.3865    23.175871    21.341894     21.62928    10698.209     4049.341    3322.7906    4797.0279    156.78152    -668.3927    991.98662   -5789.0683 
 7741000    110.81099   -6719.7945   -6434.7399   -6719.7945            0    2906.5239    23.210731    21.403811    21.621195    10741.368    2675.6297    2913.7714    3130.1708    549.49546    119.09305    123.05313   -5979.4276 
 7742000    110.67921   -6718.6364   -6433.9209   -6718.6364            0      4837.82    23.141075    21.409726    21.528385    10666.111    6238.6583    4333.0559    3941.7458    91.812823    560.18919   -1455.3014   -5681.3773 
 7743000    108.81564   -6700.7662   -6420.8446   -6700.7662            0    4018.3715    23.185422    21.392466    21.625526    10726.117    4014.1098    3065.0554    4975.9493   -631.01042    64.257458    83.020324   -5792.2531 
 7744000    116.90362   -6726.3401   -6425.6126   -6726.3401            0    4064.8144    23.233931    21.328826    21.545227     10676.79     3877.054    3839.1612    4478.2281    178.06652   -313.54446   -104.59781   -5792.6802 
 7745000    118.13346    -6711.403   -6407.5119    -6711.403            0     4313.048    23.270955    21.239691    21.637264    10694.605    4674.4711    4821.7518    3442.9211    -455.9918   -125.93276    128.94953   -5734.8065 
 7746000    115.88127   -6731.4263   -6433.3288   -6731.4263            0    3619.1809    23.170707    21.297743    21.703897    10710.521    3878.2956    3390.0455    3589.2015   -296.98513   -173.78417    396.75164   -5868.0057 
 7747000    113.88039   -6718.8027   -6425.8524   -6718.8027            0    3901.5058    23.208882    21.331778    21.612004    10699.816    4312.5383    4742.3398    2649.6392    344.99787    849.54714   -407.75052   -5817.0386 
 7748000    117.73963   -6720.3231   -6417.4451   -6720.3231            0     4489.346     23.11346    21.464155    21.526835    10679.698    4831.2367    3988.5834    4648.2178    775.39316   -497.59834   -14.215681   -5718.2186 
 7749000    112.97325   -6724.7997   -6434.1829   -6724.7997            0    4644.6541    23.060679    21.385786    21.651782    10678.025    5688.1136    4305.5408    3940.3079   -744.57712    -244.9978   -45.907358     -5710.88 
 7750000     122.9247    -6719.734   -6403.5177    -6719.734            0    3347.2817    23.297695    21.348664    21.561348    10724.068    3184.6624    3085.4787    3771.7038     324.6458    202.30262     311.4245   -5880.0044 
Loop time of 524.799 on 64 procs for 250000 steps with 1296 atoms

Performance: 82.317 ns/day, 0.292 hours/ns, 476.373 timesteps/s
99.1% CPU use with 64 MPI tasks x 1 OpenMP threads

MPI task timing breakdown:
Section |  min time  |  avg time  |  max time  |%varavg| %total
---------------------------------------------------------------
Pair    | 29.657     | 40.955     | 51.795     | 112.6 |  7.80
Bond    | 0.28349    | 0.29157    | 0.30136    |   0.7 |  0.06
Kspace  | 263.75     | 274.86     | 285.97     |  43.6 | 52.38
Neigh   | 1.5557     | 1.5729     | 1.5929     |   0.7 |  0.30
Comm    | 89.633     | 91.854     | 94.862     |  15.5 | 17.50
Output  | 0.71859    | 0.71944    | 0.72104    |   0.0 |  0.14
Modify  | 101.95     | 104.53     | 108.11     |  13.3 | 19.92
Other   |            | 10.01      |            |       |  1.91

Nlocal:        20.2500 ave          26 max          13 min
Histogram: 3 3 4 14 3 5 11 5 11 5
Nghost:        2618.19 ave        2640 max        2587 min
Histogram: 3 0 2 9 7 11 11 9 7 5
Neighs:        6512.11 ave        8384 max        4197 min
Histogram: 3 3 6 12 3 5 11 5 11 5

Total # of neighbors = 416775
Ave neighs/atom = 321.58565
Ave special neighs/atom = 2.0000000
Neighbor list builds = 2992
Dangerous builds = 0

unfix		3
unfix		2
unfix		1

write_data	data.final.${pid}
write_data	data.final.0
System init for write_data ...
PPPM initialization ...
  extracting TIP4P info from pair style
  using 12-bit tables for long-range coulomb (../kspace.cpp:340)
  G vector (1/distance) = 0.3673667
  grid = 30 40 32
  stencil order = 5
  estimated absolute RMS force accuracy = 0.0045362152
  estimated relative force accuracy = 1.3660677e-05
  using double precision FFTW3
  3d grid and FFT values/proc = 5168 640
Last active /omp style is kspace_style pppm/tip4p/omp
WARNING: Not all mixed pair coeffs generated from mixing. Use write_data with 'pair ij' option to store all pair coeffs. (../write_data.cpp:312)

write_restart   restart.lmp.${pid}
write_restart   restart.lmp.0
System init for write_restart ...
PPPM initialization ...
  extracting TIP4P info from pair style
  using 12-bit tables for long-range coulomb (../kspace.cpp:340)
  G vector (1/distance) = 0.3673667
  grid = 30 40 32
  stencil order = 5
  estimated absolute RMS force accuracy = 0.0045362152
  estimated relative force accuracy = 1.3660677e-05
  using double precision FFTW3
  3d grid and FFT values/proc = 5168 640
Last active /omp style is kspace_style pppm/tip4p/omp
Total wall time: 0:08:44
