LAMMPS (30 Jul 2021)
  using 1 OpenMP thread(s) per MPI task
package omp 0
using multi-threaded neighbor list subroutines
echo both

include		in.partitions
variable        pid world 0
include		in.temp
variable        temperature equal 259.38
variable	tempDamp equal 100.0
include		in.pressure
variable        pressure equal 2625.0
variable        pressureDamp equal 1000.0 # This is 1 ps
include		in.seed
variable        seed world 745823

units		real
atom_style	full

read_restart	restart.lmp.${pid}
read_restart	restart.lmp.0
Reading restart file ...
  restart file = 30 Jul 2021, LAMMPS = 30 Jul 2021
  restoring atom style full from restart
  orthogonal box = (-0.063491418 -0.099218059 -0.082366173) to (20.063492 20.099219 20.782364)
  4 by 4 by 4 MPI processor grid
  restoring pair style lj/cut/tip4p/long/omp from restart
  restoring bond style harmonic/omp from restart
  restoring angle style harmonic/omp from restart
  972 atoms
  648 bonds
  324 angles
Finding 1-2 1-3 1-4 neighbors ...
  special bond factors lj:    0        0        0       
  special bond factors coul:  0        0        0       
     2 = max # of 1-2 neighbors
     1 = max # of 1-3 neighbors
     1 = max # of 1-4 neighbors
     2 = max # of special neighbors
  special bonds CPU = 0.735 seconds
  read_restart CPU = 1.029 seconds
include 	in.setup
variable	out_freq equal 1000
variable	out_freq2 equal 10000
variable	out_freq3 equal 1000

timestep	2.0

neigh_modify    delay 7 every 1

include		in.tip4p
# This is TIP4P/Ice

# create groups ###
group ox type 2
324 atoms in group ox
group hy type 1
648 atoms in group hy

# set charges - beside manually ###
set group ox charge -1.1794
Setting atom values ...
  324 settings made for charge
set group hy charge 0.5897
Setting atom values ...
  648 settings made for charge

# ### TIP3P Potential Parameters ###
pair_style lj/cut/tip4p/long/omp 2 1 1 1 0.1577 8.5
pair_coeff 1 1*2 0.000 0.000
pair_coeff 2 2 0.21084 3.1668
bond_style  harmonic
bond_coeff  1 450 0.9572
angle_style harmonic
angle_coeff 1 55 104.52
kspace_style pppm/tip4p/omp 1.0e-5
pair_modify tail yes

thermo          ${out_freq}
thermo          1000
thermo_style    custom step temp pe etotal epair emol press lx ly lz vol pxx pyy pzz pxy pxz pyz enthalpy

restart 	${out_freq3} restart.lmp.${pid} restart2.lmp.${pid}
restart 	1000 restart.lmp.${pid} restart2.lmp.${pid}
restart 	1000 restart.lmp.0 restart2.lmp.${pid}
restart 	1000 restart.lmp.0 restart2.lmp.0


include         in.dump
dump            myDump all atom ${out_freq2} dump.water.${pid}
dump            myDump all atom 10000 dump.water.${pid}
dump            myDump all atom 10000 dump.water.0
dump            myDump2 all dcd ${out_freq2} dump.dcd
dump            myDump2 all dcd 10000 dump.dcd
dump_modify     myDump append yes
dump_modify     myDump2 append yes


variable natoms 	equal  "count(all)"                        # NUMBER ATOMS
variable H      	equal  "enthalpy/v_natoms"                 # ENTHALPY-per-atom
variable Vol      	equal  "vol/v_natoms"                 # volume-per-atom
fix AVG all 		ave/time ${out_freq} 1 ${out_freq} v_Vol v_H file vol_enthalpy.dat
fix AVG all 		ave/time 1000 1 ${out_freq} v_Vol v_H file vol_enthalpy.dat
fix AVG all 		ave/time 1000 1 1000 v_Vol v_H file vol_enthalpy.dat


timer           timeout 02:55:00 every 1000
New timer settings: style=normal  mode=nosync  timeout=02:55:00

fix 		1 all shake 1e-6 200 0 b 1 a 1
       0 = # of size 2 clusters
       0 = # of size 3 clusters
       0 = # of size 4 clusters
     324 = # of frozen angles
  find clusters CPU = 0.012 seconds
fix             2 all nph aniso ${pressure} ${pressure} ${pressureDamp}
fix             2 all nph aniso 2625 ${pressure} ${pressureDamp}
fix             2 all nph aniso 2625 2625 ${pressureDamp}
fix             2 all nph aniso 2625 2625 1000
fix             3 all temp/csvr ${temperature} ${temperature} ${tempDamp} ${seed}
fix             3 all temp/csvr 259.38 ${temperature} ${tempDamp} ${seed}
fix             3 all temp/csvr 259.38 259.38 ${tempDamp} ${seed}
fix             3 all temp/csvr 259.38 259.38 100 ${seed}
fix             3 all temp/csvr 259.38 259.38 100 745823


run             250000
PPPM initialization ...
  extracting TIP4P info from pair style
  using 12-bit tables for long-range coulomb (../kspace.cpp:340)
  G vector (1/distance) = 0.37184901
  grid = 24 24 25
  stencil order = 5
  estimated absolute RMS force accuracy = 0.0034771792
  estimated relative force accuracy = 1.0471422e-05
  using double precision FFTW3
  3d grid and FFT values/proc = 2366 288
Last active /omp style is kspace_style pppm/tip4p/omp
Neighbor list info ...
  update every 1 steps, delay 7 steps, check yes
  max neighbors/atom: 2000, page size: 100000
  master list distance cutoff = 10.8154
  ghost atom cutoff = 10.8154
  binsize = 5.4077, bins = 4 4 4
  1 neighbor lists, perpetual/occasional/extra = 1 0 0
  (1) pair lj/cut/tip4p/long/omp, perpetual
      attributes: half, newton on, omp
      pair build: half/bin/newton/omp
      stencil: half/bin/3d
      bin: standard
Per MPI rank memory allocation (min/avg/max) = 9.225 | 9.229 | 9.234 Mbytes
Step Temp PotEng TotEng E_pair E_mol Press Lx Ly Lz Volume Pxx Pyy Pzz Pxy Pxz Pyz Enthalpy 
 5750000    271.51426   -4674.2989   -4150.6608   -4674.2989            0    1741.7981    20.126984    20.198437     20.86473    8482.2143    3828.1687   -364.80189    1762.0275     171.2454   -908.87785    57.161172   -3935.1927 
 5751000    255.17917   -4694.7439   -4202.6094   -4694.7439            0    4631.3612    20.289677    20.043832      20.8465    8477.9144    2550.2076    4566.1039    6777.7723   -462.48477    1052.5014    97.716468   -3629.9801 
 5752000    246.88448   -4664.6894   -4188.5519   -4664.6894            0     3215.284     20.01553    19.988937    21.114167    8447.5494    4716.2965    3548.8312    1380.7242    14.335677   -626.70273   -346.08412   -3792.4326 
 5753000    251.16703   -4684.3265   -4199.9297   -4684.3265            0    1492.9747    20.020395    20.263704     21.00477    8521.3697    1094.0846    2110.6052    1274.2344   -366.16607     1742.161   -2205.2376   -4014.3896 
 5754000    248.12164   -4716.5126   -4237.9891   -4716.5126            0    2462.0197    20.286629    20.049909    20.726098    8430.2384    1380.8837    2583.4656    3421.7099    800.17598    316.44423   -232.82475   -3935.2927 
 5755000    250.76691   -4678.5204   -4194.8953   -4678.5204            0    2835.3703    20.148668    20.360017    20.705187    8493.8312    2121.0863    1918.1313    4466.8934     568.7093    -772.8643   -1095.5406   -3843.6672 
 5756000     266.9443   -4692.4526   -4177.6281   -4692.4526            0    1168.5766    20.117842     20.15869    20.912886    8481.2075    3731.2012   -797.00414    571.53276   -284.08105    262.49478   -332.25687   -4033.0872 
 5757000    252.90139    -4680.443   -4192.7014    -4680.443            0     2974.508    20.325855    19.873366    21.063529    8508.4682    2294.1872    4323.1518    2306.1851   -459.63883   -1574.2349   -678.52393   -3823.6028 
 5758000    261.16451   -4700.9282   -4197.2505   -4700.9282            0    1054.7601    20.267682    20.103051    20.978027    8547.3345    1857.3712    1123.0421    183.86712    411.21952    689.64198    65.886802   -4065.7703 
 5759000    268.64316   -4689.6541   -4171.5532   -4689.6541            0    2005.9063    20.159134    20.197492    20.751359    8449.2057    2812.9599    1594.2995    1610.4595    642.19041   -776.38887   -714.39047   -3924.3794 
 5760000    265.75489   -4689.4278   -4176.8972   -4689.4278            0    3193.2222    20.366744    20.033064    20.735387    8460.2095    1545.2899    5280.8471    2753.5298    -603.9876    1577.3106    474.51753   -3782.9063 
 5761000    259.05146   -4698.3361   -4198.7336   -4698.3361            0    3521.8792    20.101575    20.063392    20.922441    8438.1415    1730.0493    4822.2212    4013.3671   -277.74177    28.470852    173.86928   -3765.3253 
 5762000    268.36412   -4669.4587    -4151.896   -4669.4587            0    3097.5449    20.097736    20.106001    20.988047    8480.9571    5382.1482    2480.3032    1430.1833   -505.06562    1414.8099    727.04014   -3768.7728 
 5763000    275.11867   -4688.6336   -4158.0441   -4688.6336            0    2238.8594    20.282699    20.016738    20.826322    8455.3504    918.88156    4273.2218    1524.4747    301.39493   -567.35173   -264.60061   -3881.9645 
 5764000    259.94318   -4715.3441   -4214.0219   -4715.3441            0    2706.1601    20.080495    20.193683     20.90549    8477.1583    4964.6859     1242.493    1911.3014   -230.77761   -1661.9531   -159.28306   -3879.4575 
 5765000    242.63732    -4667.268   -4199.3215    -4667.268            0    3986.8018    19.977778    20.098255    21.034075    8445.5698    3180.9678    4744.2099    4035.2277   -586.41947    1599.5107    648.30549   -3708.2672 
 5766000    250.15605   -4683.4347   -4200.9877   -4683.4347            0    1725.6951    20.194317    20.327184    20.801466    8538.8685    1264.0565    1576.1952    2336.8335   -918.49911   -150.64535    499.72569   -3986.0858 
 5767000    255.43127   -4692.9648   -4200.3442   -4692.9648            0    5109.8086    20.118119    20.107618    20.599036    8332.8756    3942.7978    5011.2011     6375.427   -748.59152   -1050.7321    434.80864   -3579.3673 
 5768000    254.48106   -4717.4049   -4226.6168   -4717.4049            0    2332.7081    20.162657    20.264348    20.768342    8485.5935    2881.7469    1927.6123     2188.765   -575.89735    899.09493    931.37768   -3937.9356 
 5769000    260.94968   -4704.4853   -4201.2219   -4704.4853            0    3542.5257    19.986689    20.130639    20.924252    8418.7645    4160.7707    3076.9888    3389.8175   -892.68991    768.88301   -599.83963    -3766.274 
 5770000    256.46668   -4693.2445   -4198.6269   -4693.2445            0    2775.7268    19.919967    20.192905    20.939172    8422.6145    3560.5403    2357.5008    2409.1391   -150.49861    865.01925   -1441.2159     -3857.67 
 5771000     251.5303    -4711.717   -4226.6197    -4711.717            0    2968.3727    20.199435    20.001437    20.930474    8456.2829    4720.7599    1592.8383      2591.52   -477.86075    670.00994    128.27723   -3860.5415 
 5772000    252.01879   -4687.2934    -4201.254   -4687.2934            0    2904.8429    20.249533    20.124989    20.807139     8479.359    3279.8333     1719.428    3715.2675   -287.52043    627.76108   -2453.6219   -3842.0331 
 5773000    258.30928   -4730.0311   -4231.8599   -4730.0311            0    2537.4733    20.216068    20.109922    20.835176    8470.4067    1665.9478    3097.8522      2848.62   -159.91331     1307.501    52.595355   -3918.4003 
 5774000     261.5404   -4651.4574   -4147.0547   -4651.4574            0    2659.6445    20.071586    20.073116    21.090167    8497.2132    2908.8197    2845.0743    2225.0394    -465.7066    266.39545    594.44176   -3817.4632 
 5775000    270.21814   -4684.1114   -4162.9729   -4684.1114            0    2815.9436    20.210498    20.229247    20.923601    8554.4713    1794.4379    4403.9735    2249.4192   -267.98574    298.40913    1199.4451   -3811.6609 
 5776000    263.98645   -4678.8834   -4169.7634   -4678.8834            0    3075.1595    20.352111    20.142936    20.707615    8489.1129     2619.946    3474.2075    3131.3251    -571.6425   -406.08404     860.2908   -3789.0432 
 5777000    282.12893   -4700.9434   -4156.8341   -4700.9434            0    1939.2234    20.232963      19.9689     21.02181    8493.4423    2399.4254    2138.2176    1280.0273   -129.14479    62.244032   -1120.7363   -3916.6261 
 5778000    248.99081   -4686.2018   -4206.0021   -4686.2018            0    1460.2594    20.102932    20.105588    21.077765    8519.2381   -262.47361    2675.8962    1967.3556   -385.27416    16.496812     -195.296   -4024.5731 
 5779000    257.92102   -4687.2151   -4189.7927   -4687.2151            0    585.94111    20.397889    20.206127     20.79893    8572.5358   -1273.3908    969.61277    2061.6013   -681.12731    -1141.272   -950.44293   -4116.5374 
 5780000    268.14095   -4692.0549   -4174.9225   -4692.0549            0    1824.8548    20.392103    20.040202    20.816049    8506.7254     848.8419     2350.024    2275.6986    546.47055   -44.843175    754.89714   -3948.5276 
 5781000    261.17335   -4673.4497   -4169.7549   -4673.4497            0    2742.5684    20.113819    20.022832     21.13416    8511.4791    3982.7715    2554.6272    1690.3063    189.68959    61.234686    605.17567   -3829.3166 
 5782000    269.07644   -4697.9914   -4179.0549   -4697.9914            0    1948.8357    20.275546    19.828477    20.977544    8433.6691   -45.761352    3202.6117    2689.6567   -67.400915    -362.1132    242.15553   -3939.3551 
 5783000    262.05772   -4697.9668   -4192.5664   -4697.9668            0    3300.6983    20.017117    20.107483    20.869768    8399.9528    4250.0799    2429.2181    3222.7971    122.57022    638.51762    106.86285   -3788.2154 
 5784000    263.10509   -4722.1317   -4214.7114   -4722.1317            0    1817.9683    20.214557    20.300167    20.660467    8478.2062    292.88995    2523.3538    2637.6611   -244.01417   -732.08985     732.6506   -3989.9271 
 5785000    246.80186   -4721.9235   -4245.9454   -4721.9235            0    2039.4455    20.228597    20.278505    20.793653     8529.675    2259.5982    1777.0416    2081.6967   -616.75182   -257.56377    1096.6203   -3992.2454 
 5786000    251.89282   -4708.0023   -4222.2058   -4708.0023            0    2481.2494    20.211182    20.132506    20.841364    8480.3873    3322.4728    2045.4045    2075.8709    165.58601   -861.88511   -934.76995   -3915.3305 
 5787000    259.19204   -4696.2636     -4196.39   -4696.2636            0    3265.4197     20.15016    19.938881    21.042011    8454.0833    2836.8047    4261.0611    2698.3935    874.36731    291.00058   -1084.5228   -3793.7829 
 5788000    260.95272   -4683.7019   -4180.4326   -4683.7019            0    2861.3228    20.092591    20.236987    20.812863    8462.7912     4085.562    1946.7054    2551.7011    127.72109   -42.517391    1643.5937   -3827.2849 
 5789000    252.73342   -4708.8321   -4221.4144   -4708.8321            0    3477.6409     20.24895    20.012466    20.787125    8423.5965    2536.5049     4798.667    3097.7508   -113.43942    552.24648   -223.39904   -3794.1879 
 5790000    255.43512   -4697.5503   -4204.9222   -4697.5503            0     2252.089    20.171055    20.109555    20.997788    8517.3524    2135.0572    2796.7543    1824.4554   -614.98842    1299.3213    -829.0463   -3925.1748 
 5791000     264.9357   -4712.1808     -4201.23   -4712.1808            0    1752.4816    20.247563    19.992257    21.005235    8502.8029    1544.2317    1245.0783     2468.135    35.142942   -104.28832   -11.589007   -3983.9141 
 5792000    262.98659   -4713.8879   -4206.6961   -4713.8879            0    2728.1935    19.908531    20.175236    20.984019    8428.4265    4589.8486    1507.0425    2087.6893   -240.61669    370.28168    -676.4119   -3871.3467 
 5793000     268.9033   -4696.8987    -4178.296   -4696.8987            0    1646.2093    20.240009    20.170761    20.885128    8526.4868    2263.7689    337.78967    2337.0694    107.06409   -476.31669    28.685563   -3973.5898 
 5794000    254.17038   -4714.2952   -4224.1062   -4714.2952            0    4276.5448     20.14969    19.996227    20.868754    8408.3917    3706.4431    5006.4911    4116.7004     461.2491   -355.63991   -344.00492   -3699.6831 
 5795000     260.5044   -4737.3765   -4234.9719   -4737.3765            0    3295.9751    19.899641    20.306599    20.926224    8456.1621    5000.2036    1569.5587    3318.1629   -237.94337    -713.9411     465.5533   -3828.4975 
 5796000    255.07207     -4712.21   -4220.2821     -4712.21            0    2337.9108    20.109209    20.210016    20.908732    8497.4644    2618.0981    934.06943    3461.5648    365.49672    501.88186   -233.10114   -3930.5523 
 5797000    257.45409   -4692.4564   -4195.9345   -4692.4564            0    3609.4759    20.233653    19.962886     20.96273    8467.3096    3102.6299    4423.1671    3302.6309    509.12164    379.82256     477.8333   -3750.2111 
 5798000    241.16453   -4688.3975   -4223.2914   -4688.3975            0    2933.6499    20.199225    20.252338    20.821482    8517.6836    5451.1381     772.6352    2577.1764   -986.84159   -1113.5996   -410.22617   -3858.8685 
 5799000     261.7902   -4691.6215   -4186.7371   -4691.6215            0    2446.1676    20.228336    20.151636    20.909824    8523.5563    2041.6452     2367.574    2929.2835   -61.057683    423.17328   -866.88142   -3882.6605 
 5800000    248.84168   -4695.2935   -4215.3814   -4695.2935            0    3239.8688    20.314467     19.73429    21.252506    8519.9511    1416.0226    6747.7071    1555.8766   -785.15097   -799.37834   -770.90372   -3812.8123 
 5801000    270.15338   -4653.9826   -4132.9691   -4653.9826            0    1009.7516    20.178319     20.27751     20.94605    8570.4128    778.46688    1939.1833    311.60454    188.20355   -207.60495   -109.87194   -4006.7595 
 5802000    249.50752   -4702.1809   -4220.9847   -4702.1809            0     2853.296    20.225625    19.884138    21.010801    8449.8954    3735.8253    2533.8977    2290.1649   -475.52004     444.9445   -77.308177   -3869.3643 
 5803000    242.54257   -4698.3272   -4230.5635   -4698.3272            0    1731.2824     20.10531    20.066654    21.192985    8550.2314    725.98989    3061.6521    1406.2052   -287.80857    177.49947   -649.06506   -4014.6789 
 5804000    267.02316   -4681.4795   -4166.5029   -4681.4795            0    4051.9109     19.98352    20.197829    20.832898     8408.652    5111.4263    1533.3332    5510.9733   -823.05781    648.93972   -909.78752   -3669.6107 
 5805000    255.44644    -4682.075    -4189.425    -4682.075            0    965.73422    20.137673    20.305535     20.91539    8552.4328    906.16671    1271.5193    719.51666   -371.46606   -1999.2751   -311.09583   -4068.9705 
 5806000    272.24617   -4678.9557   -4153.9061   -4678.9557            0    3826.7509    20.239792     20.04215    20.757588    8420.2936    3691.4343    2938.0237    4850.7946     298.5995    519.80037   -137.23096   -3683.9759 
 5807000    252.80598   -4713.8692   -4226.3116   -4713.8692            0    3525.0786      20.0694    19.949623    21.038646    8423.3891    2831.5373    5964.9731    1778.7256   -586.58605    1086.1308    815.95766   -3793.2681 
 5808000    271.60944   -4721.3901   -4197.5684   -4721.3901            0    1508.8499    20.133313    20.157991    21.060155    8547.2038    2090.7147    1311.5339     1124.301    515.19369    341.60749    733.48397   -4009.4869 
 5809000    249.87772   -4692.9228   -4211.0126   -4692.9228            0    3122.9984    20.257725    20.177602    20.623312    8429.8267    1069.4849    3421.6764     4877.834    205.78432    460.61583   -510.40696     -3827.07 
 5810000    263.45672   -4708.7063   -4200.6078   -4708.7063            0    3293.1035     20.03032    20.229416    20.797088    8427.0149    4958.9304    1406.4973    3513.8829    519.34619    1752.9203    100.57407   -3795.8875 
 5811000    261.98677   -4704.6338   -4199.3703   -4704.6338            0    2824.6638     20.09346    19.967093    21.355165    8567.8628    2787.7558    3008.5179    2677.7177   -117.35455    364.22919   -285.82778   -3846.4187 
 5812000    266.96944   -4671.0045   -4156.1315   -4671.0045            0    2248.8759    20.096691     20.10367    20.978833    8475.8103    2829.6148    2296.7236    1620.2892     605.9652   -684.47043   -1285.7734   -3878.1457 
 5813000    267.93727   -4687.0505   -4170.3109   -4687.0505            0      1750.02    20.313227    19.953752    20.938893    8487.0586      29.3909    3562.7795    1657.8895    426.40337    848.11243   -1523.0812   -3953.7021 
 5814000    253.68389   -4683.5073   -4194.2566   -4683.5073            0    2987.4478     19.99995     20.19513    20.958293    8465.0882    5469.4975    727.33117    2765.5149   -219.72091    774.15399    1456.8369   -3825.4424 
 5815000    255.03398   -4700.9097   -4209.0552   -4700.9097            0      2714.18    20.328438    20.010136    20.821901    8469.8248    2060.1894    2618.2151    3464.1354   -33.449737   -1673.3638    147.51781   -3873.7896 
 5816000     277.6442   -4692.9486   -4157.4884   -4692.9486            0    1204.7412    20.228116    20.220322     20.74266    8484.1424    950.94443    957.57037    1705.7087    229.97645    242.36869   -953.88597   -4008.4227 
 5817000    250.09777   -4698.9452   -4216.6106   -4698.9452            0    2871.9486     20.23688    20.167486    20.674932    8437.9977    2363.3379    2635.6329    3616.8749    49.892179    1755.6073    766.28311   -3863.1899 
 5818000    252.67528   -4687.8751   -4200.5696   -4687.8751            0     519.9019     20.06802    19.980797    21.243684    8518.1869    431.71359   -583.81134    1711.8035   -409.62016   -387.28734    -1947.323   -4135.9827 
 5819000    249.42467   -4718.0639   -4237.0275   -4718.0639            0    1930.6143    19.964916     20.15086    21.094191    8486.4088     4641.595     741.9959    408.25206   -425.22247    -161.7905   -11.180351   -3998.0839 
 5820000    267.34087   -4703.3236   -4187.7342   -4703.3236            0    4129.8705    20.134794    20.151769    20.759015    8423.0058    3376.8729    3735.3683    5277.3702    244.93656     979.0927    90.128734   -3680.4172 
 5821000    260.29456   -4691.1543   -4189.1544   -4691.1543            0    2063.2315    20.202971    20.360233    20.648726     8493.589    2737.0839   -577.24329    4029.8538    37.285702    472.05356    82.590651   -3933.5813 
 5822000    279.58931   -4669.6803   -4130.4688   -4669.6803            0    1761.7725    20.087872    20.240132    21.003403    8539.5887    2590.4279    1050.9364    1643.9533   -99.615554    338.77943    1046.5991   -3911.0557 
 5823000    247.30699   -4709.1509   -4232.1985   -4709.1509            0    3289.6714    20.098421    20.190623    20.990743    8518.0358    6050.9254    1219.8015    2598.2873    -324.6368    716.27617    270.30656   -3823.5331 
 5824000    252.27828   -4714.4228   -4227.8829   -4714.4228            0     2417.922      20.1112    20.142049     20.82903    8437.4398    1835.2736      3565.85    1852.6425    566.76474   -371.15982   -893.98344   -3930.3542 
 5825000     263.7022   -4717.0184   -4208.4465   -4717.0184            0    2897.4351    20.083719    20.238751    20.695034    8411.8976    3956.1179    901.05808    3835.1292   -862.62179   -596.73746    647.33477   -3852.9924 
 5826000    268.61386   -4710.2651   -4192.2207   -4710.2651            0    1953.2732    20.313004    20.073317    20.958227    8545.7039    2175.3941    1668.6699    2015.7556    568.84236    1295.2798    1224.8786   -3948.7836 
 5827000    246.94098    -4721.249   -4245.0025    -4721.249            0    2103.0814    20.080984    20.048395    20.899466    8413.9474    3061.0158    1004.8872    2243.3412    100.80604    1214.2264   -1231.7528    -3986.936 
 5828000    262.76597   -4662.7546   -4155.9883   -4662.7546            0    1334.1575     20.26365    19.989145    21.052732    8527.4729    895.69717    1505.9801    1600.7952   -556.78344   -874.79065   -177.09955   -3990.0666 
 5829000    256.53399   -4715.6742   -4220.9269   -4715.6742            0     1778.234    20.076605    20.291176    20.745841    8451.3974    2403.6937    1161.9815    1769.0268   -487.34639   -198.68946   -883.82433   -4001.7507 
 5830000    249.64807   -4658.5079   -4177.0406   -4658.5079            0    2132.4188    20.322712    20.145711    20.649019     8454.028    67.353252    3462.0723    2867.8308    -574.6922   -905.29982   -696.21509   -3914.1276 
 5831000    265.29021   -4694.9934   -4183.3589   -4694.9934            0    2430.2293    20.097773    20.095942    20.911413    8445.7784    3727.7531     1202.956    2359.9789     125.2974   -449.08054   -987.15705   -3884.0202 
 5832000    247.80448   -4707.0352   -4229.1234   -4707.0352            0    418.35829     20.34514    19.981778    21.040896    8553.7989   -716.47176    218.42833    1753.1183    235.85349   -422.87112  -0.37631624   -4176.9339 
 5833000    255.46955   -4678.7852   -4186.0907   -4678.7852            0    2555.9576    20.023336    20.280573    20.894496    8484.9357    4270.8206    448.39266    2948.6596    258.93934   -1792.4538    798.17858    -3869.806 
 5834000    278.31753   -4693.1044   -4156.3456   -4693.1044            0    1646.1122    20.259545    20.227783    20.755703    8505.8051    1101.2581    72.393334    3764.6851    631.61455    1163.2771   -593.19627    -3952.148 
 5835000    258.65194   -4719.5429   -4220.7109   -4719.5429            0    3523.1836    20.104462    20.176628    20.895323    8475.9844    6424.8793    1004.3697    3140.3018    579.16694    454.50658   -1898.4529   -3785.1977 
 5836000       250.81   -4693.6756   -4209.9674   -4693.6756            0    3184.4031    20.102761     19.99399    20.833589    8373.7361    3846.5934    2071.4077    3635.2083    -53.79642   -1849.9819    1172.1054   -3821.0806 
 5837000    251.25735   -4694.1832   -4209.6123   -4694.1832            0    4088.1907    19.969425    19.996368    21.041044    8402.0248    3000.4514    4971.2582    4292.8625    393.37143    55.597069    246.43405   -3708.6662 
 5838000    257.79946   -4694.1719    -4196.984   -4694.1719            0    2504.4504    20.022801    20.227099    20.759738    8407.7601    3120.5967    1574.1575    2818.5971   -199.29821    569.85233    624.27201   -3889.8919 
 5839000    246.82676   -4726.8354   -4250.8092   -4726.8354            0    2083.3861    20.268527    20.122174    20.771414    8471.5552    2253.7702    1292.2057    2704.1825   -507.56418    1751.9387    877.95429   -3993.4091 
 5840000     245.7928    -4689.387   -4215.3549    -4689.387            0    2776.9269    20.240427    20.124817    20.740394    8448.2862    2615.8525    2772.2339    2942.6944   -228.80509   -146.22527   -1023.2943   -3873.2109 
 5841000    251.53287   -4703.7462   -4218.6439   -4703.7462            0    2220.8683    20.139335    19.982637    21.050986    8471.6963    1470.4464    2546.3278    2645.8306    -465.6493    1836.7467    1017.1123   -3944.2534 
 5842000    259.08256   -4709.4357   -4209.7732   -4709.4357            0    2245.9247    20.249547    20.089774     20.86499    8488.0618    76.903095    3719.3178    2941.5531   -948.42481   -826.26192     523.7829   -3931.7509 
 5843000    267.52168    -4692.029   -4176.0909    -4692.029            0    4438.7489    20.176711    20.326044    20.580525     8440.335    6235.6388    1646.4067    5434.2011    140.72378    1538.4603   -822.62851   -3629.7092 
 5844000    253.86781   -4690.7041   -4201.0987   -4690.7041            0    3068.2261    20.026147    20.287967    20.798411    8450.1826     5364.997    1711.2163    2128.4651   -52.279241    1034.9601    102.83754    -3822.979 
 5845000    240.42104   -4709.9862    -4246.314   -4709.9862            0    4033.2729    20.164249    20.016118    20.825655    8405.4421    4486.3631    3052.6605    4560.7952    390.26583    211.72922   -242.55348   -3751.8962 
 5846000     254.1816   -4684.7121   -4194.5015   -4684.7121            0    2813.8574     20.08173    20.035834    21.194313     8527.621    2124.0347    4569.6831    1747.8545   -3.9031744   -252.58332    82.443521   -3844.5516 
 5847000    253.25448   -4690.3946   -4201.9721   -4690.3946            0    2654.9475    20.117106    20.091161    20.923746    8456.8763    3468.2803     3798.084    698.47816   -244.10759   -353.24547    1023.1663   -3874.5245 
 5848000    265.49271   -4712.3267   -4200.3017   -4712.3267            0      3354.34    20.202539    20.207289    20.731765    8463.5056    3093.1661     2700.443     4269.411   -465.85089    1009.8287    266.01584   -3786.2703 
 5849000     249.3601   -4683.0655   -4202.1536   -4683.0655            0    4222.1042    20.173029    20.112672    20.833557    8452.8726    1829.1733    6261.3549    4575.7845   -999.99711   -163.47422     73.57728   -3681.6674 
 5850000    257.08597   -4697.4116   -4201.5997   -4697.4116            0    2586.0843    20.203029    20.337083    20.661669     8489.274     3045.938    1971.8197    2740.4953   -998.27688   -922.49493     618.9415   -3881.4234 
 5851000    238.11454   -4701.1218   -4241.8979   -4701.1218            0    3601.5677    19.958508     20.17921     20.69023    8332.9263    4104.2151    2820.7784    3879.7095   -674.59546     494.2646    32.094671   -3804.2095 
 5852000    252.02604   -4673.2593   -4187.2059   -4673.2593            0    1835.7671    20.216352    20.137704    20.948509    8528.3668     2232.068    1293.3613    1981.8718    178.46834    98.987498    666.17505   -3958.8778 
 5853000    268.94505   -4702.3694   -4183.6863   -4702.3694            0    1842.5304    20.326973    20.067088    20.712741    8448.7922    862.57456    2719.3039    1945.7128    503.53486   -908.55626   -559.74353   -3956.6553 
 5854000      257.807   -4688.6702   -4191.4678   -4688.6702            0    2054.0665    20.030786    20.191725    20.998653    8493.0338    1588.9973    2448.3487    2124.8535   -48.676426    123.11906   -862.77349   -3937.0466 
 5855000    274.49835   -4677.7293   -4148.3362   -4677.7293            0    2611.7949    20.074489    19.982387    21.142598    8481.0616    2431.2768     3548.934     1855.174     630.2975     666.4708      748.245   -3825.2896 
 5856000    254.42641   -4716.3253   -4225.6426   -4716.3253            0    4373.0882    19.964147    20.208716    20.957026    8455.1075    5014.7219    2870.9407     5233.602   -612.43812   -563.88309    645.78758   -3686.4012 
 5857000    260.46101     -4700.94   -4198.6191     -4700.94            0     2981.055    19.974366    20.429101    20.823527    8497.2137    5813.7251    504.09613    2625.3439   -752.76397    355.69361   -435.29991   -3829.1974 
 5858000    265.44174   -4676.0943   -4164.1676   -4676.0943            0    4478.3776    20.181705    20.014997    20.823229    8411.2674     4024.823    5586.4125    3823.8972    240.50264    378.38966    2114.7687   -3614.8063 
 5859000    250.73574   -4689.6871   -4206.1221   -4689.6871            0    1215.8468    20.180977     20.25741    21.118883    8633.7021    1364.5935    393.21025    1889.7366     310.4773   -481.93815    2616.0979   -4053.0304 
 5860000    266.81656   -4681.1748   -4166.5967   -4681.1748            0    2281.7371    20.160005    19.979836    20.971098     8447.024     2514.944    2650.2507    1680.0165    501.97325     739.5585    234.78576   -3885.5068 
 5861000    263.03056   -4675.5903   -4168.3138   -4675.5903            0    1746.9466    20.475734    20.231587    20.641105    8550.7141    537.44742    1133.0319    3570.3604    431.15551   -1208.6547   -742.27841   -3950.4636 
 5862000    265.02695   -4701.0309   -4189.9041   -4701.0309            0     3057.026    20.164186    19.933797    20.921942    8409.5493    3295.5837    3643.4662     2232.028   -509.84952   -69.997323   -401.79859   -3814.9762 
 5863000    248.70108   -4716.2551   -4236.6142   -4716.2551            0    2165.0667    20.141582    20.096338    21.057032    8523.2979    2820.0257    1448.1292    2227.0452    149.81516    1590.1652   -272.55418   -3967.4887 
 5864000    262.14013    -4693.396   -4187.8367    -4693.396            0    2700.3647    20.097074    20.027896    21.068561    8480.1402    2446.6007    2480.1967    3174.2966    798.99978   -1300.0963    323.14805   -3853.8714 
 5865000    264.19893   -4712.7527   -4203.2229   -4712.7527            0    3392.7689    20.046389    20.205805    20.828782    8436.7697    3464.7584    4324.4459    2389.1022   -602.41087      1367.08    648.69726    -3785.771 
 5866000    257.27067   -4720.7336   -4224.5655   -4720.7336            0    3375.7483     20.29186    20.153236    20.742234    8482.4669     628.9995    5041.0234     4457.222     845.9301   -350.75732    903.67376   -3806.9582 
 5867000    253.01314   -4720.7353   -4232.7782   -4720.7353            0    2223.4744    20.089238    20.094117    20.924738    8446.8037    1306.7438    3612.9242    1750.7551    233.98733   -500.35303    319.56948   -3958.8729 
 5868000     256.6213   -4720.8091   -4225.8934   -4720.8091            0    2159.3118    20.235086     19.93887    20.998616    8472.2012     548.0893    4914.3766    1015.4694    -692.3315   -780.44257    -120.7761   -3959.0923 
 5869000    236.74741     -4686.95   -4230.3627     -4686.95            0    3483.4843    20.124958    20.046205     20.86701    8418.3574    3781.3636    3178.3504    3490.7389   -133.90434    847.50904    379.97194   -3802.6845 
 5870000    270.43849   -4716.7335   -4195.1701   -4716.7335            0    2856.4267    20.270625    20.226594    20.615377    8452.4221    2110.4657    2649.6296    3809.1849   -157.62408   -1085.5694    164.92901   -3843.0587 
 5871000    248.06212   -4714.6345   -4236.2258   -4714.6345            0    3155.3142    20.081925    20.053106    20.917632    8423.6342    3147.7049    3476.3625    2841.8753   -200.30204    -830.5636   -347.13188   -3848.5953 
 5872000    269.49022   -4690.8459   -4171.1114   -4690.8459            0    3965.1447    20.223117    19.998667    20.823909    8421.9255    1404.2316    5454.2887    5036.9138   -17.694215    1307.6303   -1599.4422   -3684.0919 
 5873000    267.75414   -4720.3144    -4203.928   -4720.3144            0    1873.7208    20.063694    20.081945    20.996566    8459.8945    1989.9122    2495.8277    1135.4225     573.9213    8.0356609   -78.976185   -3972.7505 
 5874000    263.25301   -4706.4731   -4198.7675   -4706.4731            0    1208.3142    20.164055    20.244903    20.824485    8500.9573    1949.8415    372.05327    1303.0479    3.1666397    593.60092    1229.9398   -4048.9634 
 5875000    263.94107   -4678.0038   -4168.9712   -4678.0038            0    2996.9766    20.081603    20.277743    20.927347    8521.8165    4920.4464    1433.6182    2636.8653   -404.83082   -443.23746   -1369.2168   -3796.5011 
 5876000    250.02282   -4713.4897   -4231.2996   -4713.4897            0    2377.2349    20.172608    20.037115    20.960876    8472.4047    1707.6385    2525.2563    2898.8098   -538.48512   -1247.1375   -83.130422   -3937.5653 
 5877000    248.44265   -4689.2837   -4210.1411   -4689.2837            0     3140.613    20.186083    19.979298    20.882623    8422.0404    3377.4086    3703.2287    2341.2017   -601.62246   -583.75791    352.86353   -3824.3896 
 5878000    265.28001   -4725.4736   -4213.8588   -4725.4736            0    3066.3454    20.060721    20.168874    20.856963    8438.7721    2064.2331    4338.2532    2796.5501   -898.73101   -579.38543   -397.95252   -3836.4811 
 5879000    267.51695   -4668.2346   -4152.3057   -4668.2346            0    1031.1094     20.31113    20.188639    20.755479    8510.8689   -957.03182    1765.3672    2284.9927    -49.23615   -9.8980695    699.85295    -4024.322 
 5880000    249.09748   -4721.0941   -4240.6886   -4721.0941            0    2147.9074     20.26581    19.976586    20.733823     8393.916    2241.9457    3181.7802    1019.9963    113.47851   -37.147754    432.46994    -3977.749 
 5881000    242.66544   -4712.0205   -4244.0198   -4712.0205            0    2073.7379     20.18238    20.090732    20.993048    8512.2357    2676.6494    1554.2001    1990.3643    173.40439   -416.35314    219.56743   -3986.5814 
 5882000    267.76372   -4688.8484   -4172.4435   -4688.8484            0    3178.4026      20.0964    20.059134     21.04634    8484.1245     3051.353     3242.571    3241.2839   -298.55343    1594.5498    1579.0543   -3779.1726 
 5883000    263.25491   -4673.5313   -4165.8221   -4673.5313            0    4377.3341    20.085399    20.131868    20.829421    8422.5141    4276.1558    4542.1488    4313.6977   -204.08691    1765.4136   -1203.3324   -3628.1378 
 5884000    258.56839   -4721.8783   -4223.2074   -4721.8783            0    2572.6042    20.034356    20.136755    21.000253    8472.0672    2291.4117    3285.8566    2140.5445   -1011.1003    192.60539   -1120.4083   -3905.3457 
 5885000    263.52852    -4722.446   -4214.2091    -4722.446            0    2751.2862    20.162258    20.121219    20.865179     8464.778    3364.4378    1696.2065    3193.2142   -131.43828    414.78039    700.25251   -3874.5625 
 5886000    261.86818   -4701.7142   -4196.6794   -4701.7142            0    3244.0236    20.071898    20.315975    20.786369    8476.2694    4382.6616    2626.9525    2722.4566    598.44694    913.03149   -620.29522   -3795.6607 
 5887000    252.51826   -4698.3952   -4211.3925   -4698.3952            0    3427.9693    19.944263    20.160044    20.968815    8431.0827    2876.6306    4200.7615    3206.5158    222.44828    697.00618    1757.9357   -3789.8939 
 5888000    256.12794   -4710.7719   -4216.8076   -4710.7719            0    1454.1995    20.118806    20.220518    20.916718    8509.1863    477.03107    2460.0288    1425.5387   -555.59945    1538.8841    364.76574   -4036.3447 
 5889000     245.2513   -4717.5428    -4244.555   -4717.5428            0   -25.644252    20.281753    20.250697    20.675463    8491.8185    1554.4371   -2353.8813    722.51143   -268.91853    665.74647    -275.7982   -4247.7309 
 5890000    257.32439   -4692.9628    -4196.691   -4692.9628            0    2004.0695    20.177885    20.227693    20.853486    8511.3936    295.43305    2517.8176     3198.958    242.80695   -1255.2663   -739.27696    -3947.926 
 5891000    261.79089   -4714.6025   -4209.7167   -4714.6025            0    2185.7866    19.875001    20.216459    20.950927    8418.1274    4255.3105    639.19602    1662.8533    -371.6869    476.14733    659.93269   -3941.3682 
 5892000    260.83629   -4703.8976   -4200.8529   -4703.8976            0     2165.094    20.131403    20.219375     20.78748    8461.4274    3691.7616    211.49881    2592.0214    474.87802   -301.84437    -773.4487   -3933.6776 
 5893000      249.959   -4693.2543   -4211.1873   -4693.2543            0     935.8047    20.132771    20.237301    20.839919    8490.8695    1650.0619    627.19561    530.15659   -368.44113   -646.05925   -544.31388   -4095.3061 
 5894000    257.26172    -4699.958   -4203.8071    -4699.958            0    2781.3193    20.350977    19.987475    20.886073    8495.7157     1905.846    3698.7037    2739.4082   -306.06568   -785.75232   -825.23673    -3859.198 
 5895000    268.11591   -4719.8313   -4202.7473   -4719.8313            0    3823.7002    19.857283    20.087134    21.033669    8389.8236     5375.715     3196.957    2898.4287    -377.8895   -1295.6071   -1846.6018   -3734.8909 
 5896000    254.68875   -4715.4557   -4224.2671   -4715.4557            0    2353.8938    20.069467    20.133195    21.039922    8501.4434     2292.812    1747.7066    3021.1628   -667.83311   -1384.8671   -250.33174   -3932.4199 
 5897000    249.56105    -4716.975   -4235.6755    -4716.975            0    3181.5958    20.188272    20.031648     20.88721    8446.8785    2664.3619    2969.0213    3911.4042    569.58175    665.93168    1094.5242   -3843.7377 
 5898000    247.94732   -4705.0132   -4226.8259   -4705.0132            0    3052.0282    20.027485    20.242805    20.908577    8476.5981    3080.0544    3085.9481    2990.0819   -89.290658   -669.68361     674.1779   -3849.5266 
 5899000    264.79273    -4685.567    -4174.892    -4685.567            0    3451.1455    20.113359    20.187137    21.045935     8545.305    3860.1278    3724.9466    2768.3622      389.747     837.2229    1164.4668   -3744.7947 
 5900000    253.57402    -4697.494   -4208.4552    -4697.494            0    3162.2185    20.029629    20.008547    21.084482    8449.8964    4151.8495    2370.6174    2964.1887   -92.025942   -88.737384   -1118.7305   -3818.7653 
 5901000    266.55031   -4675.8398   -4161.7751   -4675.8398            0    2035.9471    20.112391    20.197564    20.875388    8480.0272    2353.6254    1262.0211    2492.1949   -312.32228     886.4942   -1041.4251   -3909.9845 
 5902000    256.77782    -4671.458   -4176.2404    -4671.458            0    2040.1237    20.188678     20.20324    20.880014     8516.471    628.82444    1910.1635    3581.3832    39.117085    1163.7688    237.91341   -3922.8489 
 5903000    259.23799   -4710.4366   -4210.4743   -4710.4366            0    1401.1982    20.294894    20.185737    20.673786    8469.3757    68.378912    1882.8265    2252.3893   -366.67969    -1835.972   -960.85535   -4037.4023 
 5904000     252.6171   -4694.7993    -4207.606   -4694.7993            0    3776.9459     20.20652    20.024289    20.924428    8466.4671    3890.7227    4189.7831     3250.332   -206.85538     1326.186   -896.01843   -3741.2486 
 5905000    263.19891   -4709.6943   -4202.0931   -4709.6943            0    3185.7749      19.9242    20.132337    21.075197    8453.6981    4959.9609    2860.0574    1737.3063   -433.67444   -1047.0135    545.64727   -3809.3236 
 5906000    258.28883   -4729.0422   -4230.9105   -4729.0422            0    1608.3358    20.323274    19.989987    20.986573     8526.047    1289.4246    1634.2583    1901.3245    15.460378    147.89437   -909.22973   -4030.9241 
 5907000    279.12457   -4732.3076   -4193.9924   -4732.3076            0    3538.3918    20.130583    19.970609    20.808762    8365.5386    3761.6772    3294.3081      3559.19   -579.31884    750.10561   -855.28224   -3762.2987 
 5908000    245.63322   -4705.0406   -4231.3163   -4705.0406            0    2047.0151    20.156423    20.235241    20.950971     8545.274    2574.3228    1841.7111    1725.0114     -211.554    -222.5227    396.95327   -3976.2089 
 5909000    247.49685   -4706.6947   -4229.3762   -4706.6947            0    2383.4134    20.241698    20.009809    20.961114    8489.9324    3140.0602    2384.4784    1625.7015   -218.06073   -704.03974   -523.96504   -3934.2692 
 5910000    250.97031   -4677.6416   -4193.6242   -4677.6416            0    1670.2868    20.078674    20.043975    20.941434     8428.015    1588.4767    1790.5316    1631.8522   -998.45258   -14.495526    98.096065   -3988.3227 
 5911000    250.29204   -4701.3099   -4218.6006   -4701.3099            0    2703.1188    20.184159    20.068886    20.876208    8456.4003    595.78006    3617.1712    3896.4053   -496.48987   -224.61074   -622.99134   -3885.2306 
 5912000    266.93926   -4711.1604   -4196.3456   -4711.1604            0     2554.475    20.439796    19.906705    20.962309     8529.333    1179.9025    3979.3262    2504.1962    508.69978    936.92696   -66.942452   -3878.5904 
 5913000    270.49911   -4713.6182    -4191.938   -4713.6182            0    2250.8722    20.154476    20.108446    21.035901    8525.3289    2239.1295    2343.9958    2169.4913   -321.55841    1887.7688    602.71536   -3912.0799 
 5914000    264.39968   -4720.9614   -4211.0444   -4720.9614            0    1697.5343    20.163522    20.133553     20.84749    8463.3163    3133.6975    502.76808    1456.1374    15.519403    1224.1624    665.59202   -4001.5198 
 5915000    257.56406   -4698.1585   -4201.4246   -4698.1585            0    3046.6593     20.20049    20.177103    20.665295    8422.9133    3505.0384     2243.417    3391.5225   -720.99849   -1144.6424   -325.33944   -3827.1743 
 5916000    262.72995   -4692.2442   -4185.5474   -4692.2442            0    3057.0046     20.21035    20.326652    20.692933    8500.8381    1075.0237    3969.2326    4126.7576   -650.64182    -301.7027    324.93715   -3806.5522 
 5917000    272.82593   -4729.8885   -4203.7207   -4729.8885            0    3807.4385    20.167861    20.024755    20.744958    8377.9858    4507.9666    3731.2332    3183.1156   -589.20476   -1211.2339    1382.4656   -3738.5114 
 5918000    270.06348    -4689.547   -4168.7068    -4689.547            0    4221.3024    19.930084    20.184124    20.965627    8433.8695    3590.9052    5583.6412    3489.3609    740.07274    0.4179419    648.86897   -3649.4894 
 5919000    270.92854   -4693.8666   -4171.3582   -4693.8666            0    3794.4104    20.203975    19.965782    21.068257    8498.6855    4377.0527    4350.3655    2655.8129    592.71351   -1628.2831   -1530.1792   -3701.0615 
 5920000    261.29992   -4689.8418   -4185.9029   -4689.8418            0     2339.135     20.26769    20.001109    20.888533    8467.7157    985.01207    3543.8261    2488.5669    42.180157     293.4817    1711.4833   -3897.0363 
 5921000    258.04807   -4678.8716   -4181.2042   -4678.8716            0    852.09072    20.215068    20.316041    20.633177    8473.8426    1347.5589   -781.98131    1990.6946   -436.70772    202.15491    358.09072   -4075.9008 
 5922000    247.21877   -4692.8736   -4216.0914   -4692.8736            0    3439.6123    20.029036    20.148677    20.989073    8470.3209    4914.7155    2359.9419    3044.1794   -917.51679   -395.34995    144.86617   -3791.1929 
 5923000     257.8385   -4727.3519   -4230.0887   -4727.3519            0    919.54585    20.262973    19.998329    21.043417    8527.3313    999.96474    1396.8259    361.84694   -340.84869    538.15249    271.21021   -4115.7317 
 5924000    258.63357   -4698.4966      -4199.7   -4698.4966            0     3056.439    20.026817    20.311428    20.930953    8514.1516    4438.8703    1514.4362    3216.0105   -409.35482   -785.03071   -106.57073   -3820.1814 
 5925000    260.08928   -4709.3133   -4207.7093   -4709.3133            0     3960.293    19.922319    19.991241    21.095823    8401.8728    3878.0117    4902.5826    3100.2846   -596.23273    631.44983    53.650816   -3722.4439 
 5926000    246.73912   -4706.1176   -4230.2605   -4706.1176            0    3371.0478    20.107774    20.122461    20.857848    8439.4587    4349.8393    2918.5415    2844.7627   -475.34698   -88.535744   -1346.0348    -3815.349 
 5927000    258.60179   -4698.3657   -4199.6304   -4698.3657            0    3698.2971    20.357582    19.855628    20.868515    8435.3161    2982.6626    5269.1898    2843.0389   -238.28763    302.16396    525.73032   -3744.6643 
 5928000    246.44448   -4676.0755   -4200.7866   -4676.0755            0    1907.6807    20.033045    20.178766    20.974586    8478.8113    5014.0102   -1865.7116    2574.7434   -580.12237    -109.8204   -70.256964   -3964.8928 
 5929000    273.64302   -4692.9777   -4165.2341   -4692.9777            0    2553.0959    20.287629    20.130459    20.727369    8465.0425    2344.1613    2385.0582    2930.0683    107.46581    1804.4812   -939.86214   -3850.0443 
 5930000    261.93649   -4687.4037   -4182.2371   -4687.4037            0    3655.8853    20.074593    20.190808    20.723993    8399.8954     4315.288    3582.1418     3070.226   -846.34197   -231.26027   -686.61245   -3734.3771 
 5931000     262.6454   -4714.5642   -4208.0304   -4714.5642            0    3656.9391    20.179413    20.154116    20.817935    8466.6173    5578.1649    1109.7232    4282.9292    399.48848    1245.8662   -1303.1855   -3756.4828 
 5932000    262.96741   -4708.6872   -4201.5324   -4708.6872            0    4183.7634     20.23261    19.933456    20.981673    8462.0312    3122.3494    6059.6266    3369.3142   -190.64341   -947.61403   -393.23038    -3685.214 
 5933000    252.21567   -4711.9999   -4225.5808   -4711.9999            0    3181.4893    20.053537    20.233643    20.813259    8445.1069    5425.7801    1094.8717    3023.8162   -586.01446   -26.798585    477.06528   -3833.7383 
 5934000    253.79518   -4712.8354     -4223.37   -4712.8354            0    1333.6353    20.320348    20.155356    20.672413    8466.6731    516.20668    2197.7873    1286.9121   -57.244504   -1268.1576   -366.12058   -4058.6957 
 5935000    251.64689   -4664.9452    -4179.623   -4664.9452            0    2963.1149    20.340352    20.108459    20.728415    8478.1937    4566.5357    586.80515    3736.0038    301.40109   -792.05437    87.652856   -3813.2464 
 5936000     253.2942   -4668.3639   -4179.8648   -4668.3639            0    2523.3623    20.150633    20.055751     20.96012    8470.7409    1985.3121    2757.7462    2827.0287     -111.273   -775.38691   -1088.0137    -3868.136 
 5937000    255.74445   -4704.8895   -4211.6649   -4704.8895            0    2182.1766    20.222294    20.071167    21.013305    8528.9862    1028.1123    3919.5574    1598.8599    765.16631   -503.16957   -711.65227   -3940.2315 
 5938000    253.31784   -4672.6822   -4184.1375   -4672.6822            0    4824.5694    20.053561    20.041396    20.928189    8411.0675    5297.4805    3964.4437    5211.7838    283.52917   -618.93988   -1815.7075    -3592.323 
 5939000    244.59909   -4704.8251   -4233.0952   -4704.8251            0    1391.9066     19.95584    20.179481    21.233933    8550.8733    2816.3125    838.34182    521.06549   -236.94506    915.98934     946.2443   -4059.5165 
 5940000    270.52242   -4687.4168   -4165.6916   -4687.4168            0    1962.1479    20.319601    20.129424    20.802886    8508.8353    2947.7335    1233.1319    1705.5782   -455.03576    692.35613    641.98338   -3922.2035 
 5941000    258.21799   -4697.4503   -4199.4552   -4697.4503            0    2095.9655    20.273005    19.941959    20.953458    8471.1357    2316.3896    2662.4107    1309.0962    956.77997    1091.6954   -1272.7604   -3940.5137 
 5942000    260.49392   -4687.2149   -4184.8304   -4687.2149            0    1676.2535    19.996917    20.062509    21.363262    8570.6915    3700.4008    771.42281    556.93678   -631.17183    597.13533   -1466.7247   -3975.3076 
 5943000    258.67273   -4692.0394   -4193.1673   -4692.0394            0    2330.8353    20.151386    20.079292    20.892656    8453.7029    2123.7548    1837.6703     3031.081   -303.57523   -774.47782   -385.72398   -3905.8019 
 5944000    262.11852   -4683.6119   -4178.0943   -4683.6119            0    2258.7629    20.199762    20.219797    20.831972    8508.5084    3085.5411    2350.8042    1339.9433   -358.09091   -841.46418    118.40431   -3897.8092 
 5945000    261.37418   -4702.8576   -4198.7755   -4702.8576            0    2624.8501    20.339656    20.085921    20.680995    8449.0291    -403.8214    4292.2148    3986.1569     -299.633   -655.18304   -658.36336   -3875.3403 
 5946000    252.01954   -4686.5538    -4200.513   -4686.5538            0    2052.7004     20.07714     20.11933    20.850631    8422.3749    3095.1768    1507.4992    1555.4251    340.46842    1117.3697    203.48075   -3948.3763 
 5947000    256.13229   -4691.7337    -4197.761   -4691.7337            0     2202.324    19.987681    20.124116     20.94902    8426.4167    3552.2373    1324.6921    1730.0427   -864.94649   -80.765325    3.0614131    -3927.116 
 5948000    254.64568   -4686.4507   -4195.3451   -4686.4507            0    1822.9166    20.318948    20.105093    20.809191    8500.8529    1249.2369    1969.8826    2249.6304   -403.24605    399.54235    303.80811   -3969.3467 
 5949000    270.80043   -4690.4358   -4168.1744   -4690.4358            0    4402.0558    20.243186    20.113668    20.543768    8364.6979    4389.6452    4104.2768    4712.2455    361.17654    423.50434    441.26864   -3631.1653 
 5950000    263.39313   -4726.1193   -4218.1435   -4726.1193            0    1095.2417    20.094887    20.218572    21.066416    8559.0726    1427.1787     637.0414     1221.505    400.49794   -112.95881   -517.95712   -4081.4296 
 5951000    256.03113   -4697.7785   -4204.0009   -4697.7785            0    2665.9229    20.085815    20.035567    21.026157    8461.5711    3186.2593     3017.053    1794.4564   -662.77426    330.04797    1267.0081   -3875.0171 
 5952000    260.15645   -4697.9239   -4196.1903   -4697.9239            0    1856.2359    20.190894    20.168006    20.866729    8497.1422    915.95913    2843.9666    1808.7819    554.95952   -410.30092   -45.633705   -3966.1616 
 5953000    246.45892   -4702.8439   -4227.5271   -4702.8439            0    2401.7755    20.154648    20.249336    20.758348    8471.8603    1136.9866    4088.5555    1979.7844   -257.88733    626.31939   -1909.4142   -3930.7796 
 5954000    250.10181   -4707.6507   -4225.3083   -4707.6507            0     3897.993    20.324507    20.148749    20.445934    8372.8839    1071.0164    5356.7053    5266.2574   -259.45128   -1112.9619    720.53152   -3749.3247 
 5955000    243.03927   -4707.4903   -4238.7687   -4707.4903            0    2140.3652    20.197499    20.157781    20.830403    8480.8226    2245.9623    2065.6775    2109.4559     80.03399    595.17455    993.39502   -3974.0395 
 5956000    244.11469   -4702.2144   -4231.4187   -4702.2144            0    2439.8631    20.059733    20.067829    21.058477    8477.2013    3088.0141    3302.8098    928.76518   -103.22082    272.79977   -1286.7268   -3929.7752 
 5957000    256.23881   -4702.2398   -4208.0618   -4702.2398            0    2249.3805     20.00133    20.226209    21.004604    8497.4352    3207.4955    1570.0419     1970.604    634.78543    211.50819    463.23293   -3929.3042 
 5958000    264.98869   -4708.6215   -4197.5685   -4708.6215            0    2230.3937    20.477078    19.842388    20.949702    8512.1599    1154.8414    4133.7798      1402.56   -870.78307    1324.3617   -443.99102   -3920.6849 
 5959000    257.90184   -4706.3822   -4208.9968   -4706.3822            0    3229.7644    19.998718    20.165227    20.806899    8390.9786    4974.6125    1964.5761    2750.1047    263.04669   -136.62359    386.60431   -3813.7582 
 5960000    266.12722   -4678.9476   -4165.6988   -4678.9476            0    2265.5046    20.202911      20.1299    20.937495    8514.9145     1560.839    3179.2488    2056.4261   -231.48398   -620.40553    536.13881   -3884.3656 
 5961000    254.34778   -4688.5514   -4198.0203   -4688.5514            0    3494.5029     20.30822    20.129414    20.578796    8412.4586    1750.1382     4595.143    4138.2274   -495.31206    1072.7412   -306.95491   -3769.2899 
 5962000    255.02719   -4687.3109   -4195.4695   -4687.3109            0     1878.788    20.250944    19.993387    20.972971    8491.6409    1354.9182     3069.257    1212.1889   -39.625201    349.10842    416.30739   -3962.7969 
 5963000    264.26404   -4683.2313   -4173.5759   -4683.2313            0    3184.5013    19.920429    20.133348     21.13964    8478.3684    1095.2522    3660.1003    4798.1516    144.51868    1036.8266   -678.30159   -3779.8177 
 5964000    264.27535   -4699.4381   -4189.7609   -4699.4381            0    2034.3249     20.16037    20.067027    21.010436    8499.9542    2575.0443    349.13477    3178.7958    212.68919   -1533.5247    986.60446   -3937.5796 
 5965000    245.97455    -4729.327   -4254.9443    -4729.327            0    2170.3345    20.207444    20.030356     20.92972    8471.5615    496.13931    4832.8172    1182.0471    80.278442   -7.0405992    1120.8715   -3986.8016 
 5966000    252.53581   -4700.4659   -4213.4293   -4700.4659            0    3610.3793    20.026049    20.085357    20.839091    8382.1149    2475.9019    3895.3554    4459.8806    640.19121   -188.53594     941.8552   -3772.0801 
 5967000    248.01659    -4720.859   -4242.5381    -4720.859            0    1597.8712    20.359028    20.121682    20.708415    8483.3656    654.50008    2007.0274    2132.0861   -448.59281    20.996006    329.42738   -4044.8476 
 5968000    254.13948   -4672.3248   -4182.1955   -4672.3248            0    1799.9249    20.323631     20.06274    20.876786    8512.4623    1934.3664    1134.8667    2330.5415   -68.711281   -940.46892    772.39622   -3958.7428 
 5969000    266.08892   -4707.8772   -4194.7023   -4707.8772            0    3504.4832     20.13112     19.87288    21.126681      8452.01    3498.1997    4227.1378    2788.1123   -657.04802    1379.9302   -619.86592   -3762.7261 
 5970000    248.28708   -4713.0572   -4234.2147   -4713.0572            0    3223.7118    20.104999    19.835454    21.090638    8410.7727    3534.4763    3699.3365    2437.3226   -227.98432   -486.87716    374.97647   -3838.7862 
 5971000    265.87196   -4719.2681   -4206.5116   -4719.2681            0    3433.6947    20.069104    20.317482    20.741129    8457.2713    4679.6764    2319.9983    3301.4093    201.68315    436.79682    244.78164   -3782.9976 
 5972000     253.1699   -4708.2973   -4220.0379   -4708.2973            0    2572.2222    20.244288    20.228742     20.72227    8486.1113    2694.3142    2237.2654    2785.0869   -140.95958    1017.8116   -653.93767   -3901.6965 
 5973000    243.18067   -4690.8604    -4221.866   -4690.8604            0     2934.345    20.177147    19.986344    20.896252    8426.7775    2126.2997    5066.9837    1609.7517    609.54191    635.97909   -864.40583    -3861.247 
 5974000    268.91578   -4717.0362   -4198.4095   -4717.0362            0    2526.4408    20.189012    19.728465    21.235251    8457.9627    2341.3761     3767.457    1470.4895   -574.08715   -115.27363   -50.885587   -3886.7713 
 5975000     253.5439   -4703.8321   -4214.8514   -4703.8321            0    2105.1738    20.265313    20.048073    20.766867    8437.1726     1958.569    1705.5016    2651.4509    383.23106    654.27618   -630.22503    -3955.815 
 5976000    262.71965   -4710.6874   -4204.0105   -4710.6874            0    1848.4637    20.271889    20.217988    20.874207    8555.4357    357.34866    3896.6603    1291.3823   -56.790151   -409.11901    413.85986   -3973.3735 
 5977000    278.04315   -4672.0195   -4135.7899   -4672.0195            0     2730.747    20.023337    20.229832    20.847864    8444.8182    1535.6369    2473.2348    4183.3694   -530.02409   -1139.9954     129.3304   -3799.4738 
 5978000    270.46917   -4689.9906    -4168.368   -4689.9906            0    3145.1738    20.253945    20.113669    20.827515    8484.7369    3093.2808    3523.6975    2818.5432    418.02601   -1157.6208   -734.44895   -3779.1805 
 5979000    268.85063   -4706.7221    -4188.221   -4706.7221            0    594.96703    20.147634    20.330741    20.899291    8560.6909    1319.6509    604.86474   -139.61456   -40.819412   -412.05529    1.8058596     -4113.94 
 5980000    281.53974   -4710.8045   -4167.8315   -4710.8045            0    2304.1273    20.116802    20.406417    20.806058    8541.1335    1695.5322     2117.585    3099.2647    368.58231    269.24812   -326.20872   -3880.8209 
 5981000    267.84764   -4696.3063   -4179.7396   -4696.3063            0    2900.4281    20.276231    20.074271    20.829619    8478.2915    1430.3142    3799.6633    3471.3068    351.49475   -34.424443   -579.64938   -3821.1099 
 5982000    262.96206   -4709.2415   -4202.0971   -4709.2415            0    3637.3154    20.147195    19.952908     20.91116    8406.1845    4229.4797    3511.5568    3170.9096   -859.29527   -228.13906    44.046287   -3756.1783 
 5983000    261.58642   -4727.1802   -4222.6887   -4727.1802            0    165.31047    20.066927    20.376044    20.884388     8539.304       1030.5   -1049.1805    514.61189    169.20098   -1041.8456    167.25214   -4202.1015 
 5984000    268.22566   -4702.0065   -4184.7108   -4702.0065            0    2050.9192    20.379956    19.977735      20.9037    8510.8441    1583.0676    3340.8197    1228.8704    364.71273   -1303.5971   -450.50013   -3930.1467 
 5985000    248.95584   -4705.8668   -4225.7346   -4705.8668            0    2596.5421    19.993291    20.129255    20.986794     8446.136    5915.7409    311.28237     1562.603    650.13141    619.27307    962.74252   -3905.8971 
 5986000    261.38701   -4722.6513   -4218.5445   -4722.6513            0    1871.5261    20.169705    20.064975    21.075048    8529.1697    3925.9527   -167.81686    1856.4424   -128.86843    423.56116   -819.23458   -3985.7469 
 5987000     253.4512   -4689.9234   -4201.1215   -4689.9234            0    3191.4745     20.02953    20.206641    20.901801    8459.5756    5273.9669    1955.2525    2345.2041    273.46255    649.12012    -1244.433   -3807.3758 
 5988000    260.91037   -4687.7499   -4184.5623   -4687.7499            0    2222.1837    20.356969    20.118171    20.711391    8482.2461    495.45031     3811.362    2359.7388    688.86696    606.26387    901.46943   -3909.6674 
 5989000    246.32821   -4688.4816    -4213.417   -4688.4816            0    2174.6933     20.19416    20.114994    20.773756    8438.4122    1426.0096    3422.2878    1675.7826   -753.91986    146.17449    -1141.946   -3945.7871 
 5990000    259.67466   -4696.9302   -4196.1258   -4696.9302            0    2189.1955    20.052877     20.12684    21.114704    8521.9167    2057.4864    2202.1384    2307.9617    305.84849    1445.2339    582.01916   -3924.0451 
 5991000    247.11832   -4706.2744   -4229.6859   -4706.2744            0      1152.93    20.180037    20.142493    21.049136    8555.9738    1961.3881    70.677282    1426.7245   -124.12809    1207.5927   -1886.4799   -4085.8232 
 5992000    261.06787   -4695.8701   -4192.3788   -4695.8701            0    3914.8904    20.137533    20.241037    20.642678    8414.0493    4107.5012    3006.9616    4630.2084    506.21556    419.22085   -1150.1321   -3711.9815 
 5993000    256.88919      -4673.8   -4178.3676      -4673.8            0    2284.2637    20.202254    20.255702    20.718072    8478.0593    2180.7274    1814.0546    2858.0091    -354.1913    1329.0715   -161.36315   -3895.9325 
 5994000     264.2173   -4692.5182   -4182.9529   -4692.5182            0    2210.7345     20.10843    20.118645    20.954571    8477.2634    1158.2198    2882.3301    2591.6535   -700.98906   -1114.8251   -922.53059    -3909.635 
 5995000    277.58635   -4681.0519   -4145.7032   -4681.0519            0    2507.8903    19.899553    20.141518    21.128164    8468.3203    3422.5091    690.67583    3410.4859     198.3888   -276.08463    -127.0681   -3835.9744 
 5996000     259.4642   -4681.1098   -4180.7113   -4681.1098            0    2647.0875    20.120221    20.165871     20.74643    8417.6936    4297.2434   -199.10208    3843.1213    347.78598    1624.8432    716.32913   -3855.7457 
 5997000    259.17714   -4706.4392   -4206.5942   -4706.4392            0    1933.4318    20.069581      20.2738    20.878137    8495.0359    2532.5825    1055.7338     2211.979   -255.60129   -536.54919   -781.09728   -3967.0587 
 5998000    266.36188   -4696.7646   -4183.0633   -4696.7646            0    1468.9648    20.129715     20.26418    20.855851    8507.3556    2746.7403     177.3794    1482.7747    -357.2893    106.90054   -157.66752   -4000.8073 
 5999000    243.59356   -4686.5762   -4216.7856   -4686.5762            0    2847.1257    20.212034    20.183639    20.692866    8441.7045    2202.5805    3247.4269    3091.3697   -527.70693    1126.8499    122.73022   -3866.2657 
 6000000    262.68813   -4665.5701    -4158.954   -4665.5701            0    609.76607    20.342071    20.262648    20.794387    8571.1177   -5.2370618   -639.47423    2474.0095   -99.288988   -682.48958    353.13566   -4082.7326 
Loop time of 433.811 on 64 procs for 250000 steps with 972 atoms

Performance: 99.583 ns/day, 0.241 hours/ns, 576.288 timesteps/s
99.0% CPU use with 64 MPI tasks x 1 OpenMP threads

MPI task timing breakdown:
Section |  min time  |  avg time  |  max time  |%varavg| %total
---------------------------------------------------------------
Pair    | 19.436     | 27.232     | 35.258     |  77.4 |  6.28
Bond    | 0.25644    | 0.27432    | 0.28631    |   1.0 |  0.06
Kspace  | 180.46     | 192.99     | 207.69     |  40.9 | 44.49
Neigh   | 3.0083     | 3.509      | 4.3811     |  19.0 |  0.81
Comm    | 83.23      | 94.969     | 104.2      |  51.0 | 21.89
Output  | 1.2272     | 1.229      | 1.2308     |   0.1 |  0.28
Modify  | 103.52     | 105.92     | 109.88     |  15.0 | 24.42
Other   |            | 7.695      |            |       |  1.77

Nlocal:        15.1875 ave          19 max          11 min
Histogram: 2 7 8 11 0 6 9 8 9 4
Nghost:        2151.98 ave        2184 max        2107 min
Histogram: 1 2 5 2 11 11 14 9 6 3
Neighs:        4603.92 ave        6483 max        2807 min
Histogram: 1 5 4 15 7 13 9 5 1 4

Total # of neighbors = 294651
Ave neighs/atom = 303.13889
Ave special neighs/atom = 2.0000000
Neighbor list builds = 8061
Dangerous builds = 0

unfix		3
unfix		2
unfix		1

write_data	data.final.${pid}
write_data	data.final.0
System init for write_data ...
PPPM initialization ...
  extracting TIP4P info from pair style
  using 12-bit tables for long-range coulomb (../kspace.cpp:340)
  G vector (1/distance) = 0.37152927
  grid = 24 24 25
  stencil order = 5
  estimated absolute RMS force accuracy = 0.0035191072
  estimated relative force accuracy = 1.0597687e-05
  using double precision FFTW3
  3d grid and FFT values/proc = 2366 288
Last active /omp style is kspace_style pppm/tip4p/omp
WARNING: Not all mixed pair coeffs generated from mixing. Use write_data with 'pair ij' option to store all pair coeffs. (../write_data.cpp:312)

write_restart   restart.lmp.${pid}
write_restart   restart.lmp.0
System init for write_restart ...
PPPM initialization ...
  extracting TIP4P info from pair style
  using 12-bit tables for long-range coulomb (../kspace.cpp:340)
  G vector (1/distance) = 0.37152927
  grid = 24 24 25
  stencil order = 5
  estimated absolute RMS force accuracy = 0.0035191072
  estimated relative force accuracy = 1.0597687e-05
  using double precision FFTW3
  3d grid and FFT values/proc = 2366 288
Last active /omp style is kspace_style pppm/tip4p/omp
Total wall time: 0:07:16
