#include		in.partitions
include		in.temp
variable        temperature equal 99.05
variable	tempDamp equal 100.0
include		in.pressure
variable        pressure equal 2168.8
variable        pressureDamp equal 1000.0 # This is 1 ps
include		in.seed
variable        seed equal 745823

units		real
atom_style	full

read_restart	restart.lmp.${pid}
read_restart	restart.lmp.1
Reading restart file ...
  restart file = 30 Jul 2021, LAMMPS = 30 Jul 2021
  restoring atom style full from restart
  orthogonal box = (-0.047482863 0.046798718 0.058469046) to (20.047484 19.953202 20.641529)
  4 by 2 by 4 MPI processor grid
  restoring pair style lj/cut/tip4p/long/omp from restart
  restoring bond style harmonic/omp from restart
  restoring angle style harmonic/omp from restart
  972 atoms
  648 bonds
  324 angles
Finding 1-2 1-3 1-4 neighbors ...
  special bond factors lj:    0        0        0       
  special bond factors coul:  0        0        0       
     2 = max # of 1-2 neighbors
     1 = max # of 1-3 neighbors
     1 = max # of 1-4 neighbors
     2 = max # of special neighbors
  special bonds CPU = 0.002 seconds
  read_restart CPU = 0.008 seconds
include 	in.setup
variable	out_freq equal 1000
variable	out_freq2 equal 10000
variable	out_freq3 equal 1000

timestep	2.0

neigh_modify    delay 7 every 1

include		in.tip4p
# This is TIP4P/Ice

# create groups ###
group ox type 2
324 atoms in group ox
group hy type 1
648 atoms in group hy

# set charges - beside manually ###
set group ox charge -1.1794
Setting atom values ...
  324 settings made for charge
set group hy charge 0.5897
Setting atom values ...
  648 settings made for charge

# ### TIP3P Potential Parameters ###
pair_style lj/cut/tip4p/long/omp 2 1 1 1 0.1577 8.5
pair_coeff 1 1*2 0.000 0.000
pair_coeff 2 2 0.21084 3.1668
bond_style  harmonic
bond_coeff  1 450 0.9572
angle_style harmonic
angle_coeff 1 55 104.52
kspace_style pppm/tip4p/omp 1.0e-5
pair_modify tail yes

thermo          ${out_freq}
thermo          1000
thermo_style    custom step temp pe etotal epair emol press lx ly lz vol pxx pyy pzz pxy pxz pyz enthalpy

restart 	${out_freq3} restart.lmp.${pid} restart2.lmp.${pid}
restart 	1000 restart.lmp.${pid} restart2.lmp.${pid}
restart 	1000 restart.lmp.1 restart2.lmp.${pid}
restart 	1000 restart.lmp.1 restart2.lmp.1


include         in.dump
dump            myDump all atom ${out_freq2} dump.water.${pid}
dump            myDump all atom 10000 dump.water.${pid}
dump            myDump all atom 10000 dump.water.1
dump            myDump2 all dcd ${out_freq2} dump.dcd
dump            myDump2 all dcd 10000 dump.dcd
dump_modify     myDump append yes
dump_modify     myDump2 append yes


variable natoms 	equal  "count(all)"                        # NUMBER ATOMS
variable H      	equal  "enthalpy/v_natoms"                 # ENTHALPY-per-atom
variable Vol      	equal  "vol/v_natoms"                 # volume-per-atom
fix AVG all 		ave/time ${out_freq} 1 ${out_freq} v_Vol v_H file vol_enthalpy.dat
fix AVG all 		ave/time 1000 1 ${out_freq} v_Vol v_H file vol_enthalpy.dat
fix AVG all 		ave/time 1000 1 1000 v_Vol v_H file vol_enthalpy.dat


timer           timeout 02:55:00 every 1000
New timer settings: style=normal  mode=nosync  timeout=02:55:00

fix 		1 all shake 1e-6 200 0 b 1 a 1
       0 = # of size 2 clusters
       0 = # of size 3 clusters
       0 = # of size 4 clusters
     324 = # of frozen angles
  find clusters CPU = 0.001 seconds
fix             2 all nph aniso ${pressure} ${pressure} ${pressureDamp}
fix             2 all nph aniso 2168.8 ${pressure} ${pressureDamp}
fix             2 all nph aniso 2168.8 2168.8 ${pressureDamp}
fix             2 all nph aniso 2168.8 2168.8 1000
fix             3 all temp/csvr ${temperature} ${temperature} ${tempDamp} ${seed}
fix             3 all temp/csvr 99.05 ${temperature} ${tempDamp} ${seed}
fix             3 all temp/csvr 99.05 99.05 ${tempDamp} ${seed}
fix             3 all temp/csvr 99.05 99.05 100 ${seed}
fix             3 all temp/csvr 99.05 99.05 100 745823


run             250000
PPPM initialization ...
  extracting TIP4P info from pair style
  using 12-bit tables for long-range coulomb (../kspace.cpp:340)
  G vector (1/distance) = 0.37151234
  grid = 24 24 24
  stencil order = 5
  estimated absolute RMS force accuracy = 0.0035939256
  estimated relative force accuracy = 1.0823e-05
  using double precision FFTW3
  3d grid and FFT values/proc = 3211 432
Last active /omp style is kspace_style pppm/tip4p/omp
Neighbor list info ...
  update every 1 steps, delay 7 steps, check yes
  max neighbors/atom: 2000, page size: 100000
  master list distance cutoff = 10.8154
  ghost atom cutoff = 10.8154
  binsize = 5.4077, bins = 4 4 4
  1 neighbor lists, perpetual/occasional/extra = 1 0 0
  (1) pair lj/cut/tip4p/long/omp, perpetual
      attributes: half, newton on, omp
      pair build: half/bin/newton/omp
      stencil: half/bin/3d
      bin: standard
Per MPI rank memory allocation (min/avg/max) = 10.18 | 10.18 | 10.19 Mbytes
Step Temp PotEng TotEng E_pair E_mol Press Lx Ly Lz Volume Pxx Pyy Pzz Pxy Pxz Pyz Enthalpy 
  500000    99.912635   -5042.9804   -4850.2905   -5042.9804            0    2208.4922    20.094967    19.906404     20.58306    8233.6051    1152.3101    3189.9795    2283.1872   -393.18732    1139.2097   -128.86917   -4585.0977 
  501000    97.477951   -5054.5513   -4866.5569   -5054.5513            0    984.09653    19.970948    20.016621    20.801542    8315.4351    1109.6541    819.20157    1023.4339    236.81328    1046.2676   -262.42193   -4747.2135 
  502000    97.678979   -5050.9766   -4862.5944   -5050.9766            0    1657.8404    19.905375    20.034827    20.739445    8270.9062    2708.5859    1552.8265    712.10878    59.497939    340.73438    154.54923   -4662.6213 
  503000    96.700738   -5051.9281   -4865.4325   -5051.9281            0    1543.5979    20.113408    19.927239     20.68305    8289.8632    745.60559    2071.8163    1813.3718   -50.633952   -89.094853    206.87098   -4678.8129 
  504000    98.227721   -5065.5587   -4876.1183   -5065.5587            0    1777.2995     20.05578    19.970109    20.677173    8281.5409    1775.0678    1604.9687     1951.862   -103.75876    332.93888   -411.13854     -4661.46 
  505000    95.185023    -5047.332   -4863.7597    -5047.332            0    1471.6174    19.957756    20.037743    20.776494    8308.6943    1670.1309    989.22342    1755.4979   -263.18148    993.97516   -160.26529   -4685.4383 
  506000    100.36238    -5047.846   -4854.2887    -5047.846            0    2615.2067    20.015127     19.90719    20.596357    8206.5139    2178.2321    2558.5884    3108.7997   -392.04339    319.81774     -30.2673   -4541.2914 
  507000    96.956895   -5052.4217   -4865.4321   -5052.4217            0    1762.1012    20.006756    19.964526    20.772272    8296.9731    1888.4182    1947.9079    1449.9775   -232.22272    741.88178     230.0654   -4652.2129 
  508000    100.81803   -5056.2221    -4861.786   -5056.2221            0    1769.7535    20.000762    19.936002    20.727244    8264.6827    2429.0784    1581.5676    1298.6143   -18.306983     -509.491    1087.2002   -4648.4743 
  509000    103.68885   -5053.9858   -4854.0132   -5053.9858            0    2210.9194    19.877887    19.905105    20.917378    8276.4087    2568.0302    2754.3495    1310.3784   -227.84919   -935.24846   -567.35594   -4587.1487 
  510000    102.38591   -5053.3178    -4855.858   -5053.3178            0    1827.8009    19.963623     19.97236    20.695252    8251.6244    2229.3831    1338.0906    1915.9291   -254.15348    37.678626   -173.15739   -4635.8977 
  511000    96.558804   -5051.2574   -4865.0356   -5051.2574            0    2194.8957    19.995126    19.879555    20.808418    8271.2258    2815.1052    1816.4758    1953.1063   -115.44355    54.967515    70.476818   -4600.2712 
  512000    101.86123   -5038.6348   -4842.1868   -5038.6348            0    2324.0918    20.080366    19.783232     20.77092    8251.3422    1610.0616    2807.6055    2554.6082      372.139   -337.09151    245.17781   -4562.5118 
  513000    102.64023   -5049.7697   -4851.8194   -5049.7697            0    1001.9751     19.89906    20.041256    20.817535    8302.0777    2731.1471   -581.05003    855.82831   -277.32198    251.02961   -225.64742    -4730.503 
  514000    98.504673   -5057.0413   -4867.0668   -5057.0413            0    1029.1867    20.065263    19.933215    20.746853     8298.019    1278.4968    855.29763    953.76564    141.30206    257.34471    262.59669   -4742.5166 
  515000    96.624985   -5050.3489   -4863.9995   -5050.3489            0    2373.7789    20.055507    19.880435    20.658403    8236.7575    2827.3027     1338.866    2955.1682    154.24323   -54.466932    736.92192   -4578.8501 
  516000     103.6387   -5061.7986   -4861.9226   -5061.7986            0    2914.9416    19.948229    20.021219    20.717827    8274.4487    3627.6102     2141.407    2975.8077   -5.9409774   -260.53514   -214.30023   -4510.1639 
  517000    97.448959    -5050.465   -4862.5264    -5050.465            0    2194.9868    20.100969    19.854404    20.693728     8258.717    1239.1463    2374.4736    2971.3405    -475.6305    259.00468   -20.997396   -4598.1514 
  518000    93.950961   -5054.2339   -4873.0415   -5054.2339            0    2133.8787    19.966639    19.936006    20.821439    8288.0786    2827.7082     1800.277    1773.6509    30.849196    185.20629    200.84757   -4615.1129 
  519000    97.431467   -5053.2528    -4865.348   -5053.2528            0    1531.4237    20.008826    19.947897    20.798202    8301.2693    1886.6453    1467.3625    1240.2634   -443.47076    556.99282   -419.37611   -4679.9454 
  520000    94.957469   -5048.0262   -4864.8927   -5048.0262            0    2307.4145    20.028017    19.878203     20.76801    8268.1808    2003.0168    2558.2639     2360.963   -485.56259    222.25819    -187.1445   -4586.6579 
  521000    96.853532   -5059.6262   -4872.8361   -5059.6262            0    1980.9801    19.779164    19.958289    20.929559    8262.1167    2606.8344    2768.6905    567.41556   -608.81199    1269.9974     768.9132   -4634.1388 
  522000    98.512333   -5049.3465   -4859.3572   -5049.3465            0    2084.7083    19.909806    19.929358    20.742568    8230.4366    2329.7383     2330.748    1593.6385    332.12515    404.55016   -366.03056   -4609.1245 
  523000    97.720664   -5061.4903   -4873.0277   -5061.4903            0    2292.4163    19.962964    20.048201    20.603011    8245.7683    2289.0937    1247.0638    3341.0916   -442.06535    783.14187    -254.8693   -4597.3508 
  524000    103.97916   -5043.3829   -4842.8503   -5043.3829            0    3316.2881    19.836168    19.934715    20.774752    8214.9258    3849.9508    4154.6833    1944.2303    104.29531    290.09413    -778.8167   -4445.5382 
  525000    103.12436   -5050.2671   -4851.3831   -5050.2671            0    1749.7466    19.807449    19.999537    20.881583    8272.0265    2248.7063    1917.7303    1082.8033   -372.83951    461.74519   -46.394157   -4640.2954 
  526000    103.92833   -5053.7001   -4853.2656   -5053.7001            0    2349.3974    20.051958    19.924825     20.66891    8257.8857    2326.6869    2278.1538    2443.3514   -133.78385   -421.20629   -357.68022   -4570.3211 
  527000    100.22933   -5042.6993   -4849.3986   -5042.6993            0    2828.9718    19.952924    19.989481    20.699113    8255.8118    3997.6618    1890.5366     2598.717    -58.41737   -287.19995     79.54471   -4508.7832 
  528000    98.488344   -5059.2751   -4869.3321   -5059.2751            0     3423.805     19.96372    19.963612    20.697116    8248.7935    2923.7758     3755.245    3592.3943   -51.168642   -248.10161   -99.351468   -4457.4477 
  529000    103.10704   -5057.8233   -4858.9728   -5057.8233            0    2509.8401    19.948558    19.943105    20.633957    8208.9346    3277.3014    1886.1967    2366.0222    122.53733   -468.55679   -154.36209   -4558.4975 
  530000     101.2853   -5049.8656   -4854.5284   -5049.8656            0    1844.7142     19.96668    19.910944    20.709587    8233.2091    1234.3598    2105.4563    2194.3264   -329.38348     133.1819   -338.20702   -4633.0282 
  531000    99.989053   -5043.5352   -4850.6979   -5043.5352            0    2040.8705    19.945306    19.898307    20.786704    8249.7818    2371.3971    1856.6446    1894.5697   -266.10859   -590.55965   -68.804304   -4605.1514 
  532000    104.49324   -5060.4019   -4858.8779   -5060.4019            0    2311.5491    19.905201    19.982515    20.741852    8250.1958    2781.5288    2158.7615     1994.357    270.80366   -52.383402   -4.9717611   -4580.7508 
  533000    98.108817   -5048.9539   -4859.7428   -5048.9539            0    1951.0909    20.032877     20.01367     20.68467    8293.1332    2348.8569    1317.0141    2187.4016   -397.89187    161.87708   -158.26794   -4623.7645 
  534000    97.748193   -5059.2099   -4870.6943   -5059.2099            0    2934.7853    20.008327    19.937523    20.636134    8232.0937    3824.0154    2394.2886     2586.052    547.68866    566.64275   -435.29251   -4518.3538 
  535000    94.271702   -5063.2113   -4881.4004   -5063.2113            0    1962.3872    19.957062    19.963877    20.704218    8248.9816    427.70541    4033.9236    1425.5327   -517.20871    134.86811    179.36163   -4645.3194 
  536000    98.459956   -5061.4692   -4871.5809   -5061.4692            0    2456.6908    20.112317    19.856545    20.665421    8252.9658    2392.5009    1962.0847    3015.4867    163.35235   -213.55651   -71.930019    -4575.891 
  537000    100.76366   -5058.5422    -4864.211   -5058.5422            0    2920.2251    19.910046    19.905317    20.748177      8222.83    3095.3862    2783.9476    2881.3416    216.18584   -80.352874   -888.90261   -4514.0131 
  538000    107.05558   -5058.5492   -4852.0835   -5058.5492            0     2580.847    19.863423    19.968328    20.763749    8235.7203    3530.3631    2390.8238    1821.3541   -150.04405    92.124969    1008.0842   -4542.0992 
  539000    92.969193    -5048.915    -4869.616    -5048.915            0    2163.3718    20.073726    19.914096    20.636711    8249.5272     2821.689    656.36275    3012.0638    215.64937    135.72686   -487.11817   -4609.3389 
  540000    96.285749   -5049.2245   -4863.5293   -5049.2245            0    2275.0668    19.983959    19.937165    20.746464    8265.8788    2380.2167    2148.2222    2296.7614   -373.39423    376.57319     283.4467   -4589.2715 
  541000    101.02337   -5054.9532   -4860.1211   -5054.9532            0    2780.2387    19.936529    19.940274    20.862542    8293.6919    2938.9418    2401.0688    3000.7056   -512.47643    201.01964    -800.2927   -4523.8374 
  542000    97.769191   -5054.2392   -4865.6831   -5054.2392            0    2249.9306    20.008638    19.858324    20.830661    8276.8134    2268.6591    2397.5843    2083.5485    55.531406   -462.93896    325.60479   -4594.0966 
  543000    100.73808   -5050.5625   -4856.2806   -5050.5625            0    1470.9712    19.973359    19.839346    20.832334    8254.9868    2823.4632    1315.7956    273.65483    146.04292   -1086.7481    200.01201   -4679.1896 
  544000    95.521276   -5060.4298    -4876.209   -5060.4298            0    2989.4776    19.926353     19.88514    20.778465    8233.2239    2695.3754    3302.0778    2970.9797    160.18363    101.25296   -544.35276    -4517.253 
  545000    97.153213   -5063.2319   -4875.8638   -5063.2319            0      1593.66    20.025962    19.818409    20.826603    8265.7185    1709.0783      2119.09    952.81161   -64.873093    -29.95422   -666.16115   -4683.7528 
  546000    96.007838   -5057.9138   -4872.7546   -5057.9138            0    1388.0282    20.031928    19.967953    20.855782     8342.242    1251.2728    1677.0008    1235.8109    39.546341    258.85557   -20.582781   -4703.8829 
  547000    102.57119   -5064.3521    -4866.535   -5064.3521            0    1774.5678    20.005595    19.849537    20.850409     8279.735    1401.2833    2897.3833    1025.0366   -174.59054    437.16732   -16.900264   -4652.2534 
  548000    95.267351   -5060.3075   -4876.5764   -5060.3075            0    2566.9643    19.874329    19.917707    20.890262    8269.4322    2215.9792    3154.8701    2330.0434   -109.95567    -21.53433   -163.55102   -4566.9975 
  549000    95.833283   -5045.7612   -4860.9386   -5045.7612            0    1185.8516    19.958611    19.999496     20.82141    8311.1192    984.25024     1029.633    1543.6716   -513.88642    374.34922   -463.36068   -4717.2025 
  550000    100.00908    -5066.257   -4873.3811    -5066.257            0      2204.78    19.893322    19.987157    20.753344    8251.7569    3343.6878    1354.8533     1915.799   -143.22111   -196.99824    121.02749   -4608.0503 
  551000    105.73902   -5042.4379   -4838.5113   -5042.4379            0     3056.954    19.922358    19.868768    20.871004     8261.426    2564.8559    4093.1588    2512.8473   -96.691179   -26.324704    144.30339   -4470.1959 
  552000    94.329994   -5050.5775   -4868.6542   -5050.5775            0    2146.2296    19.954748    19.945929    20.789405    8274.5152    2570.0185    2223.5336    1645.1368    200.54385    286.89023    206.25062   -4609.6573 
  553000    98.141091   -5065.9044    -4876.631   -5065.9044            0    2234.4749    19.886894    20.021543    20.775895     8272.261    3290.1644    1329.0774    2084.1828    34.002278    1411.7932    778.29479   -4607.0585 
  554000    105.03528    -5052.795   -4850.2256    -5052.795            0    2484.9158    19.975005    19.927259    20.709205    8243.2394    2093.3632    3432.9219    1928.4624   -450.34595    42.948704    926.26417    -4551.491 
  555000    97.414481   -5048.5035   -4860.6315   -5048.5035            0    2182.8937    19.930271     19.99242    20.746947    8266.7114    2333.5644    1785.5379    2429.5787    79.398475    1494.4377    42.982028   -4597.4585 
  556000    104.59604   -5046.3285   -4844.6062   -5046.3285            0    2366.9605    20.041987    19.993558    20.667485    8281.6811    2650.9809    2091.8047    2358.0958    -203.7562    151.55551   -478.12158   -4558.7252 
  557000    94.139567   -5059.0556   -4877.4995   -5059.0556            0     1616.254    20.017254    19.920964    20.739919    8270.3123    663.75977    2760.5287    1424.4734    398.50323   -292.27611   -235.65785   -4682.5566 
  558000    100.29769   -5055.6155    -4862.183   -5055.6155            0    2458.7943    19.973476    19.803342    20.865873    8253.3202    1380.7574    3952.0042    2043.6214   -355.31171    1003.7882    389.88589   -4566.2273 
  559000    97.902557   -5054.3929   -4865.5796   -5054.3929            0    2056.9603    19.920629    19.871786    20.872224    8262.4471     1862.815     3557.149    750.91703   -65.924184     608.5706   -888.35964   -4617.7173 
  560000    99.977694   -5057.6808   -4864.8654   -5057.6808            0    2745.0386    19.943946    19.820624    20.825852    8232.4898     3308.969    2590.9833    2335.1635   -19.283236    828.20995     89.28087   -4535.2894 
  561000     99.50318   -5050.1045   -4858.2043   -5050.1045            0    2215.6133    19.925475    19.888596    20.796934    8241.6111    2030.6803    2514.9795    2101.1801   -24.769713     179.1316    238.46144   -4591.8976 
  562000    100.72718   -5040.8349   -4846.5741   -5040.8349            0     2317.984    19.951983    19.920903    20.827655    8278.1912    2857.5058    2938.1761    1158.2702    164.46822    455.12602   -489.98937   -4566.7264 
  563000    96.665445   -5040.3805   -4853.9531   -5040.3805            0    1321.6041    19.968877    20.000495    20.786795    8301.9844    1252.9619    1768.0908    943.75953   -537.96392    1078.4947    -1092.664   -4693.9387 
  564000    99.125778   -5056.0745   -4864.9021   -5056.0745            0    2055.2602    19.955401    20.031712    20.733204    8287.9083    2538.0243    1512.6946    2115.0618    -227.4633    651.72892   -948.91891   -4616.4814 
  565000    100.04501     -5058.99   -4866.0447     -5058.99            0    2699.8276    19.946421    19.840605    20.756123    8214.2161    2944.4558    2602.8361    2552.1908    123.40799    313.39062   -532.72338   -4542.6164 
  566000    102.35892   -5043.2813   -4845.8736   -5043.2813            0    2493.7832    19.992095    19.952464    20.751832    8277.7304    1939.4511    3238.4535    2303.4449      335.961   -151.77328    1015.8854   -4544.8185 
  567000    95.898377    -5051.645   -4866.6969    -5051.645            0    1496.4188    20.003989    20.054652    20.611428    8268.7493    768.76906     1560.945    2159.5422   -195.96649    197.85609    363.32219   -4686.2419 
  568000    99.907288   -5056.9861   -4864.3065   -5056.9861            0    2804.6957    19.899095    19.974516     20.68011    8219.8226    3843.7301    2170.0176    2400.3396    14.404782    157.32787   -632.31294    -4528.086 
  569000    94.535902   -5058.6655   -4876.3451   -5058.6655            0    2966.0087    19.931557    19.986931    20.641303    8222.8892    3894.6184    2101.6704    2901.7373   -1.0177249    498.98298    72.786481   -4520.6542 
  570000     97.48613   -5048.7012    -4860.691   -5048.7012            0    987.84218    20.014732    19.942467    20.786969    8296.9758   -58.778428     2309.307      712.998   -237.14328    964.93623    22.548033   -4741.1592 
  571000    101.95622   -5056.0167   -4859.3855   -5056.0167            0    1821.7989     20.02139    19.985384     20.69908    8282.4297    1616.8183    2159.8666    1688.7117    72.824581   -418.93735    -794.3488   -4639.3291 
  572000    107.77123   -5048.9008   -4841.0549   -5048.9008            0    2894.0367    19.963124    20.007512    20.574392    8217.6683    2567.9443    2652.4399     3461.726    57.990582   -375.95598   -746.55373   -4494.2154 
  573000    99.358168   -5068.5461   -4876.9256   -5068.5461            0    1588.0331    19.945992    20.007654    20.693717    8258.2937    1186.1366    1823.0618     1754.901   -233.87751    48.970882   -196.23241   -4685.6648 
  574000    97.292863   -5062.0833   -4874.4458   -5062.0833            0    2039.6454    20.017457    19.906681    20.695883    8246.9189    935.65266    3260.3605    1922.9232   -293.74357    216.68921   -216.71177   -4629.1318 
  575000    100.25507   -5062.7396   -4869.3892   -5062.7396            0    2294.6133    20.009231    19.913519    20.717727    8255.0656    2370.9211    2158.3831    2354.5357   -475.63636    701.58831   -270.05163   -4593.1369 
  576000    103.77572   -5065.6302     -4865.49   -5065.6302            0    2311.0274    19.935726    19.857063    20.832318    8246.7849    2882.1487    3081.8254    969.10819   -14.404377   -199.83057    450.30596   -4587.5406 
  577000    97.646171   -5068.8421   -4880.5232   -5068.8421            0    1583.4502    19.884664    19.995067    20.887448    8304.7488    1594.3591    1997.0141    1158.9774    52.784933    105.55236   -261.56216   -4688.7417 
  578000    105.75586   -5053.9629   -4850.0038   -5053.9629            0    2241.9526    20.010294    19.873145     20.84225    8288.2848    1546.8524    3023.4752    2155.5303   -148.38383    123.27766     91.15703   -4579.0052 
  579000    97.381296   -5060.8387   -4873.0307   -5060.8387            0    1355.8006    19.974399    20.001063    20.755961    8292.1976    1737.3252    1253.4945     1076.582   -290.70262     541.5406    638.92928   -4709.0694 
  580000    101.53288   -5049.0542   -4853.2395   -5049.0542            0    2769.3569    19.955722     19.91185     20.74028    8241.2612    3445.2334     2716.369    2146.4682    152.33362    163.99926   -295.07726   -4520.3895 
  581000    99.616517   -5050.8498    -4858.731   -5050.8498            0    1951.2475     19.97288    19.980103    20.673377     8249.922    1213.9021    2077.7319    2562.1085    286.44464   -131.67717    189.90563   -4623.9634 
  582000    96.526327   -5058.0409   -4871.8817   -5058.0409            0    2711.8345    19.779725    19.998382    20.671884    8177.0221    3489.1728    2611.2251    2035.1055    154.32654    1013.3354   -303.18042    -4548.486 
  583000    98.969255   -5051.1184   -4860.2479   -5051.1184            0    1702.8512    19.983669    20.053187    20.581943    8247.9306    1731.6907    1257.8975    2118.9654    9.6522591    1107.5895    392.18793    -4655.416 
  584000    105.82413   -5051.4631   -4847.3724   -5051.4631            0    2458.9992    19.904092    19.964055    20.766946    8252.0861    2238.8226    3396.9809    1741.1942   -218.64983    543.07295     391.8246   -4551.4363 
  585000    98.202361   -5061.1416   -4871.7501   -5061.1416            0    2054.9165    20.058197    19.825261     20.72559    8241.7171    1565.5961    2975.9989    1623.1545    180.15146    463.77129     370.7568   -4624.7553 
  586000     98.16994   -5057.1254   -4867.7965   -5057.1254            0    2047.7666    19.934973    20.046367    20.654138    8253.8849    2323.1571    1148.6335    2671.5091    7.8831372    225.19952    217.48419   -4621.2977 
  587000    95.659954   -5053.0576   -4868.5693   -5053.0576            0    1946.4156    20.005513    19.926627     20.69282    8249.0353    2175.2435    1091.9822     2572.021   -156.36785   -497.82405    -584.8486   -4634.4083 
  588000    100.88728   -5058.6997   -4864.1301   -5058.6997            0    1699.1672    19.895711    19.910185    20.926661    8289.6214    927.74113    2805.6423    1364.1183   -18.413507   -184.37508    496.21568   -4658.7082 
  589000     91.39475   -5056.7522   -4880.4897   -5056.7522            0    2228.9855    19.920198     19.91325    20.926827    8301.1678    1862.4711    2467.0285     2357.457   -450.41827   -2.5104487    472.69953   -4610.6398 
  590000     97.60544   -5055.9941   -4867.7538   -5055.9941            0    1961.5447    19.968029    19.911575    20.810892    8274.3044    2113.0751    1832.6206    1938.9385   -225.32338    232.86415    2.0658841   -4631.0498 
  591000    95.189444    -5055.107   -4871.5262    -5055.107            0    2322.4571    19.861166    19.893593    20.931771    8270.3512    3105.1905    2945.8532    916.32758   -196.94631    222.78713   -495.12701    -4591.404 
  592000    94.429172   -5048.5279   -4866.4133   -5048.5279            0    2425.8874    19.851253    19.928931    20.888053    8263.6115    3196.3671    1345.2513    2736.0438    331.60949   -726.12241    561.48913   -4574.0543 
  593000    98.757837   -5043.6649   -4853.2021   -5043.6649            0    1324.0227    19.939154    19.959604    20.796248    8276.4413    2007.6205    809.91451    1154.5331   -301.26059   -27.057941    875.86153   -4693.3881 
  594000     100.3372   -5057.4776   -4863.9689   -5057.4776            0    1451.6422     19.95483    19.866113    20.814645     8251.444    2206.9406      657.899     1490.087   -82.490644    648.41072    39.061557   -4689.2799 
  595000    94.642523   -5060.8281    -4878.302   -5060.8281            0    1010.3207    19.978121    19.865282    20.863156    8279.9815    1179.6851    1419.4088    431.86818   -50.436875     276.7354   -481.57706   -4756.3007 
  596000    103.20483   -5057.6322    -4858.593   -5057.6322            0    2473.2735    19.994127    20.000946    20.677932    8269.1349    2612.9684    1972.6154    2834.2367    -285.7098   -327.58457    163.99597    -4560.324 
  597000    95.927193   -5045.9821   -4860.9785   -5045.9821            0    2018.6587    19.969452    19.941697    20.702257    8244.1517    3734.3738    765.56448    1556.0379   -309.04618    489.96046   -545.20113   -4618.2701 
  598000     100.1237   -5056.0175   -4862.9205   -5056.0175            0    3222.2836    20.061895    19.891956    20.588824    8216.3889    2551.7064    2774.5215    4340.6229   -41.785184      -124.59   -263.63146   -4476.8019 
  599000    94.545389   -5047.5713   -4865.2326   -5047.5713            0    1502.9884    19.946496    20.066585    20.698033    8284.5543    2019.6478    771.30192    1718.0154   -67.116423   -68.546913    350.89812   -4683.6389 
  600000    96.918515   -5054.1981   -4867.2826   -5054.1981            0    3278.8438    19.936325     19.97692    20.861114    8308.2802    3564.0611    3392.9307    2879.5395    45.182306   -505.36727    695.49719   -4469.9925 
  601000    94.625506   -5062.4381   -4879.9449   -5062.4381            0     2397.319    19.968665    19.953995    20.722576    8257.0065    2230.8977    2120.6194    2840.4397    -106.8897    434.97354   -835.47318   -4591.2598 
  602000    100.32555   -5058.1065   -4864.6202   -5058.1065            0    1965.9534    19.909091    20.080263    20.703439    8276.8164    1369.3312    1622.9027    2905.6264   -169.58413    557.32417    15.631874   -4627.3122 
  603000    103.16828   -5054.3258   -4855.3571   -5054.3258            0    2633.2641    19.905999    19.977474    20.705229    8233.8811    2631.6663    2344.9561    2923.1698   -368.38851    -630.7179    387.30172   -4539.1476 
  604000     101.3198    -5053.366   -4857.9622    -5053.366            0    1927.5787    19.883723    19.899352    20.850841     8250.119    3626.3914    836.12271     1320.222   -530.10141   -328.56859    545.41138   -4626.0369 
  605000    104.94289   -5052.0888   -4849.6976   -5052.0888            0    1081.0098    20.072459    20.033058    20.686918    8318.4731    318.77746    1320.7289     1603.523   -320.28529   -73.669053    701.86818   -4718.5534 
  606000     96.63012   -5061.7258   -4875.3665   -5061.7258            0    1636.3609    19.998053    20.059941    20.643246    8281.2394    1699.3036    962.34182    2247.4373   -200.46046   -36.732326   -737.69666   -4677.7376 
  607000    98.971357   -5052.8809   -4862.0063   -5052.8809            0    1824.0514    19.888754    19.934694    20.868844    8274.0002    1588.1242    2097.9819     1786.048   -46.950644   -1040.1724    77.421282    -4641.902 
  608000    98.705629   -5049.2989   -4858.9368   -5049.2989            0    1604.0082    19.993735     19.97047    20.831323      8317.62    1555.5487    1462.9544    1793.5215    153.50459    700.15865    38.974886   -4664.3643 
  609000    100.28019   -5054.8668   -4861.4681   -5054.8668            0    2521.9515    19.859124    19.980268    20.803777    8254.7436    3921.4451    1581.8525    2062.5568    3.8180411   -275.63075   -875.45082    -4557.858 
  610000    104.42347   -5055.0981   -4853.7087   -5055.0981            0    2065.2937    20.027356    19.907461    20.669588    8240.8368    905.68311    2809.4339    2480.7641   -295.46874   -275.31361     841.3784   -4605.4931 
  611000    104.82027   -5054.1677    -4852.013   -5054.1677            0    2906.5274    19.876871    19.950534    20.823747    8257.7444    3251.0253    3345.0114    2123.5455   -306.79633    330.43965    -356.4288   -4501.9778 
  612000    96.726115   -5042.0142   -4855.4697   -5042.0142            0    2077.1171    19.936136    19.970622    20.756215     8263.818    1757.7283    2116.7944    2356.8287    335.51235    392.27172   -137.03126    -4605.137 
  613000    98.047376    -5062.356   -4873.2634    -5062.356            0    1818.5259    20.103843    19.913053    20.696392    8285.3635    1018.0464    1772.4286    2665.1027   -159.53372    147.69991   -90.837891   -4653.5245 
  614000    99.235347   -5049.3857    -4858.002   -5049.3857            0    2251.6302    19.906384    20.037822    20.694812    8254.7584    2751.0515    1900.3994    2103.4395   -182.29662    -39.45998    456.46862   -4586.9346 
  615000    100.42697    -5056.526   -4862.8441    -5056.526            0    2220.7806    19.966113    19.907962    20.756064    8250.2161    1089.4132    3508.3232    2064.6053   -221.09409    225.22086   -405.79891   -4595.6377 
  616000    96.297155   -5060.0537   -4874.3365   -5060.0537            0    1468.9141    19.976166     20.00203    20.690797    8267.2945    2320.2678     468.3872    1618.0872   -550.20026    1557.2038    117.91778   -4697.2295 
  617000    95.157648   -5058.9167   -4875.3972   -5058.9167            0    2187.1011    19.990025    19.813401    20.876113    8268.4098    2017.8471    1894.4388    2649.0173   -197.29756    219.12431   -633.00346   -4611.6628 
  618000    95.436513    -5056.247   -4872.1897    -5056.247            0    1885.9562     19.99691    19.928437    20.718336    8256.4051    1743.9728    1584.5822    2329.3135   -217.24655   -114.52033   -223.57979   -4645.0994 
  619000    93.703508   -5056.7066   -4875.9915   -5056.7066            0    1059.1374    19.889426    20.041705    20.975628    8361.2626    1926.8718    592.65916    657.88129   -282.78337    10.722315   -808.94545   -4746.8398 
  620000    97.220633   -5050.5728   -4863.0746   -5050.5728            0    3049.3413     19.97681    19.937348    20.671712    8233.2251    2560.4356    3378.2148    3209.3734   -462.44713   -479.75257   -260.36129   -4496.9306 
  621000    93.421331    -5057.961   -4877.7901    -5057.961            0      2731.75    19.913634    20.009533    20.827963    8299.1627    3471.7108    2074.5277    2649.0114   -111.60634    453.98128    365.01867   -4547.1533 
  622000    102.88632    -5049.002    -4850.577    -5049.002            0    2123.8197    19.974642    20.028343    20.643319    8258.5453    2368.5189     1876.063    2126.8772   -480.24132    24.606266   -944.12188   -4594.7791 
  623000    102.21168   -5060.7653   -4863.6414   -5060.7653            0    2239.3274    19.978926    20.005816    20.621676    8242.3747    2495.5421    1828.1411    2394.2991   -221.62262    220.37727   -284.53004   -4594.4595 
  624000       98.899   -5049.6508   -4858.9158   -5049.6508            0    2404.1253    19.760263    20.170973     20.62144    8219.3705    3239.1013     1432.142    2541.1326    88.579941    130.31021    530.88011   -4570.7307 
  625000    103.45811    -5052.885   -4853.3573    -5052.885            0    2092.6554     20.03212    19.908136    20.732348    8268.1054     2261.417     2703.947    1312.6022    22.169938  -0.72882905   -861.70151   -4601.0211 
  626000    96.987608   -5063.3222   -4876.2734   -5063.3222            0    2321.7573    19.934628    19.962786    20.717693    8244.6207    1826.6934    2516.4159    2622.1626   -39.473801    214.75179   -5.7546981   -4597.1069 
  627000    99.186522   -5056.7205   -4865.4309   -5056.7205            0    1886.2999    20.084059    19.895586    20.543372    8208.8054    1453.6004    1930.7223    2274.5769    95.369634    15.354391   -219.02841   -4639.6088 
  628000    100.65317   -5062.1102   -4867.9921   -5062.1102            0    2339.7658    20.011626    19.943603    20.585622    8215.8024    2491.9843     1747.629    2779.6841    186.22521    209.90974     715.4924   -4587.6435 
  629000     109.3656   -5056.7353   -4845.8146   -5056.7353            0    2751.8847    20.051671    19.942129    20.600848    8237.7233    2380.3254    2275.2762    3600.0525   -481.69651    3.6319218    557.04341   -4515.2066 
  630000    97.100726   -5067.8036   -4880.5367   -5067.8036            0    1717.7883    19.909468    19.965619    20.815999    8274.4607    2468.5275    924.53577    1760.3016    134.34961    939.53796    697.97364   -4673.2434 
  631000    97.773391   -5068.3728   -4879.8086   -5068.3728            0    1338.6316     20.10502    19.788542    20.837535    8290.1926    1817.0877    1247.3341      951.473   -259.10924    470.77459   -179.68432   -4717.9627 
  632000    100.10305   -5043.0308   -4849.9737   -5043.0308            0    2459.6086    19.888971    19.962715    20.846776    8276.9593    3339.3126    1880.8192    2158.6939   -96.728898    619.84041   -821.48028    -4553.072 
  633000     102.6704   -5047.4854   -4849.4769   -5047.4854            0    1743.2119    19.903243    19.915186    20.825188    8254.6212    2549.6989    1532.0363    1147.9004   -364.01103   -256.68088    250.67746     -4639.62 
  634000    94.742343   -5054.9092   -4872.1906   -5054.9092            0    1509.7825    19.911625    20.014363    20.828959    8300.7255    1564.5397    816.67744    2148.1304    40.186696    510.69241   -1260.5525     -4689.42 
  635000    98.475768   -5054.8146   -4864.8958   -5054.8146            0    3094.1187    19.903648    20.005723    20.638163    8217.8458    4405.7438    2190.3514    2686.2608    302.59148    574.42384   -299.33434   -4494.0693 
  636000    100.02212   -5052.7762   -4859.8751   -5052.7762            0    1687.1954    19.939324    19.964642    20.760722    8264.4589    647.47228    2603.9507    1810.1632   -194.25528    1075.4668    505.25806   -4656.5197 
  637000    98.165497   -5061.5504     -4872.23   -5061.5504            0    1924.2905    20.042744    20.020289    20.631804    8278.7492    1781.2969    1421.4151    2570.1594     9.097388    450.59776   -235.20332   -4639.8968 
  638000    100.20977   -5061.0996   -4867.8367   -5061.0996            0    2617.6103    19.920468    20.007902    20.705192    8252.4015    1487.0744    3590.4964      2775.26   -213.85738   -324.15298   -445.27527   -4552.7999 
  639000    90.529039   -5054.9069    -4880.314   -5054.9069            0    1570.5515    19.948308    20.016641    20.665719    8251.7826    2106.9274    192.16618    2412.5609   -138.74274    755.89203    312.09706   -4691.3079 
  640000    103.83001   -5058.6918   -4858.4469   -5058.6918            0    2512.6317    19.920568    20.019191    20.619698    8223.0043    2817.9175    2345.3531    2374.6244    -130.1777    127.28801   -103.96592   -4557.1219 
  641000     99.13498   -5057.0656   -4865.8755   -5057.0656            0    2494.3422    19.974692    19.930587    20.735942    8255.1306    1948.9389    2616.5488     2917.539    19.224412    796.37821   -330.63911   -4565.5751 
  642000    99.245595   -5057.3235   -4865.9201   -5057.3235            0    2509.5811    19.997868    19.935217    20.644979     8230.365    3030.0882    1799.7739    2698.8811   -128.04292    664.97943   -1329.3883   -4564.6914 
  643000    99.212324   -5057.8783    -4866.539   -5057.8783            0    3348.8917    19.894503    19.900085    20.741499    8211.6073    2524.5638    3430.2555    4091.8558    9.7171314    80.942068   -101.04075   -4465.4828 
  644000     96.93451   -5050.9294    -4863.983   -5050.9294            0    1868.1668    19.947494    19.841137    20.823683    8241.6172    2676.4125    2178.4817    749.60611   -436.33749    475.50828    309.54853   -4639.4377 
  645000    95.493134   -5047.7391   -4863.5726   -5047.7391            0    2672.1841    19.937643    19.942138    20.731803    8242.9493    2016.2887    3304.2808    2695.9828   -271.77556    689.75207   -155.63516   -4542.3361 
  646000    95.028565   -5054.5179   -4871.2473   -5054.5179            0    2007.1103     19.90704    19.984671    20.756739    8257.7707    2515.6537    1060.5286    2445.1487   -545.98443   -45.418461     379.2913   -4629.5288 
  647000    95.955672   -5064.9408   -4879.8822   -5064.9408            0    1581.5337    19.934825    19.997593    20.832559    8304.8685    1737.5715    1380.7359    1626.2938   -516.13299      857.556    40.776659     -4688.33 
  648000    98.859305   -5064.5647   -4873.9062   -5064.5647            0    1782.7456    20.000221    19.925641    20.803738    8290.6476    1731.3565    1483.5178    2133.3625   -217.08544   -204.71695    296.76671   -4658.3534 
  649000    104.57101    -5060.143    -4858.469    -5060.143            0    1609.5776    19.919961    19.973099    20.840437    8291.6461    1318.9754    1535.1426    1974.6149   -111.44345    138.75184     149.4104   -4663.8306 
  650000    96.748703   -5053.8936   -4867.3056   -5053.8936            0    2863.9374    19.960138    19.929428    20.744096    8251.8796    2511.4731    3501.8532     2578.486   -338.22104    293.35412    211.87649   -4522.6445 
  651000    105.54091   -5053.8416    -4850.297   -5053.8416            0    2287.6513    19.785828    19.987703    20.915272    8271.4309    2510.9216    2738.8109    1613.2215    -280.3575   -91.557156   -24.831435   -4574.3369 
  652000    100.09574   -5051.8284   -4858.7853   -5051.8284            0    1369.9698    20.082278    19.823228     20.85411    8301.9286    649.86006    2761.0142    699.03502    324.73084    682.32834    -319.0303   -4692.9161 
  653000    96.034707   -5053.8613   -4868.6503   -5053.8613            0    1831.2737    19.941653    19.897943    20.837423    8268.2449    2720.7778    1501.7852    1271.2581    158.00149    594.76587   -325.96492   -4647.8282 
  654000    97.488055   -5051.0619    -4863.048   -5051.0619            0    1674.6573    20.038897    20.102659    20.565132     8284.357    1304.6855    1171.3945    2547.8918   -160.62213   -940.50274    39.816909   -4660.7179 
  655000    99.754047   -5057.8677   -4865.4837   -5057.8677            0    1770.1301    19.997834    19.900712    20.749093    8257.5399    1492.0514    1545.7798    2272.5592    262.83497   -69.834223   -394.15762   -4652.3109 
  656000    92.832746   -5052.5086   -4873.4728   -5052.5086            0    2339.4943    19.929827    19.966032    20.828262    8287.9729     1763.838    3972.8606    1281.7843   -285.76855    631.59739    187.05331   -4590.6944 
  657000    102.59753   -5058.7481   -4860.8801   -5058.7481            0    2478.7743    20.021706    19.871436    20.721521    8244.2653    2623.0169    3013.8884    1799.4176   -498.08664    424.04489    859.96245   -4562.8468 
  658000    97.336188   -5065.3133   -4877.5923   -5065.3133            0    879.40698     19.93827    20.132269    20.726697    8319.7503    1433.9321    95.258411    1109.0304    11.830198   -560.77035   -964.10324   -4770.8894 
  659000    95.729664    -5059.138   -4874.5153    -5059.138            0    2101.8221    20.021266    19.883019    20.865958    8306.3876    2421.9506    2381.1892    1502.3265    5.6302408     979.3349    632.63335   -4619.9002 
  660000    97.721845   -5053.1819   -4864.7171   -5053.1819            0    2259.1222    19.970083    19.925312     20.75515    8258.6842    2942.4531    1259.1042    2575.8091    46.366565   -560.26285   -717.40451   -4592.6184 
  661000    96.476853   -5056.5929   -4870.5292   -5056.5929            0    2861.2931    19.983665    19.922792    20.705523    8243.4984    3204.3349    2594.2667    2785.2778   -712.36655    181.60907    1032.2835   -4526.5361 
  662000    97.792103   -5049.6525   -4861.0522   -5049.6525            0    1104.6693    20.055089    20.036132    20.618277    8284.9684    603.34079    775.56193    1935.1052    209.22087    745.96003   -659.45939   -4727.5774 
  663000    99.150943   -5050.0041   -4858.7832   -5050.0041            0    2620.0323    19.876753    19.938085    20.771131    8231.6905    2951.9751    2755.1289     2152.993   -314.93059   -981.29814   -87.002822   -4544.2463 
  664000    99.786741   -5062.3091    -4869.862   -5062.3091            0    2409.4646    19.977374     20.04538    20.642389    8266.3287    2189.1272    2203.4809    2835.7856    -117.7053    137.01443   -671.22494   -4579.3868 
  665000    99.412601   -5054.9189   -4863.1933   -5054.9189            0    2479.7539    20.029421    19.946808    20.617597    8237.2042    2245.7532    2465.2527    2728.2557   -27.787884      61.4746   -69.310563   -4565.2975 
  666000    96.095181   -5042.0539   -4856.7263   -5042.0539            0    1926.8071    19.898751    19.958563    20.791244    8257.2523    1577.2402    2052.6348    2150.5462    285.39018     982.3207    -358.7937   -4624.6933 
  667000    100.35549   -5055.0774   -4861.5334   -5055.0774            0    3579.0458    19.958271    19.863492    20.734643    8220.0618    2374.8141    4665.7353    3696.5879   -211.50645    1151.6773   -255.57329   -4432.4732 
  668000    103.74166   -5049.9846   -4849.9101   -5049.9846            0    2127.8635    19.886513    20.026295    20.741737    8260.4624    2478.2518    2069.3567     1835.982   -302.16391    431.54481   -476.11656   -4593.5656 
  669000      102.486   -5046.3284   -4848.6755   -5046.3284            0    2612.0431    19.921297    19.857138    20.909253    8271.2809    1917.4286    4457.6258    1461.0751    -142.8699    373.12286    136.65243   -4533.5896 
  670000    100.64597   -5056.8808   -4862.7766   -5056.8808            0    2555.5692    19.845128    19.977132    20.805216    8248.2018    3882.8856    1532.9571    2250.8649   -332.22663    716.02636   -92.058302   -4555.3632 
  671000    102.33595   -5055.9842   -4858.6207   -5055.9842            0    2020.8185    19.884912    19.938957    20.883577    8280.0125    2818.7677    1823.9137    1419.7742    -178.6991    579.03327    670.85125   -4614.5958 
  672000    98.161228   -5060.4166   -4871.1044   -5060.4166            0     2076.891    19.884076    19.949415    20.950877    8310.7031    2892.6843    1905.7694    1432.2193      176.796      483.942    531.94205   -4619.3788 
  673000    99.802912   -5066.8047   -4874.3264   -5066.8047            0     2415.764    19.854065     20.01062    20.721114    8232.3356    2634.6579    2334.4902    2278.1438   -124.94859    905.67656    495.91698   -4584.2894 
  674000     99.82776   -5058.9557   -4866.4295   -5058.9557            0    2358.5512    19.800156    20.124091    20.654486    8229.9897     4066.321    1355.1022    1654.2303   -141.36021    -499.1908    725.15896   -4583.3421 
  675000    99.649526    -5058.792   -4866.6095    -5058.792            0    2875.6397    19.973667     19.78371    20.847377    8237.9088    3217.2013    2501.8556    2907.8621   -172.46736   -767.59019    -524.4052    -4521.126 
  676000    94.728974   -5059.4448   -4876.7521   -5059.4448            0     1809.638    19.923737    19.989274    20.728874    8255.5028    1836.3646    2137.3458    1455.2035    -386.5905    302.74357    155.68151   -4658.8752 
  677000    98.561789   -5053.4964   -4863.4117   -5053.4964            0    1363.2332    20.078769     20.00275    20.672586    8302.7431    507.44412    1194.9283    2387.3271    60.416554   -125.63107    71.071765   -4698.3419 
  678000    95.994788   -5048.4801   -4863.3461   -5048.4801            0    2531.1996    19.967243      19.9479    20.743819    8262.3579    1637.6571    3148.0746     2807.867    61.023183    1722.9225     373.9415   -4558.3416 
  679000    99.843095     -5044.75   -4852.1942     -5044.75            0    1874.6451    19.906589    19.999069    20.801735    8281.4462    2864.4495    1439.0038     1320.482    150.22691     248.9496   -452.09805   -4625.7813 
  680000    99.515361   -5048.2523   -4856.3285   -5048.2523            0    1344.0759     20.03562    19.964054    20.753192    8301.1146    1383.7162    892.67882    1755.8328    248.99961   -236.45751    345.60252   -4693.6103 
  681000    100.78686    -5060.892    -4866.516    -5060.892            0    2500.8297    20.049017    19.803144    20.867735    8285.1914    1629.5023    4467.4863    1405.5006    315.93794   -140.48001    -715.1589   -4564.3382 
  682000     97.03474    -5053.258   -4866.1184    -5053.258            0    2663.4958    19.910187    20.079854    20.728195    8287.0004    2985.7483    1573.1004    3431.6387  0.082954914   -686.27993    182.40388   -4544.2152 
  683000    96.358412   -5061.7463    -4875.911   -5061.7463            0    1898.7782     20.06615    19.872818    20.699331    8254.2915    2560.5947    1372.4532    1763.2866   -444.21235    1033.4862    1399.3611   -4647.3354 
  684000    101.80698   -5071.1985   -4874.8552   -5071.1985            0    2192.9378    19.938596    19.971965    20.701745    8243.7028    2877.3425    2197.0034    1504.4675   -159.60465    1100.5545   -1.6668597   -4611.2072 
  685000    100.15684   -5049.9778   -4856.8169   -5049.9778            0    2117.9337     19.98183    19.976242    20.775733    8292.8808    2033.1941    2442.0372    1878.5698   -115.75643   -188.73575   -413.02315   -4600.6673 
  686000    101.33319   -5050.2673   -4854.8377   -5050.2673            0     2471.317    19.940624    19.969193    20.803564     8283.941    2973.4116    2515.1291    1925.4103   -275.96109     174.0432    244.70821    -4556.271 
  687000    98.558809   -5060.2796   -4870.2006   -5060.2796            0    1544.2491    20.049817    19.789009    20.836222    8267.1046    1268.4537    2083.8047     1280.489    -234.9316    98.832354    5.7369623   -4684.0147 
  688000    99.387291   -5049.7804   -4858.1036   -5049.7804            0    2669.0803    20.008851    19.834495    20.750438    8235.1319    2494.9563    2850.0318    2662.2528   -227.93477    5.8520113    939.34319   -4537.5445 
  689000    93.885513   -5058.8971    -4877.831   -5058.8971            0     2556.364    19.964591    20.014235    20.823152    8320.4322    1722.0229    2753.0113    3194.0578    156.60208   -127.01376   -5.4909341   -4567.6291 
  690000    105.94095   -5054.7915   -4850.4755   -5054.7915            0    1320.4843    19.980266    19.820067    20.854285    8258.5096    832.79369     1975.539    1153.1202   -153.30887   -277.48275    18.622576   -4691.4339 
  691000    98.837969   -5051.0206   -4860.4033   -5051.0206            0    3083.2246    19.817432    19.982059    20.741442    8213.4677    3872.2699    3114.5031    2262.9007     104.8973    205.11412    -348.5353   -4491.0792 
  692000     102.5082   -5060.7481   -4863.0525   -5060.7481            0     1713.473    19.940327    19.935854    20.783032     8261.826    1273.4192    2655.6037    1211.3961   -173.37525    1040.8055     102.1361   -4656.5957 
  693000    102.92176   -5057.1528   -4858.6595   -5057.1528            0    3356.3039    19.844836    19.934637    20.746544     8207.325    3527.1466    3513.8717    3027.8934   -155.49185    748.66811   -45.706886   -4456.9253 
  694000    104.28805   -5054.6366   -4853.5083   -5054.6366            0    2369.4267     19.87132    19.931048    20.944454    8295.1818    3336.2818    2642.3122    1129.6862   -29.537244   -597.44629   -129.18926   -4566.8628 
  695000    99.983525   -5056.8225   -4863.9958   -5056.8225            0    1765.2431    19.928558    19.957355    20.821336    8281.0892    1838.6707    1515.1468    1941.9117   -511.74191    400.87838    10.404916   -4650.8053 
  696000    98.484348    -5056.098   -4866.1627    -5056.098            0    2285.7471    19.961712    19.844006    20.964586    8304.4988    2112.9549    3010.4239    1733.8625    265.91062   -347.82412    -283.3394   -4589.3299 
  697000    98.789183   -5054.1706   -4863.6474   -5054.1706            0    2302.9147    19.970444    19.969054    20.767186    8281.7645    2884.3304    2172.6931    1851.7204    382.43532    1187.3992    1154.8987    -4585.499 
  698000    100.24811   -5056.5903   -4863.2534   -5056.5903            0    1570.8648    19.976362     20.03815    20.631466     8258.556    933.51973    1645.2296    2133.8451   -60.871334   -686.43932    63.272929   -4674.0544 
  699000    101.23536   -5050.2255   -4854.9846   -5050.2255            0    2291.9264    19.983145    19.979955    20.653629    8246.2162    1203.7735     2689.716    2982.2898     214.1949    -13.14692   -632.02045   -4579.3515 
  700000    97.373744   -5054.0446   -4866.2511   -5054.0446            0    2210.6782    19.960438    19.993903    20.618854    8228.7182    558.09913    3031.7237    3042.2118   -143.25818   -320.98572   -487.63938   -4600.9534 
  701000    99.444208   -5057.0595    -4865.273   -5057.0595            0    1984.4058    20.030806    19.913351    20.652642    8237.9354    1544.4469    2068.0014     2340.769   -335.39725    24.159436   -691.44492   -4626.8629 
  702000     99.07451   -5052.8021   -4861.7286   -5052.8021            0    1080.9541    19.956243    19.966417    20.752664    8268.9962      1152.85    396.64364    1693.3686   -521.14559    144.07642   -193.78968   -4731.3711 
  703000    95.034178   -5057.8391   -4874.5577   -5057.8391            0    2083.8243     19.94807    19.915842    20.832808    8276.5122    1188.9141    2786.1158    2276.4429   -239.28254    340.82749    253.20871   -4623.0309 
  704000     95.86867   -5056.3245   -4871.4337   -5056.3245            0    1811.2053    19.852744    19.910301     20.83723    8236.4174    2047.9345    1830.9067    1554.7745   -130.34499    270.54228   -440.83251   -4653.8723 
  705000    95.023653   -5060.5816   -4877.3205   -5060.5816            0    3010.7214    19.965057    19.918673    20.715927    8238.2568    2717.3129    3015.7868    3299.0645   -174.73563   -81.700437    621.08293   -4515.5928 
  706000    98.326486   -5063.8277   -4874.1968   -5063.8277            0     1933.737    19.995463    20.028125    20.630852    8262.0709    2808.5285    972.81227    2019.8702   -94.863254    308.48776    264.59573   -4641.1934 
  707000    97.384882   -5053.4879    -4865.673   -5053.4879            0    2132.7011    19.830299    20.045459    20.795328    8266.2976    2970.1667    1222.8794    2205.0571   -251.25925   -559.30173     -420.202   -4608.5642 
  708000    96.388727   -5045.0831   -4859.1893   -5045.0831            0    2022.4566    19.997983     19.90914    20.703755    8243.0476    2486.2833    1976.8622    1604.2244   -414.90564    736.92633    451.79935   -4616.0569 
  709000    95.155405   -5048.3408   -4864.8256   -5048.3408            0    1859.3684    19.983443    19.941199     20.78986    8284.6305    730.23907    3029.5695    1818.2965    135.91154   -424.87325   -283.39391   -4640.1714 
  710000    101.21662   -5048.2951   -4853.0904   -5048.2951            0    2016.2371    19.962878    19.976618    20.754173    8276.5731    2088.7299    1713.8801    2246.1012   -357.28149    123.75492    677.82602   -4609.7198 
  711000     99.64983   -5056.5451    -4864.362   -5056.5451            0    2350.3972    19.964959    19.952312     20.71858    8253.1861    3796.8448     1132.063    2122.2836    -185.5403   -38.442675    745.00528   -4581.4582 
  712000    98.309679   -5052.2437   -4862.6452   -5052.2437            0    1971.9643    19.916045    19.912357    20.825003    8258.6838    2177.7535    1790.7703     1947.369   -218.78408    215.19264   -751.87809   -4625.1331 
  713000    103.29471   -5054.5102   -4855.2977   -5054.5102            0    2393.1503    19.943876    19.892097    20.858558    8275.1222    3406.5819    2085.0273    1687.8416   -626.20194    196.77655    276.42773   -4566.4823 
  714000    101.73041   -5056.9655   -4860.7699   -5056.9655            0    2292.7994    19.971509    19.729785     20.96365    8260.3822    2942.8688    3009.2961    926.23323    167.25126   -83.094674    329.18102   -4584.5582 
  715000    95.780957   -5066.2536   -4881.5319   -5066.2536            0    2560.3028    19.837697    20.080214    20.804234    8287.2668    3283.4276      2066.56     2330.921   -561.26682   -238.46643   -196.81081   -4572.0904 
  716000    97.972594   -5059.6606   -4870.7123   -5059.6606            0    2552.2294    19.921025    19.888364     20.68439    8195.0846    1659.5246     3229.302    2767.8617   -79.410254    657.82187    253.39987   -4565.6777 
  717000    93.767601    -5057.804   -4876.9653    -5057.804            0    2741.7503    19.851111     20.07878    20.633809    8224.3491    2561.6788    2881.1086    2782.4636    -409.9747   -388.86294   -775.19586   -4548.1097 
  718000    104.80937   -5057.5516   -4855.4179   -5057.5516            0    3025.9742    19.994154    19.928156    20.694452    8245.6347    1449.6278    4797.5486    2830.7462    102.97256    29.788849   -33.511613    -4491.532 
  719000    98.881942   -5053.4337   -4862.7315   -5053.4337            0    1201.9523    19.905063    20.015718    20.809122    8290.6482    1926.3992    639.55494    1039.9028    390.31819    615.18815   -215.76377   -4717.4028 
  720000    96.103732   -5060.0006   -4874.6565   -5060.0006            0    2383.3213    19.984948    19.915713    20.775342    8268.8873    2015.5808    2652.6501    2481.7329    164.51829   -721.26446   -603.46041   -4587.2441 
  721000    98.065384   -5057.5877   -4868.4604   -5057.5877            0    2183.1497    19.894925    19.894732    20.838535    8247.9795    3264.5838    1585.0883    1699.7769   -505.89617   -457.75884    584.06048    -4605.853 
  722000    97.424169   -5061.1868   -4873.2961   -5061.1868            0    2550.8044    19.895577    19.908398    20.855804    8260.7562    3241.3911    2867.9372    1543.0849   -85.572092   -47.904838   -942.78186   -4565.9888 
  723000    97.367251   -5056.5414   -4868.7605   -5056.5414            0     2131.568     20.15331     19.81947    20.739737    8284.0302   -124.67164    3415.7116     3103.664    135.42176    413.87099   -1009.5867   -4611.2371 
  724000    96.863752    -5048.377   -4861.5671    -5048.377            0    2711.1776     19.89277    19.900957    20.704364    8196.5506    2976.4601    3119.5106    2037.5621   -228.10759   -95.421648    223.45206   -4537.4776 
  725000    97.351445   -5060.5109   -4872.7604   -5060.5109            0    1918.2646    20.104326    19.917249    20.586588    8243.3404    1429.0026    1913.2032    2412.5881   -417.12462    290.67408    38.527048   -4642.1454 
  726000    97.098756   -5050.8513   -4863.5882   -5050.8513            0    2504.3896     19.98828    19.928764    20.674233    8235.4095    1511.2342    3596.5643    2405.3704    -50.48018    572.59122    1125.6069   -4562.7985 
  727000    105.95163   -5042.9407    -4838.604   -5042.9407            0    3286.4937    19.923896    19.868479    20.717625    8201.2273    3560.7034    3080.0833    3218.6943   -48.143966    -362.0311   -214.30061   -4445.5181 
  728000    98.393863   -5044.8863   -4855.1255   -5044.8863            0    2394.9366    20.005732    19.976775    20.659683    8256.6426    1018.2445    2469.0024    3697.5627    33.227364    517.44761   -257.64893     -4566.74 
  729000     102.7407   -5058.1361    -4859.992   -5058.1361            0    1990.7566    19.928351    19.892044    20.795794    8243.7778    2116.0767    2299.6981     1556.495   -236.44553   -139.72459    -391.9831   -4620.6492 
  730000    103.71443   -5050.5444   -4850.5224   -5050.5444            0      2315.08    20.027873     19.85724    20.867899    8299.1273    3131.1943    1942.4669    1871.5789     170.3158    -362.9576   -21.906028   -4570.3184 
  731000    105.04056   -5057.2336   -4854.6541   -5057.2336            0    3052.4014    19.943258    20.028471     20.63917    8243.9646    3911.9843    1696.3784    3548.8414    -263.7855    192.51188   -1.3735699   -4487.6645 
  732000    98.377279   -5053.5209    -4863.792   -5053.5209            0    1438.5599    19.977628    19.934419     20.81574    8289.7106    1235.0594    981.81222     2098.808   -74.190329   -253.19946   -125.22842   -4689.8745 
  733000    99.129614   -5058.7275   -4867.5477   -5058.7275            0    2854.7478    20.055428     19.91368    20.625812    8237.4826    3064.4641    2470.6221    3029.1572    122.84544    302.97681    208.67242   -4524.5919 
  734000    100.56858   -5051.2051   -4857.2501   -5051.2051            0    2403.3218    19.981281    19.971396     20.64708    8239.3018    2709.8377    2222.5266    2277.6011   -4.1826098    642.11071    771.40959   -4568.4628 
  735000    98.685243    -5067.428   -4877.1052    -5067.428            0     1865.808    19.924019    20.054223    20.744604     8288.729     2963.904    613.46935    2020.0506    36.841939    145.37103   -40.886891   -4651.5615 
  736000    93.849444   -5053.8037   -4872.8072   -5053.8037            0    2129.1708    19.815683    20.018063    20.810137    8254.7898    2828.7743    1806.8855    1751.8525   -5.9786551    -574.4431    303.35437   -4616.4813 
  737000    97.079457    -5051.793   -4864.5671    -5051.793            0    2444.7532     19.93813    19.904584     20.78809    8249.9653    2613.4706    2536.8043    2183.9847   -152.36006    1124.1516    107.26279    -4570.421 
  738000    95.023569   -5042.8185   -4859.5576   -5042.8185            0    2080.2627    19.905377    19.982181    20.851894       8293.9    2363.6952    1964.6458    1912.4472    175.64282    238.81091   -173.64054   -4607.9331 
  739000    99.206188   -5055.6323   -4864.3048   -5055.6323            0    2141.1771    19.905709    19.938403    20.872057    8283.8699      3291.26    2049.2636    1083.0077    216.99311    764.49463     154.4447   -4605.6255 
  740000    100.27726   -5053.7582    -4860.365   -5053.7582            0    1424.2615    19.975679    19.871896    20.856141    8278.9417    2056.5297    1782.4785    433.77629   -9.7353266   -57.475735      125.519   -4688.3999 
  741000    96.815014   -5059.8398   -4873.1239   -5059.8398            0    2501.8674    19.824824    19.990434    20.824106    8252.7358    3166.1946    2051.8919    2287.5156   -295.18696    364.75249    752.75795    -4572.005 
  742000    99.697913   -5056.8733   -4864.5975   -5056.8733            0    2051.8943     20.02701    19.893352    20.737333    8261.8436    2237.9307    2295.8942     1621.858   -63.707417    997.53004    65.993057   -4617.3637 
  743000    100.76774   -5051.0538   -4856.7147   -5051.0538            0    2243.6732    19.898197    19.870778    20.873251    8253.1301    2647.8588    2244.9253    1838.2356    48.103007   -50.676523    71.209465   -4586.6585 
  744000    95.338314   -5043.4007   -4859.5328   -5043.4007            0    1344.7844    19.996479    19.987453    20.788879    8308.8717    1055.6985    1609.7928     1368.862   -107.19198   -346.27468   -749.49409   -4696.5767 
  745000    107.13365   -5053.4624   -4846.8461   -5053.4624            0    2928.9912    19.980784    20.016522    20.653496    8260.2788    2108.7892    3067.0765     3611.108    117.89135    503.52017    469.05286   -4493.9973 
  746000    101.30951   -5054.5576   -4859.1737   -5054.5576            0    1767.9633    19.972387    20.000709    20.739376    8284.5905    1037.0256    2450.3466    1816.5175   -417.93188   -435.74837    642.29854   -4645.5644 
  747000    98.188965   -5052.2756     -4862.91   -5052.2756            0    3206.9957    19.954656    19.822302     20.70904    8191.4033    3693.2013    3062.1884    2865.5973    35.906734   -113.11797    1697.7494   -4479.7919 
  748000    100.77198   -5049.7144   -4855.3672   -5049.7144            0     2579.757    19.872649    19.975972    20.744756    8235.1596    3008.9725    2867.4585    1862.8401   -130.66302    158.11151   -129.90341   -4545.5349 
  749000    95.317781   -5055.3223   -4871.4939   -5055.3223            0    2246.9307    19.988635     19.89397     20.76842    8258.6308    1478.7957    3724.9155     1537.081    416.38593     -316.849    306.59494   -4600.8653 
  750000    102.25246   -5044.6143   -4847.4118   -5044.6143            0    3494.3176    19.994317    19.941383     20.56908    8201.1873    3011.9929    3019.4665    4451.4935   -62.071828    248.42036    84.233268   -4429.4708 
Loop time of 413.502 on 64 procs for 250000 steps with 972 atoms

Performance: 104.474 ns/day, 0.230 hours/ns, 604.593 timesteps/s
194.7% CPU use with 32 MPI tasks x 2 OpenMP threads

MPI task timing breakdown:
Section |  min time  |  avg time  |  max time  |%varavg| %total
---------------------------------------------------------------
Pair    | 25.187     | 35.617     | 46.532     |  82.4 |  8.61
Bond    | 0.77158    | 1.1018     | 1.822      |  21.0 |  0.27
Kspace  | 181.8      | 195.53     | 205.91     |  44.2 | 47.29
Neigh   | 0.54244    | 0.60673    | 0.69159    |   5.5 |  0.15
Comm    | 70.172     | 78.641     | 86.156     |  41.1 | 19.02
Output  | 0.65983    | 0.66116    | 0.66263    |   0.0 |  0.16
Modify  | 79.332     | 82.371     | 87.02      |  21.1 | 19.92
Other   |            | 18.97      |            |       |  4.59

Nlocal:        30.3750 ave          37 max          24 min
Histogram: 2 0 4 8 2 3 9 2 0 2
Nghost:        2650.19 ave        2692 max        2612 min
Histogram: 3 2 2 3 6 6 5 2 0 3
Neighs:        9606.66 ave       13455 max        7044 min
Histogram: 3 3 3 7 7 6 2 0 0 1

Total # of neighbors = 307413
Ave neighs/atom = 316.26852
Ave special neighs/atom = 2.0000000
Neighbor list builds = 1617
Dangerous builds = 0

unfix		3
unfix		2
unfix		1

write_data	data.final.${pid}
write_data	data.final.1
System init for write_data ...
PPPM initialization ...
  extracting TIP4P info from pair style
  using 12-bit tables for long-range coulomb (../kspace.cpp:340)
  G vector (1/distance) = 0.37162148
  grid = 24 24 24
  stencil order = 5
  estimated absolute RMS force accuracy = 0.0035799593
  estimated relative force accuracy = 1.0780941e-05
  using double precision FFTW3
  3d grid and FFT values/proc = 3211 432
Last active /omp style is kspace_style pppm/tip4p/omp
WARNING: Not all mixed pair coeffs generated from mixing. Use write_data with 'pair ij' option to store all pair coeffs. (../write_data.cpp:312)

write_restart   restart.lmp.${pid}
write_restart   restart.lmp.1
System init for write_restart ...
PPPM initialization ...
  extracting TIP4P info from pair style
  using 12-bit tables for long-range coulomb (../kspace.cpp:340)
  G vector (1/distance) = 0.37162148
  grid = 24 24 24
  stencil order = 5
  estimated absolute RMS force accuracy = 0.0035799593
  estimated relative force accuracy = 1.0780941e-05
  using double precision FFTW3
  3d grid and FFT values/proc = 3211 432
Last active /omp style is kspace_style pppm/tip4p/omp
Total wall time: 0:06:53
