LAMMPS (30 Jul 2021)
  using 1 OpenMP thread(s) per MPI task
package omp 0
using multi-threaded neighbor list subroutines
echo both

include		in.partitions
variable        pid world 0
include		in.temp
variable        temperature equal 249.17
variable	tempDamp equal 100.0
include		in.pressure
variable        pressure equal 5125.0
variable        pressureDamp equal 1000.0 # This is 1 ps
include		in.seed
variable        seed world 745823

units		real
atom_style	full
read_restart	restart.lmp.${pid}
read_restart	restart.lmp.0
Reading restart file ...
  restart file = 30 Jul 2021, LAMMPS = 30 Jul 2021
  restoring atom style full from restart
  orthogonal box = (0.48925963 1.6678145 0.59689560) to (17.718313 21.961363 21.616300)
  4 by 4 by 4 MPI processor grid
  restoring pair style lj/cut/tip4p/long/omp from restart
  restoring bond style harmonic/omp from restart
  restoring angle style harmonic/omp from restart
  864 atoms
  576 bonds
  288 angles
Finding 1-2 1-3 1-4 neighbors ...
  special bond factors lj:    0        0        0       
  special bond factors coul:  0        0        0       
     2 = max # of 1-2 neighbors
     1 = max # of 1-3 neighbors
     1 = max # of 1-4 neighbors
     2 = max # of special neighbors
  special bonds CPU = 0.183 seconds
  read_restart CPU = 0.355 seconds
include 	in.setup
variable	out_freq equal 1000
variable	out_freq2 equal 10000
variable	out_freq3 equal 1000

timestep	2.0

neigh_modify    delay 7 every 1

include		in.tip4p
# This is TIP4P/Ice

# create groups ###
group ox type 2
288 atoms in group ox
group hy type 1
576 atoms in group hy

# set charges - beside manually ###
set group ox charge -1.1794
Setting atom values ...
  288 settings made for charge
set group hy charge 0.5897
Setting atom values ...
  576 settings made for charge

# ### TIP3P Potential Parameters ###
pair_style lj/cut/tip4p/long/omp 2 1 1 1 0.1577 8.5
pair_coeff 1 1*2 0.000 0.000
pair_coeff 2 2 0.21084 3.1668
bond_style  harmonic
bond_coeff  1 450 0.9572
angle_style harmonic
angle_coeff 1 55 104.52
kspace_style pppm/tip4p/omp 1.0e-5
pair_modify tail yes

thermo          ${out_freq}
thermo          1000
thermo_style    custom step temp pe etotal epair emol press lx ly lz vol pxx pyy pzz pxy pxz pyz enthalpy

restart 	${out_freq3} restart.lmp.${pid} restart2.lmp.${pid}
restart 	1000 restart.lmp.${pid} restart2.lmp.${pid}
restart 	1000 restart.lmp.0 restart2.lmp.${pid}
restart 	1000 restart.lmp.0 restart2.lmp.0


include         in.dump
dump            myDump all atom ${out_freq2} dump.water.${pid}
dump            myDump all atom 10000 dump.water.${pid}
dump            myDump all atom 10000 dump.water.0
dump            myDump2 all dcd ${out_freq2} dump.dcd
dump            myDump2 all dcd 10000 dump.dcd
dump_modify     myDump append yes
dump_modify     myDump2 append yes


variable natoms 	equal  "count(all)"                        # NUMBER ATOMS
variable H      	equal  "enthalpy/v_natoms"                 # ENTHALPY-per-atom
variable Vol      	equal  "vol/v_natoms"                 # volume-per-atom
fix AVG all 		ave/time ${out_freq} 1 ${out_freq} v_Vol v_H file vol_enthalpy.dat
fix AVG all 		ave/time 1000 1 ${out_freq} v_Vol v_H file vol_enthalpy.dat
fix AVG all 		ave/time 1000 1 1000 v_Vol v_H file vol_enthalpy.dat


timer           timeout 23:50:00 every 1000
New timer settings: style=normal  mode=nosync  timeout=23:50:00

fix 		1 all shake 1e-6 200 0 b 1 a 1
       0 = # of size 2 clusters
       0 = # of size 3 clusters
       0 = # of size 4 clusters
     288 = # of frozen angles
  find clusters CPU = 0.003 seconds
fix             2 all nph iso ${pressure} ${pressure} ${pressureDamp}
fix             2 all nph iso 5125 ${pressure} ${pressureDamp}
fix             2 all nph iso 5125 5125 ${pressureDamp}
fix             2 all nph iso 5125 5125 1000
fix             3 all temp/csvr ${temperature} ${temperature} ${tempDamp} ${seed}
fix             3 all temp/csvr 249.17 ${temperature} ${tempDamp} ${seed}
fix             3 all temp/csvr 249.17 249.17 ${tempDamp} ${seed}
fix             3 all temp/csvr 249.17 249.17 100 ${seed}
fix             3 all temp/csvr 249.17 249.17 100 745823

run             250000
PPPM initialization ...
  extracting TIP4P info from pair style
  using 12-bit tables for long-range coulomb (../kspace.cpp:340)
  G vector (1/distance) = 0.37459739
  grid = 24 24 25
  stencil order = 5
  estimated absolute RMS force accuracy = 0.0030348511
  estimated relative force accuracy = 9.1393641e-06
  using double precision FFTW3
  3d grid and FFT values/proc = 2730 288
Last active /omp style is kspace_style pppm/tip4p/omp
Neighbor list info ...
  update every 1 steps, delay 7 steps, check yes
  max neighbors/atom: 2000, page size: 100000
  master list distance cutoff = 10.8154
  ghost atom cutoff = 10.8154
  binsize = 5.4077, bins = 4 4 4
  1 neighbor lists, perpetual/occasional/extra = 1 0 0
  (1) pair lj/cut/tip4p/long/omp, perpetual
      attributes: half, newton on, omp
      pair build: half/bin/newton/omp
      stencil: half/bin/3d
      bin: standard
Per MPI rank memory allocation (min/avg/max) = 9.240 | 9.244 | 9.251 Mbytes
Step Temp PotEng TotEng E_pair E_mol Press Lx Ly Lz Volume Pxx Pyy Pzz Pxy Pxz Pyz Enthalpy 
 4500000    258.19396   -3929.0845   -3486.5489   -3929.0845            0    5252.1445    17.229053    20.293549    21.019405    7349.1958    7001.2475    5026.1546    3729.0314    1366.2966    1456.7634    2175.6945   -2923.6215 
 4501000    254.19744   -3957.5889   -3521.9031   -3957.5889            0    3866.1653    17.283913    20.358166    21.086333    7419.6219    4265.2398    3786.7346    3546.5215    859.92828   -452.80912     29.45832   -3103.5548 
 4502000    247.57352   -3918.7772   -3494.4447   -3918.7772            0     6992.014    17.219711    20.282544    21.008007    7337.2468    9166.1732    5159.1038    6650.7652    2337.8517   -846.61807   -384.35227   -2746.2557 
 4503000    261.20429   -3962.9701   -3515.2748   -3962.9701            0    5179.4056    17.302577     20.38015    21.109103    7443.6845    4251.8316    5776.3043    5510.0811    -475.3697    883.16928   -1828.3544   -2953.0063 
 4504000    233.73168   -3942.4593   -3541.8512   -3942.4593            0    5619.5369    17.227896    20.292186    21.017993    7347.7152    4875.2786    4238.7814    7744.5507   -767.75158    -118.3826   -784.39062   -2939.6679 
 4505000    246.09369   -3908.2948   -3486.4987   -3908.2948            0    6225.4412    17.291799    20.367455    21.095954    7429.7829    5452.8642    7578.4219    5645.0375   -1614.5441    1533.5917    203.67296   -2811.9362 
 4506000    261.57758    -3935.604    -3487.269    -3935.604            0     5431.516     17.21416    20.276007    21.001235    7330.1538    5214.6189    4791.9786    6287.9505    297.51564    8.0670484   -1738.0206   -2906.6249 
 4507000    248.29997   -3912.4611   -3486.8835   -3912.4611            0    5804.6826    17.171851    20.226172    20.949618    7276.2382    6503.9416    4807.4903    6102.6158    856.09797    692.46675    824.06644   -2870.9111 
 4508000    257.68033   -3923.4502   -3481.7949   -3923.4502            0    4459.1154    17.255967     20.32525     21.05224    7383.6909    5701.8192    3147.0849     4528.442   -414.52013    332.80979   -1258.3078   -3001.6215 
 4509000    266.66285   -3929.9095   -3472.8585   -3929.9095            0    5538.0062    17.330094    20.412562    21.142675    7479.2555    6187.5852    4029.8236    6396.6098    145.05186   -505.55642   -387.35489   -2868.7879 
 4510000     260.9006   -3952.6359   -3505.4612   -3952.6359            0    2042.5142    17.319833    20.400476    21.130156     7465.978    3179.2084    2154.7109     793.6232    516.79565   -707.67814    887.18473   -3283.0649 
 4511000    247.90855   -3910.4371   -3485.5303   -3910.4371            0    6745.1685    17.212765    20.274364    20.999534    7328.3725    6823.3316    6011.1261    7401.0478    1266.4414   -77.521706   -771.33093   -2764.6283 
 4512000    253.49152   -3871.7316   -3437.2558   -3871.7316            0    4232.3562    17.286451    20.361156     21.08943    7422.8919     3603.619    3880.6698    5212.7797    610.17062   -245.40619    1922.0863   -2979.0809 
 4513000    258.25252     -3897.04    -3454.404     -3897.04            0     5055.701    17.242598    20.309502    21.035929    7366.5421    5901.9905     5375.117    3889.9954   -820.97146     411.4361    144.75831   -2911.2525 
 4514000    235.29248   -3893.2818   -3489.9985   -3893.2818            0    3797.0527      17.1833    20.239658    20.963586    7290.8019    3038.6933    2602.0831    5750.3817    -859.2964   -944.12177    1001.0314   -3086.2622 
 4515000    249.72747   -3884.3619   -3456.3376   -3884.3619            0    5888.4401    17.175995    20.231053    20.954673     7281.507    6079.5999    6776.4691    4809.2511    1175.1629   -1257.4249   -654.86589   -2831.0246 
 4516000     259.9522   -3907.8911   -3462.3419   -3907.8911            0    6367.1713    17.212195    20.273692    20.998838    7327.6443    5905.6944    4815.6573    8380.1623   -286.70413     414.6197    416.46796   -2781.9067 
 4517000    251.00615   -3903.1734   -3472.9574   -3903.1734            0    7940.9148    17.161698    20.214213    20.937232    7263.3397    9121.8627    7209.4312    7491.4507    1092.5952   -820.65909    2503.3846   -2631.7893 
 4518000    238.83367   -3936.7696   -3527.4168   -3936.7696            0    5366.6014    17.183594    20.240005    20.963945    7291.1769    4914.6607    4158.8779    7026.2654    606.07327   -130.02254   -1740.9752   -2956.7628 
 4519000    248.72704    -3902.987   -3476.6774    -3902.987            0    6128.2233     17.15625    20.207796    20.930585    7256.4243    4702.4561    7665.5533    6016.6604    367.71398    275.81479    1968.4573   -2828.1428 
 4520000    246.31995   -3936.7909   -3514.6069   -3936.7909            0    4553.8633    17.189828    20.247346     20.97155    7299.1143    3252.6787     6518.425    3890.4861    400.99124   -641.46428    556.57892   -3029.8478 
 4521000    245.87947   -3935.7744   -3514.3454   -3935.7744            0    4940.3405    17.216828    20.279149     21.00449    7333.5628    3755.2189    5664.0906     5401.712   -544.62756    834.89601   -445.91686   -2985.9637 
 4522000    249.17726   -3899.9531   -3472.8718   -3899.9531            0    7026.1634    17.129526    20.176319    20.897981    7222.5675    6653.5716    7027.8837    7397.0348   -273.29947    964.71892   -439.85753   -2732.7797 
 4523000    254.67136   -3977.1295   -3540.6315   -3977.1295            0    5122.2783    17.236265    20.302043    21.028203    7358.4283    4287.3562    5220.0842    5859.3946   -1377.0497   -914.00896    517.10926   -2990.9335 
 4524000    260.68406   -3908.5273   -3461.7238   -3908.5273            0    4690.9303    17.274602    20.347199    21.074974    7407.6374    3779.1692    5306.8193    4986.8022   -734.98132    157.62256   -351.07293   -2954.9495 
 4525000    238.80878   -3908.2261   -3498.9161   -3908.2261            0    4464.4198    17.287412    20.362288    21.090602    7424.1297     4863.357    5120.3517    3409.5508   -127.74096     84.21691    144.81255   -3015.5385 
 4526000     262.8684   -3911.1435   -3460.5961   -3911.1435            0    4006.6097    17.300917    20.378195    21.107078    7441.5425    3525.7661    4769.3341    3724.7288    702.47775   -1566.0421   -342.85397   -3025.7697 
 4527000    248.76638   -3916.5691    -3490.192   -3916.5691            0     4661.477    17.267441    20.338765    21.066238    7398.4296     2321.582    5000.2701    6662.5787   -1299.2121    1936.7544   -425.37156   -2987.2256 
 4528000    249.23539    -3930.465   -3503.2841    -3930.465            0    4108.6871    17.261092    20.331287    21.058492    7390.2717    4458.1551    3607.8548    4260.0515   -67.808767   -295.42102    1172.2611   -3060.4517 
 4529000    238.25862   -3938.7563   -3530.3892   -3938.7563            0    4464.6196    17.266832    20.338048    21.065495    7397.6472    4012.6847    4721.7227    4659.4513     729.7433   -458.28086   -664.65335   -3048.7144 
 4530000    249.37689   -3911.8097   -3484.3862   -3911.8097            0    3079.8796    17.309758    20.388609    21.117865    7452.9567    3071.6885    521.91928    5646.0309    192.02979    -413.9094    1518.4566   -3149.6226 
 4531000    254.22533   -3895.1796    -3459.446   -3895.1796            0    5690.5615    17.276557    20.349502    21.077359    7410.1534     3925.677    6099.5973    7046.4103   -938.48128   -2.2032259    120.28067     -2844.47 
 4532000    247.87804   -3901.3076   -3476.4531   -3901.3076            0    5507.1057    17.196163    20.254808    20.979278    7307.1869    3087.6449    6518.5782     6915.094    1345.9122   -646.32041    492.83368   -2889.5728 
 4533000    259.28212   -3926.9991   -3482.5985   -3926.9991            0    4525.7449    17.221457    20.284601    21.010137    7339.4794    5331.0296    3924.3011    4321.9042    361.86844    473.14937   -615.45062   -2998.1683 
 4534000    244.77303   -3934.6989   -3515.1663   -3934.6989            0    5496.3054    17.194009    20.252271     20.97665    7304.4415    6292.0295    6284.6786     3912.208    474.42982    112.80344    1242.8131    -2929.657 
 4535000    233.87638   -3917.3188   -3516.4627   -3917.3188            0    5784.1422    17.184087    20.240584    20.964546    7291.8035    5961.9557    6360.5222    5029.9487   -1237.6368   -708.30265   -330.56772   -2901.3569 
 4536000    256.70289     -3943.68      -3503.7     -3943.68            0    6430.4007    17.092163     20.13231    20.852399    7175.4092    8207.9631    6167.3962    4915.8427    1104.8896   -130.56497   -357.73342   -2830.7844 
 4537000    262.48573   -3934.8054   -3484.9138   -3934.8054            0    4490.5116    17.229874    20.294516    21.020406    7350.2465    4752.9991    4280.7052    4437.8304    715.48401    157.92684    24.971477   -3003.5498 
 4538000    247.89885   -3913.3007   -3488.4106   -3913.3007            0    5307.9968    17.236537    20.302364    21.028535    7358.7769    6362.3164    3557.0827    6004.5914    116.00482    709.82736    532.49788   -2918.7552 
 4539000    241.97004    -3911.953   -3497.2247    -3911.953            0    3167.6041     17.23144     20.29636    21.022317    7352.2508    2823.5656    4028.5942    2650.6525     433.7048   -529.08783   -1001.6291   -3157.5782 
 4540000    249.12135   -3907.7156   -3480.7301   -3907.7156            0    4426.2326    17.193449    20.251612    20.975968    7303.7284    3911.1265    4481.6504    4885.9209     764.7306    612.25123   -928.50025   -3009.2594 
 4541000    261.55845   -3958.6679   -3510.3657   -3958.6679            0    4693.6831    17.265886    20.336933     21.06434    7396.4306    4255.5269    4715.4549    5110.0676   -1476.6543    12.795178   -824.00401   -3004.0611 
 4542000    255.10486   -3933.1089   -3495.8679   -3933.1089            0    2933.9526    17.292682    20.368495    21.097032    7430.9211    3591.2941    3656.2431    1554.3207    1154.7197   -36.490793    -1215.743   -3177.9085 
 4543000    258.98491   -3913.9126   -3470.0213   -3913.9126            0    4338.7651    17.257092    20.326575    21.053612    7385.1347    1809.2899    5987.9995    5219.0059    219.90038    449.10544    799.16317   -3002.7163 
 4544000    254.26188   -3919.6685   -3483.8723   -3919.6685            0    7137.2019    17.203222    20.263124    20.987891    7316.1905     8199.584    6853.8309    6358.1909   -1268.4391    282.10179   -728.06141   -2722.3391 
 4545000    238.51898   -3925.8113   -3516.9979   -3925.8113            0    5598.8681    17.183452    20.239836    20.963771    7290.9952     7677.111    4235.8712     4883.622    31.656386    560.29988   -1307.0257   -2921.6608 
 4546000    250.32849   -3899.1279   -3470.0734   -3899.1279            0    3632.9458    17.310404    20.389369    21.118652    7453.7907    4897.0113    1474.7753    4527.0508    379.20792    1162.3167    537.53059   -3075.1508 
 4547000    249.73724   -3914.4457   -3486.4046   -3914.4457            0    3351.6833    17.340618    20.424957    21.155513    7492.8887    2953.6733    6152.7563    948.62024   -418.55328    1029.9209    592.15725   -3120.1458 
 4548000    251.66524   -3911.7911   -3480.4455   -3911.7911            0    5172.9682    17.324744     20.40626    21.136147    7472.3299    6480.2869    3897.7934    5140.8243    81.184388    467.59454    822.48194   -2916.7148 
 4549000    252.71626   -3896.1296   -3462.9826   -3896.1296            0    5191.3245    17.295867    20.372247    21.100917    7435.0279    4314.6229    7551.1053    3708.2454   -1677.0973    43.455468   -1398.9966   -2900.0756 
 4550000    247.69661   -3889.6485    -3465.105   -3889.6485            0    6879.8711    17.241069    20.307701    21.034063    7364.5824    7250.3955    7962.2501    5426.9678   -1097.9629    1520.9404   -960.11033   -2726.1733 
 4551000    253.87086   -3877.2547   -3442.1287   -3877.2547            0    3117.3526    17.286603    20.361336    21.089616    7423.0879    2374.9175    2011.8555    4965.2847   -731.89468    409.41165   -70.891054     -3104.65 
 4552000    243.78785   -3899.7908   -3481.9467   -3899.7908            0    5304.6399    17.196678    20.255415    20.979906    7307.8434    3278.9774    5781.3415    6853.6006    894.52106    114.07965   -172.66222    -2916.592 
 4553000    238.37763   -3909.6847   -3501.1136   -3909.6847            0    4917.3735    17.229064    20.293562    21.019418    7349.2102    4275.7768    5766.7381    4709.6056    -1193.151    200.39148    1676.1012   -2974.0661 
 4554000    261.42091   -3921.8918   -3473.8253   -3921.8918            0    5408.4631    17.192419    20.250399    20.974711    7302.4155    7048.8346    5255.9833    3920.5713    674.90254    603.86389   -2144.9366   -2897.8335 
 4555000     240.2653   -3909.4139   -3497.6074   -3909.4139            0    4650.9031    17.324014      20.4054    21.135257    7471.3859    3940.0381    4614.3909    5398.2803    1073.1983   -364.69044   -371.01799   -2990.8334 
 4556000    258.70003   -3899.7066   -3456.3036   -3899.7066            0    6071.7105    17.169512    20.223417    20.946764     7273.265     5509.054    5567.3241    7138.7535    816.64161   -183.06979    1075.6354   -2812.2584 
 4557000    263.25628   -3947.5593    -3496.347   -3947.5593            0    5126.3115    17.177022    20.232263    20.955927    7282.8139    7120.1513    5103.4296    3155.3537    -287.1566   -1654.7338   -612.73174   -2951.8693 
 4558000    248.85163   -3920.7491   -3494.2259   -3920.7491            0    4628.8508    17.201128    20.260657    20.985336    7313.5191    6369.0791    4055.4514    3462.0219   -696.52506   -304.40717   -88.945959   -3000.5119 
 4559000    251.20727   -3911.5911   -3481.0305   -3911.5911            0    6376.7255    17.277028    20.350057    21.077934    7410.7589    7419.6437    5873.8169    5836.7159   -1245.6743   -252.47054    678.83249   -2791.8447 
 4560000    245.41895   -3937.1082   -3516.4685   -3937.1082            0    4841.6536    17.226514    20.290558    21.016307    7345.9474    3354.3662    4336.7925    6833.8021    1693.9884   -1012.2268    241.33426   -2997.7671 
 4561000     241.1445   -3892.2875   -3478.9741   -3892.2875            0    5538.8904    17.257099    20.326583     21.05362    7385.1435    4105.1874    5458.6052    7052.8785     149.1841    655.04914    2821.5559   -2882.4093 
 4562000    240.15753   -3885.5032   -3473.8815   -3885.5032            0    3650.2942    17.288316    20.363352    21.091705    7425.2937    4556.1403     2516.171    3878.5713    701.33335    1485.1984    832.55171     -3078.59 
 4563000     256.2694   -3889.1036   -3449.8667   -3889.1036            0     6150.062    17.266452      20.3376    21.065031    7397.1582    4830.0433    7284.0867    6336.0559   -153.14588    436.43112   -785.89648   -2786.3982 
 4564000    236.34786    -3901.638   -3496.5459    -3901.638            0    4149.6384    17.266017    20.337087      21.0645     7396.599    4422.7541    3262.9268    4763.2342   -305.70101     749.4633   -411.48788   -3048.9169 
 4565000    241.76208   -3925.9955   -3511.6236   -3925.9955            0     5367.264    17.180018    20.235792    20.959582    7286.6252    5408.2657     5638.156    5055.3703    190.44917     -814.729    521.43778   -2941.2554 
 4566000    265.23538   -3922.9886   -3468.3842   -3922.9886            0    4004.9382    17.291469    20.367067    21.095552     7429.358    2275.4639    4514.6564    5224.6943    324.19738     853.8076   -951.23462   -3034.4509 
 4567000    235.86522   -3933.8857   -3529.6208   -3933.8857            0    3257.2971    17.320236     20.40095    21.130647    7466.4985    2826.9273     2861.425    4083.5392   -1106.3314   -510.15983    1378.3267   -3174.9298 
 4568000    244.49909   -3908.1182   -3489.0551   -3908.1182            0    5562.9365    17.215448    20.277524    21.002806    7331.7992    4218.7584    5866.8025    6603.2486    377.74564    1485.2593   -552.28627   -2894.2283 
 4569000    240.62161   -3930.3574   -3517.9402   -3930.3574            0    7306.3382    17.157327    20.209065    20.931899    7257.7917    7180.4283    8626.2574    6112.3291    1348.6906    152.13178    2366.6517   -2744.5829 
 4570000    251.86086   -3909.4963   -3477.8154   -3909.4963            0    7361.6854    17.214278    20.276146    21.001379    7330.3047    8877.7374    6644.8522    6562.4665   -632.37247   -392.31641    -213.5643   -2690.8146 
 4571000    249.10414   -3906.3446   -3479.3886   -3906.3446            0    3885.8189    17.305623    20.383738    21.112819     7447.616    4634.6296    3611.7501    3411.0769    -1033.405    409.37279    404.76685   -3057.3271 
 4572000     267.1779   -3871.8801   -3413.9463   -3871.8801            0     4115.315    17.296218     20.37266    21.101345    7435.4802    2959.9273    5120.2981    4265.7195   -1406.8738   -753.18917    888.85533   -2967.6862 
 4573000    236.16614   -3915.5212   -3510.7405   -3915.5212            0    5981.7956    17.155263    20.206634    20.929381    7255.1725    5387.8094    5738.1271    6819.4505   -220.83975    1216.2071    468.28035   -2877.8112 
 4574000    260.84705   -3939.3438   -3492.2609   -3939.3438            0    4266.3937    17.208644     20.26951    20.994506    7323.1101    2607.6994       4713.8    5477.6817   -185.98291    1295.2482   -551.85373   -3036.6098 
 4575000    255.55343   -3899.3787   -3461.3688   -3899.3787            0     4861.689    17.156663    20.208283    20.931089    7256.9492    6313.7277    4644.4704    3626.8688   -362.58787    649.46767   -170.80107   -2946.8312 
 4576000    240.48957   -3899.4856   -3487.2947   -3899.4856            0    3860.8805    17.301375    20.378735    21.107638    7442.1339    3681.3408    3494.2853    4407.0154    270.83133    90.518799    719.15764   -3068.2506 
 4577000    251.79504   -3928.1468   -3496.5788   -3928.1468            0      5542.59    17.193854    20.252089    20.976462    7304.2448    6358.9425    5231.8071    5037.0204   -409.05822   -452.32858   -131.66732   -2906.1548 
 4578000    251.53839   -3870.6848   -3439.5566   -3870.6848            0    4394.2508    17.316923    20.397048    21.126606    7462.2154    5255.5495    4931.1549    2996.0479   -483.71203    261.66489   -190.11188   -2961.3357 
 4579000    255.78616   -3927.8769   -3489.4682   -3927.8769            0    5956.0006    17.259124    20.328968    21.056091     7387.744     4691.272    5259.6032    7917.1265     630.2066    558.97782    565.64278   -2847.7528 
 4580000    252.07574   -3890.4326   -3458.3834   -3890.4326            0     5276.713    17.367849    20.457033    21.188736    7528.2447    4939.1323    6910.7352    3980.2716     1164.767    1967.9433    268.30014    -2879.044 
 4581000    252.05698   -3920.9792   -3488.9621   -3920.9792            0     4941.964    17.308451    20.387069     21.11627    7451.2686    4248.0157    4830.8613    5747.0151    1280.2101    332.39085    60.073195   -2951.9233 
 4582000    256.26718   -3969.6731   -3530.4399   -3969.6731            0    4756.5016    17.462933    20.569028    21.304737    7652.5666    4055.4317    4532.9567    5681.1163    981.13042   -200.46685     377.3638   -2999.5913 
 4583000     228.9283   -3920.8509   -3528.4757   -3920.8509            0    4285.0315    17.430621    20.530969    21.265317    7610.1666    2737.3714    2902.5235    7215.1997    350.32271     1399.442   -2042.6132   -3052.8951 
 4584000    259.66118   -3873.4443    -3428.394   -3873.4443            0      3786.99    17.363366    20.451752    21.183266    7522.4165    2656.1052    4083.2563    4621.6085   -2777.8484   -890.40404   -109.68368   -3012.9357 
 4585000    261.41415   -3925.3493   -3477.2944   -3925.3493            0    6147.5186    17.343563    20.428427    21.159107    7496.7079    5243.3195    8235.2299    4964.0063    415.19937   -1516.0055    1362.8879   -2805.1752 
 4586000    245.49294   -3878.5292   -3457.7627   -3878.5292            0    6506.7677    17.258696    20.328465    21.055569    7387.1947    5715.8284    8248.1999    5556.2746   -64.048443   -558.07733   -227.36888   -2756.7584 
 4587000    241.04474   -3897.1606   -3484.0182   -3897.1606            0    5010.2718    17.327107    20.409043     21.13903    7475.3881    4767.6717     3942.664    6320.4799   -824.37272   -965.30934   -1054.9888    -2937.794 
 4588000    262.94823   -3902.0063   -3451.3221   -3902.0063            0    5967.6929    17.238097    20.304201    21.030438    7360.7747    5602.1944     6017.581    6283.3034    131.48301    -89.26514   -1472.4249   -2810.6941 
 4589000    238.18601    -3941.839   -3533.5963    -3941.839            0    5543.2209    17.288935    20.364082     21.09246    7426.0918    4403.4066     5027.079     7199.177    -1165.952   -867.11997    221.47432   -2933.2548 
 4590000    250.32519   -3920.5425   -3491.4937   -3920.5425            0    4733.0948    17.316484    20.396531     21.12607    7461.6478    3582.4442     6445.531    4171.3092   -1530.3655   -242.99949    362.27751   -2976.4361 
 4591000    243.69996   -3931.7953   -3514.1019   -3931.7953            0     6314.703    17.223005    20.286425    21.012026    7341.4591    6320.3166    6429.0271    6194.7653    241.53473    616.77968    871.07616   -2838.0015 
 4592000     266.3007   -3925.4394   -3469.0091   -3925.4394            0    7065.9834    17.137409    20.185605    20.907599    7232.5443    7740.5901    5754.7782     7702.582   -106.16085   -110.75622    498.65136   -2723.6945 
 4593000    239.57037   -3946.5898   -3535.9744   -3946.5898            0    5617.5482    17.248079    20.315959    21.042616      7373.57    5194.6966    4527.6004    7130.3477    1543.9889    517.92372   -413.36641    -2931.886 
 4594000    240.49909   -3931.6241   -3519.4169   -3931.6241            0    4063.9369    17.341837    20.426394    21.157001    7494.4698    2942.1321     5598.985    3650.6937    490.97691   -13.066461   -475.18088    -3075.232 
 4595000    236.25618   -3924.0147   -3519.0797   -3924.0147            0    5414.8971    17.261016    20.331196    21.058399    7390.1734    5050.2777    5374.9933    5819.4203    1752.3712   -770.77427    660.39657   -2935.4724 
 4596000    256.61646   -3914.8588    -3475.027   -3914.8588            0    5144.6597    17.302441     20.37999    21.108938    7443.5094    6350.6192    4448.6339     4634.726   -572.69428    32.204325   -16.699889   -2916.5435 
 4597000    243.24731   -3916.6549   -3499.7374   -3916.6549            0    4122.9294    17.294899    20.371107    21.099737    7433.7801    5281.0894    5214.0536     1873.645     898.8944   -1014.5984   -106.92045   -3052.7539 
 4598000    241.52171   -3930.8154   -3516.8555   -3930.8154            0    5281.8621    17.202837     20.26267    20.987422    7315.6994    3789.7917    4919.9612    7135.8333    73.801425    624.09874   -7.4775576   -2953.3232 
 4599000     256.7594   -3926.3325   -3486.2557   -3926.3325            0    6414.2829    17.194482    20.252829    20.977228    7305.0452     6947.438     7416.351    4879.0598   -1563.2729    61.447384    1561.6793   -2802.8999 
 4600000    245.69786   -3930.0771   -3508.9593   -3930.0771            0     5043.956    17.264953    20.335834    21.063202    7395.2316    3817.3448     6401.004    4913.5193    733.09744    412.66832    759.18016   -2964.9593 
 4601000    245.65883   -3947.3794   -3526.3285   -3947.3794            0    4513.2354    17.259545    20.329464    21.056604    7388.2845    3565.2933    4350.8431    5623.5697     428.5874    -741.7738   -559.91471   -3040.0249 
 4602000    264.86436   -3911.8452   -3457.8767   -3911.8452            0    5537.1959    17.235081    20.300649    21.026759    7356.9123    6029.8331    6750.7779    3830.9768   -763.35039   -66.508872    9.3662838   -2863.7743 
 4603000     245.4665   -3902.4174   -3481.6962   -3902.4174            0    4423.7011    17.254832    20.323913    21.050855    7382.2337    5658.1581     3948.073    3664.8722   -5.0969839    169.47064    686.86694   -3005.4304 
 4604000    256.54606   -3935.3556   -3495.6445   -3935.3556            0    5248.7253    17.171056    20.225235    20.948648    7275.2274    6165.0929    4497.2429    5083.8401    -1077.933    394.11085    36.314951   -2938.7456 
 4605000    256.59759   -3919.9345    -3480.135   -3919.9345            0    4491.9744    17.338975    20.423022    21.153509    7490.7597    4381.4129    5140.1146    3954.3958   -273.58002   -1841.5114    1432.5502   -2989.4091 
 4606000    248.28288   -3939.9752   -3514.4268   -3939.9752            0    5034.4038    17.233511    20.298799    21.024843    7354.9016    5157.6992    6597.2737    3348.2385   -407.34223   -1273.7148   -590.50735   -2974.4181 
 4607000    247.66709   -3931.6519    -3507.159   -3931.6519            0    6257.4298    17.249187    20.317264    21.043968    7374.9906    6386.2351    5591.6801    6794.3742     1056.592   -925.82336    1798.9228   -2834.1306 
 4608000    247.47109   -3905.6582   -3481.5012   -3905.6582            0    3486.5824    17.247864    20.315705    21.042354    7373.2936    3646.4398    2787.7952     4025.512   -999.85481   -181.50122   -784.81932   -3106.5823 
 4609000    246.52795   -3920.0112   -3497.4707   -3920.0112            0    4709.7253    17.274044    20.346543    21.074294    7406.9206    4630.1453    5375.3154    4123.7152    1471.4969     589.5344    36.721287   -2988.7152 
 4610000    236.00186   -3904.9522   -3500.4531   -3904.9522            0    3694.4855    17.275194    20.347897    21.075697    7408.3997    2869.7462     4583.387    3630.3231     852.9907   -1875.3755   -650.16762   -3101.2865 
 4611000    251.28612   -3905.7581   -3475.0623   -3905.7581            0    5743.7689    17.207891    20.268623    20.993587     7322.149    6551.1879    5402.5724    5277.5464    1430.5607     344.9198   -338.10352    -2861.708 
 4612000    258.39134   -3922.2093   -3479.3354   -3922.2093            0    4690.8242    17.202651     20.26245    20.987194    7315.4613    6586.1264    3247.5389    4238.8072    2.8836654    198.95841    379.36323   -2978.8784 
 4613000    242.20665   -3924.1717   -3509.0378   -3924.1717            0    4041.5952    17.266338    20.337465    21.064892    7397.0116    3943.8206    4559.8882    3621.0768   -1275.2388   -827.48867   -162.03459   -3073.0392 
 4614000    257.69957   -3902.5885   -3460.9003   -3902.5885            0    3864.9474    17.354019    20.440743    21.171863    7510.2747    2506.3079    5584.4868    3504.0474    617.52281    392.84335    955.71582   -3037.5739 
 4615000    262.60871    -3930.254   -3480.1517    -3930.254            0    5462.9688    17.217111    20.279482    21.004835     7333.924    6484.5561    5964.4028    3939.9473   -667.32202    -915.8528    9.5835778   -2895.8448 
 4616000    246.74584   -3948.3819   -3525.4679   -3948.3819            0    5471.2812    17.257054     20.32653    21.053565    7385.0856    4540.0882    6054.1589    5819.5964   -411.80327    1211.0168    350.18303   -2936.1896 
 4617000    232.05678   -3937.8794    -3540.142   -3937.8794            0    4168.9125    17.238114    20.304221    21.030458    7360.7964     3184.885    3445.7946     5876.058    846.34907    215.80156   -1694.1566   -3092.6107 
 4618000    235.27805   -3928.0546   -3524.7961   -3928.0546            0    4541.0169    17.221105    20.284187    21.009707     7339.029    6036.7674    4468.2831    3118.0003   -209.83002    1109.6282    2.1324662    -3038.761 
 4619000    258.23544   -3907.8379   -3465.2312   -3907.8379            0    4254.8188    17.221891    20.285113    21.010667    7340.0343    3579.3388    4043.0654    5142.0521   -245.78724    1468.8464    669.29715   -3009.7662 
 4620000    233.44553   -3894.0433   -3493.9256   -3894.0433            0    5225.7631    17.217461    20.279895    21.005262    7334.3719    5203.6549    3910.7641    6562.8702     214.3449    353.89043    1337.2021   -2934.9556 
 4621000    247.35561   -3932.7335   -3508.7744   -3932.7335            0    6962.9583    17.241767    20.308524    21.034915    7365.4768      5531.29    8498.3955    6859.1895   -1361.9548    844.69145   -1365.5405   -2760.8279 
 4622000    260.03892   -3896.3815   -3450.6837   -3896.3815            0    2493.9102    17.316058    20.396029     21.12555    7461.0965    2249.6897    2341.4908    2890.5502   -1618.3587    578.75462    33.086551   -3179.3152 
 4623000    242.43094   -3922.5166   -3506.9983   -3922.5166            0    5514.3003    17.248731    20.316727    21.043412    7374.4061    5994.0523    5947.9923    4600.8565   -441.01231   -42.727195    1652.1377   -2913.9455 
 4624000    247.84357   -3895.5243   -3470.7289   -3895.5243            0    5425.8786    17.270024    20.341807    21.069389    7401.7502    5398.1011    5039.0719    5840.4628   -74.924316   -707.53503   -193.94125   -2885.0219 
 4625000    259.13272    -3885.442   -3441.2974    -3885.442            0    5975.1287    17.211616     20.27301    20.998131     7326.904    6658.5884    4648.2209    6618.5769   -1076.7281    351.61485    718.71493   -2802.8227 
 4626000    250.54835   -3917.8763    -3488.445   -3917.8763            0    4570.9646    17.282702     20.35674    21.084856    7418.0631    3971.4472    5106.5176     4634.929   -183.84689   -278.81067   -1028.9496   -2993.9359 
 4627000    249.24342   -3906.2588   -3479.0641   -3906.2588            0    7011.4917     17.20601    20.266407    20.991292    7319.7476    6653.9691    6678.1095    7702.3965    42.548413    1243.8972    498.08639   -2730.5802 
 4628000    251.62799   -3915.3301   -3484.0484   -3915.3301            0    5563.7042    17.164815    20.217885    20.941034    7267.2981    4278.8351    6844.8839    5567.3937   -505.32036    1665.9656    208.37891   -2894.3731 
 4629000    257.97395   -3913.8526   -3471.6941   -3913.8526            0    4112.2928    17.305312    20.383371     21.11244    7447.2145    2139.9961    5010.5769    5186.3055    390.25439    40.649319   -1435.1708    -3025.058 
 4630000    236.59716   -3902.2385    -3496.719   -3902.2385            0    5718.8108    17.234338    20.299773    21.025852    7355.9604    6464.7065    3868.1231    6823.6029    -1388.891     234.4305    447.85459     -2883.21 
 4631000     252.4605   -3934.0284   -3501.3197   -3934.0284            0    5876.3604    17.146248    20.196015    20.918383    7243.7408    6751.9368    5814.5613    5062.5832   -1892.0629    371.79776   -1441.8323   -2880.5261 
 4632000    253.30665   -3891.2255   -3457.0666   -3891.2255            0     4519.404    17.205751    20.266102    20.990977    7319.4175    3550.7876    5028.3457    4979.0787   -1067.0465   -419.78807    967.16944   -2974.6374 
 4633000    238.46495   -3900.3682   -3491.6475   -3900.3682            0    2650.8685    17.290103    20.365457    21.093885    7427.5964    3427.4302    2774.7302     1750.445   -1914.0427     1202.127    284.21109   -3204.4951 
 4634000    235.19383   -3900.1491   -3497.0349   -3900.1491            0    5013.2263    17.273459    20.345853     21.07358    7406.1676    4937.9855    5872.2043     4229.489   -1217.2195    969.21403    1366.3917   -2955.5495 
 4635000    234.51253   -3909.7764     -3507.83   -3909.7764            0    4094.4084    17.341339    20.425807    21.156393    7493.8239    3170.9168    4563.7335     4548.575   -676.62862   -110.00794   -254.33514   -3060.3532 
 4636000    246.36353   -3891.7499   -3469.4912   -3891.7499            0    5034.5964    17.220948    20.284001    21.009516    7338.8281    5042.5363    4315.4421    5745.8108    80.240475   -345.16933    610.30484    -2930.642 
 4637000    241.66658   -3907.5619   -3493.3537   -3907.5619            0     5626.547    17.117682    20.162368    20.883532    7207.5962    7048.7293    4856.7072    4974.2045    -645.6802   -833.90088    -92.25326   -2901.9169 
 4638000     243.2743   -3922.6206   -3505.6568   -3922.6206            0     4102.636     17.22686    20.290965    21.016729    7346.3894    2771.8909     5163.632    4372.3851    559.18131   -2559.4474    850.50651   -3066.1022 
 4639000    235.85649   -3967.1298   -3562.8798   -3967.1298            0    3643.5883     17.21198    20.273439    20.998576    7327.3699    2931.5641    3172.5645    4826.6361    1545.0893   -243.54303    572.86276    -3173.518 
 4640000    246.72013   -3906.8125   -3483.9426   -3906.8125            0    5658.5979    17.184554    20.241135    20.965116    7292.3985    4631.8305    4648.3222     7695.641     -1299.93    224.43292   -483.86316   -2882.1386 
 4641000    235.60251   -3941.6243   -3537.8097   -3941.6243            0    4334.1456    17.238853    20.305092     21.03136    7361.7437    4694.4724    3323.7926    4984.1719   -400.68755      547.408   -629.58821   -3072.4807 
 4642000    246.83818   -3931.7873   -3508.7151   -3931.7873            0    5198.8604    17.153675    20.204764    20.927444    7253.1582    4773.1477    5801.7048    5021.7286    852.10327    1408.7331    391.97344   -2958.7803 
 4643000    240.14162    -3931.917   -3520.3224    -3931.917            0    5252.4447    17.217629    20.280092    21.005467    7334.5858    4720.2695    4569.7872    6467.2774   -259.91411    275.05013    612.80335    -2958.482 
 4644000    233.13866   -3903.6105   -3504.0188   -3903.6105            0    5152.1937    17.218338    20.280928    21.006333    7335.4929    7581.0979    3838.8459    4036.6372    876.00776   -38.310449   -1526.3131   -2952.8338 
 4645000    262.27575    -3909.765   -3460.2333    -3909.765            0    6200.5739    17.220834    20.283867    21.009377    7338.6825    5591.3567    6813.3878    6196.9773    412.26209     1042.243    296.44657   -2796.6035 
 4646000    246.92412   -3948.0246   -3524.8051   -3948.0246            0    4448.3874    17.255786    20.325037    21.052019    7383.4586      5460.15    3385.6261    4499.3863    369.90848   -1413.0031   -665.67887    -3045.802 
 4647000    233.86597   -3920.8372   -3519.9989   -3920.8372            0    4503.7025    17.314585    20.394295    21.123754    7459.1936    4209.2573    3304.5901    5997.2602    1023.6028   -563.50739    237.47295    -3030.065 
 4648000    242.53753   -3932.0418   -3516.3407   -3932.0418            0    6673.4806    17.235371    20.300991    21.027113    7357.2842    7091.4752     7640.802    5288.1645   -192.09213   -977.85268    613.49288   -2800.2867 
 4649000    251.94355   -3891.0887   -3459.2661   -3891.0887            0    3988.2129    17.340096    20.424343    21.154877     7492.213    4536.2465    5029.1605    2399.2316   -879.67506   -677.27701   -1937.8294   -3023.4891 
 4650000    242.59177   -3931.2393   -3515.4453   -3931.2393            0    6074.3368    17.326402    20.408213     21.13817    7474.4755    6125.1518    6565.9825    5531.8761   -993.84125     -119.355   -34.418087   -2853.2966 
 4651000    259.56107   -3935.0603   -3490.1815   -3935.0603            0     4598.803    17.323182     20.40442    21.134241    7470.3091    5765.9336    4121.4549    3909.0206    588.14757    1200.7227    1381.1776   -2989.1567 
 4652000    239.52805   -3940.9861   -3530.4432   -3940.9861            0    5615.1603    17.195301    20.253794    20.978228    7306.0891    6319.2742    5392.7778     5133.429   -354.12683     96.49505   -816.04377   -2932.1377 
 4653000    256.24651    -3947.016   -3507.8182    -3947.016            0    3833.9604    17.311071    20.390155    21.119467    7454.6529    3606.5595    3650.0715    4245.2501   -1976.8742    158.02855    -326.3107   -3090.9959 
 4654000    232.20902   -3899.3739   -3501.3756   -3899.3739            0    7175.9097    17.228042    20.292358    21.018171    7347.9025    7332.5296    7582.4236     6612.776   -435.34565     333.5905    1136.9331   -2732.3934 
 4655000    245.70415   -3921.5972   -3500.4687   -3921.5972            0      4515.99     17.31048    20.389459    21.118745    7453.8892    4827.4145    4656.5544     4064.001   -1303.8996    72.675903   -1057.2496   -3009.5475 
 4656000    233.20585   -3941.9288    -3542.222   -3941.9288            0    4490.1802    17.266016    20.337086    21.064499     7396.598    4147.3598    4364.9206    4958.2603    126.31353    -586.5903   -178.87738   -3057.8582 
 4657000     245.8111   -3932.5781   -3511.2663   -3932.5781            0    5919.1005    17.175778    20.230797    20.954409    7281.2313    6575.0875    5540.4168    5641.7972   -436.36543    1379.7134    753.84916   -2882.7212 
 4658000    248.50101    -3949.637   -3523.7147    -3949.637            0    4981.2753    17.194056    20.252326    20.976708    7304.5015    4921.4221    4135.9577     5886.446   -618.75921   -1015.5459    880.55323   -2993.0661 
 4659000    255.72763   -3946.9521   -3508.6437   -3946.9521            0    4926.2603    17.161982    20.214548    20.937578    7263.7005    6211.0631    4812.8051    3754.9126   -925.87985   -837.76701    688.89352   -2986.7871 
 4660000    249.04176   -3906.2585   -3479.4094   -3906.2585            0    4922.7796    17.232315     20.29739    21.023383    7353.3701    4768.5274     5237.792    4762.0193   -642.91899   -2.1074575    -1711.762   -2951.4838 
 4661000    230.03166   -3925.0053   -3530.7389   -3925.0053            0    6099.7456    17.156777    20.208418    20.931228    7257.0938    6418.9653      5809.54    6070.7314    2097.7364    674.82469    404.70315   -2885.1584 
 4662000    242.72574   -3928.1257    -3512.102   -3928.1257            0    3927.0021    17.209763    20.270828    20.995871    7324.5388    5549.4557    2573.1901    3658.3606     1110.805   -89.547446   -325.61492   -3092.6162 
 4663000    249.16595   -3927.3837   -3500.3218   -3927.3837            0    3897.6179    17.266169    20.337266    21.064685    7396.7941    4363.0637    2451.0122    4878.7778    92.475553   -86.932927    178.32793   -3079.8676 
 4664000    243.93381   -3952.8922    -3534.798   -3952.8922            0    4599.4694    17.322118    20.403167    21.132943     7468.933    3247.5817    4658.1414     5892.685    1243.4057   -1158.3913   -682.07264   -3033.7929 
 4665000    240.59351   -3917.9757   -3505.6067   -3917.9757            0    5211.1842    17.275728    20.348526    21.076348    7409.0867    5316.9614    6091.4674     4225.124    324.55363   -883.96179    1318.1814   -2942.5178 
 4666000    255.90581   -3893.4629   -3454.8491   -3893.4629            0    6633.4131    17.227889    20.292177    21.017984    7347.7056    6486.5699    6801.3408    6612.3287    176.35599   -950.55629   -383.41913   -2744.0209 
 4667000    246.99865   -3913.8705   -3490.5233   -3913.8705            0    5883.0154    17.162741    20.215441    20.938503    7264.6634     6056.493    5911.3442     5681.209   -429.67755    1164.8713    1312.9736   -2867.2315 
 4668000    267.62973   -3895.6173   -3436.9091   -3895.6173            0    6247.6145     17.22379    20.287349    21.012983    7342.4622    5501.6845    5392.2854    7848.8737   -644.11881   -1122.9983    -327.7254   -2767.9003 
 4669000    255.86836   -3914.2695   -3475.7199   -3914.2695            0     6187.887    17.221418    20.284555    21.010089    7339.4292    6976.5472     4423.475    7163.6387   -1440.5935    696.06801   -828.91864   -2813.3805 
 4670000    249.25381   -3923.2605    -3496.048   -3923.2605            0    5002.5129    17.290672    20.366127    21.094579    7428.3298    4991.4124    5012.9554    5003.1708   -1616.0631    564.28839   -12.340663   -2954.1029 
 4671000    251.69632   -3941.4546   -3510.0557   -3941.4546            0    4073.4607    17.209289    20.270269    20.995292    7323.9331     3194.034    4540.9221     4485.426   -657.06945   -47.731284   -194.59573    -3074.961 
 4672000    247.97004   -3922.8333   -3497.8212   -3922.8333            0    6322.1793    17.157097    20.208793    20.931618    7257.4988    6465.4849    7283.9249    5217.1281    10.310199     1244.356   -206.45972   -2828.6616 
 4673000    254.50522   -3927.3232     -3491.11   -3927.3232            0    5432.3517    17.189864     20.24739    20.971594    7299.1609    4716.6271    4788.8786    6791.5494   -608.59522    566.99437   -1058.3662   -2912.8319 
 4674000      250.118   -3942.6978   -3514.0041   -3942.6978            0    4524.0305    17.206327     20.26678    20.991679    7320.1519    5286.7375    3269.3248     5016.029   -591.32475    461.21747    669.65148   -3031.0326 
 4675000    242.30536   -3898.1778   -3482.8747   -3898.1778            0    7009.7556    17.173779    20.228443     20.95197    7278.6893    7294.5109     9660.606    4074.1501   -493.79502   -1842.5777   -1492.5695   -2738.7736 
 4676000    248.97861   -3915.3057   -3488.5649   -3915.3057            0    4214.5372    17.236782    20.302653    21.028834    7359.0913    4730.9007    3851.1423    4061.5686    512.08465    1685.4787   -506.04874   -3036.2405 
 4677000    258.77117   -3903.8879   -3460.3629   -3903.8879            0     6448.314    17.234695    20.300194    21.026288    7356.4178    7017.2721     5723.209    6604.4609   -510.10249   -589.54928    189.98397   -2768.5503 
 4678000    256.12786   -3915.3892   -3476.3948   -3915.3892            0    6381.8946    17.175218    20.230138    20.953725     7280.519    7311.4529    7051.1812    4783.0496   -700.89138    756.87957    -834.0442   -2798.7723 
 4679000    257.41633   -3922.1567   -3480.9539   -3922.1567            0    5666.0546    17.233939    20.299304    21.025365    7355.4498    3990.9503    6963.2851    6043.9284    839.62525     869.7352   -793.81353   -2873.1467 
 4680000    244.74372   -3933.1656   -3513.6833   -3933.1656            0    3175.2978    17.292933    20.368791    21.097338    7431.2452    3345.3256    2621.0469    3559.5209    266.94104    260.81007    1410.5431   -3169.5537 
 4681000    248.14834   -3919.7307    -3494.413   -3919.7307            0    4200.4887    17.249755    20.317933    21.044661    7375.7194    4090.4856    4904.2846     3606.696    271.17573      908.685   -515.48666   -3042.5777 
 4682000    264.75801   -3933.7527   -3479.9666   -3933.7527            0    4743.3092    17.232875    20.298051    21.024067    7354.0877    6122.1541    4866.7022    3241.0715   -535.04016    607.47178   -149.08438    -2971.238 
 4683000     242.9911   -3956.0097   -3539.5313   -3956.0097            0    4524.4416    17.282512    20.356516    21.084624     7417.818    3200.6791     6529.997    3842.6487   -843.85791    340.28922    408.02905   -3050.0714 
 4684000    261.33878   -3975.8609   -3527.9352   -3975.8609            0    3912.3862    17.274379    20.346936    21.074702    7407.3504    3337.3169    5221.7728    3178.0688    258.06356    420.32218    358.62228   -3105.2855 
 4685000    249.98212   -3913.0158    -3484.555   -3913.0158            0    6922.6187     17.16761    20.221177    20.944445    7270.8492    6511.7203     7855.493     6400.643    569.19284   -492.65828    319.46162   -2750.4952 
 4686000    248.18698   -3890.1503   -3464.7663   -3890.1503            0    4433.0236    17.207708    20.268407    20.993364    7321.9148    3421.4635    5544.4001     4333.207   -354.67349   -1278.8866   -444.21009   -2991.3964 
 4687000    255.12681   -3941.3544   -3504.0758   -3941.3544            0    4634.0488    17.234393    20.299838    21.025919    7356.0307    4546.6399    5819.4459    3536.0605    1004.6206    919.95816   -1336.9839   -3006.9343 
 4688000    252.78005    -3880.243   -3446.9866    -3880.243            0    6471.5294    17.212783    20.274385    20.999555    7328.3951     5921.563    7219.4876    6273.5377   -241.52575     1070.491    -443.1399   -2755.3281 
 4689000    232.54096   -3902.3423   -3503.7751   -3902.3423            0    5087.1845    17.247085    20.314788    21.041404    7372.2955    6059.9285    4426.4901    4775.1349     1660.889    1140.3844   -67.651104   -2956.8144 
 4690000    249.05458   -3880.7994   -3453.9284   -3880.7994            0     5691.049    17.257706    20.327299    21.054362    7385.9238    7377.1994    5295.1837     4400.764    -75.58533    1454.3957   -89.107943   -2840.9107 
 4691000    250.26383   -3893.3505   -3464.4068   -3893.3505            0    7199.3869    17.182542    20.238765    20.962661    7289.8376    6690.9823    5332.0607    9575.1176    1504.3628    1178.5071    527.17204   -2699.0054 
 4692000    244.07692    -3895.677   -3477.3375    -3895.677            0    4727.1211    17.214379    20.276265    21.001502     7330.434    5630.5648    3286.3393    5264.4592   -204.35278   -528.53528    423.89231   -2971.9758 
 4693000    247.02018    -3889.002   -3465.6178    -3889.002            0    5244.1418     17.26272    20.333204    21.060478     7392.363    3936.3826    4854.6253    6941.4174    439.42451    637.65307   -1440.6236   -2900.2467 
 4694000    271.51328   -3915.2914   -3449.9269   -3915.2914            0    5152.1085    17.175768    20.230786    20.954397    7281.2194    4283.4364     7089.971    4082.9182   -587.73555   -239.46142    291.07895   -2902.8291 
 4695000    248.16419   -3921.6263   -3496.2814   -3921.6263            0    6250.1852    17.125569    20.171658    20.893154    7217.5634    6153.1638    6865.5333    5731.8584    344.57089    665.59024     194.6597   -2838.3821 
 4696000    250.94203   -3914.0108   -3483.9047   -3914.0108            0     4527.872    17.153204    20.204208    20.926869    7252.5602    5258.6762    3418.1986    4906.7413    -467.5117   -20.303433   -679.30192   -3004.9865 
 4697000    237.45939   -3891.7266   -3484.7293   -3891.7266            0     4256.209    17.283624    20.357826    21.085981    7419.2506    4389.8586    4919.0101    3459.7584   -614.10105    621.96248    631.20891   -3024.1983 
 4698000     241.0868   -3904.3198   -3491.1053   -3904.3198            0    4756.4288    17.254764    20.323833    21.050772    7382.1468    4060.2272    5345.8166    4863.2427    310.32394   -445.75779     459.6111   -2979.0232 
 4699000    265.53249   -3906.5233   -3451.4097   -3906.5233            0    7727.8877    17.127683    20.174149    20.895734    7220.2372    7347.3726    8680.9192    7155.3713    1644.6612   -142.49443    208.14575    -2637.665 
 4700000    243.57784   -3912.4566   -3494.9725   -3912.4566            0    4978.0534     17.27352    20.345925    21.073654    7406.2462      4661.58    4660.8085    5611.7716    18.704162   -597.89758    1261.5996   -2957.2805 
 4701000    249.03296   -3906.6762   -3479.8423   -3906.6762            0    4879.1509    17.248377    20.316309    21.042979    7373.9514    5778.0201    4441.3413    4418.0913    298.69028   -267.53103   -766.41445    -2955.131 
 4702000    248.16622   -3889.1628   -3463.8144   -3889.1628            0    3682.9896    17.285253    20.359745    21.087968     7421.348    2491.4306    4761.2017    3796.3364   -1576.4004   -661.61043    380.14829   -3065.1943 
 4703000    247.45563   -3944.3387   -3520.2082   -3944.3387            0    4670.9357    17.271784     20.34388    21.071536    7404.0128    4031.5743    5588.2765    4392.9562   -599.94114    1433.7675   -1043.2962   -3015.8409 
 4704000    233.74819   -3923.8771   -3523.2407   -3923.8771            0    5050.6747    17.257649    20.327231    21.054292    7385.8502     5906.834    3859.4538    5385.7362    287.66596    260.41372    486.83526    -2979.207 
 4705000    249.55842   -3955.2847   -3527.5501   -3955.2847            0     6257.511    17.199536    20.258781    20.983393    7311.4876    6114.1983      6978.03    5680.3049   -952.93048   -27.791441    1370.8711   -2860.3083 
 4706000    241.76397   -3957.9397   -3543.5645   -3957.9397            0    4847.4409    17.241159    20.307809    21.034174    7364.6989    5301.5881    5485.0235    3755.7112   -539.98511    718.23653   -1237.7662   -3022.9175 
 4707000    238.88184    -3927.023   -3517.5877    -3927.023            0    4019.0959    17.327512     20.40952    21.139524    7475.9122    4136.7338    4506.6515    3413.9023   -271.36891   -853.43983    614.14998   -3079.3916 
 4708000    242.71342    -3900.555   -3484.5525    -3900.555            0    5305.6189    17.244667     20.31194    21.038453    7369.1945    3584.9226    4490.8346    7841.0996   -662.36235    1156.4577   -469.49801   -2914.3463 
 4709000    245.01602   -3942.0573   -3522.1083   -3942.0573            0    4989.8181    17.244191    20.311379    21.037872     7368.584    5011.1158     5237.661    4720.6775    1097.0506   -557.44493   -564.19866   -2985.8863 
 4710000     252.6819   -3932.3786   -3499.2904   -3932.3786            0    6028.2255    17.218587    20.281221    21.006636    7335.8106    6776.4798    4001.7395    7306.4573   -940.02661   -720.86777    -1805.941   -2854.3591 
 4711000    245.97321   -3952.0072   -3530.4176   -3952.0072            0    4554.3973    17.253825    20.322726    21.049626     7380.941    5851.6915    3641.2898    4170.2107   -1540.9546    252.03265    503.53014   -3040.1665 
 4712000    248.12976   -3926.8961   -3501.6101   -3926.8961            0    3202.0833    17.242109    20.308927    21.035333    7365.9157    3316.6828    3680.8372    2608.7298   -532.30793   -624.79367   -988.66789   -3157.6285 
 4713000    261.23655   -3928.6613   -3480.9108   -3928.6613            0    5683.8097    17.169614    20.223538    20.946889    7273.3954    4761.5592    4855.7538    7434.1162   -96.132307   -954.58306    1120.3626   -2878.0006 
 4714000    252.67846   -3945.6062    -3512.524   -3945.6062            0    5163.1702    17.192664    20.250688     20.97501    7302.7284    4797.1038    3610.3988    7082.0079    867.56406    11.452464    2132.1866   -2962.6319 
 4715000    234.46337    -3957.162   -3555.2998    -3957.162            0    5138.1887    17.139499    20.188066    20.910149    7235.1906      4674.98    4079.7408    6659.8452    -805.7434    104.73154     857.3245   -3013.1293 
 4716000    251.52349    -3963.463   -3532.3603    -3963.463            0    4309.8336    17.172912    20.227422    20.950913    7277.5874    3965.2303    4911.1129    4053.1577   -51.825948    404.23382    1484.0706   -3074.9312 
 4717000    241.10105   -3946.6995   -3533.4605   -3946.6995            0    4543.2822     17.23406    20.299446    21.025513    7355.6051    5722.8848    4818.0634    3088.8985    160.95726    17.617574    439.27422   -3046.0847 
 4718000    247.76722    -3936.643   -3511.9785    -3936.643            0    4380.7366    17.226182    20.290167    21.015902    7345.5225    4806.7921    5768.5451    2566.8725     619.7086   -486.01722   -645.60951   -3042.6837 
 4719000    248.40669   -3916.5973   -3490.8368   -3916.5973            0    6653.7005    17.129259    20.176005    20.897656    7222.2304     7187.835    5950.4423    6822.8243   -284.86471    719.84567   -4.7843649   -2790.0103 
 4720000    234.91928   -3925.4007   -3522.7571   -3925.4007            0     6414.844    17.121809     20.16723    20.888567    7212.8109    8451.0321    4926.4849    5867.0149   -623.38213   -747.27075    376.42274   -2847.9704 
 4721000    253.38633    -3933.094   -3498.7985    -3933.094            0     5537.601     17.16783    20.221436    20.944712    7271.1276    6206.2976    5380.8299    5025.6754   -432.52927   -1335.7256    616.79088   -2911.5806 
 4722000    247.33329   -3940.9627   -3517.0419   -3940.9627            0    5713.4569    17.169616     20.22354    20.946892    7273.3983    6336.8512    5422.1786    5381.3409    915.54659   -2684.3128   -1437.8397   -2910.9866 
 4723000     242.2852   -3940.0582   -3524.7896   -3940.0582            0     4885.399    17.223349     20.28683    21.012446    7341.8988    4053.9878     4984.565    5617.6442     147.9674    294.66749    660.32423   -3001.6901 
 4724000    247.51289   -3928.9611   -3504.7324   -3928.9611            0    3579.6471    17.255881    20.325148    21.052135    7383.5803     3741.733    3765.9569    3231.2512    578.20908    310.51103     835.3867   -3119.2691 
 4725000    240.02012   -3902.1237   -3490.7375   -3902.1237            0    5200.8761    17.120029    20.165133    20.886396    7210.5619    4614.3021    5174.8356    5813.4907    259.09253    -1007.309   -99.136925   -2943.8203 
 4726000    246.72946   -3891.1017   -3468.2158   -3891.1017            0    4145.6559    17.203307    20.263223    20.987994    7316.2983    3424.7344    4402.6047    4609.6285   -544.77364   -389.46707      1801.05   -3025.8714 
 4727000    259.19066   -3863.2439        -3419   -3863.2439            0    4926.4279    17.230291    20.295007    21.020915    7350.7799      4428.76    6084.4338      4266.09   -542.94589    728.13058   -616.88031   -2890.8693 
 4728000    243.81751   -3877.8367   -3459.9418   -3877.8367            0    8001.2654    17.143217    20.192446    20.914685    7239.9004    6490.6379    7534.6331    9978.5251   -2297.9492    1109.0179   -863.05287   -2615.1161 
 4729000    251.85885   -3915.6033   -3483.9259   -3915.6033            0     5732.266    17.232469    20.297572    21.023572    7353.5678    4408.4598    4905.4866    7882.8516   -132.96839   -623.36102   -754.34328   -2869.1733 
 4730000    251.27616   -3884.8274   -3454.1487   -3884.8274            0    3991.9851    17.270514    20.342384    21.069987    7402.3801    4484.9306    3539.5794    3951.4454   -20.397232   -456.08076   -332.26128   -3023.1894 
 4731000    243.41343   -3870.6729   -3453.4706   -3870.6729            0    5765.5984     17.22071    20.283722    21.009226    7338.5248    4552.4045    6864.4189     5879.972    1702.5354   -74.297747    1314.8166   -2836.4082 
 4732000    253.54929   -3903.9275   -3469.3526   -3903.9275            0    3770.5142    17.332839    20.415795    21.146023    7482.8099    3613.3674    4003.7828    3694.3926    561.16462   -350.09443    212.82082   -3057.8798 
 4733000    243.57782   -3921.1439   -3503.6598   -3921.1439            0    5567.9459    17.268621    20.340155    21.067677    7399.9462    4761.1107    5403.6849    6539.0421    306.12182     1831.205   -1177.9911   -2902.7636 
 4734000    248.89539   -3915.9673   -3489.3691   -3915.9673            0    5903.7999    17.298677    20.375556    21.104345    7438.6521    6256.5098    5624.5727    5830.3173    631.36345   -1426.0428   -1526.1821   -2848.8947 
 4735000    239.12586     -3936.46   -3526.6064     -3936.46            0    6915.2095    17.224246    20.287886    21.013539    7343.0454    6293.2137    7182.3394    7270.0752   -361.01194    453.14957   -842.10689   -2786.0512 
 4736000      255.487   -3956.1686   -3518.2726   -3956.1686            0     3829.618    17.314819     20.39457    21.124039    7459.4955    2475.7665    4248.4703    4764.6173   -285.80823   -340.21987    179.03978    -3101.652 
 4737000    245.61205   -3913.3997   -3492.4291   -3913.3997            0      5453.74     17.28385    20.358092    21.086256    7419.5411    5369.9868    5628.3941     5362.839   -383.34822   -400.59303   -639.50601   -2902.2995 
 4738000    259.41012   -3936.2824   -3491.6623   -3936.2824            0    4268.0565    17.347572    20.433149    21.163998    7501.9075    4948.7849    2867.8668    4987.5178   -483.65908   -1980.5822    1247.1659   -3024.7044 
 4739000    245.36716   -3916.7412   -3496.1903   -3916.7412            0    4259.1893     17.35312    20.439683    21.170766    7509.1071    3599.5688    3530.8466    5647.1524    1027.0042    1524.6437    151.61177   -3029.7553 
 4740000    241.69477   -3888.4606    -3474.204   -3888.4606            0    5426.0101    17.278838    20.352188    21.080142     7413.088    6129.8096    5788.8882    4359.3326    632.28465    262.34455    40.243252   -2887.5857 
 4741000    245.51975   -3932.0892   -3511.2768   -3932.0892            0    5003.0016    17.301982    20.379449    21.108377    7442.9161    3868.8386    3918.2929    7221.8732   -466.60577   -478.98443    853.78061   -2968.2145 
 4742000    255.95693    -3907.002   -3468.3005    -3907.002            0    4018.1098    17.277678    20.350823    21.078727    7411.5962    4632.9837    4515.5937    2905.7519   -3311.0189    1165.0834   -600.92424   -3033.9809 
 4743000    256.41988   -3866.3424   -3426.8475   -3866.3424            0    6731.5639    17.244808    20.312106    21.038625    7369.3753      5980.18    7975.9264    6238.5854    2208.6962   -1069.3666    199.00889   -2703.3741 
 4744000    244.75387    -3878.181   -3458.6813    -3878.181            0    4295.1078    17.277932    20.351122    21.079037    7411.9225    4002.3379    5221.9445    3661.0409   -131.51492    240.43778     1482.984   -2994.4003 
 4745000    242.27146   -3851.2537   -3436.0087   -3851.2537            0     6810.738    17.298867     20.37578    21.104577     7438.897    4512.1336    7770.5475    8149.5328    522.25368   -163.15226   -56.918305   -2697.1207 
 4746000    257.14336   -3920.9274   -3480.1925   -3920.9274            0     3655.329    17.341634    20.426154    21.156753    7494.2062    3642.2139    4252.5788    3071.1943   -822.45437    425.61755   -582.34965   -3080.6822 
 4747000    234.80776   -3900.4356   -3497.9831   -3900.4356            0    4152.0569    17.270406    20.342257    21.069855    7402.2411    5425.1052    4923.0196    2108.0459  -0.64950649    721.27829    277.97301   -3049.7516 
 4748000    249.12467   -3870.5675   -3443.5763   -3870.5675            0    6730.0087    17.330509    20.413051    21.143181    7479.7929     4912.297    7791.0214    7486.7077    1014.4735    208.87368   -1682.8507   -2709.4326 
 4749000    248.44704   -3916.1198   -3490.2901   -3916.1198            0    5603.8425    17.280224    20.353821    21.081833    7414.8726    4269.2873    6277.0592     6265.181   -47.159134   -638.81681    572.95826      -2884.3 
 4750000    263.36576   -3900.9403   -3449.5404   -3900.9403            0    5407.1088     17.33978    20.423971    21.154492    7491.8033    5293.2256    5320.3278    5607.7729    1161.0357   -192.23642    147.03468   -2858.7583 
Loop time of 423.913 on 64 procs for 250000 steps with 864 atoms

Performance: 101.908 ns/day, 0.236 hours/ns, 589.743 timesteps/s
99.1% CPU use with 64 MPI tasks x 1 OpenMP threads

MPI task timing breakdown:
Section |  min time  |  avg time  |  max time  |%varavg| %total
---------------------------------------------------------------
Pair    | 20.049     | 25.743     | 30.487     |  48.4 |  6.07
Bond    | 0.27454    | 0.28245    | 0.29486    |   0.8 |  0.07
Kspace  | 187.32     | 194.57     | 201.59     |  23.7 | 45.90
Neigh   | 4.5761     | 5.0377     | 5.5642     |  10.9 |  1.19
Comm    | 89.861     | 95.633     | 99.476     |  21.4 | 22.56
Output  | 0.88027    | 0.88211    | 0.88316    |   0.1 |  0.21
Modify  | 93.592     | 95.356     | 98.356     |  11.5 | 22.49
Other   |            | 6.407      |            |       |  1.51

Nlocal:        13.5000 ave          19 max           8 min
Histogram: 4 4 10 8 6 8 6 9 5 4
Nghost:        2147.92 ave        2182 max        2103 min
Histogram: 1 4 4 5 9 13 11 9 3 5
Neighs:        4117.09 ave        6649 max        1902 min
Histogram: 2 3 11 9 9 14 9 4 2 1

Total # of neighbors = 263494
Ave neighs/atom = 304.96991
Ave special neighs/atom = 2.0000000
Neighbor list builds = 12678
Dangerous builds = 0

unfix		3
unfix		2
unfix		1

write_data	data.final.${pid}
write_data	data.final.0
System init for write_data ...
PPPM initialization ...
  extracting TIP4P info from pair style
  using 12-bit tables for long-range coulomb (../kspace.cpp:340)
  G vector (1/distance) = 0.37407054
  grid = 24 24 25
  stencil order = 5
  estimated absolute RMS force accuracy = 0.0030931379
  estimated relative force accuracy = 9.3148931e-06
  using double precision FFTW3
  3d grid and FFT values/proc = 2730 288
Last active /omp style is kspace_style pppm/tip4p/omp
WARNING: Not all mixed pair coeffs generated from mixing. Use write_data with 'pair ij' option to store all pair coeffs. (../write_data.cpp:312)

write_restart   restart.lmp.${pid}
write_restart   restart.lmp.0
System init for write_restart ...
PPPM initialization ...
  extracting TIP4P info from pair style
  using 12-bit tables for long-range coulomb (../kspace.cpp:340)
  G vector (1/distance) = 0.37407054
  grid = 24 24 25
  stencil order = 5
  estimated absolute RMS force accuracy = 0.0030931379
  estimated relative force accuracy = 9.3148931e-06
  using double precision FFTW3
  3d grid and FFT values/proc = 2730 288
Last active /omp style is kspace_style pppm/tip4p/omp
Total wall time: 0:07:04
