#include		in.partitions
include		in.temp
variable        temperature equal 170.10
variable	tempDamp equal 100.0
include		in.pressure
variable        pressure equal 2082.5
variable        pressureDamp equal 1000.0 # This is 1 ps
include		in.seed
variable        seed equal 745823

units		real
atom_style	full
box tilt large
read_restart	restart.lmp.${pid}
read_restart	restart.lmp.0
Reading restart file ...
  restart file = 30 Jul 2021, LAMMPS = 30 Jul 2021
  restoring atom style full from restart
  triclinic box = (-10.688853 -9.2604737 0.0063424033) to (12.668853 12.250472 21.853657) with tilt (-9.1778613 1.9037430 3.0905715)
  2 by 4 by 4 MPI processor grid
  restoring pair style lj/cut/tip4p/long/omp from restart
  restoring bond style harmonic/omp from restart
  restoring angle style harmonic/omp from restart
  1296 atoms
  864 bonds
  432 angles
Finding 1-2 1-3 1-4 neighbors ...
  special bond factors lj:    0        0        0       
  special bond factors coul:  0        0        0       
     2 = max # of 1-2 neighbors
     1 = max # of 1-3 neighbors
     1 = max # of 1-4 neighbors
     2 = max # of special neighbors
  special bonds CPU = 0.002 seconds
  read_restart CPU = 0.012 seconds
include 	in.setup
variable	out_freq equal 1000
variable	out_freq2 equal 10000
variable	out_freq3 equal 1000

timestep	2.0

neigh_modify    delay 7 every 1

include		in.tip4p
# This is TIP4P/Ice

# create groups ###
group ox type 2
432 atoms in group ox
group hy type 1
864 atoms in group hy

# set charges - beside manually ###
set group ox charge -1.1794
Setting atom values ...
  432 settings made for charge
set group hy charge 0.5897
Setting atom values ...
  864 settings made for charge

# ### TIP3P Potential Parameters ###
pair_style lj/cut/tip4p/long/omp 2 1 1 1 0.1577 8.5
pair_coeff 1 1*2 0.000 0.000
pair_coeff 2 2 0.21084 3.1668
bond_style  harmonic
bond_coeff  1 450 0.9572
angle_style harmonic
angle_coeff 1 55 104.52
kspace_style pppm/tip4p/omp 1.0e-5
pair_modify tail yes

thermo          ${out_freq}
thermo          1000
thermo_style    custom step temp pe etotal epair emol press lx ly lz vol pxx pyy pzz pxy pxz pyz enthalpy

restart 	${out_freq3} restart.lmp.${pid} restart2.lmp.${pid}
restart 	1000 restart.lmp.${pid} restart2.lmp.${pid}
restart 	1000 restart.lmp.0 restart2.lmp.${pid}
restart 	1000 restart.lmp.0 restart2.lmp.0


include         in.dump
dump            myDump all atom ${out_freq2} dump.water.${pid}
dump            myDump all atom 10000 dump.water.${pid}
dump            myDump all atom 10000 dump.water.0
dump            myDump2 all dcd ${out_freq2} dump.dcd
dump            myDump2 all dcd 10000 dump.dcd
dump_modify     myDump append yes
dump_modify     myDump2 append yes


variable natoms 	equal  "count(all)"                        # NUMBER ATOMS
variable H      	equal  "enthalpy/v_natoms"                 # ENTHALPY-per-atom
variable Vol      	equal  "vol/v_natoms"                 # volume-per-atom
fix AVG all 		ave/time ${out_freq} 1 ${out_freq} v_Vol v_H file vol_enthalpy.dat
fix AVG all 		ave/time 1000 1 ${out_freq} v_Vol v_H file vol_enthalpy.dat
fix AVG all 		ave/time 1000 1 1000 v_Vol v_H file vol_enthalpy.dat


timer           timeout 10:00:00 every 1000
New timer settings: style=normal  mode=nosync  timeout=10:00:00

fix 		1 all shake 1e-6 200 0 b 1 a 1
       0 = # of size 2 clusters
       0 = # of size 3 clusters
       0 = # of size 4 clusters
     432 = # of frozen angles
  find clusters CPU = 0.000 seconds
fix             2 all nph tri ${pressure} ${pressure} ${pressureDamp}
fix             2 all nph tri 2082.5 ${pressure} ${pressureDamp}
fix             2 all nph tri 2082.5 2082.5 ${pressureDamp}
fix             2 all nph tri 2082.5 2082.5 1000
fix             3 all temp/csvr ${temperature} ${temperature} ${tempDamp} ${seed}
fix             3 all temp/csvr 170.1 ${temperature} ${tempDamp} ${seed}
fix             3 all temp/csvr 170.1 170.1 ${tempDamp} ${seed}
fix             3 all temp/csvr 170.1 170.1 100 ${seed}
fix             3 all temp/csvr 170.1 170.1 100 745823


run             250000
PPPM initialization ...
  extracting TIP4P info from pair style
  using 12-bit tables for long-range coulomb (../kspace.cpp:340)
  G vector (1/distance) = 0.36497079
  grid = 30 40 32
  stencil order = 5
  estimated absolute RMS force accuracy = 0.0050842886
  estimated relative force accuracy = 1.5311184e-05
  using double precision FFTW3
  3d grid and FFT values/proc = 7752 1200
Last active /omp style is kspace_style pppm/tip4p/omp
Neighbor list info ...
  update every 1 steps, delay 7 steps, check yes
  max neighbors/atom: 2000, page size: 100000
  master list distance cutoff = 10.8154
  ghost atom cutoff = 10.8154
  binsize = 5.4077, bins = 7 5 5
  1 neighbor lists, perpetual/occasional/extra = 1 0 0
  (1) pair lj/cut/tip4p/long/omp, perpetual
      attributes: half, newton on, omp
      pair build: half/bin/newton/tri/omp
      stencil: half/bin/3d/tri
      bin: standard
Per MPI rank memory allocation (min/avg/max) = 10.64 | 10.65 | 10.65 Mbytes
Step Temp PotEng TotEng E_pair E_mol Press Lx Ly Lz Volume Pxx Pyy Pzz Pxy Pxz Pyz Enthalpy 
14250000    176.32936   -6538.1873   -6084.5908   -6538.1873            0    987.24147    23.357706    21.510945    21.847314    10977.103    771.02252    855.67714    1335.0247     22.80113    97.938325   -486.29524   -5926.5435 
14251000    171.46395   -6558.2451   -6117.1646   -6558.2451            0    2510.9174    23.401822    21.317155     21.84496    10897.582    1927.5497    2722.7936    2882.4089    198.39227    367.88872    956.73425   -5718.1043 
14252000    174.62343   -6563.8485   -6114.6403   -6563.8485            0    2628.6761    23.379107    21.443615    21.709292    10883.575    2591.7597    2791.5372    2502.7314   -112.17166    -311.2035   -1388.2316   -5697.4017 
14253000      166.958   -6552.7033    -6123.214   -6552.7033            0    2494.6835    23.266973     21.49137    21.816624    10909.166    2803.3582    2289.0344    2391.6578    156.36875    902.23305    459.31962   -5726.3124 
14254000    164.66699   -6569.3653   -6145.7695   -6569.3653            0    1784.9968    23.349966    21.517207    21.683584    10894.397    1442.2963    1169.7646    2742.9296   -632.83935   -201.58713   -769.42538   -5862.1628 
14255000    166.88747   -6552.9109   -6123.6031   -6552.9109            0    1105.9831    23.426224    21.340477    21.938348    10967.568    301.17981    2255.5357    761.23367    122.77544    1001.1646   -186.83299   -5946.7003 
14256000    179.58393   -6569.2327    -6107.264   -6569.2327            0    1636.5294    23.416029    21.380784    21.834256    10931.387    1628.6212    1604.7345    1676.2326     852.2369    45.643498    42.983756   -5846.3635 
14257000    169.99684   -6567.5733   -6130.2668   -6567.5733            0    1773.3778    23.299829    21.522055    21.770979    10917.279    1530.3853    962.71249    2827.0357    1297.7685   -1131.7116    199.60113   -5847.9143 
14258000    167.30592   -6540.8747   -6110.4905   -6540.8747            0    2803.3653    23.176651    21.613926    21.740098     10890.45    3460.4073    2503.3662    2446.3225   -430.86795    131.60951   -843.55823    -5665.243 
14259000    174.60521    -6542.606   -6093.4447    -6542.606            0    1983.6301    23.335109    21.413223    21.862336     10924.17    3158.2263    2132.0172    660.64675    88.149314    663.51323    54.938615   -5777.4171 
14260000    173.13836   -6558.2234   -6112.8355   -6558.2234            0    1838.2088    23.460559    21.364885    21.816804    10935.284    1551.2506    2337.3131    1626.0627   -324.82416   -624.83001    621.22246   -5819.6782 
14261000    166.93361   -6548.9101   -6119.4836   -6548.9101            0    2165.2264    23.437504     21.36798    21.758997    10897.169    1851.6829     2127.655    2516.3415    28.682159    164.42103   -58.926228   -5775.3771 
14262000    172.77048   -6535.2315   -6090.7899   -6535.2315            0    1571.5546     23.25793    21.592285    21.816509    10956.073    2344.6666    796.55462    1573.4425   -1764.3382     79.77676     -226.967   -5839.6821 
14263000    180.30087   -6570.2197   -6106.4067   -6570.2197            0    1206.2822    23.213403    21.646567    21.774645    10941.552    2848.8866    343.62208    426.33798   -379.68633     96.62855   -281.19259   -5913.9186 
14264000    173.82983   -6585.7788   -6138.6121   -6585.7788            0    2681.4366    23.243488     21.47809    21.797442    10881.844    3636.9141    2196.4606    2210.9351    602.13067    224.00276   -822.68229   -5713.0667 
14265000    174.98895   -6565.2343   -6115.0859   -6565.2343            0    1549.6409    23.539895    21.286748    21.849576    10948.556    985.47236    1966.5241    1696.9261    18.539611   -181.31652    191.30604   -5867.6494 
14266000    167.59917   -6552.9456    -6121.807   -6552.9456            0    2359.6076     23.44952    21.373497    21.753966     10903.05    1566.1519    3168.8019     2343.869    446.40855     717.8019    649.03729   -5746.6062 
14267000    177.28692   -6572.3863   -6116.3265   -6572.3863            0    2249.0838    23.270046    21.606687    21.679761    10900.336    3014.1531    675.72273    3057.3756   -1.1257471   -543.58272    747.52101   -5758.7891 
14268000    165.29138   -6566.6733   -6141.4713   -6566.6733            0    2527.5815    23.301412    21.610254    21.648461     10901.07    1924.1517    2000.5418    3658.0512   -1117.7437    209.41626    1706.8791   -5739.6341 
14269000    169.68599   -6561.8967   -6125.3898   -6561.8967            0    2315.3392    23.498415     21.36753    21.704155    10897.724      2791.86    1926.7257    2227.4318     2.401595     56.02097   -74.667848   -5757.4081 
14270000    166.09658   -6555.6093    -6128.336   -6555.6093            0    2532.2817     23.59666    21.278464    21.683018    10887.058    1024.2072    3794.8742    2777.7638    396.15517   -277.53127    156.52075    -5726.269 
14271000    166.70313   -6571.7955   -6142.9619   -6571.7955            0    1864.6999    23.351738    21.522743    21.707473    10910.034    2080.0722    1169.8623    2344.1651    -289.1153   -221.26773    236.81446   -5846.2664 
14272000     170.7016   -6548.9873   -6109.8678   -6548.9873            0    1962.0821     23.17827    21.620839    21.785667    10917.531    2752.3763     1937.933    1195.9368   -265.10013    143.82008    20.470415   -5797.4632 
14273000    170.37032   -6566.0977   -6127.8304   -6566.0977            0    2229.5535    23.319693    21.383682    21.886189    10913.787     2132.576    2721.9376     1834.147    390.80121   -20.410034   -130.53855   -5772.9604 
14274000    175.97196   -6522.9301    -6070.253   -6522.9301            0    1548.0627    23.454788     21.32399    21.914763    10960.661    2098.2063    2244.0679    301.91389    280.56891   -1014.6503   -959.50488   -5822.7951 
14275000    177.06059   -6550.3961   -6094.9185   -6550.3961            0    1896.4581    23.303471    21.478121    21.824218    10923.344    1848.8311    2613.7953    1226.7479   -403.40391   -68.956179    158.50666   -5792.8018 
14276000    173.54372   -6537.2603   -6090.8296   -6537.2603            0     1999.982    23.165303    21.652683    21.790457    10929.896    2500.6712    2434.1456    1065.1291    922.01821      -183.88   -361.63288   -5772.0298 
14277000    171.42477   -6548.1348    -6107.155   -6548.1348            0    2430.9891    23.385129    21.460837    21.714538    10897.755     1670.373    3411.5106    2211.0836    319.91132   -573.60901   -790.06491   -5720.7917 
14278000    164.93593   -6564.4422   -6140.1545   -6564.4422            0    2075.0494    23.551232    21.284012    21.777696     10916.39    737.32353    3260.0466    2227.7781     645.8092   -127.60159    742.71825   -5809.7976 
14279000    165.42989   -6562.3386   -6136.7802   -6562.3386            0    3013.5794    23.429386    21.359109    21.741269    10880.001     1584.375    3442.7595    4013.6039    405.89988    1212.5807   -278.81027   -5658.6046 
14280000    179.08125   -6553.1535   -6092.4779   -6553.1535            0    1492.7936    23.131152    21.689033    21.796036    10934.904      2503.37   -99.619717    2074.6307    782.69657    -66.61672    380.06534   -5854.4156 
14281000    170.00158   -6536.7768   -6099.4581   -6536.7768            0     1680.144    23.176176    21.698035     21.81128    10968.401    2502.1845     795.3535    1742.8939    -1118.226   -267.26148   -195.26433   -5830.6974 
14282000     173.6017   -6555.0264   -6108.4466   -6555.0264            0    2043.0721    23.332534    21.383571    21.916245    10934.736    2100.1262    2866.6575    1162.4326   -763.95506     -60.2665    110.64111    -5782.634 
14283000    171.96975   -6559.1012   -6116.7195   -6559.1012            0    2216.2308    23.487538    21.294951    21.808937    10908.088     2084.311    2631.4392    1932.9423   -1089.3284    235.92509    19.398248   -5764.1543 
14284000    169.12818   -6564.7686   -6129.6966   -6564.7686            0    1813.3682      23.4225    21.404486     21.81692    10937.838    1654.1618    2527.8183    1258.1245   -725.23007    854.28681    -122.5302   -5840.4333 
14285000     168.2148   -6573.3053    -6140.583   -6573.3053            0    2036.6641    23.279477    21.649875    21.664514    10918.866    2758.3257   -129.23925    3480.9058    532.63794   -201.44843    757.56499   -5816.2636 
14286000    164.96149   -6556.5654   -6132.2121   -6556.5654            0    1744.4938    23.361063    21.595664    21.627322    10910.933    159.01191     1648.346    3426.1236    347.45546    723.70309    1735.0198   -5854.6199 
14287000    168.01094   -6546.4495   -6114.2516   -6546.4495            0    2901.2375    23.443309    21.343779    21.714266    10865.141    2973.9232    4121.7782    1608.0112    794.53922   -24.088998   -755.84595   -5654.5304 
14288000    171.36705   -6563.7994   -6122.9681   -6563.7994            0    918.23821    23.537475     21.40236    21.788521    10976.131   -524.61038    2858.6044    420.72063   -36.692873    281.28698    120.71201   -5975.9806 
14289000    172.27414   -6563.6481   -6120.4834   -6563.6481            0    1874.1387    23.237111    21.568629    21.746085    10898.978    2463.3922    1057.4683    2101.5557    1306.6646   -326.43227    438.93307   -5822.5882 
14290000    169.32482   -6565.8532   -6130.2754   -6565.8532            0    1556.0594    23.266387    21.605453    21.754446    10935.543    2129.1191    615.31676    1923.7424   -238.24693    1426.9282    299.09813   -5882.1094 
14291000    164.27606   -6555.7379   -6133.1477   -6555.7379            0    2289.5883    23.415811    21.290265    21.867719    10901.688    2321.4381    3304.7056    1242.6212   -819.07831    41.336801   -1269.5848   -5769.1262 
14292000    163.42879   -6542.7687   -6122.3581   -6542.7687            0     2155.942    23.430282    21.272367    21.884689    10907.713    829.13048    3453.3614    2185.3341   -254.09195    750.66574   -139.10289   -5779.3956 
14293000    172.01312   -6554.3413    -6111.848   -6554.3413            0    1927.9873    23.228448    21.628944    21.740474    10922.562    2512.3347    1069.2646    2202.3626   -785.15079    403.95239   -286.08637   -5804.7305 
14294000    162.84507   -6533.8545   -6114.9455   -6533.8545            0    2528.8331    23.169563    21.532481     21.84877    10900.311    2868.7956    2711.7383    2005.9654    22.721131   -110.18389   -55.331921   -5712.9372 
14295000    159.52878   -6573.3239   -6162.9459   -6573.3239            0     2065.831    23.350901    21.315253    21.885341    10892.999    2368.2175    1979.0146    1850.2609    271.78572    260.13256   -201.51703   -5834.7613 
14296000    172.10724   -6556.5405   -6113.8051   -6556.5405            0    1669.1567    23.443468    21.342733    21.888788    10952.004    2649.7745    1205.9385    1151.7573    117.11281   -569.27067    631.89827   -5847.2011 
14297000    167.05252   -6569.6723   -6139.9398   -6569.6723            0    3165.3064    23.232005    21.558236    21.636134    10836.264    4003.6216    2900.6969    2591.6009    468.89669   -44.143464    -242.2714   -5639.7081 
14298000    168.34152   -6543.0566   -6110.0083   -6543.0566            0     2275.978    23.235167     21.57935    21.777074     10919.02    3391.5541    2003.0058    1433.3741    302.49815   -560.03941    977.98015   -5747.5754 
14299000    172.66918   -6546.1296   -6101.9486   -6546.1296            0    2541.9855    23.417331    21.493649    21.664022     10904.02    2810.9744    2672.6316    2142.3503   -252.31222    94.048428   -1108.1604    -5697.712 
14300000    169.25378   -6553.2763   -6117.8813   -6553.2763            0    1302.5248    23.435737     21.37877    21.825204    10935.022    1693.8475    1158.5945    1055.1323    -513.0869    500.40112    432.93691   -5910.1597 
14301000    181.55276   -6568.1578   -6101.1244   -6568.1578            0     2252.298    23.433682    21.447666    21.705857    10909.316    2575.2433    2149.0412    2032.6094    307.19602   -380.21932   -1061.7086   -5742.7811 
14302000    169.82313   -6579.8004   -6142.9407   -6579.8004            0    1571.8767    23.331414    21.469774    21.804429    10922.279     1205.726    1945.7122    1564.1919    279.03365    703.16597    727.84823   -5892.5561 
14303000    163.19401   -6550.5939   -6130.7872   -6550.5939            0    1269.0396    23.281159    21.718416    21.685881     10965.03    2169.8057    560.10875    1077.2043   -105.02154    386.75524   -127.84754   -5927.8504 
14304000    176.17477   -6559.8769    -6106.678   -6559.8769            0    1116.5115    23.304499    21.498935    21.852599    10948.631     1478.293    1894.9724   -23.730838   -82.465082    119.42896   -291.33887   -5928.3995 
14305000    168.29021   -6546.4842   -6113.5679   -6546.4842            0    1839.9017    23.412881    21.453969    21.784661    10942.418    2250.9338    2266.3916    1002.3798     -297.303   -219.87612   -961.86751   -5819.9491 
14306000    177.46862    -6552.525   -6095.9978    -6552.525            0    1033.6703    23.314185    21.493136    21.907535    10977.755    1446.3024    897.34766    757.36089   -276.25867    804.61865   -570.27183   -5930.5079 
14307000    169.46289   -6552.0204   -6116.0874   -6552.0204            0    2339.2916    23.162337    21.624173    21.747855    10892.769    3123.8306    1126.1467    2767.8975   -820.46525   -748.23385   -237.66652   -5744.4679 
14308000    169.65024   -6561.1703   -6124.7554   -6561.1703            0    822.27614    23.335819    21.528741    21.817259     10960.79    1151.2611    347.20173    968.36557   -91.564251    326.28234    98.198746    -5993.313 
14309000    173.31638   -6565.7288   -6119.8829   -6565.7288            0    1948.3834    23.439059     21.31951    21.833058    10910.181    1640.5763    2154.0593    2050.5145   -121.64653     451.2723     300.1481   -5809.8682 
14310000    165.82131   -6571.4708   -6144.9056   -6571.4708            0    1729.0558    23.545416    21.355315    21.721123     10921.81    1433.7631    2976.9704      776.434   -1263.1881   -262.21081   -678.53191   -5869.4957 
14311000    170.88901   -6560.7416     -6121.14   -6560.7416            0    1560.6462    23.296426    21.584211    21.719949     10921.55    2368.9266    503.74161    1809.2703    594.61988   -528.15036    646.49407   -5872.5609 
14312000    171.96515   -6551.6568   -6109.2869   -6551.6568            0    2132.8311    23.390149    21.560311    21.625607     10905.77    1968.9646    3021.4194    1408.1094    360.49458   -105.26404   -805.87634   -5770.0613 
14313000    174.95288   -6536.8521   -6086.7965   -6536.8521            0    2374.3695     23.49242    21.401072    21.664717    10892.217    2270.8977    1725.7852    3126.4257   -175.88421   -185.04907    785.28724   -5709.6236 
14314000     167.3595   -6556.1971    -6125.675   -6556.1971            0    3104.9538    23.403157    21.467266     21.62702    10865.454    1962.2748    2593.8664    4758.7203    359.71864    232.75183   -80.166589   -5633.6594 
14315000    162.32695   -6578.4499   -6160.8737   -6578.4499            0     1351.584    23.277722     21.53043    21.806285     10928.86    2019.0654    547.72936    1487.9571    285.94692   -591.10688    183.81245   -5945.4499 
14316000     172.7832   -6543.3709   -6098.8966   -6543.3709            0    1923.9114    23.237716    21.470281    21.874756     10913.76    1590.4773    2692.0353    1489.2217    220.73037    132.06599   -1094.1819   -5792.6754 
14317000    166.37165   -6575.6511   -6147.6701   -6575.6511            0    1149.4066    23.292515    21.418732    21.917719    10934.665    1364.8738    2179.6839    -96.33801   -770.69448    294.59826   -58.018962   -5964.3732 
14318000    163.88144    -6559.339    -6137.764    -6559.339            0    2974.3964    23.372945    21.416477    21.766626    10895.636    3514.8604     2562.762    2845.5668   -321.71169   -664.96656   -1270.7164   -5665.1274 
14319000    159.36412   -6566.2581   -6156.3036   -6566.2581            0    1928.3687    23.313067    21.413734    21.863976     10914.93    1495.8141    1992.5892    2296.7028   -320.33432    1207.4949    649.65414     -5849.34 
14320000    164.83882     -6553.26   -6129.2222     -6553.26            0    1083.8378    23.303588    21.558143    21.848414    10976.252    680.58892    989.53755    1581.3869    1049.8359    604.92481   -126.87383   -5955.7243 
14321000    171.51847   -6559.8947   -6118.6738   -6559.8947            0    2008.1834    23.165333    21.562092    21.782241    10880.078    2656.3753    595.83215    2772.3426    1411.8114   -597.16754    867.89658   -5800.0258 
14322000    175.97431    -6530.434   -6077.7508    -6530.434            0    2139.8596    23.439307    21.433237     21.73797    10920.727    2212.1529    1690.1333    2517.2926   -634.15243   -246.56857    -331.1266   -5736.9405 
14323000    166.11726   -6568.3909   -6141.0644   -6568.3909            0    1529.8573    23.463078    21.302779    21.830109    10911.317    381.81407    2628.5976    1579.1602   -305.82755    125.55382   -35.282127   -5897.6177 
14324000    175.25219    -6578.498   -6127.6724    -6578.498            0    1997.8203    23.355822    21.501825    21.754145    10924.775    1721.0165    2099.2648    2173.1797   -1101.2157    376.45812     238.4916   -5809.3664 
14325000    168.84856   -6553.7069   -6119.3543   -6553.7069            0    2337.8492    23.112502    21.676633    21.768504    10906.047    3829.0681     424.4882    2759.9913    1256.0466    -288.4697    139.12421   -5747.5112 
14326000    172.55937    -6568.409   -6124.5106    -6568.409            0    2339.2489     23.28134    21.540043    21.725094    10894.723    2197.0514    2149.9122     2670.783   -549.04665    238.31641    225.56435   -5752.8311 
14327000      169.502   -6570.0311   -6133.9975   -6570.0311            0    3033.1154    23.462049     21.25305    21.811099    10875.889    3288.0971    3607.5416    2203.7074   -718.12823    185.49177   -624.03742   -5652.9039 
14328000    175.42106   -6546.5197   -6095.2597   -6546.5197            0    1152.1695    23.585702    21.314937    21.829672    10974.382    506.70156    1392.3341    1557.4729    463.74197   -415.16633    830.56633   -5910.8548 
14329000    167.04049   -6566.5735    -6136.872   -6566.5735            0    2467.2385     23.23214    21.501668     21.80373    10891.612    3279.0602    1826.6961    2295.9593   -561.20285     553.7718   -257.91094   -5744.9684 
14330000     172.6509   -6541.1753   -6097.0413   -6541.1753            0    2042.9361    23.233354    21.557719    21.822062    10929.757    3135.0427    1394.2408    1599.5248     -965.227    650.84849   -880.66862   -5771.3988 
14331000    164.51968   -6561.0725   -6137.8556   -6561.0725            0    2451.6691    23.328883    21.422085    21.806707    10897.974    2321.1235    2451.6814    2582.2024   -418.03842    174.93664    -553.5955   -5748.1977 
14332000    165.47232   -6554.5666   -6128.8991   -6554.5666            0    1174.9472    23.473816    21.274314    22.007396    10990.259    1139.8105    2326.8243     58.20676    147.99509   -137.75816    177.14459   -5940.5766 
14333000    171.64085   -6568.9278   -6127.3922   -6568.9278            0    2050.8428    23.339273    21.441884    21.823587    10921.352    2289.7382    2128.5812     1734.209    256.18114   -201.51897   -58.924931   -5800.7407 
14334000     173.2224   -6527.8234   -6082.2193   -6527.8234            0    2207.3608     23.16149    21.539762    21.927099    10939.276    2418.3462    2636.0214    1567.7148    323.67723     1126.093    489.54757   -5730.0611 
14335000    167.31049   -6560.9794   -6130.5833   -6560.9794            0    1759.6332    23.297141    21.500259    21.842457    10940.768    2225.4719    2512.2263    541.20132   -350.16268   -845.61068   -646.37246   -5849.8165 
14336000    174.97463   -6585.7837   -6135.6721   -6585.7837            0    1822.2345    23.409699    21.328462    21.831943    10900.534     1651.947    2298.1667    1516.5899    261.73574    399.87609     512.8871   -5845.9859 
14337000    164.79372   -6570.4992   -6146.5774   -6570.4992            0    1542.6242     23.42717    21.443983    21.759796    10931.508    614.48411     1653.211    2360.1776   -837.72596    1.4939028     255.2293   -5900.6448 
14338000    173.52913    -6560.041   -6113.6479    -6560.041            0    2932.7133    23.292558    21.561855    21.596224    10846.288    2296.4715    2475.2021    4026.4664   -63.246553    844.53311    164.22794   -5649.7455 
14339000    165.59942   -6581.3918   -6155.3974   -6581.3918            0    836.56545    23.459372    21.592146    21.635786    10959.352    173.48117    13.445914    2322.7693    62.475332   -5.5299178   -470.58623   -6021.6883 
14340000    170.14399   -6572.4399   -6134.7548   -6572.4399            0    2326.2699    23.399587    21.400932    21.723776     10878.68    2723.0392    2090.7439    2165.0266    -1228.326   -559.22406    -81.33184   -5765.6819 
14341000    164.51426   -6569.9478   -6146.7449   -6569.9478            0    2025.6447    23.406916    21.378251     21.79791     10907.65    1779.9373    1647.6875    2649.3092   -569.50169   -549.36208    688.92156   -5824.5117 
14342000    177.29818   -6575.7286   -6119.6399   -6575.7286            0    1692.5344    23.250431    21.512908    21.841333    10924.694    2695.3423    1935.1072    447.15371   -196.64101    286.54038    -381.0392    -5849.976 
14343000    165.13691   -6548.1228   -6123.3181   -6548.1228            0     1509.346    23.172885    21.625806    21.812593    10930.995    2365.9156     118.8493    2043.2731   -340.55367   -366.37105   -146.71786   -5882.7022 
14344000     172.1794   -6556.0084   -6113.0874   -6556.0084            0    2654.0888    23.428084      21.4211    21.737203    10908.931    3126.8064    2185.5718    2649.8883    431.01167   -316.69421    -417.4584   -5690.8336 
14345000    159.88069   -6564.0784   -6152.7951   -6564.0784            0    2485.4053     23.48855     21.31392    21.749067    10888.302    2044.1674     2666.774    2745.2746    584.68869     520.7662     425.0106   -5758.1258 
14346000    173.42602   -6545.7706   -6099.6428   -6545.7706            0    2517.9916     23.42651    21.520073    21.634426    10906.784    2296.9248    2139.6879    3117.3622   -1650.4984   -913.05077    274.76547   -5699.1203 
14347000     169.1783   -6559.7963   -6124.5954   -6559.7963            0    2642.1384    23.275536    21.627084    21.640429    10893.402    2830.9286     1451.945    3643.5416    120.61259    383.85586   -762.51205   -5704.8412 
14348000    167.62233   -6582.6459   -6151.4477   -6582.6459            0    1745.8798     23.38118    21.503858    21.716223    10918.604    1537.6212    1786.8597    1913.1583   -599.24867    492.26664   -373.40396   -5873.4397 
14349000    175.77803    -6573.436   -6121.2577    -6573.436            0    1345.1466    23.431792    21.382916    21.844636    10945.037    938.99666    2695.9115    400.53168   -968.31148    902.42962   -607.26773   -5906.5425 
14350000    165.07356   -6560.3727    -6135.731   -6560.3727            0    1028.5004    23.504795    21.340967     21.82257     10946.53    399.90604    1835.1275    850.46769    1117.4458   -13.160896    -556.7567   -5971.5372 
14351000    168.06003   -6581.9662    -6149.642   -6581.9662            0    1396.0087    23.305558    21.544931    21.768348     10930.25    1374.7647    653.54311    2159.7183   -137.38375   -521.84319    262.09217   -5927.1092 
14352000    173.94032   -6572.6429    -6125.192   -6572.6429            0    1818.3505    23.254296    21.542514    21.772639    10907.134    2329.8099    1132.6994    1992.5421   -454.12723      1504.96    437.42864   -5835.9481 
14353000    171.85574    -6548.704   -6106.6155    -6548.704            0    913.75463    23.502614    21.350333    21.860427    10969.314    873.63373     2082.948   -215.31785    582.96613    253.52893   -87.039139   -5960.4366 
14354000    167.94953   -6549.6815   -6117.6416   -6549.6815            0    2737.0135    23.441303    21.349742    21.769121      10894.7    1735.6146    4549.0141    1926.4117    1071.3438   -1167.8361   -1004.7648   -5682.7629 
14355000    172.68403   -6553.8101   -6109.5909   -6553.8101            0     1870.633    23.229179    21.523996    21.852274    10925.803    2565.8952    1611.2453    1434.7585   -271.11896    -143.0173   -549.63816   -5811.5212 
14356000    167.54358   -6567.9178   -6136.9221   -6567.9178            0    1853.1109    23.332426    21.441436    21.811174    10911.709    1140.7116    3727.1746    691.44657    416.59319    641.98593   -911.87335   -5842.0253 
14357000    165.18904   -6555.2367    -6130.298   -6555.2367            0    1761.9993    23.484034     21.35731    21.786657    10927.224      609.685    2284.9438     2391.369    850.15878    -275.0508    512.74948   -5849.5016 
14358000    168.25185   -6562.2791   -6129.4615   -6562.2791            0    2869.9778    23.361219    21.465978    21.709773     10886.83     3111.117    3141.8701    2356.9463    -508.6077    176.12284   -719.32145   -5673.7858 
14359000    160.34582   -6544.1072   -6131.6273   -6544.1072            0    1741.6904    23.282492    21.543948    21.767109    10918.312    2798.2926    983.63425    1443.1442   -321.23563   -123.06968    -96.27089   -5854.2938 
14360000    170.04068   -6572.6122   -6135.1929   -6572.6122            0    2181.0867    23.354309    21.606653    21.570801    10884.808    1399.2759    1403.9425    3740.0417    479.01254   -1134.7001   -502.64265    -5788.959 
14361000    171.82955   -6559.3968   -6117.3758   -6559.3968            0    1839.3784    23.368085    21.470578    21.719637    10897.313    1393.1971    1006.1443    3118.7938   -146.96876    579.76016    1593.8094   -5825.0505 
14362000    170.46884   -6554.8079   -6116.2872   -6554.8079            0    2611.1346    23.374963    21.494797    21.694622    10900.247    1279.5923    3648.5207    2905.2908   -128.29521    62.520501   -949.00919    -5701.198 
14363000    172.51951   -6560.3024   -6116.5065   -6560.3024            0    2314.8783    23.386884    21.394049    21.801104    10907.967    1069.8072    2960.4962    2914.3314    608.35652    117.47077    508.53548   -5748.2522 
14364000    174.65844   -6560.4085   -6111.1103   -6560.4085            0    2336.5862     23.37343    21.492913    21.737794    10920.266    1828.4796    2966.8628    2214.4161    685.45592   -742.54728   -1390.6751   -5738.9835 
14365000    175.32427   -6564.5669   -6113.5559   -6564.5669            0    1476.9847    23.230398    21.441624    21.973469    10944.929    1771.1656    1908.4531    751.33547    398.78984    407.65857    530.24383   -5877.7988 
14366000    162.51694   -6572.9211   -6154.8562   -6572.9211            0    2172.5526    23.296589     21.49197    21.804636    10917.354    2065.6736    3108.5723    1343.4118    1333.1745    -1810.306    -766.1703   -5808.9458 
14367000    161.32847   -6581.6909   -6166.6833   -6581.6909            0    2312.8662    23.355791    21.367653    21.822873    10890.889    2079.7716    2793.7709     2065.056    543.59254   -378.51749    272.65177   -5799.3251 
14368000    161.30572     -6555.73   -6140.7808     -6555.73            0    2152.5828    23.524908    21.375188    21.741106    10932.501     1171.746    2290.2451    2995.7572   -68.232179    350.91966    280.45902   -5797.5745 
14369000    174.51348   -6579.2713    -6130.346   -6579.2713            0    2939.6074     23.41169    21.310014    21.752664    10852.479    2636.9588    3405.1567    2776.7067    343.76432    403.05373     179.5193   -5665.0877 
14370000    159.05058   -6539.5573   -6130.4094   -6539.5573            0     2331.953    23.330043    21.529503    21.697076    10898.099    1405.6408    3270.3297    2319.8885   -1075.7733     954.5029   -1612.2382   -5759.7744 
14371000    167.33669   -6557.3362   -6126.8728   -6557.3362            0    2480.7966    23.224987    21.616489    21.703437    10896.052    2456.8046    1803.9393    3181.6459   -248.68587    2.2833185   -588.32007    -5732.655 
14372000    172.78831   -6539.2139   -6094.7265   -6539.2139            0     2865.921    23.435862     21.43274    21.711656    10905.651    2918.4073    3026.3412    2653.0146   -817.52415    20.717658   -922.68446   -5638.9082 
14373000    173.24817   -6574.7407   -6129.0704   -6574.7407            0    1781.3439     23.59878    21.210348     21.79907    10911.271    829.25544    2910.4578    1604.3185   -298.28533     88.94759   -606.89251   -5845.6057 
14374000    172.13115   -6560.8002   -6118.0033   -6560.8002            0     2829.756     23.33678    21.423134    21.768902    10883.297    3285.0774    3484.0283    1720.1624   -939.76777   -670.90643   -586.37358   -5668.8596 
14375000    169.18361   -6538.4943   -6103.2798   -6538.4943            0    1634.0766    23.249649    21.697459    21.734487    10964.142    1776.8516     785.3644    2340.0137     885.4377   -784.33161    437.13205   -5841.9897 
14376000    168.19997   -6560.4192    -6127.735   -6560.4192            0    1280.4017    23.255622    21.547212    21.826842    10937.295    1081.9376    1043.9122    1715.3554    1002.5489    472.30184    613.94284   -5923.4991 
14377000    169.04153   -6561.8411    -6126.992   -6561.8411            0    3050.0285    23.433249    21.239139    21.852896    10876.231    3431.1039    4168.5838    1550.3978   -336.96629    -612.2271   -340.41791   -5643.2006 
14378000    172.31658   -6565.5738   -6122.2999   -6565.5738            0    2068.8574    23.351942    21.350743    21.934479    10936.122     1193.793     2855.028    2157.7514   -24.295804    551.58335    764.55237   -5792.3335 
14379000     177.3959   -6550.3762   -6094.0361   -6550.3762            0    2096.3585    23.209483    21.622726    21.768355    10924.499    2463.0941    1726.6616    2099.3197    63.159454   -656.50968   -1035.3567   -5760.0388 
14380000    162.41619   -6571.1145   -6153.3088   -6571.1145            0     2228.033     23.23236    21.473921    21.824241    10887.893    2148.3075    2625.6651    1910.1264    655.39216   -251.28647    1031.5553   -5799.5222 
14381000    156.40202   -6556.8581   -6154.5234   -6556.8581            0    414.62289    23.477578    21.438593    21.818745    10981.947   -223.53792     665.7098     801.6968    428.66448    -421.5505    212.26841   -6088.1172 
14382000    170.18148   -6534.0385    -6096.257   -6534.0385            0    2861.1807    23.408067    21.377391    21.775764    10896.667    2504.2351    3201.7938    2877.5131    917.17151      16.5402    399.06584   -5641.5676 
14383000      165.693    -6537.303   -6111.0679    -6537.303            0    484.59466    23.427953    21.589057    21.756253    11004.039   -262.19593    754.44275    961.53717    275.15787   -415.30784   -294.54574   -6033.2989 
14384000    161.16881    -6562.349    -6147.752    -6562.349            0      2985.54    23.129631    21.574093    21.750808    10853.671    4490.4007    1978.8008    2487.4186   -449.59991   -55.364426   -277.63815   -5675.1719 
14385000    159.61321   -6559.1819   -6148.5866   -6559.1819            0    1904.8532    23.410612    21.439045    21.773132     10927.96    1686.6971    1629.7406     2398.122    1202.5183   -236.83103    84.127899   -5845.0043 
14386000     171.7523   -6542.9869   -6101.1645   -6542.9869            0    4422.1333    23.296411    21.350486     21.75099    10818.718    4722.5366    5023.3891    3520.4743   -23.149902   -845.79413   -473.67698   -5403.4408 
14387000    166.58044   -6557.7514   -6129.2334   -6557.7514            0    1967.6556    23.252263    21.517778    21.845951    10930.339    2833.8294    1235.2898    1833.8478    188.88231    654.77604     355.9896   -5815.5738 
14388000    163.43584   -6564.4779   -6144.0492   -6564.4779            0    1979.1436    23.293404    21.552169    21.758891    10923.472    2491.6125    1835.7316    1610.0868    -135.2992    -391.2838   -973.56086   -5828.7565 
14389000    166.82486   -6561.4066   -6132.2598   -6561.4066            0    1765.9895    23.317725     21.36887     21.88798    10906.199     2250.142    1836.0943    1211.7322    554.54551    518.68008    1301.6186   -5851.3691 
14390000    168.10063   -6555.6041   -6123.1754   -6555.6041            0    1664.0853    23.413876    21.407098    21.831575    10942.491    813.82928    2152.1059    2026.3207    -526.5404    955.94443    -664.2287   -5857.6124 
14391000    178.74578   -6599.5766    -6139.764   -6599.5766            0    747.39832    23.353533    21.423146    21.872021    10942.707    655.16197    1710.0934   -123.06038   -10.393209    1190.9798    840.96276   -6020.4881 
14392000    174.87865   -6570.9796   -6121.1149   -6570.9796            0     1032.926     23.45403      21.5298    21.684886    10950.013    305.79457    1653.9796    1139.0038   -751.79166   -362.15731   -1005.3904   -5956.1621 
14393000    164.38161    -6541.388   -6118.5263    -6541.388            0    2739.4113    23.358043    21.344327    21.786719    10862.024    2937.6949    2326.4229    2954.1161     209.1795   -291.76156    335.47748   -5684.5722 
14394000    164.71642   -6553.8311   -6130.1081   -6553.8311            0    2254.3027      23.3147    21.639236    21.631894    10913.557    2358.4799    1260.4557    3143.9724   -409.16801   -70.397871   -802.61971   -5771.3065 
14395000    168.61354   -6534.4525   -6100.7044   -6534.4525            0    2263.1547     23.34097    21.520943     21.72643    10913.613    3161.0677    1215.2061    2413.1901    -1509.764    588.88059    379.34698    -5740.492 
14396000    164.16164   -6560.0829   -6137.7871   -6560.0829            0    1409.5893    23.543436    21.394482    21.729714    10945.249    1245.1545    1200.6451    1782.9684    -156.0276    274.10329   -447.09996   -5912.7811 
14397000     166.0878   -6571.3244   -6144.0737   -6571.3244            0    1061.4641    23.377521    21.352842    21.917913    10940.908    181.96019    2422.8695    579.56269   -125.68492    477.98891     970.1158   -5974.7045 
14398000    168.61534   -6578.2054   -6144.4527   -6578.2054            0    3469.7004    23.224347    21.426668    21.813636     10854.91    3665.3981    3878.6257    2865.0775   -21.214215    169.31919   -171.50882   -5595.1723 
14399000    174.92401   -6550.1863   -6100.2049   -6550.1863            0    1376.9681    23.206452    21.488924     21.96554    10953.812    2009.0348    1596.4536    525.41588    630.22056    -500.8826   -1029.1247   -5880.2341 
14400000    169.20432   -6570.4947   -6135.2269   -6570.4947            0    1331.9061    23.247138    21.454524    21.892719    10919.131    1337.6542    2141.2828    516.78142    201.54005    392.22863    -346.8444   -5923.1284 
14401000    176.81521   -6559.8251   -6104.9788   -6559.8251            0    1947.7262    23.429295    21.392975    21.749777    10901.474      1281.64    1595.8188    2965.7198    -93.33136    1453.9399    416.36302    -5795.316 
14402000    168.61982   -6578.8736   -6145.1094   -6578.8736            0    1659.4424    23.421635    21.505693    21.643818    10901.958    839.37542    1740.0417    2398.9102   -282.09952   -662.69769   -62.646573   -5881.2682 
14403000    172.66756   -6540.4034   -6096.2266   -6540.4034            0    2115.2453    23.444375    21.635376    21.517713    10914.384    2702.8147    784.88563    2858.0358   -638.64849    231.07992    -430.0383   -5759.5322 
14404000    166.41884   -6553.2603   -6125.1579   -6553.2603            0    2418.6539    23.372192    21.514576    21.658492    10890.817    1315.0467    2949.2283    2991.6866     726.7585    370.06966   -157.73771   -5740.9998 
14405000    159.28547   -6549.9516   -6140.1994   -6549.9516            0    2503.1684     23.48185    21.353267    21.763661    10912.609    1523.5794    2546.3075    3439.6185    229.04532   -376.92618    1102.6666   -5741.8221 
14406000    161.22876   -6577.6538   -6162.9026   -6577.6538            0    1382.5814    23.419372    21.395965    21.831422     10939.29    488.92615    2064.8684    1593.9497    1050.3621    1.0088696   -201.99436   -5942.3278 
14407000    167.54136   -6565.6483   -6134.6584   -6565.6483            0    2359.0738    23.197313    21.465813    21.853198    10881.782     2338.184    3064.3485     1674.689    1309.0625    232.37458   -920.86891   -5760.2742 
14408000      166.365   -6567.9629   -6139.9991   -6567.9629            0    1603.9133    23.270011    21.521789    21.824641    10930.048    1721.0709    1822.4853    1268.1837    49.006895   -1356.1472    88.092003   -5884.3297 
14409000    172.86656   -6568.7482   -6124.0595   -6568.7482            0    1874.4997    23.444249    21.406617    21.770833    10925.955     2005.007    1695.5342    1922.9579    909.65064   -1137.9156   -1058.0251   -5825.3695 
14410000    169.67173   -6566.3352    -6129.865   -6566.3352            0    3106.2044    23.370127    21.350116    21.774031     10864.26    2727.6336    4191.2188    2399.7607    216.45384   -314.09254   -400.57217   -5637.7053 
14411000    167.30445   -6581.7643   -6151.3838   -6581.7643            0    2211.9764    23.274017    21.501786    21.777812    10898.334    2212.6171    2424.7701    1998.5421   -268.67192   -864.72167   -1157.7663     -5799.81 
14412000    170.31269   -6557.9524   -6119.8334   -6557.9524            0    2836.5756    23.272107    21.494883    21.747019    10878.537    3222.3499    2890.3392    2397.0378     948.1142   -725.63111   -596.71935   -5669.8041 
14413000    161.22157   -6540.0378   -6125.3051   -6540.0378            0    3095.5644    23.346213    21.410887    21.753574    10873.809    3358.0108    3513.3489    2415.3335   -160.06685   -234.10377   -988.45367   -5634.4001 
14414000    163.84834   -6556.3651   -6134.8752   -6556.3651            0    2192.5552    23.340104     21.42401    21.813216     10907.45    1912.1547    3011.8659    1653.6449   -1202.8162    1164.8288   -738.08001   -5786.0968 
14415000    172.37324   -6572.6658   -6129.2462   -6572.6658            0    1240.3031    23.321689    21.549201    21.764049    10937.823    1722.6124    849.11401    1149.1829   -267.02848   -245.39967   -1049.0211   -5931.3969 
14416000    173.95949   -6549.8103   -6102.3101   -6549.8103            0    869.97213     23.32465    21.493475    21.894064    10976.103    1060.6505    1171.2548    378.01109   -114.04944    -260.6885   -55.670968   -5963.0491 
14417000    166.40618   -6558.6383   -6130.5686   -6558.6383            0    1988.7362    23.392862    21.269021    21.939674    10915.937     2594.116    1844.2122    1527.8805   -1569.9948    332.69473    898.57826   -5813.9662 
14418000    170.84271   -6541.4477   -6101.9652   -6541.4477            0    2301.7034    23.340838    21.424484    21.760185    10881.516    2324.7695     2251.627    2328.7137   -271.62945   -188.63179    532.59724   -5736.6946 
14419000    180.43873   -6547.2445   -6083.0768   -6547.2445            0    1101.8131    23.271588    21.621252    21.776799    10957.233    2047.7035    374.67356    883.06225    1021.9007   -1212.2444    19.387792   -5907.0071 
14420000    169.74816   -6566.1575   -6129.4907   -6566.1575            0    2527.7517    23.238207    21.524451    21.749304    10878.777    2790.9456    2556.1143    2236.1952    169.07426   -183.17882    -631.5007   -5728.4482 
14421000    165.94768   -6552.1095   -6125.2192   -6552.1095            0    1797.1612    23.450456    21.444218    21.764312    10944.765    1430.7307    2179.5049    1781.2481   -514.12489      212.579   -61.827034   -5838.3596 
14422000    174.77709   -6569.0623   -6119.4589   -6569.0623            0    1487.4353    23.455269     21.41764    21.692767    10897.502    206.98409    2539.3019    1716.0199    6.7061098    633.20795    1017.5877   -5883.0624 
14423000    170.50724   -6576.5996   -6137.9801   -6576.5996            0    1284.7871    23.510128    21.470413    21.668292     10937.55    1137.4036    1089.2923    1627.6655    16.448479     153.3483   -1559.4537   -5933.0399 
14424000    169.70584   -6575.4876   -6138.9297   -6575.4876            0    2511.5785    23.294452    21.490051    21.733374    10879.705    2965.8631    1474.8734     3093.999   -101.54051   -57.961981    846.26786   -5740.4192 
14425000    172.08481   -6566.0841   -6123.4065   -6566.0841            0    1458.5457    23.374735    21.539253    21.719195    10935.058     1731.866    1560.1692     1083.602   -676.71507   -15.191404   -659.41579   -5890.8026 
14426000    169.30161    -6575.021   -6139.5029    -6575.021            0    2124.8723    23.399002    21.421283    21.690963    10872.306    1937.5454    1746.2249    2690.8466    634.71517   -662.65663    793.97572   -5802.5801 
14427000    175.01263   -6541.5423    -6091.333   -6541.5423            0    3130.6522    23.339097    21.518528    21.667527     10881.93    2981.7381    3792.5029    2617.7156    24.140337   -388.84263    -1166.292   -5594.4929 
14428000    168.02785   -6547.6062   -6115.3648   -6547.6062            0    1273.8025     23.30498    21.486042    21.888306     10960.17    1803.7654    1701.4335    316.20873     604.4452   -144.02311   -353.72693   -5911.7566 
14429000    167.94282   -6553.1458   -6121.1231   -6553.1458            0     2104.248    23.346794    21.484594    21.767164    10918.331    2902.9149    1782.3013    1627.5278    496.15249   -2190.1619   -108.84219   -5786.0581 
14430000    177.10739   -6573.9059   -6118.3079   -6573.9059            0     2302.273    23.350451    21.477692    21.766389    10916.144    2444.2132    2244.9241    2217.6816     217.6589   -240.85263    381.26523   -5751.7843 
14431000     169.2655   -6563.4132    -6127.988   -6563.4132            0    2360.2661    23.288394    21.456055    21.753835    10869.893    2701.4241    2425.8666    1953.5078    -975.8132    1166.2508     394.5022   -5753.8239 
14432000    177.21911   -6564.1057   -6108.2203   -6564.1057            0    599.65923    23.476927    21.436747    21.800377    10971.453   -767.43652    2903.5077   -337.09349    1146.2652   -268.55033   -597.07975   -6012.2704 
14433000     169.4751   -6579.5505   -6143.5861   -6579.5505            0    1043.6646    23.442273    21.452912     21.75842    10942.419    848.15601    1862.9546    419.88324    20.561902   -563.96782   -32.406663    -5977.034 
14434000    165.82065   -6563.6229   -6137.0594   -6563.6229            0    3317.5514    23.311915    21.466546    21.652984    10835.723    3344.6204     2408.129    4199.9049    603.20908   -646.43493    586.14347   -5612.7937 
14435000    178.25244   -6570.1125    -6111.569   -6570.1125            0    1027.8587    23.434943    21.512432    21.725542    10952.772    964.64191    1319.0001      799.934     48.93919   -272.04335    486.75077    -5947.384 
14436000    171.63941   -6545.5938   -6104.0619   -6545.5938            0    2326.7356    23.404648    21.501611    21.690746    10915.599    2041.8545    2329.9122    2608.4401    1556.1117   -401.22606    236.57697   -5733.6623 
14437000    165.60793   -6573.6477   -6147.6314   -6573.6477            0    1779.7885    23.322386    21.473883    21.803392    10919.622    2085.9952    1539.9812    1713.3889   -591.79055    635.21471    666.40563   -5864.1974 
14438000    172.13812    -6548.651   -6105.8362    -6548.651            0    2382.4602    23.314079    21.411157    21.863689    10913.947    3070.8199    2378.1042    1698.4566   -440.77681    99.655037     529.5993    -5726.623 
14439000    169.77678   -6590.2795   -6153.5391   -6590.2795            0    2317.3042    23.339653    21.457458    21.698796    10866.966    2557.9784    1338.6776    3055.2565    436.60791   -436.22465    352.50714   -5786.2845 
14440000    175.17173   -6538.8628   -6088.2442   -6538.8628            0    1643.5861    23.357568    21.629601    21.715384    10970.935    1816.6432    1049.5369    2064.5783   -279.54527   -645.90853   -7.1174535   -5825.2707 
14441000    177.66696   -6561.7092   -6104.6718   -6561.7092            0       2075.9    23.326625    21.471641    21.773919    10905.705    1217.0362    2272.5628     2738.101    -998.0514   -274.74382   -624.12223   -5774.5029 
14442000    168.94881   -6552.2943   -6117.6838   -6552.2943            0    2479.7238     23.48154    21.334419    21.739632    10890.795     2336.923    2328.4889    2773.7597   -1009.8125    188.06486   -423.97898   -5723.8266 
14443000    168.09985   -6566.6282   -6134.2016   -6566.6282            0    1775.1383    23.422834     21.45085    21.712465    10909.204    1089.6607    1188.9004    3046.8539    -311.5451   -79.532282    993.91874   -5851.7779 
14444000    169.03527   -6560.0426   -6125.2097   -6560.0426            0       443.25    23.227834    21.655486    21.841044    10986.265    805.51697   -582.07097     1106.304   -657.04652    349.05737    997.12721   -6054.1907 
14445000     171.6144   -6547.2446    -6105.777   -6547.2446            0    3363.2354    23.228453    21.454672    21.790681    10859.578    3333.3678    3997.7104    2758.6281    373.57884    368.30419   -1319.8063   -5573.1219 
14446000    167.75557    -6563.899    -6132.358    -6563.899            0    1665.9589     23.41667    21.283918    21.964908    10947.277    1774.4107     1677.796    1545.6699    306.27697    188.45087    346.25533   -5866.3796 
14447000    168.63983   -6554.8009   -6120.9852   -6554.8009            0    2445.1246    23.359345    21.363213    21.868893    10913.248    3491.1061    3071.2359    773.03176   -478.13054   -63.467578   -241.61101   -5731.8228 
14448000    170.28403    -6546.855   -6108.8097    -6546.855            0    3162.3564    23.183086    21.508109    21.826586    10883.267     3772.242    2707.9968    3006.8303   -70.228695    315.86341      298.186   -5606.8765 
14449000    171.51289   -6553.4349   -6112.2284   -6553.4349            0    1844.6334    23.298516    21.630145    21.669723    10920.463    2775.4842    1173.7957    1584.6204   -607.81527   -1422.1579   -631.40409   -5818.4452 
14450000     164.1904   -6553.8855   -6131.5157   -6553.8855            0    2237.4158    23.482337    21.407017    21.699357     10907.98    2417.3594    879.38348    3415.5045   -112.83937   -140.13279    219.28009   -5775.5838 
14451000    168.22944   -6555.0217   -6122.2618   -6555.0217            0    2143.7761    23.392336    21.459931    21.734225    10910.536    1648.0809    1853.0822    2930.1652   -1115.9795    524.35371    257.89862   -5781.1463 
14452000    171.75204   -6566.8392   -6125.0175   -6566.8392            0    2033.9158    23.220413    21.599888    21.749321    10908.552    2294.0911    1807.2475    2000.4089   -497.54277    240.35072     783.6624   -5801.4418 
14453000    161.44768   -6576.9575   -6161.6432   -6576.9575            0    1709.2846    23.366183    21.462926    21.791991    10928.829    1902.2885    1415.6782    1809.8872   -217.08687    -23.27818   -448.60701   -5889.2076 
14454000     171.9583    -6572.635   -6130.2828    -6572.635            0    2916.4748    23.363851    21.346111    21.759937    10852.276    2675.6908    3777.8936    2295.8399    295.30318   -520.01187    18.845513   -5668.6943 
14455000    168.65694   -6571.6244   -6137.7647   -6571.6244            0    1913.7147    23.395847    21.559021    21.631862    10910.928    1160.9494    820.03914    3760.1556    296.09143    867.30988    549.94323   -5833.2454 
14456000    166.56461   -6575.9203    -6147.443   -6575.9203            0    3643.6457    23.265665    21.495912    21.625532    10815.289    3631.2835    3439.6945    3859.9592     668.3711    912.39201    373.68143   -5572.7311 
14457000    162.76029   -6565.4995   -6146.8085   -6565.4995            0    2089.3611    23.362729    21.502892    21.712194    10907.473    966.34865    2608.1386    2693.5962   -259.75205    436.16536    377.28904   -5814.4448 
14458000    172.87823   -6567.1028   -6122.3841   -6567.1028            0    2363.6411    23.373738    21.338333    21.849404    10897.534    1162.3145    3223.3726     2705.236   -181.55432    1696.6425   -313.38562   -5746.7321 
14459000    167.42493    -6541.705   -6111.0145    -6541.705            0    1979.8916    23.338089    21.475832    21.826523     10939.56    821.67461    2075.9555    3042.0446   -586.48055     1431.575   -120.47618   -5795.1382 
14460000    172.23731   -6568.5977   -6125.5277   -6568.5977            0    2482.3841    23.182751     21.52853    21.825606    10892.954    2781.9634    2234.0521    2431.1367    56.679082    1072.4985    908.89164   -5731.1698 
14461000    171.78739   -6554.6606    -6112.748   -6554.6606            0    1156.6345    23.373856    21.452044     21.84981    10955.866     1261.959    897.47222    1310.4723    846.32442    157.22333    221.38741   -5927.9409 
14462000    167.03978   -6570.4698   -6140.7701   -6570.4698            0    915.28497    23.442448    21.440777    21.828271    10971.419    -163.6787    1044.2173    1865.3163   -651.68383    471.78097    319.65861   -5994.3182 
14463000    170.33442   -6562.9799    -6124.805   -6562.9799            0    2365.5178    23.287973    21.580219    21.658987    10884.931     2316.901    1218.0314    3561.6212   -737.70888    488.51053    77.134735   -5749.2895 
14464000     173.5788   -6569.7809   -6123.2601   -6569.7809            0    1691.9844    23.358363    21.553328    21.688145    10918.906    1466.9777    1583.9039    2025.0717    30.979403    260.77201    73.422959   -5853.8267 
14465000     167.8135   -6585.1343   -6153.4443   -6585.1343            0    2454.5129    23.475699    21.300775    21.752089    10877.145    1200.6887    3289.9025    2872.9474    666.04284    290.96617    896.39294     -5764.08 
14466000    166.64401   -6558.8094   -6130.1278   -6558.8094            0    1168.0265    23.533827     21.38398    21.761678    10951.497   -481.29099    869.06833    3116.3021    906.87682    -179.4897    124.76419   -5943.5749 
14467000    172.62127   -6572.4906   -6128.4329   -6572.4906            0    2701.3181    23.250062    21.545515    21.726815    10883.712    3738.0142    1621.8241     2744.116   -163.41377   -676.81383   -383.04152   -5699.6587 
14468000    178.80192   -6570.9564   -6110.9993   -6570.9564            0     2208.234    23.137511    21.706494    21.721797     10909.43    2764.7953    1321.9488     2537.958   -114.10705    -290.0266   -541.31874    -5759.663 
14469000     169.4699   -6569.3444   -6133.3934   -6569.3444            0    1427.5264    23.338507    21.406381    21.856592      10919.4    1678.9843    2217.8543    385.74073   -103.86427   -16.171325   -512.80435   -5906.0623 
14470000    163.08485   -6575.0197   -6155.4939   -6575.0197            0    915.61732    23.481456    21.293821    21.861129    10930.781    528.27404    1993.1538    225.42417    66.140653    783.33348   -301.57853   -6009.5314 
14471000    166.46572   -6563.6831   -6135.4602   -6563.6831            0    1263.0309    23.379094    21.380424    21.844927    10919.294    945.70292    2712.7549      130.635   -558.75807    1018.1323    554.84136   -5934.3267 
14472000    174.27539   -6589.2685   -6140.9556   -6589.2685            0    1702.1264    23.080236    21.650969    21.837446    10912.378     2687.237    1631.4258    787.71627    748.08106   -78.619391   -1070.1915   -5870.0693 
14473000    173.15108     -6587.81   -6142.3894     -6587.81            0    1217.9222    23.363688    21.483797    21.797616    10941.111    1445.4938    872.16933    1336.1036   -3.6006368    469.97068   -926.14055   -5948.0518 
14474000    170.69755   -6540.3156   -6101.2066   -6540.3156            0     3246.212    23.371691    21.305843    21.781119    10845.986    2768.7689    4317.5864    2652.2808   -201.30196   -256.42872    154.79302   -5587.7286 
14475000    164.62429   -6556.6866   -6133.2007   -6556.6866            0    1567.1107    23.440582    21.406859    21.814462    10946.262    897.04082    2006.4817    1797.8095    217.41309    735.52632    -508.5499   -5883.0271 
14476000    169.88185   -6568.8561   -6131.8454   -6568.8561            0    2056.2696    23.291352     21.50552    21.753108    10895.972    1682.0115    1975.3328    2511.4645    -456.4846    574.60974    668.33538   -5805.0906 
14477000    174.25152   -6533.5574    -6085.306   -6533.5574            0    1483.1269    23.319217    21.595196    21.774672    10965.356    3134.4276   -235.18171    1550.1348   -955.73098   -95.880145   -650.93069   -5848.1266 
14478000     172.9476   -6539.7406   -6094.8434   -6539.7406            0    1834.7051    23.456313    21.387774    21.802375    10937.779      2138.99    1808.7352      1556.39    253.13186    112.45696   -650.30017   -5802.1781 
14479000    167.31345    -6541.948   -6111.5444    -6541.948            0    2534.8605     23.41589    21.365894    21.808481    10910.814    2382.8908    3464.2881    1757.4027   -468.22108   -137.32842   -783.00151   -5708.1897 
14480000    172.83103   -6545.1569   -6100.5596   -6545.1569            0    1257.2523     23.33738    21.415925    21.930641     10960.75     1780.804    1800.2381    190.71466   -231.07713    217.83101    394.74349   -5899.5862 
14481000    173.73461   -6551.0544   -6104.1327   -6551.0544            0    3005.9788    23.070262    21.511808    21.931738    10884.349    4060.7845    2912.3222    2044.8298    655.43095   -397.19647   -896.16809   -5626.9724 
14482000    176.48854   -6571.5864   -6117.5804   -6571.5864            0    833.54538    23.217791    21.497133    21.978323    10969.732    2591.9099    238.02365   -329.29743   -901.36564   -961.06534    625.91635   -5984.2279 
14483000    164.69072   -6562.9439   -6139.2871   -6562.9439            0    2607.5889    23.344127     21.32919      21.8743    10891.461    2131.8941    4032.0697    1658.8028    995.48106    -412.1522   -588.53762   -5725.0956 
14484000    166.54243    -6548.129   -6119.7088    -6548.129            0    2854.8587    23.344172    21.359304    21.832201    10885.869    3234.4166    2777.7162    2552.4433   -209.97916    -515.9578    763.76911   -5666.4736 
14485000    165.76139   -6561.4272   -6135.0161   -6561.4272            0    2160.2883    23.202723    21.597712    21.811338    10930.223    2719.8927    1658.3031     2102.669    250.70802   -59.455273    674.86956    -5790.653 
14486000    170.54446   -6565.3077   -6126.5925   -6565.3077            0    2658.0038    23.245252    21.556638    21.753351    10900.375    2890.4602    2400.7773    2682.7738    960.06131     442.1109   -435.18773   -5704.0475 
14487000    169.81274   -6578.9576   -6142.1247   -6578.9576            0    2232.5536    23.400671    21.375758     21.80438    10906.705    917.54264    3295.0343     2485.084    1140.1559   -263.42216    528.94702   -5787.0078 
14488000    178.85254   -6561.7315   -6101.6442   -6561.7315            0    2750.8401    23.497727     21.40138    21.676617    10900.819    1802.3817    3116.8372    3333.3015    555.64103   -289.80359      19.5839   -5664.3232 
14489000    166.54091   -6557.3664     -6128.95   -6557.3664            0    1738.4916    23.292301     21.61488    21.670572    10910.272    2276.4783    955.00525    1983.9912   -944.53588   -57.783858    877.67132   -5852.3297 
14490000    177.00592   -6571.2353   -6115.8984   -6571.2353            0    2656.7129    23.303257    21.624953    21.606312    10888.109    2815.7537    2478.8462    2675.5389   -1040.4122    -1028.947   -913.78004   -5694.0339 
14491000    163.47351   -6554.8083   -6134.2826   -6554.8083            0    2211.1623    23.367202      21.4223    21.837433    10931.365    1474.6928    2778.5753    2380.2188    1287.2645    319.74634   -117.28271    -5781.773 
14492000    171.76331   -6573.4744   -6131.6238   -6573.4744            0    2305.0821    23.439924    21.355468    21.804488    10914.684    2447.7646    1409.1309    3058.3509   -434.39848   -1178.7155    649.27863    -5764.702 
14493000    169.20465   -6556.3323   -6121.0636   -6556.3323            0    1450.3288    23.454441    21.329801    21.882311    10947.251    912.91819    1631.4203    1806.6478    647.22889    546.25234    598.80124   -5889.5122 
14494000    170.43997   -6564.5295   -6126.0831   -6564.5295            0    1734.4759    23.335389    21.563973    21.708537    10923.816    1838.5426    1103.2497    2261.6355   -394.02054    326.25398   -467.20458   -5849.7591 
14495000    181.44252   -6561.3784   -6094.6286   -6561.3784            0    1075.0297    23.340732      21.5241    21.816198    10960.201    693.97334    577.22243    1953.8933     372.7471   -129.01717    1233.8691   -5922.7923 
14496000    167.25203   -6566.4683   -6136.2226   -6566.4683            0    2135.8328    23.490489    21.376265    21.703489    10898.166    1608.2352    2573.4343    2225.8289   -162.25082    280.92693   -73.758176   -5796.7564 
14497000    169.85433    -6559.623   -6122.6831    -6559.623            0    1745.4839    23.481496    21.276804    21.880293     10931.64    1193.6587    3155.5129    887.27995    257.96114   -1075.6889    387.01158   -5844.4062 
14498000    176.19001   -6569.2799   -6116.0418   -6569.2799            0    1187.5361     23.28689    21.542869    21.834839    10953.805    2306.7161    896.49911    359.39311    63.865051     30.37254    144.64319   -5926.3329 
14499000    168.75003   -6565.2484   -6131.1492   -6565.2484            0    2704.7809    23.077055     21.60795    21.809101    10875.061    4561.0039    2297.0303    1256.3085   -145.21369   -929.31272   -465.84068   -5702.1666 
14500000    175.05366   -6539.0653   -6088.7505   -6539.0653            0     1515.359    23.342929    21.370539    21.976686    10963.091    1544.4602    1860.8341    1140.7826    297.80232     242.4537     814.2147   -5846.4666 
Loop time of 542.913 on 64 procs for 250000 steps with 1296 atoms

Performance: 79.571 ns/day, 0.302 hours/ns, 460.479 timesteps/s
196.3% CPU use with 32 MPI tasks x 2 OpenMP threads

MPI task timing breakdown:
Section |  min time  |  avg time  |  max time  |%varavg| %total
---------------------------------------------------------------
Pair    | 38.344     | 47.364     | 57.545     |  74.4 |  8.72
Bond    | 0.61277    | 0.95554    | 1.5658     |  22.5 |  0.18
Kspace  | 281.84     | 295.78     | 306.66     |  35.6 | 54.48
Neigh   | 2.0039     | 2.2138     | 2.4039     |   8.1 |  0.41
Comm    | 68.998     | 75.968     | 84.314     |  46.9 | 13.99
Output  | 0.49951    | 0.4998     | 0.50122    |   0.0 |  0.09
Modify  | 100.57     | 106.21     | 111.02     |  22.8 | 19.56
Other   |            | 13.92      |            |       |  2.56

Nlocal:        40.5000 ave          52 max          27 min
Histogram: 1 1 2 3 9 4 4 5 1 2
Nghost:        3027.53 ave        3075 max        2983 min
Histogram: 2 2 0 7 8 5 3 1 1 3
Neighs:        12741.9 ave       16459 max        8562 min
Histogram: 1 2 1 5 6 6 3 5 1 2

Total # of neighbors = 407742
Ave neighs/atom = 314.61574
Ave special neighs/atom = 2.0000000
Neighbor list builds = 4883
Dangerous builds = 0

unfix		3
unfix		2
unfix		1

write_data	data.final.${pid}
write_data	data.final.0
System init for write_data ...
PPPM initialization ...
  extracting TIP4P info from pair style
  using 12-bit tables for long-range coulomb (../kspace.cpp:340)
  G vector (1/distance) = 0.36708829
  grid = 30 40 32
  stencil order = 5
  estimated absolute RMS force accuracy = 0.0045535045
  estimated relative force accuracy = 1.3712743e-05
  using double precision FFTW3
  3d grid and FFT values/proc = 7752 1200
Last active /omp style is kspace_style pppm/tip4p/omp
WARNING: Not all mixed pair coeffs generated from mixing. Use write_data with 'pair ij' option to store all pair coeffs. (../write_data.cpp:312)

write_restart   restart.lmp.${pid}
write_restart   restart.lmp.0
System init for write_restart ...
PPPM initialization ...
  extracting TIP4P info from pair style
  using 12-bit tables for long-range coulomb (../kspace.cpp:340)
  G vector (1/distance) = 0.36708829
  grid = 30 40 32
  stencil order = 5
  estimated absolute RMS force accuracy = 0.0045535045
  estimated relative force accuracy = 1.3712743e-05
  using double precision FFTW3
  3d grid and FFT values/proc = 7752 1200
Last active /omp style is kspace_style pppm/tip4p/omp
Total wall time: 0:09:03
