LAMMPS (30 Jul 2021)
Processor partition = 1
  using 2 OpenMP thread(s) per MPI task
using multi-threaded neighbor list subroutines
variable        pid world 0 1
variable        phase world IceIh Liquid

shell cd ${phase}
shell cd Liquid
include Restart.lmp
echo both
log log.lammps
#include		in.partitions
include		in.temp
variable        temperature equal 262.00
variable	tempDamp equal 100.0
include		in.pressure
variable        pressure equal 712.0
variable        pressureDamp equal 1000.0 # This is 1 ps
include		in.seed
variable        seed equal 745823

units		real
atom_style	full
read_restart	restart.lmp.${pid}
read_restart	restart.lmp.1
Reading restart file ...
  restart file = 30 Jul 2021, LAMMPS = 30 Jul 2021
  restoring atom style full from restart
  orthogonal box = (0.096924344 1.2056953 0.11824747) to (18.110648 22.423482 22.094948)
  2 by 4 by 4 MPI processor grid
  restoring pair style lj/cut/tip4p/long/omp from restart
  restoring bond style harmonic/omp from restart
  restoring angle style harmonic/omp from restart
  864 atoms
  576 bonds
  288 angles
Finding 1-2 1-3 1-4 neighbors ...
  special bond factors lj:    0        0        0       
  special bond factors coul:  0        0        0       
     2 = max # of 1-2 neighbors
     1 = max # of 1-3 neighbors
     1 = max # of 1-4 neighbors
     2 = max # of special neighbors
  special bonds CPU = 0.002 seconds
  read_restart CPU = 0.007 seconds
include 	in.setup
variable	out_freq equal 1000
variable	out_freq2 equal 10000
variable	out_freq3 equal 1000

timestep	2.0

neigh_modify    delay 7 every 1

include		in.tip4p
# This is TIP4P/Ice

# create groups ###
group ox type 2
288 atoms in group ox
group hy type 1
576 atoms in group hy

# set charges - beside manually ###
set group ox charge -1.1794
Setting atom values ...
  288 settings made for charge
set group hy charge 0.5897
Setting atom values ...
  576 settings made for charge

# ### TIP3P Potential Parameters ###
pair_style lj/cut/tip4p/long/omp 2 1 1 1 0.1577 8.5
pair_coeff 1 1*2 0.000 0.000
pair_coeff 2 2 0.21084 3.1668
bond_style  harmonic
bond_coeff  1 450 0.9572
angle_style harmonic
angle_coeff 1 55 104.52
kspace_style pppm/tip4p/omp 1.0e-5
pair_modify tail yes

thermo          ${out_freq}
thermo          1000
thermo_style    custom step temp pe etotal epair emol press lx ly lz vol pxx pyy pzz pxy pxz pyz enthalpy

restart 	${out_freq3} restart.lmp.${pid} restart2.lmp.${pid}
restart 	1000 restart.lmp.${pid} restart2.lmp.${pid}
restart 	1000 restart.lmp.1 restart2.lmp.${pid}
restart 	1000 restart.lmp.1 restart2.lmp.1


include         in.dump
dump            myDump all atom ${out_freq2} dump.water.${pid}
dump            myDump all atom 10000 dump.water.${pid}
dump            myDump all atom 10000 dump.water.1
dump            myDump2 all dcd ${out_freq2} dump.dcd
dump            myDump2 all dcd 10000 dump.dcd
dump_modify     myDump append yes
dump_modify     myDump2 append yes


variable natoms 	equal  "count(all)"                        # NUMBER ATOMS
variable H      	equal  "enthalpy/v_natoms"                 # ENTHALPY-per-atom
variable Vol      	equal  "vol/v_natoms"                 # volume-per-atom
fix AVG all 		ave/time ${out_freq} 1 ${out_freq} v_Vol v_H file vol_enthalpy.dat
fix AVG all 		ave/time 1000 1 ${out_freq} v_Vol v_H file vol_enthalpy.dat
fix AVG all 		ave/time 1000 1 1000 v_Vol v_H file vol_enthalpy.dat


timer           timeout 23:50:00 every 1000
New timer settings: style=normal  mode=nosync  timeout=23:50:00

fix 		1 all shake 1e-6 200 0 b 1 a 1
Finding SHAKE clusters ...
       0 = # of size 2 clusters
       0 = # of size 3 clusters
       0 = # of size 4 clusters
     288 = # of frozen angles
  find clusters CPU = 0.001 seconds
fix             2 all nph iso ${pressure} ${pressure} ${pressureDamp}
fix             2 all nph iso 712 ${pressure} ${pressureDamp}
fix             2 all nph iso 712 712 ${pressureDamp}
fix             2 all nph iso 712 712 1000
fix             3 all temp/csvr ${temperature} ${temperature} ${tempDamp} ${seed}
fix             3 all temp/csvr 262 ${temperature} ${tempDamp} ${seed}
fix             3 all temp/csvr 262 262 ${tempDamp} ${seed}
fix             3 all temp/csvr 262 262 100 ${seed}
fix             3 all temp/csvr 262 262 100 745823

run             250000
PPPM initialization ...
  extracting TIP4P info from pair style
  using 12-bit tables for long-range coulomb (../kspace.cpp:340)
  G vector (1/distance) = 0.37233781
  grid = 24 25 25
  stencil order = 5
  estimated absolute RMS force accuracy = 0.0032079664
  estimated relative force accuracy = 9.6606955e-06
  using double precision FFTW3
  3d grid and FFT values/proc = 4116 672
Last active /omp style is kspace_style pppm/tip4p/omp
Neighbor list info ...
  update every 1 steps, delay 7 steps, check yes
  max neighbors/atom: 2000, page size: 100000
  master list distance cutoff = 10.8154
  ghost atom cutoff = 10.8154
  binsize = 5.4077, bins = 4 4 5
  1 neighbor lists, perpetual/occasional/extra = 1 0 0
  (1) pair lj/cut/tip4p/long/omp, perpetual
      attributes: half, newton on, omp
      pair build: half/bin/newton/omp
      stencil: half/bin/3d
      bin: standard
Setting up Verlet run ...
  Unit style    : real
  Current step  : 1750000
  Time step     : 2
  Walltime left : 23:49:59.94
Per MPI rank memory allocation (min/avg/max) = 10.20 | 10.21 | 10.22 Mbytes
Step Temp PotEng TotEng E_pair E_mol Press Lx Ly Lz Volume Pxx Pyy Pzz Pxy Pxz Pyz Enthalpy 
 1750000      273.425   -3815.2238   -3346.5827   -3815.2238            0   -725.86761    18.013724    21.217787    21.976701    8399.7446    86.025064   -1073.8699   -1189.7579    363.12113   -40.866318   -901.71314   -3435.5027 
 1751000     253.2048   -3851.0173   -3417.0329   -3851.0173            0     646.5102    18.055479    21.266969    22.027642     8458.291    1944.9301    640.67093   -646.07045   -402.94082   -1441.5387    817.46568   -3337.2823 
 1752000    267.86505   -3874.4902   -3415.3786   -3874.4902            0    1743.6652    18.046104    21.255927    22.016205    8445.1229    2175.2836    1910.0099    1145.7023   -1545.1735   -65.608534    53.987371   -3200.6228 
 1753000    257.04596    -3869.253    -3428.685    -3869.253            0    1982.1393    18.009796    21.213161    21.971909    8394.2511    2558.0113      1206.08    2182.3267    1278.5037    101.54701     490.4955   -3186.0285 
 1754000    252.18432   -3903.6072   -3471.3719   -3903.6072            0   -54.640792    17.950497    21.143314    21.899564    8311.6075    169.26669   -115.73796   -217.45111    596.68185   -813.07582   -473.47554   -3477.9952 
 1755000    264.10762   -3871.9873   -3419.3158   -3871.9873            0    582.25061    18.101818    21.321551    22.084176     8523.583    1875.5855    -677.2291    548.39545   -853.62619   -900.66772    56.923262   -3346.9376 
 1756000    268.84148   -3868.2528   -3407.4677   -3868.2528            0    1290.2513    18.003963     21.20629    21.964793    8386.0979    2095.0902   -34.971381    1810.6351   -703.31458    527.83638    580.34155   -3249.6665 
 1757000    270.22506   -3854.7476   -3391.5911   -3854.7476            0    827.38231    18.015164    21.219484    21.978458      8401.76    2408.1404   -351.69611     425.7026   -679.12512   -274.77792    43.767964   -3290.2111 
 1758000    261.14996   -3836.3081    -3388.706   -3836.3081            0    1312.5676    17.972357    21.169063    21.926234      8342.01    1137.0229    2636.1589    164.52102   -378.30809   -645.68156    -1028.151   -3229.0195 
 1759000     267.1664   -3831.4833   -3373.5692   -3831.4833            0    1917.3939    17.872666     21.05164    21.804611    8203.9616    1813.4933    1435.5625     2503.126    104.02983    383.09607    688.49546     -3144.16 
 1760000    266.33373   -3848.3453   -3391.8584   -3848.3453            0    288.54976     17.88464    21.065744    21.819219    8220.4617    1330.2062   -354.05919   -110.49777   -598.50816   -543.56639   -158.84362   -3357.2651 
 1761000    259.89027   -3834.1228   -3388.6797   -3834.1228            0    618.28571    17.952394    21.145549    21.901879    8314.2434     775.2803   -4.9618653    1084.5387   -403.88787      600.007    310.20551   -3313.7097 
 1762000    265.43571   -3825.3902   -3370.4425   -3825.3902            0     622.0279     17.95595    21.149738    21.906217    8319.1848   -828.79569    805.83076    1889.0486   -804.95706   -719.16788    1633.2505   -3294.9739 
 1763000    276.54396   -3879.7912   -3405.8044   -3879.7912            0     2327.788    18.013105    21.217058    21.975946    8398.8786    1913.0462    2616.5046    2453.8132    1549.6838     561.7227    580.35441   -3120.6759 
 1764000     264.2802   -3903.4422   -3450.4749   -3903.4422            0    -190.7202    18.079645    21.295434    22.057125    8492.2991     92.78922    27.642026   -692.59184   -911.82102    332.67121     109.3771   -3474.0959 
 1765000    264.65823   -3881.4824   -3427.8672   -3881.4824            0    924.36701    18.100068    21.319489    22.082041    8521.1107   -247.09453    3060.3478    -40.15223   -338.00946   -234.02429   -640.16518   -3312.9946 
 1766000    266.50231   -3867.8296   -3411.0537   -3867.8296            0    2256.3489    18.166961    21.398281     22.16365    8615.9359     699.7842    3159.4822    2909.7802    776.15216   -156.73512    262.35791   -3127.5331 
 1767000    275.24534   -3889.3186   -3417.5575   -3889.3186            0    1978.8111    18.097191    21.316101    22.078531    8517.0487    2338.6725    2121.1276    1476.6333    22.041722   -142.02914   -1157.5354   -3171.7646 
 1768000    248.72441   -3878.6802   -3452.3751   -3878.6802            0   -314.24806    18.210168    21.449172    22.216362    8677.5563    -986.7738   -1250.3302    1294.3598   -827.23461   -377.56104    175.17759   -3492.1442 
 1769000    265.33063   -3904.5152   -3449.7476   -3904.5152            0   -348.96689    18.142513    21.369484    22.133824    8581.1981    -2187.519    585.25374    555.36459   -706.24046    654.39231   -1538.3658   -3493.4201 
 1770000    251.59613   -3886.9801   -3455.7529   -3886.9801            0    825.42951    18.050386    21.260971    22.021429    8451.1362    744.35501    867.85766    864.07588   -1414.6389   -41.714054   -556.81835   -3354.0178 
 1771000    256.11676   -3878.4658   -3439.4904   -3878.4658            0    1469.5766    17.942586    21.133996    21.889912    8300.6226    1250.5845    1368.1405    1790.0047   -234.02823    192.00729    1300.8657   -3261.5893 
 1772000    273.00524   -3877.0728   -3409.1511   -3877.0728            0    347.64941    18.014831    21.219092    21.978052    8401.2941    194.83288   -320.54304    1168.6584   -445.06475   -430.46224   -1028.8483   -3366.5556 
 1773000    249.56218   -3871.4481   -3443.7071   -3871.4481            0   -360.71142     17.96605    21.161634    21.918539    8333.2309   -187.72368   -1352.0713    457.66073   -1975.1625    490.02049    -141.4669   -3487.5449 
 1774000    274.62825   -3834.4481   -3363.7446   -3834.4481            0    405.20141    18.092073    21.310073    22.072287    8509.8247   -201.71579    1441.5132   -24.193176    176.46711   -597.49617   -594.57344   -3313.4563 
 1775000    267.43036   -3842.6049   -3384.2384   -3842.6049            0    1875.6638    17.992167    21.192396    21.950401    8369.6248    2739.6334    1207.6377    1679.7201   -668.74683    274.09488    206.27856   -3155.2904 
 1776000    281.50439   -3863.5331   -3381.0442   -3863.5331            0    389.99877    18.100606    21.320122    22.082697      8521.87   -1107.4353    2659.5621   -382.13051   -64.979928   -735.77144   -906.01952   -3332.5741 
 1777000    261.46159    -3825.442   -3377.3057    -3825.442            0   -446.74536    18.212648    21.452094    22.219388    8681.1024    271.60784    446.95294   -2058.7969   -1243.3833   -22.045682    646.48397   -3433.8659 
 1778000    250.67043   -3876.2581   -3446.6176   -3876.2581            0    1158.1551    18.087126    21.304246    22.066252    8502.8461    689.64487     1187.278    1597.5424    632.23063   -161.65669    1317.1247   -3303.0002 
 1779000     260.5414   -3922.8285   -3476.2695   -3922.8285            0     1521.138    18.029086    21.235882    21.995443    8421.2534    1806.7937    2244.1607    512.45972   -320.40358    987.65498    -741.0764   -3289.4504 
 1780000    256.47723   -3831.4218   -3391.8286   -3831.4218            0    258.41733    17.952465    21.145632    21.901965     8314.341   -465.00667    1008.4579    231.80078   -313.50654    -907.6861   -145.33064    -3360.494 
 1781000    278.15984   -3860.0629   -3383.3064   -3860.0629            0    1220.2957    18.050673    21.261309    22.021779    8451.5388    941.45821    1538.7988      1180.63   -117.45751    309.53205   -423.95519   -3232.8964 
 1782000    257.60755   -3853.6662   -3412.1357   -3853.6662            0     704.6235    18.132934    21.358201    22.122137     8567.613    -155.3648    697.37849    1571.8568   -52.644951    1031.7382   -154.53411   -3324.0931 
 1783000    255.61259   -3854.0599   -3415.9486   -3854.0599            0     303.5887    18.080383    21.296303    22.058025    8493.3396    254.22504    1781.4993   -1124.9583   -810.00389   -210.23709   -935.83032   -3378.3441 
 1784000    251.71958   -3909.7975   -3478.3587   -3909.7975            0    693.14682    18.104729    21.324979    22.087727    8527.6951    449.18301    1704.9343    -74.67684   -100.77013   -1073.1184   -770.19369   -3392.1536 
 1785000    256.77206   -3914.8003   -3474.7017   -3914.8003            0    -28.80525    18.161521    21.391873    22.157014    8608.1984    695.05599   -801.07954    19.607798    796.29317   -808.63987   -665.15302    -3478.318 
 1786000    257.29761   -3895.9347   -3454.9354   -3895.9347            0   -8.0747797    18.068663    21.282498    22.043727    8476.8332   -1003.2716    974.96016    4.0871402   -618.03381   -188.79387   -890.91146   -3455.9337 
 1787000    270.81568   -3902.7526   -3438.5838   -3902.7526            0    1054.3186     18.14867    21.376736    22.141335    8589.9374     1386.976    946.20519    829.77451     568.4824    25.235785   -376.93952   -3306.5036 
 1788000    254.83651   -3877.2115   -3440.4304   -3877.2115            0    514.44573    18.169689    21.401493    22.166978    8619.8171    203.08931     1381.384   -41.136173   -269.97256     626.5059    600.95665   -3375.7588 
 1789000     262.2433   -3883.3214   -3433.8453   -3883.3214            0      1041.38    18.153187    21.382057    22.146846    8596.3535     923.8439    2048.6617    151.63429    604.31377    479.05967    1428.7222   -3303.2886 
 1790000    257.66376   -3894.3323   -3452.7055   -3894.3323            0    1456.1547    18.098904    21.318118    22.080621    8519.4668    1070.7362    2936.8583    360.86955    821.16692    371.62947   -816.13616   -3271.7816 
 1791000    257.67466   -3880.0332   -3438.3876   -3880.0332            0    -342.1263    18.208722    21.447469    22.214598    8675.4889    198.49159   -874.02736   -350.84314    742.03774   -732.62331   -326.71578   -3481.6745 
 1792000    263.83027   -3885.0985   -3432.9024   -3885.0985            0    1252.1155    18.094876    21.313373    22.075706    8513.7795    1087.5881    558.05609    2110.7024     1160.979   -89.008251    1287.9171   -3277.4338 
 1793000    275.44381   -3882.1256   -3410.0243   -3882.1256            0    347.21018    18.178241    21.411566    22.177411    8631.9939   -272.59602    1008.4597    305.76687    244.95788    176.90881    273.88197   -3366.3145 
 1794000    265.93149   -3880.0862   -3424.2887   -3880.0862            0    1291.7815    18.089443    21.306975    22.069079     8506.114   -65.239774    1766.1376    2174.4465    506.45217   -1067.9578    647.82371   -3264.0394 
 1795000    252.26881   -3905.0364   -3472.6563   -3905.0364            0   -121.57064    18.063673    21.276621    22.037639    8469.8123   -576.85547    244.25343    -32.10989    180.33783    212.34865     836.5147   -3487.6731 
 1796000    273.11781   -3862.6005   -3394.4859   -3862.6005            0    2649.6183    17.971446    21.167989    21.925122    8340.7411    2969.2079    2453.1193    2526.5279    777.95683    70.251784   -68.143632   -3072.1833 
 1797000    253.69747    -3876.233   -3441.4042    -3876.233            0    135.42575    18.058643    21.270696    22.031502    8462.7386     -1992.53    1749.9441    648.86313   -1507.6482   -1166.7414    122.14377   -3424.6899 
 1798000    266.72844   -3862.0171   -3404.8537   -3862.0171            0    1142.8234    17.921633    21.109317    21.864351    8271.5773    1056.0947    1564.3471    808.02843    -414.3481   -783.08659    137.52569   -3266.9921 
 1799000    268.09963   -3843.6468   -3384.1332   -3843.6468            0   -159.36523    18.040721    21.249587    22.009638    8437.5677    245.91915   -1442.7163    718.70144     209.2097   -487.07269    1165.9069   -3403.7436 
 1800000    260.52091   -3865.9809   -3419.4569   -3865.9809            0    947.21552    17.978961    21.176842    21.934291    8351.2097    1186.8435     537.3965    1117.4066    161.96117    350.34137     1615.187   -3304.0919 
 1801000    272.69193   -3862.6578   -3395.2731   -3862.6578            0   -444.65339    17.956591    21.150493    21.906999    8320.0758    -424.1225   -651.00723   -258.83045    320.55113   -424.88594   -633.98441   -3449.2273 
 1802000    260.02583   -3886.1312   -3440.4558   -3886.1312            0    3050.4142    17.901563    21.085676    21.839865    8243.8186    2649.9759    4889.9276    1611.3391   -508.90753    447.03957    777.63197   -3073.7118 
 1803000    252.50376   -3870.9157   -3438.1329   -3870.9157            0    1773.9464    17.887597    21.069226    21.822826    8224.5391    2429.1051    2255.3794    637.35472    635.15778    304.32131   -20.486301   -3225.3543 
 1804000    262.49821   -3828.1755   -3378.2625   -3828.1755            0    2077.2679    17.872176    21.051063    21.804013    8203.2871    1527.4435     2675.451     2028.909   -587.51819    232.80649    -438.5348   -3129.7454 
 1805000    254.55572   -3828.9178    -3392.618   -3828.9178            0   -639.99692    18.072997    21.287603    22.049014    8482.9341   -686.48627   -55.347031   -1178.1575    2377.4124    843.47421   -1408.2076   -3471.7951 
 1806000    262.89512   -3810.3693    -3359.776   -3810.3693            0    1018.7422    18.087711    21.304934    22.066965    8503.6703   -554.60438    1804.7767    1806.0543    1081.5867    -245.1703   -207.87406   -3233.4344 
 1807000    262.47978   -3860.2204    -3410.339   -3860.2204            0    1508.2222    17.867679    21.045765    21.798526    8197.0955    1309.6145    2687.0164    528.03565    17.365548    563.69304    807.22511   -3230.0367 
 1808000    266.29579    -3862.918   -3406.4962    -3862.918            0    381.34602    17.942912     21.13438     21.89031     8301.075    613.03847    701.82861   -170.82902   -767.02564    417.82503   -614.50588   -3360.3294 
 1809000    272.97765   -3884.2087   -3416.3343   -3884.2087            0    1207.4827    17.879305     21.05946     21.81271    8213.1072    1744.4053    1349.8731    528.16962   -1007.4991    684.66848   -753.09767   -3271.7024 
 1810000    251.22589   -3849.1549   -3418.5624   -3849.1549            0   -119.76514     17.88793    21.069619    21.823233    8224.9992    768.91565    545.24703   -1673.4581    199.95267    339.69469    1456.3545   -3432.9286 
 1811000    260.68401   -3855.7371   -3408.9336   -3855.7371            0    996.56744    17.901101    21.085132    21.839301    8243.1807   -32.617267    2092.2022    930.11739   -706.28079   -88.939108    158.23744   -3289.1279 
 1812000    270.84781   -3832.6612   -3368.4373   -3832.6612            0   -127.30973    17.994779    21.195472    21.953588    8373.2706   -381.03179    658.52978   -659.42719   -124.53916     1048.325     13.61222   -3383.9838 
 1813000    263.97744   -3787.9524   -3335.5042   -3787.9524            0    1293.9667    17.885865    21.067187    21.820714    8222.1514    1327.9265     1099.711    1454.2625   -1288.9132    857.89372    1453.8379   -3180.3425 
 1814000    273.14207   -3846.5336   -3378.3774   -3846.5336            0   -344.10334    17.884154    21.065171    21.818626     8219.791   -1212.9197    -386.3829     566.9926    81.222227   -506.61602   -699.71196   -3419.6276 
 1815000     254.6173    -3862.439   -3426.0336    -3862.439            0    1200.3594    17.866955    21.044913    21.797643    8196.0994    429.28219    869.17782    2302.6181    -965.5313    672.15143    1528.9129   -3282.5526 
 1816000    287.02554    -3851.485   -3359.5331    -3851.485            0    55.408346    17.941125    21.132276    21.888131     8298.596   -78.508383    319.36813   -74.634708   -435.77926   -416.75689    812.47052   -3352.8272 
 1817000    257.79604   -3890.1316    -3448.278   -3890.1316            0    323.72501    17.902898    21.087249    21.841494    8245.6638   -665.26969    2101.1441   -464.69942    998.96316   -513.62462    367.91073   -3409.3486 
 1818000    252.61406   -3840.6639    -3407.692   -3840.6639            0   -186.02053    17.873184     21.05225    21.805243    8204.6751   -20.286969    666.77205   -1204.5467    366.73133    118.75972    214.24474   -3429.9506 
 1819000    250.58693   -3874.3695   -3444.8721   -3874.3695            0    572.64575    17.843596    21.017399    21.769146    8163.9952   -625.54323    1737.6746    605.80587   -1010.0136    1066.7187    -1359.317   -3376.6909 
 1820000    259.95036   -3847.2537   -3401.7077   -3847.2537            0     680.5769    17.927002     21.11564    21.870901    8279.0135   -1294.1497    635.37038      2700.51   -282.89467   -326.30778   -721.16272   -3319.5342 
 1821000    253.14806   -3847.1525   -3413.2654   -3847.1525            0   -790.65084    18.096188     21.31492    22.077308    8515.6326   -252.55396   -376.66558    -1742.733    446.94605   -1046.2879    -770.1608   -3511.4578 
 1822000    273.97008   -3816.8683   -3347.2929   -3816.8683            0   -673.47103     18.02415    21.230068    21.989421    8414.3388    471.02976   -1833.0124    -658.4304    200.42106   -421.12997   -362.61358   -3429.9376 
 1823000    250.28529   -3869.3229   -3440.3425   -3869.3229            0     2502.194    17.961472    21.156242    21.912954    8326.8623    2892.6401    1741.4253    2872.5166    422.10839   -32.647366   -754.82448   -3136.4792 
 1824000    269.00825   -3897.9129    -3436.842   -3897.9129            0    502.59865      18.0601    21.272413     22.03328    8464.7877    1341.2233    52.565201    114.00744   -861.47784   -339.60791    5.0653169   -3374.7961 
 1825000    265.77635   -3884.1301   -3428.5985   -3884.1301            0     2341.107    17.933869    21.123729    21.879279    8288.5314    3970.5988    531.48824    2521.2339    -1217.393   -190.79277   -1202.1966   -3145.6062 
 1826000    251.84324   -3851.3526    -3419.702   -3851.3526            0    1407.5378    18.053745    21.264927    22.025527    8455.8547    1681.9079    1917.7663    622.93917     385.3699   -163.76985    296.23169   -3246.1244 
 1827000    273.20177   -3920.2442   -3451.9857   -3920.2442            0     442.0747    18.029503    21.236373    21.995952     8421.838    873.00951    602.13961   -148.92503    1410.9094    974.57364   -349.16472   -3397.6884 
 1828000    271.33051    -3829.675   -3364.6238    -3829.675            0   -138.53751      18.1653    21.396324    22.161624    8613.5725   -517.14743    459.24376   -357.70886    945.10023    733.10407    295.34123   -3382.0269 
 1829000    263.52737   -3870.1705   -3418.4936   -3870.1705            0    2047.3681    18.090855    21.308638    22.070801    8508.1058    1265.6508     2560.308    2316.1455    101.67142   -146.07427   -461.29819   -3164.4521 
 1830000    261.95436   -3826.5344   -3377.5536   -3826.5344            0    1447.2882    18.086276    21.303244    22.065214    8501.6462    1708.7796    407.78398     2225.301   -1025.8924    919.23468   -1135.0822   -3198.1075 
 1831000     253.4248   -3866.8378   -3432.4763   -3866.8378            0    1129.4503    18.103409    21.323424    22.086116    8525.8295    806.95665    355.24524    2226.1489    425.18421    280.75376    13.422117   -3292.0399 
 1832000    261.20025   -3886.8449   -3439.1566   -3886.8449            0    1986.5066    18.085833    21.302722    22.064673    8501.0214     1646.789    2489.0465    1823.6843    100.54957   -468.02974   -273.67696   -3192.8722 
 1833000    248.62452   -3872.5544   -3446.4205   -3872.5544            0     1781.016    18.043665    21.253054    22.013229    8441.6987    2491.3577    1128.9874     1722.703    421.59807    211.44996    553.98368   -3227.1533 
 1834000    275.09112   -3839.7977   -3368.3009   -3839.7977            0    546.78759    18.131784    21.356847    22.120735    8565.9833   -89.797811    591.94193    1138.2186     -772.579   -603.70295    551.56809   -3299.9929 
 1835000    277.33646   -3898.2909   -3422.9457   -3898.2909            0    1585.6548    18.193507    21.429548    22.196036    8653.7603    1193.6735     2998.367    564.92395    146.47949    360.36306    797.64426   -3222.8262 
 1836000     265.8357   -3843.6916   -3388.0583   -3843.6916            0    1312.3726    18.027627    21.234163    21.993663    8419.2088    1033.5749    2046.9847    856.55823    26.539107    925.07631    -186.4352    -3226.918 
 1837000    253.45523   -3859.1989   -3424.7853   -3859.1989            0   -1021.4259    18.231787    21.474637    22.242737    8708.4988   -2341.4379   -533.60144   -189.23821   -403.00629   -882.51277   -115.37642    -3554.511 
 1838000    280.40359   -3883.5559   -3402.9538   -3883.5559            0    2059.4315    18.153882    21.382876    22.147694    8597.3409    2779.7514    2292.8727    1105.6704    686.01245     603.9539   -429.67561   -3144.7353 
 1839000    253.94003   -3901.2242   -3465.9797   -3901.2242            0    505.35963    18.194353    21.430544    22.197068    8654.9669    33.527735    611.77447    870.77668   -28.670531   -803.72776   -778.61989   -3402.1913 
 1840000    265.41431   -3882.5283   -3427.6173   -3882.5283            0      1019.41    18.106304    21.326835    22.089649    8529.9215    1539.5215    61.943314     1456.765    732.83566    1266.3407   -333.54944   -3300.8025 
 1841000    257.27579   -3889.5009    -3448.539   -3889.5009            0   -402.76371    18.094275    21.312665    22.074973    8512.9311    363.30716   -256.65606   -1314.9422    83.418141   -696.77471   -585.00158   -3498.5431 
 1842000    271.73745   -3878.0328   -3412.2842   -3878.0328            0    204.31953     18.05637    21.268018    22.028729    8459.5431    585.48791    338.59969   -311.12902   -356.30344    90.436738    1274.5033   -3387.0765 
 1843000    271.04788   -3914.3016   -3449.7348   -3914.3016            0    1226.4525    18.085998    21.302917    22.064876    8501.2549    1986.0885    511.69436    1181.5746   -229.97635    1066.9321   -1039.0774   -3297.6766 
 1844000    261.40029   -3896.1485   -3448.1174   -3896.1485            0    128.51208    18.033311    21.240859    22.000598    8427.1753   -415.12047    180.86839    619.78833    40.958999    972.08883   -514.65671    -3432.323 
 1845000    264.92817   -3930.4993   -3476.4215   -3930.4993            0    512.17616    18.105152    21.325478    22.088243    8528.2933   -389.08581    1334.9599    590.65442     365.8264    977.25061   -918.15071   -3412.7188 
 1846000    267.07926   -3873.3025   -3415.5378   -3873.3025            0    1710.8417    18.036955    21.245151    22.005043    8432.2851    2202.1901    794.26988     2136.065   -147.16654   -282.11162   -757.26432   -3205.1449 
 1847000    268.51639   -3905.3329    -3445.105   -3905.3329            0   -519.35434    18.167047    21.398382    22.163755    8616.0577   -95.537636   -496.57213   -965.95325   -101.28723    -633.8861   -519.21318   -3510.3651 
 1848000    251.33713   -3884.2297   -3453.4464   -3884.2297            0    2255.9248    18.065084    21.278283    22.039361    8471.7974    1730.6772     1705.981    3331.1162    53.175554    1712.3635    1398.1248   -3174.7213 
 1849000    275.53429   -3908.0953    -3435.839   -3908.0953            0     1779.014    18.063655      21.2766    22.037617    8469.7869    161.01258     2216.095    2959.9346    30.912671   -990.36108    826.30158   -3216.0896 
 1850000    259.80413   -3897.2629   -3451.9675   -3897.2629            0    1147.6221      18.1333    21.358632    22.122583    8568.1313   -750.36808     2384.446    1808.7884    989.17311    748.87514   -37.938656   -3308.5636 
 1851000    247.56994   -3908.2934    -3483.967   -3908.2934            0    2240.2176    18.084779    21.301481    22.063389    8499.5364    2055.5335    1687.8165    2977.3029   -1797.5163    74.600636    191.63286   -3206.2763 
 1852000    278.09223   -3911.0185    -3434.378   -3911.0185            0    760.72353    18.091237    21.309087    22.071267    8508.6441    1174.3096   -47.686947    1155.5479   -584.38119   -528.97679   -598.66439   -3339.9799 
 1853000    256.50964   -3876.8202   -3437.1715   -3876.8202            0   -1010.6653    18.062837    21.275635    22.036618    8468.6355   -1701.1103     41.14296   -1372.0285    745.54555    959.30528    905.14391   -3561.9951 
 1854000     254.6425   -3864.8452   -3428.3967   -3864.8452            0    854.62752    17.980422    21.178562    21.936073     8353.245    455.33346    1859.3546     249.1945   -998.49959     -1105.82    709.26687    -3324.283 
 1855000    267.88344   -3863.6953   -3404.5522   -3863.6953            0    801.46582    18.147773     21.37568    22.140241    8588.6645    1204.3384   -1906.8671    3106.9261   -152.36854    141.31985   -690.67693   -3304.1631 
 1856000    251.54069   -3886.1357   -3455.0035   -3886.1357            0    507.55008    18.094223    21.312605     22.07491    8512.8588    406.20216     719.4107    397.03739   -1229.1751    1663.9202    1068.3141   -3391.9905 
 1857000    252.48781   -3891.2168   -3458.4613   -3891.2168            0    -350.4887    18.104839    21.325109    22.087862     8527.851   -348.17161    473.25923   -1176.5537   -1302.7633    127.26626   -689.14061   -3502.0516 
 1858000    250.86435   -3856.6577   -3426.6848   -3856.6577            0    1045.7568    18.025853    21.232074    21.991499    8416.7239    1476.8007    1698.7534   -38.283677   -1035.2716    383.96255   -1236.6438   -3298.3189 
 1859000    248.65028   -3866.9193   -3440.7412   -3866.9193            0    422.33889    18.079033    21.294713    22.056378     8491.437    2.9999456    190.05262    1073.9641   -738.33334    115.81757    476.84995   -3388.4392 
 1860000    250.48854   -3877.4043   -3448.0755   -3877.4043            0     518.8476    17.981363     21.17967     21.93722    8354.5563    1811.6064   -177.69703   -77.366571    -317.4185   -104.15574    362.38026   -3384.8578 
 1861000    269.86091   -3891.8024     -3429.27   -3891.8024            0   -458.19946    18.082726    21.299062    22.060883    8496.6412    299.39462   -452.24293   -1221.7501    89.426162    1168.8444    490.77306   -3486.0477 
 1862000    271.58073   -3889.5234   -3424.0433   -3889.5234            0    520.20974    18.034538    21.242304    22.002094    8428.8951    2879.1313   -757.71032   -560.79174   -743.14455    249.81425   -36.435569   -3360.0956 
 1863000    244.05779   -3844.6688   -3426.3621   -3844.6688            0     253.5173     18.06287    21.275675     22.03666    8468.6831    756.86477    1041.7954   -1038.1083    181.71416    487.38218   -1033.8948    -3395.051 
 1864000    264.94916   -3827.8234   -3373.7096   -3827.8234            0    2163.4458    18.019031    21.224039    21.983176    8407.1714    2110.6422    1703.1919    2676.5032    208.34354    730.90627   -518.41669   -3108.4496 
 1865000    263.86876   -3850.4776   -3398.2155   -3850.4776            0   -105.83215    18.025215    21.231322     21.99072    8415.8301   -969.65658    76.186371    575.97377     81.12966    609.67992   -989.90789    -3411.205 
 1866000    258.34758   -3898.0843   -3455.2854   -3898.0843            0    255.25484    17.982179    21.180632    21.938217    8355.6946    59.330345    1646.1481   -939.71396    1125.9414    230.10499   -534.15015   -3424.1803 
 1867000    262.53739   -3936.2121    -3486.232   -3936.2121            0    389.33286    18.112785    21.334468    22.097556    8539.0842   -923.20989    1542.1944    549.01403   -868.34724    42.780525   -626.26306   -3437.7469 
 1868000    255.60897   -3889.5771   -3451.4721   -3889.5771            0    869.93405    18.158524    21.388343    22.153357    8603.9371    1104.2031    529.99419     975.6049   -308.23054    768.91143   -45.707468   -3342.3131 
 1869000    274.45069   -3901.9278   -3431.5287   -3901.9278            0    1594.0561    18.071087    21.285353    22.046684    8480.2449    1292.2837    2312.9482    1176.9365    116.47695    251.05693   -271.87051   -3234.3827 
 1870000    244.10232   -3862.5592   -3444.1761   -3862.5592            0    967.44824    18.075145    21.290133    22.051635    8485.9596    514.04377    824.09604    1564.2049   -864.99223   -978.17029    1240.3421   -3324.4457 
 1871000    259.62566    -3881.445   -3436.4555    -3881.445            0    647.68465    17.965392    21.160858    21.917736    8332.3144    1181.4153    1140.9606   -379.32199   -993.71722   -621.00718    455.68291     -3357.75 
 1872000    269.40658    -3875.835   -3414.0813    -3875.835            0    403.88918    18.085345    21.302147    22.064078    8500.3336    107.27858    13.761514    1090.6274    869.54828    117.84211   -290.71903   -3364.0117 
 1873000    252.13986   -3895.3879   -3463.2288   -3895.3879            0    909.72593    17.981007    21.179251    21.936786      8354.06     530.5447    1104.4201     1094.213    77.791265    1295.3453    48.195611   -3352.3919 
 1874000    261.87243   -3863.0925   -3414.2521   -3863.0925            0    624.99041      18.0917    21.309633    22.071832    8509.2975    1038.1721    929.26004   -92.460928    675.25965    1165.0562    574.83825   -3336.6912 
 1875000    270.20157   -3847.8256   -3384.7094   -3847.8256            0    1032.9991    18.103663    21.323723    22.086426    8526.1888    1328.1819    918.94595    851.86939   -132.89723    -868.0433   -80.304532   -3256.2604 
 1876000    247.32549   -3839.1404    -3415.233   -3839.1404            0   -146.79792    18.068971    21.282861    22.044102    8477.2665   -313.00697    1981.2343   -2108.6211     334.7101    968.82772    1067.7194   -3433.3819 
 1877000    273.05626   -3879.6586   -3411.6495   -3879.6586            0    2069.7828    18.003404    21.205632    21.964111    8385.3166    1290.0496    1599.5341    3319.7649   -892.15604   -435.80254    684.09313   -3158.5332 
 1878000    257.04253   -3856.7322   -3416.1701   -3856.7322            0     804.5696    18.021243    21.226643    21.985874    8410.2672    598.58071     553.6964    1261.4317   -618.75313   -806.13689   -1703.6187   -3317.4855 
 1879000    265.89704   -3862.7373   -3406.9988   -3862.7373            0    925.52914     18.04788    21.258019    22.018372    8447.6167    648.32927    673.29592    1454.9622    966.27248   -793.60787   -617.63446   -3292.9738 
 1880000    253.99349   -3900.9892   -3465.6531   -3900.9892            0    837.85436    18.026727    21.233103    21.992565    8417.9476    816.44715    230.31896     1466.797   -504.73988     411.9271    1026.3353   -3362.7921 
 1881000    259.52961   -3940.9968   -3496.1719   -3940.9968            0    36.647581    18.026043    21.232298     21.99173    8416.9897    780.43347   -798.80272    128.31199    280.63619   -1110.7729    1187.9451   -3491.6733 
 1882000    253.13923    -3853.087    -3419.215    -3853.087            0   -314.12395    18.049534    21.259967     22.02039    8449.9392   -1002.8362    1049.5845   -989.12012    -284.4681   -1155.6588     630.7725   -3457.9256 
 1883000     255.8652   -3903.5162    -3464.972   -3903.5162            0   -37.080034    18.046371    21.256242    22.016531    8445.4977   -287.05189    466.41682   -290.60504    615.17966   -23.919326   -147.85191   -3469.5391 
 1884000    256.09694   -3908.5373   -3469.5959   -3908.5373            0    230.78354    17.975357    21.172596    21.929893    8346.1875    49.916891   -776.98202    1419.4158   -507.73805    101.96491   -630.95033   -3441.5048 
 1885000    250.71486   -3909.1092   -3479.3925   -3909.1092            0   -138.27975    18.097699    21.316699    22.079151    8517.7658    1419.3104   -1828.9571    -5.192517    973.11651    126.39667    292.10331     -3496.57 
 1886000    263.61756   -3891.1116   -3439.2801   -3891.1116            0    355.54895    18.046566    21.256471    22.016768    8445.7713    162.26533   -393.34334    1297.7248   -330.38133    787.44518    669.50969   -3395.4861 
 1887000    258.91569   -3910.2566    -3466.484   -3910.2566            0    615.74106    17.982063    21.180495    21.938075    8355.5327    1214.7885    1162.0932   -529.65853    231.53423    1120.0002    303.37882   -3391.4517 
 1888000    251.49947   -3861.7854   -3430.7239   -3861.7854            0     1300.063     17.92205    21.109808    21.864859     8272.155    2647.5558    895.27228      357.361   -961.20995   -272.97724     475.6068   -3273.8832 
 1889000    234.05988   -3882.3354   -3481.1648   -3882.3354            0    596.91801    18.031338    21.238534     21.99819    8424.4085    1262.2729    542.86933   -14.388138    383.80679    -128.7214   -507.25977   -3407.8266 
 1890000    255.98208   -3863.5882   -3424.8437   -3863.5882            0   -330.06735    18.046906    21.256872    22.017184    8446.2492    363.91372   -479.85662   -874.25916    364.80124   -809.36321   -138.49246   -3465.5014 
 1891000    262.35462   -3895.1321   -3445.4652   -3895.1321            0     1744.824    17.927626    21.116375    21.871662    8279.8777    3498.8904    1235.6437    499.93787   -434.60449    1381.1132    290.79981   -3234.7716 
 1892000    267.72439   -3906.6204     -3447.75   -3906.6204            0    179.71824    17.982332    21.180812    21.938403    8355.9075   -23.800562    472.96748    89.987808    1337.4766    641.18628   -884.78474   -3425.8491 
 1893000    243.97503   -3862.6775   -3444.5127   -3862.6775            0    1142.9075    18.001869    21.203824    21.962239    8383.1728    1952.7813    356.18477    1119.7563    218.79188    -6.395828   -41.867986   -3304.7808 
 1894000     264.1612   -3868.6895   -3415.9263   -3868.6895            0    905.10801    17.999989    21.201609    21.959944    8380.5456    1271.8063    1114.4152    329.10247    935.08575   -712.28368   -833.91101   -3305.3025 
 1895000    273.15529   -3876.5831   -3408.4043   -3876.5831            0    1191.2475    17.947172    21.139398    21.895508    8306.9895    916.41188    1788.4719    868.85868   -564.97578    54.286856    19.242462   -3264.0859 
 1896000    265.61356   -3911.8321   -3456.5795   -3911.8321            0    2070.8408    17.868083    21.046241    21.799019    8197.6512    898.22456    2320.3838     2993.914   -1357.6726     62.78249   -722.09852   -3209.0015 
 1897000    263.47876   -3898.8776    -3447.284   -3898.8776            0    1974.0945    17.995676    21.196529    21.954682    8374.5225    783.85248    1186.7839    3951.6471     1109.921    328.14267    1274.0836   -3206.1803 
 1898000    254.37153   -3901.3608   -3465.3767   -3901.3608            0     395.2409    18.042106    21.251218    22.011327    8439.5112    1357.4828    632.38644   -804.14653    34.454373   -341.84726   -148.22311   -3416.7298 
 1899000     266.3822   -3855.5891   -3399.0191   -3855.5891            0    533.63694    18.105151    21.325476    22.088242    8528.2916    1017.9758   -421.96404    1004.8991    180.23957   -382.54832    111.94866   -3332.6473 
 1900000    260.17412   -3904.3969   -3458.4673   -3904.3969            0   -105.54476    18.069192    21.283122    22.044372    8477.5784    1663.5467    -535.4635   -1444.7175    1414.4091    340.05618   -361.96869   -3471.5165 
 1901000    256.37683   -3855.0378   -3415.6166   -3855.0378            0   -454.14405    18.091832    21.309789    22.071993    8509.4846   -1693.8495   -775.08385    1106.5012   -718.43633   -399.22655   -684.39788   -3471.9769 
 1902000    249.89685   -3900.3362   -3472.0216   -3900.3362            0    998.98954     18.01046    21.213942    21.972719    8395.1793    577.73733    882.47608    1536.7552     2351.709   -278.47801   -845.20594   -3349.7102 
 1903000    257.45511   -3879.2283    -3437.959   -3879.2283            0    245.14796    18.134231    21.359729     22.12372    8569.4519    238.14547   -754.44084    1251.7392    690.55508   -2181.5598   -786.52988   -3407.3213 
 1904000    244.10856   -3863.3994   -3445.0056   -3863.3994            0   -58.137697    18.053788    21.264978     22.02558    8455.9154    -1162.483    773.15887    214.91108   -554.69121   -294.92387   -542.53843   -3452.1752 
 1905000    250.31808   -3879.5436    -3450.507   -3879.5436            0    1012.8947    18.026919     21.23333      21.9928    8418.2175    1528.3467    1407.0255    103.31185    718.62722    689.68766   -431.73546   -3326.1528 
 1906000    245.63685   -3900.1819   -3479.1688   -3900.1819            0    -191.6749    18.111808    21.333317    22.096363    8537.7016   -358.31444    508.72549   -725.43575   -1765.1569    656.56573   -218.12424   -3503.0349 
 1907000     251.8767   -3874.0681     -3442.36   -3874.0681            0    1192.5738     17.94069    21.131763    21.887599    8297.9914    953.49756    2239.7129    384.51085    -1579.955   -193.76398   -242.49639   -3298.0375 
 1908000    266.78356   -3886.5805   -3429.3226   -3886.5805            0    1131.5885    17.967651     21.16352    21.920493    8335.4591    1323.8911    1476.5644    594.30983    2183.5918    840.92016   -236.69297   -3291.7621 
 1909000     265.1686   -3868.8195   -3414.3296   -3868.8195            0   -223.74737    17.934839    21.124871    21.880461    8289.8756   -280.21653     242.5575   -633.58307    451.61292   -941.12742   -314.32536   -3441.3805 
 1910000    270.37972   -3862.8028   -3399.3813   -3862.8028            0    77.847992    18.018156    21.223008    21.982108    8405.9463    793.42752   -380.92715   -178.95639    241.03015    75.175229    452.21688   -3389.8377 
 1911000    258.81551   -3921.1969   -3477.5959   -3921.1969            0    118.71605    18.040995    21.249909    22.009972    8437.9522   -237.67178   -630.87335    1224.6933    594.17938    802.11639    395.83282   -3462.9869 
 1912000    255.49246   -3889.3767   -3451.4714   -3889.3767            0    759.92346    18.107449    21.328183    22.091045    8531.5389   -935.74785    1698.7816    1516.7366    116.43562    773.50126    246.24893   -3356.9188 
 1913000    258.12025   -3889.4809   -3447.0716   -3889.4809            0    289.66997    18.133872    21.359306    22.123281    8568.9422   -301.76669    672.08645    498.69014   -1087.9801   -74.912165    1252.0485   -3410.8718 
 1914000    255.33737   -3901.9134   -3464.2739   -3901.9134            0    921.51345     18.12246    21.345864    22.109359    8552.7753    721.27654    329.39454    1713.8693     369.6626    1232.4715   -288.05804   -3349.3303 
 1915000    260.16104   -3897.7672   -3451.8601   -3897.7672            0    815.15869    18.075868    21.290985    22.052516    8486.9776    1376.8845    263.11671    805.47488    429.74654    132.46638    1032.3782   -3350.9648 
 1916000    255.98689   -3855.7435   -3416.9907   -3855.7435            0    852.18394     18.06567    21.278973    22.040075    8472.6213    328.54336    895.25978    1332.7487    1748.2653    464.37704    -50.36304    -3311.691 
 1917000    255.09307   -3893.4113   -3456.1905   -3893.4113            0     683.4156      18.0049    21.207394    21.965936    8387.4074   -421.62274   -160.43869    2632.3082    430.17107   -9.4906344     512.4087   -3372.5939 
 1918000    278.77257   -3861.7902   -3383.9836   -3861.7902            0    818.16491    18.038707    21.247214    22.007181    8434.7422   -275.75947    2595.5982    134.65603    -158.4992   -753.49993    451.60949   -3283.3394 
 1919000    272.62222   -3888.2057   -3420.9406   -3888.2057            0   -356.34135    18.111115    21.332502    22.095519    8536.7229   -2096.5844    176.16897    851.39143   -787.32936   -250.25623    734.95981   -3465.3049 
 1920000    268.46768   -3879.8684    -3419.724   -3879.8684            0    1084.2276    18.070994    21.285244     22.04657    8480.1144     1151.929    33.683238    2067.0705   -442.83786    143.50437    1611.8009   -3285.6335 
 1921000    246.38896   -3869.0788   -3446.7766   -3869.0788            0    -625.5779    18.171027     21.40307    22.168611    8621.7223    378.11838   -1697.2405   -557.61158   -578.69784   -910.30347   -333.11998   -3525.4361 
 1922000    263.64491   -3914.2385   -3462.3602   -3914.2385            0   -240.58862    18.094954    21.313465    22.075801    8513.8896    961.96211    172.89078   -1856.6187    714.75874   -618.23886   -287.16575   -3492.2332 
 1923000    268.59522   -3924.4738   -3464.1108   -3924.4738            0    1053.5269    18.073408    21.288087    22.049515    8483.5132     377.8411    1461.6497      1321.09   -634.33408   -1065.1603    603.54221   -3333.7649 
 1924000    246.88749   -3893.3109   -3470.1542   -3893.3109            0    751.54598    18.157518    21.387157    22.152129    8602.5066    1386.1993    134.08493    734.35367   -295.76208   -941.77183    224.96173   -3375.8661 
 1925000    258.17182   -3856.7114   -3414.2138   -3856.7114            0    504.70046    18.032481     21.23988    21.999584    8426.0107     325.7672    1589.2394   -400.90519    780.23058    147.84598    664.86265   -3352.1938 
 1926000    256.09935   -3875.3313   -3436.3858   -3875.3313            0    450.70096    18.042752    21.251979    22.012116    8440.4178   -736.56512    1627.1544    461.51356   -854.46025   -248.96261     447.1045   -3380.9068 
 1927000    267.33665   -3865.0528   -3406.8469   -3865.0528            0    985.27977    18.026356    21.232666    21.992112    8417.4278    824.77058    2751.4508    -620.3821    566.37718   -581.54276   -368.75952   -3285.8944 
 1928000    257.21244   -3870.8995   -3430.0462   -3870.8995            0    1240.9578    18.057694    21.269578    22.030344    8461.4039    2265.6945    385.30972    1071.8692    57.849251   -929.21556    333.08699   -3276.9109 
 1929000    267.34401   -3912.1359   -3453.9174   -3912.1359            0    730.53298    17.951676    21.144703    21.901003    8313.2454    2401.1609   -1450.1241    1240.5622    1416.5124   -1750.5893   -159.62672   -3365.3475 
 1930000    247.38896   -3866.1783   -3442.1621   -3866.1783            0   -880.75421    18.068046    21.281772    22.042974    8475.9652   -1399.2714    -906.7107   -336.28054    -125.2757    833.71716   -343.48412    -3551.035 
 1931000     270.5379   -3906.6189   -3442.9262   -3906.6189            0    34.069625    18.050777    21.261431    22.021905    8451.6844   -289.08048    766.81204   -375.52268   -26.078981   -515.16253     1128.207   -3438.7268 
 1932000    267.64881    -3861.714   -3402.9731    -3861.714            0    595.52005    18.073383    21.288057    22.049484    8483.4775    1734.4568    411.51523   -359.41187     1127.687   -49.857522     324.9523   -3329.2937 
 1933000    250.01114   -3875.7948   -3447.2843   -3875.7948            0    1541.5692    17.995292    21.196077    21.954214    8373.9869    2023.3114     1696.545    904.85114   -290.79012    259.84928     1510.143   -3259.0186 
 1934000     252.9997   -3861.0047   -3427.3719   -3861.0047            0    2251.1447    17.873714    21.052874     21.80589    8205.4049     3120.891    2197.6072    1434.9358    806.48526    263.89302    21.411786   -3157.9832 
 1935000    271.85914   -3858.6159   -3392.6586   -3858.6159            0   -417.44676    18.026775     21.23316    21.992624    8418.0155   -1016.7378    68.431741   -304.03416   -233.02266    824.71022   -1063.2073   -3443.9078 
 1936000    279.64217   -3871.8076   -3392.5105   -3871.8076            0    1750.8832    17.912641    21.098725     21.85338    8259.1327    878.59843    2675.1895    1698.8617    528.68882       70.589    573.29297   -3181.6149 
 1937000    257.89008   -3854.6617   -3412.6469   -3854.6617            0    656.11642    17.933823    21.123675    21.879222    8288.4676    992.32623   -565.43023    1541.4532    44.151387    186.56114    173.23548   -3333.3364 
 1938000    264.00305   -3822.5605   -3370.0683   -3822.5605            0    1166.2991    17.980104    21.178188    21.935685    8352.8027    1075.2828    1257.0525    1166.5619   -131.97351    138.52557   -1475.1827   -3227.9932 
 1939000    251.74912   -3866.6301   -3435.1407   -3866.6301            0    336.55323    18.014785    21.219037    21.977995    8401.2292   -294.89486    251.52606    1053.0285    1777.2103   -278.44328   -411.17879   -3393.9051 
 1940000    269.45055   -3839.7844   -3377.9554   -3839.7844            0     139.3294    18.053485    21.264621     22.02521    8455.4896    437.57698     328.1449   -347.73369   -363.06507    950.45876    192.54433    -3360.774 
 1941000    278.35367   -3892.0578   -3414.9691   -3892.0578            0    958.26631    17.953379    21.146708     21.90308    8315.6108    1342.4415   -414.84482    1947.2022    185.97062    1031.9223     277.7853   -3298.7557 
 1942000    267.79291   -3872.6041   -3413.6162   -3872.6041            0    1119.5697    17.996854    21.197917     21.95612    8376.1678    303.78564    548.98279    2505.9405    603.61269    332.99784    352.18612    -3276.852 
 1943000    260.15297   -3847.5151   -3401.6218   -3847.5151            0   -255.85046    18.086481    21.303486    22.065465    8501.9363   -638.28232   -641.97732    512.70827   -92.039529   -233.89689   -604.96858   -3433.3452 
 1944000    279.97692   -3879.2669    -3399.396   -3879.2669            0    59.232728    18.108253     21.32913    22.092026    8532.6757    224.39221    37.238875   -83.932898    -72.34999   -208.67633   -626.63729   -3392.0251 
 1945000      266.827   -3884.5917   -3427.2594   -3884.5917            0    1866.9757    18.046931    21.256901    22.017213    8446.2833    2963.9682    1588.5116    1048.4474    710.33247   -754.79868    56.254432   -3197.2846 
 1946000    254.63075   -3856.9613   -3420.5329   -3856.9613            0    1338.7996    18.085089    21.301846    22.063766    8499.9724    448.32079    2538.3669     1029.711    429.11079   -63.637012   -1199.9488   -3254.5708 
 1947000    255.67406   -3852.5569   -3414.3403   -3852.5569            0    579.77144    18.142148    21.369054    22.133378      8580.68   -858.75299    836.24209    1761.8252    367.17475   -133.32003     774.0327   -3341.7874 
 1948000    252.29293   -3852.2713   -3419.8498   -3852.2713            0    159.78804    18.194765    21.431029     22.19757    8655.5548   -172.84556    846.31418   -194.10449   -284.58371    1565.4067   -172.67002   -3399.6794 
 1949000    262.58453   -3853.8354   -3403.7745   -3853.8354            0    861.75348    18.113011    21.334734    22.097831    8539.4035    898.06205    562.43359    1124.7648   -667.78646    63.805616    1340.2496   -3296.4531 
 1950000    269.24251   -3891.0929   -3429.6205   -3891.0929            0    902.66839    18.127487    21.351785    22.115491    8559.8937   -503.79909    725.78441    2486.0199    1710.2821    750.64215    374.91842   -3316.9338 
 1951000    262.71077   -3893.0443    -3442.767   -3893.0443            0   -506.73938    18.206161    21.444453    22.211474    8671.8297   -138.33982   -925.93106   -455.94726    397.87787   -374.31011   -22.289803   -3506.8542 
 1952000    256.76144   -3856.4104   -3416.3301   -3856.4104            0   -904.58381    18.165459    21.396511    22.161818    8613.7989    771.95557   -1585.2941   -1900.4129   -601.14107    451.43956   -168.53326    -3529.967 
 1953000     256.8156   -3884.7336   -3444.5605   -3884.7336            0   -1573.7862    18.071428    21.285755      22.0471    8480.7257   -2577.2358   -1370.8967   -773.22594   -427.45744    733.85057    1011.6073   -3639.2106 
 1954000    249.22008   -3879.7794   -3452.6247   -3879.7794            0    2087.9767    17.933583    21.123392     21.87893    8288.1352    3982.9688   -360.54883    2641.5101    1131.7279    1036.1916    353.36719   -3200.2427 
 1955000    260.75949   -3923.6122   -3476.6794   -3923.6122            0    542.50318    18.073922    21.288693    22.050143    8484.2371    1070.5442   -11.229353    568.19467   -401.95657    594.49113    334.86486   -3409.5533 
 1956000    244.00973   -3876.8027   -3458.5783   -3876.8027            0    1492.6336    18.064382    21.277456    22.038504    8470.8101     26.55322    3835.6466    615.70111   -225.25598   -373.63749    549.11823   -3274.1813 
 1957000    261.38464   -3890.6281   -3442.6238   -3890.6281            0    -272.0512    18.145001    21.372415    22.136859    8584.7292   -1076.9286    294.45382   -33.678858   -787.45983   -232.49246   -209.12184   -3476.6845 
 1958000    257.88085   -3898.6044   -3456.6054   -3898.6044            0    1181.1055    18.119688    21.342599    22.105977    8548.8511    2715.6932    385.09102     442.5324    135.33438    214.97027    452.46333   -3309.3496 
 1959000    268.89671    -3929.306   -3468.4262    -3929.306            0   -485.11268    18.141915     21.36878    22.133094    8580.3498   -839.30405   -72.451516   -543.58247   -1411.7742    1420.0354    912.10108   -3529.1311 
 1960000    267.98262   -3900.0729   -3440.7598   -3900.0729            0    571.32734    18.132783    21.358024    22.121953    8567.3993    964.98996    158.56667    590.42539    722.17864   -788.11439    1470.3355   -3369.3743 
 1961000    269.06275   -3917.2285   -3456.0641   -3917.2285            0   -146.94703    18.180105    21.413762    22.179686    8634.6502   -112.07084   -425.67547    96.905199    347.05576    143.88797   -882.74972   -3474.5688 
 1962000    259.49676   -3892.4662   -3447.6976   -3892.4662            0    1268.8966    18.083573    21.300061    22.061917    8497.8362    1713.0776    65.034714    2028.5773   -1568.4977     134.6595    506.74939   -3290.4404 
 1963000    269.71315   -3888.1263   -3425.8472   -3888.1263            0    1833.5643    18.111433    21.332876    22.095906     8537.172    2178.5142    2641.2828    680.89599    189.37117   -341.57646   -555.17562   -3197.5576 
 1964000    248.22386   -3897.0792    -3471.632   -3897.0792            0   -432.65427    18.153489    21.382413    22.147215    8596.7824   -115.88237   -553.36701   -628.71342    102.80467    1042.6077   -83.599138   -3525.8761 
 1965000    245.89459   -3918.1779    -3496.723   -3918.1779            0    121.96986    17.989728    21.189523    21.947426    8366.2219    336.60933    1000.7775   -971.47723   -176.75338   -262.20272    1161.5946   -3481.8411 
 1966000    258.53222   -3875.4983   -3432.3829   -3875.4983            0    1053.6746    18.011962    21.215712    21.974551    8397.2801    410.27568    366.43713    2384.3111    883.36313   -755.00073   -741.58167   -3303.3439 
 1967000    254.02115   -3901.4178   -3466.0343   -3901.4178            0    1297.1688    18.005545    21.208153    21.966723    8388.3084    350.51967     271.2103    3269.7763    150.61746   -1310.0883   -665.95569   -3307.3453 
 1968000    260.26195   -3875.7911    -3429.711   -3875.7911            0     1652.351    17.956138    21.149959    21.906447    8319.4462    2691.6694   -974.80357    3240.1872   -332.08106   -731.89437    335.97896   -3229.2303 
 1969000    256.51702    -3842.869   -3403.2076    -3842.869            0    698.51206    18.133404    21.358754     22.12271    8568.2785    622.56366    688.42292    784.54962     196.0211    1044.2639    452.23359   -3315.9218 
 1970000     242.0147   -3851.6832   -3436.8783   -3851.6832            0    1220.2169    18.062385    21.275104    22.036068    8468.0011    1781.0892   -569.36679    2448.9283    1364.1999    349.60935    1501.3001    -3286.185 
 1971000    252.89574   -3852.2744   -3418.8198   -3852.2744            0    718.96306    18.147845    21.375764    22.140328    8588.7657    920.59756    1451.4784   -215.18676    1076.6345    793.16228   -571.13031   -3328.7637 
 1972000    257.60059   -3890.3416    -3448.823   -3890.3416            0     1865.349    18.009947    21.213338    21.972093    8394.4623    1358.5057    1031.1331    3206.4081    439.44535   -113.81018    584.40418   -3220.4583 
 1973000     259.1687   -3866.2958   -3422.0895   -3866.2958            0   -859.21656    18.077458    21.292857    22.054456    8489.2173   -1181.6192   -37.764847   -1358.2657    50.372355    121.49367    323.48462   -3528.4662 
 1974000     273.4554   -3880.9525   -3412.2593   -3880.9525            0    206.88587    18.017601    21.222354    21.981431    8405.1691    934.80774    672.93937   -987.08952   0.51479916    695.94345   -257.72331   -3386.8991 
 1975000    258.36208   -3871.8806   -3429.0568   -3871.8806            0     1845.085    17.940046    21.131004    21.886814     8297.098    1439.8379     2674.974    1420.4432    1348.5136    1717.5162      246.395   -3205.7929 
 1976000    281.99872   -3901.4126   -3418.0764   -3901.4126            0    257.83972    17.951122    21.144051    21.900327     8312.476   -535.31563    154.50594    1154.3289   -119.82292    58.387287   -741.72697   -3386.8188 
 1977000    261.31423   -3799.6147   -3351.7311   -3799.6147            0    1556.4213     18.06665    21.280128    22.041271    8474.0009    1021.9748   -834.26631    4481.5554     745.7714    1031.4986    248.38148   -3159.3813 
 1978000    275.51065   -3860.4126   -3388.1967   -3860.4126            0   -184.03167    18.033311    21.240859    22.000598    8427.1756    913.20968   -753.60319    -711.7015    985.02989   -230.69811    1563.6026   -3410.8145 
 1979000    267.01575   -3844.8693   -3387.2134   -3844.8693            0   -681.58641    18.039866    21.248579    22.008594    8436.3678   -429.97066    -350.8272   -1263.9614    275.66459    1183.4964   -208.71556   -3471.0729 
 1980000     261.0404   -3816.9468   -3369.5324   -3816.9468            0    1105.6683     18.03916    21.247747    22.007733    8435.3768    1117.3342    548.44684    1651.2239    98.010436    1185.7054   -626.30318   -3233.5117 
 1981000    271.60306   -3853.9747   -3388.4564   -3853.9747            0    2312.0937    18.007367    21.210299    21.968945    8390.8551     961.8655    4514.8129    1459.6028    906.13247   -571.63718   -653.14708   -3105.5208 
 1982000    265.78944   -3845.6621   -3390.1081   -3845.6621            0   -551.11018    17.991778    21.191938    21.949928    8369.0829   -1486.9678    239.97505   -406.33783   -1035.8329    173.85063    236.09802   -3457.3736 
 1983000    260.57918   -3857.5748    -3410.951   -3857.5748            0    537.39862    17.982096    21.180534    21.938115    8355.5783   -210.21132    689.53444    1132.8727    938.16003   -557.31969   -896.08409   -3345.4649 
 1984000    274.46792   -3853.6331   -3383.2045   -3853.6331            0   -1311.7527    18.074874    21.289814    22.051304    8485.5778   -2228.3281   -1039.7088   -667.22125    1184.8253    248.16321   -226.55439   -3545.5384 
 1985000    256.68939   -3882.5007   -3442.5439   -3882.5007            0    -869.6683     18.04088    21.249773    22.009831    8437.7904   -1313.1087    270.66817   -1566.5643   -75.862913   -50.736443    118.61919   -3549.5623 
 1986000    261.67703   -3869.4837   -3420.9782   -3869.4837            0    360.37164    18.062041    21.274698    22.035647    8467.5162   -485.69474    2265.8275   -699.01782    356.34165   -399.01223    1512.0203   -3376.4759 
 1987000    263.24479   -3865.9466    -3414.754   -3865.9466            0    1411.7299    18.008185    21.211264    21.969944    8391.9996    548.08008    2690.0916     997.0181    32.011188   -836.79403    255.79142   -3241.9742 
 1988000    278.87911   -3884.4015   -3406.4123   -3884.4015            0    140.01014    18.096738    21.315567    22.077979     8516.409   -413.86999    1143.2186   -309.31822   -799.42192   -112.78917   -624.75312   -3389.0226 
 1989000    253.39611   -3854.3628   -3420.0505   -3854.3628            0    550.42648    17.957048    21.151031    21.907557    8320.7111    594.64269    2191.3178   -1134.6811    402.41618   -425.94115   -21.116552   -3353.2568 
 1990000    256.95982   -3844.7468   -3404.3265   -3844.7468            0     68.82029    18.086011    21.302932    22.064891     8501.273   -1390.6815    1466.3089    130.83342    -740.4019   -1917.1453    1224.7334    -3395.794 
 1991000    249.55665   -3882.2713   -3454.5397   -3882.2713            0    2777.1328    17.998011    21.199279    21.957531    8377.7832     1828.981    3529.7415     2972.676    519.66712     853.5746   -445.39185   -3115.2258 
 1992000    255.03466   -3856.7751   -3419.6545   -3856.7751            0    1689.8882    18.021717    21.227202    21.986453    8410.9316    143.78594    2398.4639    2527.4146    653.86945    684.07094    193.22936   -3212.3646 
 1993000     269.1757   -3889.4376   -3428.0797   -3889.4376            0    630.16678    18.063031    21.275865    22.036856    8468.9091    315.91038     601.2958    973.29416   -944.70638   -952.96454    131.41189   -3350.2475 
 1994000    275.32308   -3890.0173    -3418.123   -3890.0173            0    819.63814    18.039181    21.247772    22.007758    8435.4064   -1072.5448    2608.5719    922.88728   -535.16451   -233.56022    947.88442   -3317.2897 
 1995000    271.02091   -3858.9956    -3394.475   -3858.9956            0    2608.7246    17.991327    21.191407    21.949377    8368.4529    3279.9281    584.24398    3962.0018   -784.73423   -338.15503   -190.18991   -3076.0924 
 1996000      254.894   -3865.1273   -3428.2477   -3865.1273            0  -0.13124047    18.042802    21.252038    22.012177    8440.4879    384.72016   -140.11547   -244.99841    156.85513   -644.20696   -196.72575   -3428.2639 
 1997000    242.37362   -3849.5385   -3434.1184   -3849.5385            0    899.00126    18.061091    21.273579    22.034489    8466.1804    787.93895    822.69448    1086.3704   -165.98806    793.32881    182.42789   -3323.1182 
 1998000    261.13097   -3825.7605   -3378.1909   -3825.7605            0    452.00681    18.165127     21.39612    22.161412    8613.3259    137.41917    462.85859    755.74267   -203.16414   -856.98767    137.96692   -3321.4114 
 1999000    249.66602   -3889.2686   -3461.3496   -3889.2686            0    1914.6121     17.91823    21.105308    21.860199    8266.8665    2758.6207    3323.1784   -337.96283   -352.16593    1055.6261      1555.22   -3230.5168 
 2000000    272.30364     -3852.34   -3385.6208     -3852.34            0    983.53504    18.002265     21.20429    21.962721    8383.7256    1820.8234    725.51506    404.26666   -219.99124   -5.2154993    1012.0365   -3265.3659 
Loop time of 403.83 on 64 procs for 250000 steps with 864 atoms

Performance: 106.976 ns/day, 0.224 hours/ns, 619.073 timesteps/s
190.2% CPU use with 32 MPI tasks x 2 OpenMP threads

MPI task timing breakdown:
Section |  min time  |  avg time  |  max time  |%varavg| %total
---------------------------------------------------------------
Pair    | 25.699     | 27.96      | 30.579     |  22.7 |  6.92
Bond    | 0.8884     | 1.0317     | 1.1819     |   8.0 |  0.26
Kspace  | 195.74     | 199.89     | 202.81     |  13.8 | 49.50
Neigh   | 3.7545     | 4.0307     | 4.4083     |   9.6 |  1.00
Comm    | 74.127     | 77.549     | 81.544     |  21.8 | 19.20
Output  | 0.7594     | 0.76162    | 0.76342    |   0.1 |  0.19
Modify  | 70.749     | 73.234     | 76.901     |  17.9 | 18.13
Other   |            | 19.37      |            |       |  4.80

Nlocal:        27.0000 ave          33 max          22 min
Histogram: 7 0 3 4 1 6 6 2 0 3
Nghost:        2275.66 ave        2338 max        2213 min
Histogram: 3 3 2 4 4 1 7 4 2 2
Neighs:        7376.75 ave        9183 max        5438 min
Histogram: 3 2 1 5 0 7 7 3 1 3

Total # of neighbors = 236056
Ave neighs/atom = 273.21296
Ave special neighs/atom = 2.0000000
Neighbor list builds = 13605
Dangerous builds = 0

unfix		3
unfix		2
unfix		1

write_data	data.final.${pid}
write_data	data.final.1
System init for write_data ...
PPPM initialization ...
  extracting TIP4P info from pair style
  using 12-bit tables for long-range coulomb (../kspace.cpp:340)
  G vector (1/distance) = 0.37239056
  grid = 24 25 25
  stencil order = 5
  estimated absolute RMS force accuracy = 0.0032018981
  estimated relative force accuracy = 9.642421e-06
  using double precision FFTW3
  3d grid and FFT values/proc = 4116 672
Last active /omp style is kspace_style pppm/tip4p/omp
WARNING: Not all mixed pair coeffs generated from mixing. Use write_data with 'pair ij' option to store all pair coeffs. (../write_data.cpp:312)

write_restart   restart.lmp.${pid}
write_restart   restart.lmp.1
System init for write_restart ...
PPPM initialization ...
  extracting TIP4P info from pair style
  using 12-bit tables for long-range coulomb (../kspace.cpp:340)
  G vector (1/distance) = 0.37239056
  grid = 24 25 25
  stencil order = 5
  estimated absolute RMS force accuracy = 0.0032018981
  estimated relative force accuracy = 9.642421e-06
  using double precision FFTW3
  3d grid and FFT values/proc = 4116 672
Last active /omp style is kspace_style pppm/tip4p/omp
Total wall time: 0:06:43
