LAMMPS (30 Jul 2021)
  using 1 OpenMP thread(s) per MPI task
package omp 0
using multi-threaded neighbor list subroutines
echo both

include		in.partitions
variable        pid world 0
include		in.temp
variable        temperature equal 262.65
variable	tempDamp equal 100.0
include		in.pressure
variable        pressure equal 7125.0
variable        pressureDamp equal 1000.0 # This is 1 ps
include		in.seed
variable        seed world 745823

units		real
atom_style	full

read_restart	restart.lmp.${pid}
read_restart	restart.lmp.0
Reading restart file ...
  restart file = 30 Jul 2021, LAMMPS = 30 Jul 2021
  restoring atom style full from restart
  orthogonal box = (-0.012470346 0.19600246 -0.15599333) to (20.012471 19.803999 20.855991)
  4 by 4 by 4 MPI processor grid
  restoring pair style lj/cut/tip4p/long/omp from restart
  restoring bond style harmonic/omp from restart
  restoring angle style harmonic/omp from restart
  972 atoms
  648 bonds
  324 angles
Finding 1-2 1-3 1-4 neighbors ...
  special bond factors lj:    0        0        0       
  special bond factors coul:  0        0        0       
     2 = max # of 1-2 neighbors
     1 = max # of 1-3 neighbors
     1 = max # of 1-4 neighbors
     2 = max # of special neighbors
  special bonds CPU = 0.533 seconds
  read_restart CPU = 0.799 seconds
include 	in.setup
variable	out_freq equal 1000
variable	out_freq2 equal 10000
variable	out_freq3 equal 1000

timestep	2.0

neigh_modify    delay 7 every 1

include		in.tip4p
# This is TIP4P/Ice

# create groups ###
group ox type 2
324 atoms in group ox
group hy type 1
648 atoms in group hy

# set charges - beside manually ###
set group ox charge -1.1794
Setting atom values ...
  324 settings made for charge
set group hy charge 0.5897
Setting atom values ...
  648 settings made for charge

# ### TIP3P Potential Parameters ###
pair_style lj/cut/tip4p/long/omp 2 1 1 1 0.1577 8.5
pair_coeff 1 1*2 0.000 0.000
pair_coeff 2 2 0.21084 3.1668
bond_style  harmonic
bond_coeff  1 450 0.9572
angle_style harmonic
angle_coeff 1 55 104.52
kspace_style pppm/tip4p/omp 1.0e-5
pair_modify tail yes

thermo          ${out_freq}
thermo          1000
thermo_style    custom step temp pe etotal epair emol press lx ly lz vol pxx pyy pzz pxy pxz pyz enthalpy

restart 	${out_freq3} restart.lmp.${pid} restart2.lmp.${pid}
restart 	1000 restart.lmp.${pid} restart2.lmp.${pid}
restart 	1000 restart.lmp.0 restart2.lmp.${pid}
restart 	1000 restart.lmp.0 restart2.lmp.0


include         in.dump
dump            myDump all atom ${out_freq2} dump.water.${pid}
dump            myDump all atom 10000 dump.water.${pid}
dump            myDump all atom 10000 dump.water.0
dump            myDump2 all dcd ${out_freq2} dump.dcd
dump            myDump2 all dcd 10000 dump.dcd
dump_modify     myDump append yes
dump_modify     myDump2 append yes


variable natoms 	equal  "count(all)"                        # NUMBER ATOMS
variable H      	equal  "enthalpy/v_natoms"                 # ENTHALPY-per-atom
variable Vol      	equal  "vol/v_natoms"                 # volume-per-atom
fix AVG all 		ave/time ${out_freq} 1 ${out_freq} v_Vol v_H file vol_enthalpy.dat
fix AVG all 		ave/time 1000 1 ${out_freq} v_Vol v_H file vol_enthalpy.dat
fix AVG all 		ave/time 1000 1 1000 v_Vol v_H file vol_enthalpy.dat


timer           timeout 02:55:00 every 1000
New timer settings: style=normal  mode=nosync  timeout=02:55:00

fix 		1 all shake 1e-6 200 0 b 1 a 1
       0 = # of size 2 clusters
       0 = # of size 3 clusters
       0 = # of size 4 clusters
     324 = # of frozen angles
  find clusters CPU = 0.201 seconds
fix             2 all nph aniso ${pressure} ${pressure} ${pressureDamp}
fix             2 all nph aniso 7125 ${pressure} ${pressureDamp}
fix             2 all nph aniso 7125 7125 ${pressureDamp}
fix             2 all nph aniso 7125 7125 1000
fix             3 all temp/csvr ${temperature} ${temperature} ${tempDamp} ${seed}
fix             3 all temp/csvr 262.65 ${temperature} ${tempDamp} ${seed}
fix             3 all temp/csvr 262.65 262.65 ${tempDamp} ${seed}
fix             3 all temp/csvr 262.65 262.65 100 ${seed}
fix             3 all temp/csvr 262.65 262.65 100 745823


run             250000
PPPM initialization ...
  extracting TIP4P info from pair style
  using 12-bit tables for long-range coulomb (../kspace.cpp:340)
  G vector (1/distance) = 0.37261784
  grid = 24 24 25
  stencil order = 5
  estimated absolute RMS force accuracy = 0.0033826296
  estimated relative force accuracy = 1.0186689e-05
  using double precision FFTW3
  3d grid and FFT values/proc = 2366 288
Last active /omp style is kspace_style pppm/tip4p/omp
Neighbor list info ...
  update every 1 steps, delay 7 steps, check yes
  max neighbors/atom: 2000, page size: 100000
  master list distance cutoff = 10.8154
  ghost atom cutoff = 10.8154
  binsize = 5.4077, bins = 4 4 4
  1 neighbor lists, perpetual/occasional/extra = 1 0 0
  (1) pair lj/cut/tip4p/long/omp, perpetual
      attributes: half, newton on, omp
      pair build: half/bin/newton/omp
      stencil: half/bin/3d
      bin: standard
Per MPI rank memory allocation (min/avg/max) = 9.230 | 9.233 | 9.239 Mbytes
Step Temp PotEng TotEng E_pair E_mol Press Lx Ly Lz Volume Pxx Pyy Pzz Pxy Pxz Pyz Enthalpy 
12500000    276.79339    -4687.057   -4153.2377    -4687.057            0    7317.0083    20.024942    19.607996    21.011985    8250.3343    6721.8943    8998.5407    6230.5899    1017.4129    397.58022    242.30241   -3272.8358 
12501000    255.06304   -4690.4631   -4198.5526   -4690.4631            0    7927.9046     19.54863    20.143809    20.762856    8176.0777    10558.206    6240.5207    6984.9865    49.088566   -704.61625    -1063.621   -3253.2316 
12502000    268.61687   -4702.1955   -4184.1453   -4702.1955            0    5653.6282     19.95722     19.75159    20.829881    8210.8647    5481.3475    6905.5961     4573.941    523.52166    1044.8392     -1500.79   -3507.1401 
12503000    251.73262   -4679.3944   -4193.9068   -4679.3944            0     5184.997    19.885856    20.039993    20.510109    8173.5331    4488.6226    4821.4349    6244.9336   -184.88036   -4.6123193   -523.71962   -3575.8417 
12504000    256.13682   -4725.3269   -4231.3455   -4725.3269            0    5493.5076    19.929137    20.165772    20.559234    8262.4772    5884.1984    5308.0629    5288.2615    649.38147    62.741611    69.314593   -3569.3792 
12505000    243.65979   -4662.1448   -4192.2264   -4662.1448            0     7645.497    20.080393     19.60955    20.730733    8163.0884    8801.0322    7113.6421    7021.8166   -833.54876   -1431.7006   -451.71467   -3282.0279 
12506000    272.61869   -4698.3159   -4172.5478   -4698.3159            0    6233.2513    19.872804    19.985073    20.535458    8155.8513    7225.4932    5626.2822    5847.9786    444.93189    576.61023    420.19239   -3431.1355 
12507000    252.49001    -4670.236   -4183.2878    -4670.236            0    7777.5014    19.993902    20.017978    20.373814     8154.364    6525.9053    8695.0478    8111.5513   -372.71846    -382.4024   -201.13263   -3258.3637 
12508000    268.39824   -4701.8292   -4184.2007   -4701.8292            0    6358.0018    20.030854     19.98859     20.55946    8231.7722     5586.795    6596.0339    6891.1766    158.02322    2741.6659     893.7721   -3420.9101 
12509000    276.64835   -4696.3261   -4162.7865   -4696.3261            0    6996.9908    19.919059    19.865951    20.728247    8202.3967    6371.7142    7280.4734    7338.7849     9.181021    894.18946    223.29692   -3325.7817 
12510000    269.74751   -4692.0031   -4171.7723   -4692.0031            0    7300.8291    19.947249    20.027339    20.511714     8194.231    8862.8547    6043.8392    6995.7934    102.22826    1135.3966   -781.19925   -3299.2907 
12511000    263.36255   -4704.0144   -4196.0976   -4704.0144            0    7101.8992    19.844367    19.915911    20.759865    8204.6859    8736.6996    6067.9425    6501.0556   -926.60025     1715.611   -256.46292   -3346.3061 
12512000    271.91605   -4666.2799    -4141.867   -4666.2799            0    6115.0887    20.105476    19.744162    20.611461    8182.0447    6583.1964    7161.4667     4600.603   -351.40021    1254.6089   -333.55339   -3412.1734 
12513000    274.12707   -4683.6682   -4154.9911   -4683.6682            0    7491.0642    19.896683    20.036397    20.499787     8172.401    8749.9557    5826.4909     7896.746   -141.52704   -1086.8051    211.36722   -3262.1605 
12514000    269.27031   -4722.7328   -4203.4224   -4722.7328            0    7395.9564    20.060735    19.995127      20.3739    8172.3162    6380.2791    8736.2774    7071.3129    428.56645   -498.63339    528.09219   -3321.9364 
12515000     263.3203   -4702.1613    -4194.326   -4702.1613            0    6507.0556    20.026497    19.949262    20.322977    8119.3104    4685.4397    6833.6597    8002.0674   -28.300692    745.82914   -1754.0489   -3423.8137 
12516000    259.06032   -4679.1433   -4179.5236   -4679.1433            0    7243.1302    19.841464    19.927509    20.555992    8127.6535    6323.0426    7900.4759    7505.8721   -429.26815    273.02788    342.82995   -3320.9701 
12517000    265.65967   -4695.7552   -4183.4082   -4695.7552            0    6777.6116    19.836166    19.714284    20.875553    8163.5062    8877.4502    6176.1773    5279.2073    232.18734    61.989385   -623.35996   -3376.4904 
12518000    260.32914   -4720.1488   -4218.0822   -4720.1488            0    6639.2377    19.923495    19.969806    20.610145    8200.1241     7593.991    6990.8139    5332.9083    28.274108   -762.45594   -614.06131   -3424.0931 
12519000    258.95977   -4692.2412   -4192.8155   -4692.2412            0    9826.2537    20.042215       19.886    20.373445    8120.0295    7113.7931    13188.929    9176.0394   -236.73939    1229.2399   -316.42495    -3029.168 
12520000     265.2403   -4699.8618   -4188.3235   -4699.8618            0    6904.6952    19.859229    20.042573    20.414014    8125.3908    7214.5035    5047.2768    8452.3052    -28.13727     843.2765    17.064927   -3370.1138 
12521000       259.77   -4714.2656   -4213.2773   -4714.2656            0    7625.4048    19.966955    19.841497    20.566433    8147.8918    7243.0823    8557.8036    7075.3284    129.10877   -342.32827    396.76785   -3307.1608 
12522000    261.72135   -4679.9344   -4175.1827   -4679.9344            0    7869.0861    19.948435    19.853302    20.612371    8163.3712    6419.1703    7640.1978    9547.8901   -308.85389    1229.1636     454.8516   -3238.3334 
12523000    259.69162   -4729.0269   -4228.1897   -4729.0269            0    5744.2426    19.889895    20.094972    20.662381    8258.4829    5139.7072    6028.9044    6064.1163    -72.13041    1024.8946    167.78457   -3536.3445 
12524000    274.48873   -4678.0199   -4148.6453   -4678.0199            0     6771.941    19.921597    19.991145    20.589583    8199.9153    6701.6399    6201.4772     7412.706    413.42772   -1051.3602   -239.53073   -3338.8068 
12525000    285.05598   -4706.0482   -4156.2937   -4706.0482            0    7655.1869    19.826054    20.068855    20.428348     8128.158    7963.3459    7839.2952    7162.9196   -196.17378    631.23484    150.65447   -3248.8414 
12526000    272.45555   -4677.9817   -4152.5282   -4677.9817            0    6614.4189    19.785665    19.810055    20.834005    8165.9947    6653.9012    6897.2395     6292.116     57.79901    659.95968   -243.73634   -3364.7995 
12527000     273.9815   -4677.8845   -4149.4881   -4677.8845            0     7355.693    19.877265    19.865576    20.779775    8205.3786    7730.5679    9321.0797    5015.4314    239.82859    936.91009   -355.85379   -3269.2542 
12528000    267.38614   -4720.1569   -4204.4802   -4720.1569            0     7086.743    19.950729     20.05747    20.404026    8164.8988    6721.2934    6877.1178    7661.8179   -136.21462    345.85996    495.11485   -3360.6144 
12529000    265.75968   -4701.0554   -4188.5155   -4701.0554            0    7397.0473    20.087704    19.956078    20.445769    8196.1317    7601.6379    6989.1576    7600.3464   -6.2716904   -640.99145   -1261.9032   -3304.3303 
12530000    277.41718   -4701.3631   -4166.3408   -4701.3631            0    6895.8306    20.110348    19.763415    20.588684    8182.9548    5761.6125    6378.2989    8547.5806   -86.171641   -373.55272   -400.24943   -3343.3923 
12531000    269.81794   -4680.0714   -4159.7048   -4680.0714            0    6844.9285    19.987753    19.858593    20.645178    8194.6623    5952.5666    7338.9564    7243.2625    598.36411   -856.96403    458.71246   -3341.6623 
12532000    266.53272   -4696.4427   -4182.4119   -4696.4427            0    4925.5093    19.935967    20.158301    20.499803    8238.3626    5107.5866    3657.3613    6011.5799   -68.518504   -1469.2047    1152.0136   -3590.6215 
12533000    260.42796   -4689.3345   -4187.0773   -4689.3345            0    8244.4151    19.904216    20.096571    20.455353    8182.2739    7691.0364    9904.5795    7137.6292    732.42816   -884.00853   -722.93942   -3203.2707 
12534000    252.16782   -4689.3719   -4203.0451   -4689.3719            0    9022.9299    19.996892    19.970922    20.265669     8093.224    8004.4755    9827.1771    9237.1372    643.61266   -974.82644    189.96484   -3138.0563 
12535000    250.29532   -4720.4268   -4237.7112   -4720.4268            0    6956.9166    19.820648    19.835976     20.71332    8143.6884    8225.8299    7147.7931     5497.127   -640.25643    391.82713    400.97051   -3411.4567 
12536000    256.49844   -4703.8634   -4209.1846   -4703.8634            0    9778.3243    19.690002    19.909929    20.607258    8078.5921    9971.9808    10434.225    8928.7674   -533.86034   -780.89951    1159.8071   -3057.1221 
12537000    260.95218   -4694.1717   -4190.9035   -4694.1717            0    7672.4893    20.001252    19.986292    20.465384    8181.0549    6777.6889    8834.2729     7405.506    148.56675   -365.45549   -289.38502   -3275.4812 
12538000    268.97173   -4688.5063   -4169.7717   -4688.5063            0    8308.8339    19.946432    19.776097    20.717506    8172.2808    9028.3824    9464.5055    6433.6138     143.7122   -221.53274    260.05882   -3179.4889 
12539000    254.39912   -4698.1592   -4207.5291   -4698.1592            0     8541.428    19.917257    19.696014    20.733788    8133.6694    10323.594    8403.1252    6897.5647    666.88545    86.649696   -679.95019   -3194.3345 
12540000    254.49244   -4694.9947   -4204.1846   -4694.9947            0     4120.896     20.15428    20.104806    20.596444    8345.6359    3352.0228    3384.3632     5626.302    788.42949    876.66784   -786.45843   -3702.6199 
12541000     270.8061   -4705.0704   -4182.7981   -4705.0704            0    6784.4223    19.957433    20.075454    20.489066    8209.0373    5580.6317    7431.1595    7341.4756   -343.63188    -651.6882    410.64067   -3370.5644 
12542000    256.16194   -4697.6879    -4203.658   -4697.6879            0    4862.0761    20.179839    20.002271    20.519628    8282.5963     5427.398     4208.311    4950.5194    423.16513    2076.5427   -617.12706   -3616.3524 
12543000    272.26293   -4694.2412   -4169.1592   -4694.2412            0    6055.4639    19.823209    20.119948    20.565612    8202.4282    6032.3303    4515.1641    7618.8975   -210.84424    272.72061   -565.61546   -3444.7804 
12544000    259.81793   -4720.0761   -4218.9954   -4720.0761            0    7909.0113    20.070264    19.812233    20.509113     8155.177     8109.632    7584.1338    8033.2681    574.52473    1046.0063   -58.249565    -3278.338 
12545000     261.6966    -4727.584   -4222.8801    -4727.584            0    7306.5493    19.989514     19.80776    20.686072    8190.5986    6097.6914    9277.5285    6544.4278   -34.896125   -1730.9739    742.64959    -3350.102 
12546000    257.85096   -4710.9707   -4213.6834   -4710.9707            0    8213.8117    19.864583    20.064892    20.590804    8207.0978    7240.8907    9422.2487    7978.2957   -681.06864   -552.41999   -65.139525    -3230.555 
12547000    266.95442    -4723.619    -4208.775    -4723.619            0     5071.596    20.073175    19.994368    20.589574    8263.6347    5419.7286    3380.4907    6414.5686    367.57184    1107.0294    1556.1758   -3597.5633 
12548000    261.09544   -4725.3597   -4221.8151   -4725.3597            0    8821.3834    20.010176    19.775598      20.5825    8144.7666    8566.3025    9292.5445    8605.3033    -1079.124    1556.6056   -394.46207   -3173.9842 
12549000    257.49294   -4667.4589   -4170.8621   -4667.4589            0     6160.578    20.002174    20.070093    20.410967    8193.8907     5863.667    5796.3749    6821.6922    73.352077   -1287.0868   -53.749283   -3434.6761 
12550000    265.39078   -4724.3899   -4212.5615   -4724.3899            0    7460.6645    20.091403    19.826035    20.460092    8149.9269    6572.0777    8265.7787    7544.1371    80.323373    1387.4211    2378.5939   -3325.7994 
12551000    272.34137   -4653.2338   -4128.0006   -4653.2338            0    6493.2502    20.163049    19.846581    20.671163    8271.9291    4906.2567    7207.0327    7366.4612    292.73484   -890.14385    402.54304   -3344.6705 
12552000    256.40059   -4703.6751    -4209.185   -4703.6751            0    7813.3406    19.777547    20.148132     20.34266    8106.1563    9539.3615    5941.9207    7958.7395    -98.20562    438.72862    1264.6224   -3285.4921 
12553000    255.71337   -4719.8323   -4226.6675   -4719.8323            0    7323.0895    19.809105    19.984281    20.590574    8151.2054    8286.5626    6951.8763    6730.8296   -700.29135   -1425.8961    107.09606   -3356.1208 
12554000    266.89256   -4676.1868    -4161.462   -4676.1868            0    7856.8581    19.947938    19.787644    20.574903    8121.3808    8634.5586    7063.6251    7872.3907     94.39799   -785.47864   -559.06626     -3230.88 
12555000    268.39781   -4704.0735   -4186.4457   -4704.0735            0    7436.7866    19.949031    20.122949    20.380538    8181.4272    8042.0984    6580.1838    7688.0776    12.157133    461.06773    391.39888   -3299.1053 
12556000    280.12162   -4680.3631    -4140.125   -4680.3631            0    7756.6751    19.984373    19.862619    20.588268    8172.3481    6622.3015    8535.9803    8111.7434   -1100.6431   -999.05482   -529.29615   -3215.6433 
12557000    250.90193    -4706.706   -4222.8206    -4706.706            0    6973.9758     19.71737    19.962298    20.768474    8174.5549    7402.0273    6679.7867    6840.1133   -79.451085    806.49622    1888.1725   -3391.4006 
12558000    271.91749    -4715.385   -4190.9692    -4715.385            0    7647.8379    19.988714    19.997298    20.416466    8160.8753    5924.7413    8222.1865    8796.5858   -327.89424   -1067.8036   -308.24417   -3280.7389 
12559000    264.05804    -4705.434   -4196.1759    -4705.434            0    5219.1852    19.862293    20.081924    20.750545    8276.8334    6477.4741    4456.5107    4723.5709   -290.55605     1213.269   -570.39843   -3566.1726 
12560000     272.1128   -4731.1938   -4206.4014   -4731.1938            0    5338.6051    20.224962    19.861729     20.62437    8284.8653    4881.0081    6317.2108    4817.5965   -695.66644     706.3314    525.38154   -3561.3577 
12561000    265.33758   -4696.8784   -4185.1526   -4696.8784            0    6498.4471    20.030467    19.848895    20.569073    8177.9062    6224.8406    6354.2555    6916.2453    213.44891   -934.11306    1051.2218   -3410.1063 
12562000    276.90051   -4677.2655   -4143.2396   -4677.2655            0    6768.0432    19.881755    19.931859    20.694061     8200.649    5977.4701    6979.2629    7347.3966    314.07837    2193.2061   -757.92052   -3333.7948 
12563000    268.04116    -4679.041   -4162.1011    -4679.041            0    8005.0551    19.992067      19.9948    20.599667     8234.457    9623.1749    5954.1639    8437.8263   -446.98724    1220.9173    952.50598   -3200.7652 
12564000    254.42208   -4679.8097   -4189.1353   -4679.8097            0    7380.1825    19.863758    20.116811    20.504486    8193.4996    4905.3931    8542.3342      8692.82   -11.289902    384.63331    312.11133   -3307.2494 
12565000    256.84734   -4704.5575   -4209.2058   -4704.5575            0    6947.2141    19.971993    20.039854    20.444735    8182.7156    6521.4334    6906.3681    7413.8407   -342.90522    1821.7449   -1282.4063   -3380.1495 
12566000     267.7294   -4665.9507    -4149.612   -4665.9507            0    5839.2367    20.056985    20.122629     20.54461    8291.7894    4466.0451    6911.9292    6139.7357   -246.95899   -105.12218    599.16031   -3443.4892 
12567000     263.1941   -4714.7897   -4207.1978   -4714.7897            0    5852.0863    19.908632    19.882454    20.675703    8184.1141    5810.0714    6481.6962    5264.4914   -516.79084    50.873061   -669.31302   -3508.7109 
12568000    256.77424   -4677.4896   -4182.2789   -4677.4896            0    7029.1484    19.657472    19.954212    20.850906    8178.7546    8858.1324    4247.3142    7981.9986   -1276.9729    287.17767   -51.568496   -3343.8509 
12569000    255.60822   -4711.5006   -4218.5386   -4711.5006            0    8916.8454    19.965327    19.649528    20.597207    8080.4748    8943.8392    9477.2259    8329.4709    310.33407     -1238.34    -593.9904   -3167.7291 
12570000    250.40555   -4669.9532    -4187.025   -4669.9532            0    4981.2123    19.878046    20.031979     20.79296    8279.6859     5905.622     3699.357     5338.658    923.02597    834.31742    297.25623     -3585.54 
12571000    265.86287   -4697.3368   -4184.5979   -4697.3368            0    6338.5185     19.99687    19.916005     20.59087    8200.4739    7291.2972    5070.8804     6653.378   -170.53037    1288.8791   -546.69078   -3426.5396 
12572000     283.6982   -4685.6995   -4138.5636   -4685.6995            0    6313.8327    20.096992    19.934065    20.623196    8261.9563    4745.4722    7154.7877    7041.2381    595.87101    55.011304   -1877.5114   -3377.7963 
12573000    260.81958   -4732.0839   -4229.0714   -4732.0839            0     5336.512     19.69565    20.186146    20.732615    8242.8579    6049.5222    4767.7908     5192.223    143.52879   -800.43855   -485.55769   -3587.5499 
12574000    270.86831    -4735.425   -4213.0327    -4735.425            0     7878.416    20.057956     19.77674    20.477548     8123.054    7691.0887    6564.2925    9379.8668    136.24458     232.9048    1624.2888   -3279.7051 
12575000    255.49897   -4692.3238   -4199.5725   -4692.3238            0    6121.3597    19.941338    19.877461    20.706854    8207.8484    4947.3937    6033.8983    7382.7871   -200.77893    277.01937   -1218.7982   -3466.8271 
12576000    265.92054   -4710.6131    -4197.763   -4710.6131            0    5580.2024     20.18733    19.831035    20.715573    8293.1821    5147.4777    7767.2536     3825.876   -582.16165     256.5012   -354.08631   -3522.8511 
12577000    252.28378   -4728.4818   -4241.9313   -4728.4818            0    4979.3906     19.94448    20.114427    20.557351     8247.029    3258.5792    5363.4794    6316.1133    762.22048   -1110.6556   -1147.4499   -3643.0378 
12578000    277.60453   -4688.5086    -4153.125   -4688.5086            0    6363.0659    19.871307    19.934595    20.655964    8182.3741    5288.4298    7084.5243    6716.2436    652.37409   -771.25746    1534.3004   -3393.8105 
12579000    267.66799   -4727.8871   -4211.6669   -4727.8871            0    7677.8549      19.9397    19.600778    20.981019     8200.088    6676.0961    8650.5464    7706.9221    294.40166   -243.95314    254.71447   -3293.4732 
12580000    266.77013   -4680.8719   -4166.3832   -4680.8719            0     7165.733    19.949484     20.07781    20.483261     8204.405    7599.3816    7234.1179    6663.6996   -376.13726    949.20122   -755.56641    -3308.983 
12581000    269.14858   -4694.9617    -4175.886   -4694.9617            0     7928.564    19.963661    20.004227    20.324558    8116.7672    9075.4369    5490.2375    9220.0176    265.38154   -1423.9087   -401.05358   -3237.3445 
12582000    266.15197   -4732.7855    -4219.489   -4732.7855            0    6632.4206     19.89637    19.783702    20.725145    8157.9115    6581.0728    6817.4334    6498.7556    980.88803    -1384.873   -535.37516   -3430.3983 
12583000    257.67732   -4677.2963   -4180.3439   -4677.2963            0    6510.9966    20.039589    19.792345    20.642209    8187.3287    5985.2225    8303.6171    5244.1503   -484.01491   -382.30206    149.42679   -3402.9062 
12584000    278.82744   -4684.2194   -4146.4773   -4684.2194            0    7727.7113    20.009404    20.106331    20.284184    8160.6457     6703.096     8947.686    7532.3521   -451.20501    1233.5486    981.38027   -3226.7664 
12585000    261.20393   -4718.5692   -4214.8155   -4718.5692            0    5509.0288    20.080034    20.017062    20.500108    8239.8803    4678.0657    6004.3903    5844.6303    297.21946    338.06323   -909.54253   -3552.7944 
12586000    261.22587     -4695.31    -4191.514     -4695.31            0    9807.2399    19.750597     20.05569    20.366411    8067.3769    11823.314    7779.8765     9818.529    135.01549   -153.26295   -478.15635   -3037.6489 
12587000    248.21695   -4685.2207   -4206.5134   -4685.2207            0    7149.7435    19.963496    19.839711    20.702233     8199.533    6055.4627    7872.5405    7521.2272   -703.98625    218.83224    236.12612   -3351.5344 
12588000    259.84142    -4686.935    -4185.809    -4686.935            0    7056.0613    20.032755    20.038952    20.371713    8177.9272    7141.5206    6696.4526    7330.2107    177.66576   -405.15193     1135.286    -3344.256 
12589000    249.24998   -4726.4729   -4245.7734   -4726.4729            0     5500.593    20.095567    19.908487    20.430836    8173.8122    4930.1321    5323.3597    6248.2873    454.22698   -145.77171   -913.86967    -3590.066 
12590000    259.77403   -4706.0471   -4205.0511   -4706.0471            0    7116.4309    19.843476    19.873999    20.803429    8204.2318    10176.415     6470.209    4702.6687    362.23276    830.21266     778.9008   -3353.5679 
12591000    254.89901   -4694.5997   -4203.0055   -4694.5997            0    8354.3869    19.871326    19.804516    20.604907    8108.8958    8197.5929    8974.7089    7890.8589   -462.43742    244.73452     846.2465   -3215.0163 
12592000    254.70771   -4681.6864   -4190.4612   -4681.6864            0    9846.5947    19.775574    19.843722    20.625204    8093.7633    10357.777    10108.839    9073.1676   -729.58116   -244.02665    164.26699   -3028.1767 
12593000    273.89586   -4694.0916   -4165.8604   -4694.0916            0    7065.0101    19.885511      19.9773    20.711246    8227.7248    7530.7824    5391.1558    8273.0921     616.3746   -740.69446   -918.30946   -3318.1092 
12594000    255.52175   -4686.4465   -4193.6514   -4686.4465            0    5785.2233    19.964248    20.017898    20.485677    8186.9428     4022.447    6947.0712    6386.1515   -138.42573    1899.6887   -674.49739   -3502.9063 
12595000    263.13061   -4745.1069   -4237.6373   -4745.1069            0    6847.1609    19.975524    19.911667     20.56471    8179.5304    6947.9528    6353.3807    7240.1492     326.7484    238.96589   -299.16413   -3420.8391 
12596000    254.66156   -4659.2017   -4168.0655   -4659.2017            0    7700.5185    20.083403     20.06719    20.287003    8176.0167    6050.5664    6916.4156    10134.573    579.59704    149.03119    829.92159   -3249.8648 
12597000    273.48044   -4718.4518   -4191.0218   -4718.4518            0     5964.278    19.889765    19.998619    20.632023    8206.7549     5873.098    6261.7275    5758.0083    721.28271   -2078.8272   -801.36214   -3477.1746 
12598000    272.27417   -4717.7928   -4192.6892   -4717.7928            0    6949.0525    19.733544    19.919388    20.813105    8181.2177    8913.2422     5652.779    6281.1363    539.24595   -1321.1121    864.75185   -3363.5653 
12599000    269.72503   -4718.2496   -4198.0622   -4718.2496            0    6716.1603    19.933908    19.989902    20.473214    8158.1023    7434.1188    5131.5249    7582.8371   -448.52007    421.14725   -779.32373   -3398.9899 
12600000    250.70381    -4676.906   -4193.4027    -4676.906            0    9229.0925    19.832159     19.91972    20.671502    8166.2984    10974.681    7654.4695    9058.1268    654.98482    716.87581   -228.83184   -3094.2446 
12601000    253.99134   -4726.0581   -4236.2145   -4726.0581            0    8272.5967    20.006782    19.733125    20.627749    8143.7593    8489.4439    9757.9576    6570.3887    596.54249   -754.99258    299.88198   -3253.6916 
12602000    268.67317   -4702.8892   -4184.7304   -4702.8892            0    7307.5216    19.850558    20.082501     20.50763    8175.3428    7466.6175    7153.6761    7302.2713    149.77367    564.22048    788.24763    -3313.462 
12603000    255.79852   -4674.3146   -4180.9857   -4674.3146            0    7296.0957    20.372457    19.664036     20.45211    8193.2117    3866.0134    9845.7085    8176.5654     -143.585    830.66561    1172.8847   -3309.1782 
12604000    282.78906   -4719.3702   -4173.9877   -4719.3702            0    6435.6816    19.912154    19.885947    20.688679    8192.1381    6295.4648    7449.7588     5561.821    394.52927    1284.6283    9.6597937   -3405.0915 
12605000    272.75904   -4652.9547    -4126.916   -4652.9547            0    10244.353    19.902222    19.946035    20.375736    8088.5646    9825.0975    10702.022    10205.939   -927.58679   -2077.7554    641.12462   -2918.4571 
12606000    246.31355    -4697.308   -4222.2716    -4697.308            0    6624.1645    19.937902    20.223134    20.307305    8188.0448    6765.4621     5544.193    7562.8382    248.47179    641.41909   -163.21267    -3431.252 
12607000    261.18522   -4677.6469   -4173.9293   -4677.6469            0    8839.6874    19.922167    19.732659    20.534994     8072.662    7055.0347    9724.5988    9739.4286    351.52477    -363.9475   -168.59862   -3133.2197 
12608000    271.55735   -4688.5672    -4164.846   -4688.5672            0    6611.6016    19.867097    19.983956     20.62344    8187.9837    6363.4946     8009.028    5462.2822   -890.76869    63.047616   -297.64238   -3375.3325 
12609000    259.56707   -4683.4176   -4182.8206   -4683.4176            0    7867.8256    19.942762    19.781077    20.570994    8115.0373    8002.1808     7814.796       7786.5    181.45092    805.11701   -903.74821   -3251.6674 
12610000    267.49045   -4665.4394   -4149.5616   -4665.4394            0     8692.811    19.974635    19.738018    20.497708    8081.4201    7898.2064    9659.7492    8520.4774    208.13434    490.87511   -438.06354   -3125.0336 
12611000    262.13465   -4664.6736   -4159.1249   -4664.6736            0    7108.1822    19.725479    19.950401    20.843923    8202.7347    8489.0599    7014.7556     5820.731    131.45951    260.55617   -534.18826   -3308.7839 
12612000    262.54152   -4687.5716   -4181.2383   -4687.5716            0    7210.3737    19.999655    19.901152    20.595258    8197.2459    8570.2653    5631.5314    7429.3246   -237.20656    -855.0276   -605.50196   -3319.2494 
12613000    269.32908   -4736.0389   -4216.6151   -4736.0389            0    7292.9199    19.697708    20.114297    20.568275    8149.2647    6656.5829    7477.6621    7744.5147     37.96153     1381.596    1214.2389   -3349.8613 
12614000    265.16705   -4693.3408   -4181.9438   -4693.3408            0    7308.8187    19.929912    19.769274    20.786845    8190.0148    6726.7862    8760.1514    6439.5186    -366.3278    342.26737    491.00152   -3308.9568 
12615000    264.55647   -4708.6506   -4198.4312   -4708.6506            0    6400.8328    20.092403    20.118197    20.436194    8260.7782    6230.9976     5297.934    7673.5668    164.34319    360.84149    975.56453    -3427.291 
12616000    259.34628   -4726.2683   -4226.0972   -4726.2683            0    8255.7465     19.88566    19.836709    20.730481     8177.471    7713.8849    10676.173    6377.1819    407.90167   -580.88308    319.23758   -3241.5166 
12617000    260.66669   -4721.3721   -4218.6544   -4721.3721            0    8014.9088      19.9086    20.010593    20.454484    8148.7166    9141.1041    6852.5055    8051.1169   -324.77547   -679.23245    1669.3258   -3266.1573 
12618000    256.00847   -4709.3666   -4215.6328   -4709.3666            0    7712.1195    19.970465    20.054944    20.453085    8191.5948    7990.3869    6976.6562    8169.3154    180.68351    702.12678    282.12427   -3294.2966 
12619000    256.39571   -4705.6516   -4211.1709   -4705.6516            0    8590.0771    19.872664    19.688068    20.712732    8103.9466    8793.6259    9033.7841    7942.8211    1042.9017    307.70728    636.74704    -3195.929 
12620000    253.64821   -4671.5608   -4182.3789   -4671.5608            0    7709.1989     19.79733    19.982703    20.751882     8209.531    7331.6476     9469.879    6326.0701   -534.53371   -20.149742   -463.30656   -3259.3751 
12621000    252.12431   -4709.9135   -4223.6706   -4709.9135            0    6900.1733    20.252139    19.806372    20.446381    8201.4809    5347.7995    8767.7844    6584.9359   -190.12221   -107.95534   -163.05925   -3398.3396 
12622000    260.92893   -4669.1038   -4165.8804   -4669.1038            0    7379.7978    19.801189    20.116348    20.517307    8172.6098    9328.1146    4763.4397    8047.8391     193.3088    190.95397   -205.35113   -3286.2887 
12623000    264.99678   -4691.7141   -4180.6455   -4691.7141            0    6821.4788    20.037353     19.79231    20.566056    8156.1997    6556.7395    7009.5024    6898.1944   -782.68481    1523.7122    854.60968   -3369.2319 
12624000    254.42107     -4680.75   -4190.0776     -4680.75            0     7238.432    19.666607    20.109076    20.715894    8192.6655    8852.9745    6403.0005    6459.3211    635.50158    854.38309    666.77721    -3325.218 
12625000    275.98427   -4693.4088   -4161.1499   -4693.4088            0    8164.5862    19.987873    20.003942    20.405265    8158.7648    6981.1066    7993.0596    9519.5924    916.34473     607.7529    256.79751   -3189.6685 
12626000    253.00912   -4713.3721   -4225.4227   -4713.3721            0    6829.2195    19.871866     19.88721     20.59592    8139.4246     5703.205    8273.3393    6511.1142    205.22837     466.9221   -1118.3403   -3414.7591 
12627000    261.06943   -4702.1797   -4198.6853   -4702.1797            0    6242.8514    19.898872    19.651971    20.998667    8211.5719    5267.7407    7957.7414    5503.0723   -192.57359    930.63464    378.23498    -3451.058 
12628000    261.41103   -4714.7428   -4210.5897   -4714.7428            0     7563.895    19.831884    20.129766    20.488496    8179.2367    8150.5288    6354.9734    8186.1828   -457.89608    -176.3465    868.31784   -3308.3246 
12629000    271.15952   -4668.8757   -4145.9217   -4668.8757            0    6744.8473    20.119492     19.90164    20.487876    8203.5687    7390.0348     6252.378    6592.1291   -151.38264   -444.34349    514.42118   -3338.9639 
12630000    251.17314   -4726.2803   -4241.8717   -4726.2803            0    7021.8321    19.831974    20.153119    20.463642     8178.829    8002.8848    5493.5814    7569.0299    1047.8478    1274.8478    53.761733   -3404.3088 
12631000    242.41891   -4708.4315   -4240.9062   -4708.4315            0    6049.4712     20.09897    19.858671    20.651042    8242.6327    6891.4719     5964.016    5292.9257   -44.232789   -672.82904    872.40228   -3513.6972 
12632000    265.44065   -4681.0532   -4169.1286   -4681.0532            0    5443.1285     19.95939    19.919226    20.722594    8238.7979     6616.718    3684.6699    6027.9976   -464.52393    1839.1649    425.35903   -3515.1127 
12633000    276.23741    -4681.492   -4148.7449    -4681.492            0    8253.6311      19.9891    19.804941    20.574067     8144.922    7813.8316    9215.0128     7732.049    202.42191   -1770.5513    1445.0949   -3168.3346 
12634000    255.55874   -4694.9164   -4202.0498   -4694.9164            0    8611.5205    19.927865    19.860624    20.531303    8125.8756    10701.713    6026.2616    9106.5867     309.0881    1073.9784    437.08408   -3181.5196 
12635000     266.1121   -4705.8933   -4192.6737   -4705.8933            0     10016.74    19.855846     19.85716    20.529405    8094.3481    11446.508    9509.2704    9094.4405    187.88327   -900.08254   -606.29679     -3010.22 
12636000    261.27492   -4690.0226    -4186.132   -4690.0226            0     8648.999    19.896574    19.888288    20.587024     8146.466    9458.2451    9130.5253    7358.2265    287.64837   -298.92536   -409.28167    -3158.563 
12637000     255.9975   -4697.5297    -4203.817   -4697.5297            0     7199.416    19.907625     19.96395    20.544524    8165.1094    9816.0746    4844.8164     6937.357   -767.51939   -613.93218   -1434.8659   -3346.5123 
12638000    259.58835    -4706.447    -4205.809    -4706.447            0    9121.4745    19.852996    19.769601    20.739721    8140.0462    8827.1531    9744.6653    8792.6051   -372.62755    586.31461    404.05367   -3122.9602 
12639000    245.92011   -4712.2562   -4237.9786   -4712.2562            0    6973.5358    19.972001    19.880239    20.492446    8136.4882      4457.52    9114.6082    7348.4792    859.76286   -555.36826    554.27422   -3410.4825 
12640000    266.49672   -4693.5547   -4179.5933   -4693.5547            0    7570.7697    19.714773    20.075303    20.587233     8148.016    9896.7423    5901.0809     6914.486   -325.15694   -798.87766   -436.55078   -3279.9553 
12641000    269.79538   -4723.0518   -4202.7287   -4723.0518            0    6629.8315    19.952794    19.911052    20.736304    8238.1417    5932.7299    8207.1393    5749.6253   -436.70015    1533.9012    481.74209   -3406.1886 
12642000    249.74622     -4677.65   -4195.9934     -4677.65            0    6360.5908    19.928302    20.010297    20.650062    8234.6512     7342.883    5770.4049    5968.4845   -1.4433723    795.76626    1411.8676    -3432.125 
12643000    262.49197   -4717.2508    -4211.013   -4717.2508            0    4866.6554    20.278541    19.883715    20.401435    8226.1183    4624.7161    5099.1805    4876.0695    97.697505    380.12812    470.66929   -3627.1628 
12644000    263.69808   -4698.0979    -4189.534   -4698.0979            0    9525.5517    19.821875     20.01327    20.483685    8125.8889    9321.9942    9581.2229    9673.4381    453.13248   -890.28962   -1838.9892   -3060.6822 
12645000    257.87251   -4697.4107   -4200.0819   -4697.4107            0    7688.1164    19.950527    19.766378    20.785019    8196.5653    8074.5256    6879.2419    8110.5817    187.57742     190.9375   -270.43159    -3281.056 
12646000    253.96114   -4698.0928   -4208.3073   -4698.0928            0    9209.1366    20.006519    19.906136    20.296277    8083.0426    8531.8149    9493.9463    9601.6485    250.34161    1686.4425     1885.232   -3122.7078 
12647000    254.50965    -4713.407   -4222.5637    -4713.407            0    6988.6198    19.929358    20.020836    20.446665    8158.2686    8338.9028    6148.1725     6478.784   -346.86722    148.72744   -782.62702   -3391.0579 
12648000     252.0242   -4701.0841   -4215.0342   -4701.0841            0    7860.9148    19.993048    19.928351      20.4598    8151.7666    8616.4709    4565.6167    10400.657   -14.085798   -881.95422   -412.02696   -3280.4882 
12649000    273.46361   -4702.7801   -4175.3826   -4702.7801            0    6356.2019    19.994713    20.039522    20.512901    8219.2017    5810.1998    6931.3931    6327.0128   -530.03905    497.27402     75.41072   -3413.4734 
12650000    260.04923   -4710.4231   -4208.8963   -4710.4231            0    5420.7933    20.001897    19.906674    20.713175    8247.3905    5438.3829    6192.1372    4631.8599    960.56253    1141.1049   -465.89162   -3556.8847 
12651000    279.96097   -4694.3096   -4154.3813   -4694.3096            0    6629.3476    19.839445    19.987756    20.691902     8205.291     6790.163    7046.7688     6051.111   -97.509046   -501.30649    861.38277   -3361.0754 
12652000    269.30115   -4707.5843   -4188.2143   -4707.5843            0    4700.6987    20.020172     20.02669    20.638958    8274.9379    3138.1838    5428.2358    5535.6764    353.28692    802.50667   -476.51922   -3620.9271 
12653000    270.93949   -4722.0537   -4199.5241   -4722.0537            0    7498.9009    20.176065    19.704415    20.609996      8193.66    6788.5881    8463.3096    7244.8049    280.06656    248.88099    1092.0213   -3303.4345 
12654000    267.86695   -4704.3141   -4187.7102   -4704.3141            0    7763.7916    19.688739    20.060969    20.599095    8136.1311    9562.5372    6311.7069    7417.1306   -222.98857    268.62373    927.57342    -3266.481 
12655000     259.5045   -4689.2088   -4188.7325   -4689.2088            0    7903.2874    20.029097    19.888684    20.420474    8134.5442    7716.7464    8003.6065    7989.5094    375.50996   -513.09611   -777.33741    -3251.134 
12656000    246.37311   -4688.5361   -4213.3848   -4688.5361            0    7829.1419    19.951136    20.007332    20.444149    8160.6703     7512.564    6484.0468    9490.8148   -371.47021     8.747043     -1101.86   -3281.5994 
12657000     267.2015   -4697.2736    -4181.953   -4697.2736            0    8410.2758     19.97194    19.979506     20.51305     8185.312    8178.2944    9505.8731      7546.66    293.59508    855.61273   -571.99911   -3177.9816 
12658000    241.46033   -4696.9298   -4231.2533   -4696.9298            0     5507.625    20.013138    19.615909    20.760958    8150.2516      5366.93     6417.981    4737.9638    277.82612     586.3169   -1401.9468   -3576.6001 
12659000    255.54625   -4714.2143   -4221.3718   -4714.2143            0     5229.307    19.979262    19.887541    20.647595    8204.0819    5342.5543    4824.9021    5520.4645   -915.21801    463.32205   -1978.5993   -3595.6951 
12660000    255.41275   -4685.4712   -4192.8862   -4685.4712            0    4726.7742    20.150546     20.09177    20.391264    8255.6096    5785.0247     3050.511     5344.787   -185.51084    991.53758     1287.819   -3623.7845 
12661000    252.71396   -4692.0185   -4204.6384   -4692.0185            0    8521.0741    20.027841    19.831914    20.377191    8093.6252    9192.1468    7662.2813    8708.7942    174.55726    481.53741   -200.44863   -3198.8345 
12662000    269.92099   -4713.6412   -4193.0759   -4713.6412            0    7094.3028    19.957849    19.820218    20.656575    8171.0991      6963.82    7592.0138    6727.0747    508.34179   -131.41656    13.743068   -3347.6684 
12663000    263.07298    -4694.424   -4187.0656    -4694.424            0    8028.6171    20.054524    19.860264    20.545264    8182.9349    7559.6266    9031.7889    7494.4357    42.363397   -1005.8894   -310.53804   -3228.9328 
12664000     258.4466   -4693.8748   -4195.4388   -4693.8748            0    7759.3321    19.834535    20.111237    20.456574    8160.0664    8650.3969    6001.7905    8625.8088    165.59298     803.9383    213.78503   -3272.0302 
12665000    266.64234   -4700.7199   -4186.4777   -4700.7199            0    9354.5472    19.848814    19.863121    20.484314    8076.1331    9363.0058    8550.7807    10149.855    68.810604    485.84092   -548.74111   -3084.6793 
12666000    269.38709   -4692.5561   -4173.0204   -4692.5561            0    8355.7882     19.92567    19.699369    20.757575    8147.8285    10362.061    7750.3789    6954.9246     286.9221   -415.17896   -616.34304   -3180.1212 
12667000    269.13755   -4710.1024    -4191.048   -4710.1024            0    6774.0566    20.016561    19.941204    20.477423    8173.6523    7195.8695    5438.3603    7687.9401     173.7013   -219.65236   -615.13925   -3383.5511 
12668000     277.5671   -4699.4569   -4164.1454   -4699.4569            0    7153.9978    19.918072    20.059393    20.489307    8186.3885    6163.6937    7257.2552    8041.0446    189.07441    352.86642   -522.58213    -3310.029 
12669000    278.67748   -4691.8094   -4154.3565   -4691.8094            0    7019.2551    20.119359    19.919334    20.561239     8240.209    7386.6605    6138.2588    7532.8459    1052.6862    1117.7126    720.78039   -3310.8175 
12670000    263.73874   -4695.8059   -4187.1635   -4695.8059            0    7749.5773    19.933294    19.748544    20.914601    8233.1065    7705.8317    9546.5372    5996.3631    911.20952    30.013064   -80.926941   -3256.6608 
12671000    270.19608   -4690.4692   -4169.3733   -4690.4692            0    6773.6172    19.695594    19.992168    20.673491    8140.3448    6811.7976    6691.6651    6817.3888    307.97382    1730.9423    960.39176   -3365.2191 
12672000    250.28273   -4687.8503    -4205.159   -4687.8503            0    8134.0511    19.907915    19.969131    20.448797    8129.2917    8242.4514    8513.2695    7646.4322    325.97544   -289.87029    400.52629   -3240.8072 
12673000    244.02961   -4693.2778   -4222.6462   -4693.2778            0    6809.0567    19.991932    19.957688    20.580073    8211.2997    5468.0994    8587.8375    6371.2333   -233.09339   -110.96117   -1029.0389   -3407.2386 
12674000    262.11636   -4691.1245    -4185.611   -4691.1245            0    7843.2638    19.592243    20.078767    20.694196      8140.85    8761.2433    7928.4628    6840.0852    446.27954    414.62873    466.34963   -3254.4121 
12675000    270.14505   -4726.9295    -4205.932   -4726.9295            0    6857.7821    20.188814    19.769466    20.484457     8175.799    4615.6857     8593.812    7363.8485   -590.26741    863.20792   -142.61122     -3388.24 
12676000    256.46461   -4711.4879   -4216.8743   -4711.4879            0    8817.9713    19.898375    20.077919    20.313218    8115.4956    10962.626    5533.9798    9957.3087   -476.41501   -170.44506      271.707   -3173.2129 
12677000    264.46871   -4707.4813   -4197.4311   -4707.4813            0    5280.4687    19.955606    19.869657    20.641606    8184.6245    5768.6011    5653.8701    4418.9349    23.421397   -1295.0982   -225.40935   -3567.1314 
12678000    261.37309   -4702.5643   -4198.4844   -4702.5643            0    6023.8105     19.86896    20.075729    20.597062    8215.8356    7945.7047    3807.9288    6317.7979   -173.92775   -446.85946   -611.59939   -3476.7142 
12679000    270.70981   -4689.1494   -4167.0627   -4689.1494            0     6705.802    20.222855    19.902385     20.32528    8180.5805    7206.6308         3446    9464.7751   -31.152846    526.67516    853.36196   -3367.0245 
12680000    267.05027   -4697.8553   -4182.8264   -4697.8553            0    6912.0633    20.180449    19.985324    20.451359    8248.2951    4657.9375    8158.8776    7919.3748   -444.33995   -540.60224   -1584.4855   -3351.3541 
12681000    275.96423   -4741.3138   -4209.0936   -4741.3138            0    7763.4029    20.015608    19.996131    20.466813    8191.5294    6473.2262    8812.1247    8004.8576    147.85344   -638.06206    76.970098   -3281.6383 
12682000    258.19059   -4690.9281   -4192.9858   -4690.9281            0    6399.0375    19.856735    20.123066    20.443018     8168.588    8607.3589    4031.1332    6558.6204    222.10847    307.81612    22.160519   -3430.6654 
12683000    245.12682   -4692.1294   -4219.3817   -4692.1294            0    6483.8415     19.98824    19.991037    20.527402    8202.4551     4493.828     7578.124    7379.5723    167.98934     496.9031     1660.971   -3443.7561 
12684000    251.35375   -4713.1546   -4228.3977   -4713.1546            0       5888.5    19.958248     19.88522    20.779767    8246.9521    4467.2306    6194.4409    7003.8284     1178.525   -230.05672    540.65826   -3520.1682 
12685000    273.14496   -4693.8194   -4167.0363   -4693.8194            0    7578.0525    20.022349    19.965178    20.522355    8203.8067    6850.3396    8646.6922    7237.1257   -8.1196557    1556.4418     611.2898    -3260.367 
12686000    268.40348   -4675.7226   -4158.0839   -4675.7226            0    7068.0312    19.892117    20.039539    20.436696    8146.6569    7299.9099    5819.8621    8084.3215   -2.8589964    1259.5525    892.33861   -3318.3266 
12687000    253.70759   -4702.5272   -4213.2308   -4702.5272            0    6348.4723    20.132675    19.825731    20.616491    8228.9694    4704.1956     7679.163    6662.0584   -206.70498   -839.45688    554.39799   -3451.3438 
12688000    260.53418   -4683.2012   -4180.7391   -4683.2012            0     6924.273    19.647854    19.990252    20.882129    8201.7813    8676.0623    6127.8145    5968.9422   -14.359511    673.20527   -36.386741   -3352.4952 
12689000     252.0324   -4718.4581   -4232.3924   -4718.4581            0    5725.0811    20.032403     19.98119    20.595053    8243.6077    6496.4645    4867.8715    5810.9071   -289.26042    971.72685   -1335.0106    -3544.097 
12690000    272.27017   -4677.2363   -4152.1404   -4677.2363            0    5879.4312    20.190728     19.86051    20.473956    8210.0187    7919.7347    5272.0533    4446.5055    259.87016   -618.83595    315.45065   -3448.1685 
12691000    267.51311    -4703.521   -4187.5995    -4703.521            0    6928.6165    19.926449    19.885754    20.652404    8183.5659    7044.3894    6371.6324    7369.8278   -470.35741   -1283.1892    608.03814   -3360.6766 
12692000    267.01397   -4691.2083   -4176.2494   -4691.2083            0    7872.2948    19.927439    19.849111    20.595348    8146.3243    6224.7048    8114.9981    9277.1814   -336.40197    218.37436   -420.78661   -3240.9753 
12693000     261.3246   -4691.5635    -4187.577   -4691.5635            0     8534.306     19.86659    19.999168    20.559019    8168.4122    10408.358    6770.1179    8424.4424   -11.769002     414.1813    1028.5099   -3170.9029 
12694000    260.09081   -4665.8971   -4164.2901   -4665.8971            0    7691.4133    19.733544    20.030335    20.641309    8158.8798    7791.7031    7886.5304    7396.0063   -590.36015    10.231158   -140.91734   -3249.0974 
12695000    270.08141   -4705.5379   -4184.6631   -4705.5379            0    8123.4204    19.847705    19.745197    20.762236    8136.6548    6895.4667    10357.121    7117.6739   -1267.6457    93.579376     454.2879   -3220.6994 
12696000    267.00372   -4710.5531    -4195.614   -4710.5531            0     7235.292    19.829092    20.026932    20.560925    8165.0696     7264.269    7090.6144    7350.9928   -133.20013   -1519.7094    1080.7461   -3334.0415 
12697000    264.03184   -4708.2271   -4199.0195   -4708.2271            0    5667.6788    20.101589    19.993434    20.431987    8211.6113    5328.1815    5289.7723    6385.0826     323.3715    1080.4045    -44.18153     -3520.27 
12698000    267.19096   -4699.6355   -4184.3353   -4699.6355            0    7031.3209    19.792573    20.050602    20.871156     8282.781    9241.2935    6529.2804    5323.3888    -234.1608    -506.4161    1302.7173   -3334.9808 
12699000    265.25279   -4678.4124   -4166.8501   -4678.4124            0     6612.037    20.176697    19.783692    20.656963    8245.6307    4505.5231    9114.1096    6216.4782    648.79257   -2.9113631   -292.26759   -3371.7258 
12700000    250.80136   -4685.1242   -4201.4327   -4685.1242            0    7592.7039    19.878621    19.982368    20.457104    8126.0101    8340.3522    6904.1102    7533.6495   -217.95639   -1379.7384   -435.48374    -3301.625 
12701000    258.83435   -4702.6271   -4203.4433   -4702.6271            0    5692.6443    20.062821    19.997818    20.528207    8236.1763    5798.0479    4625.7332    6654.1518   -745.61985    2707.8944   -113.05403   -3519.6646 
12702000    256.62496   -4688.3151   -4193.3923   -4688.3151            0    5986.9821     19.86278    19.958726    20.727493    8217.1203    6377.8544    5749.0603    5834.0317    -433.8792    180.62689   -591.43614   -3475.9227 
12703000    249.81801   -4705.1241    -4223.329   -4705.1241            0    5608.2902    20.115648    19.928301    20.506112    8220.2991    6807.6191    5891.8423    4125.4091     115.8258   -834.94672    1188.7429   -3550.9813 
12704000    259.09831   -4711.4307   -4211.7378   -4711.4307            0    6804.9895    19.887471    20.041335    20.400482    8131.0505    7986.4573    5916.9744     6511.537    24.600207     1528.276    1080.2576   -3404.7815 
12705000    245.70413    -4704.388   -4230.5269    -4704.388            0     4011.152    19.928224    19.908831     20.87023    8280.2145    3792.1052    4711.5437    3529.8071   -600.51138    520.70679   -4.6809834   -3746.1465 
12706000    261.65227   -4729.4239   -4224.8055   -4729.4239            0    6131.4625    19.846245    20.117938    20.561325    8209.4286    6766.4927    4413.6659    7214.2288   -379.51067    626.97601    754.68557   -3490.7095 
12707000    257.19396   -4694.5689   -4198.5488   -4694.5689            0    7367.2107    19.864231    20.061636    20.566267    8195.8419    6803.9258    7189.0598    8108.6466    334.97132     1833.563   -2078.3803   -3317.9612 
12708000    264.23811   -4691.7347   -4182.1293   -4691.7347            0    8057.2084    19.908054    19.783612    20.683865    8146.4064    8852.0517    7992.0053    7327.5682   -199.51855    79.383267     1092.916   -3224.8766 
12709000     258.9023   -4698.7831   -4199.4683   -4698.7831            0    7440.3693    19.613146    20.045386    20.751452    8158.4975    8288.9565    7629.7229    6402.4285    473.82102    609.38759    38.260502   -3314.1884 
12710000    281.62834   -4709.2881   -4166.1441   -4709.2881            0    6757.5564    20.223263    19.800785    20.513443    8214.3311    5463.4022    7528.1058    7281.1613    920.15113    658.69787    -1147.501   -3356.6051 
12711000    267.38041   -4695.4014   -4179.7357   -4695.4014            0    10012.736    19.689402    20.030099    20.458962    8068.6189    11162.035    8387.4453    10488.728    651.01644   -1354.0145    1084.9081   -3001.5117 
12712000    258.28328    -4682.204    -4184.083    -4682.204            0    6736.9044    20.103756    19.599558    20.659885    8140.5057    4234.6805    8266.3409    7709.6919    -98.38647   -1800.1575   -749.74024   -3384.2715 
12713000    273.76042    -4691.036    -4163.066    -4691.036            0    6716.3431    19.928991    20.068224     20.49966    8198.6233    6174.6617    7149.6554    6824.7123    171.57587    1459.0983   -642.38187   -3360.0028 
12714000    261.94983   -4685.2825   -4180.0902   -4685.2825            0    8000.2343    20.145463    20.022123    20.231385    8160.4292    5356.9059    8962.3709    9681.4261    753.68065   -1249.1824    210.45412   -3227.9704 
12715000    242.11151   -4705.0582   -4238.1258   -4705.0582            0    8022.5603    19.872919     19.89697    20.641057    8161.6982    10292.374    6166.3621    7608.9445    584.64745   -381.71103   -1224.1654   -3283.2005 
12716000    262.00818   -4716.0172   -4210.7124   -4716.0172            0    4629.1781    19.987535    19.997443     20.64795    8252.9773    3462.2345    5493.7871    4931.5126    911.23653   -398.15917    842.12266   -3653.5389 
12717000     246.9422   -4700.9614   -4224.7126   -4700.9614            0    7437.3026    20.029904    19.766482    20.480842    8108.7901    6448.6097    8577.9856    7285.3125     191.6143   -1212.9197    774.62644   -3345.1892 
12718000    277.30961    -4709.144   -4174.3291    -4709.144            0    6410.3817    20.005799    20.141845    20.309462     8183.773    7847.9608     4650.399    6732.7852    -233.4772   -45.621607    1322.0018   -3409.2376 
12719000    260.79588   -4684.9109   -4181.9441   -4684.9109            0    8758.5902    19.817572    19.907465     20.70274    8167.5959    9809.0784     7467.526    8999.1661     73.94401   -1968.0738    952.76505   -3138.6558 
12720000    256.36764   -4720.9893   -4226.5627   -4720.9893            0    5508.4381    19.905323    19.997171     20.63222    8212.6582     4901.021    7055.9456    4568.3477   -213.67214    323.34652   -1186.0258   -3566.7995 
12721000    261.05677   -4698.2736   -4194.8036   -4698.2736            0    8995.6599    20.044113    19.973374    20.366951    8153.8798    7946.0729    9215.3878    9825.5189   -415.15569     614.8983   -824.26712    -3125.076 
12722000      266.894   -4741.6156   -4226.8881   -4741.6156            0    6285.5208    20.080938    19.811646    20.712477     8240.178    6116.5803    7811.9921    4927.9899   -257.60789   -517.37071   -883.09606   -3471.5285 
12723000    259.75991   -4721.1692   -4220.2004   -4721.1692            0    6140.4865    19.872902    19.971305    20.698193    8214.8603    5074.1604     6713.545     6633.754    114.95062   -1025.5838   -790.02355   -3484.5375 
12724000     268.8439   -4714.9605   -4196.4724   -4714.9605            0    7012.0378    20.207628    19.700013    20.623259     8209.924    6011.5121    9008.1364    6016.4647    573.89672    53.338108   -845.10034   -3356.8978 
12725000    260.28294   -4710.6451   -4208.6675   -4710.6451            0    8385.7986    19.780331    20.167642    20.347232    8116.9717    8680.6753     7811.544    8665.1763    10.404404   -216.53622    191.81017   -3215.9759 
12726000    261.15843   -4703.2232   -4199.5572   -4703.2232            0    6786.2976    19.975967    19.936405    20.617692    8210.9747    6988.4645     6633.509    6736.9194   -490.53366    -347.9722    1066.0902   -3386.9073 
12727000    277.36348   -4674.6107   -4139.6919   -4674.6107            0    6017.6498    19.777321    19.921489    20.862118    8219.5428    8374.7655    5701.1946    3976.9892    207.62766    502.59651   -474.25182   -3418.3345 
12728000    273.39347   -4684.5173    -4157.255   -4684.5173            0    7945.8131    19.812117    19.865193    20.687763    8142.1143    9315.0049    7986.9345       6535.5   -429.69348    1024.4451   -1651.6359   -3213.7343 
12729000    270.83875   -4701.9719   -4179.6365   -4701.9719            0     6737.717    19.879224    20.036012    20.583496    8198.4141     7078.037    5733.4829     7401.631    -293.3663    117.26026   -1517.9619   -3374.0383 
12730000    259.22232   -4647.4641   -4147.5321   -4647.4641            0    6673.2624    19.981166    20.023975    20.406968    8164.8761    5392.7679    7237.3319    7389.6875    272.92542   -1785.0182    -547.1004   -3352.9044 
12731000    274.54583   -4692.8311   -4163.3464   -4692.8311            0    8298.2784     19.83451    19.845218      20.5936    8106.0565    8520.4552    8041.1594    8333.2206     21.27483    195.07239   -1106.2595   -3182.3362 
12732000    269.34431   -4720.1803   -4200.7272   -4720.1803            0     6279.866    19.963022    19.791512    20.831685     8230.565    5931.5231    6640.5318     6267.543   -471.45346   -455.23255    84.235417   -3446.9276 
12733000     263.9869   -4709.7119    -4200.591   -4709.7119            0    7169.0563    19.969654     19.97925    20.441064    8155.5489    7547.0008    7986.5672    5973.6008    -37.71809   -358.57386    924.30957   -3347.9012 
12734000    263.93929   -4686.2104   -4177.1812   -4686.2104            0    7321.6555    20.068566    20.092153    20.460869    8250.2459    6745.7779    6888.6161    8330.5725   -160.93575    1294.2941   -12.858114   -3296.2296 
12735000    253.12163   -4705.3483   -4217.1819   -4705.3483            0    7316.3589    19.762899     19.98686    20.621588    8145.4922    7113.7636    7558.1813    7277.1319    38.575159   -156.20935     -1071.07   -3348.0449 
12736000    255.81956   -4706.4637   -4213.0942   -4706.4637            0    5411.9207    19.742426    19.940536    20.748416    8168.1231    4373.1155    6078.6894    5783.9571    537.83421   -1970.7125    164.66094   -3568.4062 
12737000    263.31384   -4696.8558    -4189.033   -4696.8558            0     8201.663    19.792695     19.98505    20.645473    8166.4819    9271.7631    6724.7583    8608.4675   -330.32653    798.47915   -299.93671   -3212.2168 
12738000    270.71912   -4707.0116    -4184.907   -4707.0116            0    5585.2095    20.084557    20.053724    20.433449    8229.9834    5572.5767    3889.7273    7293.3246   -115.13349   -255.03613    330.48609   -3514.5374 
12739000    259.57372   -4702.4355   -4201.8257   -4702.4355            0    7995.4707    19.850353    19.907743    20.704206    8181.7996    7422.3565    8196.8509    8367.2046    103.96234   -462.20302    80.039222    -3247.781 
12740000    264.67778   -4692.7697   -4182.3164   -4692.7697            0      7011.06    19.932478    20.001642    20.609503    8216.6439    6915.9175    7882.9001    6234.3624   -524.17526    343.32398     388.5666   -3342.1718 
12741000    251.19273   -4705.8791   -4221.4328   -4705.8791            0    7248.4005    19.895331    20.017961    20.492474    8161.4137    8277.5327    6163.8059    7303.8627    564.83355    2182.5517   -731.94815   -3358.6858 
12742000      266.684   -4698.0344   -4183.7119   -4698.0344            0    6889.3768    19.938604    20.003748    20.493848    8173.9057     5515.859     7890.643    7261.6283    513.94493    912.17225    84.008248   -3362.4429 
12743000    274.24547     -4703.78   -4174.8745     -4703.78            0    7954.3073    20.005963    19.807442    20.639035    8178.5673    7144.7838    9304.0529    7414.0851   -508.71026     539.0478    500.77913   -3226.1165 
12744000    262.23445   -4670.5038   -4164.7626   -4670.5038            0    9616.2733    19.732626    19.747739    20.713643    8071.5835    10332.991    8413.7661    10102.062    69.928979    1545.5086    417.57124   -3032.7756 
12745000     274.9627   -4678.9315   -4148.6428   -4678.9315            0     7022.933    19.986608    19.725964    20.762034    8185.5381    5513.4974    8758.6336     6796.668    166.30706    1255.9634    2098.0334   -3310.2614 
12746000    270.54559   -4695.4021   -4173.6322   -4695.4021            0    6238.0404    19.791186    20.111214    20.490686    8155.8009    7591.1892    4829.4154    6293.5165    660.60587    -567.0156   -55.722315   -3431.6547 
12747000    263.04598   -4705.9769   -4198.6706   -4705.9769            0    6619.1839    19.976659     19.93636     20.57307    8193.4695    6225.5614    5823.8594     7808.131    -181.2448   -270.54195    1571.4659   -3407.7222 
12748000    269.69203   -4689.6224   -4169.4986   -4689.6224            0    6763.9799    20.068644    20.066701    20.281883    8167.7469    6871.1871    6195.0346    7225.7181   -527.09448    751.17245   -467.78982   -3363.7854 
12749000     248.0807   -4702.6573   -4224.2128   -4702.6573            0    7327.0542    19.894059    20.025574    20.697995     8245.873    8018.4548    7480.3956    6482.3124    -2.025716   -1566.7983   -241.51988   -3343.0788 
12750000      277.467   -4699.5272   -4164.4088   -4699.5272            0    5443.9083     19.99092      19.9224    20.807589    8286.9783    4404.4489    5124.4646    6802.8114    178.22104    101.56243   -1743.7335   -3506.4739 
Loop time of 416.244 on 64 procs for 250000 steps with 972 atoms

Performance: 103.785 ns/day, 0.231 hours/ns, 600.609 timesteps/s
99.0% CPU use with 64 MPI tasks x 1 OpenMP threads

MPI task timing breakdown:
Section |  min time  |  avg time  |  max time  |%varavg| %total
---------------------------------------------------------------
Pair    | 20.986     | 28.592     | 37.247     |  78.2 |  6.87
Bond    | 0.26279    | 0.27846    | 0.29004    |   1.0 |  0.07
Kspace  | 172.39     | 181.5      | 191.04     |  36.3 | 43.60
Neigh   | 3.1337     | 3.3668     | 3.8736     |   9.6 |  0.81
Comm    | 84.179     | 92.152     | 96.921     |  28.4 | 22.14
Output  | 0.89983    | 0.9015     | 0.90778    |   0.1 |  0.22
Modify  | 99.884     | 101.74     | 104.98     |  10.7 | 24.44
Other   |            | 7.715      |            |       |  1.85

Nlocal:        15.1875 ave          20 max          11 min
Histogram: 1 5 4 14 12 14 6 6 1 1
Nghost:        2245.05 ave        2275 max        2210 min
Histogram: 1 3 3 10 9 13 11 7 5 2
Neighs:        4746.98 ave        6081 max        3150 min
Histogram: 1 3 6 9 9 9 9 8 7 3

Total # of neighbors = 303807
Ave neighs/atom = 312.55864
Ave special neighs/atom = 2.0000000
Neighbor list builds = 8003
Dangerous builds = 0

unfix		3
unfix		2
unfix		1

write_data	data.final.${pid}
write_data	data.final.0
System init for write_data ...
PPPM initialization ...
  extracting TIP4P info from pair style
  using 12-bit tables for long-range coulomb (../kspace.cpp:340)
  G vector (1/distance) = 0.37250699
  grid = 24 24 25
  stencil order = 5
  estimated absolute RMS force accuracy = 0.0033953827
  estimated relative force accuracy = 1.0225094e-05
  using double precision FFTW3
  3d grid and FFT values/proc = 2366 288
Last active /omp style is kspace_style pppm/tip4p/omp
WARNING: Not all mixed pair coeffs generated from mixing. Use write_data with 'pair ij' option to store all pair coeffs. (../write_data.cpp:312)

write_restart   restart.lmp.${pid}
write_restart   restart.lmp.0
System init for write_restart ...
PPPM initialization ...
  extracting TIP4P info from pair style
  using 12-bit tables for long-range coulomb (../kspace.cpp:340)
  G vector (1/distance) = 0.37250699
  grid = 24 24 25
  stencil order = 5
  estimated absolute RMS force accuracy = 0.0033953827
  estimated relative force accuracy = 1.0225094e-05
  using double precision FFTW3
  3d grid and FFT values/proc = 2366 288
Last active /omp style is kspace_style pppm/tip4p/omp
Total wall time: 0:06:58
