LAMMPS (30 Jul 2021)
Processor partition = 1
  using 2 OpenMP thread(s) per MPI task
using multi-threaded neighbor list subroutines
variable        pid world 0 1
variable        phase world IceV IceIII

shell cd ${phase}
shell cd IceIII
include Restart.lmp
echo both
log log.lammps
#include		in.partitions
include		in.temp
variable        temperature equal 233.97
variable	tempDamp equal 100.0
include		in.pressure
variable        pressure equal 7671.2
variable        pressureDamp equal 1000.0 # This is 1 ps
include		in.seed
variable        seed equal 745823

units		real
atom_style	full

read_restart	restart.lmp.${pid}
read_restart	restart.lmp.1
Reading restart file ...
  restart file = 30 Jul 2021, LAMMPS = 30 Jul 2021
  restoring atom style full from restart
  orthogonal box = (0.081595531 -0.00063489724 0.13167495) to (19.918405 20.000636 20.568323)
  2 by 4 by 4 MPI processor grid
  restoring pair style lj/cut/tip4p/long/omp from restart
  restoring bond style harmonic/omp from restart
  restoring angle style harmonic/omp from restart
  972 atoms
  648 bonds
  324 angles
Finding 1-2 1-3 1-4 neighbors ...
  special bond factors lj:    0        0        0       
  special bond factors coul:  0        0        0       
     2 = max # of 1-2 neighbors
     1 = max # of 1-3 neighbors
     1 = max # of 1-4 neighbors
     2 = max # of special neighbors
  special bonds CPU = 0.002 seconds
  read_restart CPU = 0.008 seconds
include 	in.setup
variable	out_freq equal 1000
variable	out_freq2 equal 10000
variable	out_freq3 equal 1000

timestep	2.0

neigh_modify    delay 7 every 1

include		in.tip4p
# This is TIP4P/Ice

# create groups ###
group ox type 2
324 atoms in group ox
group hy type 1
648 atoms in group hy

# set charges - beside manually ###
set group ox charge -1.1794
Setting atom values ...
  324 settings made for charge
set group hy charge 0.5897
Setting atom values ...
  648 settings made for charge

# ### TIP3P Potential Parameters ###
pair_style lj/cut/tip4p/long/omp 2 1 1 1 0.1577 8.5
pair_coeff 1 1*2 0.000 0.000
pair_coeff 2 2 0.21084 3.1668
bond_style  harmonic
bond_coeff  1 450 0.9572
angle_style harmonic
angle_coeff 1 55 104.52
kspace_style pppm/tip4p/omp 1.0e-5
pair_modify tail yes

thermo          ${out_freq}
thermo          1000
thermo_style    custom step temp pe etotal epair emol press lx ly lz vol pxx pyy pzz pxy pxz pyz enthalpy

restart 	${out_freq3} restart.lmp.${pid} restart2.lmp.${pid}
restart 	1000 restart.lmp.${pid} restart2.lmp.${pid}
restart 	1000 restart.lmp.1 restart2.lmp.${pid}
restart 	1000 restart.lmp.1 restart2.lmp.1


include         in.dump
dump            myDump all atom ${out_freq2} dump.water.${pid}
dump            myDump all atom 10000 dump.water.${pid}
dump            myDump all atom 10000 dump.water.1
dump            myDump2 all dcd ${out_freq2} dump.dcd
dump            myDump2 all dcd 10000 dump.dcd
dump_modify     myDump append yes
dump_modify     myDump2 append yes


variable natoms 	equal  "count(all)"                        # NUMBER ATOMS
variable H      	equal  "enthalpy/v_natoms"                 # ENTHALPY-per-atom
variable Vol      	equal  "vol/v_natoms"                 # volume-per-atom
fix AVG all 		ave/time ${out_freq} 1 ${out_freq} v_Vol v_H file vol_enthalpy.dat
fix AVG all 		ave/time 1000 1 ${out_freq} v_Vol v_H file vol_enthalpy.dat
fix AVG all 		ave/time 1000 1 1000 v_Vol v_H file vol_enthalpy.dat


timer           timeout 02:55:00 every 1000
New timer settings: style=normal  mode=nosync  timeout=02:55:00

fix 		1 all shake 1e-6 200 0 b 1 a 1
Finding SHAKE clusters ...
       0 = # of size 2 clusters
       0 = # of size 3 clusters
       0 = # of size 4 clusters
     324 = # of frozen angles
  find clusters CPU = 0.001 seconds
fix             2 all nph aniso ${pressure} ${pressure} ${pressureDamp}
fix             2 all nph aniso 7671.2 ${pressure} ${pressureDamp}
fix             2 all nph aniso 7671.2 7671.2 ${pressureDamp}
fix             2 all nph aniso 7671.2 7671.2 1000
fix             3 all temp/csvr ${temperature} ${temperature} ${tempDamp} ${seed}
fix             3 all temp/csvr 233.97 ${temperature} ${tempDamp} ${seed}
fix             3 all temp/csvr 233.97 233.97 ${tempDamp} ${seed}
fix             3 all temp/csvr 233.97 233.97 100 ${seed}
fix             3 all temp/csvr 233.97 233.97 100 745823


run             250000
PPPM initialization ...
  extracting TIP4P info from pair style
  using 12-bit tables for long-range coulomb (../kspace.cpp:340)
  G vector (1/distance) = 0.37194799
  grid = 24 24 24
  stencil order = 5
  estimated absolute RMS force accuracy = 0.003537692
  estimated relative force accuracy = 1.0653654e-05
  using double precision FFTW3
  3d grid and FFT values/proc = 3211 432
Last active /omp style is kspace_style pppm/tip4p/omp
Neighbor list info ...
  update every 1 steps, delay 7 steps, check yes
  max neighbors/atom: 2000, page size: 100000
  master list distance cutoff = 10.8154
  ghost atom cutoff = 10.8154
  binsize = 5.4077, bins = 4 4 4
  1 neighbor lists, perpetual/occasional/extra = 1 0 0
  (1) pair lj/cut/tip4p/long/omp, perpetual
      attributes: half, newton on, omp
      pair build: half/bin/newton/omp
      stencil: half/bin/3d
      bin: standard
Setting up Verlet run ...
  Unit style    : real
  Current step  : 5750000
  Time step     : 2
  Walltime left : 2:54:59.93
Per MPI rank memory allocation (min/avg/max) = 10.18 | 10.19 | 10.19 Mbytes
Step Temp PotEng TotEng E_pair E_mol Press Lx Ly Lz Volume Pxx Pyy Pzz Pxy Pxz Pyz Enthalpy 
 5750000    243.26798   -4732.7721   -4263.6093   -4732.7721            0    8455.0793     19.83681    20.001271    20.436648    8108.4733    9347.6897    7628.1412    8389.4069   -631.50029    528.85891   -234.88198   -3263.7644 
 5751000     238.4626   -4760.3176   -4300.4224   -4760.3176            0    9225.9386    19.804129    19.685566    20.755129    8091.5005    10533.714    9550.1868    7593.9149   -459.06853     234.5003   -128.23537   -3211.7041 
 5752000    233.74982    -4748.419   -4297.6128    -4748.419            0    8987.5797    19.771628    19.798846    20.514109    8030.3591    8376.0232    9684.8227    8901.8931   -249.87741    916.56073   -529.18098   -3245.0365 
 5753000    232.40457   -4758.2103   -4309.9985   -4758.2103            0    6445.8445    19.845844    19.979191     20.58181    8160.7685    7930.2437    5325.5032    6081.7866    -1.682692   -403.32542    1205.5529   -3542.8371 
 5754000     218.1688   -4761.9178   -4341.1609   -4761.9178            0    6471.9748     19.77081    19.985145    20.646569    8157.9239    7453.6165    5993.6991     5968.609    375.18176    578.76609   -511.59514    -3571.158 
 5755000    232.60009   -4749.2402   -4300.6513   -4749.2402            0    7099.4702    20.097726    19.609088    20.578837    8110.0803    6240.6773    7909.3832    7148.3501   -142.26023   -482.58583   -25.195728   -3460.9458 
 5756000    235.64464   -4729.4634   -4275.0029   -4729.4634            0     8007.585     19.71281    19.758833    20.687236    8057.7227    10868.439    6483.7207     6670.595   -184.35142    202.64106     571.6011   -3334.0026 
 5757000    234.70887   -4737.0382   -4284.3824   -4737.0382            0    8757.8034    20.009312    19.764729    20.281769    8021.0064    8641.0455    7941.5992    9690.7655   -175.23878    1127.6066   -735.36885   -3259.9108 
 5758000     237.2058   -4745.6268   -4288.1555   -4745.6268            0    7236.5057    19.969067    19.696047    20.546891    8081.3322    8469.4848    6113.0532     7126.979   -683.97479    -326.8128    792.90542   -3435.2758 
 5759000    243.16665   -4729.7413    -4260.774   -4729.7413            0    8236.2555     19.67782    19.827063     20.63214    8049.6991    8544.3871    6928.6992    9235.6803   -105.52844   -806.04477    1115.5355   -3293.8656 
 5760000    232.60914   -4727.4857   -4278.8794   -4727.4857            0    7848.5794    20.032444     19.62511    20.524482    8068.9725    8503.6536    9153.3779    5888.7067   -299.47289    328.09303    77.927517   -3355.2767 
 5761000    244.81326   -4767.8962   -4295.7533   -4767.8962            0    8996.7792    19.800142    19.491962    20.847071    8045.7942    8966.1874    9972.1381    8052.0121   -521.72287    913.71945      304.182   -3240.0743 
 5762000    251.81179   -4744.5558   -4258.9156   -4744.5558            0    6858.7399     20.05717    19.871583    20.402451    8131.7586     6029.357    7137.3525    7409.5103   -82.546537    99.367927    565.27512   -3445.5146 
 5763000    248.11164   -4720.5971   -4242.0929   -4720.5971            0    9164.2005    19.835737    19.423827    20.790228     8010.182     10208.28     10084.93    7199.3918    -263.4462   -86.643934    961.08826   -3171.5283 
 5764000    234.11463   -4773.5895   -4322.0798   -4773.5895            0    6979.5145    19.954899    19.745482    20.672304    8145.2825    5561.2258     8594.566    6782.7518   -39.988758    573.38868   -144.61432   -3492.9791 
 5765000    224.01418   -4735.2002     -4303.17   -4735.2002            0    8823.9882    19.982407    19.914299    20.272881    8067.3016    7259.4028    7693.2135    11519.348    1010.4581     700.4007    243.95956   -3264.9985 
 5766000    234.26824   -4758.1357   -4306.3297   -4758.1357            0     6850.956    19.907989    19.845186    20.607918    8141.7297    7647.6758    7959.5795    4945.6128    368.82871   -276.33304   -469.66734   -3492.8556 
 5767000    234.59286   -4761.9728   -4309.5408   -4761.9728            0    6276.8558    19.901637    19.886163    20.617097    8159.5709    6577.4873    6621.9549    5631.1254    530.83401   -688.17786     12.44533   -3562.6014 
 5768000    221.75128   -4755.3954   -4327.7294   -4755.3954            0    8159.2978    19.922357    19.923541    20.411219    8101.7006    7399.9171    8044.4466    9033.5298    241.38509    128.36399    365.00851   -3363.6676 
 5769000    231.91541   -4744.7679   -4297.4996   -4744.7679            0    8264.8817    19.745374    19.965534    20.417905     8049.288    7162.4055    8332.6018    9299.6378    73.615925   -756.86397   -131.83784   -3327.2801 
 5770000    229.46464   -4753.0601   -4310.5182   -4753.0601            0    7944.5491    19.915653    19.818987    20.548382    8110.6124    7681.3636    7475.7997    8676.4841    333.83693   -1199.0781    1075.0492   -3370.7975 
 5771000     232.8109   -4776.3039   -4327.3085   -4776.3039            0    8216.1288    19.966175    19.990947     20.29741     8101.564    6681.1077    7990.6566    9976.6221    1334.1933    -1142.137    618.38975   -3356.5483 
 5772000    227.23739   -4740.3413   -4302.0949   -4740.3413            0    7910.7524    19.900407    19.894163    20.587878    8150.7808    8175.0771    6649.0663    8908.1137    392.51946    247.52967     715.7333   -3361.7377 
 5773000    229.84779   -4778.0827   -4334.8019   -4778.0827            0    6643.6223    19.988118    19.846398    20.680415    8203.7584    8393.6181    4815.8717    6721.3769   -335.85371    924.02008    897.43848   -3539.9364 
 5774000    237.31191   -4714.5413   -4256.8653   -4714.5413            0     7740.986    19.766724    20.088644    20.424869    8110.4434    7525.2161    6959.6329    8738.1091    1295.9341   -641.32877   -155.27604   -3341.2421 
 5775000    234.79497   -4740.1335   -4287.3117   -4740.1335            0     5417.101     20.11388    19.919242    20.466332    8199.9025    3272.5669    5901.7914    7076.9448    263.91259   -1207.4385    651.92954   -3639.4959 
 5776000     243.9338   -4746.3711   -4275.9242   -4746.3711            0    8139.7568    19.764141    19.854693    20.718015    8129.9761    9429.3434    6589.3388    8400.5882   -768.78815   -75.101196    408.24943   -3310.8147 
 5777000    241.84633   -4727.6773   -4261.2563   -4727.6773            0    9167.8375     20.02152    19.655368    20.569012    8094.5302    10369.962    8628.4885    8505.0621   -305.11812    527.75737    101.89505   -3178.9893 
 5778000    228.70671   -4757.8188   -4316.7387   -4757.8188            0    8181.6143    19.809051    19.894932    20.567483    8105.6396     7060.957    9060.5003    8423.3855    167.93907    335.80537   -706.95728   -3349.5701 
 5779000    238.18604   -4743.4474   -4284.0856   -4743.4474            0    9085.9008    19.778724    19.800522     20.52387     8037.744    9913.6746    7373.3838    9970.6439   -37.880997    610.78474    259.39752   -3219.0158 
 5780000    232.77527   -4743.5638   -4294.6371   -4743.5638            0    7362.2061    19.696033    19.892392    20.906303    8191.1151    9980.9942    6404.8076    5700.8166    135.57887   -439.71677   -895.35217   -3415.1553 
 5781000    237.77913     -4730.73   -4272.1529     -4730.73            0    9232.5765    19.688767    19.876791    20.669305    8088.9225    9613.7409    9327.4376    8756.5511   -217.02926   -128.79924   -178.97588   -3182.9985 
 5782000    243.12665   -4761.6073   -4292.7171   -4761.6073            0    8798.8346     20.02613    19.906746    20.327233    8103.5545    8827.3656    7850.8015    9718.3365   -496.52824     338.4867   -293.40724    -3252.853 
 5783000    236.77069   -4745.5528   -4288.9206   -4745.5528            0    9401.8458    19.736375    19.710944    20.719114    8060.2034    12547.896    7299.3436    8358.2982   -274.94423   -645.70912   -626.75818   -3183.7355 
 5784000    231.80517   -4769.3971   -4322.3413   -4769.3971            0    7667.4683    19.809397    19.935376    20.507419    8098.5391    8435.6496    7822.3477    6744.4074   -317.00371    -105.4731    462.02062   -3416.7452 
 5785000    232.11374   -4798.3867   -4350.7359   -4798.3867            0    6590.1584    20.102065    19.906642    20.325946    8133.7241    5463.9771    7063.7682    7242.7299    16.368083    339.81245   -85.227609    -3568.998 
 5786000    235.56965   -4772.4835   -4318.1677   -4772.4835            0    8752.1354    19.731196    19.863662    20.507741    8037.6773    8189.2422    8765.3513    9301.8127    89.094736    170.51654    452.23232   -3292.2312 
 5787000    231.77797   -4747.2204   -4300.2171   -4747.2204            0    8124.2448    20.023575    19.791646    20.427101    8095.2503    7849.7412     7271.777    9251.2163    257.58004    1497.8928    1037.1114   -3341.0613 
 5788000    232.03214    -4736.388   -4288.8945    -4736.388            0    7722.1882    19.747204    19.935212    20.700886    8149.2079    8038.5954    8322.1848    6805.7845    140.82181    1436.9146   -724.33785   -3371.1292 
 5789000    227.46731   -4747.8336   -4309.1437   -4747.8336            0    8136.6355    20.030379    19.648819    20.428575    8040.1414    8126.6032    7376.8895    8906.4138   -213.23492    153.08478    110.14387   -3355.0645 
 5790000    233.08608    -4756.245   -4306.7189    -4756.245            0    7302.0092    19.877589    19.769726    20.669253    8122.4894    7523.5654    7146.3851    7236.0772   -79.582022    1645.6619   -932.09951   -3441.7362 
 5791000    239.60068   -4747.8405   -4285.7504   -4747.8405            0    8752.8156    19.688638    19.977238     20.42645    8034.2259     7538.983    9356.5016    9362.9622    765.87495    206.30285    1175.2157   -3260.1748 
 5792000    230.64422    -4750.755   -4305.9383    -4750.755            0    7409.2251    19.866953    19.880053    20.467131    8083.6176    7266.2804    8545.6063    6415.7886   -264.17603    13.913452    417.79284   -3432.4553 
 5793000    244.01755   -4750.0252   -4279.4168   -4750.0252            0    7344.9599    19.669088    19.954437     20.69669    8123.1521    8445.6388     6327.259    7261.9819    423.55827    398.39997    1059.8175   -3409.2752 
 5794000    222.16897   -4756.3141   -4327.8425   -4756.3141            0    9292.0238    19.805573    19.875168    20.459885    8053.8107    10271.873    8676.6515    8927.5472   -1167.5696     895.0041    436.28603   -3236.4333 
 5795000    230.70847   -4780.9569   -4336.0163   -4780.9569            0    7239.8573    19.809409     19.73838    20.678334    8085.3453    8042.9711    7940.7353    5735.8654   -670.54569   -1054.0029    -845.5961   -3482.3179 
 5796000    241.27509    -4782.666   -4317.3467    -4782.666            0    8679.2862    19.903464    19.795739    20.569229    8104.3539    7743.1224    10221.519    8073.2178    552.30218   -38.882519   -401.85738   -3291.5098 
 5797000    232.39906     -4753.47   -4305.2689     -4753.47            0    8164.6127    19.920941    19.756121    20.573842    8097.0517    6681.0348     9722.792    8090.0114    53.545851    173.86803   -1264.6987   -3341.1327 
 5798000    226.03241     -4766.31   -4330.3874     -4766.31            0    7987.5984    19.695856    19.995584    20.592668    8110.0132    9587.5839    6748.3743    7626.8368   -170.59453   -716.96948    283.16077   -3385.6445 
 5799000    241.60864   -4751.8023   -4285.8398   -4751.8023            0      8867.01    20.066271    19.716462    20.376248    8061.5745    9356.2096    8674.0713    8570.7491    913.56089     1053.661    481.76541   -3243.3472 
 5800000    237.27743   -4781.9039   -4324.2944   -4781.9039            0    7136.1556    19.804518    19.938715    20.502146    8095.8185    6353.8581    7246.2244    7808.3844   -198.33813   -335.78217    457.41003   -3481.7342 
 5801000    245.50369   -4720.7384   -4247.2639   -4720.7384            0    7042.3555    20.026836    19.893861    20.510685    8171.6846    5791.0369    7507.9818    7828.0479    388.97204    581.82214   -1129.8316   -3407.9866 
 5802000    224.11231   -4751.2362   -4319.0168   -4751.2362            0    8166.3291    19.901382    19.705292    20.616958    8085.1986    7237.7767    8740.1306    8521.0801    529.16029    422.16096   -618.12416   -3356.0896 
 5803000     224.7372   -4754.6358   -4321.2112   -4754.6358            0    8164.9165    19.538062    19.828192    20.690832    8015.7208    8057.8295    8342.2724    8094.6477   -230.05881   -524.60747   -1703.3451   -3366.7238 
 5804000    233.30275   -4729.1551   -4279.2111   -4729.1551            0    6914.8838     19.92786    19.836096    20.480101    8095.5985    6855.1017    5910.9218    7978.6278   -340.67081    969.39816    -1333.632   -3462.7985 
 5805000     236.6557   -4759.9868   -4303.5764   -4759.9868            0    8479.5607    19.841326    19.981585     20.49644    8126.0421    8654.5488     7949.888    8834.2454    564.49869    1016.7398   -42.082439   -3298.6637 
 5806000    239.78416   -4725.6018   -4263.1579   -4725.6018            0    7567.9075    19.885904    19.676748    20.725164    8109.5476    9766.5238    6613.0526    6324.1461    504.68247    1491.8194   -1275.1519   -3368.1058 
 5807000     220.5851   -4759.5504   -4334.1335   -4759.5504            0    6675.0179    20.051476    19.782938    20.535788     8146.077    6328.0137    7566.8372    6130.2028    986.54495    808.30554   -390.12624   -3541.1268 
 5808000     233.8616   -4744.8659   -4293.8442   -4744.8659            0    7792.6943    19.835276    19.924943    20.447962    8081.3769    7129.7428    8251.0617    7997.2786   -310.53941    871.63607   -730.69879   -3375.4082 
 5809000    235.99608   -4767.9414   -4312.8031   -4767.9414            0    7385.1595    19.877542    19.837922    20.697807    8161.7482    7514.4731    7160.0683     7480.937    97.962419    549.33047    -170.2711   -3433.7422 
 5810000    238.36148   -4758.7925   -4299.0924   -4758.7925            0    7161.7454    19.721884    19.944455    20.540823    8079.5731    7896.9407    6123.0068    7465.2886   -180.02042    220.14765    346.41826   -3455.2075 
 5811000    235.25234   -4746.8518   -4293.1478   -4746.8518            0    7272.5855    19.989011    19.845954    20.545815    8150.5451    7344.8998    6276.7574    8196.0993     766.1506    462.87695   -727.66019    -3428.675 
 5812000    250.45636   -4734.9478   -4251.9217   -4734.9478            0    7577.3385    19.935248     19.88637    20.445852    8105.5477    8501.2565    6308.0642    7922.6946    -253.7049    541.22001   -584.55529   -3356.1962 
 5813000    235.36534   -4738.1752   -4284.2534   -4738.1752            0    8806.5876    19.951258    19.786002    20.598557    8131.3964    8759.5011    8916.9574    8743.3044    536.43657    -1249.661   -1036.2062   -3239.8971 
 5814000    226.60257   -4732.3081    -4295.286   -4732.3081            0    6794.1602    19.798024    19.745407    20.725472    8102.0025    4985.9726    9167.9191     6228.589   -393.54426    -113.2881   -1676.8947   -3492.4921 
 5815000    235.71558    -4763.158   -4308.5606    -4763.158            0    10272.085    19.798591    19.713046    20.560636    8024.6215    10316.089    11392.267    9107.8978    293.31915    1132.0309    991.31078   -3106.4096 
 5816000    241.17373   -4725.0697   -4259.9459   -4725.0697            0    7740.4755    19.838334    19.650365    20.745823    8087.3548    7814.0868    8754.4436     6652.896    216.47732    1279.6971   -570.14727   -3346.9895 
 5817000    233.00626   -4784.1217   -4334.7495   -4784.1217            0    6558.2839    19.969725    20.053988    20.601942     8250.514     7410.311    4591.4402    7673.1004   -182.11815   -458.91031    466.60847   -3545.6222 
 5818000    240.34605   -4779.3554   -4315.8278   -4779.3554            0    7401.6347    19.942382    19.764049    20.636785    8133.8282     6564.445    9154.1372     6486.322   -927.89687    432.76448    44.665609   -3437.8197 
 5819000    223.47859   -4769.1659   -4338.1687   -4769.1659            0    6268.3606    20.044399     19.86625    20.445543    8141.5588    4797.2264    7613.4421    6394.4134   -361.09324   -990.45533   -321.59264   -3593.8868 
 5820000    242.68099   -4759.5456   -4291.5149   -4759.5456            0    9127.0695     19.62458     19.95793    20.634024    8081.6457    9798.5115     7797.326    9785.3709 -0.039765824    125.31394    691.13054   -3215.7756 
 5821000    237.69814   -4753.0919    -4294.671   -4753.0919            0    8286.3166    20.121209    19.702537    20.442171    8104.0709    8300.0708    6666.1366    9892.7423    -215.5227    31.898643    312.32033   -3315.3149 
 5822000    247.85621   -4725.8982   -4247.8866   -4725.8982            0     6786.337    19.839096    19.971065    20.510155    8126.2847    6077.4887     8095.684    6185.8382   -199.73807    374.66489    286.62104   -3443.6139 
 5823000    218.30312   -4761.7009    -4340.685   -4761.7009            0    7494.8806    19.677065    19.882496    20.647758     8078.005    7692.6215    7440.0031    7352.0172   -288.54246    664.32222   -1322.8144   -3457.7175 
 5824000    224.17587   -4750.3189   -4317.9768   -4750.3189            0    6513.4463    19.963716    19.707352    20.536074    8079.5481    6714.7671    7169.4014    5656.1703    304.60443   -120.63398   -1916.7922    -3550.485 
 5825000    232.66194   -4760.7219   -4312.0138   -4760.7219            0    9461.3455    19.897036    19.865896    20.447866    8082.4782    7651.8176    12168.171     8564.048    58.579351   -116.84885    206.04777   -3196.7609 
 5826000    236.94507   -4758.9963   -4302.0278   -4758.9963            0    7041.3431    19.949677    20.051346    20.278349    8111.7022    6715.3071       7497.2    6911.5222    653.11983   -33.835203    728.25929   -3469.0309 
 5827000    224.03224   -4760.8379   -4328.7728   -4760.8379            0    9767.2481    19.917846    19.699025    20.425208    8014.0785    10548.537    9096.3563    9656.8508    62.588991   -979.44563   -133.33966   -3187.2051 
 5828000    248.23154   -4755.4523   -4276.7169   -4755.4523            0    7236.3376     19.74802    20.015415    20.717572    8188.9272    6728.7509     7197.741    7782.5208   -70.485643    471.63462   -1609.6538    -3412.502 
 5829000    232.46977   -4781.3504   -4333.0129   -4781.3504            0    6113.3585    20.042254    19.748718    20.564469    8139.5985    6293.1554    5443.2674    6603.6527   -585.26182   -286.73913    894.26418   -3607.3102 
 5830000    240.88177    -4750.184   -4285.6232    -4750.184            0    6186.3637    19.874287    20.073308    20.513785    8183.8241    6010.2872    4919.1471    7629.6568    246.77192    -1423.832     1256.474   -3547.2642 
 5831000    227.45153   -4733.2594      -4294.6   -4733.2594            0    8528.3434    19.954106    19.753381    20.565302    8106.0414    7690.9628    10070.158    7823.9088    19.612735    2161.3845   -372.20408   -3286.3937 
 5832000    226.25707   -4768.4738    -4332.118   -4768.4738            0    7206.4203    20.116166    19.818216    20.427726    8143.8505    5067.3697    8091.2848    8460.6065   -215.55153    1274.2387     711.5637   -3476.2136 
 5833000    238.78507   -4751.4457   -4290.9286   -4751.4457            0    8034.3544    19.697356    19.979108    20.570123     8095.076     7948.925    7411.6291     8742.509   -399.01268    1441.3142   -986.94123   -3342.4057 
 5834000    239.06406   -4734.2919   -4273.2367   -4734.2919            0    5738.8964    19.993143    19.764507    20.828482    8230.4707     5392.185    6767.3132     5057.191   -267.69582    982.98175    1493.3862   -3584.3799 
 5835000    233.78091   -4775.0102   -4324.1441   -4775.0102            0     6322.891    19.726674      19.9398    20.538404    8078.6977    5713.9604    5643.7239    7610.9887    319.41419   -609.02272    184.51446   -3579.1841 
 5836000    228.22438   -4756.0592   -4315.9093   -4756.0592            0    7354.6128    19.797467     19.65732    20.799527     8094.451    5751.8506    8809.0878    7502.9001   -522.32755   -1149.0328    808.09589   -3447.7026 
 5837000    227.03107   -4745.4697   -4307.6212   -4745.4697            0    8913.2523    19.904307     19.89838    20.456041    8101.8903    8769.2843    8187.4248    9783.0478   -187.11632   -2455.1173    399.28197   -3254.4513 
 5838000    241.04917   -4771.7248   -4306.8412   -4771.7248            0    8507.4611    19.900383    19.834129    20.528666    8102.8032    9227.4263    8617.2764    7677.6807    76.018342   -492.29235   -1829.3437   -3301.5054 
 5839000    225.63693   -4781.1431   -4345.9834   -4781.1431            0    7815.4733    19.912932    19.931282    20.444782    8114.3348    6598.4539    7351.9584    9496.0075    151.23347   -377.98282   -666.07836   -3421.1061 
 5840000    232.94056   -4759.9567   -4310.7113   -4759.9567            0    7485.9969    19.900758    19.772519    20.674855    8135.3098    8731.3882     6778.671    6947.9314    330.99779   -287.82268    18.288362   -3422.5341 
 5841000    232.60574   -4755.1048   -4306.5051   -4755.1048            0    8464.3223    19.899214    19.716981    20.525874    8053.3763    8628.7553    7974.3481    8789.8633   -529.61777   -1048.0567   -798.78465   -3312.3685 
 5842000    236.29926   -4760.3932   -4304.6702   -4760.3932            0    9703.0801    19.887041    19.673958     20.58151    8052.6561    10293.752    8796.7129    10018.775    1036.1971   -408.40038    1041.1391   -3165.1431 
 5843000    239.52317   -4744.6469   -4282.7063   -4744.6469            0    7145.2281    19.561583    20.117152    20.654065    8127.8564    6918.1889    7053.7201    7463.7754   -744.88465    1138.2756     77.89406   -3435.7363 
 5844000    225.46804   -4743.1267   -4308.2926   -4743.1267            0    9138.0217    20.002568    19.672797    20.599286    8105.9522    7157.1635    11145.359    9111.5427   -325.22935   -85.656411    2249.9269   -3228.0231 
 5845000    224.99231   -4773.5538   -4339.6372   -4773.5538            0    7299.9831    19.768781    20.014586    20.506533    8113.6961    7496.6908     6806.906    7596.3525   -504.37125   -176.34582   -293.98125   -3475.8307 
 5846000    239.13777   -4747.4579   -4286.2606   -4747.4579            0    7555.6504    19.966311    19.786983    20.517083    8105.7469    7754.3279    7287.8008    7624.8225    439.37003   -983.22222    4.9924284   -3393.0769 
 5847000    240.25394   -4768.0731   -4304.7232   -4768.0731            0    7784.3882    19.821065    19.833265    20.633065    8111.1967    8326.8275    7837.7372       7188.6   -258.79467   -553.22419   -984.37321   -3383.8808 
 5848000     240.4677   -4763.5998   -4299.8376   -4763.5998            0    7854.7343    20.168573    19.743327    20.293206     8080.648    5509.7099    8913.9894    9140.5037    916.27085    788.72165    2186.0115   -3374.1732 
 5849000    225.64712   -4744.9721   -4309.7926   -4744.9721            0    7090.2352    19.800277    19.876555    20.646186    8125.5393    6686.6561    7234.8063    7349.2431   -185.93299    1699.4168   -443.39808   -3469.5809 
 5850000    231.89669   -4743.7934   -4296.5611   -4743.7934            0    9775.9199    19.886138    19.766233    20.496004    8056.4473     6841.085    11345.924    11140.751     338.0253   -1260.6621   -92.968751   -3147.9392 
 5851000    217.90691    -4765.799   -4345.5471    -4765.799            0     6659.821    19.894353    19.898776    20.512236    8120.2456    8909.0543    4705.3662    6365.0426    107.36148   -2095.7604    124.72324   -3556.8548 
 5852000     220.5357   -4728.6528   -4303.3312   -4728.6528            0    6153.2325    19.811911    20.107769    20.562409    8191.5156    6588.6322     6296.989    5574.0762    727.56444    1270.8705    69.692242   -3568.2362 
 5853000    245.32008   -4765.2022   -4292.0818   -4765.2022            0    8508.9566    19.877384    19.728741    20.696101    8116.0952    9576.7044    8162.6895    7787.4757   -460.76889   -1782.6539   -75.496866   -3284.9198 
 5854000    234.28635   -4737.5246   -4285.6837   -4737.5246            0    8407.3816    19.783051     19.80341    20.700479    8109.8651     7362.923    10631.317    7227.9049   -346.73396    -277.9245   -376.24715   -3291.3085 
 5855000    245.39105   -4735.3031   -4262.0458   -4735.3031            0    8333.9047    19.806317    19.931328     20.55846    8115.7852    7893.7947    8112.6136    8995.3057    323.34309    3.4022302    373.29568   -3275.6415 
 5856000     231.0955   -4768.5207   -4322.8336   -4768.5207            0    7070.8622    19.794023     19.76992    20.641492    8077.5576    8277.8243    5808.9466    7125.8157    41.684492    407.34622    -1309.695   -3489.8656 
 5857000    244.25051   -4766.3294   -4295.2718   -4766.3294            0    7923.4374    19.730095    19.930534    20.550284    8081.0154    6520.9073    9164.9142    8084.4907   -1473.8171    132.74977   -500.78942   -3361.4684 
 5858000    244.88083   -4753.9787   -4281.7055   -4753.9787            0    7446.9838     19.87676    20.009618    20.382324     8106.588    6772.1652    7278.5099    8290.2763    327.08354    1625.9453    771.62043   -3401.2763 
 5859000    233.17056   -4752.4822   -4302.7932   -4752.4822            0    7068.3038    19.785733    19.812239    20.712976    8119.4801     9296.816    6022.4338    5885.6615   -1091.1341   -612.09832   -266.09901    -3465.805 
 5860000    238.15951   -4735.5391   -4276.2284   -4735.5391            0    8694.4407    19.870594    19.779744    20.559404    8080.5709    8296.6068    10620.084    7166.6317      -341.66     23.29281   -1551.7044   -3251.6161 
 5861000    235.29925   -4720.9166   -4267.1223   -4720.9166            0    9331.6924    19.627095    20.129957    20.436792    8074.4249    10170.096    8332.1078    9492.8731   -1502.5299   -1142.9875    447.90291   -3168.2483 
 5862000    232.83798   -4737.0106    -4287.963   -4737.0106            0    7662.8711    19.790268     19.90593    20.501465     8076.423    8366.2147    6188.9166     8433.482   -109.42677   -100.57088    244.14559   -3385.3814 
 5863000    228.16895   -4762.8531   -4322.8101   -4762.8531            0    8119.9802    19.814094    19.727456    20.649902    8071.6682    5661.4736    10558.142    8140.3247   -53.066864   -906.69009   -277.04172   -3366.9503 
 5864000    235.09325   -4736.1845   -4282.7874   -4736.1845            0     8170.774    19.949623    19.808074    20.445288    8079.2336    8384.1442    8336.1939    7791.9838   -716.28268    1313.3216    200.05251   -3320.0469 
 5865000    227.06668   -4728.6114   -4290.6942   -4728.6114            0    7974.9374    19.964505    19.769312    20.485516    8085.3165    7647.7829    7662.0771    8614.9521    -148.4569    1093.0906    145.23549   -3350.3211 
 5866000    227.70911   -4780.8909   -4341.7347   -4780.8909            0    7222.7603    19.975635    19.901842    20.600447    8189.7475    8355.9738    7759.6814    5552.6258     111.9072    997.92961    -898.9576   -3479.0549 
 5867000    221.31795   -4765.5596   -4338.7293   -4765.5596            0    7471.5024    20.027786    19.849329    20.527064    8160.2902     8676.754    5431.2829    8306.4702   -414.78557    1634.5473   -412.90199   -3449.5498 
 5868000    230.26804   -4759.3935   -4315.3022   -4759.3935            0    8564.8322    19.888518    19.945235    20.395279    8090.4229    8201.7335    9578.4991    7914.2639    121.42548     1510.113    1429.3616   -3304.7332 
 5869000     222.4094   -4758.4418   -4329.5066   -4758.4418            0    8188.8751    19.797126    19.980051     20.54966    8128.3683    9090.8806    6689.3864    8786.3582    646.06028    387.59836    304.69894   -3358.7653 
 5870000     236.2849   -4756.9816   -4301.2863   -4756.9816            0     7317.329    19.821864    19.820165    20.617445    8100.0293    8830.7975    5800.1186    7321.0708   -139.05271   -891.23358     641.4007   -3436.8857 
 5871000    227.77442   -4770.2952   -4331.0131   -4770.2952            0    6316.7552    19.950977    19.833172     20.45042    8092.0504    7055.1271    4912.7001    6982.4385   -603.04275    1909.1004    1142.9708   -3585.5459 
 5872000    235.63911   -4730.6718   -4276.2219   -4730.6718            0    7701.6104    19.635737    19.743975    20.775368    8054.3505    7470.6077    7404.3887    8229.8348   -178.25459   -488.05809     390.7204   -3371.5566 
 5873000    224.81845   -4727.5246   -4293.9433   -4727.5246            0    9914.5029    19.776144    19.695962    20.627608     8034.663    10296.542    9756.8731    9690.0932   -840.14414   -759.77125    1593.8895   -3132.1884 
 5874000    242.02873   -4759.2906   -4292.5179   -4759.2906            0    8741.0026     19.87387    19.978141    20.364322    8085.5112    8176.4841    8954.7365    9091.7871   -453.65743   -848.07625    376.79815   -3261.7886 
 5875000    233.40042   -4716.0025   -4265.8701   -4716.0025            0    7559.3074    19.920393    19.702454    20.600697    8085.3746     6279.384    8645.1288    7753.4094   -747.74118    163.82589    538.51788   -3374.5001 
 5876000    224.82377   -4765.4293   -4331.8377   -4765.4293            0    7320.4261    19.813119    20.078557     20.41458    8121.3043    8231.4195    5930.3424    7799.5164    -31.24766    673.05106    468.60199   -3464.7999 
 5877000    233.65867   -4759.4696   -4308.8392   -4759.4696            0     8347.693     19.88972     19.76833    20.552263    8080.8734    8164.1143    8305.7555    8573.2092   -687.06828    1751.0512   -1055.1244   -3325.0531 
 5878000    226.21215   -4753.8074   -4317.5382   -4753.8074            0    9269.5635    19.981427    19.580996    20.595943    8058.2911    8672.1647     10558.84    8577.6854    73.443908    832.49871   -697.73084   -3228.1614 
 5879000     243.3364   -4736.2959   -4267.0012   -4736.2959            0    7404.9461    19.832485    20.100002    20.458585    8155.4668    7616.7656    6334.2707     8263.802   -200.33526   -233.42435    192.49499   -3386.2634 
 5880000    219.80044    -4767.931   -4344.0274    -4767.931            0    7743.9717    20.145281    19.838708    20.346781    8131.7201    7641.7754    7297.6486     8292.491   -387.01648    -1027.033    92.349667   -3425.6481 
 5881000    224.31406   -4782.8569   -4350.2484   -4782.8569            0    6882.6529    20.017122    19.948979    20.430131    8158.1834    9643.8942    4855.9899    6148.0746   -349.11384    221.65317   -44.071101   -3531.3591 
 5882000    243.79621   -4740.3476   -4270.1661   -4740.3476            0    9146.5012    19.824632    19.881458    20.557263    8102.4932    8895.8485    9165.3308    9378.3243   -37.165056    647.74034   -1305.5232   -3189.3556 
 5883000    241.31291   -4738.3842   -4272.9919   -4738.3842            0     6807.888    20.046484    20.044037    20.268105    8143.9769     7306.234    6558.9543    6558.4755   -249.56196   -320.36973    1104.7252   -3464.4085 
 5884000    235.17455   -4780.8335   -4327.2796   -4780.8335            0    8450.6759    19.821261    19.784972     20.61203    8083.2773    8126.4056    9355.9179    7869.7041    564.55952   -427.67946    398.18637   -3331.0606 
 5885000    230.72924    -4740.008   -4295.0272    -4740.008            0    10077.476    19.575173     20.03532     20.41644    8007.2224    10695.064    9639.5815    9897.7823   -282.79611    443.79386    278.25218   -3118.2085 
 5886000    245.71102    -4772.866   -4298.9916    -4772.866            0    6862.0544    20.093267    19.625646    20.643863    8140.7702    6786.5477    8613.3789    5186.2366    187.67257    411.13937    971.83872   -3484.2957 
 5887000    237.51785    -4771.622   -4313.5489    -4771.622            0    7018.9132    19.829798    19.833182    20.606693    8104.3647     7728.329    6026.4748    7301.9359   -357.63622   -52.752035    719.76168   -3483.9565 
 5888000    224.24068   -4749.3003   -4316.8333   -4749.3003            0    7359.4137    19.978818    19.912133    20.484442    8149.1386    7900.3844    6495.6911    7682.1655    33.624489   -550.74569    142.58151   -3442.1904 
 5889000    220.11298   -4776.7413   -4352.2349   -4776.7413            0     7756.341    19.762691    19.964893    20.566784    8114.8306      7387.59    7611.0878    8270.3453   -383.90073   -557.20421   -342.29901   -3434.2992 
 5890000    241.99602   -4759.2472   -4292.5375   -4759.2472            0    5679.0863    19.858724    19.843498    20.604377    8119.4957    5856.9203    6270.4235    4909.9151   -189.20747    1584.3707   -667.59009   -3620.0513 
 5891000    234.02217   -4758.1079   -4306.7765   -4758.1079            0    7572.8867    19.991934    19.751551    20.464753    8080.9521    7788.7728     6753.662    8176.2254    48.623924   -406.03963   -70.287581   -3414.2936 
 5892000    245.59423   -4768.5545   -4294.9054   -4768.5545            0    8889.7201    19.871389    19.670634    20.541921    8029.4838    9744.7115    8041.3537    8883.0953    171.29841   -252.98668    55.144388   -3253.9033 
 5893000    246.65304   -4782.9402   -4307.2491   -4782.9402            0     8132.662    19.912023    19.812504    20.453051    8068.8729    4200.5718    10315.038    9882.3766   -102.44586    -97.31921   -136.37483   -3350.2281 
 5894000    234.93749   -4758.3585   -4305.2618   -4758.3585            0    7800.9984    20.068888    19.671837    20.661996    8157.1882    7093.6221    8393.4025    7915.9707    226.23005   -106.46954   -335.28075   -3377.2221 
 5895000    229.53511    -4742.377   -4299.6992    -4742.377            0    8453.9169    19.816533    19.934379    20.508854    8101.6183     8843.257    8835.6026    7682.8911    683.90637   -235.81803   -1061.2014   -3300.8369 
 5896000    235.35894   -4775.5024   -4321.5929   -4775.5024            0    8274.8706     19.86238    19.868141    20.492905    8087.0857    9440.7921    8141.5815    7242.2381    717.88945    317.35037   -1603.3044   -3345.6393 
 5897000    221.41902   -4760.5264   -4333.5012   -4760.5264            0    8087.7088    19.933405    19.743601    20.585634    8101.6243    8000.1981    9231.7041    7031.2243    -148.9225    190.87765     380.2381    -3377.907 
 5898000    236.07849   -4770.3458   -4315.0486   -4770.3458            0     8812.209    19.897307    19.821798    20.375601    8036.1453    9767.3997    7827.7359    8841.4915    262.75265   -14.045413    259.74057    -3282.267 
 5899000    238.51722   -4736.2802   -4276.2797   -4736.2802            0    9584.5039    19.846919    19.727672    20.638341    8080.6022     11348.82    8824.9457     8579.746    53.402329     531.0867    264.59937   -3146.7718 
 5900000    237.32074   -4766.3375   -4308.6445   -4766.3375            0     8757.937    19.916073     19.60639    20.612673    8048.8839    7830.0433    9628.6633    8815.1044    659.21057    351.61706   -533.83634   -3280.5965 
 5901000     234.5284   -4727.6268    -4275.319   -4727.6268            0    5808.7326    19.675152    20.130002    20.685963    8192.9003    6187.4952    5614.9586    5623.7439    5.8570317    946.16997   -1384.1066   -3581.2623 
 5902000    240.23426   -4761.4191   -4298.1071   -4761.4191            0    7213.0089    20.078262    19.618964    20.757452    8176.6654    6358.2019    8169.0786    7111.7461   -1183.6598   -196.40102    1356.1228   -3437.9683 
 5903000    226.83966   -4758.2673   -4320.7879   -4758.2673            0    6473.7743    19.884191    19.975253    20.568068     8169.467    7257.5252     5610.888    6552.9095    108.53324    81.626023     525.3318   -3549.4811 
 5904000    231.96041   -4749.3036   -4301.9484   -4749.3036            0    8878.3644    19.805004    19.851406     20.61394    8104.5186    9266.5128     9493.644    7874.9363    216.01769    268.58581    -1059.969   -3252.5604 
 5905000    229.64481   -4750.0853   -4307.1959   -4750.0853            0    6928.9184     20.21256     19.64472    20.457216    8122.9481    5752.6464    8167.9413    6866.1676    -673.9859    178.73898   -489.69239   -3486.3626 
 5906000     223.6096   -4755.7887   -4324.5388   -4755.7887            0    7535.9093    19.736072    19.892223    20.617609    8094.3566    7524.7291    6969.6932    8113.3056     -708.187   -141.95879    466.83075   -3434.9406 
 5907000    241.58006   -4763.2783   -4297.3708   -4763.2783            0    8557.3028     19.78596    19.936217    20.489827    8082.3599    9479.5536    7730.2086    8462.1463   -668.69856   -630.00659    972.05772   -3288.6965 
 5908000    216.63105   -4758.5608   -4340.7696   -4758.5608            0    6864.6825      20.0151    19.690382    20.724931    8167.7982    5884.1175    8158.4221    6551.5078   -670.23409    392.06034   -1207.2886   -3523.0557 
 5909000    225.57942   -4763.7904   -4328.7415   -4763.7904            0    7914.6224    19.715336    19.944927    20.627638    8111.2188     8829.365    7517.0836    7397.4184    755.90685   -693.20314   -423.91293   -3392.4907 
 5910000    237.86565   -4765.9535   -4307.2096   -4765.9535            0    6321.2823    19.960654    19.823138    20.718197    8197.8344    4552.5457    7842.8768    6568.4244   -230.42506   -329.13186   -154.71105    -3551.456 
 5911000    232.92664   -4778.6499   -4329.4313   -4778.6499            0    7342.0449    20.008389    19.929273    20.405105    8136.5895    7260.9125    7459.9866    7305.2356    425.50448   -966.92656    268.08367   -3458.1962 
 5912000    238.36384    -4749.644   -4289.9393    -4749.644            0    8902.3931     19.79639    19.916506    20.442972     8060.151     7240.822    9756.5546    9709.8026   -942.10098   -1114.7462   -1562.4177   -3243.4716 
 5913000    244.80987   -4767.0469   -4294.9104   -4767.0469            0    7714.8184    19.860509    19.818802    20.583523    8101.9113    7722.3139    7812.0036    7610.1376   -228.05171    310.11777    274.59129   -3383.3424 
 5914000    229.32459   -4768.8896   -4326.6179   -4768.8896            0    6737.6777    19.981202    19.621898    20.761077     8139.777    6751.8495    6732.0943    6729.0894    789.46228    651.24001    437.74349   -3526.7861 
 5915000    239.00966   -4774.3574   -4313.4072   -4774.3574            0    6565.8328    20.078881    19.789522     20.51005    8149.6986    4921.0005    7519.1676    7257.3304    768.17104   -72.740682    97.866323   -3533.0252 
 5916000    233.50396   -4738.5138   -4288.1818   -4738.5138            0    7481.4689    19.804617    19.944052    20.564239    8122.5518    8276.5447    6812.8908    7354.9711   -341.85155    -239.2821    85.678897   -3401.9338 
 5917000    233.62961   -4750.6139   -4300.0396   -4750.6139            0    8602.9897    19.902647     19.75318    20.535322    8073.2683    7758.4935    9712.6295    8337.8459   -39.599711    1110.2121   -381.33116   -3287.1207 
 5918000    238.34812   -4730.9549   -4271.2805   -4730.9549            0    7893.1436    19.843489    19.923559    20.468891     8092.436    9774.2966    5166.1459    8738.9883    841.65005   -1752.0854     859.7502   -3339.7327 
 5919000    240.50643   -4738.3631   -4274.5263   -4738.3631            0    7071.5127    19.764806    20.045435    20.508178    8125.2196    8194.5196    6701.6455    6318.3731    344.67078    534.84304   -81.941673   -3436.5662 
 5920000    233.37323   -4735.3183   -4285.2384   -4735.3183            0    10378.026    19.858744    19.783456    20.359419    7998.6987    10518.769    10293.341    10321.968    343.39371    421.79732    1970.4342   -3074.6125 
 5921000    224.64543   -4718.1049   -4284.8573   -4718.1049            0    7619.5521    19.775312    19.887383     20.63302    8114.5379    7554.8759    7527.4166    7776.3638   -34.361255    860.87432    1741.2571   -3383.1426 
 5922000    220.63887   -4743.7038   -4318.1832   -4743.7038            0    7999.4973    20.018467    19.809212    20.576282    8159.5257    8316.9873    6937.3603    8744.1444     -88.7406    481.99161    1430.9033   -3366.2565 
 5923000    219.89307   -4755.4115   -4331.3292   -4755.4115            0    6715.2548    19.847099     20.10022     20.39653    8136.8094    7234.2176    6082.6433    6828.9035    574.23635   -1172.3012   -165.94773     -3534.45 
 5924000    232.68929   -4751.7012   -4302.9404   -4751.7012            0    8445.2111    19.886045    19.824172    20.509483    8085.3382    8246.9989     8058.195    9030.4394   -41.857915   -749.48132    459.53633   -3307.1118 
 5925000    236.75391   -4760.2773   -4303.6774   -4760.2773            0    7994.8757    20.202839    19.631727    20.308227    8054.5804    5645.2457    9143.4055     9195.976   -383.45978    433.27284    660.29217    -3364.537 
 5926000    222.98902   -4763.7191    -4333.666   -4763.7191            0    7884.4585    19.831572    19.939673    20.504037     8108.015    8063.6641    7041.9715      8547.74    -535.7452   -788.59565    831.52126   -3401.3518 
 5927000    233.21929   -4751.2868   -4301.5038   -4751.2868            0    6556.5126    20.026108    19.724976    20.687926    8172.0308    6909.5506    6994.1355    5765.8515   -168.62664   -967.03076    653.43192   -3520.0941 
 5928000    231.08927   -4744.4791    -4298.804   -4744.4791            0    8518.4173    19.807515    19.833831    20.547901    8072.4263    11117.524    6343.2817    8094.4466   -150.63443    1310.1916    711.04438   -3295.9472 
 5929000    238.42177   -4742.5871   -4282.7707   -4742.5871            0    7601.3025    19.801517    20.004363    20.439176    8096.2997    6208.0283    8286.2282     8309.651   -416.83203   -632.38187    90.576687   -3385.2376 
 5930000     229.0151   -4726.2539    -4284.579   -4726.2539            0    9644.8155    19.946723    19.569131    20.790376    8115.3161    11154.414    8287.9581    9492.0744    979.75961    1425.0557    592.86528   -3143.0807 
 5931000    239.44468   -4770.8635   -4309.0743   -4770.8635            0    7137.5588    19.697882    20.100603    20.444403    8094.7429    7108.4637    6586.8608    7717.3519   -35.575591    -703.4497     -1431.32   -3466.4603 
 5932000    236.78495   -4761.2357    -4304.576   -4761.2357            0     7871.179    19.797735    19.732338    20.745124    8104.1987     8940.677    7982.5511    6690.3089   -504.65395   -621.19387    1014.8846   -3374.2702 
 5933000    235.12992   -4776.2349   -4322.7671   -4776.2349            0    7276.9431    19.887358     19.59109    20.725549    8074.9852    8377.9622    6874.6277    6578.2393   -309.21055   -923.21856   -405.19491   -3465.7952 
 5934000    223.61696    -4761.881   -4330.6169    -4761.881            0    6889.5529    19.671545    20.266111    20.390157    8128.8566    8831.0414    3785.0107    8052.6065    133.96179    246.89271    433.31291   -3513.8533 
 5935000    239.94113   -4750.5303   -4287.7836   -4750.5303            0    7355.7486    19.951938    19.786939    20.592749    8129.7654    9059.1346    6992.3884     6015.723   -588.00441    748.98583    1019.3749   -3415.6545 
 5936000    240.87042   -4741.2793   -4276.7404   -4741.2793            0    9904.2745    20.019683    19.658739    20.504656    8069.8476    6273.0367    14094.418    9345.3687   -577.06748   -344.79624   -332.04705   -3111.1019 
 5937000    234.64111   -4772.6963   -4320.1712   -4772.6963            0    7244.9256    19.838005    19.894123    20.605157    8132.0256     8885.637    5916.4827     6932.657   -28.670369    522.40855   -569.96452   -3460.9429 
 5938000    239.37072   -4748.9198   -4287.2732   -4748.9198            0    7729.1222     19.72866     19.90067    20.598305    8087.1739    6992.9837    8136.4499     8057.933   -205.85403     111.0687   -427.29574   -3375.6763 
 5939000    234.40241   -4781.7681   -4329.7033   -4781.7681            0    7057.9169    19.920169    19.828519    20.484893    8091.2755    7445.4762    6228.4723    7499.8022   -539.05242   -462.72795     307.0654   -3496.8483 
 5940000    236.31014    -4727.676    -4271.932    -4727.676            0    8509.1272    19.983863    19.937779    20.385207    8122.1562    8955.6318    8017.7049    8554.0449   -124.00684    1811.3211   -49.633181   -3263.9977 
 5941000    231.71578    -4744.068   -4297.1847    -4744.068            0    8148.1166    19.901891    19.683585    20.743074    8125.9035    8620.1424    9215.1106    6609.0969   -150.40322   -367.55119     478.9576   -3331.5679 
 5942000    232.83847   -4752.0005   -4302.9519   -4752.0005            0    4952.2136    19.729659    20.112046    20.617549     8181.122    4941.8648    3793.7977    6120.9784    38.533542   -308.06934    217.49866   -3712.0871 
 5943000    222.74494   -4730.1301   -4300.5478   -4730.1301            0    7234.0863     19.89775     19.83196    20.627358    8139.7903    6751.3586    7415.7476    7535.1528    -375.4537    1708.2741   -1565.0384   -3441.7858 
 5944000    236.29401   -4729.6079    -4273.895   -4729.6079            0    9010.0973    20.223406    19.600476    20.354706    8068.3691    7681.6041    9112.3773    10236.311   -120.92119   -828.93361    1980.8554   -3213.6869 
 5945000    236.21597   -4759.1362   -4303.5738   -4759.1362            0    9051.0315    19.696435    20.070735    20.489118    8099.7975    9686.0818     7718.558    9748.4547    1532.2982   -1083.9107   -312.11612   -3234.4005 
 5946000    230.62079   -4748.7808   -4304.0092   -4748.7808            0    9202.1302    19.715805    19.828756    20.625652    8063.3898    10940.206    8537.1395    8129.0449   -126.03378   -684.79138    49.164585   -3221.8731 
 5947000    228.60658   -4754.8516   -4313.9646   -4754.8516            0    5762.0476    19.883801    20.127193     20.56553      8230.43    5153.4146    5080.5009    7052.2273    617.21098    458.33223    502.00499   -3622.3323 
 5948000    237.36574   -4755.0653   -4297.2856   -4755.0653            0    8069.8615    20.023711    19.893623    20.409978    8130.1954    8383.7634    7270.3656    8555.4556     820.2698    846.75268    447.70715   -3340.4375 
 5949000    246.19159   -4741.9979   -4267.1968   -4741.9979            0    9332.4911    19.864091    19.674418    20.587806    8046.0115    10294.082    8621.1032    9082.2882   -320.48739    312.18725   -975.98074   -3172.0959 
 5950000    234.72136   -4764.4787   -4311.7989   -4764.4787            0    7361.0719    19.741235    19.919376    20.582919    8093.8846    7988.1499    7687.6115    6407.4544   -77.554588    326.55719   -1302.3764   -3442.8905 
 5951000    223.56538   -4746.3305   -4315.1659   -4746.3305            0    6952.3216    19.969847    19.879624    20.545062    8156.2468    7946.5433    5848.7425     7061.679    162.32485    1539.8295    88.547834   -3488.1838 
 5952000    229.13949   -4739.8381   -4297.9234   -4739.8381            0    6398.9776    19.935685    19.734889    20.747348    8162.5987    6852.8206    6671.0699    5673.0422    695.52084    -742.7402    1179.2966    -3536.169 
 5953000    221.85911   -4757.8517   -4329.9778   -4757.8517            0    7509.2273    19.964752    19.712223    20.608822    8110.5947    6982.1664    8520.8619    7024.6535   -430.87111    518.53148    327.56951   -3441.7511 
 5954000    226.71959   -4764.6235   -4327.3757   -4764.6235            0    6752.5819    19.648778    19.981797    20.731784    8139.6693    7456.7565     6770.976    6030.0132     90.89004    303.28457   -1548.7964   -3525.7853 
 5955000    225.66621   -4777.2491   -4342.0329   -4777.2491            0    6292.1834    20.061911    19.919939    20.532386    8205.3992    7179.1202    5801.6916    5895.7384   -258.71318    262.15968    277.10382   -3589.0641 
 5956000    228.89775   -4779.5755   -4338.1269   -4779.5755            0    6123.9496    19.935486     19.97064    20.525426    8171.6729     6602.284    6025.2808     5744.284     94.86592   -285.81935    1555.5579   -3608.3024 
 5957000    233.61041   -4758.9798   -4308.4425   -4758.9798            0    7023.7968    19.889634    19.873213    20.548419    8122.1929    8241.1378    6326.0831    6504.1695    71.939642   -289.98177   -382.62863   -3476.4467 
 5958000    229.10292   -4738.3791   -4296.5349   -4738.3791            0     8271.004     19.95743    19.814179    20.518889    8113.9911    7057.7718    9471.8535    8283.3866   -285.23718    358.24428    1319.6899   -3317.7919 
 5959000    220.90113   -4739.6863   -4313.6599   -4739.6863            0    6561.0868    19.816402    19.834758    20.771149    8164.1737    5739.7834    7940.8751     6002.602    142.14136    765.48336    804.79531   -3532.4569 
 5960000    238.01024   -4744.4336   -4285.4108   -4744.4336            0    5915.2346    19.812302    20.081149    20.529798    8167.8581    6007.3185    5889.8553      5848.53    -490.7406     610.5445   -1240.8851    -3580.789 
 5961000    244.38621   -4775.9469   -4304.6275   -4775.9469            0     7116.772    20.081745    19.656289    20.601705    8132.1644    6713.8732    6910.3122    7726.1305   -282.55239    782.21314    766.27197   -3460.5835 
 5962000    238.34437    -4757.207   -4297.5398    -4757.207            0    6496.4846    19.654004    19.982914     20.50548    8053.4101    6989.9751    6581.4322    5918.0464   -377.73198    858.00055    2318.7381    -3534.523 
 5963000    238.45617   -4734.0147   -4274.1319   -4734.0147            0    8458.8981    19.833529    19.724147    20.780805    8129.4394    7491.4412    10476.967    7408.2863   -618.26392    82.511575    616.55024   -3271.2489 
 5964000    229.06043   -4740.0383    -4298.276   -4740.0383            0    7556.5557    19.946901    19.752044     20.65588    8138.2529    7563.0372    7505.5883    7601.0415   -827.77061   -170.45616    85.167708    -3401.403 
 5965000    226.88355   -4784.2247   -4346.6607   -4784.2247            0    7891.1946     19.90087    19.755817    20.491768    8056.5012    7559.7809     6606.168     9507.635    104.85773    1490.4873    444.75075   -3419.4784 
 5966000    221.41673   -4731.0336   -4304.0128   -4731.0336            0    9734.9269    19.797426    19.791224    20.465787    8018.8082    10006.894    9803.1142    9394.7726   -517.37293   -36.977146     -340.055   -3165.5512 
 5967000    220.87763    -4756.681   -4330.6999    -4756.681            0    7478.8022    19.966755    19.882893    20.311003    8063.4043    6730.9439    6874.8817    8830.5809   -103.41827    623.45529      240.092   -3451.2191 
 5968000    242.45103   -4759.3696   -4291.7824   -4759.3696            0    8321.1032    19.856802    19.741284    20.768018    8141.0375    8360.9879    9692.7198     6909.602   -529.92101     1337.643   -1386.4747   -3303.8288 
 5969000    237.79581   -4757.2875   -4298.6783   -4757.2875            0     6782.197    19.946336    19.901074    20.523186    8146.7507    5337.6047    5962.5475    9046.4387   -80.839919   -723.68723    878.08174   -3492.8719 
 5970000    232.19809   -4766.0463   -4318.2328   -4766.0463            0    10105.646    19.735843     19.89267    20.315117    7975.6872     9513.331    9463.4758    11340.132   -116.39808    24.906392    677.44495   -3142.7721 
 5971000    235.85722   -4762.9058   -4308.0354   -4762.9058            0    7207.4777    19.875678    19.743022    20.724375    8132.3679    8573.2454    6909.1961    6139.9917   -330.57258    -1026.725    395.59731   -3453.2123 
 5972000    224.95036   -4763.0682   -4329.2326   -4763.0682            0    8462.7446    19.960375    19.713044    20.591536    8102.3525    7492.6418    9340.2407    8555.3514    85.298536    273.81977    1142.5357   -3329.2366 
 5973000    232.99318   -4772.2147   -4322.8678   -4772.2147            0    6145.1358    19.800334    19.857339    20.568893    8087.3178    5182.3968    6990.9696    6262.0409    118.58382   -122.39382   -313.10826   -3598.0783 
 5974000    242.08087   -4765.1368   -4298.2635   -4765.1368            0    7638.1649    19.886085    19.942139    20.425768    8100.2687    8155.1761    7119.6471    7639.6713    357.16603    1096.2255    1136.3128   -3395.9356 
 5975000    234.18431   -4773.1203   -4321.4762   -4773.1203            0    7539.0901    19.909413    19.917481    20.390756    8085.8598    5336.9114    8084.1882    9196.1707    483.93605   -36.596143   -515.60721   -3432.4367 
 5976000    234.97601   -4749.9576   -4296.7866   -4749.9576            0    7756.0141    19.679476    19.808556    20.765523     8094.858    7918.5898    8496.0047    6853.4479    151.82545   -600.12602    28.118512   -3381.1488 
 5977000    249.08323   -4725.9973   -4245.6193   -4725.9973            0    8999.4094    19.925172    19.849001    20.473407    8097.1255    9339.8644    7066.9397    10591.424   -333.74549    1638.0132    733.08291   -3182.8946 
 5978000    240.12074   -4748.4227   -4285.3297   -4748.4227            0    6861.6802      19.8131    19.982736    20.596012    8154.3719    8129.8783    6294.0696    6161.0928    339.04457   -416.48722   -792.10704   -3469.3171 
 5979000    250.10703   -4772.7352   -4290.3828   -4772.7352            0    8681.9731    19.925373    19.717312    20.469586    8041.9848    8639.1788    9020.5978    8386.1427    349.44007   -82.814043   -1117.4521   -3272.1254 
 5980000    238.31664   -4744.0394   -4284.4257   -4744.0394            0    5734.6028    19.890279    19.954382    20.794374    8253.2501    6913.2482    5250.0884    5040.4717   -472.63538    387.75554    355.95325   -3594.1792 
 5981000    231.83888   -4735.5024   -4288.3817   -4735.5024            0    8915.4825    19.972452    19.855956    20.552496    8150.5469    7270.3377    10427.756     9048.354   -156.88286   -303.04002     733.8751   -3228.6217 
 5982000    243.76097   -4766.6467   -4296.5332   -4766.6467            0    6923.9948    19.705656     19.82464    20.664854    8072.8809    6807.3697    6930.0305    7034.5842    36.082635   -2045.7755     1588.054   -3481.3388 
 5983000    230.53852   -4753.9235   -4309.3106   -4753.9235            0    8243.8962    19.890189    19.694921    20.531037    8042.7399    9040.9705    7978.3222    7712.3959   -1179.2375      998.079    356.05682   -3342.3418 
 5984000    234.66043   -4739.5386   -4286.9762   -4739.5386            0    6903.1171    19.772302     19.88154    20.714967    8143.1324    6783.4773    7211.0857    6714.7885     161.0132   -286.57911    730.03433   -3467.1673 
 5985000    218.01382   -4754.3071   -4333.8491   -4754.3071            0      6645.85    19.962184     19.84544    20.582411    8153.8936    8208.3476    5567.3978    6161.8046     304.9305    872.35206   -44.384112   -3543.5501 
 5986000    238.56645   -4787.9158   -4327.8204   -4787.9158            0    4485.4576    20.085074    19.821018    20.682288    8233.7559    4019.2935    4979.3719    4457.7073   -267.51034    410.94986    274.94837   -3789.2027 
 5987000    235.59888   -4759.9236   -4305.5513   -4759.9236            0    8512.6457    19.745098    20.066744    20.403574    8084.3003     6661.824    9668.0165    9208.0967   -12.061849   -897.97961    2015.9123      -3301.9 
 5988000    240.58653   -4755.2024   -4291.2111   -4755.2024            0    8255.7206    19.979827    19.825806    20.421008    8089.0916    7625.6997    8087.7838    9053.6783   -197.86321    -541.8915   -140.23901   -3317.2746 
 5989000    233.73962   -4765.2247   -4314.4382   -4765.2247            0    7001.9234    19.979699     19.75558    20.606557    8133.6251     4909.714    9268.4649    6827.5913   -453.49825   -40.994243   -617.34588    -3483.866 
 5990000    232.99947   -4749.5208   -4300.1617   -4749.5208            0    6275.0608    19.741257    20.002628    20.681266    8166.5565    8072.7085    5167.8049     5584.669    182.15207    1215.8779    515.66388   -3552.7967 
 5991000     231.0311   -4772.3189    -4326.756   -4772.3189            0    7515.7203    19.677337    19.819035    20.700212    8072.7897    6640.8403    8960.2044    6946.1161    486.27423    226.02369      272.484    -3441.905 
 5992000    235.67507   -4754.4972    -4299.978   -4754.4972            0    8024.4706    19.888846    19.835863    20.503745    8088.9819    8445.7396    7224.7863    8402.8859    641.70733    344.39129    329.12194   -3353.3352 
 5993000    244.45029   -4760.0161   -4288.5732   -4760.0161            0    6879.0788    19.801156    19.946365    20.556541    8119.0333    8487.8637    6059.3167    6090.0559    196.14487   -1104.8513    1457.1091   -3474.0368 
 5994000    223.21212   -4718.3528   -4287.8694   -4718.3528            0    8796.7389    19.810891    19.726333    20.615105    8056.3056    8773.3787    9690.6038    7926.2343   -518.22636   -737.28427    3.5480533   -3254.3146 
 5995000    247.30074   -4742.0705   -4265.1303   -4742.0705            0    6863.2744    19.988146    19.760956    20.605971     8139.047    4740.5715    8683.1663    7166.0854    557.94917   -268.12392   -706.43845    -3450.462 
 5996000    245.77291   -4769.6774   -4295.6837   -4769.6774            0    7263.2589    20.025921    19.788866    20.472971    8113.2392     6060.175    8540.0006    7189.6013    -40.51003   -383.41403     688.6408   -3436.2711 
 5997000    233.04379   -4764.2686    -4314.824   -4764.2686            0    6332.6062    19.758512    20.026674    20.657393    8174.0744    8904.9578    4801.0149    5291.8458   -536.11433    712.50567    264.36846   -3559.9109 
 5998000    248.93793   -4770.0379   -4289.9401   -4770.0379            0     7050.729    19.913075    19.785993    20.595755    8114.7269    7026.4961    7841.5855    6284.1054   -341.51469    264.68804   -316.95376   -3455.5218 
 5999000     222.9333   -4759.2845   -4329.3389   -4759.2845            0     8248.942    19.673973    19.897175     20.58319    8057.4232    8115.3199    8862.7935    7768.7126    11.662963    1018.7314   -234.87728   -3360.0119 
 6000000    245.67214   -4738.1176   -4264.3182   -4738.1176            0    9223.3819    20.020966    19.602414    20.616139    8090.9947    8549.0936    10773.767    8347.2856    910.91976    1225.6706   -1507.4344   -3175.9697 
Loop time of 391.252 on 64 procs for 250000 steps with 972 atoms

Performance: 110.415 ns/day, 0.217 hours/ns, 638.975 timesteps/s
195.4% CPU use with 32 MPI tasks x 2 OpenMP threads

MPI task timing breakdown:
Section |  min time  |  avg time  |  max time  |%varavg| %total
---------------------------------------------------------------
Pair    | 30.733     | 37.504     | 49.909     |  79.3 |  9.59
Bond    | 1.0826     | 1.308      | 2.4717     |  22.5 |  0.33
Kspace  | 166.57     | 182.35     | 193.63     |  44.2 | 46.61
Neigh   | 2.1532     | 2.4148     | 2.6882     |  10.9 |  0.62
Comm    | 70.46      | 76.146     | 81.853     |  34.1 | 19.46
Output  | 0.66401    | 0.66433    | 0.66583    |   0.0 |  0.17
Modify  | 74.925     | 77.44      | 82.25      |  17.8 | 19.79
Other   |            | 13.43      |            |       |  3.43

Nlocal:        30.3750 ave          34 max          25 min
Histogram: 1 3 3 1 2 3 7 5 3 4
Nghost:        2706.03 ave        2726 max        2680 min
Histogram: 1 1 2 2 5 7 5 4 4 1
Neighs:        9704.41 ave       11635 max        8017 min
Histogram: 3 4 6 2 1 2 6 4 3 1

Total # of neighbors = 310541
Ave neighs/atom = 319.48663
Ave special neighs/atom = 2.0000000
Neighbor list builds = 6415
Dangerous builds = 0

unfix		3
unfix		2
unfix		1

write_data	data.final.${pid}
write_data	data.final.1
System init for write_data ...
PPPM initialization ...
  extracting TIP4P info from pair style
  using 12-bit tables for long-range coulomb (../kspace.cpp:340)
  G vector (1/distance) = 0.37193143
  grid = 24 24 24
  stencil order = 5
  estimated absolute RMS force accuracy = 0.0035446787
  estimated relative force accuracy = 1.0674695e-05
  using double precision FFTW3
  3d grid and FFT values/proc = 3211 432
Last active /omp style is kspace_style pppm/tip4p/omp
WARNING: Not all mixed pair coeffs generated from mixing. Use write_data with 'pair ij' option to store all pair coeffs. (../write_data.cpp:312)

write_restart   restart.lmp.${pid}
write_restart   restart.lmp.1
System init for write_restart ...
PPPM initialization ...
  extracting TIP4P info from pair style
  using 12-bit tables for long-range coulomb (../kspace.cpp:340)
  G vector (1/distance) = 0.37193143
  grid = 24 24 24
  stencil order = 5
  estimated absolute RMS force accuracy = 0.0035446787
  estimated relative force accuracy = 1.0674695e-05
  using double precision FFTW3
  3d grid and FFT values/proc = 3211 432
Last active /omp style is kspace_style pppm/tip4p/omp
Total wall time: 0:06:31
