LAMMPS (30 Jul 2021)
Processor partition = 0
  using 2 OpenMP thread(s) per MPI task
using multi-threaded neighbor list subroutines
variable        pid world 0 1
variable        phase world IceV IceIII

shell cd ${phase}
shell cd IceV
include Restart.lmp
echo both
log log.lammps
#include		in.partitions
include		in.temp
variable        temperature equal 186.47
variable	tempDamp equal 100.0
include		in.pressure
variable        pressure equal 7442.8
variable        pressureDamp equal 1000.0 # This is 1 ps
include		in.seed
variable        seed equal 745823

units		real
atom_style	full
read_restart    restart.lmp.${pid}
read_restart    restart.lmp.0
Reading restart file ...
  restart file = 30 Jul 2021, LAMMPS = 30 Jul 2021
  restoring atom style full from restart
  triclinic box = (-3.2287152 -0.043584764 -0.012264178) to (14.838714 22.623584 19.242262) with tilt (0.023428319 -6.5685406 0.053660280)
  2 by 4 by 4 MPI processor grid
  restoring pair style lj/cut/tip4p/long/omp from restart
  restoring bond style harmonic/omp from restart
  restoring angle style harmonic/omp from restart
  1008 atoms
  672 bonds
  336 angles
Finding 1-2 1-3 1-4 neighbors ...
  special bond factors lj:    0        0        0       
  special bond factors coul:  0        0        0       
     2 = max # of 1-2 neighbors
     1 = max # of 1-3 neighbors
     1 = max # of 1-4 neighbors
     2 = max # of special neighbors
  special bonds CPU = 0.002 seconds
  read_restart CPU = 0.011 seconds

include 	in.setup
variable	out_freq equal 1000
variable	out_freq2 equal 10000
variable	out_freq3 equal 1000

timestep	2.0

neigh_modify    delay 7 every 1

include		in.tip4p
# This is TIP4P/Ice

# create groups ###
group ox type 2
336 atoms in group ox
group hy type 1
672 atoms in group hy

# set charges - beside manually ###
set group ox charge -1.1794
Setting atom values ...
  336 settings made for charge
set group hy charge 0.5897
Setting atom values ...
  672 settings made for charge

# ### TIP3P Potential Parameters ###
pair_style lj/cut/tip4p/long/omp 2 1 1 1 0.1577 8.5
pair_coeff 1 1*2 0.000 0.000
pair_coeff 2 2 0.21084 3.1668
bond_style  harmonic
bond_coeff  1 450 0.9572
angle_style harmonic
angle_coeff 1 55 104.52
kspace_style pppm/tip4p/omp 1.0e-5
pair_modify tail yes

thermo          ${out_freq}
thermo          1000
thermo_style    custom step temp pe etotal epair emol press lx ly lz vol pxx pyy pzz pxy pxz pyz enthalpy

restart 	${out_freq3} restart.lmp.${pid} restart2.lmp.${pid}
restart 	1000 restart.lmp.${pid} restart2.lmp.${pid}
restart 	1000 restart.lmp.0 restart2.lmp.${pid}
restart 	1000 restart.lmp.0 restart2.lmp.0


include         in.dump
dump            myDump all atom ${out_freq2} dump.water.${pid}
dump            myDump all atom 10000 dump.water.${pid}
dump            myDump all atom 10000 dump.water.0
dump            myDump2 all dcd ${out_freq2} dump.dcd
dump            myDump2 all dcd 10000 dump.dcd
dump_modify     myDump append yes
dump_modify     myDump2 append yes


variable natoms 	equal  "count(all)"                        # NUMBER ATOMS
variable H      	equal  "enthalpy/v_natoms"                 # ENTHALPY-per-atom
variable Vol      	equal  "vol/v_natoms"                 # volume-per-atom
fix AVG all 		ave/time ${out_freq} 1 ${out_freq} v_Vol v_H file vol_enthalpy.dat
fix AVG all 		ave/time 1000 1 ${out_freq} v_Vol v_H file vol_enthalpy.dat
fix AVG all 		ave/time 1000 1 1000 v_Vol v_H file vol_enthalpy.dat



fix 		1 all shake 1e-6 200 0 b 1 a 1
Finding SHAKE clusters ...
       0 = # of size 2 clusters
       0 = # of size 3 clusters
       0 = # of size 4 clusters
     336 = # of frozen angles
  find clusters CPU = 0.001 seconds
fix             2 all nph tri ${pressure} ${pressure} ${pressureDamp}
fix             2 all nph tri 7442.8 ${pressure} ${pressureDamp}
fix             2 all nph tri 7442.8 7442.8 ${pressureDamp}
fix             2 all nph tri 7442.8 7442.8 1000
fix             3 all temp/csvr ${temperature} ${temperature} ${tempDamp} ${seed}
fix             3 all temp/csvr 186.47 ${temperature} ${tempDamp} ${seed}
fix             3 all temp/csvr 186.47 186.47 ${tempDamp} ${seed}
fix             3 all temp/csvr 186.47 186.47 100 ${seed}
fix             3 all temp/csvr 186.47 186.47 100 745823


run             250000
PPPM initialization ...
  extracting TIP4P info from pair style
  using 12-bit tables for long-range coulomb (../kspace.cpp:340)
  G vector (1/distance) = 0.37903877
  grid = 24 27 32
  stencil order = 5
  estimated absolute RMS force accuracy = 0.0024870984
  estimated relative force accuracy = 7.489823e-06
  using double precision FFTW3
  3d grid and FFT values/proc = 5355 672
Last active /omp style is kspace_style pppm/tip4p/omp
Neighbor list info ...
  update every 1 steps, delay 7 steps, check yes
  max neighbors/atom: 2000, page size: 100000
  master list distance cutoff = 10.8154
  ghost atom cutoff = 10.8154
  binsize = 5.4077, bins = 5 5 4
  1 neighbor lists, perpetual/occasional/extra = 1 0 0
  (1) pair lj/cut/tip4p/long/omp, perpetual
      attributes: half, newton on, omp
      pair build: half/bin/newton/tri/omp
      stencil: half/bin/3d/tri
      bin: standard
Setting up Verlet run ...
  Unit style    : real
  Current step  : 15250000
  Time step     : 2
Per MPI rank memory allocation (min/avg/max) = 10.31 | 10.32 | 10.33 Mbytes
Step Temp PotEng TotEng E_pair E_mol Press Lx Ly Lz Volume Pxx Pyy Pzz Pxy Pxz Pyz Enthalpy 
15250000    185.50095   -4972.9232   -4601.8983   -4972.9232            0    7090.2028    18.067429    22.667169    19.254526      7885.45    7876.8482    7293.1233    6100.6369   -1889.8386   -887.25539    44.808653   -3786.5165 
15251000    186.54807   -5000.3225   -4627.2033   -5000.3225            0     7285.691    17.858885    23.046312    19.143567    7879.1366    7536.1441    6350.9581    7969.9708    1174.6995    234.79025    954.03915   -3790.0109 
15252000    187.52646   -4996.6106   -4621.5345   -4996.6106            0     7967.277    17.852675    23.046872    19.050413    7838.2606    7230.2066    8077.8958    8593.7287    608.83892    316.06209   -217.56793   -3710.7712 
15253000    177.79122   -4986.0025   -4630.3981   -4986.0025            0    7732.3577    17.914982    22.881038    19.169541    7857.8515    6304.8733      8487.62    8404.5797   -198.53174    420.77487    -345.3281   -3744.2799 
15254000    183.18253    -5021.894   -4655.5063    -5021.894            0    7162.7541     17.95635    22.803271    19.232956     7875.194     7004.532    6219.5156    8264.2146   -576.51478   -953.47308    420.12826   -3832.8523 
15255000    182.76933   -4986.6033   -4621.0421   -4986.6033            0    7316.6851    17.982491    22.590848    19.319894    7848.5085    6004.3884    9257.3489     6688.318    511.18034    845.86976   -479.51014   -3783.5564 
15256000     191.5827   -4995.6544   -4612.4653   -4995.6544            0    6963.8074    17.990008    22.842069    19.179305    7881.3325    7608.8292    6289.9746    6992.6182   -1056.4877     360.1245    144.45421   -3812.0373 
15257000    180.44159   -4990.3908   -4629.4854   -4990.3908            0     7442.967    17.934289    22.875195     19.20432    7878.5791    8376.9752    6892.9409    7058.9848    345.60812   -126.59518   -34.041701   -3774.2811 
15258000    189.41751   -5004.0419   -4625.1835   -5004.0419            0    6610.5713    17.891679    22.866808    19.269507    7883.6482    7132.3298    6351.1353    6348.2488    322.25614   -901.54319    -23.12808   -3865.1336 
15259000    193.62934   -4988.2515   -4600.9689   -4988.2515            0    7339.7803    17.821515    22.888666    19.327455    7883.8756    8226.6049    6776.7274    7016.0088   -350.53763    424.54251   -210.31466   -3757.0539 
15260000    185.05358   -4984.0729   -4613.9429   -4984.0729            0    8114.7047    17.799188    22.898054    19.297316    7864.9445    8382.1564    8485.4023    7476.5555   -402.68982    1294.5591   -1833.4613   -3683.1688 
15261000    188.44442   -5000.3359   -4623.4238   -5000.3359            0      7399.26    18.010227    22.693538    19.208259    7850.7186    5604.3205    8072.0018    8521.4579   -1337.2897    909.26787   -786.86035   -3776.2479 
15262000    186.15168   -4962.6097   -4590.2834   -4962.6097            0    6999.0264    18.072507     22.48822    19.452404    7905.8171    5372.7853    8652.9171    6971.3767    205.22005    48.418486   -564.52278    -3783.308 
15263000    198.80461   -4994.2756   -4596.6418   -4994.2756            0    6336.3971    17.929672    22.840189    19.309906    7907.7363    6974.6351    5364.7448    6669.8113    831.91899   -250.10481    869.97755    -3865.889 
15264000    186.62429   -5000.6799   -4627.4083   -5000.6799            0    6936.9223    17.875446     22.91489    19.210302    7868.8065    4626.0265    8008.7534    8175.9869    1679.9199   -315.87097    160.33704   -3831.3377 
15265000    191.55859   -5006.6053   -4623.4645   -5006.6053            0    8136.6474    17.888194     22.84473    19.218962     7853.847    8317.6003      8176.37     7915.972   -107.55743    1261.5845    45.021404   -3691.4904 
15266000    189.22736   -5004.4153   -4625.9372   -5004.4153            0    4890.7633    18.049798    22.752647    19.361967     7951.586    4570.7024    5537.3516     4564.236    211.27986    1342.9568   -120.16456   -4058.7762 
15267000     197.1994   -5014.6746   -4620.2514   -5014.6746            0    7628.9658    17.966024    22.755475    19.275397    7880.2722    7118.7937    7483.6179    8284.4857   -398.11161   -283.76123   -632.06171   -3743.4873 
15268000    180.14483   -4995.6955   -4635.3836   -4995.6955            0    7422.6464    17.847011    22.941466    19.239584    7877.3898    7701.6602    7834.3478    6731.9312    32.739987    -107.2251   -102.89427   -3782.6429 
15269000     187.0869   -4995.3182   -4621.1213   -4995.3182            0    9463.1216    17.820955    22.820292    19.219978     7816.369    8694.6979    10135.666    9559.0011    965.59552    1272.6149    2006.2965   -3542.3848 
15270000    183.67881   -4993.6808   -4626.3005   -4993.6808            0    7175.3776    17.943411    22.862154    19.206384    7878.9393    8080.0636    6787.1117    6658.9576   -369.58968    109.99537    -442.1159   -3801.8048 
15271000    178.72441   -4992.6686   -4635.1978   -4992.6686            0    8306.4281    18.012346    22.676567    19.150903    7822.3429    7146.2794     8674.662    9098.3429   -580.07974    -22.47171     436.5709   -3687.5934 
15272000    186.67174    -4988.846   -4615.4795    -4988.846            0    7967.4381    18.086378    22.649368      19.2132    7870.5919    6986.8515    7607.2632    9308.1996    1468.9425   -126.48456    632.57218    -3700.941 
15273000    176.11431   -4995.4914    -4643.241   -4995.4914            0    7934.1678    17.824911    22.876592    19.266989    7856.5623    8903.6489    7320.6699    7578.1847    772.34242    1472.3195   -1861.8622   -3734.1448 
15274000    195.51395   -4981.3779   -4590.3258   -4981.3779            0    6294.2088    17.755593    22.920155    19.365329    7880.9326    6862.9261    6617.5259    5402.1745    156.39907    721.85952    880.20161   -3866.8989 
15275000    198.56511   -4996.2154   -4599.0606   -4996.2154            0    8519.3797    17.930647    22.701037     19.25024       7835.7    8102.4347    9228.8601    8226.8444    -596.2705    74.162431    -1758.957    -3625.503 
15276000    191.01065   -4990.1955   -4608.1506   -4990.1955            0    6994.3943    18.033393    22.727677    19.199166    7868.9149    7135.1482    7002.1468    6845.8878   -1141.3836    226.64275   -648.95992   -3805.4735 
15277000    178.46731   -4960.1932   -4603.2365   -4960.1932            0    6051.7148    17.964032     22.92073    19.222697    7914.9212    5319.4467    5726.0654    7109.6324   -998.48945    647.31178    187.82643    -3904.681 
15278000     182.7114   -4995.9358   -4630.4904   -4995.9358            0    8763.3134     17.92706    22.710409    19.227864    7828.2566    6760.6373    8856.7041    10672.599   -128.24689    1112.4335   -697.82364   -3630.0084 
15279000    184.97281   -4990.1834   -4620.2149   -4990.1834            0    8367.3426    17.872125     22.72806    19.336759    7854.5673    10505.809    7765.8588    6830.3596   -1339.0612    161.72526    754.55255   -3661.7291 
15280000    195.09495   -4993.1911   -4602.9771   -4993.1911            0    7394.5874    17.990516    22.602109    19.335798    7862.3921    7096.0624    7717.0189     7370.681    2024.9428    602.80399    1117.9995   -3755.0773 
15281000     195.2932    -4996.129   -4605.5184    -4996.129            0     6214.252     17.95448    22.913983    19.260309    7923.8576    5742.2187    5761.6844    7138.8529   -395.38447   -203.37428    79.801779   -3887.3912 
15282000    188.99328   -4990.5787   -4612.5688   -4990.5787            0    8447.8899    17.816811    23.171473    19.004414    7845.8154     8390.055    7522.5493    9431.0655     96.70063   -319.32331    485.55219   -3645.9344 
15283000     182.6593   -4989.9337   -4624.5925   -4989.9337            0    5640.5475    18.067201    22.783829    19.275749    7934.6696    5651.3882     5789.498    5480.7564   -667.94637    1279.8601    321.81316   -3971.8739 
15284000    182.27551   -5002.0356    -4637.462   -5002.0356            0     7686.727    18.001439    22.704857    19.216575    7854.2005    6455.9073    8007.9638    8596.3099    -405.1091   -27.659277     78.44932   -3756.9824 
15285000    183.03656    -5019.435   -4653.3393    -5019.435            0    6149.8219    18.034964    22.745155    19.241152    7892.8756    4965.0011    6255.1672    7229.2974    1074.8845   -890.33183   -197.90291   -3945.4364 
15286000    184.23591     -5012.94   -4644.4454     -5012.94            0    7149.6575    18.066332    22.709487    19.168528    7864.4087    6861.0089    7255.7534    7332.2101    1335.3622    80.800408    1363.1135   -3824.4202 
15287000    185.87665   -4988.6878   -4616.9116   -4988.6878            0     9939.853    17.807315    22.931525    19.123937    7809.2384    10385.084    9370.6584    10063.817   -421.74559    321.45037    1705.5306   -3484.8644 
15288000    189.14888   -4988.7487   -4610.4276   -4988.7487            0    9689.4059    17.739388    22.875598    19.170504    7779.3734    11113.428    9566.5505    8388.2395   -763.96833   -343.18334   -484.94836    -3511.124 
15289000    188.26795   -5009.2038   -4632.6447   -5009.2038            0    5374.3059    18.024234     22.65846     19.35807    7905.8629    5437.9829    5558.4705    5126.4642    84.275157   -123.26162   -946.66807   -4012.9931 
15290000    198.85784   -5019.1988   -4621.4586   -5019.1988            0    5841.0288    18.005639    22.737263    19.267449    7888.0733    5152.2272    6469.8758    5900.9833    557.86501    167.83333    98.641978   -3949.5098 
15291000    184.88981   -4986.6304   -4616.8279   -4986.6304            0    8818.7595    17.798377    22.937753    19.190024    7834.4188    9873.8667    8334.4597    8247.9522   -676.01952    499.99675   -639.58102   -3609.2232 
15292000    198.93417   -5021.1135   -4623.2206   -5021.1135            0    6199.8538    17.864086    22.823532    19.381073    7902.0811    7784.7829    4891.4378    5923.3407    754.90755   -398.19704    796.36397   -3908.7262 
15293000    182.24722   -4971.8705   -4607.3536   -4971.8705            0    7745.1524    17.974535     22.58406    19.348451    7854.2709    7283.2031    8652.0648    7300.1895   -614.76274    315.60963      9.88155   -3720.1736 
15294000    177.59034   -5002.3795   -4647.1768   -5002.3795            0     6083.229    17.898491    22.893607    19.296567    7906.9807    5994.2731    5998.2986    6257.1153    214.12803    83.508989    854.57241   -3945.6881 
15295000    179.74208   -5010.9481   -4651.4417   -5010.9481            0    5073.6005    17.917424    22.902969    19.312861    7925.2685    4754.2967    5288.2303    5178.2746   -310.52002   -58.232036    1123.9305   -4065.0253 
15296000    183.60054   -5007.1062   -4639.8824   -5007.1062            0    8293.4009    17.963596    22.754434    19.247157    7867.3035    9392.3885    7456.6494    8031.1646   -121.63656   -1111.1032   -719.56784   -3688.3262 
15297000    195.79554   -5005.0454   -4613.4301   -5005.0454            0    9814.6904    17.966557     22.60901    19.219595    7807.1164    9729.5158    9620.5066    10094.049    119.81001    523.62989   -1637.8251   -3495.9414 
15298000    188.98095   -5020.4001   -4642.4149   -5020.4001            0    5225.4024    17.952773    22.775341    19.340748    7908.0553    5964.8552    4167.8784    5543.4736    -6.845386    -874.5905   -98.807001   -4039.7647 
15299000    193.02795   -4996.6091   -4610.5293   -4996.6091            0    7332.5532    17.859339    22.918808    19.264009    7885.0435    8872.7638     7089.251    6035.6449    208.09975    334.22913    921.13534   -3767.3204 
15300000    183.24341   -5006.2127   -4639.7032   -5006.2127            0     8992.082    17.778772     23.00279     19.09286    7808.2419    9384.2203    8270.1958    9321.8299    53.216918   -149.67908   -337.04839   -3615.7281 
15301000    192.39463   -4964.9353   -4580.1223   -4964.9353            0    6944.3913    17.977799    22.865873     19.28977    7929.6018    7895.4879    5675.3631    7262.3228    -920.0592   -1535.2348    65.149546   -3777.0374 
15302000    183.84497   -5007.2642   -4639.5515   -5007.2642            0    7508.0332     17.84693    22.723955    19.349699    7847.3251    8245.0627    7610.7063    6668.3307    640.20155     245.8041    1678.8215   -3780.2932 
15303000    180.99702   -5010.6086   -4648.5922   -5010.6086            0     8239.424    17.828625    22.824147    19.233043    7826.3704    7513.3972    8341.1493    8863.7256    1448.9788   -424.84827    1224.5761   -3708.1478 
15304000     194.7017   -4988.8974     -4599.47   -4988.8974            0    6356.8085    17.808153     22.85223    19.377332    7885.7219    6725.1578     7446.345    4898.9226    2529.4444    510.17065    465.85947   -3868.4042 
15305000    191.61527   -4989.4418   -4606.1876   -4989.4418            0    7418.1946    17.945396    22.808078    19.191481    7855.0733    6915.3159    8307.2799    7031.9879    -643.4275    433.38031    210.48153   -3756.3726 
15306000    195.94705   -4979.6029   -4587.6846   -4979.6029            0    7976.4156    17.873142    22.733719    19.304394     7843.819    7042.8066    8230.5791    8655.8611   -708.48099   -617.13158    709.77745   -3675.2301 
15307000      184.264    -5014.012   -4645.4612    -5014.012            0    7784.8067    17.764113    22.792898    19.352151    7835.6011    7381.3561    8050.1251    7922.9388   -316.44203   -343.68134   -1381.3148   -3755.8586 
15308000    189.47021   -5001.4744   -4622.5106   -5001.4744            0    6053.1825    17.938018    22.923762    19.176561    7885.5332    6410.5207    5838.8603    5910.1664    2363.5272   -834.44302    1132.0569     -3926.38 
15309000    188.21331   -4999.0657   -4622.6159   -4999.0657            0    7805.9637    17.936828    22.707228    19.259609    7844.3549     7665.576    8843.8019    6908.5132   -74.603141    564.99068     1738.439    -3729.599 
15310000     191.4288    -5009.017   -4626.1357    -5009.017            0    7350.0577    18.003833    22.693158    19.183914    7837.8533    5831.7228    7656.1149    8562.3354   -675.74618   -99.576701   -313.01016   -3785.9723 
15311000    184.87172   -4976.6613    -4606.895   -4976.6613            0    7488.6823    17.849585    23.233788    18.984015    7872.9268    7851.3065    6735.8493    7878.8911   -156.88109   -443.18871   -382.15199   -3747.0553 
15312000     196.5235    -4980.103   -4587.0317    -4980.103            0    6244.1004    17.908477    22.934081    19.213298     7891.179    6744.3021    5368.5264    6619.4728    1233.5367    -812.4395    -144.3035    -3868.431 
15313000    186.67174   -4978.2074   -4604.8408   -4978.2074            0    7028.8868    18.162906    22.513879    19.369123    7920.3731    7374.9435    7307.2842    6404.4326   -193.93742    118.35943   -134.70621   -3792.9305 
15314000    181.31611   -4987.4115   -4624.7568   -4987.4115            0    8925.9679    17.948843    22.726476    19.242998    7849.4873    9726.1298    8710.3813    8341.3925   -255.17218   -89.136739    179.80957   -3602.9413 
15315000    178.50485   -4995.2444   -4638.2126   -4995.2444            0    6559.1492    17.777408      23.0923    19.123891    7850.7635    7301.5924    5600.6507    6775.2046   -1926.9771   -91.381159   -827.22583   -3887.2207 
15316000    193.81745   -4989.7286   -4602.0697   -4989.7286            0    6320.3555    17.944491    22.791837     19.32396    7903.2659    6895.6279    6193.8661    5871.5724    1922.3093      108.453    989.64573   -3873.5791 
15317000    179.07636   -4991.4595   -4633.2847   -4991.4595            0    7043.6586    17.966204     22.78877    19.286641    7896.4852    6822.4692    6710.4173    7598.0893   -6.1995907   -999.01627    334.14349   -3822.1219 
15318000    182.02865    -4985.117   -4621.0372    -4985.117            0    7433.0063    18.063876    22.709941    19.191127    7872.7679    8992.8427    6347.1549    6959.0214     802.9772   -363.10628   -643.89011   -3767.6074 
15319000    181.31183   -5010.3601    -4647.714   -5010.3601            0    7857.7393    18.042143    22.656935     19.14182     7824.787    6652.1696    8621.6556    8299.3928   -1373.1471   -212.18593   -2012.6029   -3751.0163 
15320000    187.19688   -4990.8147   -4616.3978   -4990.8147            0    7024.4304    17.894182    22.969116    19.192207    7888.2567    7949.7005    6125.8093    6997.7813   -24.742801    -707.5578   -752.46882   -3808.2924 
15321000    184.11536   -4987.8013   -4619.5478   -4987.8013            0    6443.5925    17.804809    23.002472    19.198958    7863.0218    6520.4099    5948.6486     6861.719   -332.88918    334.23011    436.92099   -3880.6346 
15322000    193.64271   -4968.0502   -4580.7409   -4968.0502            0    7610.7229    18.017863    22.786779    19.213376    7888.4177    5863.0492    7908.0995    9061.0199    1196.1501    1108.3343    878.23281   -3705.1692 
15323000    180.67037   -5007.8986   -4646.5355   -5007.8986            0    7601.0412    18.090677    22.518688    19.260554    7846.3322    8172.4415    7478.8796    7151.8024    191.53309   -68.259382   -145.76546    -3776.743 
15324000    187.69736   -5025.9845   -4650.5666   -5025.9845            0    6784.0883    17.889599     22.75542    19.323249    7866.2117    5894.1865    7972.3543    6485.7241    777.73388    524.17225    1000.5109   -3872.2917 
15325000    182.63384   -4991.8794   -4626.5892   -4991.8794            0    7951.9477    17.761619    22.866395    19.331603    7851.4185    7552.6067    7809.1463    8494.0902    946.99927    118.79122    1500.7706   -3716.0523 
15326000    191.07831   -5002.4425   -4620.2623   -5002.4425            0    7569.3223    17.783892    22.990128    19.265043    7876.5886    6737.1117    8095.8863     7874.969   -371.22785     170.1254    824.27795   -3750.7593 
15327000    177.97494   -5014.1671   -4658.1952   -5014.1671            0    7383.5109     17.91137    22.784601    19.220522    7843.9606    5675.9482    8739.2623    7735.3223     530.4631    475.31153    28.055465   -3813.5502 
15328000    192.88738   -4976.4509   -4590.6523   -4976.4509            0     6913.422    18.083028     22.58237    19.330747    7893.8583    6597.7563    7983.8557    6158.6542   -639.40387   -834.27706    -687.5077   -3794.7527 
15329000    184.91334   -5004.2281   -4634.3786   -5004.2281            0    7747.4499    17.948339    22.715755    19.230946    7840.6504    8999.6885     7403.659    6839.0022   -418.55581    -1207.614   -420.64639   -3748.4744 
15330000    186.11755   -4974.2013   -4601.9433   -4974.2013            0    7782.7934    17.734901    23.085458    19.209251    7864.6188    7599.9137     7636.885    8111.5817    410.95655    467.90547    2167.2649   -3709.2771 
15331000    187.35207   -4991.5331   -4616.8059   -4991.5331            0    7391.6048    17.806728    22.722028    19.424485     7859.243    8465.7873    8017.1569    5691.8702   -271.71695    102.32401   -958.46011   -3769.5875 
15332000    182.48228   -5007.3617   -4642.3746   -5007.3617            0    6841.8384    17.978622    22.517222    19.367851    7840.6608    6405.7677    7188.1063    6931.6411    2309.9602    197.36612   -573.68648   -3860.0241 
15333000    197.82934   -5005.7621   -4610.0789   -5005.7621            0    7829.1261    17.860089    22.707493    19.312385    7832.2889     6848.103    9014.7369    7624.5382   -705.92652   -490.29917   -1700.3441     -3715.79 
15334000    194.30062   -4984.8478   -4596.2225   -4984.8478            0    7534.6364    17.752242    23.025322    19.263136    7873.8278    7662.3103    7408.4977    7533.1011    83.697638    11.493156    473.45235   -3731.0074 
15335000    180.71676   -4997.8222   -4636.3663   -4997.8222            0    8724.2914    17.873291     22.86804    19.243806    7865.4655    10045.803    7915.0721    8211.9989    581.92616    353.04842   -714.11932   -3635.6051 
15336000    180.03426    -4995.249   -4635.1582    -4995.249            0    6706.4525    18.150257    22.612327    19.221939    7889.0594    5756.3703    6658.6311    7704.3562    -41.52086   -329.74186      54.5889   -3863.5551 
15337000    186.96241    -5007.982   -4634.0341    -5007.982            0    7629.5133    18.009377     22.72116    19.182211    7849.2444    7686.1446    7100.2997    8102.0955    33.565488   -429.20737    739.17093   -3760.6595 
15338000    193.31853   -5005.0471   -4618.3861   -5005.0471            0    8292.8005    17.874036    22.907909    19.177752    7852.4609    6637.2695    9949.8745    8291.2577    1599.5999    579.02306    2760.0802   -3668.6939 
15339000    178.35614   -5013.0836   -4656.3493   -5013.0836            0    7458.1687    17.847355    22.956317    19.162925    7851.2332    7650.7281    7038.6863    7685.0916    1001.7122   -979.09245    438.13964   -3802.3727 
15340000    182.92858   -5000.0762   -4634.1964   -5000.0762            0    6224.9725    17.921905    22.819106    19.275583    7882.9779    6883.8632    5655.3865    6135.6679    452.59087    -347.4343   -303.39964   -3918.5415 
15341000    180.49674   -4994.8879   -4633.8721   -4994.8879            0     8627.487    17.843625    22.703887    19.351497    7839.6717    6940.3952    9632.9984    9309.0676   -612.56089   -324.67878   -1023.4302   -3647.4607 
15342000    185.21353   -5000.8457   -4630.3958   -5000.8457            0    7906.9055    17.907396    22.918349    19.142582    7856.2679    8456.7706    6449.6677    8814.2782   -1481.5816   -791.22503   -438.39174   -3724.4572 
15343000    192.38137   -4989.3173   -4604.5308   -4989.3173            0    8817.7733    17.902665    22.726965    19.237511    7827.2287    8268.6851    9337.6666    8846.9682    1209.3096    572.10728    469.64425   -3597.9634 
15344000    183.14988   -4994.3004    -4627.978   -4994.3004            0    7690.6319    17.899435    22.925865    19.184537    7872.5674    6565.5304    8563.3898    7942.9756   -859.85166     633.6438    748.35848    -3744.991 
15345000     172.6674   -5004.8742   -4659.5181   -5004.8742            0    5357.2697    17.919336    23.044713    19.128515     7899.043     4254.867    5844.3917    5972.5505   -341.54311    248.06637    916.06163   -4042.3636 
15346000    193.65323   -5000.1987   -4612.8683   -5000.1987            0     7518.198    17.868341    22.898985    19.167368    7842.6522    7484.8075    6951.1626    8118.6238     81.03985   -552.51732   -213.31298   -3752.9591 
15347000    189.00119   -5004.4766   -4626.4509   -5004.4766            0    6176.9756    17.890261    22.765193    19.401546    7901.7696    8473.3716    5940.4078    4117.1474    13.296804   -335.75525   -839.41697   -3914.6212 
15348000    182.00236   -4990.7547   -4626.7275   -4990.7547            0    6448.4493    17.908409    22.922116    19.234327    7895.6648    6408.4574    5842.5339    7094.3566   -729.25446   -875.76232    1135.5042   -3884.1874 
15349000    178.06826   -4989.4253   -4633.2668   -4989.4253            0    6901.8245    18.034912    22.792909    19.196027    7890.8744    5000.2863     7553.365    8151.8222   -804.11601    137.11464    708.86538   -3839.0027 
15350000    185.80159   -5004.0995   -4632.4733   -5004.0995            0    6164.3919    18.226332    22.481158    19.312933    7913.4559    4797.1449    7325.8041    6370.2266    297.82394   -635.39137   -270.27787   -3921.0431 
15351000    180.75326   -5015.5839    -4654.055   -5015.5839            0    7955.9237     17.90127    22.629987    19.346309    7837.2965    7564.6609    7708.2048    8594.9055    184.99991   -373.48368    582.64348   -3744.7014 
15352000    185.28357   -4995.6128   -4625.0228   -4995.6128            0    7432.3598    17.870024    22.794963    19.347907    7881.3031    7065.0385    7271.9779     7960.063   -435.48825   -290.87017   -320.26609    -3770.742 
15353000    189.84454   -4992.1286   -4612.4161   -4992.1286            0    7550.3605    17.942645     22.54595    19.452941    7869.3756    7698.7584    8501.1291    6451.1941    -1261.969   -192.81047   -522.50366   -3745.8856 
15354000    186.64359   -4980.1847   -4606.8745   -4980.1847            0    8773.7652    17.854548    22.889038    19.126643    7816.5504    8582.4819    7843.1733    9895.6403   -1345.2516    506.91478    -1087.179   -3606.6971 
15355000    188.39341   -4965.3279   -4588.5178   -4965.3279            0    8510.4254    17.830009    22.904877     19.22627    7851.8968    9260.6751    8911.4191    7359.1819    606.34676   -428.43555   -18.645178   -3613.9732 
15356000    176.63877   -4993.2823   -4639.9829   -4993.2823            0    8713.4751    17.989417    22.572851    19.299472    7836.9835    7428.9337    10500.901     8210.591   -301.85125     741.8691    88.447933   -3644.0818 
15357000    187.59602   -4993.0591   -4617.8439   -4993.0591            0    7519.7329    17.900808    22.756461    19.323093    7871.4363    7796.3144    8042.7897    6720.0944    352.80688    19.925424    638.65876   -3754.6024 
15358000     189.6257    -4990.733   -4611.4582    -4990.733            0    7338.0195    17.693994    23.231531    19.187163    7887.0477    9388.2291    4770.7932    7855.0362     881.8251   -736.01348    456.69357   -3767.4061 
15359000    180.68376   -4993.2107   -4631.8209   -4993.2107            0     8424.045    17.853214    22.970449    19.151843    7854.1008    8076.4026    8036.8338    9158.8985    703.30708    631.95352    373.32264   -3666.8971 
15360000    194.62655   -4995.7486   -4606.4714   -4995.7486            0      7805.14    17.940013    22.723619    19.270543    7855.8683    8065.9069     7775.287    7574.2261    243.34163     275.9963    2339.4216   -3712.2382 
15361000    196.35039   -4984.2516   -4591.5266   -4984.2516            0     8163.977    18.050562    22.490676    19.361624     7860.226     8148.389    9512.9083    6830.6336    370.87255   -891.67992    1293.2889   -3655.6627 
15362000    179.89916   -4977.3969   -4617.5764   -4977.3969            0    7478.0464    17.863309    22.931688    19.226278    7875.7723    6601.5882    7373.1955    8459.3554   -412.95058    281.10469   -1285.3454   -3758.6475 
15363000    183.12199   -4998.5558   -4632.2892   -4998.5558            0    8950.4181    17.946569    22.788261    19.121063    7819.9623    8724.2733    8877.7172    9249.2638   -165.60673    456.95327   -638.51602   -3611.5287 
15364000    193.06241   -4997.6262   -4611.4775   -4997.6262            0    7541.7742    18.081269    22.705466    19.184271    7875.9807    7425.4774    7119.0475    8080.7978     78.64537   -160.63176   -652.58192   -3745.2059 
15365000    187.47875    -4999.988   -4625.0073    -4999.988            0    7893.4437    18.025033     22.80281    19.101214    7851.0076    6389.0238    8021.5784    9269.7288    125.60182   -842.68565    296.75021   -3721.2168 
15366000    184.38709   -5009.8108   -4641.0138   -5009.8108            0    6629.1494    17.879876    22.972093    19.167204    7872.7023    6648.5424    6173.7328     7065.173    1008.8388   -859.61452    668.43039   -3879.8861 
15367000    179.84624   -5009.3728   -4649.6581   -5009.3728            0    6358.1875    17.967987    22.751955    19.303985    7891.6011    6933.9843    6819.2795    5321.2988   -253.88516    480.05428    910.22694   -3917.8885 
15368000    184.76929   -5008.4202   -4638.8588   -5008.4202            0    7810.0016    17.945917    22.609752    19.365585    7857.6393    6998.0289    8689.0127    7742.9633   -923.71925    624.63093   -1420.4274   -3743.8669 
15369000    185.42266   -5008.4426   -4637.5744   -5008.4426            0    8949.3482    17.862738    22.797891    19.157627    7801.6131    6803.3631     10365.97    9678.7116   -153.13689   -222.47905    1325.1237   -3619.3307 
15370000     185.1407    -5003.899   -4633.5947    -5003.899            0    6203.5442    18.019905    23.106373    18.986574    7905.5279    5478.7817    5656.2528    7475.5981   -484.43465    378.29992    145.89132   -3918.3632 
15371000    185.48015   -5008.0739   -4637.0907   -5008.0739            0    8138.2638    18.062464    22.696642    19.157276    7853.6647    7013.1297    8327.3494    9074.3122   -1068.8089   -817.06768   -1061.8284   -3704.9532 
15372000    184.57593   -4965.1597   -4595.9851   -4965.1597            0    7562.3412    18.127341    22.490157    19.253047    7849.2121    6784.2509    7592.5973    8310.1755    1103.0554   -1042.1425   -348.92881   -3730.3034 
15373000    187.91466   -5007.2173   -4631.3648   -5007.2173            0    6407.6591      17.7884     22.96362    19.372156    7913.2554    7975.0576    6537.5947    4710.3249   -582.35944    612.26875   -879.89207   -3891.8779 
15374000    193.66041   -5000.0927    -4612.748   -5000.0927            0    7615.0925    17.682476    22.980568    19.337049    7857.6742    9966.5721    6481.0092    6397.6961   -282.85923   -388.42053    641.24539    -3740.088 
15375000     193.5594   -4998.8556   -4611.7129   -4998.8556            0    6510.8384    17.971701    22.719013    19.384344    7914.6143    7162.3301    6835.6564    5534.5289   -1157.9395   -7.5496989   -455.90369   -3860.1894 
15376000    184.94112   -5001.5981    -4631.693   -5001.5981            0    7255.2793    17.991175    22.614291    19.355815    7875.0616    6474.4745    7118.8438    8172.5195    373.17686   -924.27634    1009.7903   -3798.4264 
15377000    190.53542   -5016.8593    -4635.765   -5016.8593            0    7636.1131    17.890775    22.841119    19.177822    7836.9273    7303.0996    7198.2959    8406.9437    1287.8221   -769.15863    155.39731   -3763.0065 
15378000     187.2328     -5014.25   -4639.7613     -5014.25            0    6691.8685    17.976022    22.887022    19.137284    7873.4153    6033.1343    6860.7575    7181.7138    505.99734    624.73404    19.268121   -3871.3629 
15379000    189.41843   -4967.5627   -4588.7025   -4967.5627            0    8155.2803    17.949457    22.868122    19.142808    7857.5556    7954.3905    8241.3038    8270.1467    868.53823   -69.826921    103.49888   -3654.1531 
15380000    177.74412   -5005.6755   -4650.1653   -5005.6755            0    8123.0824    17.900438     22.77367    19.216752    7833.8752    7599.0334    8247.1801    8523.0337    336.57563   -186.46725    306.93131    -3722.111 
15381000    180.28851   -5017.9931   -4657.3938   -5017.9931            0    6422.9733    17.918499    22.693545    19.335719    7862.5655    7951.5373    6586.6023    4730.7801    787.83621   -612.77991   -384.81379   -3920.8879 
15382000    189.71835   -4985.1145   -4605.6543   -4985.1145            0    7226.2333    17.935421    22.880299    19.218308    7886.5747    7099.4871    6829.6272    7749.5856   -709.62024    178.98503   -1476.1035   -3774.5103 
15383000    190.14057   -4984.9993   -4604.6946   -4984.9993            0    7205.7986     17.92193    22.956118    19.128336    7869.7406    7804.0174    7247.7589    6565.6194   -1063.7377    726.98472   -556.23149   -3777.6701 
15384000     175.6573   -5008.0771   -4656.7408   -5008.0771            0    5261.2735     18.05614    22.932902    19.220751    7958.9225    5743.9759    5205.0728    4834.7717   -898.31057    338.52982    947.85436   -4046.0505 
15385000    185.47621   -5004.7858   -4633.8105   -5004.7858            0    6661.3349    18.129227    22.714037    19.141942    7882.4209    6217.1336    7325.6269    6441.2442    -556.4355    540.77491    46.277208   -3868.0432 
15386000    192.98692   -4996.5332   -4610.5355   -4996.5332            0    6850.1093     17.93549    22.919551    19.177567    7883.3875    6488.2969    7216.2105    6845.8204     1513.597    394.28315   -336.45072   -3822.9708 
15387000    186.27708   -5009.0243   -4636.4472   -5009.0243            0    7370.6092     17.87647    22.932475    19.243638    7888.9619    6985.9842    7997.3814    7128.4619    1561.1893    875.20202   -299.93934   -3788.4408 
15388000    182.54532   -4983.1353   -4618.0221   -4983.1353            0    8800.1526    17.941879    22.493822    19.379573    7821.2355    9686.6559    9145.3407    7568.4611    1007.2865   -555.45416    1437.6382   -3614.2354 
15389000    182.12757    -5015.805   -4651.5274    -5015.805            0    6414.6587    17.923859    22.485956    19.537774    7874.4088    6913.2888    7353.5644    4977.1229   -219.50026   -436.32779    498.64321   -3914.8668 
15390000     182.7859   -4982.0814    -4616.487   -4982.0814            0    5613.5452    17.919007    22.882856    19.339135    7929.7812    7083.3062    5425.3311    4331.9982   -74.744661   -83.510806   -391.73742   -3967.2932 
15391000    185.00628    -4997.131   -4627.0956    -4997.131            0    8770.3036    17.760846    23.063961    19.057957    7806.8152    9165.4581     8315.002    8830.4507   -85.260221    68.453652    1125.6164    -3628.558 
15392000    180.31937   -4991.5353   -4630.8743   -4991.5353            0     6679.487     18.11222     22.63718     19.26099    7897.1905    5600.9298    6976.7912      7460.74   -353.50131   -1015.2484    617.91464   -3861.5816 
15393000     188.5899   -5006.8154   -4629.6123   -5006.8154            0    7484.2681    18.039751    22.605687    19.268205    7857.5925    6588.5248     7898.387    7965.8925    172.01918   -853.79796    1652.0066   -3771.9532 
15394000    190.04369   -5000.9452   -4620.8343   -5000.9452            0    7809.5394     17.91146    22.843398    19.167464    7842.5328    7452.7133    8088.2523    7887.6525   -13.245162   -738.49163   -850.61829   -3727.6159 
15395000    185.40002   -4998.5109   -4627.6879   -4998.5109            0     7525.679    17.916052    23.023048    19.078496    7869.5387    7207.4891    6597.7094    8771.8385    -817.9406   -66.841693   -785.60577   -3763.9721 
15396000    181.32291   -4999.3888   -4636.7206   -4999.3888            0    6086.2602    17.975841    22.937954    19.149589    7895.9311    4957.3848    6446.9045    6854.4913   -624.67045   -329.87427   -1345.2167    -3935.863 
15397000    179.01606   -5009.2268   -4651.1725   -5009.2268            0    8102.0591       17.783    22.677025    19.436216    7837.9562    10222.198     6758.597    7325.3818    353.41226   -805.73221   -500.29348   -3725.0379 
15398000    188.01767   -5008.4091   -4632.3505   -5008.4091            0    7350.6747    17.952662    22.772102    19.241949    7866.4904    7102.6456     8041.452    6907.9264    439.36508    270.59051    1289.3606   -3789.0466 
15399000    190.10952   -4985.9267   -4605.6841   -4985.9267            0    7154.5521    17.784558    23.025184    19.326191    7913.9343    7581.4536    7500.5579    6381.6448   -1046.5347   -77.550085    354.40339     -3779.93 
15400000    177.06392   -4995.9733   -4641.8236   -4995.9733            0    4972.2503    17.919218    22.857066    19.337889    7920.4273    3917.5953    5180.9986    5818.1571    -546.3261   -763.44707   -2202.8347   -4067.4725 
15401000    192.55054   -4978.0552   -4592.9304   -4978.0552            0    6894.4234    18.127386    22.574296    19.284499    7891.4675    7701.2837    6818.3355    6163.6512   -651.71533   -122.07066   -724.17681   -3799.4583 
15402000    183.90932   -4984.6908   -4616.8494   -4984.6908            0    8883.3357    18.095146    22.692435    19.122517    7852.1441    8009.2796    8516.8452    10123.882    668.41931    136.52819     175.5306   -3599.5701 
15403000    186.09693   -4987.5781   -4615.3612   -4987.5781            0    7539.8614    17.854361    23.066389    19.097481    7865.0233    8330.9404    6377.3369    7911.3069    -1163.422   -227.53187   -66.676981   -3750.5143 
15404000    181.16041   -4992.3095   -4629.9663   -4992.3095            0    6594.6019    17.934821    22.872372     19.22579    7886.6482    6405.6609    6919.0878    6459.0569   -896.26743    113.25389   -140.46014   -3871.4639 
15405000    184.52372   -5003.0251   -4633.9549   -5003.0251            0    8060.8423    18.008924    22.506628    19.363118    7848.2621    8958.3827    7708.2664    7515.8778   -469.59551   -935.97521   -391.57634   -3711.3201 
15406000    184.94548   -5020.9483   -4651.0345   -5020.9483            0    5296.0007    17.829636    23.012514    19.299608    7918.7207    6069.2591    4405.0376    5413.7055   -488.14671   -410.66521   -617.81854   -4039.4183 
15407000    185.18399   -5000.9294   -4630.5386   -5000.9294            0    6624.1962    17.766598    23.013261    19.196491    7848.8187    7153.8661    6476.3364    6242.3861   -818.60279   -47.558933   -793.85584   -3872.2869 
15408000    181.03446   -5010.3526   -4648.2613   -5010.3526            0    7330.9865    17.928536    22.708991    19.310642    7862.1146    6865.8689    7779.1458    7347.9447    778.40397    43.317638   -126.12623    -3807.684 
15409000    175.26718   -4993.5919   -4643.0359   -4993.5919            0    7154.8083    18.046468    22.716853    19.227363    7882.4298    6566.1319    7475.4904    7422.8025    486.16345   -649.54534    603.31337   -3820.5395 
15410000    193.82975   -5003.2368   -4615.5534   -5003.2368            0    8260.9871    17.971993     22.89837    19.068972    7847.4411    8388.5246    7521.0156    8873.4212    607.92174   -324.33747    517.05153   -3670.1092 
15411000    185.99349   -5013.8717   -4641.8618   -5013.8717            0    8480.9091    17.829114    23.028726    19.057743    7824.7623      8925.45    7831.7096    8685.5675    580.34538   -502.23558   -735.80313   -3674.0532 
15412000    187.27532   -4999.9772   -4625.4034   -4999.9772            0    7874.9843    17.922604     22.71373    19.336644    7871.7385    8523.8842     8369.915    6731.1535    354.40539    -357.4726    395.60665   -3721.3455 
15413000    181.92436   -4996.6169   -4632.7457   -4996.6169            0    6592.5027    17.892654    22.714865    19.370747     7872.838    7473.5581    7317.8599    4986.0902   -226.95267   -555.23703    1343.3164   -3875.8126 
15414000     189.2141   -5007.6411   -4629.1895   -5007.6411            0    8502.5682    17.804476    22.941793    19.154224     7823.861    8508.0441    7560.1121    9439.5484   -7.5375372    -1284.274   -697.20632   -3659.0211 
15415000    187.48407   -5012.7978   -4637.8065   -5012.7978            0    5173.5588    17.971066    22.979339     19.17755    7919.6228    5267.9797    4377.2132    5875.4834    594.91355    134.39498   -269.34978   -4040.2627 
15416000    192.24127   -4979.8387   -4595.3324   -4979.8387            0    6873.0105    17.903752    23.007535    19.181581    7901.2999     7690.672    5889.4354    7038.9241    567.51131    85.726458    671.65746   -3803.3392 
15417000    178.06919   -4985.9065   -4629.7462   -4985.9065            0    8410.3376     17.89375    22.790015    19.197369    7828.6645    8468.3935    8918.3499    7844.2695   -1197.0759    752.74026   -66.957746   -3669.5123 
15418000    182.61912   -4969.2281   -4603.9673   -4969.2281            0    7611.1071     17.96238    22.604713    19.355106    7858.8396    7194.0813     8477.696    7161.5441     1522.536   -186.63689    539.95877   -3731.6346 
15419000    204.82308   -5011.5043   -4601.8328   -5011.5043            0    7816.9106    17.899612    22.836178     19.20689    7850.9838     6091.382    8447.9357     8911.414    334.04782    176.48155    173.75584    -3706.808 
15420000    187.80564   -4998.0601   -4622.4256   -4998.0601            0    8272.0934    17.796927    22.941142    19.213818    7844.6528    8819.3607    8101.5815    7895.3378   -1066.6028    425.96629    -745.1355   -3676.0468 
15421000    189.86283   -4998.7129   -4618.9638   -4998.7129            0    6810.0444    17.823076    22.899744    19.323225    7886.6559    8976.2826    6732.9872    4720.8635   -1469.0376   -47.405852   -1008.1123   -3835.6807 
15422000    182.39257   -4994.6769   -4629.8693   -4994.6769            0    8430.1249    17.952127       22.602    19.310559     7835.336    6952.6019    9266.2491    9071.5238   -214.55575   -1525.4318    304.35085    -3666.556 
15423000    183.12243   -5004.7729   -4638.5054   -5004.7729            0     7448.927    17.934341    22.609218    19.327812    7837.0689    7840.3965    7673.4949    6832.8897    1204.7386   -1457.5863     1706.388   -3787.1257 
15424000    181.97601   -5001.8615    -4637.887   -5001.8615            0     6513.526    17.866016    22.937477    19.267184    7895.7177    7470.4333    5816.0556     6254.089    1061.6399    573.60358    13.993305   -3887.8484 
15425000    195.68369   -5016.5566    -4625.165   -5016.5566            0    9517.9473    17.843748    22.829271    19.124068    7790.3755    9235.9201    9016.1011    10301.821   -876.42807    -289.0543   -1021.1291   -3543.7869 
15426000     183.1794   -4998.0201   -4631.6386   -4998.0201            0    7023.8094    17.935538     22.95211    19.077079    7853.2406    6347.2486    7133.0942    7591.0853   -798.30902    304.69818    429.01868   -3827.1915 
15427000    188.56387   -4987.2908   -4610.1398   -4987.2908            0    8379.9226    17.898368    22.815868    19.232093    7853.7485    9601.8241    7338.8775    8199.0663     1122.629   -835.02845    1200.1043    -3650.313 
15428000    192.77827   -5003.7607   -4618.1804   -5003.7607            0    7342.5808    17.890164     22.71233    19.390467    7878.8761    8025.1771    7747.2446    6255.3208    294.18776   -292.66591     1123.519   -3774.4787 
15429000    185.68914   -4983.4152    -4612.014   -4983.4152            0    7352.4139    17.865805    22.769717    19.372649    7880.7804      7470.45    8016.1012    6570.6905   -171.88103   -172.86374   -969.15639   -3766.9783 
15430000    186.59817   -4985.9272   -4612.7078   -4985.9272            0    7890.3674    17.871205    22.970381    19.124806    7850.8933    8250.1988     6904.465    8516.4384    623.32537   -1597.4743  -0.63569845   -3709.2826 
15431000    184.59628   -5002.8132   -4633.5978   -5002.8132            0    9129.3826    17.826767     22.85828    19.193477    7821.1351    9948.6762    8411.6958    9027.7758    879.09186    56.072929    32.601734   -3592.2709 
15432000     185.6998   -4993.8593   -4622.4367   -4993.8593            0    6450.6721     17.85368    22.869263    19.330536    7892.6678    6917.5267    6632.1598    5802.3299   -627.52915   -747.56036    908.12496   -3879.9227 
15433000    184.77669   -5012.0858   -4642.5096   -5012.0858            0    7928.1286    17.921681    22.673789    19.320747    7851.0321    7647.6194    8080.4992    8056.2671    213.16184   -1110.5658    577.65794   -3734.7448 
15434000    181.73165   -5012.5841   -4649.0983   -5012.5841            0      6405.76    17.874468    22.713056    19.393635    7873.5012    7149.1344    5535.1084    6533.0373   -428.37759   -1440.1122   -206.37102   -3913.5445 
15435000    190.43411   -4985.2059   -4604.3141   -4985.2059            0      7685.37    17.856019    22.866052    19.233858    7853.1202    9706.4442    7526.2638    5823.4021   -1140.1601   -275.43803   -16.737534    -3724.111 
15436000    184.23785   -4986.3009   -4617.8024   -4986.3009            0    6759.3701    17.836132    22.889832    19.287846     7874.573     7244.429    6573.9251    6459.7561   -1384.1998    23.012624   -740.28125    -3841.539 
15437000    185.46487    -5007.288   -4636.3354    -5007.288            0     6181.935    18.003952    22.723278    19.257365    7878.3574    5182.9668    6916.3689    6446.4694    570.76789   -750.30961    1242.9881   -3926.0449 
15438000    188.43161   -4981.9131   -4605.0266   -4981.9131            0    7665.3141    17.869396    22.905681    19.163239    7843.7181    7894.8481    7356.8303    7744.2637    10.089892   -424.80654   -1523.3211   -3728.1715 
15439000    179.40988   -5010.1855   -4651.3436   -5010.1855            0    5592.0214    17.950565    22.923114     19.24637    7919.5511    6634.9438    5051.7096    5089.4109   -386.98534   -923.74587   -1588.7167   -4005.4733 
15440000    198.36496   -4985.2538   -4588.4994   -4985.2538            0    7581.6397    17.820251    22.818624    19.294573    7845.8217    8681.1836    7412.1334    6651.6021   -1618.9848    454.64276   -593.12325   -3720.9835 
15441000    182.54394    -4981.973   -4616.8625    -4981.973            0    7429.6866    17.900633    22.572134    19.487142    7873.8867    6701.2962    8327.6749    7260.0887    907.44562   -210.11676    1727.3866   -3763.6926 
15442000     193.3423   -5004.3861   -4617.6776   -5004.3861            0    7483.7843    17.874763    22.853961    19.238815    7859.2319     8051.465    6777.7288    7622.1591    383.11725   -800.50898    571.10886    -3759.895 
15443000    187.18143   -5003.8192   -4629.4332   -5003.8192            0    7853.3163    17.928631    22.842806     19.18721    7857.9344    9253.7287    7738.0026    6568.2176   -286.59495   -59.269789   -866.67404   -3729.4438 
15444000    185.47543   -4990.1205   -4619.1468   -4990.1205            0    7589.0666    17.963443    22.648188    19.285588    7846.1377    9295.0774    7960.0712    5512.0511     317.2821    1377.1848   -263.33352    -3750.746 
15445000    183.20593   -4991.6381   -4625.2036   -4991.6381            0    7751.7759    17.955754    22.713696    19.312036    7876.2505    6613.4238    8374.9638    8266.9402    801.68991   -358.63545    848.23447   -3734.7801 
15446000    183.31865   -4998.1307   -4631.4708   -4998.1307            0     7722.485     17.76077    22.953052    19.260766    7851.9183    9922.8415    7132.4568    6112.1568   -634.10393   -267.44367     30.79557   -3747.1522 
15447000    184.84481   -4991.5675    -4621.855   -4991.5675            0    7752.5833    17.818157    22.693216    19.389754    7840.2717    7840.2537    8040.0558    7377.4404    946.81836    74.461473   -2541.6076   -3735.4067 
15448000    191.34668   -5012.2117   -4629.4947   -5012.2117            0    5558.3254    17.987438    22.912515    19.218053    7920.4792    5130.2998    5821.8913     5722.785    152.93609    146.31309   -684.75467    -3987.441 
15449000    190.23351   -4988.4539   -4607.9634   -4988.4539            0    8804.1576    17.909905    22.892627    19.094543    7828.8539    8798.0803    8454.1821    9160.2105   -980.89562   -46.919176   -2289.2073   -3602.7416 
15450000    180.36018    -4985.966   -4625.2233    -4985.966            0    8494.9901    17.947112    22.715866    19.198931    7827.1007    9764.2953     8141.819    7578.8558    216.63363   -565.44523    282.61337   -3655.5182 
15451000     188.7455   -4997.9477   -4620.4333   -4997.9477            0    7748.5491    17.852051     22.64363    19.360889    7826.3536    7174.1939     8284.098    7787.3555    780.62697   -1039.9772    496.59784    -3736.019 
15452000    179.56904   -4981.4875   -4622.3272   -4981.4875            0    8346.7217    17.837557    22.775916    19.291661    7837.5594    8903.7512    8374.4127     7762.001    783.38613    150.20971    664.29213   -3668.2739 
15453000     177.3098   -4997.9058   -4643.2643   -4997.9058            0     8559.512    17.801894    22.837376    19.215686    7812.1094    9358.9296    8059.5244    8260.0821    -346.7469   -590.97649    360.49674   -3668.0654 
15454000    176.17474   -4999.6425   -4647.2712   -4999.6425            0    8030.5464    17.946805    22.692676    19.247015    7838.5592    8518.7155    7381.4987    8191.4249   -206.00831   -1359.8623   -538.09185   -3729.2405 
15455000    178.74142   -5001.6769    -4644.172   -5001.6769            0    8077.1723    17.980804    22.626787    19.259557    7835.7087    8164.8984    8433.3008    7633.3176   -586.87592   -44.164588   -468.60934   -3721.1469 
15456000    186.96085   -5013.9293   -4639.9845   -5013.9293            0    6312.5971    18.032403    22.759576    19.257462     7903.452    5440.5563    6961.2427    6535.9922    403.79439   -133.92746    1925.4345   -3912.3709 
15457000    184.51544   -4991.3315   -4622.2779   -4991.3315            0    7678.0284    17.933157    22.771336    19.235938    7855.2249    7733.0997    8256.9428    7044.0427    711.25628   -173.16962   -258.10811   -3742.6799 
15458000    189.78168   -4993.3859   -4613.7991   -4993.3859            0    6600.1224    17.835818    23.014861    19.268587    7909.5403    6740.8739    6638.2268    6421.2666    239.73917    48.896064    680.05536   -3852.4582 
15459000    189.21615     -5006.98   -4628.5243     -5006.98            0    6153.9649    17.979896    22.914854    19.172791    7899.3181    6942.0493     6139.208    5380.6375    1099.5816   -869.81948   -112.92519   -3919.5663 
15460000    186.67389    -4981.329   -4607.9581    -4981.329            0    7639.8089    18.037708    22.778353    19.200925    7889.0703    6946.0218    8300.6524    7672.7525   -1286.6808    623.08297   -1091.1439   -3728.9676 
15461000    187.47692    -5001.207     -4626.23    -5001.207            0    6387.3229    17.932436    22.771026    19.358093    7904.6831    6476.3784    6363.3009    6322.2895    394.33145   -1077.5479    537.74793   -3889.8886 
15462000    181.93126   -4983.6977   -4619.8127   -4983.6977            0    8290.4675    17.811271    22.956435    19.179225    7842.0644    8715.7061    7514.8316    8640.8647    166.64897   -630.05235    800.78628   -3671.6447 
15463000    188.20167   -5005.4384   -4629.0118   -5005.4384            0    6362.0799    17.925462    22.912639     19.20994    7889.8999    5885.2256    6217.9222    6983.0919    168.71245    155.30707    474.85902   -3896.9521 
15464000    184.61574   -4999.2135   -4629.9592   -4999.2135            0    6467.3155    17.974287    22.770637    19.253091    7880.0195    6345.7116     6533.707     6522.528    872.06512   -464.55067    586.46699   -3886.7224 
15465000    177.36603   -5014.1777   -4659.4238   -5014.1777            0    7983.3294    17.981611    22.653422    19.225712    7831.4981    8318.0681    8450.7397    7181.1805   -19.290373   -787.58419   -2188.2941   -3747.6128 
15466000    184.10661   -4997.8358   -4629.5998   -4997.8358            0    8219.1017    17.898245    22.737652    19.248455    7833.4293    7287.1755    9267.4056    8102.7242   -1158.0662    191.06691    159.94649   -3690.6288 
15467000     180.2847   -5014.6811   -4654.0894   -5014.6811            0    6406.7818    17.855055    22.811622     19.35881    7884.8967    7358.9467     5844.242    6017.1566   -1274.0621   -367.91787   -1396.4725   -3917.3535 
15468000    183.76062   -4980.9878   -4613.4439   -4980.9878            0    7282.3938    17.899784    22.706523    19.400575    7885.2061    6364.2609    8065.2314    7417.6892   -184.81549    1605.8643   -888.02149   -3775.9857 
15469000    189.63115   -5009.6576   -4630.3719   -5009.6576            0    8874.8369     17.92937    22.666542    19.276325    7833.8375    8392.2837    8582.2522    9649.9746    1118.5257   -278.01041   -573.20277   -3616.4352 
15470000    186.08748   -5017.8344   -4645.6364   -5017.8344            0    9042.0254    17.914693    22.754982    19.163866    7812.1218    6021.4279    10411.527    10693.122    740.91309    488.05804    264.75534   -3615.4624 
15471000    180.26619   -4994.4539   -4633.8992   -4994.4539            0    6613.1207    17.822354     23.03874    19.201232    7884.1137    6226.4399    6901.8376    6711.0846    911.66804   -236.94189    238.99987   -3873.5113 
15472000    181.46267   -5023.4092   -4660.4615   -5023.4092            0    7046.7472    17.884232    22.770013    19.282202    7852.1792    9118.2679    6592.2059    5429.7677    294.71266    1060.1285    38.041051   -3853.4963 
15473000    176.61477   -5007.3502   -4654.0989   -5007.3502            0    6787.1195    17.904851    22.658331    19.442861    7887.8526    5777.5794    8357.6741    6226.1048    94.788589    1567.5384   -398.35519   -3873.3342 
15474000    189.73767   -5005.7946   -4626.2958   -5005.7946            0    8179.7546    17.912379    22.633123     19.32977    7836.5413    8879.9674    7930.1879    7729.1086    1300.7272   -6.7570413   -525.47518   -3691.4487 
15475000       180.54   -5004.2736   -4643.1713   -5004.2736            0    6804.1462    17.918153    22.860722    19.181002    7856.9589    7208.5168     7481.873    5722.0486    204.65279   -201.26221    663.05934   -3863.5136 
15476000    177.48316   -4986.1649   -4631.1767   -4986.1649            0    7166.7072    17.926336    23.025024    19.054453    7864.8076    6632.2191    6930.0915    7937.8109   -185.86327    206.40441    16.513436   -3809.1543 
15477000    193.45291   -4970.5337    -4583.604   -4970.5337            0    6953.1963    17.903963    22.837697    19.320382      7899.82    7311.4556    7215.5765    6332.5567   -155.20984    509.19077    232.97776   -3782.5209 
15478000    189.24345   -4985.4535   -4606.9432   -4985.4535            0    7614.4265    17.976413    22.742524    19.288034    7885.5074    7573.1696    7342.5866    7927.5233    161.72277    107.24984   -55.711184   -3731.2687 
15479000    188.60144   -4990.9641   -4613.7379   -4990.9641            0    8259.3678    18.050597     22.67494    19.194874    7856.3889    7668.9896      8437.42     8671.694   -642.76758    440.07288    727.66402   -3667.4012 
15480000    193.58816   -4990.0183   -4602.8181   -4990.0183            0    5315.7642    18.082649    22.830573    19.228961    7938.4308    3246.4007    5911.4602    6789.4317   -861.70789   -582.72408   -287.10489   -3987.3915 
15481000    191.48162    -4975.676   -4592.6891    -4975.676            0    9516.2172    18.147373    22.610416    19.007156    7799.0099     7971.757    10058.733    10518.161   -757.03173     381.7511    786.25267   -3510.3092 
15482000    182.23996   -4991.2267   -4626.7242   -4991.2267            0     7220.935    17.932152    22.819201    19.274865     7887.224    7435.2602     7060.594    7166.9507    490.36493   -12.793665    618.94286   -3796.1212 
15483000    183.21659   -4995.8065   -4629.3507   -4995.8065            0    9454.6486     17.72583    22.814832    19.228239     7776.127    9208.2366    9271.5761    9884.1332   -457.51579   -147.35223    1079.1838   -3557.1289 
15484000    194.62198    -4997.706   -4608.4379    -4997.706            0    7576.7282     17.95926    22.651081    19.358002    7874.7705    8294.1627    7785.3462    6650.6757   -1713.7609   -1500.7729   -2223.9466   -3738.2852 
15485000    179.48908   -5009.4586   -4650.4583   -5009.4586            0    5976.9225     18.06575    22.865047    19.144683    7908.1751      5121.56    5675.7459    7133.4617   -637.30525   -690.14125    117.02134   -3961.1241 
15486000     187.1495   -5007.7559   -4633.4337   -5007.7559            0    6797.3804    17.878137    22.861091    19.245429    7865.8707    7381.8876    5962.8005    7047.4531    1003.9769   -262.36403    536.78851   -3853.6678 
15487000    175.38486   -4983.0223   -4632.2309   -4983.0223            0    7926.1343    17.905758    22.819702    19.222529    7854.4035    7384.3349    7436.1357    8957.9322     1220.797   -126.09702   -397.80273   -3724.3048 
15488000    190.08416   -4989.9265   -4609.7347   -4989.9265            0    8010.0942    17.803181       23.047     19.13707    7852.1295    9500.9025    6116.8276    8412.5525    1529.5197   -105.59258   -115.89344   -3692.4567 
15489000    188.40663   -4999.7546   -4622.9181   -4999.7546            0    6513.1894    17.965519    22.681539    19.384325    7898.8332    7016.3553    7335.3788     5187.834   -440.12844    1098.2765    543.74811   -3872.6222 
15490000    187.28318   -4988.2023   -4613.6127   -4988.2023            0    7438.1859    18.009959    22.698561    19.278294    7880.9696     6331.261    8005.7601    7977.5365   -835.92119    1496.7842   -1863.8475   -3758.6985 
15491000    184.19421   -5011.8619   -4643.4507   -5011.8619            0     6339.768    18.038327    22.812074    19.168041     7887.489    8060.9344    4856.4481    6101.9216    221.86116   -433.15551   -928.48469   -3914.1812 
15492000    178.77755    -4994.744   -4637.1668    -4994.744            0    5721.6842    17.850536    23.094945    19.231779    7928.4385    6022.6693    5661.8625    5480.5206    708.29738    909.50724   -941.20423   -3975.5791 
15493000    199.00151   -5000.4034   -4602.3758   -5000.4034            0    8200.1836    17.887388    22.755406    19.291002    7852.1087    9178.8853    7850.2247    7571.4407   -882.69643     256.3972    1442.4166   -3663.3322 
15494000    199.57094   -5006.1923   -4607.0258   -5006.1923            0    9029.5255    17.939811    22.697321    19.218908    7825.6637    9982.5808    8276.3068    8829.6889    2.3531071    667.96383   -1331.9428   -3576.4925 
15495000    195.88414   -4987.1284   -4595.3359   -4987.1284            0    8371.5159    18.019256    22.646307    19.207054    7837.8151    5143.5818    9949.4463     10021.52   -836.71592    1295.8471   -520.00881   -3638.4172 
15496000    182.02322   -4998.2145   -4634.1455   -4998.2145            0    6165.1124    18.012157    22.774497    19.274435    7906.7165    4848.4461    6553.4344    7093.4566     636.6064    1373.2758    1181.2226   -3923.2381 
15497000    193.10734   -5013.4924   -4627.2539   -5013.4924            0    7545.7419    17.867733    22.781847    19.316416    7862.9396    8327.4992    7591.6808    6718.0458   -856.54295    276.30643    1630.3338   -3761.9617 
15498000    191.69897   -4995.4718   -4612.0502   -4995.4718            0    6115.5933     17.88003    22.894468    19.333149    7914.0974    7681.7843     5854.279    4810.7166   -209.13302    297.64674    1306.1494   -3906.1945 
15499000    181.64599   -5000.8783   -4637.5639   -5000.8783            0     7626.308    18.051353    22.638747    19.179871    7838.0463    8283.7561     7526.802     7068.366    818.65205    443.51695    77.122323   -3765.8017 
15500000    191.90385   -4989.6615   -4605.8301   -4989.6615            0    5777.7109    18.091538    22.671334    19.267346    7902.6814    7609.4398    5177.1599    4546.5329   -178.95886    -583.1977    110.88493   -3939.9344 
Loop time of 489.479 on 64 procs for 250000 steps with 1008 atoms

Performance: 88.257 ns/day, 0.272 hours/ns, 510.747 timesteps/s
194.5% CPU use with 32 MPI tasks x 2 OpenMP threads

MPI task timing breakdown:
Section |  min time  |  avg time  |  max time  |%varavg| %total
---------------------------------------------------------------
Pair    | 37.611     | 40.396     | 43.687     |  28.1 |  8.25
Bond    | 1.0241     | 1.2236     | 1.4623     |   9.9 |  0.25
Kspace  | 236.99     | 243.3      | 250.03     |  22.0 | 49.71
Neigh   | 2.1085     | 2.3043     | 2.5491     |   9.1 |  0.47
Comm    | 82.291     | 88.256     | 93.87      |  33.3 | 18.03
Output  | 0.57661    | 0.57691    | 0.57905    |   0.1 |  0.12
Modify  | 94.955     | 97.922     | 99.737     |  12.2 | 20.01
Other   |            | 15.5       |            |       |  3.17

Nlocal:        31.5000 ave          37 max          28 min
Histogram: 2 2 7 8 4 4 2 1 1 1
Nghost:        2929.56 ave        2949 max        2910 min
Histogram: 2 2 3 2 6 7 4 2 2 2
Neighs:        10595.1 ave       12518 max        9345 min
Histogram: 2 2 7 8 4 4 2 1 1 1

Total # of neighbors = 339043
Ave neighs/atom = 336.35218
Ave special neighs/atom = 2.0000000
Neighbor list builds = 5218
Dangerous builds = 0

unfix		3
unfix		2
unfix		1

write_data	data.final.${pid}
write_data	data.final.0
System init for write_data ...
PPPM initialization ...
  extracting TIP4P info from pair style
  using 12-bit tables for long-range coulomb (../kspace.cpp:340)
  G vector (1/distance) = 0.37946341
  grid = 24 27 32
  stencil order = 5
  estimated absolute RMS force accuracy = 0.0024272549
  estimated relative force accuracy = 7.3096059e-06
  using double precision FFTW3
  3d grid and FFT values/proc = 5355 672
Last active /omp style is kspace_style pppm/tip4p/omp
WARNING: Not all mixed pair coeffs generated from mixing. Use write_data with 'pair ij' option to store all pair coeffs. (../write_data.cpp:312)

write_restart   restart.lmp.${pid}
write_restart   restart.lmp.0
System init for write_restart ...
PPPM initialization ...
  extracting TIP4P info from pair style
  using 12-bit tables for long-range coulomb (../kspace.cpp:340)
  G vector (1/distance) = 0.37946341
  grid = 24 27 32
  stencil order = 5
  estimated absolute RMS force accuracy = 0.0024272549
  estimated relative force accuracy = 7.3096059e-06
  using double precision FFTW3
  3d grid and FFT values/proc = 5355 672
Last active /omp style is kspace_style pppm/tip4p/omp
Total wall time: 0:08:09
