LAMMPS (30 Jul 2021)
Processor partition = 0
  using 2 OpenMP thread(s) per MPI task
using multi-threaded neighbor list subroutines
variable        pid world 0 1
variable        phase world IceIII Liquid

shell cd ${phase}
shell cd IceIII
include Restart.lmp
echo both
log log.lammps
#include		in.partitions
include		in.temp
variable        temperature equal 263.45
variable	tempDamp equal 100.0
include		in.pressure
variable        pressure equal 4250.0
variable        pressureDamp equal 1000.0 # This is 1 ps
include		in.seed
variable        seed equal 745823

units		real
atom_style	full

read_restart	restart.lmp.${pid}
read_restart	restart.lmp.0
Reading restart file ...
  restart file = 30 Jul 2021, LAMMPS = 30 Jul 2021
  restoring atom style full from restart
  orthogonal box = (-0.033015368 0.021756042 -0.087014655) to (20.033016 19.978245 20.787013)
  4 by 2 by 4 MPI processor grid
  restoring pair style lj/cut/tip4p/long/omp from restart
  restoring bond style harmonic/omp from restart
  restoring angle style harmonic/omp from restart
  972 atoms
  648 bonds
  324 angles
Finding 1-2 1-3 1-4 neighbors ...
  special bond factors lj:    0        0        0       
  special bond factors coul:  0        0        0       
     2 = max # of 1-2 neighbors
     1 = max # of 1-3 neighbors
     1 = max # of 1-4 neighbors
     2 = max # of special neighbors
  special bonds CPU = 0.003 seconds
  read_restart CPU = 0.009 seconds
include 	in.setup
variable	out_freq equal 1000
variable	out_freq2 equal 10000
variable	out_freq3 equal 1000

timestep	2.0

neigh_modify    delay 7 every 1

include		in.tip4p
# This is TIP4P/Ice

# create groups ###
group ox type 2
324 atoms in group ox
group hy type 1
648 atoms in group hy

# set charges - beside manually ###
set group ox charge -1.1794
Setting atom values ...
  324 settings made for charge
set group hy charge 0.5897
Setting atom values ...
  648 settings made for charge

# ### TIP3P Potential Parameters ###
pair_style lj/cut/tip4p/long/omp 2 1 1 1 0.1577 8.5
pair_coeff 1 1*2 0.000 0.000
pair_coeff 2 2 0.21084 3.1668
bond_style  harmonic
bond_coeff  1 450 0.9572
angle_style harmonic
angle_coeff 1 55 104.52
kspace_style pppm/tip4p/omp 1.0e-5
pair_modify tail yes

thermo          ${out_freq}
thermo          1000
thermo_style    custom step temp pe etotal epair emol press lx ly lz vol pxx pyy pzz pxy pxz pyz enthalpy

restart 	${out_freq3} restart.lmp.${pid} restart2.lmp.${pid}
restart 	1000 restart.lmp.${pid} restart2.lmp.${pid}
restart 	1000 restart.lmp.0 restart2.lmp.${pid}
restart 	1000 restart.lmp.0 restart2.lmp.0


include         in.dump
dump            myDump all atom ${out_freq2} dump.water.${pid}
dump            myDump all atom 10000 dump.water.${pid}
dump            myDump all atom 10000 dump.water.0
dump            myDump2 all dcd ${out_freq2} dump.dcd
dump            myDump2 all dcd 10000 dump.dcd
dump_modify     myDump append yes
dump_modify     myDump2 append yes


variable natoms 	equal  "count(all)"                        # NUMBER ATOMS
variable H      	equal  "enthalpy/v_natoms"                 # ENTHALPY-per-atom
variable Vol      	equal  "vol/v_natoms"                 # volume-per-atom
fix AVG all 		ave/time ${out_freq} 1 ${out_freq} v_Vol v_H file vol_enthalpy.dat
fix AVG all 		ave/time 1000 1 ${out_freq} v_Vol v_H file vol_enthalpy.dat
fix AVG all 		ave/time 1000 1 1000 v_Vol v_H file vol_enthalpy.dat


timer           timeout 02:55:00 every 1000
New timer settings: style=normal  mode=nosync  timeout=02:55:00

fix 		1 all shake 1e-6 200 0 b 1 a 1
Finding SHAKE clusters ...
       0 = # of size 2 clusters
       0 = # of size 3 clusters
       0 = # of size 4 clusters
     324 = # of frozen angles
  find clusters CPU = 0.001 seconds
fix             2 all nph aniso ${pressure} ${pressure} ${pressureDamp}
fix             2 all nph aniso 4250 ${pressure} ${pressureDamp}
fix             2 all nph aniso 4250 4250 ${pressureDamp}
fix             2 all nph aniso 4250 4250 1000
fix             3 all temp/csvr ${temperature} ${temperature} ${tempDamp} ${seed}
fix             3 all temp/csvr 263.45 ${temperature} ${tempDamp} ${seed}
fix             3 all temp/csvr 263.45 263.45 ${tempDamp} ${seed}
fix             3 all temp/csvr 263.45 263.45 100 ${seed}
fix             3 all temp/csvr 263.45 263.45 100 745823


run             250000
PPPM initialization ...
  extracting TIP4P info from pair style
  using 12-bit tables for long-range coulomb (../kspace.cpp:340)
  G vector (1/distance) = 0.37226821
  grid = 24 24 25
  stencil order = 5
  estimated absolute RMS force accuracy = 0.0034245346
  estimated relative force accuracy = 1.0312884e-05
  using double precision FFTW3
  3d grid and FFT values/proc = 3458 576
Last active /omp style is kspace_style pppm/tip4p/omp
Neighbor list info ...
  update every 1 steps, delay 7 steps, check yes
  max neighbors/atom: 2000, page size: 100000
  master list distance cutoff = 10.8154
  ghost atom cutoff = 10.8154
  binsize = 5.4077, bins = 4 4 4
  1 neighbor lists, perpetual/occasional/extra = 1 0 0
  (1) pair lj/cut/tip4p/long/omp, perpetual
      attributes: half, newton on, omp
      pair build: half/bin/newton/omp
      stencil: half/bin/3d
      bin: standard
Setting up Verlet run ...
  Unit style    : real
  Current step  : 9250000
  Time step     : 2
  Walltime left : 2:54:59.94
Per MPI rank memory allocation (min/avg/max) = 10.19 | 10.20 | 10.21 Mbytes
Step Temp PotEng TotEng E_pair E_mol Press Lx Ly Lz Volume Pxx Pyy Pzz Pxy Pxz Pyz Enthalpy 
 9250000    268.13693   -4654.7781   -4137.6535   -4654.7781            0    4738.6949    20.066032    19.956489    20.874027    8358.9529    1961.3545    6375.8203    5878.9098    270.72417    1290.2922    668.43935   -3559.9745 
 9251000    261.86119   -4702.1474   -4197.1261   -4702.1474            0    1541.9428    19.967811    20.308108    20.856847    8457.6277    1074.2902    1891.1782    1660.3598    376.54937   -1520.2107   -502.75054   -4006.9339 
 9252000    266.90685    -4693.509   -4178.7567    -4693.509            0    4802.8977    20.000358     19.98238    20.858465    8336.1849    4284.9113    5464.2532    4659.5288   -377.90995   -18.195975   -513.54499   -3594.8458 
 9253000     261.7875   -4694.1699   -4189.2907   -4694.1699            0    3604.2758     20.24596    20.146095    20.545992    8380.2385    1459.2214    5030.8679    4322.7381   -602.76336    1450.4168    -790.5782   -3748.7863 
 9254000    247.32243   -4705.7309   -4228.7488   -4705.7309            0    4970.0175    20.112297    20.035396      20.6021    8301.7777    5067.3694     4723.379    5119.3042   -483.84461   -1263.7086   -1006.8968   -3627.0143 
 9255000    263.75076   -4696.7183   -4188.0528   -4696.7183            0    1334.0455     20.23396    20.028503    20.934934    8484.0062    1399.0985    1495.5576    1107.4803    593.20945   -898.34101    469.17421   -4022.9907 
 9256000    270.61355    -4687.858    -4165.957    -4687.858            0    4168.1696    19.938075    20.099194    20.781543    8327.9798    5099.6393    3238.1064    4166.7632   -144.38525   -1421.0225    329.51747   -3659.7118 
 9257000    262.43805   -4688.1014   -4181.9675   -4688.1014            0    4007.8689    20.255702    19.905528    20.651945    8326.8735    3711.7366    3850.6328    4461.2372    182.78397    1129.4862   -85.751778   -3695.2563 
 9258000    260.06801   -4679.1278   -4177.5648   -4679.1278            0    3538.0499    20.117107    20.201932    20.758841    8436.4845    4440.2039    2303.1089    3870.8368   -505.82699    302.03028   -732.97604   -3742.2521 
 9259000    266.98716   -4675.0592    -4160.152   -4675.0592            0     3880.936    20.155284    20.055296    20.927854    8459.4614    3743.3442    2696.1343    5203.3295   -73.125341    -433.1383   -249.73795    -3681.351 
 9260000    271.42332   -4692.6962   -4169.2335   -4692.6962            0    5023.4079    20.212177    20.083058    20.554109    8343.3716    2532.8211    5012.2356    7525.1671   -314.98736   -992.49449   -250.03033   -3557.9876 
 9261000    257.67704   -4685.6743   -4188.7225   -4685.6743            0    4187.1399     20.11499    19.997081    20.632419    8299.2065    5892.1837    1927.7428    4741.4933    197.24982    345.82784    76.034465   -3681.9302 
 9262000    275.07293   -4673.4318   -4142.9305   -4673.4318            0    2471.6938    20.322884    19.987948    20.859057    8473.2152    3532.3943    1120.6237    2762.0635    272.85356    137.54714   -1034.6696   -3837.4955 
 9263000    274.89993   -4671.3313   -4141.1636   -4671.3313            0    5949.6573    19.984207    19.988446    20.758633    8292.1037    7023.3871    6036.2035    4789.3814   -639.90939    565.02601    508.91411   -3421.6607 
 9264000     255.9428   -4686.4305   -4192.8232   -4686.4305            0    5739.3471    20.013177    20.023463    20.874815    8365.2295    5973.2291    6780.8715    4463.9408   -154.73387    106.19661   -857.31568   -3492.6327 
 9265000    256.31903   -4682.1372   -4187.8044   -4682.1372            0    4008.8672    20.056382     20.06679    20.785154    8365.3424    3816.1308    4013.6171    4196.8538    60.530369   -785.99133    727.15698   -3698.7228 
 9266000     265.0585   -4701.7241   -4190.5365   -4701.7241            0    3061.1494    20.122312    20.210913    20.805488    8461.3897    2731.7378    2280.3355    4171.3751   -649.47435   -155.93883    710.03327   -3812.7886 
 9267000    272.75964    -4715.974   -4189.9341    -4715.974            0    2641.9196    20.421894    20.015942    20.549458    8399.8672    2816.0571    1087.2656     4022.436   -137.68188    2166.2202   -696.04145   -3866.2898 
 9268000    248.64441   -4696.8503   -4217.3187   -4696.8503            0    3574.8501    20.155162    20.025323    20.722841    8364.0211    4397.0568     3842.844    2484.6494   -417.44892    1791.3916    -1222.075   -3781.2561 
 9269000    259.69362   -4687.1023   -4186.2614   -4687.1023            0    5535.1033    19.888488    19.840375    21.022732    8295.4662    5803.4901    7090.9195    3710.9003    597.07185   -227.61691   -338.72127   -3516.6198 
 9270000    259.20002   -4702.8502   -4202.9612   -4702.8502            0    3315.4363    20.036196    20.070064    20.874619    8394.2634    3752.6974    2740.2371    3453.3744   -196.41344    361.29155   -414.59192   -3797.0797 
 9271000     255.8536   -4706.1443   -4212.7091   -4706.1443            0    3811.7983    20.341086    20.115837    20.599431    8428.8333    3087.9419    3498.4032    4849.0497   -220.72195     14.05185    162.95978   -3744.1405 
 9272000    264.67485   -4685.2912   -4174.8435   -4685.2912            0    4528.8456    20.118312    20.099996     20.54905    8309.5834    5301.2387    3443.5646    4841.7335   -915.18838   -569.36241    1781.4036   -3626.0074 
 9273000     258.0376   -4706.5056   -4208.8584   -4706.5056            0    3288.7136    20.153613    19.908944    20.733892    8319.2079    1763.7016    4905.6999    3196.7392   -324.97516    879.31378    86.618177   -3809.8483 
 9274000     278.4417   -4670.4466   -4133.4484   -4670.4466            0    3553.9481    20.121958    20.049374    20.841468     8408.129    3738.8273    3406.0078    3517.0092    607.69018   -393.45697    293.75556   -3697.6493 
 9275000    276.53082   -4683.8897   -4150.5767   -4683.8897            0    4601.6972    20.206981     20.04144    20.558672    8325.7894    4384.3069     3133.844    6286.9407   -388.04292    549.55029    -944.9239   -3591.8244 
 9276000    265.66061   -4666.7784   -4154.4296   -4666.7784            0    4136.5731    20.348568    19.960937    20.616295    8373.8541    2811.6573    4585.2901    5012.7718   -394.21825   -923.21253    1127.8878   -3649.2544 
 9277000    272.40984   -4678.8968   -4153.5315   -4678.8968            0    5698.2002    19.932259    20.100578    20.841254    8350.0471    5534.2057    5301.9909     6258.404   -684.14352   -327.54527    106.17344   -3459.6225 
 9278000    250.44221   -4686.3024   -4203.3035   -4686.3024            0    5846.7618    20.072353     19.94174    20.767191    8312.6423    6115.9198     5416.054    6008.3117    1242.6967    236.11923   -88.160658   -3494.4926 
 9279000    265.94321   -4690.5956   -4177.7017   -4690.5956            0    4819.2102    20.193347    19.799798    20.867418    8343.2986    3973.3816    6731.6599    3752.5892     34.02799    601.95006    426.44356   -3591.3077 
 9280000    267.45396   -4670.9034   -4155.0959   -4670.9034            0    4776.0729     20.09882    20.133038     20.55165    8316.2315    4842.8555    5117.2641    4368.0992    836.85957    -964.4157    1375.0911   -3575.8361 
 9281000    273.80748   -4685.8497   -4157.7889   -4685.8497            0    2534.0417    20.080721    20.270232    20.745176    8444.1344    3965.5796    424.36034    3212.1853    1061.3076   -224.19269    342.70634   -3845.7241 
 9282000    264.42323   -4672.5594    -4162.597   -4672.5594            0    5553.3869    20.132864    19.924844    20.753858    8325.2894    4828.8978    6165.7173    5665.5455    201.37292   -501.45809    837.57984    -3488.328 
 9283000    266.74149   -4690.8119   -4176.3785   -4690.8119            0    3188.0568    19.850344    20.167495     20.96236    8391.8977    3673.8331    3427.8042    2462.5332    40.866333    303.25541   -1292.2305   -3786.2011 
 9284000    275.78646   -4730.7532   -4198.8759   -4730.7532            0    4344.0103    20.037812    19.868012    20.909508    8324.3153    5334.9186       5386.5    2310.6122   -434.28129   -337.98197   -108.31986   -3671.5061 
 9285000    257.04571   -4725.9969   -4230.2627   -4725.9969            0     4688.462     20.10914    20.112154    20.681114    8364.2311    4397.6236    4815.1511    4852.6111   -90.748263   -785.63066    303.06677   -3658.3466 
 9286000    249.09829   -4688.8658   -4208.4588   -4688.8658            0    3348.9306    20.347959     20.06003    20.580764      8400.67    4350.9382      2278.58    3417.2735    274.84264   -214.28582   -690.52471   -3798.1641 
 9287000    267.25648   -4696.8048   -4181.3782   -4696.8048            0    5064.5365    19.829533    19.984977     20.89497    8280.5253    6450.3466    3884.8432    4858.4197    325.14911   -588.23517    642.31991   -3569.7698 
 9288000    268.12657   -4682.2196   -4165.1149   -4682.2196            0    4858.5496    19.989411     20.04532    20.846296    8352.9888      4373.75    5047.3937    5154.5053   -15.215908   -674.85534     1053.939   -3573.2475 
 9289000    247.59887   -4692.0584   -4214.5432   -4692.0584            0    4649.9562     20.04442    19.919394    20.946351     8363.306      5150.52    5330.0004    3469.3483   -390.83229    1139.0073    -152.9249   -3647.3869 
 9290000     259.1531   -4688.2592   -4188.4607   -4688.2592            0    4447.0015    20.109186    20.040806     20.70747    8345.1993     3986.118    5240.5816    4114.3049   -366.60702   -546.45438     661.8836   -3647.2331 
 9291000    263.22543   -4682.7039   -4175.0515   -4682.7039            0    3616.2406     20.17683    20.043473    20.715513    8377.6386    2366.7493    3682.9686    4799.0039    282.84487    49.941123    1207.0247   -3733.2219 
 9292000    274.28896   -4719.7552   -4190.7659   -4719.7552            0    4801.9233    20.002105    19.868397     20.84455    8283.8275    5853.7795    5740.8592    2811.1311    265.02964   -1502.8665   -660.74766   -3610.6401 
 9293000    267.97714   -4676.3699   -4159.5535   -4676.3699            0    4337.6814    20.351556    19.758742    20.781717    8356.7679    1695.4253    6216.3266    5101.2923    302.25854    1013.4465    911.55603    -3630.899 
 9294000     253.5923   -4708.0605   -4218.9864   -4708.0605            0    3337.6359    20.018306    20.168371    20.732002     8370.268     5078.523    2267.1246    2667.2601   -139.80882     80.63817   -823.36609   -3811.5552 
 9295000    260.23056     -4725.22   -4223.3435     -4725.22            0    5276.6256    19.969069    20.002057    20.826643     8318.629    5161.1646    5880.3442    4788.3679   -798.44431   -649.67891   -750.75347   -3583.1903 
 9296000    255.77444    -4695.743   -4202.4605    -4695.743            0    3326.2195    20.151451    19.927435    20.805357    8354.7394     2761.807    3599.5976    3617.2541    37.932634    1920.8644   -183.06832   -3797.1763 
 9297000     256.2543    -4684.257   -4190.0491    -4684.257            0    5184.5029    19.860154    20.217231    20.682684    8304.4563    6658.3908     4721.337    4173.7808    159.78986   -117.60932    721.94436   -3562.1437 
 9298000    251.05759   -4706.7985   -4222.6128   -4706.7985            0    2807.1904    20.034949     19.98755    20.838735    8344.8617    2887.9881    2304.8275    3228.7554   -229.13076   -536.86983    953.37059   -3880.9742 
 9299000    269.94113   -4686.2957   -4165.6915   -4686.2957            0    4383.5195    19.771544    20.293841    20.913916    8391.5119    4360.4298     4981.423    3808.7057   -471.20823    806.46623   -100.05219   -3629.2294 
 9300000     273.6488    -4744.593   -4216.8382    -4744.593            0    3386.8892    20.213977     20.00805    20.767211    8399.1378    2824.8098    4136.2281    3199.6297    233.63312    614.71901    1040.0875   -3801.9687 
 9301000    274.89106   -4645.3265    -4115.176   -4645.3265            0    4557.0102      20.1152    20.138587    20.675729    8375.5662    6641.0059    2910.9999    4119.0249    72.409849    39.023282    120.69582   -3558.5416 
 9302000    258.79996   -4708.3231   -4209.2056   -4708.3231            0    3633.3261    20.111957    20.176509    20.740215    8416.1526    5670.4696    2069.7227    3159.7862   -738.58926    381.30207    528.09812   -3763.2477 
 9303000    250.51935   -4701.5741   -4218.4265   -4701.5741            0    5154.5965    20.313342    19.835704    20.758657    8364.2742    5356.1468    4516.1058    5591.5368    341.83933     357.6223   -135.26486   -3589.6463 
 9304000    263.56436   -4660.2176   -4151.9116   -4660.2176            0    6094.4419    19.915332    20.137595    20.741908    8318.4781    7244.5174     5323.731    5715.0774    768.09996   -1012.3891    174.49521   -3412.5554 
 9305000    269.58363   -4701.3447     -4181.43   -4701.3447            0    5260.3828    20.148248     19.98865    20.752975    8357.9761    5626.3575    4996.0776    5158.7131   -548.47734    740.38517   -350.65307   -3540.2287 
 9306000     270.1182   -4656.3389   -4135.3932   -4656.3389            0    4125.6771    20.257617    20.190608    20.507218    8387.7312    3480.3787    4172.4845    4724.1679    65.024746     779.8464    415.51125   -3630.7138 
 9307000    250.98971   -4709.0788    -4225.024   -4709.0788            0    3563.2534    20.053438    20.083304    20.787293    8371.8601    4201.4019    3786.2935    2702.0648   -131.85465    1143.0304    1236.9447   -3789.9686 
 9308000    270.67377   -4705.9147   -4183.8975   -4705.9147            0    5711.1961    20.115741    19.866487    20.817836    8319.4134     5435.218    6064.6454    5633.7248   -7.7840606   -549.35741   -99.013832   -3490.9575 
 9309000    255.65008   -4685.4979   -4192.4552   -4685.4979            0    4956.8118    20.033565    19.929727    20.882498    8337.6184     4220.574    5800.3224     4849.539    338.13301    49.261487    1383.5409   -3589.7287 
 9310000    255.17416   -4678.1009   -4185.9761   -4678.1009            0    4802.6512    20.093303     20.15219     20.53113    8313.5485    6231.0682    4207.0037    3969.8817   -843.57583    762.79185    523.61792   -3603.6807 
 9311000     249.8282   -4653.6143   -4171.7996   -4653.6143            0     5609.324    20.244899    19.878835    20.680829    8322.8964    4772.1134    6969.2298     5086.629    556.42281    1017.5816   -926.27265   -3490.9348 
 9312000    279.95208   -4687.1421   -4147.2309   -4687.1421            0    4010.6545    19.957948     20.22668     20.84675    8415.4789    5540.7445    2024.0971    4467.1218    184.51807    916.00918   -1348.1305   -3654.9988 
 9313000    275.10409   -4675.7806   -4145.2193   -4675.7806            0    4634.0752    20.003907    20.185667    20.673771    8347.9074    5866.2461    3545.6739    4490.3057    -1309.537     532.0528    11.690842   -3581.0407 
 9314000    258.32794   -4678.7478   -4180.5406   -4678.7478            0    4761.6374    20.042372    19.896979    21.021376    8382.9601    4121.1633    6612.8444    3550.9044   -463.47532   -103.64283   -224.09087   -3598.3977 
 9315000    263.65953   -4713.3321   -4204.8425   -4713.3321            0    4087.3725    19.988525    20.167486    20.710953    8348.9642    2910.1282    5641.5549    3710.4343    220.88811   -150.82668    107.40989   -3707.1596 
 9316000    269.17147   -4666.1628   -4147.0429   -4666.1628            0    2448.2749    20.212883    20.011392    20.842271    8430.4468    2108.6334    2889.1105    2347.0808   -409.66716    825.67588   -600.70931    -3846.029 
 9317000     255.6563   -4697.0264   -4203.9717   -4697.0264            0    3225.6089    20.159843     20.05747    20.785654    8404.7924    3829.1245    2276.0076    3571.6947    315.41372    196.66342   -785.36322   -3808.5918 
 9318000    266.84588   -4706.9568   -4192.3221   -4706.9568            0    2737.5212    20.067542    20.364356    20.767608    8486.9445     2910.285    2005.2842    3296.9945    673.50347    171.07871     -566.837   -3853.4899 
 9319000    262.94796   -4727.2672     -4220.15   -4727.2672            0    5364.5212    20.131061     19.89442    20.716945    8297.0492     6129.199    3939.4718     6024.893   -146.31123    343.07549    1219.4918   -3571.0217 
 9320000    266.20772   -4679.9174   -4166.5134   -4679.9174            0    6152.9833    19.850452    19.881972    21.060549    8311.8854    6766.6306    6643.4408    5048.8785    1425.1302    621.22914   -1438.5668   -3420.6468 
 9321000    259.61285    -4682.905   -4182.2197    -4682.905            0    3399.9262    20.139101    20.066479    20.885087    8440.0993    3576.9085    3246.9901    3375.8801   -942.81289    363.88109    481.65781   -3763.7222 
 9322000     276.9658   -4660.1051   -4125.9532   -4660.1051            0    4656.0838    19.998278    20.202408    20.695507    8361.2618    4586.8793    4121.4394    5259.9329   -71.772382   -746.47238    254.78034   -3558.1884 
 9323000    249.02409   -4702.1266   -4221.8627   -4702.1266            0    3832.3681    19.849717     20.22583    20.873397     8380.189    5267.8044    3145.4329    3083.8669   -33.894629   -439.45303    43.944366   -3753.4842 
 9324000    262.64929   -4713.4754   -4206.9342   -4713.4754            0    4604.5987    20.249815    20.045775     20.53077    8333.9164    2357.1413    5880.9438    5575.7109   -410.08965   -298.24811    176.60267   -3647.2838 
 9325000    265.20057   -4703.0805   -4191.6189   -4703.0805            0    3941.2036    20.110395    20.367339    20.512956    8402.0092    3514.6342    3033.1476    5275.8291   -609.23121   -285.47883    817.01965   -3708.6847 
 9326000    270.94843    -4704.954   -4182.4072    -4704.954            0    2894.9773     20.12638    19.929488    20.884165     8376.815    4425.2125    1759.5407    2500.1788   -180.92754   -1107.9341    278.49996   -3828.7358 
 9327000    253.89769   -4718.6624   -4228.9994   -4718.6624            0    2944.5983    20.042068    20.148245    20.748825    8378.6347    3495.6768    1538.9054    3799.2128   -766.09445    645.62852   -987.34255   -3869.1877 
 9328000    285.13022    -4693.791   -4143.8934    -4693.791            0    2323.3122    20.281285    20.081756    20.570217    8377.9165    504.50236    2716.7643    3748.6699    317.20362    452.68447   -322.40014   -3860.0234 
 9329000    254.17671   -4694.8607   -4204.6596   -4694.8607            0    4380.2596    20.120002    19.830779    20.893104    8336.2508     5581.731    4079.7157    3479.3322    335.25361   -968.65462    698.43719   -3672.1266 
 9330000    271.61609   -4680.2643   -4156.4298   -4680.2643            0    5420.5101    20.060214    19.854561    20.769594    8272.2539    4738.9275    6008.8457     5513.757   -253.99394    1205.7413    902.66941   -3502.4868 
 9331000    273.99132   -4698.6395   -4170.2242   -4698.6395            0     5427.573    19.971325    20.095125     20.68618    8301.9078    7305.6328    3494.0208    5483.0655    389.72744    71.404206   -994.67909   -3513.0818 
 9332000     260.7543   -4710.2946    -4207.408   -4710.2946            0     4900.629    20.502374    19.906957    20.389707    8321.8524    1878.3967    6655.0392    6168.4512   -15.555395   -15.718128   -194.78449   -3612.6398 
 9333000    248.24059   -4645.3748    -4166.622   -4645.3748            0    4390.4907    20.007646     20.05629    20.846105    8365.1071    4151.2175    4340.3664    4679.8881    60.013394   -1139.5932   -1249.5065   -3630.9975 
 9334000     271.2483   -4656.3183   -4133.1931   -4656.3183            0    5808.9239    20.099766    19.861237    20.793188    8300.7701    7120.9217    5514.2762    4791.5739   -588.26153    -374.1416    798.21778   -3429.9751 
 9335000    250.63167   -4691.5159   -4208.1516   -4691.5159            0    4501.9509    20.149343    20.219292    20.603189    8393.8513    3811.3892    5561.5459    4132.9175    260.26872    623.73853    915.84045   -3657.0421 
 9336000     251.2772   -4687.0485   -4202.4393   -4687.0485            0    4533.0233    20.127436    20.075625     20.69164    8360.8888    4111.4024    4386.9958    5100.6718    -405.5112   -237.89126    489.41044   -3649.7052 
 9337000    257.30079   -4679.4333   -4183.2071   -4679.4333            0    6216.0639    19.715038    19.982325    20.947312    8252.2415    7327.2968    6133.0944    5187.8005    535.20827    191.83588     2464.265   -3435.1008 
 9338000    266.94772   -4710.1223   -4195.2911   -4710.1223            0    4682.0798     20.06646    20.013182    20.903459    8394.6978    3637.0178     6703.904    3705.3174    269.37814     552.9878    512.85498   -3622.0732 
 9339000    245.78076   -4716.1093   -4242.1005   -4716.1093            0    4082.4357    20.327928    20.085806    20.470795    8358.2834    241.83688     6965.627    5039.8432    680.72379    413.55775   -827.99118   -3744.4638 
 9340000     259.7726   -4693.0681   -4192.0748   -4693.0681            0     4658.275    19.990055    20.116365    20.827345     8375.243      4737.59    4346.6575    4890.5776   -93.640169   -1013.2668     208.5952    -3623.093 
 9341000    258.65497   -4700.5633   -4201.7254   -4700.5633            0      2275.88    20.173835    19.997636    20.907044    8434.5081     2113.448     2382.508    2331.6838   -450.71211    297.37575    1526.3496   -3921.7725 
 9342000    269.67432   -4712.3636    -4192.274   -4712.3636            0    4081.0666    20.011937    19.947551    20.920092    8351.0735    5188.8371    3364.5554    3689.8072     351.8538    280.94782   -111.99238   -3695.2334 
 9343000    263.20582   -4668.3694   -4160.7549   -4668.3694            0    3714.0008     20.06428    20.077365     20.94049    8435.6225    3001.2582    4151.3147    3989.4293   -44.881842    773.16637   -1401.6392   -3703.8403 
 9344000    256.25935   -4682.4281   -4188.2103   -4682.4281            0    4420.3665    20.116857    20.164869    20.491627    8312.5064    4725.2284     3825.858    4710.0133    140.70328   -54.036455    -903.9652   -3652.3321 
 9345000    262.99197   -4737.2746   -4230.0725   -4737.2746            0    5106.5455    20.077683    19.837985    20.806223    8287.1349    6362.7402    5148.4517    3808.4446    680.47939   -443.70092   -1104.7613   -3612.8987 
 9346000    268.84152   -4696.3966   -4177.9131   -4696.3966            0    4387.0393    20.038043    20.010208    20.957575    8403.2625    5937.7695     4090.742    3132.6065    251.84949   -1002.2725   -983.90234   -3640.2685 
 9347000    274.74658    -4718.181   -4188.3091    -4718.181            0    2532.7188    20.129941    20.104126    20.639462    8352.6842    591.32055     4441.735    2565.1009    -192.8138     356.9183    673.45295   -3879.7851 
 9348000    254.83404   -4680.0117   -4188.5428   -4680.0117            0    5445.0845    20.176966    20.069435    20.623598    8351.3259    7125.3869    2552.3673    6657.4994     392.4778   -1063.8023   -478.70062   -3525.3559 
 9349000    263.38247   -4703.9773   -4196.0221   -4703.9773            0     3782.913    20.048214    20.121375    20.776803     8381.313    4053.1814    4070.9061    3224.6515   -1437.4868    80.563807    -1074.355   -3733.6258 
 9350000    254.82327    -4676.013   -4184.5649    -4676.013            0    4912.4035      19.9582    19.994653    20.927357    8351.2143    4639.3645    5865.9592    4231.8867    559.45162    199.72947   -1621.5589   -3586.2642 
 9351000    256.20192   -4722.1791   -4228.0722   -4722.1791            0    3517.2743    20.234355    19.928666    20.748884    8366.8568    929.37328    5056.7544    4565.6952    14.659772    1483.5523   -24.424262   -3798.8872 
 9352000     253.4795   -4666.3432   -4177.4867   -4666.3432            0    4979.6168     20.29733    19.985928    20.534443    8330.0224    3687.0432    4959.8348    6291.9724   -706.84004    1073.8266   -429.36733   -3572.5388 
 9353000    269.80081   -4691.7416    -4171.408   -4691.7416            0    5221.1874    20.047305    20.098764    20.720781     8348.943    5481.7992    3795.7342    6386.0289  -0.92072362   -235.14693   -530.90408   -3535.6722 
 9354000    267.58325   -4686.1304   -4170.0736   -4686.1304            0    3999.7945    20.159225     19.87866    20.872029    8364.2234    2321.7831    6384.9814    3292.6189   -160.28972   -122.11367   -708.07403   -3682.1642 
 9355000    273.43951   -4665.7319   -4138.3808   -4665.7319            0    4999.8593    19.870663    20.012474    21.086179    8385.1533    7159.2092    4852.3839    2987.9847    43.737612   -1357.1013    -296.2871   -3526.9537 
 9356000    252.47719   -4699.4127   -4212.4893   -4699.4127            0    4901.4799    20.161168    19.931674    20.765808    8344.6536    6161.0017    4735.1871     3808.251   -913.63276    425.43613   -929.19679   -3615.9879 
 9357000     264.0028   -4695.6727   -4186.5211   -4695.6727            0    3420.3767    20.180832    20.044612    20.539515    8308.5819    705.33525    4592.7438    4963.0512    195.20765    1253.1741    236.91053   -3772.0667 
 9358000    274.80864   -4692.8196    -4162.828   -4692.8196            0    3512.4424    20.231306    20.115883    20.653207    8405.2475    2022.2207    3937.6643    4577.4422   -838.03229   -1913.2616    29.090263   -3732.2661 
 9359000     262.5407   -4695.4055   -4189.0736   -4695.4055            0    3339.0286    20.208144    20.089023    20.773177    8433.1174    2639.0726    4777.5166    2600.4967    224.48077   -143.98674   -539.29474    -3778.412 
 9360000    278.57448   -4704.2729   -4167.0186   -4704.2729            0    5652.7104    20.106531    19.982294    20.820542    8365.1653    7707.2701    4714.5155    4536.3457   -222.58182   -773.21965    145.59122   -3477.4029 
 9361000     284.2433   -4701.9636   -4153.7765   -4701.9636            0    4880.3586    20.325289    19.982732    20.442904    8302.9839    3184.2189    5491.7291    5965.1279   -200.99579   -860.88121   -252.77897   -3562.8114 
 9362000    267.07813   -4682.2382   -4167.1555   -4682.2382            0    4851.0431    20.127624    19.881088    20.723665    8292.7622    5790.5688    5368.8425    3393.7179    100.35605    872.23815   -518.83055   -3580.4634 
 9363000    243.25091   -4690.3136   -4221.1838   -4690.3136            0    5134.7092     20.33558    19.899062    20.719587     8384.367    4409.9036    6081.7224    4912.5017   -774.78616    255.58105    303.07935   -3593.3249 
 9364000    263.25518   -4684.1647   -4176.4549   -4684.1647            0    3812.1839    19.960872    20.069174    20.787071    8327.2636    4534.0432    3541.4275     3361.081     36.16561     -766.218    701.90863   -3713.4858 
 9365000    254.83036   -4678.6191   -4187.1573   -4678.6191            0    3017.9755    20.213046    19.950204    20.914165     8433.729    1612.0487    3812.3615    3629.5163   -308.06319   -193.01798   -572.52899   -3815.9545 
 9366000    254.35449    -4701.953   -4211.4089    -4701.953            0    4368.6513    19.834624    20.136691    20.944279    8365.2222    6743.0731    3519.2915    2843.5894    809.37649   -289.41899    294.32028   -3678.4414 
 9367000    250.51828   -4705.2118   -4222.0662   -4705.2118            0    4127.4922    20.206618    19.921311    20.745254    8350.8428    2293.2368    7485.6895    2603.5503    941.70901   -1506.1886    59.872334   -3719.3853 
 9368000    256.08545   -4697.8338   -4203.9515   -4697.8338            0    4298.4025    20.016475     20.26301    20.581224    8347.6217    5568.0282    3384.3019    3942.8774    343.50943    806.31285   -1022.8332   -3680.6575 
 9369000    254.35234   -4708.7659    -4218.226   -4708.7659            0    4208.4501    20.130741    19.988061    20.850731     8389.802    5154.1611    5094.4833    2376.7058   -366.02104    145.08453    1539.7886   -3703.2941 
 9370000    256.78603   -4672.4439   -4177.2105   -4672.4439            0    4685.8403    20.164052    19.955433    20.777206    8360.3816    3373.8489    7124.0481     3559.624   -331.27449   -20.200823   -1256.3022   -3605.8773 
 9371000    234.49933   -4677.0077   -4224.7561   -4677.0077            0     3583.244    19.983579    19.890842      20.9923    8344.2338    5163.1157    2239.5581    3347.0581    323.13614   -771.06131   -238.55448   -3788.7036 
 9372000    265.38216   -4667.7308    -4155.919   -4667.7308            0    4785.7227    20.098646    19.855806    20.967711    8367.6852    3122.5207    6858.3874      4376.26   -137.59601   -1092.7643   -39.726857   -3571.8976 
 9373000     264.1419   -4700.9745   -4191.5546   -4700.9745            0    3061.2487    20.114239    20.111807    20.891907    8451.4807      4324.06    2616.3237    2243.3622    66.804213    944.92836    753.48838   -3814.2368 
 9374000    261.51864    -4687.582   -4183.2213    -4687.582            0    4409.9984    20.212704    20.079915    20.764026    8427.4822     6177.011    3351.2325    3701.7517   -243.39182    80.793939   -449.04955   -3641.2052 
 9375000    260.43662   -4656.8474   -4154.5734   -4656.8474            0    3446.6133    20.229929    19.838559    20.972626    8416.9995    3842.1246    4961.9887    1535.7264    178.41756    673.05758    -340.8723   -3731.4903 
 9376000    253.17308   -4710.6585    -4222.393   -4710.6585            0    2474.4804    19.958041     20.16366    20.938423      8426.19    3044.2031    2352.5183    2026.7198   -27.424483     805.8151   -759.34571   -3918.3107 
 9377000    275.59819   -4724.8538   -4193.3395   -4724.8538            0    3722.8835    20.082571    20.179474    20.631896    8361.1938    3493.6572    3523.2856    4151.7077    584.38118    1397.3161   -761.53967   -3739.3732 
 9378000    259.07879   -4697.0221   -4197.3668   -4697.0221            0    4173.9641    20.120787    20.230642    20.412134    8308.8907    5392.9496    2262.4893    4866.4533    -1291.096      15.6858   -1530.7376   -3691.5798 
 9379000    272.90296   -4668.2775   -4141.9612   -4668.2775            0    4310.6225    20.161052     19.96611    20.719187    8340.2556    3802.0497    3140.9316    5988.8862    668.24045   -728.68272   -971.38893   -3617.6426 
 9380000    242.90495    -4700.013   -4231.5503    -4700.013            0    2976.1416    19.923515    19.964258    21.018447    8360.2595    3652.0875     3615.976    1660.3612   -83.498894    97.236512   -321.30292   -3868.6819 
 9381000    252.29529    -4711.591   -4225.0183    -4711.591            0    2978.0481    20.063722    20.005412     20.85813    8372.0993    2972.4122    3691.4005    2270.3316   -70.097703    710.33943    270.02808   -3861.4032 
 9382000    275.45784   -4691.5044   -4160.2608   -4691.5044            0    2562.9824    20.275442     20.14152    20.710528    8457.7283   -69.114083    4366.2719    3391.7894   -558.06943   -158.30832   -597.56786   -3844.1238 
 9383000    269.99227    -4677.193   -4156.4902    -4677.193            0    4417.7838    19.907137    20.031624    21.004867    8376.1586    5507.5704     4427.914    3317.8671    555.21415    335.45815   -532.44718   -3616.8239 
 9384000    251.25752   -4687.8952    -4203.324   -4687.8952            0    4579.9771    20.047159    19.985996    20.830873    8346.1481    5111.8565    4852.7621    3775.3126   -56.747896   -151.98395   -1138.3374   -3645.8491 
 9385000    273.91722    -4727.402   -4199.1296    -4727.402            0    4153.5979    20.232956    19.992792    20.648064    8352.4164    2285.4597    5148.5069    5026.8272   -778.70259   -277.36506    709.25728   -3693.1739 
 9386000    280.71603   -4718.2787   -4176.8943   -4718.2787            0    5651.2069    20.132547    20.036388     20.59301     8306.881    4510.1479    7314.1525    5129.3204    53.667512    919.94083   -704.36623   -3492.2656 
 9387000    259.34992   -4697.7169   -4197.5388   -4697.7169            0    4501.1718    20.099022    20.058882    20.695392    8343.6353    5355.4453    3738.9149    4409.1553   -889.72769    565.72397    47.265038    -3649.821 
 9388000    258.71804   -4707.8961   -4208.9366   -4707.8961            0    3864.0765    20.090828    19.946003    20.955089    8397.3686    2422.1569    5451.3834    3718.6892    413.73982    1170.5121    299.39497   -3735.7147 
 9389000    239.02245   -4704.5386   -4243.5637   -4704.5386            0    2686.7541    20.095452      20.2349    20.744921    8435.4963    4430.2317    1258.1086    2371.9219    136.70843    1461.1088   -1102.0359    -3913.031 
 9390000    281.48847   -4715.0268   -4172.1526   -4715.0268            0    4586.1502    20.307342    19.889083    20.603994    8321.8382    3897.5509    4209.6247    5651.2751   -887.24055    1011.8604   -456.95022   -3615.5523 
 9391000    260.87466   -4706.0585   -4202.9398   -4706.0585            0    2443.7674    20.239531    20.030575    20.795983     8430.888    2482.7619    1993.9344    2854.6058   -102.01114   -183.03504   -1369.9973   -3902.4643 
 9392000    251.39582   -4674.7006   -4189.8626   -4674.7006            0    3706.5761    19.991006    20.146833    20.704597    8338.8895    3542.4013    3561.1027    4016.2244   -673.01017    341.83179   -644.03245   -3739.0905 
 9393000     255.1942   -4691.6909   -4199.5274   -4691.6909            0    3948.3343    20.094252    19.972879    20.816341    8354.4321    2865.6984    4204.5673    4774.7371     118.6095   -1177.7979   -223.47119   -3718.4592 
 9394000    260.08939   -4691.6761   -4190.0718   -4691.6761            0    2761.2458    19.969513    20.087098    21.075417    8453.9728    2803.4402    3287.6927    2192.6043     -25.0307    1254.6039    -204.2805   -3849.6309 
 9395000    267.20478   -4709.4824   -4194.1555   -4709.4824            0    4697.8724    20.127351    20.083493    20.662448    8352.3299    5399.0639    3517.3156    5177.2376    601.50666   -831.68313    193.87926   -3621.9069 
 9396000    261.09583   -4701.4922   -4197.9469   -4701.4922            0    4852.2069    20.094489     19.99882    20.552387    8259.3072    5507.1416    3414.1156    5635.3635    392.30863    143.21148    471.71597   -3613.4815 
 9397000    256.65494   -4711.5967   -4216.6161   -4711.5967            0    1936.2982    20.108158    19.983923    20.887111    8393.2739    365.92812    3365.9811    2076.9854   -114.56794   -433.55957    448.38641   -3979.5991 
 9398000    250.87532   -4682.3112    -4198.477   -4682.3112            0    4898.2682    20.148164    19.810261    20.854917    8324.0396    3151.2568    6433.8055    5109.7423   -547.22004    -349.9742    -947.0741   -3603.8391 
 9399000    265.42626   -4672.6656   -4160.7687   -4672.6656            0    3338.1287    20.005401    20.183245    20.832191    8411.4956    1579.8562    6647.8122    1786.7176   -191.79997   -95.471718   -1101.8751   -3751.2704 
 9400000    255.24929   -4680.9635   -4188.6938   -4680.9635            0    6172.4302    20.134798    20.083663    20.569225    8317.7932     5355.124    6775.6171    6386.5496     396.4024   -993.63317    -730.3707    -3439.938 
 9401000    272.36029   -4665.6452   -4140.3755   -4665.6452            0    3092.2447    20.307662    20.219758    20.536423    8432.5842    1513.2125    4118.3855     3645.136   -113.37132    96.969455    1496.0062   -3760.0894 
 9402000    258.63625   -4661.5565   -4162.7548   -4661.5565            0    3506.2962    20.105078     20.11507     20.83364    8425.4377    3281.8473    2469.3826    4767.6588   -429.57479    72.105249    1117.8263   -3731.9138 
 9403000    264.12184   -4698.7301   -4189.3489   -4698.7301            0     4171.142    20.004983    20.025309    20.952411    8393.6608    3617.0877    5324.8935    3571.4448    243.07775    -235.7709   -433.71741   -3678.7472 
 9404000    266.30335   -4693.2618   -4179.6734   -4693.2618            0    3320.1132    20.190427    20.023018    20.680107    8360.4145    2862.7854    4254.1551     2843.399   -363.63708    139.05702   -2326.2475   -3774.8585 
 9405000    257.73853   -4687.6654    -4190.595   -4687.6654            0    4595.5807    20.096864    20.180422    20.524028      8323.79    3818.3528     4757.818    5210.5711   -541.47073    263.95348   -670.44342   -3632.7193 
 9406000    252.49611    -4702.237    -4215.277    -4702.237            0    3351.5114    20.189994    19.948998    21.008217    8461.4827    2065.8787    4419.1919    3569.4636   -88.241523   -25.617262   -737.63845   -3801.6937 
 9407000    260.58854   -4693.4825   -4190.9156   -4693.4825            0    3399.9043    20.186637    20.093309    20.793393    8434.1401    4347.0503    2955.7399    2896.9228    408.93816    1051.3664   -434.08298   -3772.7162 
 9408000    257.39127   -4717.8624   -4221.4617   -4717.8624            0    4690.6265    20.179422    20.118408    20.514359     8328.375    3828.8367    4672.4308    5570.6119    -537.8241    608.56119    1786.8664   -3651.7344 
 9409000    261.04079   -4710.9785   -4207.5394   -4710.9785            0     4796.126    19.991766    20.079236    20.757596    8332.5013    6585.6757    2861.7828    4940.9194   -157.03061    926.90874    345.47258   -3624.7094 
 9410000    270.77594   -4700.2199   -4178.0057   -4700.2199            0    5346.0908     20.06898    19.998424    20.628577     8279.238    4466.4545    6052.6547    5519.1632    890.56712    619.96789   -1205.9748   -3532.4963 
 9411000    263.24004   -4721.1047   -4213.4241   -4721.1047            0    4940.2579    20.074011    19.951116    20.805019    8332.3875     5063.348    4577.5162    5179.9094    115.16411    1744.4284    -464.9025   -3613.0873 
 9412000    261.00475   -4682.6697   -4179.3001   -4682.6697            0    3723.0637    19.784366    20.040845    21.051979    8347.0131    5566.5219    4265.2293    1337.4398   -203.16302   -749.60503   -633.80694   -3726.0818 
 9413000    261.94918   -4678.8499   -4173.6589   -4678.8499            0    4895.8437    20.205546    20.020107    20.609131    8336.7479     3449.345    5375.5287    5862.6574    702.55536    929.65712   -552.71228   -3578.4079 
 9414000    272.21513    -4723.384   -4198.3942    -4723.384            0    3867.9836    20.064528    20.122227    20.672748     8346.477     4260.973    3185.4908     4157.487    360.08685    1305.5179   -173.66464   -3727.5647 
 9415000     263.8518   -4702.6855   -4193.8251   -4702.6855            0    2866.6591    20.080559    19.943099    20.978606    8401.2725    2653.0655    3939.5207    2007.3911   -386.85599   -381.07918    439.82561   -3842.5908 
 9416000    250.16148   -4651.6264    -4169.169   -4651.6264            0    3638.5983     20.03995    19.981712    20.915003    8375.0468    4075.3673    3037.5365    3802.8911    59.589345    819.89996    -2346.734   -3724.7452 
 9417000    261.97727   -4690.9675   -4185.7223   -4690.9675            0    4478.6615    20.184574    19.971954    20.664022    8330.1915    4989.5937    3744.9976    4701.3933   -353.27946   -641.31142    960.39033   -3641.6218 
 9418000    271.86011   -4669.2207   -4144.9156   -4669.2207            0    5634.6054     20.06404    20.081343    20.654652    8322.0254    6710.8793    4751.8912    5441.0457   -57.520446    214.40371   -140.60904   -3461.0537 
 9419000    287.21756   -4702.1355   -4148.2123   -4702.1355            0    3963.7406    20.281883    19.843352    20.862072    8396.1605     1574.896    5460.3148     4856.011   -672.70092   -243.89733    1209.8374   -3662.8546 
 9420000    263.04798   -4679.6325   -4172.3224   -4679.6325            0    5095.9926     19.94874    19.888793    21.003271    8333.1815    6056.0901     4750.809    4481.0788   -686.75605    210.16319    441.26465   -3553.0018 
 9421000    274.14488   -4696.8967   -4168.1853   -4696.8967            0    3768.3982    19.933842    20.044838    20.939701    8366.8896    5480.2024    3116.4574    2708.5349    199.86168   -1132.9194   -202.85257   -3708.3559 
 9422000    257.09218   -4697.5755   -4201.7516   -4697.5755            0    2950.0851    20.240254    20.114206    20.595304    8384.6908    5344.5341    45.581581    3460.1397    25.853298   -202.18125    1299.2222    -3841.009 
 9423000    266.58406   -4734.8016   -4220.6719   -4734.8016            0     2839.959    20.254915    20.156072    20.594771    8408.0115    2560.4013    1936.6414    4022.8344   -768.46929   -240.34474     178.4138   -3872.4298 
 9424000    260.62952   -4682.8547   -4180.2087   -4682.8547            0    4751.1286    19.994185    20.122685    20.738867     8344.007     4711.076    4718.8465    4823.4633    518.95598   -722.40426   -1287.8012   -3602.0496 
 9425000    268.72273   -4720.8837   -4202.6294   -4720.8837            0    3487.4781    20.079384    20.049094     20.94218     8430.766    2842.9335    4614.9726    3004.5281    134.38313    1210.7462   -201.66636   -3773.8297 
 9426000    252.62471   -4703.6585   -4216.4505   -4703.6585            0    5187.1547     20.01354    20.132959    20.708391    8344.0689    6142.4207    3560.2988    5858.7446     358.1039    893.96975    123.87938   -3585.2273 
 9427000    261.86122   -4691.7129   -4186.6915   -4691.7129            0    2855.3369    20.319435    20.037874    20.605026    8389.5074    1642.8678    3372.2036    3550.9392     -510.033    222.94603    843.20734   -3837.3343 
 9428000     258.7823   -4682.8342   -4183.7508   -4682.8342            0    4172.2851    19.878719    20.146637    20.834128    8343.8461     5085.515    3787.3918    3643.9484    -268.4965   -535.85699    172.03023   -3676.0403 
 9429000    253.74833    -4640.776    -4151.401    -4640.776            0    3024.1271    20.189993    19.869618    20.961175    8408.9411    3355.2849    2897.3928    2819.7036    573.41666    1328.3944    583.07256   -3780.5348 
 9430000    264.22912   -4686.2659   -4176.6779   -4686.2659            0    3747.3781     20.05687     20.10423    20.975558    8457.9307    4151.5365    3536.6384    3553.9593    174.73788   -479.72221    358.75066   -3714.4379 
 9431000    252.96907   -4681.3839   -4193.5118   -4681.3839            0    5363.9553    20.254628    20.043828    20.652798    8384.6288    5739.7129    4581.7623    5770.3908    296.70219    276.18415   -308.10106   -3537.6008 
 9432000     268.5473   -4712.6101    -4194.694   -4712.6101            0    3883.1092    20.073022    20.276548    20.502289    8344.6696    4503.0354    1562.0533    5584.2389   -297.79577   -708.43426    640.17095   -3722.1256 
 9433000    261.36764   -4726.3228   -4222.2533   -4726.3228            0    3222.4832    20.072773    19.889508    20.879763     8335.986    3002.5831         4063    2601.8665   -560.15919   -1013.5153    1512.2556   -3830.4902 
 9434000    253.78716   -4708.7914   -4219.3415   -4708.7914            0    4676.5745    19.951775    19.911775     21.12996    8394.4104     5625.889    5000.3249    3403.5096    323.79599   -645.93046     1540.815   -3646.8172 
 9435000    272.04622   -4689.8575   -4165.1935   -4689.8575            0    4569.2568    20.072363    20.132028    20.810577    8409.4995    5223.1957    3726.7193    4757.8554    838.97349    207.02875   -100.58557   -3604.8019 
 9436000    271.07772    -4671.652   -4148.8558    -4671.652            0    5709.8604    20.329753    19.915645    20.479671    8291.8119    5808.8604    5172.1186    6148.6021    440.25757   -315.95796   -508.76573   -3458.3762 
 9437000    247.89908   -4680.3597   -4202.2655   -4680.3597            0    2554.8022    19.980262    20.235538    20.929803    8462.1572    3480.8318    579.28949    3604.2852   -717.66113   -689.30173    85.504351   -3886.9725 
 9438000     262.5516    -4677.008   -4170.6552    -4677.008            0    3993.9944    19.906797    20.120966     20.99044    8407.5945    4930.6456    3530.2239    3521.1136    104.29806   -351.77092    1667.1088    -3680.927 
 9439000    256.25292   -4715.8556   -4221.6503   -4715.8556            0    2945.1533    20.209438    20.111242    20.645959    8391.2797    1882.4025    3342.0411    3611.0163   -110.96543    266.32049   -52.091776   -3861.2277 
 9440000    272.95698   -4675.7396   -4149.3191   -4675.7396            0    5376.2242     20.09323    20.104684    20.599765    8321.6465    5080.0029     4721.593    6327.0769   -315.34853   -948.07085    213.45512   -3496.8462 
 9441000    262.61773   -4689.9515   -4183.4711   -4689.9515            0    3722.3795    19.959812    19.960558    21.098389    8405.7879    3073.7327     6100.803    1992.6027   -702.98447   -671.86924     1543.071   -3727.1453 
 9442000    261.18961   -4680.9582   -4177.2321   -4680.9582            0    4655.6936    19.984646    20.016014    20.874964    8350.2564    5400.3292    4313.7232    4253.0284    556.20634    769.49943   -1825.9786   -3610.2621 
 9443000     259.8007    -4683.624   -4182.5765    -4683.624            0    4176.0777    20.201029    20.151427    20.594784    8383.7156    3200.9484    4623.7095    4703.5752   -354.20594   -76.607325   -1464.9251   -3671.9762 
 9444000    263.87646   -4678.6194   -4169.7115   -4678.6194            0    3636.3981    19.967767    20.286917    20.707849    8388.4273    3508.5633      3651.86    3748.7711   -309.66776    1318.9346   -137.42747   -3724.8469 
 9445000    270.64601   -4708.4508   -4186.4872   -4708.4508            0    5125.2064    20.130073    19.758519    20.845608    8291.1412    3630.8847    7075.1307    4669.6037    14.392614    257.41338   -998.14939   -3566.7585 
 9446000    259.46905   -4698.1298   -4197.7219   -4698.1298            0    5072.5531    20.054011     19.99219    20.939275    8395.0494    5528.0007    3932.5406    5757.1179   -242.66128    1338.6795    813.43382   -3576.6731 
 9447000    248.22677   -4671.2685   -4192.5423   -4671.2685            0    4499.8589    20.165482    20.116577    20.702795     8398.306    3857.4072    5374.1888    4267.9807    435.86436    108.25727    656.24373   -3641.3965 
 9448000     268.2366   -4700.5661   -4183.2492   -4700.5661            0    4012.0326      20.3302    19.961574    20.591286     8356.413    2626.0577    5644.9564    3765.0838    -816.5272    564.98902    528.18473    -3694.304 
 9449000    249.26086   -4634.3663   -4153.6457   -4634.3663            0    7628.4303    19.884744    19.946634    20.896159    8288.1208    9146.9152    7176.9967    6561.3791    2.5075364   -903.91982   -332.31209   -3231.5688 
 9450000     261.4514   -4703.0152   -4198.7842   -4703.0152            0    5599.5452    20.054663    19.831003    20.973005    8341.0497    4759.5065    5283.0196    6756.1095   -101.14679   -182.75598    126.99759   -3517.6239 
 9451000     255.8421   -4696.3701   -4202.9571   -4696.3701            0    3172.7547    20.223924    20.175787    20.778411    8478.2892    2412.0193    2653.8016    4452.4434     283.3332      320.752    1172.2364    -3810.655 
 9452000     257.1923   -4679.1524   -4183.1354   -4679.1524            0     3921.682    20.050973    20.178759    20.720316    8383.5173    3319.6505    3768.9671    4676.4285   -252.93011    936.50903   -116.23139    -3703.651 
 9453000    268.81039   -4724.6577   -4206.2343   -4724.6577            0    5859.2029    20.068876    20.171976    20.541317    8315.7181    7747.7831    3350.8118    6479.0137   -577.77944    961.61659    1342.6476   -3495.6523 
 9454000    265.07173   -4719.7073   -4208.4942   -4719.7073            0    3727.4984     20.05951    20.026303    20.774564    8345.5125     3850.228    3927.1952    3405.0721    238.23293    1280.6683   -520.22468   -3754.8176 
 9455000    250.73622   -4704.9422   -4221.3764   -4704.9422            0    3993.8976    20.019059    19.845555    20.919295     8311.013    4559.0416    3766.5633    3656.0879    472.27881    182.90685    254.62732   -3737.2856 
 9456000    250.62758   -4705.6319   -4222.2755   -4705.6319            0    3864.3138    20.128166    20.115473    20.761779    8406.1861    4133.5488    3772.3819    3687.0106   -140.14795    415.44388    270.93711   -3748.5276 
 9457000    264.77745   -4701.2855   -4190.6399   -4701.2855            0    3816.5844    20.133007    20.180642    20.646015    8388.4141    3869.9979    2932.7039    4647.0514   -49.320129    -714.6236   -1285.2946   -3723.7327 
 9458000    268.30542   -4700.7683   -4183.3188   -4700.7683            0    5471.2018     20.15122    19.865893    20.779057    8318.3128    6372.7343    4426.5325    5614.3386   -385.24678    1479.7459   -467.22311   -3519.5851 
 9459000    260.77729   -4685.9755   -4183.0446   -4685.9755            0    4756.2465    20.139623     19.87651    20.777356    8317.2885    4023.6828    6215.0262    4030.0306    140.44126    1227.1996    -28.14979    -3606.116 
 9460000    272.13842   -4674.8357   -4149.9939   -4674.8357            0    4537.7636    20.176509    20.245059    20.486381    8368.1666    3690.6967      3277.89    6644.7041   -262.36289    1101.8193   -286.56624   -3596.2001 
 9461000    264.75173    -4704.219    -4193.623    -4704.219            0    4139.5043     20.25003    20.104352    20.588079      8381.69    5755.1542    1307.0775    5356.2813   -728.62749   -962.75645   -462.39403   -3687.6168 
 9462000    253.72146   -4676.9768   -4187.6536   -4676.9768            0     5050.825    19.939319    19.966737    20.920852    8329.0752    3893.1137    5768.3746    5490.9867    38.469396     284.5482   -632.87724   -3574.1248 
 9463000    274.74759   -4694.9168    -4165.043   -4694.9168            0    4743.1347    20.166219     19.99345    20.959091    8450.5439    5746.1387    4509.5351    3973.7302   -885.89339    499.90961    526.70257   -3580.4871 
 9464000    271.11932   -4692.7795   -4169.9031   -4692.7795            0    4864.0709    20.101735    20.128344    20.619636    8343.0065    5246.4572     4107.749    5238.0064     151.3407   -877.29293   -442.16295   -3578.0712 
 9465000    252.05782   -4727.9918   -4241.8771   -4727.9918            0    4162.0794    20.055495    20.101027    20.675425    8335.0088    3021.6423    4330.3568    5134.2391    17.880812   -703.17605    878.28899   -3735.9449 
 9466000    253.63354   -4693.1942   -4204.0406   -4693.1942            0    3316.8321    20.242322    19.882456     20.83736    8386.3515    3429.6531    3497.2116    3023.6317   -349.37136    618.33694    260.02111    -3798.371 
 9467000    259.31783   -4716.9045   -4216.7883   -4716.9045            0     4153.705     20.20126    19.923006    20.694886     8329.067    2983.1467    5093.0959    4384.8725    333.22292    554.07348   -272.92233    -3712.234 
 9468000    269.70336    -4698.044   -4177.8983    -4698.044            0     3948.551    20.103603    20.106801    21.010801    8492.9681    5319.5466    3226.8089    3299.2975    408.03583   -1063.0419    96.879199    -3688.826 
 9469000    270.88906   -4696.5817   -4174.1494   -4696.5817            0    4360.1032    20.103808    19.987111    20.948724    8417.5542    3884.1642    4932.5093     4263.636   -618.27727     758.8597   -1402.2877    -3638.897 
 9470000    259.56384   -4713.4345   -4212.8438   -4713.4345            0    5360.3255     20.00876    20.065335    20.776921    8341.5693     7815.403    3121.7753     5143.798      39.9746    269.81812   -60.167312   -3560.7428 
 9471000    274.43071   -4723.9445   -4194.6818   -4723.9445            0    5917.6288    20.200265    20.122325    20.404613     8293.992    5320.8117    6333.7099    6098.3649    1145.7301   -763.71932   -663.42528   -3478.8892 
 9472000    258.76119    -4708.078   -4209.0353    -4708.078            0    4031.7856     20.17026     20.05569     20.75239    8394.9325    2142.9373    5545.0134    4407.4061   -106.28022    127.62921   -203.34174   -3715.4178 
 9473000    258.85865   -4703.5757    -4204.345   -4703.5757            0    5567.1209    20.042039    20.016861    20.871908     8373.365    6364.9982    5918.3264    4418.0382     401.0961   -142.03783    183.60681   -3524.5052 
 9474000    262.49684   -4701.1659   -4194.9187   -4701.1659            0    4879.9083    19.818455    20.232833     20.84497     8358.489    6307.6921    3691.5855    4640.4474   -276.65476    282.21866    812.60674   -3600.0579 
 9475000    252.17405   -4695.8629    -4209.524   -4695.8629            0    4007.9347    20.148974    19.963352    20.619299    8293.9288    5703.2344    3928.8763    2391.6934   -139.71295     2028.447     287.4507   -3724.7305 
 9476000    269.34124   -4710.2789   -4190.8316   -4710.2789            0    5897.2237     19.95483    20.295515     20.49715    8301.2139      6661.66    3924.4403    7105.5708   -392.65236    1298.3435   -298.15834   -3476.8861 
 9477000    280.85905   -4673.3881   -4131.7278   -4673.3881            0    5225.6183    20.032513    20.186787    20.639879    8346.6035    5132.0809    4709.7476    5835.0263    535.49355    -128.8931    296.22036   -3495.6308 
 9478000    271.69285   -4681.2863   -4157.3038   -4681.2863            0    4814.8158    20.150229    19.959028    20.652688     8306.077    3855.2135    5713.1519     4876.082   -642.12591   -155.76271     1143.179   -3574.0582 
 9479000    283.03036   -4722.3842   -4176.5364   -4722.3842            0    2704.5787    20.303574    20.066024    20.804454    8475.9842     1227.842    3632.7799    3253.1142   -364.06122   -83.212973    76.556032   -3842.2138 
 9480000    273.74116   -4684.7719    -4156.839   -4684.7719            0    4737.1463     20.15001    20.005095     20.85105    8405.1183    3830.2604    6409.6465    3971.5321   -242.61379   -585.02874   -283.79258   -3576.1595 
 9481000    276.68058   -4698.4418     -4164.84   -4698.4418            0    5125.3223    20.118201    20.003572    20.740594     8346.759    6277.7364    3632.2823    5465.9483    891.57185    478.77059     1398.875   -3540.9401 
 9482000    271.04543   -4703.2652   -4180.5313   -4703.2652            0    2547.1927    19.888708    20.230095    20.897121    8407.9662    4332.8772     1680.621      1628.08    171.71903    1708.7122   -444.43417   -3868.1906 
 9483000    273.31459   -4734.2996   -4207.1894   -4734.2996            0    2894.0246    20.113242    20.351251    20.582665     8425.095    3457.4616     1682.166    3542.4461   -513.23184   -439.95357     553.1214   -3851.5966 
 9484000    275.46147   -4700.7929   -4169.5423   -4700.7929            0     4233.102    20.178764    19.868357    20.702358    8299.9666    3958.1729    4897.9699    3843.1632    425.95752    580.88703   -367.52498   -3657.1401 
 9485000    260.07789   -4713.0304   -4211.4483   -4713.0304            0    3569.8496    19.950477    20.001031    21.046763    8398.2922    2900.0031    5359.7295    2449.8161    102.47439    441.91617    -503.3095   -3774.2114 
 9486000    244.64574    -4682.715   -4210.8951    -4682.715            0    5297.8921    20.154385    19.930709    20.801215    8355.6647    4785.7135     5564.208    5543.7547   -186.52415   -1238.5748    176.20179   -3565.3004 
 9487000    266.47784   -4697.6079    -4183.683   -4697.6079            0    5888.7352     20.08798    19.957999    20.692818    8296.0794    5150.8855    5786.3389    6728.9813    126.17948    484.93386    1115.0627   -3471.2061 
 9488000     264.0671   -4687.4643   -4178.1887   -4687.4643            0    5356.4189    20.296687    20.023317    20.441046    8307.3841    3773.7841    5108.5503    7186.9223    634.27138   -250.11841    1282.3534   -3529.2335 
 9489000    262.52459   -4700.3572   -4194.0564   -4700.3572            0     4131.821    19.999475     19.96413    20.856101    8327.2597    4050.8704    4077.9231    4266.6695   -759.32117    1001.9299    1126.0625   -3692.2693 
 9490000    275.88755   -4702.7581   -4170.6857   -4702.7581            0    4554.4677    20.192088    19.926157    20.657898    8311.7202    2638.2192    6206.0557    4819.1282    -255.1385   -94.325468    112.57768   -3618.6027 
 9491000    255.65386   -4700.1413   -4207.0913   -4700.1413            0    3929.1682    20.087303    20.157174    20.600742    8341.3074    3405.3828    3558.9584    4823.1634    113.30168   -1392.4958    -1067.656   -3729.1103 
 9492000    255.99922   -4677.9203   -4184.2043   -4677.9203            0    5307.8603    19.938028    19.895969    21.142778     8387.052    5724.6161    4707.9711    5490.9936   -895.12557    -703.4743    1802.6087   -3534.9651 
 9493000    265.31647   -4679.2718   -4167.5867   -4679.2718            0    5268.3705    20.132281    19.943046    20.818073    8358.4357    4754.0617    6207.4146    4843.6353   -535.19506    702.15778   -297.13713   -3525.3765 
 9494000     274.6055    -4699.799   -4170.1992    -4699.799            0    5071.1882    20.012636    20.204428    20.647229    8348.5804    6307.1411    4027.6692    4878.7544    1159.2572   -408.26603     65.21749   -3552.7542 
 9495000    276.91535     -4670.96   -4136.9055     -4670.96            0    4031.4011    20.259204    20.124201    20.596528    8397.2104     3078.443    4292.8731    4722.8871    170.65279   -297.94807    407.25839   -3643.2012 
 9496000    271.46063   -4687.2982   -4163.7635   -4687.2982            0    4861.5643    20.134553     19.99446    20.728374    8344.8188    3875.1494    6123.5008    4586.0428   -19.346827    1234.2538   -1263.9576   -3572.1081 
 9497000    265.52021   -4712.1885   -4200.1105   -4712.1885            0    4314.1284    19.984729    20.049995     20.86247    8359.4607    4896.8561    4516.0093    3529.5198   -165.96905   -1500.8018   -1382.0575   -3674.1571 
 9498000    278.22684   -4702.4298    -4165.846   -4702.4298            0    3704.8223    19.998172    19.998668    20.963239    8383.9705    3129.4042    3084.5704    4900.4922   -453.20827   -201.37689    211.34641   -3712.8514 
 9499000    260.61174   -4713.9267   -4211.3151   -4713.9267            0    2125.1235    20.160795    20.143154    20.813506    8452.4067    3470.0359    574.14171     2331.193   -89.794573   -276.74368    -564.5914   -3949.3518 
 9500000    272.22616   -4663.7445   -4138.7335   -4663.7445            0    6278.5745    20.132906    20.035626    20.573352    8298.7833    6389.6337    5714.4514    6731.6386   -325.25183    1365.4348   -209.22049   -3378.8423 
Loop time of 383.566 on 64 procs for 250000 steps with 972 atoms

Performance: 112.627 ns/day, 0.213 hours/ns, 651.778 timesteps/s
192.9% CPU use with 32 MPI tasks x 2 OpenMP threads

MPI task timing breakdown:
Section |  min time  |  avg time  |  max time  |%varavg| %total
---------------------------------------------------------------
Pair    | 25.472     | 34.77      | 46.909     |  81.8 |  9.07
Bond    | 0.8582     | 1.1531     | 2.1107     |  20.4 |  0.30
Kspace  | 164.81     | 176.76     | 187.54     |  45.2 | 46.08
Neigh   | 2.1739     | 2.5825     | 3.0594     |  18.4 |  0.67
Comm    | 68.818     | 76.087     | 83.629     |  51.0 | 19.84
Output  | 0.5167     | 0.51702    | 0.51895    |   0.1 |  0.13
Modify  | 72.859     | 76.392     | 79.696     |  19.6 | 19.92
Other   |            | 15.31      |            |       |  3.99

Nlocal:        30.3750 ave          36 max          24 min
Histogram: 1 2 1 6 4 4 6 4 1 3
Nghost:        2595.50 ave        2618 max        2575 min
Histogram: 2 2 5 4 4 5 4 5 0 1
Neighs:        9486.44 ave       12053 max        7179 min
Histogram: 1 3 4 3 5 7 6 0 2 1

Total # of neighbors = 303566
Ave neighs/atom = 312.31070
Ave special neighs/atom = 2.0000000
Neighbor list builds = 8246
Dangerous builds = 0

unfix		3
unfix		2
unfix		1

write_data	data.final.${pid}
write_data	data.final.0
System init for write_data ...
PPPM initialization ...
  extracting TIP4P info from pair style
  using 12-bit tables for long-range coulomb (../kspace.cpp:340)
  G vector (1/distance) = 0.37131259
  grid = 24 24 24
  stencil order = 5
  estimated absolute RMS force accuracy = 0.0036184036
  estimated relative force accuracy = 1.0896715e-05
  using double precision FFTW3
  3d grid and FFT values/proc = 3211 432
Last active /omp style is kspace_style pppm/tip4p/omp
WARNING: Not all mixed pair coeffs generated from mixing. Use write_data with 'pair ij' option to store all pair coeffs. (../write_data.cpp:312)

write_restart   restart.lmp.${pid}
write_restart   restart.lmp.0
System init for write_restart ...
PPPM initialization ...
  extracting TIP4P info from pair style
  using 12-bit tables for long-range coulomb (../kspace.cpp:340)
  G vector (1/distance) = 0.37131259
  grid = 24 24 24
  stencil order = 5
  estimated absolute RMS force accuracy = 0.0036184036
  estimated relative force accuracy = 1.0896715e-05
  using double precision FFTW3
  3d grid and FFT values/proc = 3211 432
Last active /omp style is kspace_style pppm/tip4p/omp
Total wall time: 0:06:23
