LAMMPS (30 Jul 2021)
Processor partition = 0
  using 4 OpenMP thread(s) per MPI task
using multi-threaded neighbor list subroutines
variable        pid world 0 1
variable        phase world IceIh Liquid

shell cd ${phase}
shell cd IceIh
include Restart.lmp
echo both
log log.lammps
#include		in.partitions
include		in.temp
variable        temperature equal 271.63
variable	tempDamp equal 100.0
include		in.pressure
variable        pressure equal -250.0
variable        pressureDamp equal 1000.0 # This is 1 ps
include		in.seed
variable        seed equal 745823

units		real
atom_style	full
#include		in.box
read_restart	restart.lmp.${pid}
read_restart	restart.lmp.0
Reading restart file ...
  restart file = 30 Jul 2021, LAMMPS = 30 Jul 2021
  restoring atom style full from restart
  orthogonal box = (-0.076084680 0.11583058 0.089316802) to (18.283657 23.513347 22.123879)
  2 by 4 by 2 MPI processor grid
  restoring pair style lj/cut/tip4p/long/omp from restart
  restoring bond style harmonic/omp from restart
  restoring angle style harmonic/omp from restart
  864 atoms
  576 bonds
  288 angles
Finding 1-2 1-3 1-4 neighbors ...
  special bond factors lj:    0        0        0       
  special bond factors coul:  0        0        0       
     2 = max # of 1-2 neighbors
     1 = max # of 1-3 neighbors
     1 = max # of 1-4 neighbors
     2 = max # of special neighbors
  special bonds CPU = 0.001 seconds
  read_restart CPU = 0.005 seconds
include 	in.setup
variable	out_freq equal 1000
variable	out_freq2 equal 10000
variable	out_freq3 equal 1000

timestep	2.0

neigh_modify    delay 7 every 1

include		in.tip4p
# This is TIP4P/Ice

# create groups ###
group ox type 2
288 atoms in group ox
group hy type 1
576 atoms in group hy

# set charges - beside manually ###
set group ox charge -1.1794
Setting atom values ...
  288 settings made for charge
set group hy charge 0.5897
Setting atom values ...
  576 settings made for charge

# ### TIP3P Potential Parameters ###
pair_style lj/cut/tip4p/long/omp 2 1 1 1 0.1577 8.5
pair_coeff 1 1*2 0.000 0.000
pair_coeff 2 2 0.21084 3.1668
bond_style  harmonic
bond_coeff  1 450 0.9572
angle_style harmonic
angle_coeff 1 55 104.52
kspace_style pppm/tip4p/omp 1.0e-5
pair_modify tail yes

thermo          ${out_freq}
thermo          1000
thermo_style    custom step temp pe etotal epair emol press lx ly lz vol pxx pyy pzz pxy pxz pyz enthalpy

restart 	${out_freq3} restart.lmp.${pid} restart2.lmp.${pid}
restart 	1000 restart.lmp.${pid} restart2.lmp.${pid}
restart 	1000 restart.lmp.0 restart2.lmp.${pid}
restart 	1000 restart.lmp.0 restart2.lmp.0


include         in.dump
dump            myDump all atom ${out_freq2} dump.water.${pid}
dump            myDump all atom 10000 dump.water.${pid}
dump            myDump all atom 10000 dump.water.0
dump            myDump2 all dcd ${out_freq2} dump.dcd
dump            myDump2 all dcd 10000 dump.dcd
dump_modify     myDump append yes
dump_modify     myDump2 append yes


variable natoms 	equal  "count(all)"                        # NUMBER ATOMS
variable H      	equal  "enthalpy/v_natoms"                 # ENTHALPY-per-atom
variable Vol      	equal  "vol/v_natoms"                 # volume-per-atom
fix AVG all 		ave/time ${out_freq} 1 ${out_freq} v_Vol v_H file vol_enthalpy.dat
fix AVG all 		ave/time 1000 1 ${out_freq} v_Vol v_H file vol_enthalpy.dat
fix AVG all 		ave/time 1000 1 1000 v_Vol v_H file vol_enthalpy.dat


timer           timeout 23:50:00 every 1000
New timer settings: style=normal  mode=nosync  timeout=23:50:00

fix 		1 all shake 1e-6 200 0 b 1 a 1
Finding SHAKE clusters ...
       0 = # of size 2 clusters
       0 = # of size 3 clusters
       0 = # of size 4 clusters
     288 = # of frozen angles
  find clusters CPU = 0.000 seconds
fix             2 all nph aniso ${pressure} ${pressure} ${pressureDamp}
fix             2 all nph aniso -250 ${pressure} ${pressureDamp}
fix             2 all nph aniso -250 -250 ${pressureDamp}
fix             2 all nph aniso -250 -250 1000
fix             3 all temp/csvr ${temperature} ${temperature} ${tempDamp} ${seed}
fix             3 all temp/csvr 271.63 ${temperature} ${tempDamp} ${seed}
fix             3 all temp/csvr 271.63 271.63 ${tempDamp} ${seed}
fix             3 all temp/csvr 271.63 271.63 100 ${seed}
fix             3 all temp/csvr 271.63 271.63 100 745823


run             250000
PPPM initialization ...
  extracting TIP4P info from pair style
  using 12-bit tables for long-range coulomb (../kspace.cpp:340)
  G vector (1/distance) = 0.37135418
  grid = 24 27 25
  stencil order = 5
  estimated absolute RMS force accuracy = 0.0031858624
  estimated relative force accuracy = 9.5941301e-06
  using double precision FFTW3
  3d grid and FFT values/proc = 6300 1296
Last active /omp style is kspace_style pppm/tip4p/omp
Neighbor list info ...
  update every 1 steps, delay 7 steps, check yes
  max neighbors/atom: 2000, page size: 100000
  master list distance cutoff = 10.8154
  ghost atom cutoff = 10.8154
  binsize = 5.4077, bins = 4 5 5
  1 neighbor lists, perpetual/occasional/extra = 1 0 0
  (1) pair lj/cut/tip4p/long/omp, perpetual
      attributes: half, newton on, omp
      pair build: half/bin/newton/omp
      stencil: half/bin/3d
      bin: standard
Setting up Verlet run ...
  Unit style    : real
  Current step  : 1000000
  Time step     : 2
  Walltime left : 23:49:59.97
Per MPI rank memory allocation (min/avg/max) = 12.25 | 12.28 | 12.30 Mbytes
Step Temp PotEng TotEng E_pair E_mol Press Lx Ly Lz Volume Pxx Pyy Pzz Pxy Pxz Pyz Enthalpy 
 1000000    270.88954   -4162.4834    -3698.188   -4162.4834            0   -384.18847    18.359742    23.397517    22.034562     9465.439   -1533.1034   -1038.0427    1418.5807   -211.49283   -87.071723   -128.04396   -3751.2228 
 1001000    278.71286   -4206.7744   -3729.0701   -4206.7744            0   -573.43015    18.167057    23.505935    22.257443    9504.6774   -1161.7139      754.836   -1313.4126   -1235.0989   -87.610758   -401.09666   -3808.5567 
 1002000    273.73926   -4204.5988   -3735.4191   -4204.5988            0   -293.28466    18.066586    23.720939    22.107779    9474.4298    -122.8054   -1219.9741     462.9255   -619.23346    591.28557    580.40249   -3775.9436 
 1003000    272.95987    -4202.308   -3734.4642    -4202.308            0   -468.30045    17.882029    23.829237    22.328961    9514.7078   -154.68531   -456.30178   -793.91426   -907.60258    28.978881   -48.032949   -3799.4466 
 1004000     254.1686   -4216.7778   -3781.1415   -4216.7778            0   -732.52357    18.355263    23.437686    22.213457     9556.338   -978.19141     518.0916   -1737.4709     -227.311    233.64366    425.40271   -3883.2329 
 1005000    278.73866   -4189.8183   -3712.0697   -4189.8183            0   -338.87963    18.375705    23.482631    22.004878    9495.3227   -1270.8207    374.12285   -119.94107   -190.90529   -651.19432   -461.82642   -3758.9976 
 1006000    264.42155   -4170.6525    -3717.443   -4170.6525            0   -738.14858    18.030212    23.673004      22.4225    9570.5792   -919.12074   -211.20758   -1084.1174    -296.3627   -749.11131    131.92789   -3820.4716 
 1007000    273.02685   -4188.3858   -3720.4271   -4188.3858            0   -447.78104    18.082416    23.892041    22.070411    9534.9873   -1240.5926   -1468.9565     1366.206   -42.251966    -864.3133    171.09706   -3782.6947 
 1008000    284.11412   -4203.1621   -3716.2002   -4203.1621            0    399.45999    18.186766    23.628834    22.185096    9533.6477    1415.8143    249.75424   -467.18858    600.28607   -239.10633   -498.57319   -3660.6599 
 1009000    271.68889   -4160.3995    -3694.734   -4160.3995            0    412.12035    18.237427    23.374596     22.49693     9590.272   -230.49373    1570.4428   -103.58799   -1091.6605   -602.02593   -7.1715083   -3637.0931 
 1010000    278.81103   -4200.4745    -3722.602   -4200.4745            0    251.24149    18.390337    23.520791    22.021864    9525.6734   -1462.7887    1162.8287    1053.6845   -1681.9364    105.43407   -167.88954    -3687.699 
 1011000    270.84498   -4201.0186   -3736.7995   -4201.0186            0    601.10695    18.100122     23.42414     22.29009    9450.5476    1371.4851    1105.9428   -674.10711    17.327287   -204.78893    1033.6909    -3653.951 
 1012000    284.08985    -4168.719   -3681.7988    -4168.719            0   -344.43015    18.084624    23.668485    22.258475    9527.4211   -301.81789    761.00657   -1492.4791    675.19228    521.16798    490.11284   -3729.6565 
 1013000    286.05542   -4191.7568   -3701.4676   -4191.7568            0    -774.2053    18.161183    23.813791    22.121478    9567.2432   -575.37234   -1335.4736   -411.76996    465.53487    -362.1656    442.87198   -3809.4912 
 1014000    258.02681   -4196.1227   -3753.8736   -4196.1227            0   -917.24497    18.201989    23.415194    22.513434    9595.2953    179.06161   -465.57593   -2465.2206     425.9468   -591.48036    228.58857   -3882.2306 
 1015000    274.10663   -4197.7504    -3727.941   -4197.7504            0     287.5717    18.354369    23.554536    22.027001    9522.9039   -420.93076    153.01043    1130.6354    788.60322   -629.75875    8.0477234   -3688.0026 
 1016000    287.09302   -4213.6011   -3721.5335   -4213.6011            0   -201.71904    18.018233    23.675585    22.375467    9545.1998   -550.19858   -1139.1568    1084.1983   -630.37999   -143.91005   -112.12193   -3749.6142 
 1017000    265.55832     -4181.27   -3726.1121     -4181.27            0   -581.62601    18.124162    23.728473    22.271293    9577.9631   -209.45461   -1958.7875    423.36405    476.38384    7.2645577   -177.66187   -3807.3564 
 1018000    274.67092   -4235.2753   -3764.4988   -4235.2753            0    157.55268    18.352151    23.740184    21.932785    9555.7514   -333.65345   -904.82771    1711.1392   -1461.2908    426.56293    -320.3771   -3742.5421 
 1019000    271.99704   -4189.4184   -3723.2248   -4189.4184            0   -275.31405    18.164181     23.50696    22.418924    9572.5373   -469.05474    809.27941   -1166.1668   -160.23666    1069.6923    22.564725   -3761.6602 
 1020000    261.03359   -4199.2899   -3751.8873   -4199.2899            0   -603.81896    18.123873    23.811105    22.082679    9529.7678   -820.88825   -1621.5746    631.00598   -948.39671    386.03714   -113.18727   -3835.8072 
 1021000    279.53135   -4233.8923   -3754.7851   -4233.8923            0    426.88212    18.036533    23.688128     22.13572    9457.5241    1019.9775   -456.59997    717.26885   -342.36268    668.37022   -16.161993    -3695.906 
 1022000    261.64682   -4157.4442   -3708.9905   -4157.4442            0    -13.60854    18.234757    23.548091    22.226405    9543.8788    112.42705   -602.86008    449.60741   -120.41089   -1045.3372    1013.4715   -3710.8846 
 1023000     261.4532   -4205.8723   -3757.7505   -4205.8723            0   -1475.7271     18.51119    23.465111    22.223057    9652.9651   -2617.1076    -1064.472    -745.6016   -324.89336   -111.70241    772.54909   -3965.5012 
 1024000    272.11954   -4138.2834   -3671.8798   -4138.2834            0   -466.50577    18.290421    23.553152    22.320072    9615.4212   -656.75496    462.95318   -1205.7155    741.55115    397.01842    825.84913   -3737.2984 
 1025000    271.44258   -4180.2816   -3715.0383   -4180.2816            0    463.07592    17.966247    23.689044     22.30133    9491.5177    102.68561     1379.795   -93.252813     287.5777    873.87268   -246.19871   -3650.9375 
 1026000    278.34338   -4174.4746   -3697.4036   -4174.4746            0    -343.4347    18.127166    23.685447    22.192782    9528.4715      11.1394    360.25729   -1401.7008   -165.24971    166.66914    636.29119   -3745.1283 
 1027000     277.7698   -4179.6008   -3703.5129   -4179.6008            0   -1076.0174    18.210515     23.55474    22.384256    9601.5913   -72.998264   -2573.6128   -581.44127    332.59748    390.34432   -87.664347   -3854.1869 
 1028000    281.09632    -4224.328   -3742.5385    -4224.328            0   -751.72775    18.373936    23.547497     22.02781    9530.5561   -484.62496   -1149.4904   -621.06784   -1115.6846    708.62446    398.16642   -3847.0237 
 1029000     270.8615   -4231.8162   -3767.5688   -4231.8162            0    40.251365    18.240592    23.512952    22.228303    9533.5005    1155.4184   -177.83959   -856.82475    818.41043    -775.8484    265.53181   -3761.9724 
 1030000    280.70736   -4187.1921   -3706.0693   -4187.1921            0   -171.98219    17.991315    23.853912    22.196059    9525.7327    15.874172   -2361.7385    1829.9178   -1233.9468    185.71657    852.22327   -3729.9616 
 1031000    284.81559   -4184.5417   -3696.3775   -4184.5417            0    1082.7754    18.009228    23.766295    22.141272    9476.7439    220.20997    1179.0672    1849.0491   -149.13237   -217.29061   -176.30496   -3546.7286 
 1032000    269.97074   -4171.4673   -3708.7467   -4171.4673            0   -1071.1767    18.397666    23.485169    22.197348     9590.859   -2332.8983   -481.83857    -398.7932   -823.75123    188.34001    655.07037   -3858.5752 
 1033000    271.95339   -4189.5562   -3723.4374   -4189.5562            0   -1008.4683    18.386801    23.494519    22.203097    9591.4945   -1838.9275   -1749.8472    563.36972    443.44216   -126.19664   -262.96391   -3864.5041 
 1034000    279.79938   -4238.9162   -3759.3496   -4238.9162            0   -1111.4014    17.996373    23.724692    22.299285    9520.8674   -87.708089   -1758.7522   -1487.7437    905.48984    707.34449    179.28895     -3913.67 
 1035000    263.60559   -4223.9946   -3772.1836   -4223.9946            0   -290.76852     18.08095    23.757737    22.246198    9556.1312   -371.24584   -115.98065   -385.07909    637.06643   -268.99947    188.99332    -3812.707 
 1036000    268.59191    -4216.141   -3755.7836    -4216.141            0   -668.65793    18.361993    23.599275    22.087242    9571.0589   -1200.2014   -716.98388    -88.78853    137.77396    487.58023   -242.77484   -3849.1176 
 1037000    269.80846   -4189.8712   -3727.4287   -4189.8712            0     369.8417    18.447775     23.22768    22.283023    9548.2532   -12.567334    1115.4574    6.6350575    -1019.365    154.62171    338.58979   -3675.9277 
 1038000    271.48082   -4193.0571   -3727.7482   -4193.0571            0   -376.85322     18.23222    23.693745    22.146578    9567.0906   -429.35977    270.92372   -972.12361     146.2482   -194.42786   -277.56811   -3780.3291 
 1039000    271.43374   -4190.1559   -3724.9278   -4190.1559            0   -522.99026    17.901643    24.082026    22.205114    9572.7985   -372.32278   -1420.1214    223.47345    91.786361   -101.64722   -474.88597   -3797.9422 
 1040000    267.04741   -4201.0516   -3743.3415   -4201.0516            0    160.35762    18.045678    23.641196    22.359863    9539.1963    1281.1095   -490.11232   -309.92434    1210.7386    590.33517    511.84145   -3721.0326 
 1041000    264.86552   -4185.8109   -3731.8404   -4185.8109            0    599.00223    18.456035    23.476369    21.988509    9527.1964    -556.8183   -755.06353    3108.8885   -1524.6033   -148.13406    7.4108967   -3648.6124 
 1042000    264.67087   -4198.3493   -3744.7125   -4198.3493            0    -178.6695    18.242457    23.472094    22.250647    9527.4748   -698.40488    504.99815   -342.60175    -370.2079   -150.31112   -577.74575   -3769.5383 
 1043000    275.12942   -4188.3416   -3716.7792   -4188.3416            0    486.72896    18.205705    23.477672    22.207132    9491.9406    591.31468    45.538971    823.33323   -1122.0888    51.734424   -494.61657   -3649.4012 
 1044000    279.30241   -4210.8784   -3732.1637   -4210.8784            0    265.69133    18.055379    23.697326    22.203671    9500.1558    2745.9815   -1904.8825   -44.025041    254.44168    795.09405   -717.20725   -3695.3521 
 1045000    251.90921   -4214.8504   -3783.0866   -4214.8504            0   -785.39759    17.901908    23.820849     22.45301    9574.8314    53.381337   -404.42208    -2005.152   -152.38773    403.67187   -263.59575   -3892.7588 
 1046000    279.77289   -4196.8213   -3717.3001   -4196.8213            0   -60.756869    18.352606    23.566467    22.096012    9556.6596   -2082.3116    1221.3631    678.67786   -446.95537   -761.52228   -465.68616    -3725.768 
 1047000    262.77512   -4204.9413   -3754.5537   -4204.9413            0    968.02477     18.28429    23.176028    22.349331    9470.6901    1124.6633    1.8282385    1777.5828   -1019.5178   -217.72845    245.09802   -3620.8498 
 1048000    264.10195   -4179.5417     -3726.88   -4179.5417            0   -168.54357     18.22583     23.63213    22.284683    9598.3508   -848.59497   -436.50298    779.46725    885.25532   -273.92462   -117.14343   -3750.4731 
 1049000    266.67614   -4168.6968    -3711.623   -4168.6968            0    579.85696     17.87909    24.130898    22.091604    9531.1683    1034.6545   -161.61872    866.53512   -199.11235   -515.15019   -701.93361   -3631.0216 
 1050000    269.49575   -4214.4746   -3752.5681   -4214.4746            0   -834.05582    18.100578    23.555414    22.471373    9581.0428   -567.46449   -327.38095    -1607.322   -1350.3171   -114.70307   -516.63715   -3869.1104 
 1051000    265.16352   -4151.0254   -3696.5442   -4151.0254            0   -177.47944    18.411309    23.276965    22.264967     9541.861   -563.44591     1293.882   -1262.8744    32.704491   -165.95353    125.95502   -3721.2419 
 1052000     267.3952   -4196.4773    -3738.171   -4196.4773            0     196.6775    18.167053    23.455334    22.281175    9494.3272    639.95373    1019.4813   -1069.4025   -332.07309    192.02856   -996.90081   -3710.9381 
 1053000    274.44398   -4225.3189   -3754.9313   -4225.3189            0    718.80108    17.984577    23.923399    21.975571    9455.0385    1294.1846     332.2306    529.98803      389.225    304.65129   -201.70653   -3655.8144 
 1054000      281.094   -4186.5898   -3704.8043   -4186.5898            0   -1869.8017    18.252359    23.770326    22.330567     9688.441   -1334.5457   -2333.9138   -1940.9457   -351.66617    -393.6887   -244.73502   -3968.9998 
 1055000    271.59478   -4200.7717   -3735.2675   -4200.7717            0   -645.26517    18.244678    23.587504    22.261432    9580.1279     971.8534   -1911.5176    -996.1313   -913.59188    374.21725    231.31317   -3825.4216 
 1056000    281.20234   -4179.9896   -3698.0184   -4179.9896            0    782.27197    18.213341    23.461611    22.162758    9470.4638    1083.2461    2170.4652   -906.89531   -806.05294   -516.63636    105.59858   -3589.9733 
 1057000    278.40646   -4210.2442    -3733.065   -4210.2442            0    511.86104    18.087029    23.861222    22.174839    9570.1861    2252.0452    394.70695    -1111.169    1039.5354   -27.407401    671.91536   -3661.6239 
 1058000    260.68071   -4172.7479   -3725.9501   -4172.7479            0   -821.40524     18.16521    23.639039    22.343907    9594.6549   -569.02645   -340.30203   -1554.8872    565.57325   -878.21068   -90.871033   -3840.8878 
 1059000    271.65069   -4186.7833   -3721.1833   -4186.7833            0   -158.16679    18.479717    23.559795    22.013491    9584.1974   -154.27561   -769.33824    449.11348     677.9892   -345.74576     1273.591   -3743.2912 
 1060000    256.47414   -4204.7725   -3765.1846   -4204.7725            0   -1513.6344    18.297243    23.557277    22.389396    9650.5735   -2228.8153   -915.26203   -1396.8258   -621.29935   -850.00119   -355.73017   -3978.2192 
 1061000    265.44814   -4192.7884   -3737.8194   -4192.7884            0   -1216.9065    18.148443    23.637299    22.324112    9576.6017   -1592.0004   -1214.5511   -844.16809   -54.895852   -51.320315    304.77344   -3907.7785 
 1062000    281.00785   -4195.4661   -3713.8282   -4195.4661            0   -343.83471    18.379533    23.925511    21.884431    9623.4532   -843.79904   -1092.7227    905.01757    85.582169   -673.31851   -186.48146   -3762.0848 
 1063000    281.31611   -4176.4185   -3694.2523   -4176.4185            0   -364.18479    18.199491    23.481281    22.367906    9558.8658   -1245.6221    359.51139   -206.44361    172.63486   -235.74209    300.36064    -3745.022 
 1064000    281.36662   -4213.6621   -3731.4094   -4213.6621            0   -1535.5001    18.439765    23.471646    22.079405    9556.2238    -1739.638   -1849.9693   -1016.8931    269.16729    308.25601   -490.34527   -3945.4085 
 1065000    259.83124   -4214.8904   -3769.5486   -4214.8904            0   -373.24063    18.232457    23.654175    22.106067    9533.7658   -594.82001    303.70658   -828.60846    99.628931   -133.67833   -768.38599    -3821.444 
 1066000    281.72167   -4176.0644   -3693.2031   -4176.0644            0   -662.40915    17.986533    23.469508    22.635011    9555.0318   -718.13887    840.62476   -2109.7134    306.59223   -663.25882   -298.38726     -3785.51 
 1067000    264.18728   -4226.3235   -3773.5156   -4226.3235            0   -566.43407    18.151031    23.793747    22.109898     9548.846   -1058.2376   -669.01235    27.947776    168.48526    243.96322    295.78288   -3852.3972 
 1068000    274.67494   -4206.5382   -3735.7548   -4206.5382            0   -21.684691    18.103726    23.682111    22.233639    9532.3269    415.08673   -431.58637    -48.55444    802.46416   -226.48314     358.0933   -3738.7693 
 1069000    261.15183   -4226.7854   -3779.1801   -4226.7854            0   -569.51311    18.155505    23.424147    22.339647    9500.5432   -873.76972    -171.7206     -663.049    -411.2285    -108.2464    351.53201   -3858.0893 
 1070000    253.85976   -4167.1343   -3732.0274   -4167.1343            0   -1269.7593    18.412367    23.835688    21.866332    9596.5088   -2097.0679   -2337.6746    625.46473   -23.422541     523.1941    411.46935   -3909.7368 
 1071000    274.99967   -4207.0466   -3735.7066   -4207.0466            0   -400.62031    18.114133    23.631568    22.335294     9560.966   -220.43663   -1097.8355    116.41122    922.48379    811.42266    128.45565   -3791.5678 
 1072000    279.73925   -4140.6876   -3661.2241   -4140.6876            0    107.53635    18.060146    23.806342      22.3471     9608.047   -929.37632    431.65873    820.32664    912.56527   -46.668493    931.45918   -3646.1557 
 1073000    270.07128   -4233.4226   -3770.5297   -4233.4226            0   -24.341307    18.205748    23.697848    22.028342    9503.8429     1411.966   -510.60477   -974.38512     -953.126   -736.90661    268.15111   -3773.9035 
 1074000    258.70969   -4184.9882   -3741.5687   -4184.9882            0    136.91422    18.177943    23.328275    22.598209    9582.9978    1911.7367   -197.17338   -1303.8207    348.65804   -722.34837    119.00057   -3722.4338 
 1075000    282.35309   -4226.6658   -3742.7223   -4226.6658            0    771.03923    18.295504    23.502878    22.149965    9524.4185    650.39869    1239.0021    423.71686    361.00382    361.47714    418.45628    -3635.622 
 1076000    274.82769   -4207.8606   -3736.8153   -4207.8606            0   -415.74749     18.30716    23.613662    22.067681    9539.8386   -224.86966   -230.22398   -792.14882    83.312604   -24.201879    435.04396   -3794.6578 
 1077000    273.13911    -4229.129   -3760.9779    -4229.129            0   -24.980742    17.930249    23.787377     22.31537    9517.8085    100.67914   -1031.9387    856.31733   -1626.4199   -196.14847   -375.96004   -3764.4454 
 1078000     287.7258   -4174.5574   -3681.4053   -4174.5574            0    45.239214    18.065663    24.036394    22.054691    9576.8833    988.60344   -630.39031   -222.49549   -653.06481   -445.87572    482.56784   -3675.0868 
 1079000    272.93779   -4218.9297   -3751.1237   -4218.9297            0   -215.27502    18.250592    23.459194    22.363937     9574.989    754.82353   -892.14834   -508.50026    307.91661   -48.546013   -625.58202    -3781.185 
 1080000    286.98176   -4179.4139    -3687.537   -4179.4139            0    464.24443    18.409798    23.327516      22.2852    9570.4874   -1734.1571    1363.0509    1763.8395    480.73411    431.22608    1077.8184   -3622.7397 
 1081000    272.31208   -4189.0801   -3722.3465   -4189.0801            0    -1380.077    18.319439    23.745354    22.222871    9666.9831    -1380.702   -2347.8163   -411.71275     142.4526    441.61351   -407.44728    -3916.914 
 1082000     275.1374   -4224.2005   -3752.6244   -4224.2005            0    830.75691    17.973234    23.863826    22.250234    9543.3509    2262.3611   -38.225606     268.1352    387.55401    89.506823   -334.25971   -3636.9997 
 1083000    255.28007   -4196.0297   -3758.4884   -4196.0297            0   -963.53071    18.124214     23.61521      22.2219    9511.1316   -536.01259   -1843.6166   -510.96292    303.72945    635.01856   -242.40699   -3892.1398 
 1084000    288.47013   -4182.7977   -3688.3698   -4182.7977            0    988.10754    18.162673    23.377804    22.161775    9409.9649   -37.976988     1629.332    1372.9676    406.88529    67.582875   -854.48985   -3552.7672 
 1085000    260.32207   -4186.4751    -3740.292   -4186.4751            0   -341.68752    18.372635    23.458077    22.180411    9559.4616    1044.3762   -280.17207   -1789.2667    90.532288   -33.534132   -558.95877   -3787.9284 
 1086000    270.03416   -4194.4864   -3731.6571   -4194.4864            0   -1237.6018    18.313847    23.595022    22.138856    9566.5455   -1477.9494    132.59615   -2367.4523   -524.79754    588.97334   -279.66994   -3904.3251 
 1087000    260.23818    -4197.984   -3751.9447    -4197.984            0   -133.51334    17.981604    23.679034    22.345986    9514.6306     1684.496    -459.6458   -1625.3902    1570.9024     96.57752    1133.3771   -3770.4712 
 1088000    276.99458   -4170.3062   -3695.5469   -4170.3062            0    617.76025    18.004696    23.835818    22.162087     9511.007    1623.6599   -808.58371    1038.2046   -717.50357   -662.90546    583.71057   -3609.8585 
 1089000    251.68603   -4201.1326   -3769.7513   -4201.1326            0   -571.62917    18.278455    23.454984    22.256769    9541.9412   -1353.4565    217.18352   -578.61447   -327.52643   -605.59391    364.93657   -3849.2989 
 1090000    268.86479   -4186.6325   -3725.8075   -4186.6325            0   -820.68439    18.415667    23.493599       22.284     9641.179   -1463.9826   -1832.3827    834.31211   -331.11566   -492.79832    73.968027   -3841.2012 
 1091000    261.53173   -4213.2761   -3765.0196   -4213.2761            0   -676.65556    18.183748    23.740862    22.185665    9577.5041    -1029.018   -1441.7544     440.8057   -279.26878    131.48795   -473.47947   -3859.5336 
 1092000    281.13451   -4201.4813   -3719.6264   -4201.4813            0    1901.2107    18.019336    23.702069    22.112245    9444.0412     2236.347   -400.99403     3868.279   -84.276203   -161.30941   -697.96661   -3457.7695 
 1093000    269.40433   -4219.4901   -3757.7403   -4219.4901            0    206.36563    18.111407    23.604265    22.229284    9503.1622    278.07078   -1296.9958    1638.0219    360.60081    -482.7758    32.725888   -3729.1393 
 1094000     273.2738    -4205.824   -3737.4421    -4205.824            0   -753.43112    18.426438    23.377416    22.345022    9625.3974   -1699.3069   -979.20722    418.22072    296.83076    470.18604    135.22028   -3843.2061 
 1095000    268.38326   -4223.2252   -3763.2254   -4223.2252            0   -717.13624    18.215144     23.60121    22.217968     9551.492   -898.92574   -800.31465   -452.16834    331.81665    302.24811   -335.14598   -3863.1216 
 1096000     278.2783   -4192.4678   -3715.5084   -4192.4678            0    228.88537    17.922334    23.845773    22.260369    9513.4566    713.63428    -404.1015    377.12333    115.95823   -228.22298    195.06945   -3683.7519 
 1097000    267.69239   -4190.4025   -3731.5869   -4190.4025            0    102.25044    18.095266    23.734252    22.154879    9515.0246   -24.115727    1730.9141   -1400.0471    144.84849   -549.18887   -338.92497    -3717.398 
 1098000    249.27734   -4199.4653   -3772.2124   -4199.4653            0   -1257.4733    18.229487     23.58133    22.459257    9654.6853    -1622.313   -639.85164   -1510.2552    748.82229   -104.15503    468.18263   -3949.2693 
 1099000    275.20157   -4189.0712   -3717.3851   -4189.0712            0   -1870.7572    18.310323    23.689024    22.334917    9687.8521   -1128.1567   -1061.6027   -3422.5122    229.95953   -478.52206   -853.38568   -3981.6995 
 1100000    262.23252   -4203.3107   -3753.8531   -4203.3107            0    79.872071    18.398294    23.826459     21.68852    9507.5146   -259.30373   -1089.8321    1588.7521   -425.98812   -181.66882   -322.95696   -3742.7783 
 1101000    260.29592   -4215.6862   -3769.5479   -4215.6862            0   -283.94489    18.004119    23.489617    22.403306     9474.579    656.22389   -819.24778   -688.81078   -84.800894    573.39298    241.56185   -3808.7825 
 1102000    276.93218   -4186.9978   -3712.3455   -4186.9978            0    228.08442    18.200905    23.719637    21.988939    9493.0402   -1584.8609    46.853796    2222.2603    1360.1778    112.64077    302.32634   -3680.7681 
 1103000    265.32654   -4174.9829   -3720.2223   -4174.9829            0   -1594.5986    18.323479    23.637241    22.279057    9649.4268   -1970.3857   -2133.8799   -679.53005    -173.2709    625.90805    427.76667   -3944.6253 
 1104000    275.46331   -4203.3223   -3731.1876   -4203.3223            0   -1105.2158    18.067439    23.423089    22.689747    9602.1926    680.89443   -1130.7185   -2865.8235     -416.434    37.040622    657.52008     -3885.96 
 1105000    281.93805    -4193.623   -3710.3909    -4193.623            0   -82.232588    18.296414    23.698925    21.949598     9517.463   -1355.7336    1.6080759    1107.4277   -88.963416    337.25811   -1254.2281   -3721.8049 
 1106000     265.6309   -4221.8406   -3766.5583   -4221.8406            0    376.95452    18.099014    23.327344    22.424883    9467.8283    2672.6808    308.59677    -1850.414   -1334.9625    226.00473    101.86126    -3714.509 
 1107000     262.2887   -4208.7598    -3759.206   -4208.7598            0   -1246.0505    18.160893    23.708973    22.183577    9551.7184   -325.98989   -1104.3946   -2307.7668    283.47049   -375.46102    912.42581   -3932.7833 
 1108000    274.05635   -4199.7983   -3730.0751   -4199.7983            0   -978.38609    18.234809     23.79562    22.113241    9595.1253   -1448.7831   -1180.4037    -305.9715   -276.45413    165.28659    174.64676   -3866.9856 
 1109000    267.92899   -4201.2337   -3742.0126   -4201.2337            0    684.22806    18.030512    23.480989    22.390232    9479.4481    1391.2377    387.81687    273.62959    860.71713     297.7236    399.91064   -3647.4194 
 1110000    265.21088   -4195.4966   -3740.9342   -4195.4966            0   -947.45256    18.310872    23.621263    22.188644     9597.164   -845.95825   -2078.4735    82.074015   -98.097734    296.00425   -264.93098   -3873.5442 
 1111000    268.54007   -4177.5231   -3717.2546   -4177.5231            0   -959.41238    18.207517    23.687108    22.347263    9638.0039     870.0177   -2002.0123   -1746.2425   -117.65045  -0.47972002    257.85206     -3852.11 
 1112000    279.72189   -4209.0157   -3729.5819   -4209.0157            0   -881.22269    18.172385    23.485065    22.457156     9584.257   -243.46835     -145.133   -2255.0667   -954.64194   -26.669056     575.3414   -3852.7562 
 1113000    255.49798   -4179.6031   -3741.6883   -4179.6031            0     166.4195    18.268949    23.806063    21.855761    9505.3273    210.07734    -245.7074    534.88856   -566.23685    -95.79359   -33.930166   -3718.6183 
 1114000    284.71625   -4182.1783   -3694.1844   -4182.1783            0   -663.94401    18.039067    23.626586    22.367369    9533.0077   -258.56284   -1111.2128   -622.05636    1144.2623    366.10385    59.003253    -3786.492 
 1115000     281.5395   -4193.6637   -3711.1146   -4193.6637            0   -540.14773    18.338739    23.661283    22.005423    9548.5511   -1042.7624   -722.17366    144.49291   -400.30745    444.70911    -120.1183   -3786.3334 
 1116000    262.55895   -4203.8382   -3753.8211   -4203.8382            0    537.10438    18.251544    23.416504    22.182481    9480.5119    207.50747   -679.86814    2083.6738   -797.07154    142.49892    34.586418   -3679.5592 
 1117000    265.52541   -4230.8876   -3775.7861   -4230.8876            0    711.50051    18.190805    23.351562     22.33316    9486.7623      1416.45    757.22223   -39.170717   -437.49169    31.157224    423.74143   -3677.3467 
 1118000    259.69309   -4200.6762   -3755.5712   -4200.6762            0    -1044.294    18.055425    23.859772     22.12106    9529.7155   -130.78213   -3617.7074    615.60747   -646.14856   -142.70964    334.22902   -3900.7083 
 1119000      260.649   -4167.3005   -3720.5571   -4167.3005            0    736.97976    17.908549    23.858564    22.314225    9534.2493    1578.1281   -630.69217    1263.5034    659.61897   -773.33849   -345.97785   -3618.0821 
 1120000    279.19539   -4229.3227   -3750.7914   -4229.3227            0   -185.88716    18.302445    23.592711    22.007419    9502.8977   -407.42205    1434.4905   -1584.7299    168.45408    182.20502    582.63985   -3776.5535 
 1121000    272.43263   -4220.3957   -3753.4554   -4220.3957            0   -97.866507    18.342188    23.458295    22.093035    9506.1128   -1477.4727    646.91219    536.96104    1376.1356   -517.10056    311.26249   -3767.0234 
 1122000    279.37875   -4187.7684   -3708.9228   -4187.7684            0    -1040.848    18.158413    23.493141      22.4499    9577.0861    -1283.502   -1518.1478   -320.89427   -725.77365    296.78565   -891.79428   -3854.3001 
 1123000    264.42517   -4227.0476   -3773.8319   -4227.0476            0   -46.983293    18.020612    23.758694    22.190936    9500.9647    1249.2383   -1574.9396    184.75144    530.41528   -434.60613   -492.96481    -3780.342 
 1124000     272.4466   -4183.3251   -3716.3609   -4183.3251            0   -1516.7888    18.167579    23.944418    22.072383    9601.7537   -1326.9114    -2919.639   -303.81609    40.470762    608.00187    711.90662   -3928.7595 
 1125000    284.18407   -4174.6618     -3687.58   -4174.6618            0   -1704.7031    18.234324    23.542816    22.381073    9607.9109     -1931.34    271.04428   -3453.8137    105.56385    122.07978   -366.43884   -3926.4456 
 1126000    276.67118   -4205.8128   -3731.6079   -4205.8128            0    190.73464    18.321409    23.466182    22.079271    9492.6185    -1476.157    2418.5409   -370.17995   -218.56447   -400.20009    33.041146   -3705.2025 
 1127000    271.97321   -4191.0157   -3724.8629   -4191.0157            0    561.05546    18.205654    23.661336    22.126136    9531.2774    75.356154   -293.08602    1900.8963    -644.5033   -897.34612    38.065817    -3646.874 
 1128000    279.05613   -4214.3875   -3736.0948   -4214.3875            0    740.88287    18.009169    23.684505    22.193207    9466.2514    2412.0706    1314.6981     -1504.12    -367.1881    983.06586    325.76852   -3633.8118 
 1129000    275.59486   -4171.6115   -3699.2513   -4171.6115            0    639.66649    18.116905     23.76096    21.989166    9465.7876    1042.1045     1155.962     -279.067    852.93223     342.2959   -541.50488   -3610.9461 
 1130000    257.27273   -4209.5715   -3768.6148   -4209.5715            0   -606.01867    18.236208    23.413604    22.339904    9538.5884   -652.88051   -2096.6476    931.47212   -603.09576    109.55064    888.78746   -3852.9184 
 1131000    273.51327   -4239.1962   -3770.4038   -4239.1962            0   -648.96428    18.416312    23.535501     22.01094    9540.3585   -454.27598   -1790.8663     298.2494   -416.31865    335.16931   -174.07682   -3860.6983 
 1132000    291.06511   -4201.7568   -3702.8811   -4201.7568            0    -333.2513    18.099739    23.671015    22.288767    9549.3816    525.99121   -437.74185   -1088.0033   -222.04362    451.81527   -386.24622   -3749.2923 
 1133000    257.20639   -4190.2226   -3749.3796   -4190.2226            0   -844.86307     18.05272    23.963817    22.155899    9584.9092   -622.36609   -2269.5936    357.37047   -370.69384     260.5162   -64.054227   -3867.4797 
 1134000    270.66264    -4229.117   -3765.2105    -4229.117            0    167.41405    18.225447    23.455511    22.267645    9519.1322    -162.3622   -19.427909    684.03226    581.41541    119.42573   -23.452196    -3741.969 
 1135000    272.70738   -4250.4833   -3783.0722   -4250.4833            0    386.80162    18.378187    23.137721    22.148791    9418.3166   -836.10333    540.12047    1456.3877   -289.38756   -38.450497   -23.722108   -3729.9424 
 1136000    269.33828   -4201.3033   -3739.6667   -4201.3033            0    103.99356    18.187309    23.529332    22.182381    9492.6226   -45.347239    382.18793   -24.859992    1103.7059    536.69812    747.81789   -3725.2698 
 1137000    261.33425   -4195.9924   -3748.0745   -4195.9924            0    77.302663    17.805841    23.897689    22.382729    9524.2643    1463.2172   -560.72502   -670.58414   -1210.5027    279.12783   -205.03516    -3737.337 
 1138000    261.07167   -4180.7202   -3733.2523   -4180.7202            0    1068.2789    18.100484    23.783387    22.134694    9528.7827    1788.6305    918.30971    497.89658    280.15979    128.69932    -481.5021   -3584.7962 
 1139000    250.57835   -4224.2993   -3794.8166   -4224.2993            0    908.69705    18.280087    23.277129    22.209656    9450.3848    481.89795    2344.5551   -100.36193   -375.95166     230.0177    376.46486   -3669.5762 
 1140000    272.13694   -4202.2675   -3735.8341   -4202.2675            0   -1250.4354    18.307882    23.628994     22.22574    9614.7843   -90.986647   -1460.1431   -2200.1764    460.25746   -376.64204   -399.19424   -3911.1724 
 1141000    272.06081   -4233.5704   -3767.2675   -4233.5704            0   -648.75726    17.897299    23.916011    22.313919     9551.071    197.42867   -703.85939   -1439.8411   -112.99474    559.57403   -222.00811   -3857.6345 
 1142000    263.71808   -4205.4235   -3753.4198   -4205.4235            0   -725.37408    18.168108    23.808119    22.189626    9598.0889   -590.66066   -842.85986   -742.60172    240.51857     93.53997   -188.78843   -3854.9564 
 1143000    267.86427   -4206.2056   -3747.0954   -4206.2056            0   -1577.4416    18.230535     23.56795    22.554694     9690.767   -1139.3266   -1733.1354   -1859.8627    311.66931   -377.77254    104.99489   -3970.0351 
 1144000    261.97996   -4186.1328   -3737.1081   -4186.1328            0   -241.66359    18.321938    23.445077     22.19017    9531.9928   -568.68671    753.24585   -909.54991   -47.217105      451.989   -246.88087   -3770.7028 
 1145000     283.5241   -4200.2695   -3714.3189   -4200.2695            0   -883.30436    18.210732    23.677737     22.14484    9548.6096   -453.22142   -719.41142   -1477.2802    801.22756    234.44425   -43.695263    -3837.325 
 1146000     272.1729   -4219.7835   -3753.2884   -4219.7835            0   -539.67996    18.048921    23.732223    22.267648    9538.1472   -238.68839   -612.43413   -767.91734    271.63136    106.77467     963.3466   -3828.3601 
 1147000    256.80325   -4219.7073   -3779.5554   -4219.7073            0    2291.9472    17.883113    23.485136    22.407265    9410.7675    2792.4894    2871.9119    1211.4402   -1070.7113    797.10028    326.86433   -3464.9939 
 1148000    257.48512   -4224.0823   -3782.7616   -4224.0823            0    212.57736    18.254987    23.347174    22.203392    9463.1381   -274.46099   -22.986899    935.17997   -568.83804   -359.55358   -76.177988   -3753.4238 
 1149000    287.12826   -4178.3862   -3686.2582   -4178.3862            0   -244.02472    18.443058    23.305663    22.105987    9501.7656    229.05552   -508.19263   -452.93704    623.77492   -1311.3232    57.039636   -3720.0736 
 1150000    255.22495   -4190.0069   -3752.5601   -4190.0069            0   -453.00661    18.142003    23.735145    22.223422     9569.474    868.08069   -1130.1415    -1096.959    24.883474    174.36749   -197.21951   -3815.7821 
 1151000    267.67947   -4167.9538   -3709.1604   -4167.9538            0   -1009.6231    17.999858    23.873546    22.245629    9559.4016    775.63156   -1852.0394   -1952.4616   -258.18906    139.92241    203.92785    -3849.916 
 1152000    258.54439   -4214.2035   -3771.0672   -4214.2035            0   -780.57115    18.141367    23.559648    22.394027    9571.3013   -851.53756     237.5919   -1727.7678    1062.8115     642.8726    838.97435   -3880.0253 
 1153000    268.10926   -4182.1225   -3722.5924   -4182.1225            0   -1733.4785     18.46541     23.47421    22.137897    9595.9133   -3406.8545   -580.46155   -1213.1194    -666.5359    28.698406   -1.6998899   -3965.1868 
 1154000    263.45002   -4209.7411   -3758.1967   -4209.7411            0   -2164.9958    18.330871    23.441319    22.372091    9613.2827   -2964.6327   -1307.1679   -2223.1868    64.091724   -97.449229    459.94107   -4061.7289 
 1155000    265.58764   -4198.9765   -3743.7684   -4198.9765            0   -336.29259    18.082979    23.677459    22.188856    9500.3584   -73.312994   -118.90921   -816.65555   -707.61849    749.13954   -74.798604   -3790.3627 
 1156000    255.53145    -4219.839   -3781.8669    -4219.839            0   -1217.7041    17.941745    24.042104    22.198553    9575.5077    -1274.268    -2148.836   -230.00827   -395.47378   -529.70571   -972.00343    -3951.918 
 1157000    266.99887   -4216.5164   -3758.8895   -4216.5164            0   -1561.6949    18.292689    23.449374    22.269438    9552.5225   -2663.7246   -1510.8922   -510.46782    268.02018    460.22725    275.58001    -3976.455 
 1158000    265.38631    -4198.303   -3743.4399    -4198.303            0   -1343.0793    18.427861    23.170156    22.460213    9589.9813   -1595.6811    80.498414   -2514.0551    684.74444    101.75269    258.66502   -3931.2831 
 1159000    268.00738    -4205.034   -3745.6785    -4205.034            0    1617.4092    18.138607    23.554299    22.063046    9426.2633    1518.6475    3215.5897    117.99037    129.97908    489.57794   -123.31249   -3523.3295 
 1160000    271.44373   -4173.9513   -3708.7061   -4173.9513            0    350.50236    18.001056    23.685511    22.420636    9559.3566    2278.4598   -1017.8787     -209.074   -188.16174   -580.47347     564.8698   -3659.8413 
 1161000    256.32767   -4214.6895   -3775.3527   -4214.6895            0   -159.25209    18.139643    23.687162    22.250282    9560.4269   -848.26829    -1723.163     2093.675    870.69885   -456.04478   -47.977687    -3797.557 
 1162000    253.42311   -4181.6323   -3747.2737   -4181.6323            0    456.62327    18.352174    23.652159    21.898403    9505.4079   -1583.6755    1414.4905    1539.0548   -866.59689    -452.4464    436.70554   -3683.9736 
 1163000    265.09823   -4185.5438   -3731.1745   -4185.5438            0   -864.74216    18.322072     23.43449    22.328276    9587.0562   -1701.7894    205.24367   -1097.6807   -14.851139   -244.41976     430.6968   -3852.0805 
 1164000    285.27611   -4237.4644   -3748.5109   -4237.4644            0    44.663718    18.280097    23.438962     22.24529    9531.3618   -1440.6982    767.85964    806.82969   -102.47048   -182.58596   -736.08032   -3742.3024 
 1165000    262.55709   -4189.0196   -3739.0058   -4189.0196            0    2429.3268    17.928362    23.805786    22.069003    9419.0225    2361.6598    2448.7305    2477.5902    1568.7048   -48.064933    1802.0913    -3405.297 
 1166000     266.5152   -4172.8732   -3716.0753   -4172.8732            0   -300.20839    18.042256    23.767709    22.177108    9510.0562   -234.98653   -715.67619    50.037558    98.297129   -339.54453    234.69996   -3757.7125 
 1167000    263.97472   -4222.4657    -3770.022   -4222.4657            0   -1687.2219    18.360088    23.562043    22.292403      9643.72   -2650.6276    376.58529   -2787.6235    76.501919   -166.50011    605.71548   -4007.3193 
 1168000    279.90708   -4167.7475   -3687.9963   -4167.7475            0   -400.84606    18.347279    23.571399    22.253952    9624.1891   -722.64218   -855.37254    375.47652    239.47585   -31.347895     623.4948   -3744.2586 
 1169000    275.40062   -4175.3727   -3703.3455   -4175.3727            0    102.96722    18.021576    23.542424    22.413782    9509.5311    737.37466    595.05761   -1023.5306   -521.37091   -402.50032   -112.75934   -3689.0653 
 1170000    270.29255   -4200.0168   -3736.7446   -4200.0168            0    1176.6722    18.064747    23.682138    22.097113    9453.4062    802.22393    1101.8156    1625.9771   -349.70439   -733.75754    155.34663   -3574.5189 
 1171000      260.604   -4185.1268   -3738.4604   -4185.1268            0   -540.77523    18.119059    23.669378    22.359749    9589.3554    2.3922912   -1291.7116   -333.00642     1321.997    655.19615    747.09431   -3814.0883 
 1172000    267.51879    -4204.455    -3745.937    -4204.455            0   -1047.1998    18.255435    23.490809    22.359037    9588.3361   -155.78036   -228.56682   -2757.2522    284.24891    429.97226   -552.03927   -3892.3733 
 1173000    269.46004   -4212.1268   -3750.2815   -4212.1268            0    1099.2105    18.263504    23.530708    21.983448    9447.4568    2446.5046   -408.67817     1259.805    670.82102    409.46729   -643.89581   -3598.8307 
 1174000    258.05519   -4199.3065   -3757.0088   -4199.3065            0    93.350167    18.080018    23.568834    22.352685    9525.0367     78.81868   -383.27371    584.50553    -76.67808    214.86503     631.9763   -3744.0412 
 1175000    275.36456   -4185.4289   -3713.4635   -4185.4289            0    -1122.821    18.127036    23.889631    22.164654    9598.3632   -64.109801    -1813.954   -1490.3992   -1939.7788   -121.48573   -733.40306   -3870.6385 
 1176000     261.4358     -4197.59    -3749.498     -4197.59            0   -330.57854    18.128021    23.686256    22.336831    9591.0992   -535.14931   -799.58515    342.99884   -700.78568    429.64844    43.965644   -3795.7381 
 1177000    279.34142   -4186.3813   -3707.5997   -4186.3813            0    461.76326     18.20509    23.504289    22.210731    9503.9208   -467.23144    1664.2308    188.29039    551.55123   -742.50826    618.81616    -3643.597 
 1178000    275.03922    -4187.607   -3716.1991    -4187.607            0   -364.48537    18.333244    23.571874    22.177743    9584.0882   -367.19531   -1071.8433    345.58249    37.801032    -486.7571    98.799194   -3767.1448 
 1179000    281.11561    -4215.955   -3734.1324    -4215.955            0   -379.99303    18.071433    23.576548    22.409439    9547.8106    216.97632      -1051.9   -305.05539    1008.6491    11.252506    399.16311   -3787.0446 
 1180000    260.58334   -4196.4599   -3749.8289   -4196.4599            0   -181.23861    18.055129    23.830604    22.100714    9509.1555    365.88465   -1098.1025    188.50201   -915.67579   -410.07719   -184.54863   -3774.9633 
 1181000    280.68161   -4207.8054   -3726.7267   -4207.8054            0   -1637.6508    18.055788    23.813438    22.407315    9634.4819   -1295.1823   -2180.3515   -1437.4185   -641.48774   -37.416933   -36.922401   -3956.8314 
 1182000    277.32707   -4180.7025   -3705.3734   -4180.7025            0    256.71159    18.244949    23.603644    22.147591    9537.7998    402.75763   -835.24816    1202.6253   -301.15069   -122.51169   -272.36533    -3669.665 
 1183000    275.69047   -4225.9765   -3753.4525   -4225.9765            0    687.28343    18.348193    23.251198    22.285353    9507.3209    384.82076    559.65152     1117.378   -1055.5268    16.608847     526.6039   -3658.1575 
 1184000    267.49322   -4219.3314   -3760.8572   -4219.3314            0    1097.7165    18.158297    23.554518    22.072444    9440.6034    345.08347    652.11439    2295.9517   -88.493169   -450.26138   -590.51476   -3609.7219 
 1185000    281.63404   -4196.6273   -3713.9162   -4196.6273            0   -977.49176    18.017559    23.780446    22.399541    9597.4321   -419.82333   -1889.1157    -623.5362    265.65043    633.15964   -511.38184   -3850.7345 
 1186000    265.81512   -4173.3966   -3717.7986   -4173.3966            0    24.471822    18.200374    23.915021    21.985865    9569.6188   -245.72597   -27.984198    347.12563    1840.5282   -331.01389   -554.47711   -3714.3832 
 1187000    262.95527   -4200.7461   -3750.0498   -4200.7461            0   -345.90524     18.25649    23.363979        22.33    9524.7331    1013.4978   -413.31631   -1637.8972   -1523.2556   -348.90424   -450.05181    -3798.099 
 1188000    278.22361    -4182.503   -3705.6373    -4182.503            0    90.308686    18.333481    23.410639    22.287733    9565.8613   -566.10111     596.4264    240.60077   -58.719014   -570.24741   -51.252839   -3693.0385 
 1189000    262.51644   -4219.0505   -3769.1063   -4219.0505            0   -592.54708    18.231464    23.732228    22.100388    9562.2467   -127.40378   -2327.1578    676.92031    712.75006   -98.700586    136.78241   -3851.7403 
 1190000    279.43849   -4168.5633   -3689.6153   -4168.5633            0   -342.97152    18.063726    23.789449    22.253842    9563.0559    45.864296   -1312.6706     237.8917   -1070.2853   -486.11022   -459.73669   -3737.4487 
 1191000    272.29377   -4184.2727   -3717.5705   -4184.2727            0   -557.51539    17.971213    23.879884    22.262596    9554.0037    256.82862   -1838.1977   -91.177053    108.86654   -1231.1667    194.28296   -3795.2521 
 1192000    278.45398   -4200.0561   -3722.7955   -4200.0561            0    173.57631    18.094348    23.384092    22.430957    9490.9844    1755.4618     96.73157   -1331.4645   -402.70444    114.85486   -1158.9347   -3698.7698 
 1193000    264.25643   -4189.4956   -3736.5691   -4189.4956            0   -478.60395    18.380014    23.545137    22.081665    9556.0602   -2326.8374   -33.116833    924.14235    68.665027    629.57565   -160.54729   -3803.2699 
 1194000    283.01653   -4189.8779   -3704.7972   -4189.8779            0    -45.12436    18.222403    23.536496    22.245146    9540.7546   -409.80778    1361.2876   -1086.8529    786.01618   -5.7690918    370.36158   -3711.0759 
 1195000    274.10028   -4211.3276   -3741.5291   -4211.3276            0   -340.54745    18.063896    23.588055    22.294437    9499.4853   -168.12932   -769.94649   -83.566552   -307.27779    425.00822   -2.2750806   -3788.7086 
 1196000    275.92187   -4205.9693   -3733.0486   -4205.9693            0   -1437.1908    18.194172    23.907805    21.952225    9548.8382   -1966.4107   -2725.6927    380.53091    60.489749     125.3241    -195.6167   -3933.1918 
 1197000    267.54383   -4200.8017   -3742.2407   -4200.8017            0   -1419.6105    18.111698    23.626548     22.46397    9612.7123   -1222.1045   -445.46651   -2591.2606    173.70686    534.11119   -178.06611   -3941.2581 
 1198000    283.47861   -4207.8059   -3721.9332   -4207.8059            0    605.72155    18.269756    23.554906    22.020254    9476.2486    1081.0364   -71.068157    807.19639   -127.38224   -292.71569    -161.8379   -3638.2217 
 1199000    281.13437   -4187.0301   -3705.1754   -4187.0301            0    301.37664    18.249582    23.574613    22.109826    9512.2405   -1337.4069    254.54082     1986.996   -863.54357    175.42714    172.36661   -3663.3665 
 1200000    276.81712   -4218.3805   -3743.9254   -4218.3805            0    -37.58322    18.185044    23.324299    22.290722    9454.6854    1119.2228   -312.70343   -919.26907   -44.340804    498.31584    356.48203   -3749.1077 
 1201000    274.52611   -4205.6855   -3735.1572   -4205.6855            0   -896.19442    18.245842    23.745336    22.153663    9598.1556   -1355.4906   -997.05001   -336.04266   -108.75841   -900.15534    228.66593   -3860.6058 
 1202000    273.44852   -4189.3308   -3720.6494   -4189.3308            0   -800.22033    18.098728    23.809559    22.196882    9565.1415   -1275.4106    -1576.696    451.44561   -854.96277   -781.22027   -200.05861   -3832.2783 
 1203000    262.48462     -4209.79   -3759.9003     -4209.79            0    169.84495     18.16361    23.534482    22.213792    9495.7555    392.59619   -185.55464    302.49332    601.92374    399.98797    198.30365   -3736.3792 
 1204000    261.52559   -4212.6442   -3764.3983   -4212.6442            0   -150.27474    18.278252    23.416304    22.222554    9511.4555   -226.66324    1056.8959   -1281.0569   -1229.8561    73.227596    115.24758   -3785.2436 
 1205000    270.08605   -4228.3119   -3765.3937   -4228.3119            0   -1309.2825    18.394192      23.4757    22.273614    9618.1149   -1011.8295   -139.10145   -2776.9165    385.26547   -55.441376    51.973068   -3949.0472 
 1206000    271.50323   -4227.6883   -3762.3411   -4227.6883            0   -233.56048    18.132504    23.722282    22.157288    9530.8327      160.559    -615.1451   -246.09533   -308.84235   -379.31945   -917.83884   -3794.8054 
 1207000    260.11519   -4191.2157   -3745.3872   -4191.2157            0   -599.33164    18.031625    23.789425    22.315994    9572.7134   -700.51034   -1766.0761    668.59152    -1012.042    324.23104   -394.22317   -3829.0588 
 1208000     273.4661   -4190.7886    -3722.077   -4190.7886            0    275.59094     18.27515     23.52701    22.102706    9503.2712    1108.9302   -65.438935   -216.71846   -985.25809   -210.74912    327.63176   -3683.8814 
 1209000     272.2917   -4210.8428   -3744.1442   -4210.8428            0    462.06937    18.230568    23.323534    22.349426    9503.0046   -883.69233    1290.3884    979.51205   -1056.3298   -426.31511   -52.357212   -3680.1053 
 1210000    275.07178   -4178.6007   -3707.1371   -4178.6007            0   -275.61227    18.056384    23.784465     22.18642    9528.2122   -257.20286   -1484.4285    914.79451    508.05927    -370.8682    437.23346   -3745.4359 
 1211000    274.21347   -4213.5472   -3743.5547   -4213.5472            0   -628.28844    18.095628    23.692809    22.126526    9486.4439    324.47568    -1716.626   -492.71496   -1201.5102   -731.80201   -440.76842   -3830.4785 
 1212000    277.83958   -4211.6811   -3735.4736   -4211.6811            0   -485.03908    18.107969    23.624124    22.341353    9557.2933      749.063   -956.38032   -1247.7999   -223.70122   -608.09628    139.79617   -3803.0799 
 1213000    281.32926   -4200.9191   -3718.7304   -4200.9191            0    26.907263    18.352869     23.29792    22.340361    9552.3738   -535.17003    815.04376   -199.15194   -308.39866    553.63485   -30.967065   -3714.9819 
 1214000    270.34578   -4203.6795   -3740.3161   -4203.6795            0   -1437.5409    18.519044    23.430037    22.297216    9674.8043   -574.57448   -1665.9694   -2072.0787   -93.672411    345.49894    323.25658   -3943.1489 
 1215000    255.49767    -4230.137   -3792.2227    -4230.137            0   -273.69932    18.081628    23.840685    22.065074    9511.7769   -709.23342   -1517.1695    1405.3049   -542.94464    371.49151    568.93181   -3830.1902 
 1216000    261.33109   -4201.0162   -3753.1037   -4201.0162            0   -755.11169    17.960955    23.809666    22.380925    9571.0759    832.20374   -415.98996   -2681.5489    688.17022    472.32114    160.06556   -3858.5054 
 1217000    262.49868   -4220.4166   -3770.5029   -4220.4166            0   -475.21986    18.254108    23.563213    22.241813    9566.7697    1016.1734   -1733.7515   -708.08148   -690.21039   -993.00433   -243.93004   -3836.8063 
 1218000    272.38048   -4195.6028    -3728.752   -4195.6028            0    511.59717    18.374323     23.26939    22.316046     9541.433   -1162.2058    2903.4016   -206.40434   -522.86233   -81.076406    162.22143   -3657.5622 
 1219000    277.98241   -4197.0935   -3720.6412   -4197.0935            0   -532.06446    18.143126    23.774401    22.228581    9588.1193    -54.96653    -379.7871   -1161.4398   -371.81767    471.14478   -343.77701   -3795.0413 
 1220000    260.78663    -4213.952   -3766.9727    -4213.952            0    1357.6426    17.882917    23.880217    21.910664    9356.9041    939.65938    536.18078    2597.0877   -6.3778869   -104.08907    341.91172   -3581.7076 
 1221000    269.42295   -4197.4155   -3735.6338   -4197.4155            0    -413.2787    18.215052    23.412934    22.267677    9496.4476   0.60196361   -671.54665   -568.89142   -609.70129   -570.85505   -64.115635   -3792.8712 
 1222000    261.74962   -4207.2236   -3758.5937   -4207.2236            0   -345.25706    18.379501    23.526463    22.077101    9546.2412   -1496.6593    1362.4646   -901.57648   -77.240673   -360.83776    276.39357   -3806.6612 
 1223000    268.83626   -4204.9224   -3744.1462   -4204.9224            0   -997.30698    18.060598    23.782716    22.283611    9571.4813   -555.27395   -1894.9753   -541.67172   -26.910597   -674.35372   -635.98677   -3883.3606 
 1224000    273.30062   -4206.5867   -3738.1588   -4206.5867            0    183.92623    18.060681    23.620235    22.318246    9520.9084    860.47819    539.52036   -848.21987   -1206.0589   -622.67578   -406.65778   -3712.6202 
 1225000    278.92499   -4234.2581   -3756.1902   -4234.2581            0   -56.642451    18.211728    23.665378    22.045295    9501.2449    67.859998   -483.32961    245.54226    461.35224    373.90126   -160.52218   -3764.0389 
 1226000    268.40133   -4190.0696    -3730.039   -4190.0696            0   -295.11593    18.091974     23.44296    22.492519    9539.7393    494.53758    774.04179   -2153.9272   -42.857498    741.00331    619.39898   -3771.0976 
 1227000    281.36959    -4155.591   -3673.3332    -4155.591            0   -281.80625     18.40329    23.680624    22.020975    9596.7716   -1162.0722   -1605.0959    1921.7494   -870.94391   -375.37448   -82.554683   -3712.7745 
 1228000    280.80683   -4190.1396   -3708.8463   -4190.1396            0    9.1621548    18.070062    23.505051    22.426409    9525.3421    132.89136   -292.87555    187.47065   -53.426058   -497.83534    586.05559   -3707.5736 
 1229000    269.49193   -4187.4925   -3725.5926   -4187.4925            0   -572.98417    18.191538    23.689369    22.301319    9610.6656   -1685.0334   -641.47291    607.55382    488.87759    286.56137    88.225065    -3805.903 
 1230000    284.80001   -4183.3065    -3695.169   -4183.3065            0   -1587.3021    18.370126    23.704007    22.282839    9702.9638   -2531.8754   -1653.4659   -576.56486    375.11629    189.04501   -33.043407   -3919.7846 
 1231000     284.5634   -4200.2753   -3712.5434   -4200.2753            0    614.15081    18.198659    23.435683    22.395605    9551.6806     226.5567     2924.515   -1308.6193   -438.23021   -210.64444   -941.35347   -3626.9913 
 1232000    274.08497   -4202.3936   -3732.6214   -4202.3936            0    722.22683    18.100503    23.674272    22.118962    9478.3342    884.30474   -163.63747    1446.0132     -1025.54    162.79137    840.22019   -3632.7867 
 1233000    267.22784   -4214.5749   -3756.5555   -4214.5749            0    152.06054    18.108146    23.532238    22.273267    9491.2007    896.50143    402.89018   -843.20999    897.31206    79.548206   -310.93787   -3735.5074 
 1234000    261.72602   -4159.0927   -3710.5032   -4159.0927            0   -1909.0767    18.412596    23.619392     22.31485    9704.6016   -2002.2414    -708.2791   -3016.7097    31.842211    160.68139   -39.491659    -3980.698 
 1235000    265.21422   -4217.8598   -3763.2917   -4217.8598            0   -106.31957    18.222091    23.602218     22.12526    9515.6709   -354.93276   -1220.5129    1256.4869   -1.1576409   -299.91334    359.67293   -3778.0464 
 1236000    274.75552   -4223.0673   -3752.1458   -4223.0673            0    1604.3286    18.059789    23.527588    22.156525    9414.3801    1639.8471    1663.8813    1509.2573   -643.86204   -369.86807    880.79206   -3531.8729 
 1237000    264.42758   -4192.4294   -3739.2096   -4192.4294            0   -1046.4111    18.054036    23.564354    22.516602    9579.2761   -45.717621   -1063.9627   -2029.5531    177.10571    279.83268    506.06238   -3885.3973 
 1238000      266.247   -4177.3929   -3721.0547   -4177.3929            0   -320.53974    18.271743    23.790671    21.987961    9558.1014   -1185.8817   -504.05655    728.31903   -120.29543    411.56359   -594.81817   -3765.7363 
 1239000    265.11437   -4192.7502   -3738.3532   -4192.7502            0   -163.91885     18.20842    23.158298    22.443091    9463.7133   -831.18302    1484.2268   -1144.8003   -116.75827   -249.00458   -48.355333   -3760.9771 
 1240000    270.34797    -4194.318   -3730.9508    -4194.318            0   -232.19044    18.336379    23.518044    22.097536    9529.2479   -262.01639    131.91879   -566.47372   -350.86794   -585.51917    143.25678   -3763.2193 
 1241000    266.85906   -4227.6805   -3770.2932   -4227.6805            0    -398.7045    18.172026    23.712072    22.197146    9564.6706   -527.17306    -257.7163   -411.22413   -1035.8405     36.70368    506.44742   -3825.9089 
 1242000    275.84912   -4208.3975   -3735.6015   -4208.3975            0   -637.73222    18.049754     23.84019    22.407652    9642.2269    271.63436   -2034.6251   -150.20595   -140.64115   -18.645704   -417.72084   -3825.2807 
 1243000    272.35094   -4172.4497   -3705.6496   -4172.4497            0    4.3867258    18.258063    23.852941    22.062732    9608.5077   -1426.3471    7.8743187     1431.633   -728.62162    348.22871    546.75479   -3705.0348 
 1244000    272.29186    -4187.858    -3721.159    -4187.858            0    462.48268    18.169929    23.521637    22.200561    9488.2197    1381.3244   -594.98992    601.11357    667.62486    199.57628    790.56006   -3657.1626 
 1245000    287.11838   -4197.8956   -3705.7845   -4197.8956            0   -1326.9028    18.378133     23.65075    22.204718    9651.4281   -1317.2263   -1297.1667   -1366.3154    -435.2429   -502.93102    876.41217   -3892.5543 
 1246000    271.38282   -4203.4906   -3738.3497   -4203.4906            0    -437.3528    18.138547     23.67885    22.276965    9567.9548   -1.9473277   -838.55463   -471.55645     1522.017     111.0003      728.015   -3799.3774 
 1247000    268.63596    -4201.451   -3741.0181    -4201.451            0    860.70559    18.091983    23.606169    22.265005    9508.9916    1113.2036    272.68723     1196.226    178.35502   -368.81772    -517.2646   -3621.6564 
 1248000    276.35527   -4176.4075    -3702.744   -4176.4075            0   -431.23143    18.325289    23.734353    21.998793    9568.1304   -451.01033     -1043.48    200.79605    477.69116   -231.07334   -329.05041   -3762.9186 
 1249000    277.15508   -4240.7961   -3765.7617   -4240.7961            0    1322.0009    18.064289    23.423129    22.179697    9384.7214    1268.3201    2958.6607   -260.97813   -947.96909   -260.22597   -236.11951    -3584.824 
 1250000    283.87241   -4174.0763   -3687.5287   -4174.0763            0    496.16413    17.959827    23.797457    22.193152    9485.3131    635.98745    440.37889    412.12604    78.762514    721.11506     530.9639   -3618.8926 
Loop time of 482.663 on 64 procs for 250000 steps with 864 atoms

Performance: 89.503 ns/day, 0.268 hours/ns, 517.960 timesteps/s
370.3% CPU use with 16 MPI tasks x 4 OpenMP threads

MPI task timing breakdown:
Section |  min time  |  avg time  |  max time  |%varavg| %total
---------------------------------------------------------------
Pair    | 24.887     | 28.504     | 31.738     |  40.1 |  5.91
Bond    | 1.6998     | 2.0445     | 2.5616     |  17.3 |  0.42
Kspace  | 244.94     | 254.01     | 265.55     |  35.5 | 52.63
Neigh   | 1.9434     | 2.2735     | 2.6254     |  14.0 |  0.47
Comm    | 63.673     | 78.537     | 88.013     |  67.8 | 16.27
Output  | 0.76731    | 0.76758    | 0.76902    |   0.0 |  0.16
Modify  | 78.143     | 85.358     | 95.237     |  55.5 | 17.68
Other   |            | 31.17      |            |       |  6.46

Nlocal:        54.0000 ave          62 max          46 min
Histogram: 2 2 2 1 1 0 3 0 3 2
Nghost:        2493.69 ave        2525 max        2453 min
Histogram: 1 0 3 2 1 1 1 3 2 2
Neighs:        12836.0 ave       15074 max       10574 min
Histogram: 2 1 2 2 1 0 4 2 0 2

Total # of neighbors = 205376
Ave neighs/atom = 237.70370
Ave special neighs/atom = 2.0000000
Neighbor list builds = 7074
Dangerous builds = 0

unfix		3
unfix		2
unfix		1

write_data	data.final.${pid} nocoeff
write_data	data.final.0 nocoeff
System init for write_data ...
PPPM initialization ...
  extracting TIP4P info from pair style
  using 12-bit tables for long-range coulomb (../kspace.cpp:340)
  G vector (1/distance) = 0.37092898
  grid = 24 27 25
  stencil order = 5
  estimated absolute RMS force accuracy = 0.0032562777
  estimated relative force accuracy = 9.8061835e-06
  using double precision FFTW3
  3d grid and FFT values/proc = 6300 1296
Last active /omp style is kspace_style pppm/tip4p/omp

write_restart   restart.lmp.${pid}
write_restart   restart.lmp.0
System init for write_restart ...
PPPM initialization ...
  extracting TIP4P info from pair style
  using 12-bit tables for long-range coulomb (../kspace.cpp:340)
  G vector (1/distance) = 0.37092898
  grid = 24 27 25
  stencil order = 5
  estimated absolute RMS force accuracy = 0.0032562777
  estimated relative force accuracy = 9.8061835e-06
  using double precision FFTW3
  3d grid and FFT values/proc = 6300 1296
Last active /omp style is kspace_style pppm/tip4p/omp
Total wall time: 0:08:02
