LAMMPS (30 Jul 2021)
  using 1 OpenMP thread(s) per MPI task
package omp 0
using multi-threaded neighbor list subroutines
echo both

include		in.partitions
variable        pid world 0
include		in.temp
variable        temperature equal 217.97
variable	tempDamp equal 100.0
include		in.pressure
variable        pressure equal 2250.0
variable        pressureDamp equal 1000.0 # This is 1 ps
include		in.seed
variable        seed world 745823

units		real
atom_style	full
read_restart	restart.lmp.${pid}
read_restart	restart.lmp.0
Reading restart file ...
  restart file = 30 Jul 2021, LAMMPS = 30 Jul 2021
  restoring atom style full from restart
  orthogonal box = (0.27291363 1.4129875 0.33295399) to (17.934659 22.216190 21.880242)
  4 by 4 by 4 MPI processor grid
  restoring pair style lj/cut/tip4p/long/omp from restart
  restoring bond style harmonic/omp from restart
  restoring angle style harmonic/omp from restart
  864 atoms
  576 bonds
  288 angles
Finding 1-2 1-3 1-4 neighbors ...
  special bond factors lj:    0        0        0       
  special bond factors coul:  0        0        0       
     2 = max # of 1-2 neighbors
     1 = max # of 1-3 neighbors
     1 = max # of 1-4 neighbors
     2 = max # of special neighbors
  special bonds CPU = 1.751 seconds
  read_restart CPU = 2.105 seconds
include 	in.setup
variable	out_freq equal 1000
variable	out_freq2 equal 10000
variable	out_freq3 equal 1000

timestep	2.0

neigh_modify    delay 7 every 1

include		in.tip4p
# This is TIP4P/Ice

# create groups ###
group ox type 2
288 atoms in group ox
group hy type 1
576 atoms in group hy

# set charges - beside manually ###
set group ox charge -1.1794
Setting atom values ...
  288 settings made for charge
set group hy charge 0.5897
Setting atom values ...
  576 settings made for charge

# ### TIP3P Potential Parameters ###
pair_style lj/cut/tip4p/long/omp 2 1 1 1 0.1577 8.5
pair_coeff 1 1*2 0.000 0.000
pair_coeff 2 2 0.21084 3.1668
bond_style  harmonic
bond_coeff  1 450 0.9572
angle_style harmonic
angle_coeff 1 55 104.52
kspace_style pppm/tip4p/omp 1.0e-5
pair_modify tail yes

thermo          ${out_freq}
thermo          1000
thermo_style    custom step temp pe etotal epair emol press lx ly lz vol pxx pyy pzz pxy pxz pyz enthalpy

restart 	${out_freq3} restart.lmp.${pid} restart2.lmp.${pid}
restart 	1000 restart.lmp.${pid} restart2.lmp.${pid}
restart 	1000 restart.lmp.0 restart2.lmp.${pid}
restart 	1000 restart.lmp.0 restart2.lmp.0


include         in.dump
dump            myDump all atom ${out_freq2} dump.water.${pid}
dump            myDump all atom 10000 dump.water.${pid}
dump            myDump all atom 10000 dump.water.0
dump            myDump2 all dcd ${out_freq2} dump.dcd
dump            myDump2 all dcd 10000 dump.dcd
dump_modify     myDump append yes
dump_modify     myDump2 append yes


variable natoms 	equal  "count(all)"                        # NUMBER ATOMS
variable H      	equal  "enthalpy/v_natoms"                 # ENTHALPY-per-atom
variable Vol      	equal  "vol/v_natoms"                 # volume-per-atom
fix AVG all 		ave/time ${out_freq} 1 ${out_freq} v_Vol v_H file vol_enthalpy.dat
fix AVG all 		ave/time 1000 1 ${out_freq} v_Vol v_H file vol_enthalpy.dat
fix AVG all 		ave/time 1000 1 1000 v_Vol v_H file vol_enthalpy.dat


timer           timeout 23:50:00 every 1000
New timer settings: style=normal  mode=nosync  timeout=23:50:00

fix 		1 all shake 1e-6 200 0 b 1 a 1
       0 = # of size 2 clusters
       0 = # of size 3 clusters
       0 = # of size 4 clusters
     288 = # of frozen angles
  find clusters CPU = 0.499 seconds
fix             2 all nph iso ${pressure} ${pressure} ${pressureDamp}
fix             2 all nph iso 2250 ${pressure} ${pressureDamp}
fix             2 all nph iso 2250 2250 ${pressureDamp}
fix             2 all nph iso 2250 2250 1000
fix             3 all temp/csvr ${temperature} ${temperature} ${tempDamp} ${seed}
fix             3 all temp/csvr 217.97 ${temperature} ${tempDamp} ${seed}
fix             3 all temp/csvr 217.97 217.97 ${tempDamp} ${seed}
fix             3 all temp/csvr 217.97 217.97 100 ${seed}
fix             3 all temp/csvr 217.97 217.97 100 745823

run             250000
PPPM initialization ...
  extracting TIP4P info from pair style
  using 12-bit tables for long-range coulomb (../kspace.cpp:340)
  G vector (1/distance) = 0.37254984
  grid = 24 24 25
  stencil order = 5
  estimated absolute RMS force accuracy = 0.0032671386
  estimated relative force accuracy = 9.838891e-06
  using double precision FFTW3
  3d grid and FFT values/proc = 2730 288
Last active /omp style is kspace_style pppm/tip4p/omp
Neighbor list info ...
  update every 1 steps, delay 7 steps, check yes
  max neighbors/atom: 2000, page size: 100000
  master list distance cutoff = 10.8154
  ghost atom cutoff = 10.8154
  binsize = 5.4077, bins = 4 4 4
  1 neighbor lists, perpetual/occasional/extra = 1 0 0
  (1) pair lj/cut/tip4p/long/omp, perpetual
      attributes: half, newton on, omp
      pair build: half/bin/newton/omp
      stencil: half/bin/3d
      bin: standard
Per MPI rank memory allocation (min/avg/max) = 9.234 | 9.240 | 9.246 Mbytes
Step Temp PotEng TotEng E_pair E_mol Press Lx Ly Lz Volume Pxx Pyy Pzz Pxy Pxz Pyz Enthalpy 
19250000    227.43032   -4024.3319   -3634.5241   -4024.3319            0    1916.2705    17.661745    20.803203    21.547288    7916.9232    1937.5884    1696.4337    2114.7892   -428.00122     666.7955    -87.14451   -3413.2712 
19251000    219.22799    -4028.756   -3653.0067    -4028.756            0    2381.1217    17.621845    20.756206     21.49861    7863.3888    2020.2942    2759.2351    2363.8359   -822.69997    773.53849   -1328.6542    -3379.941 
19252000     221.0994   -4035.3344   -3656.3776   -4035.3344            0    3039.1228    17.629929    20.765727    21.508472    7874.2147     4349.832    1465.2119    3302.3246    555.72874    953.04526    237.34134   -3307.3728 
19253000    218.33701   -4044.3204   -3670.0982   -4044.3204            0    2191.5729     17.64908    20.788286    21.531837    7899.9045    1856.0245    2604.7905    2113.9036   -1556.8743    250.87382    759.43616   -3417.6027 
19254000    204.15188   -4059.4587   -3709.5493   -4059.4587            0    1377.8387    17.605634    20.737112    21.478833    7841.7071    1904.4252    1673.5167      555.574   -67.616693    21.897237   -580.32406   -3551.9752 
19255000      203.519   -4000.2297   -3651.4051   -4000.2297            0    1365.9443    17.598784    20.729042    21.470475    7832.5565    726.12276    1575.6638    1796.0463    -205.2863    593.73097    700.65111   -3495.3736 
19256000    220.30219   -4032.6465   -3655.0561   -4032.6465            0    3298.4356    17.688816    20.835089    21.580314    7953.3826    2236.3148    4150.3487    3508.6433    326.34395     974.8253    555.28542   -3272.4642 
19257000     216.2388   -4040.0501   -3669.4242   -4040.0501            0    911.96223    17.677198    20.821404     21.56614    7937.7215    1444.6563    1522.1306   -230.90017    489.67646     576.8711   -422.44529   -3563.8522 
19258000     221.3274   -4042.6834   -3663.3359   -4042.6834            0    2827.7053    17.616957    20.750448    21.492646    7856.8465    2634.9208     2301.809    3546.3862    924.71712   -621.62733   -692.36883   -3339.3259 
19259000    225.64379   -4028.6974   -3641.9516   -4028.6974            0     2189.191     17.75063    20.907898    21.655727    8037.0547    2503.4681    2527.6568    1536.4483     276.2622    1451.9605    103.41138   -3385.3517 
19260000    221.68236    -4046.255   -3666.2991    -4046.255            0    2352.9657    17.690162    20.836675    21.581957    7955.1989    1389.4805     3084.149    2585.2675   -298.39955    481.08374   -160.74037   -3393.3117 
19261000    216.33746   -4048.1362   -3677.3412   -4048.1362            0    1510.2342    17.748886    20.905843    21.653599    8034.6856     894.8307    3038.2824     597.5896    325.18376   -101.84628    1308.7382   -3500.3755 
19262000    232.87855    -4038.468   -3639.3222    -4038.468            0    666.09608    17.726454    20.879422    21.626233    8004.2606   -203.56226      1548.48    653.37049    182.13366    1202.6074    94.712725   -3561.5661 
19263000    220.28766   -4028.5071   -3650.9416   -4028.5071            0    1720.6306    17.669099    20.811864    21.556259    7926.8161    1295.2489    1915.8916    1950.7513    49.666854     1663.955    912.68751    -3452.029 
19264000    218.74352   -4065.8463   -3690.9274   -4065.8463            0    1937.2172     17.67321    20.816707    21.561275    7932.3511     2816.609    685.32092    2309.7217   -2.8385389    40.581304   -310.44244     -3466.82 
19265000    216.94906   -4050.2865   -3678.4432   -4050.2865            0    1791.2856    17.651799    20.791487    21.535153     7903.555    532.64171    2424.3791    2416.8361    275.90208    611.22504    313.99393   -3471.9702 
19266000     216.1112   -4037.8325   -3667.4253   -4037.8325            0    1281.6062    17.668165    20.810764     21.55512    7925.5593    2168.7908    709.68835    966.33927    403.62284    171.90635   -1755.9891   -3519.2894 
19267000    227.96047   -4061.0839   -3670.3674   -4061.0839            0    1136.5012     17.74988    20.907014    21.654812    8036.0357    827.08669    1431.1359    1151.2811    60.018185    331.66485   -430.72224   -3537.1725 
19268000     215.7699   -4065.4461   -3695.6238   -4065.4461            0    2822.6189    17.655328    20.795644    21.539459    7908.2966    2741.9162    3204.5385    2521.4018   -478.25806    4.4324329    232.85641   -3370.0788 
19269000    220.09122   -4049.8531   -3672.6243   -4049.8531            0    1751.3031    17.665207     20.80728    21.551511     7921.579    453.44415    2006.1007    2794.3644   -156.06799     54.36518   -1533.7701   -3470.2996 
19270000    220.86764   -4078.6753   -3700.1157   -4078.6753            0    2475.3385    17.620749    20.754914    21.497272    7861.9206    2759.1682    1805.2098    2861.6375    565.29144      1129.34    958.75729   -3416.2983 
19271000    216.91942   -4070.7955    -3699.003   -4070.7955            0    2326.9724     17.63222    20.768426    21.511267    7877.2848    1688.0184    2073.8386    3219.0604   -204.61346   -210.36611   -378.56282   -3431.6755 
19272000     219.1152   -4029.5385   -3653.9826   -4029.5385            0    3077.0691    17.616334    20.749715    21.491887    7856.0134    2158.5359    4145.4115      2927.26    882.97888   -247.77953   -993.60439   -3301.4369 
19273000    205.40609    -4047.576    -3695.517    -4047.576            0    1923.0762    17.628303    20.763813    21.506489    7872.0369    2472.6017    2115.7619    1180.8651   -139.70472    653.74038    -517.9663   -3474.7371 
19274000    230.67775   -4025.2236   -3629.8499   -4025.2236            0      2775.68    17.651617    20.791273    21.534931    7903.3106    3750.3215    2091.5398    2485.1786    897.55422   -685.04895   -1256.0702   -3309.9203 
19275000    218.46326   -4038.5293   -3664.0908   -4038.5293            0    2541.2819    17.654418    20.794572    21.538348    7907.0737    1811.0175    3135.2536    2677.5746     132.9657    1136.9842   -555.01151   -3371.0389 
19276000    236.50833   -4037.4366   -3632.0694   -4037.4366            0     4785.698    17.601993    20.732822     21.47439     7836.842    6359.8585     4515.663    3481.5725    410.14229    262.62721   -726.73848   -3085.1009 
19277000    224.18846   -4019.8812   -3635.6299   -4019.8812            0     3544.836    17.637758    20.774949    21.518023    7884.7099    2291.5267     3829.132    4513.8493   -85.138037    539.38461      866.308   -3228.0078 
19278000    212.35611   -4036.6291    -3672.658   -4036.6291            0    1908.7412    17.623813    20.758523     21.50101    7866.0227    1767.6105    3241.9893    716.62388   -358.74256   -1660.5847   -970.18937   -3453.6913 
19279000    200.58066   -4028.3353   -3684.5469   -4028.3353            0    3215.2164    17.583096    20.710564    21.451336     7811.629     2441.653    3913.9679    3290.0282    -300.9988    62.657379   -298.69559   -3318.2547 
19280000    228.51345   -4030.0019   -3638.3376   -4030.0019            0    2237.7406     17.61979    20.753785    21.496102     7860.637    2539.7994    1311.5839    2861.8384   -38.335216    1344.7861    1034.5262   -3381.8046 
19281000    209.20719   -3980.5846   -3622.0106   -3980.5846            0    4227.5296    17.539893    20.659677    21.398629    7754.1897    3780.8478    2776.1843    6125.5566   -496.30943    651.92456    483.10027   -3143.9324 
19282000    208.92049   -4007.2135   -3649.1309   -4007.2135            0    3568.5888    17.630143     20.76598    21.508734    7874.5025    2488.7581    3011.4485    5205.5596    2353.4816    635.48119   -271.44423   -3239.3087 
19283000    222.48701    -4034.739   -3653.4039    -4034.739            0    771.25129    17.666983    20.809372    21.553678    7923.9688    867.11372   -247.65857    1694.2987    393.55749    958.94385   -661.39376   -3564.2758 
19284000    216.64744   -4056.7018   -3685.3755   -4056.7018            0    1579.1404    17.578305    20.704921    21.445491    7805.2453    1452.1252    1442.3425    1842.9536   -18.594376    758.97302   -994.79101   -3505.6196 
19285000    209.50278   -4045.5777   -3686.4971   -4045.5777            0    2623.2935    17.570321    20.695518    21.435751    7794.6156    2601.1755    2852.3262    2416.3788    554.97156   -968.06423   -1087.2231   -3388.2903 
19286000    224.58211   -4058.0729   -3673.1468   -4058.0729            0     1120.432     17.58475    20.712513    21.453354    7813.8346    1480.8318    627.67417    1252.7899    -279.6704    818.61349    29.012661    -3545.466 
19287000    214.42628   -4019.8463    -3652.327   -4019.8463            0    4115.2115    17.587653    20.715933    21.456896    7817.7051    5119.6587    4231.8364    2994.1392   -865.97981    1266.4045   -118.08012   -3183.1385 
19288000    221.44558   -4037.5205   -3657.9703   -4037.5205            0     2220.224    17.659389    20.800427    21.544413    7913.7548     2826.355    1563.7485    2270.5686   -484.92556   -306.34262   -1921.1214   -3401.7254 
19289000    229.07168   -4053.5711   -3660.9501   -4053.5711            0    1600.7506    17.631839    20.767978    21.510803    7876.7752    1494.2866    2129.0114    1178.9539   -121.83911   -1281.4101   -170.28248   -3477.0644 
19290000    208.40486   -4014.3515   -3657.1527   -4014.3515            0     3130.573    17.650986     20.79053    21.534162    7902.4635    3453.0139    4182.0482     1756.657   -168.94477    329.10358   -277.72094   -3296.3563 
19291000    222.72256   -4041.2582   -3659.5193   -4041.2582            0    1136.1478    17.657867    20.798635    21.542557    7911.7096    724.67499       492.16    2191.6085    -148.6654    500.66811    846.45475   -3528.4258 
19292000    216.99251   -4024.3528    -3652.435   -4024.3528            0    1722.5287    17.647629    20.786576    21.530066    7897.9555      4146.98    492.55452    528.05161   -958.05078    339.07883   -107.38145    -3454.028 
19293000    230.52537   -4035.7684   -3640.6559   -4035.7684            0    2800.2102    17.610133     20.74241    21.484321    7847.7199    3271.0075    2865.4796    2264.1436   -387.49931   -120.64679    694.55957   -3320.1691 
19294000    220.09605   -4040.4709   -3663.2338   -4040.4709            0    3256.6686    17.578293    20.704907    21.445477    7805.2299    2101.3991    3925.0465    3743.5601    3.9288941    637.57661   -525.86767   -3292.5231 
19295000      209.237    -4071.898    -3713.273    -4071.898            0    743.19331    17.673247    20.816751    21.561321    7932.4011    172.59359    556.06098    1500.9253    92.758658   -1161.5765   -1234.6004    -3627.296 
19296000    221.47945   -4030.3719   -3650.7637   -4030.3719            0    3335.0542    17.593792    20.723163    21.464385     7825.894    2600.1676    3223.2573    4181.7377   -1282.3927    542.43126   -236.79341   -3270.1252 
19297000    201.79635   -4032.5592   -3686.6871   -4032.5592            0    2256.3518    17.614646    20.747726    21.489827    7853.7552    2182.6493    2519.6811     2066.725    137.27338    56.869114   -935.68348   -3428.2469 
19298000     218.3841   -4036.3949    -3662.092   -4036.3949            0    2569.4843    17.620216    20.754287    21.496623    7861.2083    2177.8424    2756.6837    2773.9268   -598.78192   -371.88609   -1066.3969   -3367.5066 
19299000    216.73495   -4031.0518   -3659.5755   -4031.0518            0    2130.1325    17.564392    20.688534    21.428517     7786.727    942.51513     2817.262    2630.6204    1133.0253    949.44963   -568.20365   -3417.6747 
19300000    220.85002   -4038.7558   -3660.2264   -4038.7558            0    3043.2744      17.5682     20.69302    21.433163    7791.7933    3247.5017    2565.0164    3317.3051    1360.8476    152.13768    -527.5734   -3314.4029 
19301000    220.58204   -4023.8655   -3645.7954   -4023.8655            0    3101.6417    17.634956    20.771649    21.514605    7880.9526    2628.6129    2897.3366    3778.9757    1934.1186     1498.179   -1123.9549   -3289.3063 
19302000    219.69182   -4045.5099   -3668.9657   -4045.5099            0    1664.4962    17.683573    20.828913    21.573918    7946.3124    1717.5114     1740.797    1535.1801    364.90534   -184.76149   -359.74747   -3476.0692 
19303000    207.23006   -4032.3623   -3677.1771   -4032.3623            0    1660.4942    17.565025     20.68928     21.42929    7787.5695    2582.4573    1261.4485    1137.5769    366.27609   -556.19778    161.37587   -3488.5886 
19304000    223.68819   -4036.7923   -3653.3984   -4036.7923            0    400.20284    17.680266    20.825018    21.569883    7941.8549    303.69538    261.45709    635.45604    301.47438    2412.2535   -214.18931   -3607.0454 
19305000    214.60247   -4027.7527   -3659.9314   -4027.7527            0    1881.4626    17.648271    20.787332    21.530849    7898.8171    1691.9034    2018.2273    1934.2569    484.79496    28.570154    644.24006   -3443.1942 
19306000    220.08418    -4008.477   -3631.2603    -4008.477            0    2320.1978    17.635846    20.772697    21.515691    7882.1457    1960.9812    2202.0743    2797.5378    131.60786    889.68165    41.461687   -3364.5465 
19307000    223.31264   -4051.0732    -3668.323   -4051.0732            0    1960.9628    17.663834    20.805663    21.549836     7919.732    1071.4631    2685.8469    2125.5784    795.54774    1065.3464   -532.87206   -3441.8295 
19308000    224.29224   -4047.2607   -3662.8315   -4047.2607            0    1726.2974    17.657496    20.798198    21.542104    7911.2111      971.287    1503.5669    2704.0383    44.626149    316.58216    -693.1732   -3463.6566 
19309000    225.37554   -4049.2064   -3662.9204   -4049.2064            0    3110.6515     17.65043    20.789875    21.533483    7901.7163     2579.718    4211.3868    2540.8498   -31.550673    1220.0522   -1082.3809   -3304.4538 
19310000     206.4217    -4052.124   -3698.3243    -4052.124            0    1983.0961    17.601013    20.731669    21.473195    7835.5339    4687.7602    1004.6246    256.90346    435.41334     92.32129    -427.0294   -3471.7095 
19311000    211.76001   -4039.8886   -3676.9392   -4039.8886            0    2461.0362    17.707008    20.856516    21.602508    7977.9465    1914.4633    4351.3216    1117.3238     -2066.56   -578.92599    746.00454   -3390.5972 
19312000    214.23243   -4025.4763   -3658.2893   -4025.4763            0    1603.0408    17.693392    20.840479    21.585897    7959.5567    2328.9243    899.91031    1580.2876   -916.19029   -1613.7659   -942.51457   -3472.2052 
19313000    232.95366   -4041.7313   -3642.4567   -4041.7313            0    2078.0989    17.655196    20.795489    21.539298    7908.1191    2166.9951    2258.8047    1808.4969    -275.8152    34.193063   -173.09615   -3402.7858 
19314000    222.09345   -4053.8628   -3673.2022   -4053.8628            0    2215.1762    17.682643    20.827817    21.572783    7945.0586    1533.1661    1556.0711    3556.2914   -844.89973    170.84186   -823.74974   -3416.5286 
19315000    206.51894   -4060.5447   -3706.5783   -4060.5447            0    2505.5262    17.647357    20.786256    21.529734    7897.5904    2188.6248    2191.8054    3136.1484   -1565.8354   -532.86164   -1116.9782   -3417.9962 
19316000    229.09418   -4053.8696     -3661.21   -4053.8696            0    1055.2284    17.679207    20.823771    21.568591    7940.4285    2303.9301     781.4423    80.312938   -169.89643     730.1233   -990.67062   -3539.0114 
19317000    201.64717   -4061.6776   -3716.0613   -4061.6776            0    1806.6205    17.702783     20.85154    21.597353     7972.237    2756.9972    2053.6245    609.23968    394.91402    644.00963    317.44277   -3506.0111 
19318000    218.29752   -4057.6226   -3683.4682   -4057.6226            0    1250.4216    17.707242    20.856792    21.602793    7978.2626     1320.004    946.31884    1484.9418    118.22303   -1870.0735    346.03748   -3537.9757 
19319000    201.16619    -4061.997    -3717.205    -4061.997            0    1556.7019     17.62885    20.764456    21.507155    7872.7691    1497.2707    851.13747    2321.6976   -1308.5886    67.818545   -523.20703   -3538.4703 
19320000    216.85869   -4046.5661   -3674.8778   -4046.5661            0    3480.1461    17.632291     20.76851    21.511354    7877.3803    3406.9607    3323.8245    3709.6532    64.871395   -175.45878    1240.2337   -3275.0664 
19321000    215.81827    -4049.678   -3679.7729    -4049.678            0    2259.0958    17.650356    20.789788    21.533393    7901.6174    1950.5603    2490.2378    2336.4892    238.66208    4.9980309   -1255.6381   -3419.4415 
19322000    232.61778   -4024.8276   -3626.1287   -4024.8276            0    1575.3153    17.676735    20.820859    21.565575    7937.0976     2796.953     1474.704    454.28883    962.63857    797.69316    988.55138    -3443.779 
19323000    218.31314   -4077.6026   -3703.4213   -4077.6026            0     4037.417    17.630253    20.766109    21.508867    7874.6494    4681.3729    4092.4698    3338.4084   -370.26531   -580.29526    -506.9834   -3239.7495 
19324000    223.49626   -4078.4912   -3695.4262   -4078.4912            0    2102.6293    17.679004    20.823532    21.568344     7940.155    2833.2166    1192.7234     2281.948   -710.38896    112.96987    -129.3089   -3451.9438 
19325000    217.62622   -4056.5621   -3683.5582   -4056.5621            0    2447.2732    17.694568    20.841864    21.587331    7961.1438    3125.4056    1626.6152    2589.7989    -984.8015   -1137.5576    830.65883   -3399.4173 
19326000    223.84665   -4072.1716   -3688.5062   -4072.1716            0    3833.6044    17.595485    20.725157    21.466451    7828.1532    3668.2466    3662.0507     4170.516   -221.43304   -880.28455   -205.95293   -3250.8405 
19327000    215.12678   -4072.5854   -3703.8655   -4072.5854            0    3488.4403    17.671888     20.81515    21.559663    7930.5713     3206.299     2186.115    5072.9068   -631.82217    1473.8961     1952.402   -3300.3951 
19328000    228.03704   -4039.0755   -3648.2278   -4039.0755            0    1622.0566    17.758919    20.917661    21.665839    8048.3184    1617.0234    1974.2678    1274.8786   -1280.1343   -159.26373    89.515127   -3457.8365 
19329000    224.29159   -4087.9072   -3703.4791   -4087.9072            0    2378.5074    17.713593    20.864273    21.610543    7986.8514    1153.1876    2802.9237    3179.4109   -331.40827   -191.92892   -25.449856   -3426.4304 
19330000    227.11321   -4030.8865   -3641.6222   -4030.8865            0    3411.4349    17.697067    20.844807     21.59038    7964.5173    3168.3081     4780.534    2285.4624    640.39223   -173.47873   -202.76115   -3245.3694 
19331000    219.55189   -4061.9694    -3685.665   -4061.9694            0    3261.6777     17.72162    20.873728    21.620335    7997.7138    3049.1123    3186.1111    3549.8097   -320.17364   -2677.6971    1704.3353   -3305.2279 
19332000    222.11337    -4088.599   -3707.9043    -4088.599            0    1962.2141    17.675014    20.818832    21.563476    7934.7806    2240.5805    1315.7437    2330.3182    44.482117   -868.87136   -911.97017   -3480.8356 
19333000    205.92561   -4062.4256   -3709.4761   -4062.4256            0    2199.9406    17.713578    20.864255    21.610524     7986.831    2655.7429    947.73772    2996.3413    892.12273     883.1838   -2190.0752   -3453.2276 
19334000     233.2778   -4055.7133   -3655.8832   -4055.7133            0     2227.866    17.740728    20.896234    21.643647    8023.6116    3083.9264    2611.5895    988.08205   0.66690098    912.40517   -868.43684   -3395.1869 
19335000     215.2527   -4057.6926   -3688.7568   -4057.6926            0    3239.2145    17.676578    20.820674    21.565384    7936.8861    2087.4031    4643.5227    2986.7177   -1097.6814    178.45267    437.33727   -3313.8134 
19336000     221.0404   -4057.5156   -3678.6599   -4057.5156            0    1745.8512    17.751341    20.908734    21.656594    8038.0195     1611.763    1463.5337    2162.2568     277.5664    478.24979   -440.73831   -3474.0003 
19337000     214.8619   -4073.7027   -3705.4367   -4073.7027            0    2445.5137    17.729907    20.883489    21.630445    8008.9389    2833.6504    2042.4257    2460.4651    478.62669   -476.19505    930.97344   -3419.7954 
19338000    224.40415   -4050.6177   -3665.9966   -4050.6177            0     2857.434    17.685945    20.831707    21.576811    7949.5101    3699.0732    2545.1113    2328.1174   -620.56498    174.62417   -527.30155   -3334.7187 
19339000    208.95651   -4081.9504   -3723.8061   -4081.9504            0    1334.0212    17.734533    20.888937    21.636089    8015.2093    414.61562    696.04728    2891.4006   -203.98057    57.676169    751.05711   -3567.8676 
19340000    215.88369   -4053.2805   -3683.2633   -4053.2805            0    3558.8041    17.694753    20.842082    21.587557    7961.3939    3946.4768    5168.2039    1561.7315   -466.31187    91.507498   -719.63873   -3270.0549 
19341000    211.39787   -4066.5875   -3704.2588   -4066.5875            0    1374.6659    17.785692    20.949195    21.698502    8084.7735    906.58639    862.76597    2354.6454   -101.59983    171.59925   -254.03569   -3542.1745 
19342000    218.63344   -4034.2709   -3659.5406   -4034.2709            0    3093.0835    17.691237    20.837941    21.583268    7956.6493    4049.7987    2231.1829    2998.2689     448.6939    275.87022   -674.46128   -3300.6206 
19343000    211.89841   -4051.7493   -3688.5626   -4051.7493            0    2185.1758     17.74694    20.903551    21.651225    8032.0431    2249.3814    1638.0273    2668.1186   -351.43662    478.20075     -182.292   -3432.5931 
19344000    211.88653     -4042.84   -3679.6737     -4042.84            0    1539.7747    17.764164    20.923839    21.672239    8055.4521    3427.5504    937.73886    254.03476    987.68739    766.58498     895.1469   -3498.7802 
19345000    208.35662   -4041.1153   -3683.9992   -4041.1153            0     1907.694    17.696647    20.844313    21.589868    7963.9507    3105.7761    811.06734    1806.2385    387.54487    2718.5415    607.96807   -3462.4281 
19346000    227.12812   -4042.5903   -3653.3005   -4042.5903            0    2367.2575    17.663443    20.805203    21.549359    7919.2069    3282.7578     1541.138    2277.8766    578.15616   -568.12237    321.00667   -3379.8976 
19347000     217.9418   -4035.9644   -3662.4196   -4035.9644            0    2867.0267    17.641461    20.779311    21.522541    7889.6775    4035.0905    2827.3373    1738.6524   -436.10458    2314.8477     846.7969   -3332.5313 
19348000    210.72241   -4064.9329   -3703.7619   -4064.9329            0    1275.5252    17.674077    20.817728    21.562333     7933.518    783.01314    2308.1391    735.42339    804.80143     699.5631    838.65495   -3556.1808 
19349000    218.23643   -4058.0623   -3684.0125   -4058.0623            0    1985.7432    17.683324     20.82862    21.573614    7945.9771    3682.1489    1840.6237     434.4572   -289.94406    1210.6808   -21.017338   -3453.8968 
19350000    217.60608   -4070.3535   -3697.3842   -4070.3535            0    1353.0733    17.729558    20.883077    21.630019    8008.4655    2476.4149     1377.868    204.93692     1887.854    83.393956    162.95471   -3539.3516 
19351000    213.64887   -4080.5053   -3714.3185   -4080.5053            0    2057.3789    17.693817    20.840979    21.586415    7960.1299    3170.1558    1315.5602    1686.4207    1872.7043    1713.1586   -172.87861   -3475.4767 
19352000    233.35129   -4067.2313   -3667.2752   -4067.2313            0     3290.627    17.656375    20.796878    21.540736    7909.7039    3906.0528    3038.9276    2926.9007    1344.5062    1643.6193    82.369567   -3287.6852 
19353000    218.67813   -4036.9709    -3662.164   -4036.9709            0    3118.0627     17.64492    20.783385    21.526762    7894.3194    5617.3296    1896.2441    1840.6144    120.33067    441.77995    425.39472   -3303.1798 
19354000    214.91178   -4047.4167   -3679.0653   -4047.4167            0    2014.8344    17.668376    20.811013    21.555377    7925.8428    3311.8765    1518.0801    1214.5466   -57.341633    247.19418   -1345.8158     -3446.17 
19355000    222.48724    -4036.343   -3655.0074    -4036.343            0    3227.3196     17.58754    20.715799    21.456757    7817.5536    4090.4084    3172.3988    2419.1515   -333.80028   -159.44148   -607.88739   -3287.0575 
19356000    214.42129   -4068.1959   -3700.6852   -4068.1959            0    2643.4348    17.645184    20.783696    21.527083    7894.6731    2464.6483     3596.828    1868.8281    295.84561   -57.180513   -1900.2728   -3396.3315 
19357000    216.81874   -4064.4047   -3692.7848   -4064.4047            0    2663.8117    17.627651    20.763044    21.505693    7871.1628    2467.3213    2574.2831    2949.8306   -271.42369    831.06922   -351.73391   -3386.9983 
19358000    216.87473   -4043.9884   -3672.2725   -4043.9884            0    2089.8012    17.732821     20.88692       21.634    8012.8876    2461.1716    1376.5926    2431.6395    184.22115    1235.0416   -755.61292   -3428.0589 
19359000    220.10697   -4045.8198   -3668.5639   -4045.8198            0    2862.2331    17.623194    20.757795    21.500255    7865.1942    2343.9401    4003.1535    2239.6057   -33.925233   -316.90792    173.05183   -3340.2492 
19360000     214.5241    -4054.739    -3687.052    -4054.739            0    3305.3956    17.580211    20.707167    21.447817    7807.7852    4135.8668    3371.7499    2408.5701   -517.87934    105.98244    15.323156   -3310.6714 
19361000    220.55606     -4055.12   -3677.0944     -4055.12            0    1082.1843    17.709064    20.858939    21.605017    7980.7266   -780.01202     1885.531    2141.0339    425.85828    271.88985   -976.68346   -3551.1382 
19362000     219.6064   -4062.2576   -3685.8597   -4062.2576            0    645.98394    17.635621    20.772432    21.515417    7881.8449     1230.317    276.97584    430.65901    16.078134   -241.97241    97.856517   -3611.6048 
19363000      216.026   -4049.6746   -3679.4134   -4049.6746            0    2612.6432    17.583044    20.710503    21.451273      7811.56     3737.539    1254.5707    2845.8198   -1409.1292    2868.3081   -1173.3534   -3381.7717 
19364000    233.24934   -4058.8858   -3659.1044   -4058.8858            0    2034.8353    17.684851    20.830418    21.575477    7948.0353    3660.3299    1220.2773    1223.8986    601.70781    2369.3441   -176.37787   -3423.2386 
19365000    220.03623   -4034.1684   -3657.0338   -4034.1684            0    1384.0797    17.610952    20.743376    21.485321    7848.8155    772.99167    2025.8224    1353.4252   -1130.1528    1922.3801   -796.32439   -3498.6025 
19366000    223.41979   -4080.7992   -3697.8653   -4080.7992            0    2642.9892    17.616199    20.749555    21.491721    7855.8321      3254.71      1315.98    3358.2777   -155.39575    417.27217   -201.84758     -3395.06 
19367000    207.29471   -4064.4805   -3709.1844   -4064.4805            0    2922.9109     17.57372    20.699521    21.439897    7799.1397    3521.6282    2834.2306    2412.8737    281.71863    1383.9502   -981.12105   -3376.7254 
19368000    219.11088    -4079.024   -3703.4755    -4079.024            0    1643.5939    17.599307    20.729659    21.471113     7833.255    2060.2891    1975.0427    895.44992   -246.30771     849.6556   -203.56639   -3515.7113 
19369000    218.74015   -4041.4267   -3666.5136   -4041.4267            0    2625.2224     17.62675    20.761983    21.504594     7869.956    5052.5256    2168.2732    654.86846   -362.87085    658.58801   -205.47665   -3365.2031 
19370000    215.78839   -4056.5751   -3686.7212   -4056.5751            0    3324.7693    17.550482     20.67215    21.411547    7768.2422    3236.6828    4326.0848    2411.5402    1608.2137     486.2625   -519.41684    -3310.052 
19371000    213.33141     -4056.32   -3690.6772     -4056.32            0    2582.7036    17.630295    20.766159    21.508919    7874.7061    2236.6066    2331.0683     3180.436   -475.81081   -576.91309    24.029153   -3394.0679 
19372000    224.39131   -4031.7023   -3647.1033   -4031.7023            0    3049.1038    17.566116    20.690565    21.430621    7789.0204    3477.1099    2630.4902    3039.7114    102.54927    69.013779    -54.92906   -3300.7407 
19373000     206.8904   -4042.5738   -3687.9708   -4042.5738            0    3396.7365     17.51085    20.625469    21.363197    7715.7349    4262.1206    2959.7709    2968.3179    58.221497    986.76619     859.5234   -3305.7493 
19374000     223.1729   -4018.6879   -3636.1772   -4018.6879            0    3851.6649    17.519089    20.635172    21.373247      7726.63    4139.1903    4079.9692    3335.8352   -106.97004    -1793.057    1023.1916   -3202.1524 
19375000    226.44917   -4000.7845   -3612.6583   -4000.7845            0    2578.4092    17.561091    20.684646    21.424491    7782.3382    3420.4126    1754.7117    2560.1035   -457.28708   -1180.4886   -1.8105036   -3320.0156 
19376000    219.28034   -4039.5321    -3663.693   -4039.5321            0    1742.3165    17.615217    20.748399    21.490523    7854.5186    920.22181    1430.9607     2875.767    525.54729   -89.435141   -186.13107   -3464.1105 
19377000    221.79843   -4020.8078   -3640.6528   -4020.8078            0    2673.9335    17.596607    20.726478    21.467819    7829.6504    2893.1306    1384.9383    3743.7315    206.53114    1578.2217   -20.598303   -3335.3233 
19378000    228.04759   -4050.7556   -3659.8898   -4050.7556            0    2382.7975    17.573489    20.699248    21.439615    7798.8318    3182.4928    2431.5527    1534.3471    72.486244    580.72114    276.21153   -3388.8753 
19379000     227.5601   -4037.6105   -3647.5802   -4037.6105            0    2833.6882    17.620424    20.754532    21.496876     7861.486    3475.5535     1940.787    3084.7242   -489.33129    566.30352    -403.2811    -3322.693 
19380000    213.46819   -4064.1097   -3698.2326   -4064.1097            0    4090.3803    17.565856    20.690259    21.430304    7788.6748    2837.3047    5219.4628    4214.3734   -76.924642   -166.95673   -117.67933    -3233.607 
19381000    218.53164    -4074.614   -3700.0582    -4074.614            0    3233.4972    17.582153    20.709454    21.450186    7810.3733    2483.9922    3498.7529    3717.7466    318.37631   -649.73313   -8.1554936   -3331.7426 
19382000    221.31142   -4018.1661   -3638.8459   -4018.1661            0    1779.9333    17.642984    20.781105      21.5244    7891.7213    2515.2314    159.45821    2665.1104    1376.3892     181.8597    59.905765   -3433.9886 
19383000    220.55375    -4061.414   -3683.3924    -4061.414            0    1102.0334     17.66437    20.806295     21.55049    7920.4538    1728.5603    625.16697     952.3729    119.86756   -157.51391   -1272.9365   -3556.0947 
19384000    212.59442   -4067.4276    -3703.048   -4067.4276            0     2152.448    17.610763    20.743153     21.48509    7848.5624    3152.2653     1992.457    1312.6216    24.436825   -923.75026   -353.38765   -3456.6719 
19385000    208.53832   -4064.8332   -3707.4057   -4064.8332            0    2040.2137     17.61805    20.751736     21.49398    7858.3092    3106.3727    234.10552    2780.1628    1173.6786   -1074.1256    -189.3317   -3473.5862 
19386000    214.05007   -4041.8023   -3674.9278   -4041.8023            0    1713.5213     17.67859    20.823044    21.567838    7939.5969      1517.71    624.25003    2998.6038   -100.58402   -693.32188   -556.45121   -3476.5177 
19387000     222.4991   -4071.5038   -3690.1479   -4071.5038            0    1051.0266    17.641765    20.779669    21.522913    7890.0856    578.63527    1492.8676     1081.577    1471.2582   -441.70132   -912.72922   -3569.2076 
19388000     231.5296   -4056.7066   -3659.8728   -4056.7066            0    1332.6956    17.667223    20.809655    21.553971    7924.2923    816.66223    1721.5889    1459.8357    1833.7536    273.52843   -581.63216   -3505.8562 
19389000    210.24769   -4078.0808   -3717.7235   -4078.0808            0    2682.1609    17.571478     20.69688    21.437162    7796.1553    1956.2732     3192.846    2897.3633    287.20668   -852.80642   -460.87168   -3412.7647 
19390000    222.08446   -4052.6688   -3672.0236   -4052.6688            0    1550.2313    17.665997    20.808211    21.552475    7922.6421    1018.7444    2516.7262    1115.2233     57.57857    981.21238   -570.74968   -3492.9043 
19391000    208.73776   -4044.5621   -3686.7927   -4044.5621            0    3839.4247    17.516107    20.631661     21.36961    7722.6862    3343.9496    3497.9923    4676.3322    371.53482    789.26426   -530.41679   -3254.3681 
19392000    205.88979   -4038.6941    -3685.806   -4038.6941            0    1884.5731    17.602632    20.733576     21.47517    7837.6966     2260.388    2090.7835    1302.5479    708.51016   -163.66522   -29.571131   -3470.3903 
19393000    216.88396    -4058.992   -3687.2603    -4058.992            0    487.19636     17.68729    20.833291    21.578452    7951.3243    111.73767    994.47389     355.3775    978.66938    148.90356    1197.3265   -3630.7641 
19394000    219.38225   -4051.8012   -3675.7875   -4051.8012            0    2934.8408    17.585715     20.71365    21.454531    7815.1207    2563.5886    4049.8381    2191.0956    1204.7932    395.52799     95.18073   -3341.2875 
19395000    217.69499   -4023.2497   -3650.1279   -4023.2497            0    4333.7273    17.552712    20.674776    21.414267    7771.2031    2515.5281    5816.1898     4669.464     1717.247    264.29317    583.44364   -3158.9648 
19396000    218.07704   -4067.9523   -3694.1758   -4067.9523            0    2061.2154    17.579921    20.706825    21.447463    7807.3989    1227.8802    345.77583    4609.9902   -485.39179   -688.18191   -1485.0858   -3459.4798 
19397000    201.42507   -4060.0787    -3714.843   -4060.0787            0    2695.5178    17.560447    20.683887    21.423704    7781.4815    633.84537    4408.7246    3043.9835   -571.33824    514.21669   -1172.5385   -3408.9424 
19398000     213.6899   -4066.4421   -3700.1849   -4066.4421            0    3834.3953    17.468664    20.575779    21.311729    7660.1038    2753.8402    4079.9792    4669.3664    1443.8291   -254.18057    319.55738   -3271.8264 
19399000    219.87857   -4016.2545   -3639.3901   -4016.2545            0    1694.6652    17.582532      20.7099    21.450647    7810.8771    2287.9905    2479.7332    316.27202    771.95339   -56.087267   -588.60634   -3446.3446 
19400000    214.40169   -4051.9075   -3684.4303   -4051.9075            0    2483.6746    17.623111    20.757697    21.500154     7865.083    2066.3196    1700.9228    3683.7813    451.51181     736.6143   -387.73912   -3399.5425 
19401000    220.82075   -4036.4181   -3657.9389   -4036.4181            0    1299.3629    17.570268    20.695454    21.435685    7794.5441    2944.3645   -130.17696    1083.9011    572.83859    645.82469   -209.70876   -3510.2332 
19402000    208.99589    -4064.017   -3705.8052    -4064.017            0    2162.0057    17.577838    20.704371    21.444921    7804.6232    2796.0042    2031.4165    1658.5964    200.16402   -303.69601   -510.74742   -3459.7205 
19403000    223.39598   -4063.4457   -3680.5527   -4063.4457            0    1973.6035    17.577173    20.703588     21.44411    7803.7379    1357.3714    1260.7021     3302.737    790.26785    962.82122    222.70624   -3455.9378 
19404000    215.58996   -4071.8378    -3702.324   -4071.8378            0    1140.3428    17.523617    20.640507    21.378772    7732.6237    1306.1343    -326.3611    2441.2551    318.24249    -230.0649   -252.65254   -3573.7248 
19405000    214.08463   -4064.1102   -3697.1765   -4064.1102            0    636.32753      17.5706    20.695846    21.436091    7794.9864    443.78166    -200.7056    1665.9065   -29.002909   -790.07852   -23.641775   -3624.8376 
19406000     215.1944   -4085.1432   -3716.3074   -4085.1432            0    2142.2762    17.556817    20.679611    21.419275    7776.6564    3510.4149    2100.1087    816.30516     123.0125   -186.34108   -1614.5784   -3473.3421 
19407000      219.784   -4067.8007   -3691.0985   -4067.8007            0    1051.2579    17.541408    20.661462    21.400477    7756.1996    2623.7778    -124.1391      654.135    -878.2896   -932.03403    -1658.473   -3572.1841 
19408000    223.78974   -4077.5623   -3693.9944   -4077.5623            0     1265.818    17.593669    20.723018    21.464235    7825.7297    500.46099    1035.6273    2261.3658   -298.47915   -203.29733   -367.54969   -3549.5263 
19409000    214.51724   -4055.1648   -3687.4895   -4055.1648            0    2082.9392    17.596818    20.726728    21.468077    7829.9329    1674.9983    1169.7409    3404.0784   -322.33786   -807.55142   -111.18754   -3449.6355 
19410000     226.7271   -4046.6411   -3658.0386   -4046.6411            0    1472.0294    17.633573     20.77002    21.512918    7879.0995    2278.4504    882.61311    1255.0245   -48.809769    544.01395   -1099.7379   -3488.8898 
19411000      211.446   -4077.2678   -3714.8566   -4077.2678            0    2521.9845     17.58954    20.718155    21.459198    7820.2215    2006.8163    3780.6786    1778.4587    972.17283   -931.32868   -630.72427   -3427.2245 
19412000    209.34755   -4057.6902   -3698.8756   -4057.6902            0    2267.8295    17.606501    20.738132     21.47989    7842.8648    834.57322    2517.9472     3450.968    371.23796   -312.42866    61.158907    -3439.481 
19413000    220.44209    -4057.514   -3679.6838    -4057.514            0    4294.1536    17.530572    20.648698    21.387257    7741.8338    5615.5245    3541.3499    3725.5864   -1060.9662    130.82836   -671.58616   -3194.8451 
19414000    215.43694   -4061.9958   -3692.7443   -4061.9958            0    1481.3502     17.60265    20.733596    21.475191    7837.7196     2513.344    545.74551    1384.9611   -145.46952   -1586.8397    166.66863   -3523.4184 
19415000    209.29718   -4042.8502    -3684.122   -4042.8502            0    1589.9247    17.584303    20.711987    21.452809    7813.2386    1833.2379    1614.4108    1322.1255    792.29491    40.669134   -474.44523   -3502.9532 
19416000    211.78921   -4021.9292   -3658.9298   -4021.9292            0    2865.8276    17.528797    20.646608    21.385092    7739.4827    3336.8288    1395.2837    3865.3702    211.65207   -726.82892    379.72976   -3335.4569 
19417000    210.76652   -4063.3942   -3702.1476   -4063.3942            0    1327.8946    17.555259    20.677776    21.417375    7774.5869     653.5884     1397.452    1932.6435    106.03017   -1304.4433   -227.76112   -3551.5851 
19418000    225.56989   -4032.1208   -3645.5017   -4032.1208            0    952.37236    17.602851    20.733833    21.475437    7837.9884    1673.8677    128.92266    1054.3267   -139.20832   -679.22454   -223.61806    -3536.637 
19419000    224.62485   -4032.7281   -3647.7288   -4032.7281            0    3666.0732    17.547158    20.668235    21.407492    7763.8291    2785.4831    2419.1389    5793.5974    -156.2533   -537.08988     310.6107   -3232.6285 
19420000     217.1634   -4037.2095   -3664.9989   -4037.2095            0    2395.8241    17.527002    20.644494    21.382902    7737.1055    3216.2831    974.24972    2996.9394   -493.94152   -51.123555    412.41622   -3394.6595 
19421000    216.67215   -4047.8804   -3676.5117   -4047.8804            0    1040.2742    17.494816    20.606582    21.343634    7694.5586    1571.3183     362.8435    1186.6609   -372.17626   -706.22184    643.63585    -3559.775 
19422000    210.50162   -4044.6989   -3683.9063   -4044.6989            0    644.22325     17.58641    20.714468    21.455379    7816.0466    44.060915    822.65269    1065.9561   -843.27941   -1375.7054    90.838393    -3610.472 
19423000      220.429    -4053.381   -3675.5732    -4053.381            0    2913.7783    17.552071    20.674021    21.413485    7770.3515    3635.1032    2649.9448    2456.2869   -624.65122   -160.43993    40.181843   -3345.3763 
19424000    224.14981   -4069.8767   -3685.6915   -4069.8767            0    1677.3232    17.538526    20.658067     21.39696    7752.3762    1993.7449    460.98564    2577.2391    661.42018   -214.82348   -42.277078   -3496.0526 
19425000    222.84632   -4027.6929   -3645.7419   -4027.6929            0    1361.8722    17.494245    20.605909    21.342937    7693.8049    1664.0997    928.24684    1493.2701   -1166.0971   -1224.7078   -505.06019   -3492.9313 
19426000    219.13881   -4045.9231   -3670.3267   -4045.9231            0    2052.7482    17.445067    20.547985    21.282941    7629.1037    1780.6288    3341.1371    1036.4785    522.37409    48.695974   -323.72433   -3441.9325 
19427000    220.10772   -4009.1948   -3631.9377   -4009.1948            0    2797.2278    17.480853    20.590135    21.326599    7676.1496    3515.2259    1946.1562    2930.3012     1104.016   -611.73169   -493.16151   -3318.7915 
19428000    222.88725    -4021.727   -3639.7059    -4021.727            0    1572.6018    17.546963    20.668004    21.407253    7763.5695    2588.6174     1601.574    527.61383    687.96579   -384.32333    255.39529   -3461.6501 
19429000    216.63701   -4027.1939   -3655.8855   -4027.1939            0    1329.2134    17.550393    20.672044    21.411438    7768.1232    1254.8636    932.27957     1800.497    198.62484   -1178.1715     -462.242   -3505.2987 
19430000    214.24853   -4038.6796   -3671.4649   -4038.6796            0    1271.5374    17.562439    20.686233    21.426135    7784.1301    1232.0401     1473.711    1108.8612   -525.55629   -1468.0132    763.60238   -3527.1155 
19431000     213.4267   -4027.1804   -3661.3743   -4027.1804            0    1359.5528    17.572092    20.697604    21.437912    7796.9729    721.62624    2349.5725    1007.4597    61.844251   -77.611026   -1220.5624   -3506.7784 
19432000    229.74429   -4021.6306   -3627.8567   -4021.6306            0    1705.1091    17.557534    20.680456    21.420151      7777.61    1365.4248    2578.8186     1171.084     552.7152    443.93049   -112.69217   -3434.4488 
19433000    212.78096   -4034.2028   -3669.5035   -4034.2028            0    143.40326    17.630341    20.766213    21.508974    7874.7668   -678.60767    319.35233    789.46512    538.29329    460.28249    -340.0588   -3653.0343 
19434000    211.26933   -4038.3142   -3676.2058   -4038.3142            0    3966.2629    17.559395    20.682647     21.42242    7780.0826    4123.7889    3042.7656    4732.2343     -53.5379    552.10658    441.80943   -3226.1757 
19435000    221.27514   -4002.2859   -3623.0278   -4002.2859            0    2045.8553    17.546557    20.667526    21.406759     7763.031    1655.7061    2343.9402    2137.9195    209.12368   -228.39387   -130.92533   -3391.4046 
19436000    220.70722   -4002.3515   -3624.0668   -4002.3515            0    2849.4131    17.541658    20.661756    21.400782    7756.5303     2655.287    2641.9366    3251.0159    415.60787   -50.588862     616.9274   -3301.7383 
19437000    207.60642   -4010.9241   -3655.0938   -4010.9241            0    2402.5091    17.562275     20.68604    21.425935     7783.912    1320.6974     4425.785    1461.0449   -141.16828   -176.70606    1003.2564   -3382.3601 
19438000    220.56215   -4002.4665   -3624.4305   -4002.4665            0    2735.9131    17.613976    20.746937    21.489009    7852.8587    3292.7305    2762.2999    2152.7088   -349.72553    146.73469    113.92604   -3311.0976 
19439000    208.58029   -4030.0594   -3672.5599   -4030.0594            0    1588.6997    17.637392    20.774518    21.517577    7884.2195    1719.0097    1325.3057    1721.7836   -319.96519    205.83893    180.65705    -3489.886 
19440000    217.57218   -3984.4785   -3611.5672   -3984.4785            0    3751.4174    17.604685    20.735994    21.477675    7840.4388    4042.0746      3560.88    3651.2976    1109.6505    746.15744    269.17784   -3182.6123 
19441000    215.12106   -4017.9482   -3649.2381   -4017.9482            0    2491.1648    17.695017    20.842392    21.587879    7961.7498    2612.7758    1985.0664    2875.6521   -1145.7788   -33.858215    368.05766   -3359.9791 
19442000    221.32069   -4029.5841    -3650.248   -4029.5841            0    1582.4655    17.699352    20.847499    21.593168    7967.6029     1665.023    500.50189    2581.8717    -27.69923    1277.8714   -597.37436   -3466.3666 
19443000    211.23018   -4010.7442   -3648.7029   -4010.7442            0    1596.3528    17.685478    20.831157    21.576242     7948.881    729.91601    1551.5049    2507.6375   -495.75802    423.80612   -490.75039   -3463.6437 
19444000    230.63317   -4025.0229   -3629.7256   -4025.0229            0     1734.116    17.657853    20.798618    21.542539    7911.6899    1528.7107    1563.2549    2110.3825   -1300.9712     1009.613    398.39565   -3429.6365 
19445000    214.17278   -4024.8713   -3657.7865   -4024.8713            0    1782.8609     17.72149    20.873575    21.620177    7997.5377    1510.9779    474.86569     3362.739    214.82176    102.00869   -1808.7356   -3449.8409 
19446000    210.68805   -4003.8989   -3642.7868   -4003.8989            0    1413.1246    17.741309    20.896919    21.644356    8024.4006    1969.7421    1862.8312    406.80063    823.96767    437.29582   -736.33345   -3477.4121 
19447000    224.72682   -4041.9033   -3656.7292   -4041.9033            0    1460.5531    17.690114    20.836618    21.581898    7955.1339   -228.34864    627.53484     3982.473    634.73818    378.61343   -580.97551   -3487.2796 
19448000    208.77586   -4007.6541   -3649.8195   -4007.6541            0    694.71691    17.744539    20.900723    21.648296    8028.7835    1306.0798     399.5492    378.52176   -1117.0455    386.92094    9.4345908    -3568.474 
19449000    230.64614    -4030.871   -3635.5514    -4030.871            0    2691.5902      17.6521    20.791842    21.535521    7903.9601    1813.7551    2008.6568    4252.3586    80.656075    -990.5056    176.87701   -3325.2888 
19450000     210.6886   -4019.1741   -3658.0611   -4019.1741            0    1348.6923     17.67285    20.816283    21.560836    7931.8661     1363.382    1715.5805    967.11457    823.16495    30.411664    334.53598   -3502.0468 
19451000     221.3782   -4026.5764   -3647.1417   -4026.5764            0    2623.1186    17.587349    20.715574    21.456524    7817.2988    2973.7156      1144.96    3750.6802   -61.370221    1079.2528    490.75404   -3348.0871 
19452000    225.64154    -4034.774   -3648.0322    -4034.774            0    2134.4678    17.593912    20.723305    21.464532    7826.0542    1034.6891    3173.8251    2194.8894   -229.85319      166.208    945.13645   -3404.4147 
19453000    209.87114    -4034.481    -3674.769    -4034.481            0    4169.4235    17.585466    20.713356    21.454227    7814.7884     2696.281    6549.2677    3262.7218    -904.8027   -572.02749    525.59426    -3199.577 
19454000     211.7157   -4031.2191   -3668.3456   -4031.2191            0    3161.8678    17.580072    20.707003    21.447647    7807.5996    2899.5479    3067.4326    3518.6229   -602.54212    332.56383    684.38549   -3308.3169 
19455000    209.77962   -4042.5605   -3683.0054   -4042.5605            0     3595.067    17.534355    20.653154    21.391872     7746.847    3964.5724    2914.5078    3906.1208   -805.02529    -513.2585    -69.76865   -3276.8354 
19456000    219.41323   -4060.4086   -3684.3418   -4060.4086            0    1435.8285    17.609819    20.742041    21.483938    7847.3002      2161.76    2337.8053   -192.07971      233.668    741.05378   -217.61609   -3520.0187 
19457000    214.51156   -4034.6529   -3666.9874   -4034.6529            0    1526.8795    17.625298    20.760273    21.502822    7868.0117     2177.489    828.97353    1574.1761    62.863252   -365.08493    423.57639   -3491.7828 
19458000    219.32325   -4024.9214   -3649.0089   -4024.9214            0    2858.7065    17.652994    20.792896    21.536612    7905.1614    1856.0851    3221.0131    3499.0212    87.550632   -125.96435    1476.4836   -3319.4324 
19459000    213.29849   -4026.3914   -3660.8051   -4026.3914            0     2640.746    17.585826     20.71378    21.454666     7815.268    2525.2762     1702.372    3694.5897     594.3228   -561.73855    833.08328    -3359.819 
19460000    224.85046   -4011.3477   -3625.9617   -4011.3477            0    3292.8537    17.600651    20.731242    21.472754    7835.0507    2323.2862    4392.3043    3162.9705   -358.44607    1234.1848    217.36202   -3249.6999 
19461000    222.63196   -4045.6899   -3664.1064   -4045.6899            0    3139.4351     17.62019    20.754257    21.496591    7861.1731    3606.1116    3182.0795    2630.1144   -451.43032    784.67609   -468.81461   -3304.1791 
19462000    213.60519   -4023.9858   -3657.8738   -4023.9858            0    2981.1468     17.66229    20.803845    21.547953    7917.6559    4096.5368    3341.9706    1504.9331   -86.734963   -686.21938    27.125381   -3313.6381 
19463000    231.47673    -4038.075   -3641.3318    -4038.075            0    2375.4626     17.67333    20.816848    21.561421    7932.5119    3212.4886    2905.0749    1008.8244    65.119538   -84.818928     958.7128   -3366.5204 
19464000    212.01721   -4035.5814   -3672.1912   -4035.5814            0    2085.3377    17.694418    20.841687    21.587148     7960.941    2980.9634    1650.5552    1624.4945   -66.169647    1417.7113    788.56232    -3430.079 
19465000    213.01248    -4078.527   -3713.4309    -4078.527            0    574.87688    17.752493    20.910092       21.658    8039.5851    137.71646    593.30196    993.61221   -234.01011    275.27238   -142.12921   -3646.0271 
19466000    210.16414   -4029.2554   -3669.0412   -4029.2554            0    112.56798    17.763802    20.923412    21.671796    8054.9588   -937.94996     816.0717    459.58219    462.91028    486.64639   -770.64068   -3655.8175 
19467000    208.32768    -4041.752   -3684.6855    -4041.752            0    2487.9386    17.657549     20.79826    21.542168    7911.2816    2192.4039    3250.2918      2021.12   -229.02341    301.87249   -892.84529   -3397.6323 
19468000    223.95613   -4033.3455   -3649.4923   -4033.3455            0    1526.1484    17.713842    20.864566    21.610846    7987.1879    1787.6249    1303.6797    1487.1406    60.862909    327.62094    561.18766    -3471.719 
19469000     222.6726   -4022.2143   -3640.5611   -4022.2143            0    3086.1231    17.648716    20.787856    21.531392    7899.4152    3107.5379    2941.9241    3208.9073    984.74455   -804.81458    145.33056   -3285.0247 
19470000    215.15867   -4048.6316    -3679.857   -4048.6316            0    3551.4935    17.625316    20.760294    21.502844    7868.0354    3632.8869    2992.9394     4028.654    613.09705   -448.21626    1338.6108    -3272.333 
19471000    220.45458   -4044.5675   -3666.7159   -4044.5675            0    2615.7924    17.701302    20.849796    21.595547    7970.2367    4682.4003   -561.67838    3726.6551    230.94973    34.989216   -737.87258   -3362.6622 
19472000    214.95772   -4031.9094   -3663.4792   -4031.9094            0    3118.6397    17.660003    20.801151    21.545163    7914.5813    2239.0765     4186.349    2930.4938   -108.39041    851.94382    -304.3729    -3303.507 
19473000    217.45086   -4044.1261   -3671.4227   -4044.1261            0    2096.0193    17.695592     20.84307     21.58858    7962.5258    1110.1266    2330.5795    2847.3517    304.95081   -95.826645   -998.12659   -3428.0219 
19474000    217.49808   -4033.1892   -3660.4049   -4033.1892            0    2168.5603    17.722408    20.874656    21.621296    7998.7804    2133.1075    1584.5274    2788.0458   -280.05868    1041.6929   -404.51707   -3407.4337 
19475000     221.2009   -4060.0846   -3680.9538   -4060.0846            0    1397.2332    17.734467     20.88886    21.636009      8015.12    2150.1502    1457.5383    584.01102   -333.70555   -463.52768   -354.02304    -3517.628 
19476000    212.69538   -4031.8164   -3667.2638   -4031.8164            0    1563.5715    17.740837    20.896363     21.64378    8023.7595    1414.6731    1155.7147    2120.3268    1517.8554    823.29466   -227.18419   -3484.2974 
19477000    216.19745    -3982.779    -3612.224    -3982.779            0     1716.803    17.742879    20.898768    21.646271    8026.5306     2504.678    1248.4199    1397.3113    820.45491    82.781167   -1262.5075   -3411.2572 
19478000    238.27612   -4057.4798   -3649.0827   -4057.4798            0    2519.2213    17.708576    20.858363    21.604421    7980.0659     1380.091    3061.1924    3116.3805    628.49927    404.48572   -476.34783    -3355.893 
19479000    224.19427   -4044.6648   -3660.4034   -4044.6648            0    2295.6499    17.723573    20.876028    21.622718    8000.3582    1444.5055    3345.7872     2096.657    948.94685    1220.1279   -841.31111   -3392.5539 
19480000    226.39917   -4020.7823   -3632.7419   -4020.7823            0    1480.7761    17.720966    20.872957    21.619537    7996.8283    119.28012    3596.1884    726.85979    -598.6944     175.4528    -1849.906   -3460.0456 
19481000    234.17289    -4065.583   -3664.2187    -4065.583            0    1150.8364    17.731718    20.885622    21.632655    8011.3936    1108.6914    1076.8253    1266.9926   -352.79092    520.55763   -407.09052   -3529.7573 
19482000    218.19803   -4052.1212   -3678.1372   -4052.1212            0    1125.7736    17.725185    20.877926    21.624684    8002.5406    789.62264    1989.2908    598.40733    902.63367   -261.13017   -445.55152   -3546.7495 
19483000    215.36206   -4057.9422    -3688.819   -4057.9422            0    1979.3203    17.657727     20.79847    21.542386    7911.5211     2385.254    1858.4527    1694.2543    199.10883   -343.25766   -265.47683   -3460.4422 
19484000    225.13913   -4043.3292   -3657.4484   -4043.3292            0    3268.8084    17.648307    20.787374    21.530893    7898.8659    2627.5037    3866.4366    3312.4851   -318.49028   -4.3842585   -1072.6684    -3280.892 
19485000    210.37629   -4051.6723   -3691.0945   -4051.6723            0    3191.4692    17.617858    20.751509    21.493745     7858.052    2769.0091    4133.0718    2672.3267    460.32512   -861.84676   -169.48481   -3325.3469 
19486000     213.3148   -4035.1674   -3669.5532   -4035.1674            0     3040.762    17.593384    20.722682    21.463887    7825.3487    2271.5895    3317.1672    3533.5294    110.74596   -1133.3331     509.5558   -3322.5272 
19487000    208.91314   -4032.4538   -3674.3838   -4032.4538            0     3126.513    17.654888    20.795127    21.538923    7907.7062    4281.7127    3558.4724    1539.3539    162.37695    71.799751    186.11303   -3313.8162 
19488000    218.53912   -4028.3462   -3653.7777   -4028.3462            0     3161.586    17.630377    20.766256    21.509019    7874.8158    2887.9484    3434.0243    3162.7853   -441.20057   -725.58815   -1704.1184   -3290.6818 
19489000    213.91734   -4021.5933   -3654.9462   -4021.5933            0    3031.4776    17.593893    20.723282    21.464508    7826.0287    2386.2505    1962.6688    4745.5135   -1005.9963    1134.2486   -583.72537   -3308.9498 
19490000    221.60298   -4018.7858   -3638.9658   -4018.7858            0    2616.7856     17.58159    20.708791    21.449499    7809.6228    2536.6305      1796.47    3517.2562    237.52003    61.639293   -1684.2697   -3340.9261 
19491000    197.67191    -3994.543   -3655.7401    -3994.543            0    1937.2382    17.622408    20.756869    21.499297    7864.1422    1862.5929    822.48944    3126.6322   -117.03086    78.222189     487.3624   -3433.5574 
19492000    212.58538   -4008.0895   -3643.7254   -4008.0895            0    1435.1565    17.650075    20.789457     21.53305    7901.2402    2145.9736    312.52628    1846.9696    1052.8938    137.35221   -29.609492   -3478.3502 
19493000     217.2218   -4005.7027    -3633.392   -4005.7027            0    3063.2873    17.658041     20.79884    21.542769    7911.9434     2094.744    3877.2785    3217.8395   -555.82647     163.8955   -1479.1508   -3279.9267 
19494000     218.4228   -4023.0424   -3648.6732   -4023.0424            0    1374.7306     17.63316    20.769533    21.512414    7878.5448   -40.382992    3167.9018    996.67312    1460.8425   -108.67132   -431.71978    -3490.716 
19495000    230.76059   -4021.7217    -3626.206   -4021.7217            0    1295.1832    17.702592    20.851315    21.597121    7971.9794    1147.2037    1864.3867    873.95914   -1031.3001    489.32235   -42.735339   -3475.6239 
19496000    218.46835   -4035.1866   -3660.7393   -4035.1866            0    2097.1178    17.647685    20.786642    21.530135    7898.0311     1564.791     2820.538    1906.0245    682.37669    583.73984   -198.16044   -3419.1835 
19497000    214.62426   -4023.4496    -3655.591   -4023.4496            0    3347.0657    17.619286    20.753191    21.495487    7859.9625    3502.1059    2206.2264    4332.8649   -105.12923   -1070.3077   -491.56176   -3271.9185 
19498000    221.79416   -4007.2149   -3627.0673   -4007.2149            0    3115.0656    17.659148    20.800144    21.544119    7913.4313    2595.8229    3110.1038    3639.2702   -84.607145     1645.662    1456.6827   -3267.5598 
19499000    203.64518   -4023.5503   -3674.5095   -4023.5503            0    1740.4006    17.702036     20.85066    21.596443    7971.2284    1488.3693    2429.5738    1303.2586   -583.90799   -184.68858    1093.2926   -3472.1841 
19500000    220.69772   -4004.1832   -3625.9148   -4004.1832            0    2416.2137    17.647721    20.786684    21.530178    7898.0792    2833.9729     1596.328    2818.3402    117.38888   -1524.8431   -251.75784   -3347.6023 
Loop time of 543.977 on 64 procs for 250000 steps with 864 atoms

Performance: 79.415 ns/day, 0.302 hours/ns, 459.579 timesteps/s
99.1% CPU use with 64 MPI tasks x 1 OpenMP threads

MPI task timing breakdown:
Section |  min time  |  avg time  |  max time  |%varavg| %total
---------------------------------------------------------------
Pair    | 17.972     | 23.756     | 32.097     |  53.5 |  4.37
Bond    | 0.28331    | 0.2954     | 0.30707    |   1.0 |  0.05
Kspace  | 248.3      | 256.35     | 276.84     |  37.4 | 47.13
Neigh   | 3.2313     | 3.8468     | 5.3412     |  26.8 |  0.71
Comm    | 106.01     | 126.42     | 136.91     |  64.2 | 23.24
Output  | 1.5291     | 1.5309     | 1.554      |   0.3 |  0.28
Modify  | 120.65     | 123.79     | 128.62     |  15.3 | 22.76
Other   |            | 7.988      |            |       |  1.47

Nlocal:        13.5000 ave          20 max           9 min
Histogram: 7 8 4 10 12 12 7 3 0 1
Nghost:        2052.64 ave        2104 max        2018 min
Histogram: 7 12 5 6 11 10 7 1 1 4
Neighs:        3909.30 ave        5629 max        2551 min
Histogram: 3 8 9 10 14 3 5 6 5 1

Total # of neighbors = 250195
Ave neighs/atom = 289.57755
Ave special neighs/atom = 2.0000000
Neighbor list builds = 8558
Dangerous builds = 0

unfix		3
unfix		2
unfix		1

write_data	data.final.${pid}
write_data	data.final.0
System init for write_data ...
PPPM initialization ...
  extracting TIP4P info from pair style
  using 12-bit tables for long-range coulomb (../kspace.cpp:340)
  G vector (1/distance) = 0.37261573
  grid = 24 24 25
  stencil order = 5
  estimated absolute RMS force accuracy = 0.0032594187
  estimated relative force accuracy = 9.8156425e-06
  using double precision FFTW3
  3d grid and FFT values/proc = 2730 288
Last active /omp style is kspace_style pppm/tip4p/omp
WARNING: Not all mixed pair coeffs generated from mixing. Use write_data with 'pair ij' option to store all pair coeffs. (../write_data.cpp:312)

write_restart   restart.lmp.${pid}
write_restart   restart.lmp.0
System init for write_restart ...
PPPM initialization ...
  extracting TIP4P info from pair style
  using 12-bit tables for long-range coulomb (../kspace.cpp:340)
  G vector (1/distance) = 0.37261573
  grid = 24 24 25
  stencil order = 5
  estimated absolute RMS force accuracy = 0.0032594187
  estimated relative force accuracy = 9.8156425e-06
  using double precision FFTW3
  3d grid and FFT values/proc = 2730 288
Last active /omp style is kspace_style pppm/tip4p/omp
Total wall time: 0:09:08
