LAMMPS (30 Jul 2021)
  using 1 OpenMP thread(s) per MPI task
package omp 0
using multi-threaded neighbor list subroutines
echo both

include		in.partitions
variable        pid world 0
include		in.temp
variable        temperature equal 249.74
variable	tempDamp equal 100.0
include		in.pressure
variable        pressure equal 5500.0
variable        pressureDamp equal 1000.0 # This is 1 ps
include		in.seed
variable        seed world 745823

units		real
atom_style	full
box tilt large
read_restart	restart.lmp.${pid}
read_restart	restart.lmp.0
Reading restart file ...
  restart file = 30 Jul 2021, LAMMPS = 30 Jul 2021
  restoring atom style full from restart
  triclinic box = (-10.809931 -9.1853750 0.043889152) to (12.789931 12.175373 21.816110) with tilt (-9.3741747 1.8672065 2.7889913)
  4 by 4 by 4 MPI processor grid
  restoring pair style lj/cut/tip4p/long/omp from restart
  restoring bond style harmonic/omp from restart
  restoring angle style harmonic/omp from restart
  1296 atoms
  864 bonds
  432 angles
Finding 1-2 1-3 1-4 neighbors ...
  special bond factors lj:    0        0        0       
  special bond factors coul:  0        0        0       
     2 = max # of 1-2 neighbors
     1 = max # of 1-3 neighbors
     1 = max # of 1-4 neighbors
     2 = max # of special neighbors
  special bonds CPU = 0.459 seconds
  read_restart CPU = 0.657 seconds
include 	in.setup
variable	out_freq equal 1000
variable	out_freq2 equal 10000
variable	out_freq3 equal 1000

timestep	2.0

neigh_modify    delay 7 every 1

include		in.tip4p
# This is TIP4P/Ice

# create groups ###
group ox type 2
432 atoms in group ox
group hy type 1
864 atoms in group hy

# set charges - beside manually ###
set group ox charge -1.1794
Setting atom values ...
  432 settings made for charge
set group hy charge 0.5897
Setting atom values ...
  864 settings made for charge

# ### TIP3P Potential Parameters ###
pair_style lj/cut/tip4p/long/omp 2 1 1 1 0.1577 8.5
pair_coeff 1 1*2 0.000 0.000
pair_coeff 2 2 0.21084 3.1668
bond_style  harmonic
bond_coeff  1 450 0.9572
angle_style harmonic
angle_coeff 1 55 104.52
kspace_style pppm/tip4p/omp 1.0e-5
pair_modify tail yes

thermo          ${out_freq}
thermo          1000
thermo_style    custom step temp pe etotal epair emol press lx ly lz vol pxx pyy pzz pxy pxz pyz enthalpy

restart 	${out_freq3} restart.lmp.${pid} restart2.lmp.${pid}
restart 	1000 restart.lmp.${pid} restart2.lmp.${pid}
restart 	1000 restart.lmp.0 restart2.lmp.${pid}
restart 	1000 restart.lmp.0 restart2.lmp.0


include         in.dump
dump            myDump all atom ${out_freq2} dump.water.${pid}
dump            myDump all atom 10000 dump.water.${pid}
dump            myDump all atom 10000 dump.water.0
dump            myDump2 all dcd ${out_freq2} dump.dcd
dump            myDump2 all dcd 10000 dump.dcd
dump_modify     myDump append yes
dump_modify     myDump2 append yes


variable natoms 	equal  "count(all)"                        # NUMBER ATOMS
variable H      	equal  "enthalpy/v_natoms"                 # ENTHALPY-per-atom
variable Vol      	equal  "vol/v_natoms"                 # volume-per-atom
fix AVG all 		ave/time ${out_freq} 1 ${out_freq} v_Vol v_H file vol_enthalpy.dat
fix AVG all 		ave/time 1000 1 ${out_freq} v_Vol v_H file vol_enthalpy.dat
fix AVG all 		ave/time 1000 1 1000 v_Vol v_H file vol_enthalpy.dat


timer           timeout 10:00:00 every 1000
New timer settings: style=normal  mode=nosync  timeout=10:00:00

fix 		1 all shake 1e-6 200 0 b 1 a 1
       0 = # of size 2 clusters
       0 = # of size 3 clusters
       0 = # of size 4 clusters
     432 = # of frozen angles
  find clusters CPU = 0.096 seconds
fix             2 all nph tri ${pressure} ${pressure} ${pressureDamp}
fix             2 all nph tri 5500 ${pressure} ${pressureDamp}
fix             2 all nph tri 5500 5500 ${pressureDamp}
fix             2 all nph tri 5500 5500 1000
fix             3 all temp/csvr ${temperature} ${temperature} ${tempDamp} ${seed}
fix             3 all temp/csvr 249.74 ${temperature} ${tempDamp} ${seed}
fix             3 all temp/csvr 249.74 249.74 ${tempDamp} ${seed}
fix             3 all temp/csvr 249.74 249.74 100 ${seed}
fix             3 all temp/csvr 249.74 249.74 100 745823


run             250000
PPPM initialization ...
  extracting TIP4P info from pair style
  using 12-bit tables for long-range coulomb (../kspace.cpp:340)
  G vector (1/distance) = 0.36779423
  grid = 30 40 32
  stencil order = 5
  estimated absolute RMS force accuracy = 0.0043797795
  estimated relative force accuracy = 1.3189576e-05
  using double precision FFTW3
  3d grid and FFT values/proc = 5168 640
Last active /omp style is kspace_style pppm/tip4p/omp
Neighbor list info ...
  update every 1 steps, delay 7 steps, check yes
  max neighbors/atom: 2000, page size: 100000
  master list distance cutoff = 10.8154
  ghost atom cutoff = 10.8154
  binsize = 5.4077, bins = 7 5 5
  1 neighbor lists, perpetual/occasional/extra = 1 0 0
  (1) pair lj/cut/tip4p/long/omp, perpetual
      attributes: half, newton on, omp
      pair build: half/bin/newton/tri/omp
      stencil: half/bin/3d/tri
      bin: standard
Per MPI rank memory allocation (min/avg/max) = 9.434 | 9.440 | 9.445 Mbytes
Step Temp PotEng TotEng E_pair E_mol Press Lx Ly Lz Volume Pxx Pyy Pzz Pxy Pxz Pyz Enthalpy 
18250000    257.71618   -6302.8829   -5639.9237   -6302.8829            0    4324.7525    23.599862    21.360748    21.772221     10975.61    2882.5497    6396.0196    3695.6883     445.9389   -62.397154    211.10601   -4947.6692 
18251000    251.48756   -6338.0032   -5691.0668   -6338.0032            0    5264.1523    23.238935     21.62642    21.675609    10893.618    5779.3008    4675.9785    5337.1776    101.55885    944.17935    434.91236   -4854.7391 
18252000    256.29415   -6336.0456   -5676.7445   -6336.0456            0    5985.3314    23.357248    21.294896    21.842828    10864.408    5986.2759    7385.0565    4584.6619   -184.61119   -869.41285   -759.55887   -4728.3911 
18253000    252.21404   -6324.8466   -5676.0414   -6324.8466            0    7520.1093    23.342307    21.376814    21.665347    10810.665     7668.335    8189.2103    6702.7825    42.519827   -147.30123    474.84437   -4490.4024 
18254000    242.99188   -6349.0546   -5723.9728   -6349.0546            0    4698.4932    23.363282    21.421783    21.835896    10928.498    4710.0676    4039.1581    5346.2539    367.08802    813.34149    130.11528   -4975.1225 
18255000    248.18554   -6332.6163   -5694.1741   -6332.6163            0    3600.9253    23.515663    21.408848    21.824772    10987.535    2700.8284    4258.0765    3843.8711    168.20566     1224.793   -935.84281   -5117.1549 
18256000    262.16344   -6336.6076   -5662.2081   -6336.6076            0    5381.0146    23.511004    21.494352    21.583348    10907.227     5599.765    5036.8677     5506.411    1019.7277    212.93303   -374.79789   -4806.2463 
18257000    253.15904   -6356.8609   -5705.6247   -6356.8609            0    5253.9997    23.231565    21.379802      21.9069    10880.856    5318.4598    5110.7325    5332.8068   -23.458413    1046.3337     304.8504   -4871.8878 
18258000    248.48006   -6314.1813   -5674.9814   -6314.1813            0    5075.7866    23.379139    21.367399    21.837792    10909.099    5080.4357    4919.2795    5227.6445    164.85117    566.65187     477.0125   -4867.4338 
18259000    256.56399   -6302.9732   -5642.9779   -6302.9732            0    5331.6654    23.317193    21.702825    21.580569    10920.824    6236.4226    3708.1772    6050.3965   -595.90065    727.15122    -279.3628   -4793.8088 
18260000    252.60635   -6324.7878   -5674.9733   -6324.7878            0    5841.3886    23.285514    21.488376    21.770108    10893.063    6559.8586     4688.665    6275.6421    -1315.573   -103.98811    191.43236   -4746.9861 
18261000    250.66956   -6329.5577   -5684.7255   -6329.5577            0    6129.3386    23.360779    21.370606    21.826553    10896.557    5341.8504    7342.5385    5703.6267   -1922.6558    257.60535   -123.88348    -4710.681 
18262000    259.35291   -6308.0784   -5640.9088   -6308.0784            0    5429.5787    23.123477    21.700898    21.708101     10893.13    5714.4438    5197.6857    5376.6066   -1351.2411     702.5284    -107.8394   -4778.3381 
18263000     249.8854   -6304.9733   -5662.1583   -6304.9733            0     5627.216    23.481857    21.307237    21.832968    10923.765    6049.7727    6039.1929    4792.6823    344.30467   -104.94256   -167.42603   -4765.6758 
18264000    245.23192   -6345.1294   -5714.2853   -6345.1294            0    6494.8086    23.293085    21.502555     21.69262    10864.984     5848.596    6494.2202    7141.6096    373.45664    465.80633   -503.44404   -4685.1527 
18265000    258.73964   -6349.4531   -5683.8612   -6349.4531            0    5164.7245    23.284498     21.46017    21.817562    10902.002    6834.8331    3831.8642    4827.4763   -9.5332737   -310.91935    902.11378   -4862.6984 
18266000    246.48438   -6320.2782   -5686.2121   -6320.2782            0    5441.7259     23.49739     21.36599    21.735228    10912.063    4769.8246    5356.5803    6198.7728    808.82225    -499.5479   -885.77389   -4820.2091 
18267000    243.44869   -6304.7682   -5678.5113   -6304.7682            0    6456.7089    23.262391    21.630662    21.595992    10866.691    5235.4978    6517.5131    7617.1158   -1010.9519    202.03203    191.29892    -4655.255 
18268000    248.31413   -6360.9957   -5722.2227   -6360.9957            0    5313.9933    23.329577    21.554333    21.708925    10916.408    5415.0768    3970.5446    6556.3584   -638.66443   -583.39387   -393.66353   -4876.2105 
18269000    248.01952   -6327.6122    -5689.597   -6327.6122            0    5979.4201     23.47204     21.21388    21.821635    10865.713    5503.1796     8093.074    4342.0069   -955.72122   -696.56408    -131.8983   -4742.0665 
18270000    243.61403    -6319.955   -5693.2728    -6319.955            0     5110.941    23.044365     21.56846    21.943141    10906.431    6432.6584    5529.4528    3370.7119    7.7405136    183.90895    568.31995    -4880.331 
18271000    255.42747   -6373.9153   -5716.8437   -6373.9153            0    5089.9978    23.498366    21.354955    21.718532    10898.502    4817.2487    5157.9991    5294.7458    105.06953   -237.26535    12.259384   -4907.8218 
18272000    237.42731   -6289.0594   -5678.2921   -6289.0594            0    5074.2945     23.48343     21.58054    21.607344     10950.28    4101.6588    5376.8998    5744.3249    231.34644    1145.0157   -363.62733   -4867.9344 
18273000    244.68683   -6334.4887   -5705.0467   -6334.4887            0    4785.4593    23.276107    21.473351    21.874862    10933.406    6743.7553    3832.2391    3780.3833   -995.47758   -210.95881   -699.21776   -4941.9932 
18274000     261.8041   -6294.4519   -5620.9768   -6294.4519            0    4388.5639    23.497542    21.281985     21.96919    10986.228    5017.7808    5600.6982    2547.2128   -1218.7603   -113.24532   -604.12989   -4917.8285 
18275000    267.73536   -6331.6129     -5642.88   -6331.6129            0    6184.9937    23.191946    21.633374    21.673406    10873.982    6517.3369    5514.3997    6523.2446     454.3971    99.736438   -13.980702   -4662.0273 
18276000    254.87181   -6306.7541   -5651.1119   -6306.7541            0    5416.7065    23.645222    21.310886    21.684719    10926.944    3857.6343    5227.0333    7165.4519     374.4285    21.438776    1318.8613    -4787.915 
18277000    254.61501   -6324.1364   -5669.1548   -6324.1364            0    4377.5611    23.185427    21.587493    21.935105    10978.854    5319.5302    3534.8583    4278.2948    255.30277   -518.94887   -1576.7059   -4968.2401 
18278000    242.68444   -6341.6827   -5717.3918   -6341.6827            0    4769.9637    23.337659    21.450412    21.862211    10944.276    5811.7708    3704.0217    4794.0986   -1617.4857   -78.145184    71.664928   -4956.0529 
18279000    245.39562   -6342.6705   -5711.4052   -6342.6705            0    4101.5992    23.389381    21.441621    21.849475    10957.648    4779.7098    4357.8931    3167.1946   -1124.6989    343.78407    197.59492   -5055.9448 
18280000     259.1955   -6309.1541   -5642.3894   -6309.1541            0    6304.7512    23.202088    21.572282        21.82     10921.39    7277.6452    4959.2131    6677.3954   -97.139356   -472.68118    940.72897   -4638.1859 
18281000     251.9268   -6302.5841   -5654.5178   -6302.5841            0    4623.3662    23.553092    21.358333    21.791391    10962.264    3427.5706    5398.7614    5043.7667   -210.57918    1307.7317    1495.1661   -4915.3647 
18282000    259.52281    -6336.517   -5668.9104    -6336.517            0    4394.3061    23.221826    21.563485    21.854042     10943.27    4631.4766    4369.2303    4182.2114   -305.54625    515.42977    305.56384   -4967.5952 
18283000     256.0693   -6342.6218   -5683.8991   -6342.6218            0    6356.3351    23.309028    21.418553    21.757819    10862.497    5224.2936    6330.4004    7514.3112   -245.19242    1704.6345    615.08553   -4676.9389 
18284000     251.3028   -6348.4339   -5701.9727   -6348.4339            0    6196.0142    23.387505     21.38844    21.733856    10871.758    4998.8658    6263.7072    7325.4696   -1175.3623    707.87728    902.40401   -4719.5734 
18285000    252.31192   -6362.7411   -5713.6841   -6362.7411            0    6668.3379    23.137652    21.537662     21.74047    10833.948    7191.3396    5661.0685    7152.6054   -1208.9384   -610.49399    344.13957   -4660.0732 
18286000    250.07744   -6343.9956   -5700.6866   -6343.9956            0    6175.0252    23.346142    21.278748    21.838776    10848.995    6635.7736     6991.669     4897.633   -182.40646    151.11599    595.37463   -4723.6651 
18287000     250.8029   -6316.5106   -5671.3354   -6316.5106            0    7087.5592    23.211574    21.477969    21.678189    10807.389    7681.0948    7279.1557    6302.4272     396.8094   -266.63579    798.72595    -4554.232 
18288000    253.10084   -6327.3634   -5676.2769   -6327.3634            0    5694.8535    23.248809    21.392643    21.931191    10907.554    6485.6894    5453.2897    5145.5813   -477.83713   -328.55283    268.13961   -4770.3654 
18289000    252.16449   -6342.3064   -5693.6287   -6342.3064            0    3568.1895     23.42671    21.463476    21.876357    10999.839    3990.5468    4218.7605    2495.2613   -216.85278    113.47731   -507.83838   -5121.2148 
18290000    244.48426    -6322.235   -5693.3141    -6322.235            0    5421.1221    23.368547    21.617445    21.599635     10911.45    5831.3373    3576.3244    6855.7046    339.29575    852.46089    249.23867   -4830.6384 
18291000    247.90056   -6336.1855   -5698.4764   -6336.1855            0    4434.5469      23.4886    21.306972    21.833975     10927.27    4443.4622    4411.7281    4448.4503   -207.28406     418.0267   -372.35898   -4991.7737 
18292000    256.26495   -6353.1922   -5693.9663   -6353.1922            0    5317.7736    23.281037    21.493021    21.776101    10896.322    5779.9926    5017.9239    5155.4043    499.78697   -176.16286    695.61895     -4848.91 
18293000    249.86597    -6313.607    -5670.842    -6313.607            0    5325.7017    23.287847    21.507597    21.770708      10904.2    5277.4635    5226.8046    5472.8368    386.56747   -31.918556    1027.5837    -4823.914 
18294000    249.13864   -6319.0483   -5678.1544   -6319.0483            0    5675.1326    23.426444    21.312527    21.765235    10866.875    4541.3124    7329.0379    5155.0476    426.98109    1643.4005   -1044.6396   -4778.7467 
18295000    240.06168   -6366.2094   -5748.6653   -6366.2094            0    5245.1382    23.214317    21.524815    21.792303    10889.263     5612.427    5317.1661    4805.8216   -960.56533    604.94013   -391.35734   -4915.6916 
18296000    246.81686   -6304.8569   -5669.9355   -6304.8569            0    5457.8237    23.339614    21.548945     21.76728    10947.724     6249.858    4091.4203    6032.1927    -18.79887   -323.78919    2131.5402   -4798.5322 
18297000    239.25169   -6320.6957   -5705.2354   -6320.6957            0    5924.0394    23.322907    21.495208    21.691271    10874.501    6168.3601    6336.4021     5267.356   -921.19263   -288.62137   -509.67372   -4765.7216 
18298000    247.03138   -6305.5161    -5670.043   -6305.5161            0    5474.2296     23.32071    21.395253    21.855975    10905.093     5777.897    4890.0902    5754.7016    91.471793    -141.0398   -297.74686   -4799.4237 
18299000    251.78336   -6303.9536   -5656.2563   -6303.9536            0    5653.4752    23.392232    21.402368    21.707962    10868.073    6107.1663    5454.9798    5398.2795   -872.45975   -343.52907   -318.28315   -4760.1822 
18300000    260.02251   -6347.6968   -5678.8047   -6347.6968            0    6852.0277    23.222179     21.51426    21.642213    10812.623    5673.2011     7786.143    7096.7391    788.38812      823.483   -141.02941   -4598.3015 
18301000    257.55939   -6310.2986   -5647.7427   -6310.2986            0    6403.2773    23.332127    21.402568    21.749976     10861.23    5687.4568     7073.515      6448.86    1420.4996    239.12048    99.328505   -4633.4643 
18302000    246.56073   -6348.4482   -5714.1857   -6348.4482            0    5489.3303    23.364374    21.540568    21.708056    10925.271    5027.6672      5672.99    5767.3338    1252.6932    170.96974   -719.81984   -4839.5495 
18303000    243.28201   -6325.1206   -5699.2925   -6325.1206            0    4868.3828    23.440507    21.584487    21.586747    10921.843    4829.8213    4440.5389    5334.7882   -94.731933    841.31587     220.6598   -4923.8376 
18304000    252.54523   -6318.5567   -5668.8995   -6318.5567            0    4521.6145     23.44956    21.462181    21.802577    10972.773    5053.5438    4878.6754    3632.6243   -315.73442   -1127.1699    366.43484   -4945.3207 
18305000    255.82786   -6333.8172   -5675.7156   -6333.8172            0    6433.0769    23.252187    21.510446    21.758872    10883.025     6158.886    6861.1212    6279.2235   -768.68272     1661.063    8.0110338   -4654.6721 
18306000    251.56461   -6287.0684   -5639.9338   -6287.0684            0    6152.6232      23.4926    21.343028    21.709157    10885.042     6347.314    5935.9004    6174.6552   -324.24547   -788.49185    37.050129   -4663.2223 
18307000    248.58451   -6319.1206   -5679.6521   -6319.1206            0    6564.1193    23.133723    21.575332    21.769477    10865.533    7476.5402    5463.7452    6752.0726    45.144783     -1200.22   -75.943568   -4639.4843 
18308000     252.0169   -6335.0676   -5686.7695   -6335.0676            0    6027.0867    23.363726    21.445079    21.705504     10875.26     6641.422     6113.416    5326.4222    1080.2365   -1197.0401    489.55175   -4730.8463 
18309000    251.94956   -6325.7252   -5677.6003   -6325.7252            0    5846.9169    23.393515    21.331913    21.887756    10922.613    5329.0493    7437.4564    4774.2449   -186.66843   -330.19071   -491.35418   -4746.2151 
18310000    249.21314   -6359.8339   -5718.7483   -6359.8339            0    4919.0371    23.170219    21.710116     21.65323    10892.184    5402.3515    3835.8667    5518.8933   -122.93896   -309.28764   -957.00444   -4937.3527 
18311000    244.38194   -6317.0713   -5688.4136   -6317.0713            0    3565.4068    23.728904    21.260225     21.78018    10987.705    1456.1346    5347.0913    3892.9946   -141.84161    325.66014    918.94223   -5117.0771 
18312000    249.99651   -6309.7412   -5666.6404   -6309.7412            0     5650.687    23.171523    21.611019    21.775221    10904.165    6107.1136    6693.4442    4151.5032    182.14745    720.82538   -629.55239   -4768.0339 
18313000    265.58511   -6328.8845    -5645.683   -6328.8845            0    4604.4282     23.50288    21.445057    21.753958    10964.443    3717.3236    4918.1979     5177.763    1599.5996   -1097.4851   -813.80587   -4909.4112 
18314000    249.77851   -6339.2401   -5696.7001   -6339.2401            0    3751.3253    23.425601    21.434598    21.822696    10957.576    4061.8118    4225.7033    2966.4609    146.24985    1126.2385   -717.14324   -5097.2195 
18315000    241.59147   -6361.6814   -5740.2021   -6361.6814            0    5313.9506    23.176451    21.622528    21.720808    10885.024    6337.8837     4112.023     5491.945   -1221.1309    1220.2999   -370.15446   -4896.6288 
18316000    258.02298   -6314.8741   -5651.1257   -6314.8741            0    5588.6898    23.674518    21.278169    21.623547     10892.87    5184.4651     5668.687    5912.9174   -876.84709   -454.09306    93.626597    -4763.299 
18317000    242.98579   -6345.1265   -5720.0604   -6345.1265            0    5558.2817    23.150824     21.59009    21.779762    10886.143    6359.3673    6030.7756    4284.7022   -1337.5341    121.66916   -359.15782   -4837.6096 
18318000    252.52903   -6366.0308   -5716.4153   -6366.0308            0    4343.9462     23.34157    21.498514    21.767209    10922.983    6083.0783    3306.8378    3641.9224   -1453.8134   -1069.0447    282.61648   -5024.4225 
18319000     232.2431   -6339.1868   -5741.7556   -6339.1868            0    4693.8527    23.503274    21.481277    21.700995    10956.405    4923.3937    4775.7844    4382.3799    87.145534   -865.79071    813.98047   -4991.7346 
18320000      244.751   -6328.2157   -5698.6087   -6328.2157            0    5295.0407    23.160283    21.597636    21.848396    10928.729    5545.5156    5570.9551    4768.6514    1037.0366    1157.8522   -524.51679   -4854.6623 
18321000    255.67821   -6342.6133   -5684.8967   -6342.6133            0    4575.5703      23.4249    21.412435    21.753986    10911.454    4176.5939     4300.972    5249.1451    993.07059    1076.8747     909.2975   -4956.7753 
18322000     260.7062   -6292.4356   -5621.7848   -6292.4356            0    5765.5356    23.417594    21.364216    21.806294    10909.657    5733.5799    4741.6568    6821.3699    1058.6676    1288.4851    1008.4639   -4704.4526 
18323000    249.96375   -6357.7342   -5714.7176   -6357.7342            0    4881.8752     23.41785    21.350454    21.794534    10896.869    5926.7589    4744.9146    3973.9521    202.98919   -318.39576   -1293.3363   -4938.8917 
18324000    262.29996   -6367.9963   -5693.2456   -6367.9963            0    6079.3265    23.403214    21.607044    21.495214    10869.577    5937.7319    3735.3649    8564.8827    44.422877    44.043384    1084.8309   -4729.5408 
18325000    250.68514   -6323.1422     -5678.27   -6323.1422            0    6968.1243    23.328286    21.443965    21.680304    10845.593    7308.4393    6502.9031    7093.0304    277.91813   -166.72116   -1112.9818   -4576.1089 
18326000    246.77296   -6314.3825   -5679.5741   -6314.3825            0    6429.7047    23.268732    21.371769    21.826874    10854.373    5719.7753    6261.3439    7307.9949    952.00682    435.03174    1644.6078   -4661.7526 
18327000    252.47241   -6351.5602   -5702.0903   -6351.5602            0    5526.9616    23.383907    21.612394    21.546135    10889.033    5827.5845    4750.2171    6003.0833   -55.068533   -1250.0796    316.99975   -4824.3791 
18328000    254.99562    -6305.498   -5649.5372    -6305.498            0    4049.6253    23.381795    21.565805    21.802991    10994.098    4321.7673    3719.0779    4108.0306   -1161.0021    876.16667   -357.27118   -5000.2299 
18329000    235.59523   -6326.5458   -5720.4914   -6326.5458            0    6016.9302    23.273331     21.41461    21.885044    10907.272    6914.9662    6488.3023    4647.5221    254.36162   -591.90385   -237.43091     -4763.37 
18330000    261.72444   -6318.8387   -5645.5686   -6318.8387            0    5757.4655    23.379867    21.469388     21.71225    10898.495    5364.9987     5940.506    5966.8918   -73.879142    146.24845    424.36186   -4730.4576 
18331000    240.30576   -6322.4569    -5704.285   -6322.4569            0    5595.5733    23.365508    21.321793     21.83121     10876.19    5810.1439    5970.7442    5005.8318   -235.11003    408.13489   -224.13124    -4816.726 
18332000    247.38616   -6344.3633   -5707.9775   -6344.3633            0    5826.5007    23.352461    21.551481    21.673488    10907.836    6683.0233    4894.8819     5901.597     590.2423    875.64113   -499.98049   -4781.1001 
18333000    243.54881   -6312.2438   -5685.7293   -6312.2438            0    6336.1302    23.499326    21.347556    21.593311    10832.353    5139.0051    7197.7374    6671.6483    701.69989   -309.29379   -261.04803   -4684.7553 
18334000     262.2016   -6312.7459   -5638.2482   -6312.7459            0    5000.4225    23.260332    21.499573    21.854154    10928.983    4992.7995    7027.5792    2980.8888    307.00431   -15.743554   -1542.6487   -4841.2409 
18335000    251.44715   -6345.2072   -5698.3747   -6345.2072            0    5645.5286    23.312754    21.511013    21.696945    10880.605    5892.4447    4973.6298    6070.5113    17.087106    488.72787    1056.2041   -4802.5284 
18336000    252.72975   -6352.4866   -5702.3547   -6352.4866            0    4954.6986    23.623058    21.385325    21.589702    10906.832    4125.4223    6325.7751    4412.8986    386.22701   -438.56884   -420.72261   -4914.2358 
18337000    247.45159   -6357.6394   -5721.0853   -6357.6394            0     5224.745    23.099434    21.551703    21.902128    10903.583    6427.4754     5566.564    3680.1956   -910.86834    260.04221     5.064061    -4890.259 
18338000    255.00899   -6337.9675   -5681.9724   -6337.9675            0    4716.6153    23.343418    21.462703    21.869526    10956.914    4855.9221    5459.9684    3833.9553     73.22568    491.78563    272.65248   -4928.2792 
18339000    238.50198   -6351.7429   -5738.2111   -6351.7429            0    5782.8923    23.534194     21.43356    21.488381    10839.203    5083.9814    5360.3197    6904.3758   -695.20866   -829.57403    47.059751   -4824.0593 
18340000     247.6781   -6345.3197   -5708.1828   -6345.3197            0    5753.0496    23.284595     21.57564    21.630479    10866.721    6481.7484    5068.1068    5709.2938   -940.06521    438.16159    286.98167   -4796.4397 
18341000    244.66096   -6346.0665    -5716.691   -6346.0665            0    4979.6608    23.388869    21.282862     21.90265    10902.747    5098.4928    4861.9912    4978.4984   -660.26861    291.75562     30.36629   -4924.8982 
18342000    253.06103   -6334.2764   -5683.2923   -6334.2764            0    5998.4657    23.176322    21.536647    21.821947    10892.212    5909.5073    6209.1902    5876.6997   -201.33137     268.5694   -1094.5835   -4730.4255 
18343000    257.86527   -6353.8979   -5690.5552   -6353.8979            0    5400.1291    23.427926    21.429814    21.703374    10896.311    6896.4557     3996.224    5307.7075     326.1413    520.57165    684.95525   -4832.4125 
18344000    245.98587   -6307.9495   -5675.1658   -6307.9495            0    5476.9259     23.49093     21.43092     21.66783    10908.284    4616.4322    5132.5775     6681.768   -114.73015    67.065712    1268.1496   -4803.8629 
18345000    249.98686   -6376.1124   -5733.0364   -6376.1124            0    5493.9838     23.06821    21.651998    21.706568    10841.841    5954.5063    5793.1775    4734.2676    1076.8457   -287.64084   -805.09197   -4864.3435 
18346000     261.0241   -6332.7946    -5661.326   -6332.7946            0     4433.821    23.472677    21.341279    21.837574    10939.248    4531.6206    4504.9553    4264.8871    -717.5839   -82.671825    167.36863   -4953.9643 
18347000    249.90898   -6339.0762   -5696.2006   -6339.0762            0    5723.8856     23.17616    21.626164    21.710491    10881.546    6710.0977    4353.5687    6107.9903   -407.62744    479.48264    1569.9839   -4787.8418 
18348000    241.90935   -6354.8223   -5732.5252   -6354.8223            0    5617.9631    23.336206    21.345744    21.848288    10883.259    6645.8613    5053.1403    5154.8878   -279.40166   -308.78277    683.02013   -4840.8356 
18349000    246.39801   -6322.0068   -5688.1629   -6322.0068            0    4630.1127    23.486412    21.363874    21.894479     10985.79    4611.9672    5018.5038    4259.8671   -620.92992   -581.30908    369.09558   -4946.3426 
18350000    248.19756   -6351.0144   -5712.5413   -6351.0144            0    5981.9526    23.318379    21.546956     21.63385    10869.713    5649.5243     5036.451    7259.8825   -22.314017    -181.8483   -49.213102   -4764.2605 
18351000    236.67122   -6325.4709   -5716.6486   -6325.4709            0     6198.534    23.355689    21.389414     21.71457    10847.828    6326.0505    6572.1151    5697.4364     232.4894   -788.98171    924.53478    -4736.013 
18352000    250.43529   -6343.5384   -5699.3089   -6343.5384            0    4942.4024    23.373753    21.442481    21.821879    10936.935     4370.565    6192.2226    4264.4197    333.40358    268.95846   -1019.1992   -4910.9761 
18353000    250.96166   -6304.1025   -5658.5189   -6304.1025            0    4812.8066    23.255087    21.478211    21.937715    10957.398    4842.7704    4928.2984     4667.351   -522.68305    348.17691    1184.3751   -4889.4208 
18354000    253.51508   -6338.5262   -5686.3741   -6338.5262            0    4880.1865    23.449205      21.4391    21.748383    10933.562    5299.5007     3850.035    5491.0239   -1371.0637     453.0444     953.7617   -4908.2051 
18355000    256.86064   -6338.7496   -5677.9913   -6338.7496            0      4336.75    23.360102    21.635208    21.642403    10938.085    5720.5349    2887.0348    4402.6804   -1174.8337    -604.1163    254.35442   -4986.1896 
18356000    248.50472   -6342.8013   -5703.5381   -6342.8013            0    6513.1843     23.24092    21.434794    21.756684    10838.404    5916.5577    7486.1466    6136.8485   -1091.7087    232.67093   -116.48866   -4674.0186 
18357000    242.43782   -6323.8481   -5700.1916   -6323.8481            0    6530.3982    23.283845    21.357539    21.890386    10885.774    6840.2672    6150.3229    6600.6045    66.869607   -944.31226    30.129085   -4663.4396 
18358000    249.81387   -6331.3966   -5688.7657   -6331.3966            0    5517.0865    23.365719     21.54268    21.610368      10877.8    4830.7767    6420.6849    5299.7977    182.15054   -355.62564    306.37261   -4813.5265 
18359000    239.51476    -6325.425   -5709.2879    -6325.425            0    4860.7349    23.422715    21.503818    21.706458    10933.061    4512.3582    4761.2867      5308.56    773.39635    752.86038   -998.00567    -4934.256 
18360000    240.44101    -6318.988   -5700.4682    -6318.988            0      4622.05    23.395885     21.43453    21.853317    10958.997    3841.6286    5921.0771    4103.4441    77.716173    469.25923   -1261.7402   -4961.7457 
18361000    242.17897   -6315.2252   -5692.2346   -6315.2252            0     4702.958    23.335964    21.518169    21.872538    10983.234    5833.8482    5452.4201    2822.6057    2.8563508    481.06107   -808.19856   -4938.9185 
18362000     245.0671   -6319.8175   -5689.3973   -6319.8175            0    4525.9817    23.539241    21.496129    21.659191    10959.606    4338.4123    2745.6539     6493.879      322.981    850.86209    1207.3234   -4965.9887 
18363000    250.07897   -6332.0705   -5688.7575   -6332.0705            0     4857.826    23.403889    21.539761    21.624133    10901.032    4504.6522    4893.1088    5175.7169   -60.738092   -972.03738    389.26012   -4916.4586 
18364000    246.22343   -6306.4769   -5673.0822   -6306.4769            0     6400.267    23.259017    21.425122    21.815663     10871.34    7614.8916    5651.7118    5934.1976   -845.35458    34.359532    958.42145   -4658.3368 
18365000     248.8296    -6314.054    -5673.955    -6314.054            0     5507.509    23.449635    21.320435    21.808598    10903.349    5347.7317     5882.898    5291.8972    136.38106   -39.954982    146.48383   -4798.1831 
18366000    229.49608   -6317.8023   -5727.4376   -6317.8023            0    5550.9497    23.321058    21.655771    21.551493    10884.269    4440.9185    5417.1227    6794.8078   -115.27564    1097.3814   -474.65063   -4846.3027 
18367000    230.08452   -6346.8624    -5754.984   -6346.8624            0    5604.6931    23.366061    21.458213    21.711724    10886.126    5356.0461    5429.7921     6028.241   -1197.9297    245.21962   -448.29354   -4865.1662 
18368000    242.30972   -6348.7779   -5725.4509   -6348.7779            0    4029.6147    23.376097     21.34577    21.943497    10949.383    4744.2148    3222.4717    4122.1576   -378.05912    1451.7983   -218.58787   -5081.9797 
18369000      249.303   -6338.7737   -5697.4569   -6338.7737            0    5958.7728    23.202674    21.520104    21.773374    10871.968    6314.7797    6074.8637    5486.6748   -391.94084    1837.8701    328.67036   -4752.6548 
18370000    246.53932    -6325.315   -5691.1077    -6325.315            0    4826.2603    23.516406    21.308677     21.84741    10947.814    3660.0075    6041.2935    4777.4798   -513.36353    1585.0332   -542.04312   -4920.5342 
18371000    250.40025   -6345.8473   -5701.7079   -6345.8473            0    3915.4521     23.36614    21.639948    21.719768    10982.428    4710.5465    3667.3124    3368.4976   -595.61513    991.87548   -1331.0888   -5074.5799 
18372000     250.1431   -6294.7629   -5651.2851   -6294.7629            0    5345.1801    23.386144     21.53663    21.737067    10948.063    5552.7327    4550.9402    5931.8675   -963.20393    437.68265    656.18789     -4797.84 
18373000    245.36447    -6340.367   -5709.1819    -6340.367            0    5905.0314    23.444008    21.468857    21.633519    10888.498    5264.3507     6442.836    6007.9074   -106.58668    162.66372    175.55053   -4771.4772 
18374000    254.97241    -6335.667    -5679.766    -6335.667            0    5692.8537    23.165525    21.525641     21.86493    10903.008    5919.2617    5643.5137    5515.7857    1421.8919      88.3699   -16.534603     -4774.55 
18375000    264.48789   -6341.6123   -5661.2334   -6341.6123            0    5995.1011    23.219561    21.373069    21.901119     10868.94    6376.4969    6814.6487    4794.1578    275.81731    654.53953    1294.3147   -4710.9358 
18376000    251.14374   -6335.6337   -5689.5818   -6335.6337            0    6738.3225    23.356847    21.374192    21.688852    10827.807    6835.7633    5765.4643    7613.7398    -589.2909  -0.13499071    1061.8605   -4625.5167 
18377000    253.09931   -6342.7368   -5691.6543   -6342.7368            0    5067.5102    23.456469    21.572695    21.516833    10887.932    5497.7545      4998.17    4706.6061   -440.89393    262.41897   -206.90129   -4886.9878 
18378000    257.33066   -6347.5842   -5685.6167   -6347.5842            0    5841.6745    23.294568    21.429269    21.722163     10843.39    5848.0501    6282.0032    5394.9702    10.076351   -125.19456    691.35996   -4761.8159 
18379000    257.43442    -6309.041   -5646.8067    -6309.041            0      5623.44    23.295355     21.52246    21.782652    10921.241    6000.1764    5674.2535      5195.89    696.28003   -951.58051   -49.846118   -4751.1327 
18380000    231.37501   -6336.9744   -5741.7763   -6336.9744            0    4485.5529    23.382315    21.399494    21.778466    10897.284    4359.3652    5030.2561    4067.0375   -675.35721    98.627972    727.97425   -5028.9066 
18381000    244.77734    -6359.239   -5729.5642    -6359.239            0     5772.339    23.185066     21.46734    21.791445    10846.075    6487.0808    5960.0829    4869.8533   -1696.9223    1004.5145    900.12474   -4816.5022 
18382000    257.18278   -6322.4007   -5660.8137   -6322.4007            0    4759.2144    23.333071    21.603899    21.716451    10946.944    4994.2054    4002.7151    5280.7225   -576.29693    663.46519     109.0769   -4901.0053 
18383000    248.93616   -6314.7121    -5674.339   -6314.7121            0    6096.7822    23.440938    21.485101    21.573959    10865.313    5973.8181    5591.8028    6724.7256   -413.24241    444.01968    -506.0976   -4708.2463 
18384000    242.96785   -6352.7808   -5727.7608   -6352.7808            0    5987.3972    23.256673    21.404534    21.878435    10891.047     6583.964    7067.2639    4310.9637   -81.418139    656.02664   -903.47022   -4776.7541 
18385000    235.98064   -6329.4365   -5722.3907   -6329.4365            0     6637.266    23.290266    21.464243     21.60569    10800.856    6821.8184    6410.5673    6679.4123   -1071.3444    1012.9309   -1931.4088   -4676.8925 
18386000     246.6817   -6299.9282   -5665.3545   -6299.9282            0    6595.2994    23.547416    21.310227      21.6151    10846.474     4969.375    6644.1647    8172.3584   -81.610154    75.316558    388.65786   -4622.0791 
18387000    249.62329   -6334.5891   -5692.4484   -6334.5891            0    5029.5217    23.219611    21.543764     21.78646    10898.411    5806.1437    4346.1798    4936.2417   -183.66425    513.41287    451.77829   -4893.0454 
18388000    249.80072   -6362.1823   -5719.5851   -6362.1823            0     5258.092    23.257761    21.462879    21.860985    10912.534    7817.0803    4059.2843    3897.9114   -1620.8217    768.84839     306.4251   -4882.7697 
18389000    246.05612   -6334.6491   -5701.6848   -6334.6491            0    7607.6608    23.400139    21.254907    21.657558    10771.772    6818.0515    8414.2597    7590.6712   -1391.7534    1646.7233    13.986516   -4506.5575 
18390000    247.46587   -6326.9057   -5690.3148   -6326.9057            0    4635.9706    23.202455    21.706994    21.639008    10898.607    4525.5557    3256.7118    6125.6443    612.11982    310.86646    801.73464   -4953.4505 
18391000    245.24426   -6340.8194   -5709.9435   -6340.8194            0    4130.5141    23.464403    21.314359    21.877612    10941.622    3153.1954    5444.3123    3794.0346   -932.77432    1132.1855    660.80864   -5050.8277 
18392000    247.42438   -6323.4049   -5686.9208   -6323.4049            0     5560.192    23.248953    21.475605     21.82535    10897.077     5322.719     5634.829    5723.0281   -1035.2226     1459.695   -507.76179   -4803.2801 
18393000    248.49951   -6328.9578   -5689.7079   -6328.9578            0    4334.3414    23.405439    21.549622     21.70763    10948.859    3619.5407    4052.4835    5331.0001    216.88419   -891.16595     458.7281   -4997.6095 
18394000     255.2143   -6354.5875   -5698.0643   -6354.5875            0    4468.1529    23.372507    21.394781    21.836828    10919.498    4399.1423    4189.4463    4815.8703    356.24141   -381.41769    768.11839   -4986.5124 
18395000    260.81378   -6320.0545   -5649.1269   -6320.0545            0    6096.9214    23.199017    21.738165     21.60626    10896.125    5784.0118    5828.8813    6677.8711   -135.13971    356.63015   -355.48827   -4680.2724 
18396000    242.68776   -6326.1998   -5701.9003   -6326.1998            0    6282.5477    23.375412    21.388175    21.753469    10875.808    5752.8676    6038.9433    7055.8321    1455.5405   -477.19313    856.18376   -4705.4097 
18397000    260.61603   -6380.3525   -5709.9337   -6380.3525            0    7803.0655    23.151149    21.516924    21.670856    10795.153    7624.4729    7829.3958    7955.3278    1430.1935    409.52215   -767.92852   -4481.4485 
18398000    245.23781    -6340.366   -5709.5066    -6340.366            0     7027.475    23.377516    21.382564    21.643789    10819.107    7872.7606    6218.2408    6991.4237   -233.17174    220.89122   -321.62462   -4600.6724 
18399000    251.80951   -6308.4774   -5660.7127   -6308.4774            0    4989.1957    23.338523    21.484658    21.865638    10963.872    5665.0788    5092.0588    4210.4496    853.52258    945.39148   -688.95928   -4862.9561 
18400000    249.31288   -6356.6103   -5715.2681   -6356.6103            0    4372.0817    23.507048    21.360291    21.793246    10942.768    3560.1572    4233.2676    5322.8202    748.92359     230.5388    698.03905   -5017.5317 
18401000    253.50039   -6318.2714    -5666.157   -6318.2714            0     3861.307    23.359343    21.732026    21.564174    10946.964    2730.2603    2350.9983    6502.6625   -1540.8999    1682.9871     338.7939   -5049.6985 
18402000    235.21236   -6322.7124   -5717.6429   -6322.7124            0    6151.5134    23.295246    21.622139    21.656172    10908.063    7592.6268    4035.3768    6826.5367    109.27661   -1474.9934    646.56936   -4739.0423 
18403000     262.1166   -6333.1069   -5658.8279   -6333.1069            0    5461.7907    23.363078    21.436661    21.768787    10902.382    6181.8935     5904.483    4298.9957    520.54736   -1668.4441   -456.92793   -4790.4028 
18404000    249.84262   -6330.8759    -5688.171   -6330.8759            0    6819.8705    23.270202    21.616081    21.614879    10872.513    5584.4048    7828.0682    7047.1386   -382.46337   -244.61523    138.92107    -4606.782 
18405000    238.61709   -6328.1335   -5714.3056   -6328.1335            0    7111.0829    23.442587    21.337335    21.643546    10826.152    6408.6318    7829.0951    7095.5219   -155.86636    900.94318   -1058.4784   -4591.5486 
18406000    236.83806   -6351.2426   -5741.9911   -6351.2426            0     4988.631    23.388077    21.411031    21.751325    10892.255    4758.5088    5361.4731    4845.9111    694.92887    1413.8754   -615.04992   -4949.5353 
18407000    245.70365   -6339.6418   -5707.5842   -6339.6418            0    5186.7971    23.386481    21.521957    21.655411    10899.663    5324.4941    4393.9655    5841.9317    477.91314    792.71241    22.164049   -4883.0888 
18408000     246.0621   -6342.1794   -5709.1996   -6342.1794            0    5249.7098    23.578921    21.339998    21.717186    10927.526    4953.8149    5424.2425     5371.072    -1090.452    383.94147   -626.93984   -4872.5704 
18409000    262.18376   -6365.4669   -5691.0151   -6365.4669            0    4813.6439    23.038878     21.67522    21.848018    10910.305    6187.6612     3562.003    4691.2674    -773.8407   -1405.6162    471.18619   -4925.0892 
18410000    249.85451   -6337.7598   -5695.0243   -6337.7598            0    6241.1461      23.3555    21.544349    21.574482    10855.827    5622.6982    6798.1807    6302.5593   -202.72147   -1015.6808    795.87185   -4706.9191 
18411000    235.73934     -6328.36   -5721.9349     -6328.36            0    4894.8159    23.448065    21.343748    21.818284    10919.388    3709.4785    5446.0614    5528.9078    157.83372   -299.34122    86.821548   -4942.4449 
18412000    238.68727   -6301.9694    -5687.961   -6301.9694            0    3807.4257    23.341576    21.794593    21.544096    10959.916    4229.8284    1010.1911    6182.2577    635.63647    212.99448    1389.8677   -5079.3854 
18413000    249.01175   -6345.0715   -5704.5039   -6345.0715            0    4297.4255    23.589205    21.409845    21.693053    10955.886    3034.5617    4366.2544    5491.4606    336.13463   -1347.2064   -1576.2014   -5017.8597 
18414000    241.98545   -6334.3319   -5711.8391   -6334.3319            0    6499.6018    23.291675    21.441691    21.720298    10847.397    5742.2848    6468.2362    7288.2844   -497.13283    561.92814   -244.86505    -4683.614 
18415000    261.03578   -6358.1764   -5686.6778   -6358.1764            0    5441.6153    23.214056    21.534834    21.730351    10863.238    5482.5102    5966.7392    4875.5966     1655.455   -212.68219   -79.141214   -4824.5671 
18416000     262.8585   -6328.0734   -5651.8859   -6328.0734            0    5884.2298    23.534082    21.192015    21.813284     10879.04    6013.6393    6842.8932    4796.1568    248.86542    28.444292    511.81127   -4718.2961 
18417000    243.77073   -6330.8549   -5703.7696   -6330.8549            0    5665.0056    23.198124    21.644404    21.687259     10889.38     6327.948     4262.013    6405.0559    320.17496    121.12433     1359.746   -4804.1075 
18418000    259.84841   -6331.7916   -5663.3474   -6331.7916            0    5728.7765    23.377755    21.490869    21.629703    10866.942    5506.9876    5636.2349    6043.1068   -328.63122    40.876572   -702.39227   -4755.4326 
18419000    265.49094   -6321.0707   -5638.1115   -6321.0707            0    5339.1089    23.404011    21.461767    21.727025    10913.299    5008.5524    5426.2804    5582.4939   -426.99256    -501.0873   -884.92099   -4788.3428 
18420000    259.54283   -6360.1317   -5692.4736   -6360.1317            0    5476.9867    23.181171     21.55447    21.844845    10914.949    6120.2836    5488.5365    4822.1399    430.71037   -280.35084     179.4767   -4820.6286 
18421000    245.73001   -6314.7074   -5682.5819   -6314.7074            0    5085.6244    23.436474    21.328027    21.852771    10923.189    3669.6564    5189.8291    6397.3878    1186.1481    1772.3975     1375.582   -4872.4241 
18422000    255.29873   -6347.9245    -5691.184   -6347.9245            0    5403.1883    23.315534    21.422589     21.81584    10896.556    7500.2204    4880.6402    3828.7045   -1642.1272   -272.45454    9.0900741   -4832.5358 
18423000    246.01168    -6337.009   -5704.1589    -6337.009            0    5624.3413    23.341618    21.543899    21.614868    10869.457    4887.9025    4932.3603    7052.7612    357.98313    467.61857   -289.95285    -4812.589 
18424000    247.62196   -6347.0273   -5710.0349   -6347.0273            0    4693.6434    23.577191    21.486674     21.55784    10921.103     3062.716    5073.0044    5945.2098    30.114962   -294.91262     -132.064   -4962.4638 
18425000    243.69111   -6316.3734   -5689.4929   -6316.3734            0    4944.2101    23.250854    21.593739    21.790655    10940.497    4249.2974    4668.1951    5915.1378    708.45302    156.94682    1422.8656   -4900.6149 
18426000      246.776   -6354.5089   -5719.6926   -6354.5089            0     5251.942    23.293249    21.381774    21.794371    10854.708    6346.3368    5164.0265    4245.4626    252.48392   -1505.4434   -341.24408   -4888.2851 
18427000     262.0272   -6321.4172   -5647.3682   -6321.4172            0    7039.4544    23.393347    21.334682    21.730721    10845.577    5611.2103    9621.8871    5885.2658   -669.21471   -357.78299   -554.86184   -4533.9263 
18428000    251.95062   -6321.7858   -5673.6582   -6321.7858            0    5630.5825    23.289795    21.751796    21.515795    10899.791    4986.3412    5642.1996    6263.2067   -510.46419    1379.9889    113.96512    -4778.608 
18429000    246.01597   -6325.0818   -5692.2207   -6325.0818            0    4759.6088    23.475646    21.376464    21.824198    10951.957    3088.0804    6857.5311    4333.2149   -351.12378   -296.05178    195.09261   -4932.0014 
18430000     251.5618   -6331.7094    -5684.582   -6331.7094            0    3946.0261    23.310898    21.556343    21.818487     10963.74    3865.8287    4575.5246    3396.7249    1402.5416   -466.41465    4.9723394   -5053.6325 
18431000    250.44273   -6347.8158   -5703.5671   -6347.8158            0    6217.1099    23.448227     21.41704    21.638105    10866.475    5041.1983    5601.4346    8008.6968    901.31845    652.63879    760.95453   -4718.3019 
18432000    257.38409   -6324.6532   -5662.5483   -6324.6532            0    6659.8814    23.448805    21.385003    21.627672    10845.256    7254.2791    6724.4663    6000.8989    516.88729   -468.80133   -412.94305   -4609.1753 
18433000    244.98967   -6333.3251   -5703.1041   -6333.3251            0    8110.4327    23.123485    21.491541    21.716892    10792.412     9678.974    7355.2532    7297.0707    545.46916   -1287.3004   -1279.8558   -4426.5523 
18434000    239.33827   -6321.2782   -5705.5951   -6321.2782            0    5737.7021    23.376017    21.405807    21.708629    10862.619    5598.4634    5768.6403    5846.0026    1457.5446   -1253.4504    132.73053   -4796.6275 
18435000    253.59215   -6318.9882   -5666.6378   -6318.9882            0    5719.1769    23.389044    21.528223    21.632032    10892.259    5449.8782    5086.4013    6621.2513     203.6968   -594.17972    294.32007   -4758.1327 
18436000     245.7543   -6296.8766   -5664.6887   -6296.8766            0    5844.1172     23.13596    21.687024    21.790761    10933.516    7060.1916    5355.2385    5116.9215   -1167.9446    67.841101    678.35318   -4732.8201 
18437000    245.40512   -6360.1354   -5728.8457   -6360.1354            0    4734.7945    23.583788    21.270897    21.734197    10902.924    4590.2939    4675.4869    4938.6028   -1288.3693   -805.72762    725.17641   -4975.9757 
18438000    260.72505   -6326.6617   -5655.9624   -6326.6617            0     6133.847    23.162682    21.682199    21.635713    10865.842     6846.357    5703.6427    5851.5415    80.185751    227.44211   -378.65906   -4683.9491 
18439000    236.55286   -6343.3256   -5734.8078   -6343.3256            0     5703.859     23.38594    21.438469     21.74195    10900.517    5977.9883    5528.4182    5605.1705    1223.8612   -390.16453    360.63331    -4828.049 
18440000    258.04237   -6297.1314   -5633.3332   -6297.1314            0     4930.994    23.389873    21.276437    21.974346    10935.603    4032.7953    5967.4285    4792.7583    531.00173    220.35341   -20.351162   -4846.9158 
18441000    255.96591   -6320.2416   -5661.7849   -6320.2416            0     5183.242    23.353583    21.530033    21.688134    10904.868    4420.5749    6140.5247    4988.6263    238.01764   -183.39102   -1296.4971   -4837.4612 
18442000    244.59856   -6302.6681   -5673.4532   -6302.6681            0    6142.2575    23.469382    21.449194    21.615353    10881.154    6517.4372     4626.818    7282.5174   -561.74417    100.83283   -735.60857   -4698.7355 
18443000    239.79244   -6322.0238   -5705.1724   -6322.0238            0    5447.2632    23.349815     21.31581    21.876638    10888.445    4940.5218    6854.6428    4546.6249    45.855546    786.41464    167.15862   -4840.1644 
18444000    243.79649   -6311.2422   -5684.0906   -6311.2422            0    5044.2687    23.286457    21.536392    21.816879    10941.302    6390.6812    4305.0976    4437.0275   -420.45873    445.55527    803.11586   -4879.1885 
18445000    249.97874   -6307.6089   -5664.5538   -6307.6089            0    5198.4644    23.495006    21.543637    21.577685    10921.931    4663.5251    4993.8025    5938.0656   -687.41074    1186.0246    417.49148   -4836.5156 
18446000    252.72228   -6345.4044   -5695.2917   -6345.4044            0     5679.801    23.390993    21.498744     21.67258    10898.642     5280.362    5993.2271    5765.8139   -650.18959    -200.5088    193.83848   -4792.5129 
18447000    244.25152   -6320.6853   -5692.3631   -6320.6853            0    4714.5169    23.406177    21.520615    21.766632    10964.186    5005.2417    5167.2906    3971.0183   -422.68102   -18.486366   -190.42753   -4938.5052 
18448000    250.47299   -6319.1899   -5674.8634   -6319.1899            0    4943.7158    23.452504    21.441779    21.725311    10924.864    5005.6021    3617.3875     6208.158    322.43866   -677.11618    1408.1127   -4887.1914 
18449000     262.6373   -6343.3892   -5667.7708   -6343.3892            0    5965.8355    23.252897     21.51301    21.732929    10871.676    6138.8248    6328.6378     5430.044   -82.171667    909.18645   -804.64731   -4721.8742 
18450000    240.72154   -6322.2916   -5703.0501   -6322.2916            0    6154.3537    23.329898    21.404638    21.798846    10885.646    6078.4019    6577.8238    5806.8354   -827.35222    635.45477    -629.2762   -4726.0096 
18451000    250.81288   -6330.0819    -5684.881   -6330.0819            0    5304.1272     23.45036    21.415909    21.721823    10908.933    4570.5467    5810.5017    5531.3332   -1449.4698    787.06698    230.07794   -4841.0177 
18452000    255.75686   -6350.5657   -5692.6468   -6350.5657            0    5332.2333    23.261612    21.540352    21.692687     10869.41    4923.3077     6479.057     4594.335   -811.52768    1936.1275   -216.51459   -4847.3855 
18453000    229.79317   -6333.2988   -5742.1699   -6333.2988            0    6137.3564    23.311905    21.356151    21.787617    10847.021    5493.0737    7258.0342    5660.9615    525.26492    362.70816   -412.19803   -4771.2851 
18454000    244.20307   -6329.3488   -5701.1513   -6329.3488            0    5638.3946    23.294018    21.384693    21.789862    10854.302    5378.7428    6911.2203    4625.2206   -233.84983    1914.2912   -108.87942   -4808.5998 
18455000    248.75841   -6344.8215   -5704.9057   -6344.8215            0    6844.1591    23.199147    21.476403    21.720779    10822.035    7536.6729    6360.7471    6635.0573   -573.58922    936.14586    369.13582   -4624.7038 
18456000    245.39399   -6360.0616   -5728.8005   -6360.0616            0    5216.5626    23.328751    21.450812    21.766583    10892.448    5243.7038    5062.5862    5343.3978     -633.376    70.678687   -337.30413   -4900.1226 
18457000    242.91931   -6349.5281    -5724.633   -6349.5281            0    4965.0054    23.286228    21.495184    21.815084    10919.361    5458.9672    5091.9603    4344.0886   -1021.0128   -194.09745   -669.41069   -4933.9675 
18458000    250.49742   -6328.8583    -5684.469   -6328.8583            0    4734.1108    23.227307    21.590074    21.780031    10922.234    4069.1579    5400.5947    4732.5799    589.38383    1734.0665    282.30573   -4930.3745 
18459000    250.72305   -6322.4927   -5677.5229   -6322.4927            0    5364.8783     23.50625    21.371871    21.699164    10901.065     4624.337    6107.6315    5362.6664    -1100.761   -455.78546   -398.28067     -4824.61 
18460000    240.18873   -6316.3388   -5698.4679   -6316.3388            0    4443.9818    23.221301     21.67379    21.737498    10940.344    4988.5974    3485.4294    4857.9186    204.06886     79.78062    833.75789   -4989.4142 
18461000    248.06798   -6311.8445   -5673.7047   -6311.8445            0    6092.4295    23.384653    21.247875    21.926126    10894.526    6081.0222    7038.5264    5157.7399   0.10405484    764.58329    484.66274   -4705.7061 
18462000    245.68088   -6342.3249   -5710.3258   -6342.3249            0    5886.7973    23.366719    21.406738    21.696579    10852.742    5014.2542    6185.4937    6460.6439    312.65485    925.31827    345.09003   -4778.5864 
18463000     250.3427   -6348.5253    -5704.534   -6348.5253            0    5116.1159    23.123277     21.51991    21.894695    10895.037     8332.465    3433.7403    3582.1424   -1772.3598   -336.62545   -1096.3639   -4891.6193 
18464000    255.19747   -6349.1698   -5692.6899   -6349.1698            0     5856.729    23.333114    21.320565    21.856727    10873.179    5729.5387    6452.8181    5387.8303   -1114.9101   -71.258688     -553.417    -4763.964 
18465000     241.7684   -6356.9066   -5734.9721   -6356.9066            0    6280.0256    23.359695     21.48662     21.57045     10826.66    5887.2455    5025.8826    7926.9487   -23.570048    1173.1735    838.92665   -4743.3829 
18466000    250.06756   -6339.2512   -5695.9677   -6339.2512            0    6258.9191    23.404933    21.431442    21.679694    10874.567    5778.2739    7639.8529    5358.6303    289.70037    298.26891   -465.91954   -4703.3382 
18467000    247.64582   -6329.3159   -5692.2622   -6329.3159            0    5159.0544    23.299856    21.336264    21.940267    10907.206    4271.2513    6140.2181    5065.6938    649.44343   -604.87924   -354.23623   -4871.6092 
18468000    258.09286   -6330.8505   -5666.9224   -6330.8505            0    5539.0628    23.294831    21.624429    21.630673     10896.18    5825.4996    3574.3551    7217.3338     138.2967     -38.5999    502.17209   -4786.7121 
18469000    246.30338   -6330.8343   -5697.2339   -6330.8343            0    7043.5449    23.447629    21.194733     21.81169    10839.673    6279.5044    9080.7163    5770.4139   -941.28708   -76.100436   -1167.6586   -4583.7515 
18470000    237.00558   -6352.7944    -5743.112   -6352.7944            0    5442.6502    22.967353    21.709087    21.842654    10890.753    6707.2739     4830.779    4789.8978   -414.82247    836.65768   -223.02112   -4878.6533 
18471000     246.8576   -6339.7397   -5704.7136   -6339.7397            0    6747.4745    23.447895    21.379728    21.639738    10848.209    6189.1271    6369.0098    7684.2867   -605.25668   -194.17509    547.10055   -4637.1956 
18472000     237.5622   -6328.8542   -5717.7399   -6328.8542            0    6365.8259    23.423305    21.437361    21.645737    10869.057    6070.5102    6257.4115    6769.5561   -779.87017     536.2633    263.36216    -4708.667 
18473000    244.82302   -6339.6728   -5709.8805   -6339.6728            0    5745.5736    23.148365    21.635613    21.705166    10870.578     5759.838    4375.2635    7101.6192    1361.3368    859.86542    807.91487   -4798.9989 
18474000    260.22274   -6336.6466   -5667.2394   -6336.6466            0    4221.7388    23.469194    21.294584    21.936623    10963.194    3825.7219    5951.7429    2887.7516    921.24316     878.8621    170.75988   -4992.2385 
18475000    250.37263   -6353.0068   -5708.9385   -6353.0068            0    6008.5125    23.432895    21.438696    21.599614    10851.013    4986.3333    6241.4559    6797.7484    906.96812    207.81571    17.693003    -4758.086 
18476000    248.40741   -6332.6077   -5693.5947   -6332.6077            0    6136.4585    23.290621    21.531199    21.694819    10879.409    6716.3436    5457.6065    6235.4254    96.473984    574.37166   -456.96232   -4719.9534 
18477000    258.07446   -6297.5632   -5633.6824   -6297.5632            0    6162.6693    23.367348    21.330547    21.839649    10885.718    6604.0622    6678.7646    5205.1813   -1137.9366    1592.4511    -484.7713   -4655.3153 
18478000    260.19039    -6314.934   -5645.6101    -6314.934            0    4399.3809    23.407496    21.558605    21.727635    10964.481    3875.3473    4118.7679    5204.0274    10.378749    1272.1127    1480.4978    -4942.124 
18479000    245.40783   -6309.6974   -5678.4007   -6309.6974            0    5197.5242    23.393495    21.526031    21.722494    10938.777    4588.8876    4106.2091     6897.476    533.06426    570.69263    1346.6631   -4849.2353 
18480000    250.16781    -6298.174   -5654.6326    -6298.174            0    3787.4864    23.376848     21.35618    22.035276    11000.895    2864.7772    3670.6336    4827.0484    30.784888    1667.1625    393.93956   -5046.9805 
18481000    251.68383   -6311.0411   -5663.5998   -6311.0411            0    5353.1473    23.334086    21.558481    21.734292     10933.38     5328.018     6088.796     4642.628   -1036.8701    630.39278   -1554.6803    -4810.029 
18482000    252.85517   -6326.0291   -5675.5745   -6326.0291            0    5927.1975    23.319378    21.542729    21.649889    10876.104    6629.5566    5420.8196    5731.2164   -1639.7715    617.54133   -701.30627   -4735.4213 
18483000    236.46353   -6314.2574   -5705.9694   -6314.2574            0    6204.0391     23.36108    21.327252    21.791037    10856.897    5554.4414    6974.5703    6083.1058   -346.66914   -256.18815    403.75227   -4723.6423 
18484000    249.65092   -6319.6312   -5677.4194   -6319.6312            0    6031.5633     23.38411    21.483442    21.619126    10860.826    4782.3981    6328.0905    6984.2014   -942.93645    1587.1207    644.46021   -4722.0559 
18485000    249.30627   -6342.0057   -5700.6805   -6342.0057            0    5735.7432    23.347326    21.501214    21.703692    10895.163    5700.9453    4558.3843    6947.8999    126.00932    941.78471    431.32104   -4789.3008 
18486000     246.6128   -6334.8829   -5700.4865   -6334.8829            0    5554.9475    23.344209    21.400734    21.798751     10890.29    5799.1001    6131.1928    4734.5497   -797.84089   -391.74195   -785.69197   -4818.2291 
18487000    247.48724   -6342.2896   -5705.6438   -6342.2896            0    5123.2346    23.431277    21.535481    21.651669    10925.515    4895.4227    4605.4656    5868.8155    193.30096   -743.33338   -48.619899   -4889.3207 
18488000    258.26895   -6320.9214   -5656.5403   -6320.9214            0    5027.0135    23.366046    21.595593    21.618533     10908.79    5632.3533    4107.1395    5341.5476    866.16343   -318.83592    105.11785   -4856.7751 
18489000    252.13016   -6351.8173   -5703.2279   -6351.8173            0    4686.1269    23.316894    21.471031    21.755496    10891.623    4268.6982    5355.0607    4434.6216    538.96254    370.36223    539.47823   -4958.8687 
18490000    259.71122   -6345.2359   -5677.1446   -6345.2359            0    5348.5615    23.240633     21.42707     21.89003    10900.768    7304.7729    4589.2575     4151.654   -63.329307   -1083.3816    424.73718   -4826.8489 
18491000    253.29717   -6350.8052   -5699.2137   -6350.8052            0    6408.7713    23.314842      21.4633    21.630481    10824.184    7293.0441    6254.9754    5678.2944   -1150.1284    447.88724    488.28018   -4687.5275 
18492000    243.90124   -6328.0366   -5700.6155   -6328.0366            0    5748.1019    23.390427    21.460313    21.656139    10870.643    5410.3514    5727.1089    6106.8454   -901.91661    541.70887    598.90625   -4789.3277 
18493000    243.82479   -6290.1045     -5662.88   -6290.1045            0    6817.9683    23.250559    21.392863    21.810577    10848.494    7268.2277     7122.761    6062.9163   -206.75368    472.82338   -901.15488   -4584.1809 
18494000    258.53537   -6359.4895    -5694.423   -6359.4895            0    4969.2861    23.403978    21.460779    21.716172     10907.33    3227.4481    5886.9241    5793.4862    2176.6873    1520.7589   -798.42336   -4903.9476 
18495000    263.13216   -6323.6659   -5646.7744   -6323.6659            0    5195.1465    23.442669    21.443241    21.777648    10947.336    5150.0549     4554.291    5881.0934   -164.88054    1031.9092   -567.10827   -4817.3398 
18496000    255.43201   -6369.9893    -5712.906   -6369.9893            0    4753.4705    23.289794    21.490149    21.815676    10918.771     5419.049    4085.2588    4756.1037     452.2052   -1002.9493   -211.88857   -4955.9678 
18497000    245.48982   -6317.9597   -5686.4521   -6317.9597            0    6248.4916    23.391272     21.45712    21.643022    10862.835    4878.9784    5600.0391    8266.4572    154.07973   -205.87652    1637.3713   -4696.5454 
18498000    253.90849   -6329.3039   -5676.1398   -6329.3039            0    6409.4947    23.274491    21.516266    21.686077    10859.956    7434.2426    6118.1681    5676.0736    915.61114   -947.29579    697.47097   -4660.9955 
18499000    256.92217    -6357.483   -5696.5664    -6357.483            0    5786.5357    23.245198    21.599039    21.639883    10864.822     7651.174    3844.6889    5863.7442   -1514.1872    11.328198    651.71953   -4779.6766 
18500000    255.09697     -6285.13   -5628.9086     -6285.13            0    5011.3093    23.463207    21.335482    21.918108    10972.179    3932.6077    7217.6598    3883.6603   -577.55379    533.47492   -974.97224    -4827.009 
Loop time of 651.925 on 64 procs for 250000 steps with 1296 atoms

Performance: 66.265 ns/day, 0.362 hours/ns, 383.480 timesteps/s
99.3% CPU use with 64 MPI tasks x 1 OpenMP threads

MPI task timing breakdown:
Section |  min time  |  avg time  |  max time  |%varavg| %total
---------------------------------------------------------------
Pair    | 29.858     | 39.053     | 47.952     |  95.2 |  5.99
Bond    | 0.27193    | 0.27848    | 0.29077    |   0.8 |  0.04
Kspace  | 334.98     | 352.61     | 368.05     |  42.3 | 54.09
Neigh   | 4.2827     | 5.2344     | 5.8878     |  19.9 |  0.80
Comm    | 110.85     | 120.02     | 134.09     |  55.8 | 18.41
Output  | 0.93602    | 0.93743    | 0.94346    |   0.2 |  0.14
Modify  | 123.82     | 127.04     | 129.71     |  13.2 | 19.49
Other   |            | 6.765      |            |       |  1.04

Nlocal:        20.2500 ave          27 max          13 min
Histogram: 5 3 6 7 6 15 1 9 7 5
Nghost:        2537.62 ave        2576 max        2505 min
Histogram: 1 6 6 14 11 10 10 4 0 2
Neighs:        6358.53 ave        8528 max        4052 min
Histogram: 5 3 6 8 9 11 1 9 7 5

Total # of neighbors = 406946
Ave neighs/atom = 314.00154
Ave special neighs/atom = 2.0000000
Neighbor list builds = 9169
Dangerous builds = 0

unfix		3
unfix		2
unfix		1

write_data	data.final.${pid}
write_data	data.final.0
System init for write_data ...
PPPM initialization ...
  extracting TIP4P info from pair style
  using 12-bit tables for long-range coulomb (../kspace.cpp:340)
  G vector (1/distance) = 0.36653697
  grid = 30 40 32
  stencil order = 5
  estimated absolute RMS force accuracy = 0.0046875261
  estimated relative force accuracy = 1.4116346e-05
  using double precision FFTW3
  3d grid and FFT values/proc = 5168 640
Last active /omp style is kspace_style pppm/tip4p/omp
WARNING: Not all mixed pair coeffs generated from mixing. Use write_data with 'pair ij' option to store all pair coeffs. (../write_data.cpp:312)

write_restart   restart.lmp.${pid}
write_restart   restart.lmp.0
System init for write_restart ...
PPPM initialization ...
  extracting TIP4P info from pair style
  using 12-bit tables for long-range coulomb (../kspace.cpp:340)
  G vector (1/distance) = 0.36653697
  grid = 30 40 32
  stencil order = 5
  estimated absolute RMS force accuracy = 0.0046875261
  estimated relative force accuracy = 1.4116346e-05
  using double precision FFTW3
  3d grid and FFT values/proc = 5168 640
Last active /omp style is kspace_style pppm/tip4p/omp
Total wall time: 0:10:53
