LAMMPS (30 Jul 2021)
  using 1 OpenMP thread(s) per MPI task
package omp 0
using multi-threaded neighbor list subroutines
echo both

include		in.partitions
variable        pid world 0
include		in.temp
variable        temperature equal 282.82
variable	tempDamp equal 100.0
include		in.pressure
variable        pressure equal 11375.0
variable        pressureDamp equal 1000.0 # This is 1 ps
include		in.seed
variable        seed world 745823

units		real
atom_style	full
read_restart	restart.lmp.${pid}
read_restart	restart.lmp.0
Reading restart file ...
  restart file = 30 Jul 2021, LAMMPS = 30 Jul 2021
  restoring atom style full from restart
  orthogonal box = (-0.11480864 -0.11599709 -0.035188374) to (24.844810 24.845998 22.845188)
  4 by 4 by 4 MPI processor grid
  restoring pair style lj/cut/tip4p/long/omp from restart
  restoring bond style harmonic/omp from restart
  restoring angle style harmonic/omp from restart
  1920 atoms
  1280 bonds
  640 angles
Finding 1-2 1-3 1-4 neighbors ...
  special bond factors lj:    0        0        0       
  special bond factors coul:  0        0        0       
     2 = max # of 1-2 neighbors
     1 = max # of 1-3 neighbors
     1 = max # of 1-4 neighbors
     2 = max # of special neighbors
  special bonds CPU = 0.999 seconds
  read_restart CPU = 1.263 seconds
include 	in.setup
variable	out_freq equal 1000
variable	out_freq2 equal 10000
variable	out_freq3 equal 1000

timestep	2.0

neigh_modify    delay 7 every 1

include		in.tip4p
# This is TIP4P/Ice

# create groups ###
group ox type 2
640 atoms in group ox
group hy type 1
1280 atoms in group hy

# set charges - beside manually ###
set group ox charge -1.1794
Setting atom values ...
  640 settings made for charge
set group hy charge 0.5897
Setting atom values ...
  1280 settings made for charge

# ### TIP3P Potential Parameters ###
pair_style lj/cut/tip4p/long/omp 2 1 1 1 0.1577 8.5
pair_coeff 1 1*2 0.000 0.000
pair_coeff 2 2 0.21084 3.1668
bond_style  harmonic
bond_coeff  1 450 0.9572
angle_style harmonic
angle_coeff 1 55 104.52
kspace_style pppm/tip4p/omp 1.0e-5
pair_modify tail yes

thermo          ${out_freq}
thermo          1000
thermo_style    custom step temp pe etotal epair emol press lx ly lz vol pxx pyy pzz pxy pxz pyz enthalpy

restart 	${out_freq3} restart.lmp.${pid} restart2.lmp.${pid}
restart 	1000 restart.lmp.${pid} restart2.lmp.${pid}
restart 	1000 restart.lmp.0 restart2.lmp.${pid}
restart 	1000 restart.lmp.0 restart2.lmp.0


include         in.dump
dump            myDump all atom ${out_freq2} dump.water.${pid}
dump            myDump all atom 10000 dump.water.${pid}
dump            myDump all atom 10000 dump.water.0
dump            myDump2 all dcd ${out_freq2} dump.dcd
dump            myDump2 all dcd 10000 dump.dcd
dump_modify     myDump append yes
dump_modify     myDump2 append yes


variable natoms 	equal  "count(all)"                        # NUMBER ATOMS
variable H      	equal  "enthalpy/v_natoms"                 # ENTHALPY-per-atom
variable Vol      	equal  "vol/v_natoms"                 # volume-per-atom
fix AVG all 		ave/time ${out_freq} 1 ${out_freq} v_Vol v_H file vol_enthalpy.dat
fix AVG all 		ave/time 1000 1 ${out_freq} v_Vol v_H file vol_enthalpy.dat
fix AVG all 		ave/time 1000 1 1000 v_Vol v_H file vol_enthalpy.dat




fix 		1 all shake 1e-6 200 0 b 1 a 1
       0 = # of size 2 clusters
       0 = # of size 3 clusters
       0 = # of size 4 clusters
     640 = # of frozen angles
  find clusters CPU = 0.432 seconds
fix             2 all nph aniso ${pressure} ${pressure} ${pressureDamp}
fix             2 all nph aniso 11375 ${pressure} ${pressureDamp}
fix             2 all nph aniso 11375 11375 ${pressureDamp}
fix             2 all nph aniso 11375 11375 1000
fix             3 all temp/csvr ${temperature} ${temperature} ${tempDamp} ${seed}
fix             3 all temp/csvr 282.82 ${temperature} ${tempDamp} ${seed}
fix             3 all temp/csvr 282.82 282.82 ${tempDamp} ${seed}
fix             3 all temp/csvr 282.82 282.82 100 ${seed}
fix             3 all temp/csvr 282.82 282.82 100 745823


run             250000
PPPM initialization ...
  extracting TIP4P info from pair style
  using 12-bit tables for long-range coulomb (../kspace.cpp:340)
  G vector (1/distance) = 0.37446931
  grid = 30 30 30
  stencil order = 5
  estimated absolute RMS force accuracy = 0.0032724102
  estimated relative force accuracy = 9.8547661e-06
  using double precision FFTW3
  3d grid and FFT values/proc = 3600 512
Last active /omp style is kspace_style pppm/tip4p/omp
Neighbor list info ...
  update every 1 steps, delay 7 steps, check yes
  max neighbors/atom: 2000, page size: 100000
  master list distance cutoff = 10.8154
  ghost atom cutoff = 10.8154
  binsize = 5.4077, bins = 5 5 5
  1 neighbor lists, perpetual/occasional/extra = 1 0 0
  (1) pair lj/cut/tip4p/long/omp, perpetual
      attributes: half, newton on, omp
      pair build: half/bin/newton/omp
      stencil: half/bin/3d
      bin: standard
Per MPI rank memory allocation (min/avg/max) = 9.330 | 9.339 | 9.344 Mbytes
Step Temp PotEng TotEng E_pair E_mol Press Lx Ly Lz Volume Pxx Pyy Pzz Pxy Pxz Pyz Enthalpy 
 5750000    292.25089   -9022.0831   -7907.8894   -9022.0831            0    11305.848    24.959618    24.961995    22.880377    14255.433     9562.245    11916.806    12438.492   -452.29679    -1225.297    -75.90696   -5557.3939 
 5751000    284.48203   -9025.6486   -7941.0734   -9025.6486            0    10633.444    24.835891    24.799068    23.139028    14251.488    11785.125    11957.266    8157.9408   -792.94783    -1389.091    -77.62101   -5730.9829 
 5752000    279.92626   -9004.5075   -7937.3009   -9004.5075            0    9907.3747     24.99487    24.977178     22.85529    14268.588    9452.1621    10374.532    9895.4298     946.5448   -198.72771    92.471733   -5875.6484 
 5753000    281.01321    -9007.292   -7935.9415    -9007.292            0    11667.458    24.813618    24.970117    23.005845    14254.397    13140.836    10741.571    11119.965    256.78604   -644.84413    511.99557   -5510.4432 
 5754000    284.58334   -9054.8302   -7969.8687   -9054.8302            0    10601.997    24.896189    24.961956    22.955958    14266.154    11212.684    9144.7675     11448.54    1507.7135   -225.94115   -655.94344   -5764.0466 
 5755000    281.47579   -9000.5309   -7927.4168   -9000.5309            0    9848.3442    25.026108    25.049487    22.831845    14313.082    9537.0813    9277.4788    10730.473   -1111.3003    1092.1434    85.733799   -5871.6575 
 5756000    290.90453   -9006.3543   -7897.2936   -9006.3543            0    10740.327     24.83264     25.05892    22.981645    14300.998    10955.622    9955.8777    11309.482   -662.98039    654.98324    382.91396    -5657.233 
 5757000    285.00198   -9046.0142   -7959.4567   -9046.0142            0    11246.358    24.797696    25.008833    22.934504    14223.095    11844.048    11023.585     10871.44   -193.58228   -913.21601   -927.58856   -5626.6331 
 5758000    277.91955   -9024.4933   -7964.9372   -9024.4933            0    11230.528    24.897215    25.079647    22.806391    14240.615    12335.044    9450.2642    11906.276   -976.94062   -1077.2429    196.30944   -5632.5276 
 5759000    293.45272   -9005.2064   -7886.4308   -9005.2064            0    11270.784    24.917214    24.943742    22.924927    14248.497    11294.639    11584.741    10932.973   -917.12646    1212.7696    366.79487    -5544.365 
 5760000    283.51614   -8979.2048    -7898.312   -8979.2048            0    11897.092    24.830286    25.036743    22.846698    14203.096    12221.204    10757.599    12712.472    -297.1414   -591.13549    243.16374   -5433.9771 
 5761000    276.33379   -8996.6284   -7943.1179   -8996.6284            0    11673.934    24.802733    24.921129    23.050211    14247.614    13300.267    11567.194    10154.341    369.14814   -1660.9605   -706.75694   -5517.4281 
 5762000    293.21428   -9014.0761   -7896.2095   -9014.0761            0     10443.09    25.002662    24.942083    22.973955    14326.983    10386.398    9935.5064    11007.365   -867.70466   -1075.1638    885.75958   -5714.1849 
 5763000    285.11302   -9001.2249    -7914.244   -9001.2249            0    10099.842    25.057178    24.997357    22.871433    14325.824    9864.2701    9573.1009    10862.155   -100.71086   -88.957304   -319.51244   -5804.1098 
 5764000    288.50073   -9087.0547   -7987.1583   -9087.0547            0      10674.3     24.89723    24.810836    23.072478    14252.357    10607.369    10881.562    10533.968    389.93743   -24.963987   -873.73903   -5768.4411 
 5765000    276.01555   -8983.5425   -7931.2454   -8983.5425            0    11452.393    25.052253    24.937872    22.758431    14218.326    11340.914    11506.408    11509.857   -539.21473    573.22313    512.64557   -5556.4804 
 5766000    282.86438   -9009.9497   -7931.5417   -9009.9497            0    11370.776    24.944654    24.846515    23.002431    14256.624    10362.286    12798.568    10951.473     437.4963   -1013.5166   -316.27778   -5567.3501 
 5767000    284.56111   -8996.9777    -7912.101   -8996.9777            0    12532.326     25.02072    24.878087    22.782078    14181.106    11615.756    12070.333     13910.89    613.33351    641.06429    73.557606   -5320.2042 
 5768000    282.42286   -9049.4568   -7972.7321   -9049.4568            0    10700.075    24.928615    24.840667    22.981417    14231.092    11362.692    11149.105    9588.4279    326.28762   -566.32203    859.61638   -5751.9758 
 5769000    284.76938   -9026.3085   -7940.6378   -9026.3085            0    11699.313    24.980568      24.8444    22.891631    14207.169    10028.906    14078.093    10990.941    335.70456    1.8273066     1146.631   -5516.5753 
 5770000    279.39437   -9029.5284   -7964.3497   -9029.5284            0    11197.066    24.840635    24.982492    22.908903    14216.829      12669.7    9650.4671    11271.031    80.877007    137.58248   -1176.0076   -5642.7738 
 5771000    276.86861   -9005.1471   -7949.5977   -9005.1471            0    10977.911    24.760684    25.041607    22.973044    14244.375    12129.386    10022.194    10782.152   -1112.8738    116.81621   -701.52453    -5669.051 
 5772000    277.45999   -8945.3142   -7887.5101   -8945.3142            0    12937.872    24.793154    25.119135    22.814741    14208.623    13996.897    11793.452    13023.267   -357.65466   -1227.1822    641.05609   -5206.5477 
 5773000    277.87587    -9042.509   -7983.1195    -9042.509            0    11431.419    24.798418    24.935081    22.973668     14205.78    11989.593    11232.797    11071.866   -200.37293   -391.45137     56.44524   -5614.7955 
 5774000    286.37358   -8956.3546   -7864.5679   -8956.3546            0    11077.858    24.943807    25.065683    22.840725    14280.788    10468.204    11338.165    11427.206    -296.4352   -638.92003    488.39574   -5557.3752 
 5775000    281.81342   -9010.4323   -7936.0311   -9010.4323            0    10321.081    24.901287    24.926391    23.045039    14304.037    10803.571    10959.553    9200.1207     841.0758   -444.65236     121.6102   -5782.9532 
 5776000    294.06036   -9029.5931   -7908.5009   -9029.5931            0    9731.4383    25.000698    25.060455    22.830526    14303.984    9128.8086    10285.401    9780.1055   -670.04539    1335.9452    683.92122    -5878.436 
 5777000    278.88014   -8997.5623   -7934.3441   -8997.5623            0    10025.119     24.94539    24.825784    23.135395    14327.492    8858.7077    11394.568    9822.0802   -86.502687    573.59799   -105.40905   -5839.5777 
 5778000    286.25684   -9053.3692   -7962.0275   -9053.3692            0    9427.5247    25.076258    25.056591    22.801311    14326.646    8629.9445    9005.6436    10646.986   -720.25447    203.52346   -706.23745   -5992.2458 
 5779000    273.53365   -9007.9388   -7965.1037   -9007.9388            0    10518.226    24.975775    24.905889    22.999459    14306.673    10170.345    10957.083    10427.251    257.08901    -2.903368   -461.33011   -5770.4952 
 5780000    282.71044   -8983.3366   -7905.5155   -8983.3366            0    9613.5976    25.024134    24.984522    22.959505     14354.65    9572.4839    10465.139    8803.1695   -775.84515   -534.07916    648.80966   -5892.9295 
 5781000    286.12914   -8984.9113   -7894.0565   -8984.9113            0    9347.7081    24.966893    24.990531    23.030405    14369.496    10352.276    9377.7368    8313.1113    21.472509   -323.74382    1148.6063     -5935.11 
 5782000    284.25507   -8986.1657   -7902.4558   -8986.1657            0    10688.898    24.922708    25.020932    22.956443    14315.394    10752.288    10819.214    10495.193      934.486    381.12396    161.91229   -5670.8774 
 5783000    285.11854   -9013.3313   -7926.3294   -9013.3313            0    10747.467    24.878036    25.013905    22.920888    14263.596    10962.459    10752.032    10527.911   -58.480996   -244.25655   -1179.1375   -5690.6422 
 5784000    277.67403   -9055.5902   -7996.9702   -9055.5902            0     9907.501    24.901972    24.966798    22.980664    14287.596    10821.893    9603.7366    9296.8737   -511.68969    430.37884   -144.36366   -5932.5449 
 5785000    269.98599   -9029.6335   -8000.3237   -9029.6335            0    11561.168     24.93607    24.851347    22.958596    14227.326    10652.277     13042.32    10988.908   -523.60273   -941.61198   -786.28758   -5601.4859 
 5786000    281.25271   -9017.2195   -7944.9559   -9017.2195            0    12369.409    25.009802    25.011196    22.669634    14180.424    10689.869    11476.091    14942.267    -444.7829    -385.0475    1624.5703   -5386.8763 
 5787000    284.87339   -9030.0639   -7943.9966   -9030.0639            0     12295.62    24.810322    24.905043    22.978889    14198.704    13691.383    11924.896    11270.582   -1287.9182    679.68901   -853.18778   -5397.8991 
 5788000    285.47226   -8984.4839   -7896.1335   -8984.4839            0     13352.05    24.836213    24.940922    22.838324    14146.927    13861.638    12728.388    13466.123    45.957613   -924.55327    482.18427   -5141.3597 
 5789000     281.0279   -9024.7535    -7953.347   -9024.7535            0    12258.422    24.880766    25.010017    22.801112    14188.411     12720.84     10754.67    13299.756   -143.03028   -201.71323   -791.20292   -5416.7925 
 5790000    274.02838   -8987.1918   -7942.4707   -8987.1918            0    13329.782     24.86366      24.8748    22.912244    14170.732    13219.913     13899.99    12869.445   -503.39621   -107.31629    556.58916   -5187.6633 
 5791000    287.32243    -9070.245   -7974.8409    -9070.245            0    12081.913    24.947864    24.786497    22.912513    14168.414    10610.397    13743.882    11891.459   -386.53275   -94.074946   -406.07839   -5478.3337 
 5792000    279.99879   -9005.3483   -7937.8652   -9005.3483            0    12915.898    24.890228    24.859141    22.898873    14168.671    13042.323    13176.273    12529.098   -333.79144    1955.5621    344.41905   -5268.9817 
 5793000    283.31355      -8990.8   -7910.6796      -8990.8            0    12169.603    24.982634    24.909431      22.9193    14262.753    11334.326    11855.254    13319.228     456.0633    636.94232    588.75172   -5379.3093 
 5794000    282.85073   -9019.7242   -7941.3682   -9019.7242            0    11393.049    25.184366    24.828269    22.758865    14230.759    9867.5446    12416.206    11895.397   -95.998036    860.30391    498.68403   -5576.8431 
 5795000    277.70289   -9077.3961    -8018.666   -9077.3961            0     10522.66    24.884546    24.848393    23.064574    14261.771    9040.5321    12737.061    9790.3853    26.207032   -1047.5635   -69.311508   -5830.0233 
 5796000    285.89761   -8974.5528   -7884.5807   -8974.5528            0    12140.201    24.919233    25.016014    22.789721    14206.654    12088.223    10758.579    13573.802    836.58757    1079.3208    1299.6408   -5369.2588 
 5797000     286.3779   -9030.4075   -7938.6043   -9030.4075            0    12309.638    24.716823    24.937142    22.970579    14158.305    12688.689    11745.236    12494.988    513.80668   -943.74716   -642.84174   -5396.8567 
 5798000    282.83976   -9044.0046   -7965.6904   -9044.0046            0    9168.3428    24.863462    25.101662    22.937516    14315.629    10093.696    7255.8108    10155.522    216.70891    405.45315    243.09997   -6051.5351 
 5799000    285.74123   -9005.1391   -7915.7632   -9005.1391            0    10011.642    24.892739     25.05205    22.952977    14313.801    11683.186    8119.5631    10232.176    538.72252   -1353.1824    365.26041   -5825.8119 
 5800000    290.82587   -9005.1575   -7896.3966   -9005.1575            0    12759.634    24.738731    25.070475    22.886279    14194.339    13936.576    11729.013    12613.314   -559.02177    148.39509    958.13929   -5255.0262 
 5801000    281.11029   -9000.7762   -7929.0555   -9000.7762            0     10905.17    24.875488    24.988176     22.97447    14280.771    11782.076    9898.1308    11035.303   -233.07676   -1330.1494   -313.59035   -5657.8314 
 5802000    277.85832   -9010.3277   -7951.0051   -9010.3277            0    10556.465    24.977099     25.02396    22.855433    14285.238     10623.29    9010.7831    12035.321    6.9131657    683.76555    952.57835   -5751.7183 
 5803000    282.17653   -9020.8907   -7945.1051   -9020.8907            0    11164.483    24.826408     24.92853    23.080022    14283.899    11194.758    12090.928    10207.761    62.277995    29.670592    969.04944   -5619.3645 
 5804000    283.81167    -8998.923   -7916.9035    -8998.923            0    10407.451    24.872047    24.996798    22.972181      14282.3    10321.171    10902.697    9998.4845    906.02776   -629.99259   -616.21946   -5749.1075 
 5805000    284.46818   -8976.3912   -7891.8687   -8976.3912            0    13338.916    24.919484    24.856599    22.877075    14170.371    12506.838     14034.22     13475.69    98.184417    77.189135   -753.72527    -5135.244 
 5806000    281.61839   -8961.5912   -7887.9334   -8961.5912            0    12820.993    24.979128    24.886709    22.853117    14206.601    10956.833    14305.659    13200.488   -299.00244   -1041.6017    1110.8603   -5231.5685 
 5807000     279.4145   -8994.9651   -7929.7095   -8994.9651            0     12618.29    24.889212    24.744608    23.065757    14205.595    12106.471    15450.484    10297.915   -573.24909   -253.52818    1539.1757   -5315.5274 
 5808000    283.91934   -9034.6163   -7952.1862   -9034.6163            0    11239.853    24.867729    24.902306    22.961256    14219.075     10757.02    10996.319     11966.22   -238.28402   -155.79314   -1.2580079    -5621.371 
 5809000    279.10767    -8995.521   -7931.4353    -8995.521            0    12070.084    24.876279    24.993912    22.847806     14205.75    12951.196    11770.825    11488.231   -103.20729   -98.144678     754.2411   -5430.8001 
 5810000    276.81169   -9030.8601   -7975.5277   -9030.8601            0     12476.88    24.731439    24.873534    23.099475    14209.833    12819.068     12425.87    12185.703    809.37629   -101.83789    900.89964   -5389.8708 
 5811000    284.58746   -9047.1898   -7962.2126   -9047.1898            0    10213.585    24.921832    24.943248    22.935606    14257.494    11411.643    9372.3456    9856.7678   -99.552287   -159.89416   -307.32888   -5838.4924 
 5812000    279.18656   -8992.2737   -7927.8872   -8992.2737            0    11650.428    24.988515    24.896134    22.866476    14225.633    10464.483    12681.735    11805.066   -10.556728   -685.74664   -253.77539   -5510.8164 
 5813000    286.73624   -8965.7487   -7872.5794   -8965.7487            0    11038.872    24.865752    24.904904    23.055017    14277.491    11567.903    11698.831     9849.883    560.83782    409.34676   -396.02503   -5574.0371 
 5814000    287.76702   -9008.6633   -7911.5642   -9008.6633            0    11855.844    24.846118    25.053966    22.844595    14220.619    12311.916    10299.721    12955.893   -297.75248   -27.197576    890.85415   -5452.7436 
 5815000    274.83759   -9024.6463   -7976.8401   -9024.6463            0    10644.126    24.853523    24.985904    22.960366    14258.106    10649.475    11822.826    9460.0781   -612.42414    659.67039    166.80582   -5763.5021 
 5816000    291.50079   -8972.0112   -7860.6773   -8972.0112            0    10640.513    24.900815    24.991631    22.977934    14299.444    12308.555    10045.665    9567.3176   -363.72761   -12.204919   -394.17997   -5641.6758 
 5817000    293.73066    -9092.381   -7972.5458    -9092.381            0    11546.091    24.881256    25.003175    22.860325    14221.646    11775.365    10087.756    12775.153    706.30232    259.87746    1044.9221   -5577.7928 
 5818000    282.80262   -9053.1436    -7974.971   -9053.1436            0     10897.43    24.916117     24.91532    22.935967    14238.488    11063.405    11577.907    10050.978    30.423893   -404.19936   -801.13514   -5712.0789 
 5819000    279.44156   -9047.5959   -7982.2373   -9047.5959            0    11174.333    25.034242    24.793359    22.910131    14219.928    10324.668    11832.054    11366.277    987.42466   -316.72568    30.101338   -5664.8699 
 5820000     278.1684   -9030.0441   -7969.5393   -9030.0441            0     11554.41    24.968951    24.829403    22.930013    14215.786    9986.6957    13515.672    11160.863    171.70111  0.091590804    656.51947   -5574.0482 
 5821000    286.65196   -9014.8692   -7922.0212   -9014.8692            0    10862.276    25.047255     24.85406    22.900344    14256.059     10795.73    11321.027     10470.07   -553.34367   -61.257239   -233.94502   -5663.6455 
 5822000    287.68703   -8981.8403   -7885.0462   -8981.8403            0    11986.687    24.995085    24.809699     22.92399    14215.637    11200.623    12634.136      12125.3    563.10074   -311.99812   -665.46272   -5399.9605 
 5823000     280.1578    -9080.756   -8012.6667    -9080.756            0    10285.347     24.94892    24.926497     22.87403    14225.112    8822.0226    11936.623    10097.396   -936.99958   -995.46412    354.11934   -5878.8822 
 5824000    294.67393   -9029.8046   -7906.3732   -9029.8046            0    11233.929    24.843854    24.933437    22.982172    14236.138    11220.343     11961.12    10520.323    -668.0115    793.90595    27.658926   -5573.9908 
 5825000    296.23129   -9011.9196   -7882.5508   -9011.9196            0    11781.215    24.920746    25.118313    22.740832    14235.013    11866.754    9539.0564    13937.836   -257.49818      638.116   -74.763484   -5436.7344 
 5826000    281.42713   -9006.3894   -7933.4609   -9006.3894            0      12292.4    24.895422    24.909815    22.909519    14207.117    13044.482    11107.469     12725.25   -266.49399   -1675.9279    1148.2147   -5386.5218 
 5827000    281.08012   -9060.1916    -7988.586   -9060.1916            0    12000.144    24.872693    24.906837    22.917301     14197.27    11417.074    11967.206    12616.151    251.33847    521.90363   -1151.2967   -5503.9248 
 5828000    283.37143   -8967.2755   -7886.9344   -8967.2755            0    13615.485    24.993916    24.780754    22.881812    14172.264     11899.24    14826.943    14120.273   -589.26041    737.13366    495.85737   -5072.7779 
 5829000    295.73656   -9081.9404   -7954.4578   -9081.9404            0    11488.893    24.958564     24.81213    22.945295    14209.451    11410.578     11570.71    11485.389    161.47567     219.2198    694.86215   -5573.6115 
 5830000    284.59821   -9026.4275   -7941.4093   -9026.4275            0     11225.29    25.079046    24.824991    22.859633    14232.113    10469.161    12693.124    10513.586    189.10527   -1144.4398   -328.02145   -5611.4795 
 5831000    292.34214   -9006.3383   -7891.7967   -9006.3383            0    11736.691    24.968909    24.944108    22.820919    14213.488    11582.968    11093.025     12534.08    36.600065    709.45194     452.0318    -5458.908 
 5832000    276.51033   -9011.1087   -7956.9252   -9011.1087            0    11234.077    24.762206    24.893627    23.191303    14295.608    11973.288    11720.404    10008.538   -483.35786   -113.95568    954.26497   -5614.7687 
 5833000    277.02055   -9055.2978   -7999.1691   -9055.2978            0    11273.943    24.897983     24.91742    22.895152    14204.004    10319.176    11744.327    11758.327    380.20481    122.40023    560.10077   -5663.7624 
 5834000     282.6272   -8954.8223   -7877.3185   -8954.8223            0    11433.548    25.039488    24.919588    22.905138    14292.204    10855.534    11295.078    12150.031   -234.98501    -1042.283    316.64775   -5494.1425 
 5835000    285.84806   -9045.4138   -7955.6306   -9045.4138            0    9786.3142    25.000988    24.809238    23.020786    14278.768    9829.2689    10638.624    8891.0492    477.95281    69.098069   -1054.1671   -5917.7169 
 5836000    280.86929   -8995.7083   -7924.9065   -8995.7083            0    10735.542     24.97557    24.933772    22.914553    14269.698    11069.973    10591.656    10544.997   -1044.0451   -154.75492     1725.336   -5690.7445 
 5837000    282.55739   -9010.3278   -7933.0902   -9010.3278            0    11259.173    24.827766    24.780116    23.151159    14243.401    11673.902    11910.184    10193.434    240.94777   -593.92007   -24.413003   -5594.2739 
 5838000     286.8517   -8983.2241   -7889.6146   -8983.2241            0    12468.281    24.869558    24.971352    22.898445    14220.541    12953.047    11936.291    12515.505     506.7306      216.424   -182.63524   -5303.7929 
 5839000    286.25535   -9073.5376   -7982.2017   -9073.5376            0    13104.144    24.723339    24.962257    22.868254    14113.151    12774.753    13692.865    12844.814   -9.9383312   -1010.5338   -391.59079   -5285.0304 
 5840000    280.15576   -8977.0174   -7908.9359   -8977.0174            0    12832.716    24.800297    24.875256    23.032309    14208.948    12971.783    13659.818    11866.546    827.77609    969.29524    198.76467   -5249.7029 
 5841000    275.20182   -9022.5115   -7973.3167   -9022.5115            0    12011.497    24.888294    25.037714    22.787748    14200.094    11856.274    10307.744    13870.472    804.97275    342.89467   -1194.8582   -5485.8102 
 5842000    279.86365   -8977.2677   -7910.2998   -8977.2677            0    13064.688    24.727139    25.143101    22.780355    14162.933    12637.192    11617.889    14938.984   -1301.4136    128.78322   -324.18385   -5211.7642 
 5843000     280.4875    -8992.963   -7923.6167    -8992.963            0    11683.667      24.7693    24.988463    23.008157    14240.824    13260.591    10495.603    11294.808   -845.45805   -372.91718   -1266.9267   -5497.0614 
 5844000    282.65172   -9024.7756   -7947.1784   -9024.7756            0    11245.625    24.976775    24.977944    22.841048     14249.81    11551.172    10034.339    12151.364   -332.32581    747.76753   -110.19776   -5610.1254 
 5845000    272.38025   -9034.2458   -7995.8081   -9034.2458            0    11975.022    24.922533    24.819966    22.949904    14196.269    11645.631    12154.215    12125.218   -65.615848   -513.42345   -191.32589   -5516.5233 
 5846000    285.16982   -9029.5545    -7942.357   -9029.5545            0    10018.459    25.071498    24.958821    22.837391    14290.613     9649.194    9634.5006    10771.682     656.0868   -854.38522    182.17075   -5854.3707 
 5847000    284.28524   -9013.3387   -7929.5137   -9013.3387            0    10348.121    24.884946    24.913334    23.101857    14322.388    10831.627    10715.823    9496.9145   -1076.5011    412.10464    79.216044   -5768.0256 
 5848000    273.61592   -9055.5837    -8012.435   -9055.5837            0    10544.049    25.013038    24.852415    22.931898    14255.257    10175.527    10619.527    10837.092   -301.01609    124.91305   -288.33411   -5820.3452 
 5849000    287.62029   -9009.2266   -7912.6868   -9009.2266            0    10718.535    25.040535    24.943126    22.928469    14320.875    10029.347    11614.568    10511.689    737.08299   -555.27526    886.42827   -5674.0643 
 5850000     281.9042   -9074.1093   -7999.3619   -9074.1093            0    10264.392    24.869358    24.933953    22.977911    14248.406    10445.943    9468.3252    10878.907    661.72206    -120.5132    468.45435   -5866.4379 
 5851000     277.2435   -9010.5017    -7953.523   -9010.5017            0     12733.54    24.850493    24.930103    22.871327    14169.366    13199.991    12562.496    12438.132    348.11284    538.23712    935.68308   -5322.1922 
 5852000    286.42935   -8989.1423    -7897.143   -8989.1423            0    11633.977     24.90963     24.92983    22.983684    14272.704    12993.378    10454.944    11453.608   -158.53324    263.11895     422.6586   -5475.4988 
 5853000    279.11657   -8997.6632   -7933.5435   -8997.6632            0     9782.125    24.997806    24.988926    22.943107    14331.833    9589.1956    9719.1738    10038.006    979.34938    356.61041   -1035.5921   -5888.9319 
 5854000    277.74891   -9013.3831   -7954.4776   -9013.3831            0    10739.887    24.928782    24.924023     22.98504    14281.192    9860.8642    11202.203    11156.593    247.27758   -338.52405   -666.23495   -5717.6111 
 5855000    279.51486   -8991.1768   -7925.5387   -8991.1768            0    9935.8701    25.100364    24.960255    22.804748    14287.436    8886.0692    10330.601     10590.94    32.138891   -306.96914    152.82277   -5855.2253 
 5856000    275.92812   -9004.3736   -7952.4097   -9004.3736            0    13180.932    24.822728    24.897799    22.936929     14175.74    12205.784    15147.918    12189.093    364.00128    520.52638   -827.20626   -5227.4021 
 5857000    286.16222    -9031.354   -7940.3731    -9031.354            0    11320.686    24.846815    24.943604    22.948485    14222.762    12600.021    11061.025    10301.012    768.63741    348.25239    292.53585   -5592.1867 
 5858000    290.59467    -9022.902   -7915.0225    -9022.902            0    13023.817    24.807365    24.871826    22.894121    14125.775    12873.054    14075.609    12122.787   -305.80848   -266.43059    -164.9683   -5231.9868 
 5859000    285.25785   -9040.6568   -7953.1238   -9040.6568            0    10529.155    24.807651    24.947793    23.039428    14259.013    12743.205    9032.9079    9811.3528    1037.0405    148.06117    264.42615   -5763.5537 
 5860000     278.5315   -9028.7728   -7966.8837   -9028.7728            0    10246.454    24.928597    25.063766    22.850521    14277.109    9781.0371    11026.429    9931.8968    -174.9912    486.16107   -1027.7326   -5833.3978 
 5861000     281.2255   -9019.9715   -7947.8116   -9019.9715            0    9314.5037    24.811288    25.119713    23.065835    14375.838    10359.661    8833.6687    8750.1816    18.977297    648.54127   -265.26531   -5994.9622 
 5862000     281.7554   -9000.5601     -7926.38   -9000.5601            0    11517.121    24.863418    24.992111    22.949667    14260.678     11621.48    11405.908    11523.975    174.72456   -114.88936   -115.56481   -5531.0796 
 5863000    286.25081   -9039.9716   -7948.6529   -9039.9716            0    10406.919    25.020011    24.911518      22.8836    14263.038    10141.177    10830.814    10248.765    22.845493    314.95668    444.24514   -5783.8913 
 5864000    298.07374   -9003.8773   -7867.4842   -9003.8773            0    10683.542    24.956262    24.892673    22.983028    14277.702    11226.887    10519.283    10304.458   -285.62526    614.25626    -198.1239   -5642.8967 
 5865000     288.8959   -8991.4032   -7890.0003   -8991.4032            0     11021.22    24.876098    24.898668    23.035894    14268.011    10566.441     11399.98    11097.239    -648.8417   -1646.0679   -106.36541   -5596.6574 
 5866000    273.80726   -8998.3298   -7954.4517   -8998.3298            0    12082.356    25.001792    25.069929    22.671226    14210.169    10821.852    11560.853    13864.364     479.0894     18.44111    602.33059   -5450.4952 
 5867000    278.39222    -9061.546   -8000.1879    -9061.546            0    11080.653    24.852565    24.891775    22.994031     14224.67    11869.187    11225.932    10146.839    553.42303   -369.25984     960.0711   -5701.4819 
 5868000    268.20134   -9017.0301   -7994.5243   -9017.0301            0    12733.498    24.852456     25.07775    22.744266     14175.22    12474.206    12306.974    13419.315   -150.61438    233.69785   -557.95031   -5362.1148 
 5869000    280.91186   -9004.5446   -7933.5805   -9004.5446            0    12068.581    24.808955    24.991728    22.881508    14186.962     13169.54    10322.489    12713.714    774.37081    1691.8883    1054.6986   -5436.5634 
 5870000    275.78614   -8999.6856    -7948.263   -8999.6856            0    11581.559    24.870215     24.95032    22.920894    14222.869    12282.886    10888.613    11573.177    487.19498   -568.73483    1018.0788   -5545.9471 
 5871000    275.10554   -9003.5885   -7954.7607   -9003.5885            0    11607.883    24.898107    25.004572    22.884272    14246.981    10922.091    11816.192    12085.365    498.18392   -621.53126   -453.98911   -5542.9027 
 5872000    277.47098   -8975.8419    -7917.996   -8975.8419            0    10218.159    24.811437    24.987094    23.098315    14320.163    11949.062    9961.3994    8744.0168   -1412.3217   -373.42537   -668.43308   -5783.9856 
 5873000    271.01146   -9004.2266   -7971.0073   -9004.2266            0    10529.328    24.972157    25.104148    22.768653    14273.776    10315.254    8829.5511    12443.178   -322.86811   -1324.5913   -169.05781   -5779.1342 
 5874000    293.92325   -9025.4595   -7904.8901   -9025.4595            0    10445.949    24.846218    24.991427    23.008581    14287.004    11022.057    10713.835     9601.954    643.11441   -149.73642   -770.64225   -5728.3586 
 5875000    287.74744   -8990.0305    -7893.006   -8990.0305            0    11312.174    24.888368    24.941923    22.967994    14257.699    11497.683    11124.562    11314.277   -50.873727    518.00406   -217.15363   -5540.8214 
 5876000    287.67087    -9031.347   -7934.6145    -9031.347            0    12692.864    25.037951    24.759371    22.879553    14183.582    11176.999    14303.142    12598.451     302.7395     535.1138   -800.26877   -5309.0576 
 5877000    286.92951   -8995.1446   -7901.2384   -8995.1446            0    12842.631    24.891216    24.799952    22.987176    14190.006    12285.362    13104.678    13137.854   -599.71755   -444.12097    1751.9825   -5243.4986 
 5878000    284.66208   -9031.7994   -7946.5377   -9031.7994            0    12793.246    24.923626     24.94891    22.795192    14174.445    12239.356    12399.776    13740.607   -1027.8975    555.78587   -522.26092   -5301.9212 
 5879000    290.11782   -9022.8893   -7916.8278   -9022.8893            0    11251.977    24.894497    24.755638    23.091726     14230.95    10868.654    11704.532    11182.746   -190.55974   -1716.7624    381.72285   -5581.5497 
 5880000     278.3192   -9045.0353   -7983.9555   -9045.0353            0    11506.878    24.949908    24.989155     22.79105    14209.698    10657.167    10720.069    13143.399     878.9067   -262.96501   -530.26469   -5599.3405 
 5881000     283.5631   -9056.4133   -7975.3415   -9056.4133            0    11963.791    24.709535    24.841341     23.11501    14188.408    14417.866    11296.893    10176.614    304.12074   -1009.3539    347.76535   -5499.7534 
 5882000    287.30736   -9052.3048   -7956.9581   -9052.3048            0    10018.165    24.913617    25.068699    22.895947    14299.709    10642.723    8378.6923     11033.08   -1183.7922    1146.2074    -734.5414    -5867.704 
 5883000    275.74602   -9013.8632   -7962.5936   -9013.8632            0     9934.236    24.821296    24.978432    23.087606    14314.248    10122.882    9558.7423    10121.083   -748.83002   -121.07413    597.91827   -5888.7361 
 5884000    273.02154   -9033.8307   -7992.9481   -9033.8307            0    11095.478    24.955325     24.93122     22.89025    14241.551    11133.084    10389.159    11764.192   -991.38993   -497.85652   -732.05139   -5688.4348 
 5885000    281.35924   -9078.7625   -8006.0928   -9078.7625            0    10899.663    24.975319    24.922257    22.855124    14225.973    10456.107     11106.45    11136.431   -290.22145   -1433.2348    1282.1542   -5744.7263 
 5886000    278.50747   -8989.7868   -7927.9893   -8989.7868            0    11395.586    24.892724    24.825432    23.075355    14259.938    11020.472    12787.357    10378.928     623.3155    577.20587     436.4445   -5558.0885 
 5887000    275.15287   -9019.6247   -7970.6165   -9019.6247            0     12003.37    24.932784     24.92295    22.892918    14225.625     10917.19     12469.51     12623.41    1046.6236    607.26037   -904.56891   -5480.3236 
 5888000    285.24727   -9018.3423   -7930.8496   -9018.3423            0    11666.296    24.860191    25.014296    22.897682    14239.156    13192.514    9874.1244    11932.251    623.93087   -942.09569    235.44495   -5508.1858 
 5889000    273.56879    -9035.686    -7992.717    -9035.686            0    11543.381    24.715049    25.011919    22.925388    14171.806    12017.947    11427.293    11184.904     145.1251    1364.4336   -256.28087   -5606.9165 
 5890000    287.46981   -9034.6711   -7938.7051   -9034.6711            0    10652.822    24.940633    25.023644    22.881465    14280.448    11399.068    9397.6863    11161.711   -563.62689    503.86713     773.0239   -5720.0878 
 5891000     270.6105   -9020.5221   -7988.8315   -9020.5221            0     9813.942    24.873256     24.87436     23.16113    14329.938      9236.33     11897.74    8307.7559    274.12262    827.92437     499.2508   -5937.8408 
 5892000    269.84242   -9014.3644    -7985.602   -9014.3644            0    11459.142    24.977554    24.970096    22.802765      14221.9    11354.855    11097.448    11925.123    210.49636   -1793.6098    60.591369   -5608.8405 
 5893000    282.95999   -9016.1361   -7937.3636   -9016.1361            0    10523.794    24.849535    24.905677    23.057205    14269.977    12649.854    10216.588    8704.9414    815.57295    545.09916   -341.32414   -5747.2254 
 5894000    277.75777   -9006.4656   -7947.5263   -9006.4656            0    11491.578    24.885204    24.935962    22.951045    14241.961    11467.167    11686.839    11320.727   -21.683645    897.48162    415.65124   -5560.6751 
 5895000    285.11674   -8965.9654   -7878.9703   -8965.9654            0    10864.099    24.903727    25.089935    22.840444    14271.461    11883.471    9760.9655     10947.86   -420.98059    570.33812   -758.41044   -5617.7754 
 5896000    284.65486   -9034.5934   -7949.3592   -9034.5934            0    11675.661    24.791425    24.873881    23.038063    14206.628    11669.248    12239.941    11117.793    692.03864   -307.67429    -27.23192   -5530.2896 
 5897000    284.97695   -9037.8596   -7951.3975   -9037.8596            0    12035.814    24.917074    24.997268     22.82189    14214.815    11990.396     11608.86    12508.186    526.09019   -402.05463    1043.8352    -5456.271 
 5898000    284.55318   -9060.8535    -7976.007   -9060.8535            0     11876.35    24.876154    24.836635     22.91833     14159.86     11207.87    12703.427    11717.753   -721.55875   -866.42548   -81.316406   -5523.4571 
 5899000    290.97706    -9036.612   -7927.2748    -9036.612            0    10102.666    24.919997    24.957507    22.983758    14294.542     9654.086    10361.008    10292.904   -226.88586    1131.4011   -342.05833   -5821.1595 
 5900000    280.78596   -9059.5237   -7989.0395   -9059.5237            0    8897.6995    24.893233    25.112118     22.97314     14361.01    10542.728    7427.4923    8722.8782   -399.69064    -301.5288      252.618      -6125.5 
 5901000    285.76169    -9028.917   -7939.4631    -9028.917            0    10203.594    24.935086    25.029691    22.904782    14295.275     10044.43     9848.929    10717.424   -1140.4549    21.286655     -628.646   -5812.1981 
 5902000     277.4857   -9036.7344   -7978.8324   -9036.7344            0    11200.032    24.947792    24.947766     22.90061    14253.149    11301.363    11331.514     10967.22   -36.751284    869.65071   -406.57875   -5650.7091 
 5903000    282.52662   -9004.7403     -7927.62   -9004.7403            0    10639.577    24.975266    24.909453    22.959344    14283.472    10728.705    10587.509    10602.517     193.7273    866.06271   -457.99417    -5711.292 
 5904000    272.22974    -9024.952   -7987.0881    -9024.952            0    10609.494    24.926255    24.955147    22.931513    14264.281    10088.516    11413.841    10326.126    436.66644    162.95155     187.8792    -5779.996 
 5905000    281.90634   -9035.6448   -7960.8893   -9035.6448            0    10444.249    24.973708    24.887415    22.979374    14282.394    10688.488     11325.67    9318.5885    686.65629    619.70376    402.94433   -5785.4142 
 5906000    265.48224   -9064.4035   -8052.2641   -9064.4035            0    9952.7825    25.032805    24.909174    22.848591    14247.159    8490.5008    10753.074    10614.773   -156.17417   -22.005131     372.8257    -5984.273 
 5907000    284.95913   -9040.2083   -7953.8141   -9040.2083            0    10513.388    24.824469     24.95546    23.007844    14253.499    10978.055    10645.694     9916.415    1100.1717    617.05534   -188.60236   -5768.3682 
 5908000    290.01494   -9048.0943   -7942.4251   -9048.0943            0    10762.382    24.873575    25.018817    22.917648    14261.822    11245.597    10455.047    10586.503    424.75482   -74.824964   -344.33121   -5703.9137 
 5909000     279.1687   -8983.4657   -7919.1473   -8983.4657            0     9788.832    24.891723    25.123814    22.894643    14317.738    10347.837    8104.4773    10914.182    568.52042    457.26473    783.09063    -5875.146 
 5910000    279.05367   -9018.9484   -7955.0685   -9018.9484            0    12035.966     24.90527    24.908494    22.902374    14207.551    11384.445    12263.324    12460.127   -627.82272   -1159.2826   -346.29231   -5461.1856 
 5911000    267.15097   -9007.4473   -7988.9459   -9007.4473            0    12486.185    24.796223    24.778235    23.085463    14183.862    13315.994    13474.522    10668.039    -295.5029   -293.22048   -1145.2531   -5406.0902 
 5912000    285.10429   -9039.8839   -7952.9363   -9039.8839            0     10251.67    25.014913    24.990589    22.857407     14289.02    9100.4894    9730.2663    11924.253     158.6667   -259.37906   -295.65714   -5816.5837 
 5913000    277.45545   -8991.3966   -7933.6099   -8991.3966            0    10277.333    24.817691    24.903678    23.166585    14318.149    10514.145    11053.235    9264.6203    363.38381    882.16775    63.462988   -5787.5432 
 5914000    277.44599   -9030.3618   -7972.6111   -9030.3618            0    10944.874    24.938252    24.991555    22.898112     14271.15    12211.129    10195.309    10428.185   -503.99484    525.37029    511.57327   -5694.6535 
 5915000    287.10125    -9044.807   -7950.2461    -9044.807            0    10810.484    24.904902    24.933303    22.936349    14242.589    10956.689    11346.215    10128.547   -56.437685    12.463991    135.96425   -5704.7621 
 5916000    288.01441   -9002.3071   -7904.2649   -9002.3071            0    12164.389    24.890167    24.870677    22.997578    14236.313    11147.527    14069.679     11275.96    644.07083   -158.33195    147.12408     -5378.67 
 5917000    278.76319   -9087.3842   -8024.6117   -9087.3842            0    9775.9512    24.942646    25.044185    22.872522    14287.738    10366.344    8759.6743    10201.835   -16.740527   -532.36062    -121.0567   -5987.5771 
 5918000    290.44333   -8985.9824     -7878.68   -8985.9824            0    12534.164    24.811739    24.868695    22.998495    14190.889    13652.899    13103.746    10845.847    443.88326   -90.187017    -1029.277   -5284.6148 
 5919000     274.5351   -8980.3966   -7933.7436   -8980.3966            0    11778.659    24.760414    25.023733    22.955183    14222.985    13590.823     10663.47    11081.684   -532.19815     71.43669    791.92546    -5490.524 
 5920000    275.46433   -8992.7411   -7942.5454   -8992.7411            0    12866.739    24.807749    25.060226    22.810583    14181.061    14322.437    11244.035    13033.746    199.80439   -338.20315    466.16771   -5281.4949 
 5921000     275.9152    -9006.212   -7954.2975    -9006.212            0    12945.915    24.780277    24.862897     22.98517    14161.381    13053.881    13249.447    12534.416    330.28075    289.00713   -1094.0897   -5280.5879 
 5922000     290.1246   -9048.3976   -7942.3103   -9048.3976            0    12445.797    24.882518    24.918744    22.850776     14168.42     13082.77    12369.088    11885.533    179.46184    190.91935   -523.88038   -5370.6119 
 5923000    280.50085   -8995.3658   -7925.9686   -8995.3658            0    13121.719     24.85479    24.933883    22.842368    14156.019    12212.779    13669.312    13483.068    87.030115   -623.42584    103.13191   -5216.9763 
 5924000    283.87307   -9032.8512   -7950.5976   -9032.8512            0    12694.009    24.879164    24.865311    22.858752    14141.068    12545.421    13600.858    11935.748   -329.43755   -1176.2714    118.06396   -5332.6745 
 5925000    287.59751   -9044.5498   -7948.0969   -9044.5498            0    12058.049    24.892094    24.849236     22.94381    14191.882    12120.227    12372.396    11681.523    349.62719    483.39915     411.7949   -5452.3938 
 5926000    283.52238   -9047.9245   -7967.0078   -9047.9245            0    12783.528    24.925266    24.844796     22.85905    14155.767    11787.122     13181.86    13381.601    70.892149   -898.21031   -32.800486   -5327.8825 
 5927000     290.1205   -9044.1363   -7938.0647   -9044.1363            0    11310.206    24.963407    24.885272    22.926646    14242.518    10317.124    12015.507    11597.988    469.03768    323.50741    1926.4185   -5588.7933 
 5928000    276.59512   -9006.1595   -7951.6527   -9006.1595            0    11884.124    25.030085    24.739856    23.010394    14248.972    10416.009    13497.357    11739.006   -241.82305   -182.47698   -512.77766   -5482.0527 
 5929000    277.82297   -9019.6394   -7960.4516   -9019.6394            0    11233.062    24.990049     24.95576    22.878566    14268.119     10789.48    10803.979    12105.726   -1192.2979   -470.19895    -507.7264   -5623.0101 
 5930000    272.33866   -9001.1279   -7962.8487   -9001.1279            0    11405.495    24.813816    24.917397     23.00221    14222.168    12496.123    11218.838    10501.524    227.43264   -1103.6553    90.331002   -5597.1697 
 5931000     281.6992   -9007.1362   -7933.1704   -9007.1362            0    11952.789    24.854214    25.044808    22.806123    14196.105    11557.017     12250.07    12051.281   -1552.6443    1171.4303    310.06743   -5458.5171 
 5932000    283.31434   -8963.9836   -7883.8601   -8963.9836            0    12724.293    24.819513    24.906218    23.008473    14222.923    13858.304     12442.09    11872.485      560.613   -420.09229   -381.41483   -5244.5015 
 5933000    288.92827   -9051.4186   -7949.8923   -9051.4186            0    11526.848    24.843857    25.049825    22.874163    14235.376    10967.533    11648.175    11964.835   -212.13956   -1535.7688   -593.46154   -5556.8225 
 5934000    281.46502   -9000.5962   -7927.5232   -9000.5962            0    11959.454    24.876649    24.971476    22.900167    14225.736    11734.059    11512.921    12631.381    84.968327   -1294.6087    1134.8188    -5446.322 
 5935000    298.47393   -8994.8236   -7856.9048   -8994.8236            0     12895.73    24.815047    24.793182    23.048338    14180.351    12806.774    13685.488    12194.927   -140.42192   -1317.3633   -510.19501   -5189.9921 
 5936000    291.32499   -9007.4542   -7896.7905   -9007.4542            0    11292.475    25.002631    24.938448    22.887091    14270.715    11488.708    10272.439    12116.277    562.38931   -516.62104     1130.524   -5546.5584 
 5937000    272.02957   -9021.7283   -7984.6275   -9021.7283            0    12324.059    24.920461    24.877771     22.88854    14190.106     12469.63    12547.334    11955.212   -146.92706    1329.8356    108.15551   -5434.1864 
 5938000    285.17739   -8984.2393    -7897.013   -8984.2393            0    12111.022    24.815408    24.847425    23.046069    14210.182    12531.209    12748.723    11053.133    98.099309    -194.0819   -922.54355   -5387.1136 
 5939000     274.3784   -9051.8725   -8005.8169   -9051.8725            0    12058.315    24.947987    24.938814      22.8131    14193.699    11454.642    11470.563    13249.742    279.05539    272.85932   -66.367039    -5509.739 
 5940000    295.32348   -9014.1359   -7888.2281   -9014.1359            0    11553.965    24.867934    24.792704    23.071262    14224.433    11269.674    13147.943    10244.277   -712.11943    1266.6512    817.18239   -5491.3725 
 5941000    282.42663   -8993.4368   -7916.6977   -8993.4368            0    12695.013    24.996795    24.915435    22.793436    14195.889    12700.441    11532.745    13851.852   -1462.6385   -1076.6637    -934.8459   -5288.4177 
 5942000    275.67804   -8967.8306   -7916.8202   -8967.8306            0    12250.091    24.912138    24.886014    22.962233    14235.754    11450.851    12721.362    12578.059   -210.53475   -302.89464   -18.580951   -5373.5315 
 5943000    281.05185   -9021.0648    -7949.567   -9021.0648            0     11675.27    25.017575    24.856793    22.886806    14232.314    10139.759    12918.625    11967.427     402.9008   -212.13947    215.96048   -5526.2048 
 5944000    283.09988   -9041.1177   -7961.8118   -9041.1177            0    11106.621    25.055918    24.839718    22.869591     14233.62    9591.1756     11476.41    12252.279   -475.50581    244.16608    408.30085   -5656.2687 
 5945000    274.82361   -8985.3019    -7937.549   -8985.3019            0     12122.29    25.045953    24.749419    22.949813    14225.964    10612.543    13917.998    11836.329   -488.38232   -941.09394    426.48737   -5422.5242 
 5946000     288.4703   -9004.2232   -7904.4429   -9004.2232            0    12342.438    24.950187    24.824366    22.911085    14190.497    12669.314    13098.498    11259.502    798.30551    314.73159   -272.15442   -5350.1278 
 5947000    281.50752   -9020.4169   -7947.1819   -9020.4169            0    10193.898    24.959834    24.941782    22.965591    14297.061    10449.733    11353.822    8778.1402   -229.08484     186.2099    193.36182   -5821.6728 
 5948000    290.90699   -9032.8324   -7923.7623   -9032.8324            0     10123.04    24.931262    24.930078     22.98885    14288.451    10693.722    10136.828    9538.5692    279.04171   -1007.2293     89.30246    -5814.299 
 5949000    291.46772   -9018.8364   -7907.6285   -9018.8364            0    11750.443    24.928924    25.001542    22.803044     14212.26    10823.668    12278.096    12149.566    16.084449   -407.98283     -1121.32   -5472.0995 
 5950000    274.58945   -8992.0719   -7945.2116   -8992.0719            0    12174.218    24.759207     24.89811    23.086875    14232.076    13541.933    11524.326    11456.396   -752.53406   -311.88125   -671.54132   -5418.3281 
 5951000    291.66188   -9006.5866   -7894.6385   -9006.5866            0    13178.913    24.921325     24.96201    22.787232    14175.626    12804.722     13172.09    13559.927   -147.83262   -521.64211   -1164.9052   -5170.0701 
 5952000    272.61591    -8989.183   -7949.8468    -8989.183            0    12660.942    24.788996    24.931497    22.937555    14176.024    13163.799    12377.546    12441.481    -394.2642    1163.0102     658.5985   -5332.2886 
 5953000    277.24302   -9054.5347   -7997.5579   -9054.5347            0    11374.852    24.909452    24.912932    22.901547    14211.955    11827.122    11027.096    11270.339    25.572534    700.08696    170.97973   -5639.9288 
 5954000    284.02323   -8992.5818   -7909.7557   -8992.5818            0    11566.311    24.974861    24.843072    22.941268    14233.962    10330.893    12615.278    11752.764    510.30322    -706.0268    513.56099   -5508.7313 
 5955000    276.24207   -9034.3423   -7981.1816   -9034.3423            0    11046.953    24.927488    24.823827    23.032282    14252.276    11299.487    10105.059    11736.312   -95.385604   -831.87332   -1064.3113   -5685.0191 
 5956000    270.16966   -9068.2352   -8038.2252   -9068.2352            0    10798.324     24.98096    24.925919     22.88042    14247.028    11007.805    10877.498     10509.67   -332.09634    300.45479   -665.49968   -5794.5678 
 5957000    283.65245   -9016.6164   -7935.2039   -9016.6164            0    10798.334    24.845011    24.967393    22.990598    14261.416    11974.752    10273.639    10146.612   -238.87473    795.99137     162.6618   -5689.2786 
 5958000    275.39956   -8993.9947    -7944.046   -8993.9947            0    10382.691    24.830622    25.163181    22.876455    14293.608    11630.247    9607.3953    9910.4303   -172.39834   -1128.6895    272.50896   -5779.6951 
 5959000    282.33556   -8992.4468   -7916.0549   -8992.4468            0    10449.825    24.823817    25.080924    22.922146    14271.426    12586.268    8118.2485    10644.957   -115.30642   -1162.8136    445.42057     -5741.09 
 5960000    283.92888   -9015.3315   -7932.8652   -9015.3315            0    11387.459    24.979681    24.984907    22.829278    14248.095    12228.629    10037.674    11896.074   -63.313536   -1238.7348   -585.78184   -5566.6213 
 5961000    292.81041   -9030.1005   -7913.7737   -9030.1005            0    10435.954    24.870454     24.83659    23.092818     14264.37    10981.432    11341.912     8984.517   -372.23197     -52.3139    134.53999   -5742.7695 
 5962000    284.16477   -9036.9647    -7953.599   -9036.9647            0    11130.882     25.00623    24.964436    22.782569    14222.393    10629.199    11650.058    11113.391    84.903108   -14.373401   -204.69493   -5644.8423 
 5963000    281.82225    -9039.018   -7964.5831    -9039.018            0    11339.014    24.835046    24.933159    22.995188    14238.992     11506.78    11666.887    10843.377   -1262.8146    1308.3031    337.30197   -5609.9109 
 5964000    291.66511   -9025.0299   -7913.0695   -9025.0299            0    12842.001    24.926932    24.918366     22.79708    14160.142    13765.782    12204.923    12555.299   -561.39936    406.36877   -934.32222   -5261.0531 
 5965000    272.51669   -8999.4596   -7960.5017   -8999.4596            0    12065.357    24.966278    24.782426    22.934527    14190.164    10967.688    12054.832    13173.551    711.69155    299.72126    1233.7025   -5463.5883 
 5966000    276.96539   -9043.7055   -7987.7871   -9043.7055            0    11273.438    25.040095    24.776145    22.936996    14230.044    9487.3557    12836.395    11496.564    -143.5146    602.51613    -1049.321   -5648.2037 
 5967000    281.05592   -8985.9557   -7914.4423   -8985.9557            0    11471.043    24.991469    24.942765    22.831872    14232.392    10711.762    12129.379    11571.988   -241.66298   -891.69316    24.198714   -5533.4571 
 5968000    278.00675   -8994.9773   -7935.0888   -8994.9773            0    12129.171    24.740462    24.957372    23.044919    14229.245    13601.901    12942.659    9842.9513    -490.4891   -55.416792   -459.23695   -5418.0562 
 5969000    287.42448   -9083.9188   -7988.1256   -9083.9188            0    10502.577    24.972369    25.060855     22.70557    14209.802    10344.665    9403.4158     11759.65    495.67179   -215.91281   -830.65386     -5811.62 
 5970000    281.52069    -9034.417   -7961.1318    -9034.417            0    11097.566     24.92992    24.878895    22.970789    14247.146    12028.513    11052.279    10211.907   -982.00629     -608.324   -416.85526   -5655.2793 
 5971000    288.51766   -9050.9636   -7951.0028   -9050.9636            0     11884.02     24.89233    24.808352    23.017996     14214.48    11737.852    12588.434    11325.775    692.20019   -716.31367    96.523859   -5487.4024 
 5972000    283.38168    -9050.248   -7969.8678    -9050.248            0    11671.686    24.904861    24.990802    22.772055    14173.155     11624.19    11233.584    12157.285    702.25646    46.040852    673.30678   -5557.3194 
 5973000    285.30042   -9042.5138   -7954.8185   -9042.5138            0    10446.787    24.870113    24.962847     22.94902    14247.413    11011.211     10541.25    9787.9002    175.85367    745.61323    485.20204   -5784.1442 
 5974000    291.59842   -8975.3911   -7863.6849   -8975.3911            0    11755.633    24.669371    25.050135    23.052741    14245.927    14207.724    9312.2706    11746.905    789.02944   -649.38201    1516.9203   -5421.3083 
 5975000    276.34403   -9021.6433   -7968.0938   -9021.6433            0    11017.708    24.856247    25.098002     22.83836    14247.531    11475.578     9287.104    12290.442   -138.58371   -455.33671   -354.41251   -5678.7725 
 5976000    287.19043   -9034.9957   -7940.0948   -9034.9957            0    10751.855    24.874992    24.942907    22.958351    14244.615    11934.268    9763.4685    10557.827    1077.9805   -195.90714    392.60257   -5706.4713 
 5977000    283.92564   -9001.9167   -7919.4626   -9001.9167            0    11190.157    25.004516    24.931373    22.870531    14257.419    11450.047    10203.163    11917.261    159.64129   -361.91474    1240.1871   -5592.6952 
 5978000    281.63221   -8977.6788   -7903.9683   -8977.6788            0     10527.21     25.06355    24.799991    23.020226    14308.816    9083.7696    11963.311    10534.549    609.60593   -368.10233    463.03428   -5707.1565 
 5979000    281.85947   -9048.9754   -7974.3985   -9048.9754            0    10119.486    24.960133    24.912695    22.962603    14278.701    9089.7942    10621.569    10647.093    367.50064   -1036.0689    841.74716   -5867.1147 
 5980000     282.8264   -8996.8702    -7918.607   -8996.8702            0    10873.009    25.112541    24.975488    22.735416    14259.606    10599.729    9991.3235    12027.975    -1300.763   -551.74387    1053.2094   -5657.4372 
 5981000    293.16441   -9015.0098   -7897.3334   -9015.0098            0    11602.244     24.93826    24.876617    22.956475    14241.727    11834.468    11167.817    11804.448    66.662282    21.780096   -836.67578   -5487.5359 
 5982000    280.54967   -8998.1627   -7928.5795   -8998.1627            0    10969.804    24.967858    25.077891    22.812907    14284.102    11206.929    9986.5875    11715.895   -766.73072   -192.19042    605.20485   -5643.3612 
 5983000    281.24516   -8988.7295   -7916.4947   -8988.7295            0    11709.966    24.817811    24.939636    22.994739    14232.528    12397.866    11436.553    11295.478    124.75123     690.8158   -1482.7733   -5485.8943 
 5984000    290.33208   -9034.5652   -7927.6869   -9034.5652            0    10799.284    24.873935    25.061243    22.877376     14261.11    12203.079    8926.5252    11268.247   -96.959391    -293.7844    819.17693   -5681.6124 
 5985000    270.66789    -9016.039   -7984.1295    -9016.039            0    10841.757    24.744483    25.084452    22.973404    14259.633    12568.192    9463.3211     10493.76   -914.87502     595.0256    258.52416   -5729.4547 
 5986000    293.05102   -9035.6563   -7918.4121   -9035.6563            0    12168.768    24.786936    24.965702    22.953058    14203.886    13008.408     12586.02    10911.878   -50.792562    315.24794   -380.32889   -5397.6625 
 5987000    282.00179   -9030.3439   -7955.2245   -9030.3439            0    12788.399     24.76509    24.936104    22.952908    14174.451    13181.518    11819.697    13363.981    38.841979   -130.33412    537.40748    -5311.609 
 5988000    287.70238    -8970.815   -7873.9623    -8970.815            0    11633.181     24.84476    25.078342    22.908206     14273.31    12614.142    10275.394    12010.008   -1005.8667   -200.69131    151.07473   -5452.3808 
 5989000    277.19938   -8985.4785   -7928.6681   -8985.4785            0    11523.919    24.787688    24.969233    23.024759    14250.704    11930.085    11472.763    11168.909   -1557.6571     36.04752   -231.14589   -5533.6301 
 5990000      292.991   -9021.9762   -7904.9609   -9021.9762            0    10929.922    24.990872    24.919232    22.911478    14268.199    10623.185    10556.004    11610.575    86.832724    610.69784    72.397452   -5630.5858 
 5991000    287.72253   -9027.2614   -7930.3319   -9027.2614            0    11143.946    24.995173    24.858596    22.916215    14238.874    11385.177    11270.672    10775.989   -589.82707   -640.68321   -476.68831   -5616.1872 
 5992000    291.72752   -9009.8391   -7897.6407   -9009.8391            0    11705.726    24.902556    24.876358    22.929427    14204.434    12167.584    10861.005    12088.591   -321.29091    455.29189    376.33006   -5472.7165 
 5993000    287.14499   -9028.3512   -7933.6235   -9028.3512            0    13845.736    24.881142    24.802218    22.884432    14122.155    12759.768    14446.946    14330.492   -567.77064   -97.003749    1876.9151   -5081.9954 
 5994000    277.74802   -9022.4247   -7963.5226   -9022.4247            0    11893.305    24.917317    24.909815     22.91028    14220.084    12380.728    11852.059    11447.127   -619.66407    612.58987    302.61057   -5497.0255 
 5995000    291.98012   -9038.0919   -7924.9306   -9038.0919            0    10643.462    24.889937    24.875026    23.021587    14253.535    9686.0221    12245.052    9999.3101    364.01713    2.8977017    617.72238   -5712.4403 
 5996000    281.77093   -9035.0318   -7960.7925   -9035.0318            0    10664.562    24.921856    24.957682    22.902783    14245.343    11657.674    9976.0711     10359.94    -784.6393    251.09269    530.27845   -5745.1902 
 5997000    293.79481   -8999.8142   -7879.7344   -8999.8142            0    11352.046    24.858814    24.992552    22.939378    14251.896    12481.529    10177.725    11396.884    -345.9269     401.7537    711.87692   -5520.2198 
 5998000    270.34827   -9021.3837   -7990.6928   -9021.3837            0     10667.21    24.866916    25.029622    22.949702    14284.113    12101.484    8714.1783    11185.966    533.45669    1298.2359   -664.35193    -5768.509 
 5999000    273.14545   -9051.1686   -8009.8136   -9051.1686            0    10682.453    24.835594    25.019827    22.957197    14265.195    10851.131    11141.855    10054.373     358.1728   -759.44305    730.28582   -5787.4016 
 6000000    290.20185   -9010.1319   -7903.7501   -9010.1319            0    10318.174    24.937714    25.071039    22.883949    14307.375     11543.65    9732.8284    9678.0438     -483.933   -1392.2227    148.73827   -5750.7766 
Loop time of 545.902 on 64 procs for 250000 steps with 1920 atoms

Performance: 79.135 ns/day, 0.303 hours/ns, 457.958 timesteps/s
99.2% CPU use with 64 MPI tasks x 1 OpenMP threads

MPI task timing breakdown:
Section |  min time  |  avg time  |  max time  |%varavg| %total
---------------------------------------------------------------
Pair    | 64.448     | 66.773     | 69.242     |  13.8 | 12.23
Bond    | 0.27834    | 0.28677    | 0.30506    |   0.8 |  0.05
Kspace  | 235.92     | 244.86     | 254.33     |  26.9 | 44.85
Neigh   | 7.3059     | 8.252      | 9.57       |  19.2 |  1.51
Comm    | 93.428     | 103.68     | 113.7      |  46.1 | 18.99
Output  | 1.1064     | 1.1086     | 1.1195     |   0.2 |  0.20
Modify  | 105.32     | 112.99     | 117.27     |  30.6 | 20.70
Other   |            | 7.948      |            |       |  1.46

Nlocal:        30.0000 ave          34 max          24 min
Histogram: 1 0 0 1 8 9 24 10 10 1
Nghost:        2825.64 ave        2874 max        2781 min
Histogram: 1 2 9 9 14 14 8 4 1 2
Neighs:        10615.5 ave       12153 max        8444 min
Histogram: 1 0 1 4 12 17 16 8 4 1

Total # of neighbors = 679390
Ave neighs/atom = 353.84896
Ave special neighs/atom = 2.0000000
Neighbor list builds = 13550
Dangerous builds = 1

unfix		3
unfix		2
unfix		1

write_data	data.final.${pid}
write_data	data.final.0
System init for write_data ...
PPPM initialization ...
  extracting TIP4P info from pair style
  using 12-bit tables for long-range coulomb (../kspace.cpp:340)
  G vector (1/distance) = 0.3743536
  grid = 30 30 30
  stencil order = 5
  estimated absolute RMS force accuracy = 0.0032870378
  estimated relative force accuracy = 9.8988168e-06
  using double precision FFTW3
  3d grid and FFT values/proc = 3600 512
Last active /omp style is kspace_style pppm/tip4p/omp
WARNING: Not all mixed pair coeffs generated from mixing. Use write_data with 'pair ij' option to store all pair coeffs. (../write_data.cpp:312)

write_restart   restart.lmp.${pid}
write_restart   restart.lmp.0
System init for write_restart ...
PPPM initialization ...
  extracting TIP4P info from pair style
  using 12-bit tables for long-range coulomb (../kspace.cpp:340)
  G vector (1/distance) = 0.3743536
  grid = 30 30 30
  stencil order = 5
  estimated absolute RMS force accuracy = 0.0032870378
  estimated relative force accuracy = 9.8988168e-06
  using double precision FFTW3
  3d grid and FFT values/proc = 3600 512
Last active /omp style is kspace_style pppm/tip4p/omp
Total wall time: 0:09:09
