LAMMPS (30 Jul 2021)
  using 1 OpenMP thread(s) per MPI task
package omp 0
using multi-threaded neighbor list subroutines
echo both

include		in.partitions
variable        pid world 0
include		in.temp
variable        temperature equal 262.24
variable	tempDamp equal 100.0
include		in.pressure
variable        pressure equal 8125.0
variable        pressureDamp equal 1000.0 # This is 1 ps
include		in.seed
variable        seed world 745823

units		real
atom_style	full
read_restart    restart.lmp.${pid}
read_restart    restart.lmp.0
Reading restart file ...
  restart file = 30 Jul 2021, LAMMPS = 30 Jul 2021
  restoring atom style full from restart
  triclinic box = (-3.1970890 -0.20747637 0.0065269948) to (14.807088 22.787475 19.223471) with tilt (-0.29045439 -6.5499269 0.17206836)
  4 by 4 by 4 MPI processor grid
  restoring pair style lj/cut/tip4p/long/omp from restart
  restoring bond style harmonic/omp from restart
  restoring angle style harmonic/omp from restart
  1008 atoms
  672 bonds
  336 angles
Finding 1-2 1-3 1-4 neighbors ...
  special bond factors lj:    0        0        0       
  special bond factors coul:  0        0        0       
     2 = max # of 1-2 neighbors
     1 = max # of 1-3 neighbors
     1 = max # of 1-4 neighbors
     2 = max # of special neighbors
  special bonds CPU = 1.021 seconds
  read_restart CPU = 1.357 seconds

include 	in.setup
variable	out_freq equal 1000
variable	out_freq2 equal 10000
variable	out_freq3 equal 1000

timestep	2.0

neigh_modify    delay 7 every 1

include		in.tip4p
# This is TIP4P/Ice

# create groups ###
group ox type 2
336 atoms in group ox
group hy type 1
672 atoms in group hy

# set charges - beside manually ###
set group ox charge -1.1794
Setting atom values ...
  336 settings made for charge
set group hy charge 0.5897
Setting atom values ...
  672 settings made for charge

# ### TIP3P Potential Parameters ###
pair_style lj/cut/tip4p/long/omp 2 1 1 1 0.1577 8.5
pair_coeff 1 1*2 0.000 0.000
pair_coeff 2 2 0.21084 3.1668
bond_style  harmonic
bond_coeff  1 450 0.9572
angle_style harmonic
angle_coeff 1 55 104.52
kspace_style pppm/tip4p/omp 1.0e-5
pair_modify tail yes

thermo          ${out_freq}
thermo          1000
thermo_style    custom step temp pe etotal epair emol press lx ly lz vol pxx pyy pzz pxy pxz pyz enthalpy

restart 	${out_freq3} restart.lmp.${pid} restart2.lmp.${pid}
restart 	1000 restart.lmp.${pid} restart2.lmp.${pid}
restart 	1000 restart.lmp.0 restart2.lmp.${pid}
restart 	1000 restart.lmp.0 restart2.lmp.0


include         in.dump
dump            myDump all atom ${out_freq2} dump.water.${pid}
dump            myDump all atom 10000 dump.water.${pid}
dump            myDump all atom 10000 dump.water.0
dump            myDump2 all dcd ${out_freq2} dump.dcd
dump            myDump2 all dcd 10000 dump.dcd
dump_modify     myDump append yes
dump_modify     myDump2 append yes


variable natoms 	equal  "count(all)"                        # NUMBER ATOMS
variable H      	equal  "enthalpy/v_natoms"                 # ENTHALPY-per-atom
variable Vol      	equal  "vol/v_natoms"                 # volume-per-atom
fix AVG all 		ave/time ${out_freq} 1 ${out_freq} v_Vol v_H file vol_enthalpy.dat
fix AVG all 		ave/time 1000 1 ${out_freq} v_Vol v_H file vol_enthalpy.dat
fix AVG all 		ave/time 1000 1 1000 v_Vol v_H file vol_enthalpy.dat



fix 		1 all shake 1e-6 200 0 b 1 a 1
       0 = # of size 2 clusters
       0 = # of size 3 clusters
       0 = # of size 4 clusters
     336 = # of frozen angles
  find clusters CPU = 0.087 seconds
fix             2 all nph tri ${pressure} ${pressure} ${pressureDamp}
fix             2 all nph tri 8125 ${pressure} ${pressureDamp}
fix             2 all nph tri 8125 8125 ${pressureDamp}
fix             2 all nph tri 8125 8125 1000
fix             3 all temp/csvr ${temperature} ${temperature} ${tempDamp} ${seed}
fix             3 all temp/csvr 262.24 ${temperature} ${tempDamp} ${seed}
fix             3 all temp/csvr 262.24 262.24 ${tempDamp} ${seed}
fix             3 all temp/csvr 262.24 262.24 100 ${seed}
fix             3 all temp/csvr 262.24 262.24 100 745823


run             250000
PPPM initialization ...
  extracting TIP4P info from pair style
  using 12-bit tables for long-range coulomb (../kspace.cpp:340)
  G vector (1/distance) = 0.38348889
  grid = 24 30 32
  stencil order = 5
  estimated absolute RMS force accuracy = 0.0019377599
  estimated relative force accuracy = 5.8355064e-06
  using double precision FFTW3
  3d grid and FFT values/proc = 4080 384
Last active /omp style is kspace_style pppm/tip4p/omp
Neighbor list info ...
  update every 1 steps, delay 7 steps, check yes
  max neighbors/atom: 2000, page size: 100000
  master list distance cutoff = 10.8154
  ghost atom cutoff = 10.8154
  binsize = 5.4077, bins = 5 5 4
  1 neighbor lists, perpetual/occasional/extra = 1 0 0
  (1) pair lj/cut/tip4p/long/omp, perpetual
      attributes: half, newton on, omp
      pair build: half/bin/newton/tri/omp
      stencil: half/bin/3d/tri
      bin: standard
Per MPI rank memory allocation (min/avg/max) = 9.342 | 9.346 | 9.349 Mbytes
Step Temp PotEng TotEng E_pair E_mol Press Lx Ly Lz Volume Pxx Pyy Pzz Pxy Pxz Pyz Enthalpy 
16750000    267.26745   -4800.4417   -4265.8738   -4800.4417            0    8482.3966    18.004177    22.994952    19.216944    7955.9144    10763.921    7299.7574    7383.5119    -161.9598    307.00184   -17.035924    -3281.671 
16751000    264.56544   -4825.3362   -4296.1727   -4825.3362            0    9066.2012    17.831639    22.951262    19.378293    7930.7332    8570.3247     9316.964    9311.3149   -148.74629    446.14497    119.53281   -3247.5613 
16752000    255.63289   -4803.6195   -4292.3221   -4803.6195            0    7449.1558     18.11106     22.99703    19.221502    8005.7665    6679.3114    7719.9665    7948.1895    1195.9175   -501.99027   -206.25878   -3422.5893 
16753000    259.33697   -4807.9699   -4289.2639   -4807.9699            0    9408.7678    17.771859    22.991337    19.357676    7909.5232    10956.374    9164.2655    8105.6637   -502.55445   -846.40831   -1348.2917    -3203.941 
16754000    261.79539     -4856.77   -4333.1469     -4856.77            0    7666.6835    17.969272     23.14097    19.072771    7930.9612    6023.9109    7702.8245    9273.3152    764.53303    828.01009   -429.38237   -3446.3804 
16755000    261.27481   -4810.2675   -4287.6856   -4810.2675            0    7373.1064    17.800619    23.120441    19.361213    7968.2654    9264.0151    6641.4839    6213.8202    1924.5928    829.30849    333.92689   -3430.8644 
16756000    268.93318   -4811.7968   -4273.8972   -4811.7968            0    7600.1355    18.015135    23.008485    19.229538    7970.6618     7688.736    6707.1559    8404.5145   -283.10836   -819.67048   -395.13698   -3390.4276 
16757000    261.99907   -4813.9278   -4289.8973   -4813.9278            0    9656.3518    17.778699    23.040468    19.229928    7877.1467    9644.8702    10169.804    9154.3812    554.46807    661.87967    1144.8028   -3180.5746 
16758000    276.33706   -4831.2234   -4278.5151   -4831.2234            0    9753.0058    17.822494    22.972568    19.237188    7876.2522     10059.71    9785.7508    9413.5568    254.63054   -615.42621   -450.79885    -3158.216 
16759000    270.22891   -4795.0741   -4254.5829   -4795.0741            0    8651.8259    17.883897    23.070891     19.19461     7919.647    9452.4684    7904.6743    8598.3352    -92.46498   -867.45696    934.09946   -3255.2976 
16760000    263.96887   -4812.9756   -4285.0052   -4812.9756            0    5929.6101    17.963866    23.094721    19.348254    8027.0193    6226.0199    6178.7832    5384.0272   -1756.7306    782.09392   -2164.7034   -3590.8504 
16761000    255.08925   -4802.3701   -4292.1601   -4802.3701            0    10290.179     17.92509    22.894055     19.19002    7875.1621    7882.8386    10722.026    12265.674    1507.7939    685.23865    1700.6736    -3110.321 
16762000    276.28187   -4791.5679     -4238.97   -4791.5679            0    7864.3294    17.811801    23.067229    19.404865    7972.8551    7076.6979    7550.1542     8966.136   -1432.6098   -1015.9032     25.63833   -3324.5379 
16763000    273.69974    -4809.175   -4261.7417    -4809.175            0     6393.784     18.01109     23.05858    19.273633    8004.5355    7866.4436    4660.9682      6653.94    1394.4756   -1508.3415   -11.546526   -3515.3446 
16764000    273.70944   -4841.7439   -4294.2912   -4841.7439            0     8946.534    17.782975    23.055121    19.287191    7907.5296    8651.3187    9140.8266    9047.4567    253.23583    241.87501    85.510171   -3262.5482 
16765000     266.0194   -4825.4619   -4293.3902   -4825.4619            0    6592.4433     18.07222    23.040427    19.230534    8007.4341    7328.7192    6658.5675    5790.0433   -212.38922    320.20636    65.376482   -3523.5233 
16766000    266.65688   -4815.4854   -4282.1387   -4815.4854            0    10018.369    17.891949    22.947263     19.24876    7902.9877    9209.6858    12118.565     8726.856   -628.61847    1772.1552    480.11446   -3127.4519 
16767000    257.50267   -4802.5614   -4287.5242   -4802.5614            0    8102.7115    17.932605    23.060897    19.240068    7956.5755    8047.8668     8807.296    7452.9716    882.69676   -915.58261    369.74673   -3347.2978 
16768000    251.62871   -4822.0588   -4318.7703   -4822.0588            0    7171.3087    18.012904    23.278026    19.129071    8020.9122    9342.9335    5284.5147    6886.4778   -328.54067   -167.86638    1283.5663   -3479.8937 
16769000    256.68905   -4809.1888    -4295.779   -4809.1888            0    7258.8836    17.964994    22.985127    19.339511    7985.8193    7561.0343    7444.6149    6771.0017    260.01269    729.48141   -263.73733   -3450.3732 
16770000    266.51974   -4835.0103   -4301.9379   -4835.0103            0    8137.9779    17.983219    22.884043    19.320479    7950.9329    7334.8199    9569.5103    7509.6036    647.86905    191.59215    235.02976   -3358.2889 
16771000    254.05044   -4821.2085   -4313.0762   -4821.2085            0    7778.0604    17.923051    22.949405    19.278663    7929.7642    7503.0231    7947.2092     7883.949   -1566.3965   -931.03409    286.69693   -3413.5631 
16772000    255.75906   -4803.2052   -4291.6555   -4803.2052            0    7993.5837    17.927552    23.073948    19.237676    7957.8454    8689.0367    8097.0766    7194.6378    -1036.192   -507.11206   -1601.0109   -3363.9441 
16773000    266.95907   -4866.4553   -4332.5042   -4866.4553            0    6786.7006    18.008322    22.974172    19.307013    7987.8192    7484.9563    6888.2485    5986.8972    1204.4182   -1026.8558    392.60297   -3541.8933 
16774000    280.55795   -4807.9128   -4246.7622   -4807.9128            0    6330.6258    18.088172    23.063683    19.192562    8006.7504    5011.7415    7442.8004    6537.3354   -358.08221    574.63387   -42.988707   -3507.5335 
16775000    282.17005   -4833.4013   -4269.0263   -4833.4013            0    7149.0242    17.957006    22.943975    19.328559    7963.4651    8146.0132    6441.4204    6859.6391    336.79181    94.351797    332.87571    -3438.746 
16776000    266.44895   -4804.9152   -4271.9844   -4804.9152            0    8066.2266    18.048391     23.13761    19.103522    7977.5664    6440.4475    6916.1326      10842.1    1839.6366   -1621.6721    619.71866   -3333.5223 
16777000    273.23264   -4805.6992   -4259.2001   -4805.6992            0     7717.769    17.808637    23.040091    19.467902    7987.9259    8547.4362    6743.4545    7862.4162   -256.71154   -1233.4045   -1383.0852   -3360.1132 
16778000    260.30139   -4829.0249   -4308.3899   -4829.0249            0    8025.8168    18.082359     23.07639    19.120836    7978.6579    6661.3697    7975.2737     9440.807    1365.4602   -330.58061   -1495.3406   -3374.5016 
16779000    270.99642    -4824.526   -4282.4997    -4824.526            0     9293.882    17.829332     22.88778    19.386433    7911.0959    10247.556    9138.6746    8495.4157   -609.02132    144.13462   -2003.6083   -3210.2161 
16780000    266.27591   -4797.0392   -4264.4544   -4797.0392            0     8334.429    18.053858    23.029793    19.250247    8003.8024     8704.992    8138.3041     8159.991    1390.3266    197.60751   -686.32631   -3291.5995 
16781000    267.70584   -4793.7423   -4258.2976   -4793.7423            0    8365.1127    17.782992    22.946495    19.452162    7937.5976    7459.4605    9118.9023    8516.9755    343.54619   -1216.8765   -429.17838   -3289.9377 
16782000    275.84815   -4823.2073    -4271.477   -4823.2073            0    10191.861    17.956899    22.976789    19.085471    7874.5104    10207.838    9488.9705    10878.773    1820.7344   -677.88228    712.77693   -3101.0268 
16783000    256.14543   -4803.2131   -4290.8906   -4803.2131            0    7960.0137     17.90054    22.998833    19.319025    7953.4788    7957.4565    7145.0145      8777.57   -577.17113    203.27218   -2221.6377   -3367.5821 
16784000    258.58823   -4836.4809   -4319.2725   -4836.4809            0     8002.723    17.812251    23.126912    19.274274    7939.8899    9460.0592     7625.677    6922.4329    1428.7376   -695.24027    429.99382    -3392.596 
16785000    251.72594   -4821.6751   -4318.1921   -4821.6751            0      9394.45    17.787466     23.16932    19.168825    7899.9231    11021.633    8977.5776    8184.1392    495.29019   -996.12813   -315.30729   -3235.8361 
16786000    263.50621   -4843.6583   -4316.6133   -4843.6583            0    9037.2109     17.70528    23.164107    19.331521    7928.3787     9799.182    8749.5407    8562.9099   -861.84758     416.7544   -972.55633   -3271.6652 
16787000     263.8143   -4810.5076   -4282.8464   -4810.5076            0    7666.5388    17.973083    23.057227    19.193776    7954.0823    5795.7397    8147.1023    9056.7745    133.37328     1326.488   -1057.8131   -3393.5116 
16788000    252.71501   -4792.8374   -4287.3762   -4792.8374            0    7583.9617    17.731391    23.513244    19.093379    7960.4599     7134.742    7277.2542    8339.8888   -346.68352    1248.5813   -760.13066   -3406.9151 
16789000     257.7551    -4820.828   -4305.2859    -4820.828            0    6432.0845    17.821855    23.460787     19.15851    8010.4558    6624.8646    4700.0084    7971.3803    646.16718    138.54129    244.16534   -3553.8623 
16790000    253.87723   -4800.1773   -4292.3914   -4800.1773            0    7408.3142    17.943445     23.30596    19.166801    8015.3492     8044.763    6847.1403    7333.0394    1247.2001    1436.2364    1747.5137   -3426.3918 
16791000     264.6721   -4818.8934   -4289.5165   -4818.8934            0    8212.6293    17.842879    23.182796    19.227099    7953.2476    9091.1479    7173.7527    8372.9874    274.56637    287.87331   -1228.5803    -3336.934 
16792000     266.5613   -4822.1312   -4288.9756   -4822.1312            0    8805.2454      17.8141    23.013408    19.324851    7922.4767    10143.611    8190.5705    8081.5544    1300.6065   -430.91624    1425.2133    -3271.607 
16793000    266.12389   -4803.0811   -4270.8005   -4803.0811            0    8265.5194     17.79398    23.108887    19.324049     7946.031    9574.3757    8073.4866    7148.6958   -2205.8705    273.05936   -1548.2542   -3312.9531 
16794000    260.19815   -4843.0247   -4322.5963   -4843.0247            0    8543.2809    17.957951    23.091964    19.096221    7918.9038    8268.9081    7419.6401    9941.2945    1614.9401    114.05053    853.20336   -3335.9405 
16795000    247.59392   -4823.1048   -4327.8864   -4823.1048            0    7194.9293    17.858462    23.069138    19.311441    7955.9143    7102.0358    7571.4025    6911.3497    1045.1845    1254.0028   -1410.0756    -3493.067 
16796000    257.06188   -4820.9554   -4306.7998   -4820.9554            0    6440.0814    17.982377    23.272082    19.036761    7966.6438    6119.9181    4873.1301    8327.1961    861.14667   -1154.8304   -533.62285   -3558.5569 
16797000    258.86991   -4809.7256   -4291.9538   -4809.7256            0    8222.5133    17.969367    22.992765     19.25038    7953.5916    8589.6946    7942.3943     8135.451   -331.86832    486.91652    401.35999   -3338.1835 
16798000    256.42294   -4837.6908   -4324.8133   -4837.6908            0    8055.1096     17.76645    23.077768    19.379052    7945.6053    9008.4805    6794.0079    8362.8405   -1026.9416   -968.77482    324.63452   -3391.3992 
16799000    275.22598   -4810.1273   -4259.6413   -4810.1273            0     9115.209    17.918667     23.03986    19.221532    7935.4858    7329.6787     9419.243    10596.705    599.03883   -109.74239    636.78727   -3204.7298 
16800000    260.24729   -4824.3159   -4303.7892   -4824.3159            0    6796.8551    17.712557    23.280491    19.383289    7992.8354    7498.8634    6025.9965    6865.7053    104.63885   -593.27554   -710.03897   -3511.4981 
16801000    276.76685   -4776.0103   -4222.4424   -4776.0103            0    6211.1645    17.966935    23.245088    19.186853    8013.2544    6684.4464     6527.512    5421.5353    489.57744    290.20313   -144.60823   -3496.5741 
16802000    254.50181   -4821.3941    -4312.359   -4821.3941            0    9537.3514    17.732371     23.17221    19.175867    7879.3298    9121.0792    10118.795    9372.1804   -808.94736    191.08992    -193.9308   -3216.4035 
16803000     253.5822   -4832.3276   -4325.1319   -4832.3276            0    8827.1485    17.805333    23.183736    19.103328    7885.7416    8011.3851     9028.749    9441.3116     465.5851   -200.05102    1011.7921   -3309.9617 
16804000    263.81913   -4787.0999    -4259.429   -4787.0999            0     8196.547    17.932668    23.083583    19.225446    7958.3776    7507.3523    7869.4987      9212.79    854.46073   -840.53243    2354.1054   -3308.0986 
16805000      273.896   -4817.9744   -4270.1485   -4817.9744            0    8489.3681    17.851675     22.97755    19.328779    7928.4288    8709.1541    8872.6695    7886.2808   -2027.1359   -1005.6307   -128.90997   -3288.5398 
16806000    268.52882   -4794.2564   -4257.1656   -4794.2564            0    6422.1089    18.041586    22.990082    19.357963    8029.2484     6813.905    6506.3647     5946.057   -1210.1946    799.33966    -287.9689   -3505.1472 
16807000    256.22231   -4836.4273    -4323.951   -4836.4273            0    8212.2434    18.109324    22.785307    19.229704    7934.6854    7592.2791    8315.0499    8729.4013     1309.862   -709.67059    1846.3004   -3373.6364 
16808000    262.09418   -4811.6121   -4287.3914   -4811.6121            0     7023.809    17.981975    22.926751     19.39023    7993.9766     6516.478    7923.9631    6630.9861   -568.38291   -713.47753    435.08431    -3468.528 
16809000     249.6067   -4806.6738   -4307.4296   -4806.6738            0    6838.4756    18.076358    23.108696    19.198027      8019.42    5382.2283    6891.9773    8241.2212    869.36434   -78.084224    1047.5443   -3507.6356 
16810000    264.28476   -4825.5046   -4296.9024   -4825.5046            0    8549.6652    17.864257    22.882415    19.420574    7938.6904    9949.9019    7233.9248    8465.1689    260.06179   -909.27961   -799.66644   -3307.0422 
16811000    259.93824   -4795.3251   -4275.4165   -4795.3251            0    8155.6383    18.016666    22.966642    19.265944    7971.9068    9575.8473    7345.3939    7545.6739    1197.1636     -345.867     982.0458    -3327.225 
16812000    275.37344   -4785.1828   -4234.4019   -4785.1828            0    9480.6419    18.045105    22.597388    19.413061    7916.1073    8109.9457    10742.344    9589.6364   -2091.0572   -347.15981   -576.16857   -3139.8778 
16813000    277.48118    -4813.026   -4258.0293    -4813.026            0    8716.0387    17.950653    22.872715    19.348561    7944.1354    8490.5919    9980.2436    7677.2805    1094.8109   -844.34937   -1136.9133   -3248.2147 
16814000    259.09953    -4809.284   -4291.0529    -4809.284            0    10434.958    17.876796    22.904449    19.259453    7885.9399     10206.32    10637.787    10460.768   -366.01323   -391.38341    407.82074   -3090.9456 
16815000    253.18192   -4823.1133   -4316.7182   -4823.1133            0     7842.562    17.775284    23.201486    19.249621    7938.7938     6857.171    8182.7706    8487.7444    1552.0825   -620.35238   -979.42231   -3408.7129 
16816000    272.29178   -4800.9638   -4256.3466   -4800.9638            0    8183.9278    17.945521      22.9551    19.336431    7965.4729    8024.3044    8587.8593    7939.6195   -611.89594    197.81718   -518.70038    -3305.634 
16817000    262.93485   -4839.8452    -4313.943   -4839.8452            0    6435.6528    17.955875    22.977065    19.418635    8011.6107    7060.4113    5389.8098    6856.7373   -753.11417   -1119.3347   -1254.9686   -3561.9941 
16818000    257.23691   -4814.8234   -4300.3178   -4814.8234            0    5937.3918    18.245962    22.839065    19.246437    8020.3887    3814.2735    5603.1383    8394.7635    605.14558   -245.63424   -326.22135   -3605.8262 
16819000    258.59097   -4846.7273   -4329.5134   -4846.7273            0    8091.1052    17.786473    22.799987    19.539873     7924.031    7249.0546    8294.5747    8729.6862    451.29689    758.88747   -1363.0431    -3394.474 
16820000    266.01134   -4816.2222   -4284.1667   -4816.2222            0    7073.0124    18.095864    22.985871    19.225488    7996.8262     5910.721    6792.3594    8515.9569    373.31424    622.45505    -675.1743    -3459.273 
16821000    268.17909   -4829.2627   -4292.8714   -4829.2627            0    7465.1589    17.817371    22.910695    19.478686    7951.3623     10240.06    7703.1704    4452.2466   -122.22207   -507.11483    22.343593   -3427.1932 
16822000    271.30227   -4767.4905   -4224.8524   -4767.4905            0    8856.2274    18.258111    22.806571    19.128197    7965.0752     8221.834     9075.041    9271.8073   -687.53437    1104.2326   -1622.3118   -3196.0914 
16823000    261.97739   -4846.8442    -4322.857   -4846.8442            0    7727.9635     17.76371    22.936631    19.431577    7917.1954    8691.0706    8327.8997    6164.9202    1021.0794    722.36165    1982.6264   -3430.5541 
16824000     248.9682   -4822.4875   -4324.5203   -4822.4875            0    8276.6821    18.031925     22.89367    19.254397     7948.541    7572.7114    8196.5115    9060.8235   -331.80283   -1384.0717     214.8653   -3365.0764 
16825000    259.51829   -4821.3114   -4302.2428   -4821.3114            0    8642.4735    17.917541    22.910469     19.30781     7925.842     9708.509    7834.2987    8384.6127   -958.02258   -373.40928  -0.30742433   -3303.2569 
16826000    263.56946   -4803.0387   -4275.8673   -4803.0387            0    8977.8173    17.961346    22.704314    19.467344    7938.7836    10490.242    9151.2196    7291.9906    681.86994    506.73307   -778.23945   -3236.4244 
16827000     252.7692    -4842.658   -4337.0883    -4842.658            0    6398.3725    17.980462    22.937489    19.230579    7931.2032    5876.1693     6718.193    6600.7551    135.39262   -764.43341    -118.9952   -3596.9984 
16828000    283.94969   -4810.0555    -4242.121   -4810.0555            0     8376.641    17.896052    22.961151    19.282583    7923.4827    9050.2475    7611.5667    8468.1089    222.35661   -625.37901    31.342269    -3274.151 
16829000    257.14147    -4832.266   -4317.9513    -4832.266            0    6348.2427     18.00112     22.86962    19.464223    8013.0074    6469.5613    6896.6861    5678.4809   -1129.1206    375.21472    28.757363   -3576.0862 
16830000    276.87769   -4819.5406   -4265.7511   -4819.5406            0    8166.4347    18.010701    22.864776    19.331271    7960.8235    8831.8476    8044.4837    7622.9729     1334.228    668.98152    4.5986118   -3317.6244 
16831000    262.66376   -4815.0226   -4289.6626   -4815.0226            0    8949.9216    17.932938     22.84713    19.372331    7937.1571     9314.817    9972.4677      7562.48   -395.22787     807.0935    848.39806   -3253.6618 
16832000    258.45642   -4835.1104   -4318.1656   -4835.1104            0    10548.291    17.966609    22.705781    19.304265    7875.0954     9052.068     11614.79    10978.013    217.23306    1153.7311    1521.6712   -3106.6925 
16833000    272.02138   -4826.8374    -4282.761   -4826.8374            0     6408.721    18.041933    22.845906    19.405177    7998.5095    7867.0343    6426.9473    4932.1815   -744.24451   -762.16706   -561.76303   -3535.1834 
16834000    273.25236   -4788.9122   -4242.3737   -4788.9122            0    7684.2488    18.148022    22.506074    19.477073    7955.2297    6502.3645    8180.6281    8369.7539    185.76601   -968.96885    1823.8898   -3350.8559 
16835000    263.33679   -4844.7871    -4318.081   -4844.7871            0    8159.0819    18.002883    22.687793    19.490356    7960.7518    9117.5492    8396.1555    6963.5411   -41.036282   -540.05236   -1424.7459   -3370.8165 
16836000    256.36983   -4814.3652   -4301.5939   -4814.3652            0    8925.7836    18.036415    22.864856    19.221392    7926.9025    11085.811     7376.724    8314.8153    1376.4038   -269.31124   -1120.6744    -3269.722 
16837000     247.6289   -4801.7536   -4306.4652   -4801.7536            0    7701.8033    17.972318    22.886438    19.356353    7961.7008     10310.65    7114.1684    5680.5917   -634.67346    96.339898   -1478.5577   -3412.1839 
16838000    254.23005   -4801.5769   -4293.0854   -4801.5769            0    7367.8481     17.94469    23.138767    19.271279    8001.7817    6088.2917    8905.1082    7110.1445    497.40177   -504.61481    -2064.331   -3433.2739 
16839000    247.21857   -4832.8734   -4338.4058   -4832.8734            0    8193.4428    18.018574    22.897254    19.260383    7946.3695    8581.0766    8480.0455    7519.2063    1001.7695    475.33196   -232.03048   -3388.8706 
16840000    260.97237   -4816.9827   -4295.0057   -4816.9827            0    10273.342     17.90217    22.957023    19.204265    7892.5791     9693.502    10671.373    10455.151    1401.0341    8.1795712   -3230.4135   -3112.4909 
16841000    250.52312    -4813.487   -4312.4098    -4813.487            0    7535.8946    17.999522    22.894967     19.28752    7948.3573    8121.5223    6874.2897    7611.8718    2109.0563      92.5235   -503.08725   -3438.8592 
16842000    257.90326   -4819.3133   -4303.4749   -4819.3133            0    8609.8279    18.009567    22.801094    19.280077     7917.129    9169.2789    7704.5448      8955.66    307.58407   -28.764281   -2332.8605   -3309.3566 
16843000    266.75003   -4803.6075   -4270.0745   -4803.6075            0    7088.6787    17.933925    22.971326    19.432263    8005.4324     8091.122    6791.4777    6383.4365    815.59713    638.62715   -432.85248    -3442.464 
16844000    253.09586   -4806.1583   -4299.9353   -4806.1583            0     7389.094    18.173525    22.708139    19.388251    8001.2783     7708.948    7528.6891    6929.6451   -309.44541    401.93778   -147.96567   -3437.6987 
16845000     253.0796   -4840.5164   -4334.3259   -4840.5164            0     8303.476    17.896463    22.904226    19.277608    7901.9807    8738.9363    8088.3667    8083.1248    794.08891   -517.60978    -1117.572   -3377.4144 
16846000    263.62091   -4810.8203   -4283.5459   -4810.8203            0    7751.8168    18.026545    22.833288    19.339378    7960.1904    7279.2068    8461.7498    7514.4938    1613.3473   -796.25022    1889.1015   -3383.6281 
16847000    264.81039   -4826.1161   -4296.4626   -4826.1161            0    8089.0589    17.903571    22.840751    19.377081    7923.8893    6718.9149    8767.9826     8780.279     466.4917   -689.99299    397.05362   -3361.6764 
16848000    250.57031   -4799.9363   -4298.7647   -4799.9363            0    6743.9672    17.994099    23.207516    19.171559    8006.0111     7029.226    6491.0393    6711.6364    1636.0346    185.51373   -803.00685   -3511.3427 
16849000    258.45063   -4827.1344   -4310.2012   -4827.1344            0    8377.6486    17.978118    22.937354    19.266536      7944.95    9706.3963    7473.4488    7953.1007    962.07601   -271.45363   -999.44159   -3339.4919 
16850000    267.76934    -4824.536   -4288.9642    -4824.536            0    8988.6539    17.882517    22.959471    19.264451    7909.4658    8764.5045    8394.8037    9806.6534    644.49297   -24.487921   -632.45627     -3252.11 
16851000    248.14913   -4842.2131   -4345.8842   -4842.2131            0    6883.4502    18.006396    22.974457    19.347108    8003.6506    6255.0532    6949.4489    7445.8485   -1274.2803   -1625.2066    1348.9356   -3542.4132 
16852000    248.22507   -4796.9831   -4300.5023   -4796.9831            0    7061.4584    18.046085    22.899078    19.375445    8006.6836    6360.5267     7676.768    7147.0804     839.2591   -1505.1157     1422.492    -3475.941 
16853000    267.48687     -4812.24   -4277.2332     -4812.24            0    8534.7434    17.964017     22.97266    19.243058    7941.2493    6569.3812    8513.9746    10520.874    -173.4332    609.13682    1281.3661   -3288.7821 
16854000    272.79224   -4821.8332    -4276.215   -4821.8332            0    8132.8662    17.865877    22.864727    19.450125    7945.3444     9343.315    7951.5698    7103.7137   -1319.7233    650.86149    301.40592   -3333.8216 
16855000    277.23582   -4791.1624   -4236.6565   -4791.1624            0    9045.5028    18.021133    22.807166    19.267338    7919.0871    10239.546    8995.0857    7901.8766   -903.77412   -733.61157   -93.161292   -3191.9754 
16856000    258.08332   -4840.9572   -4324.7586   -4840.9572            0    6636.2443    17.987342     22.88113    19.468135    8012.5146    8241.9461    6866.6705    4800.1162    2643.5763   -863.03941    466.10339   -3549.2849 
16857000    262.90225   -4800.4668   -4274.6298   -4800.4668            0     9689.048    18.005578     22.86936    19.240163    7922.6383    10585.338    8504.9747    9976.8316    1581.3387   -970.35645   -831.55008   -3155.1228 
16858000    266.70698   -4811.4666   -4278.0197   -4811.4666            0    7751.2753    17.909478    22.995947      19.3795     7981.358    8800.9743    6864.5689    7588.2828    440.76545     -636.289   -1614.2713   -3375.7719 
16859000    264.93464   -4837.5868   -4307.6848   -4837.5868            0    7541.3879    17.931615    23.111852    19.156534    7939.0968    7453.8982    7378.6996    7791.5658   -729.82192    496.46988   -85.386641   -3434.5159 
16860000    264.77363   -4787.6615   -4258.0815   -4787.6615            0    9478.1419    17.885626    22.826611    19.353906    7901.5849    10990.102    9396.7019    8047.6215    1391.9457   -47.489461   -151.82095   -3165.8535 
16861000    257.26393   -4767.5849   -4253.0252   -4767.5849            0     6002.011    18.061517    22.935033    19.426338    8047.1954    6295.2353    6491.6252    5219.1724    808.90037    -880.3891    -1387.077   -3548.6287 
16862000    258.53305   -4811.6662   -4294.5682   -4811.6662            0     6972.847    18.075227    22.745846    19.394793    7973.9039    6315.3687    7991.2614    6611.9109    1209.2778    648.01123    834.41506   -3483.6874 
16863000    251.73265   -4801.6604    -4298.164   -4801.6604            0    9255.7544    17.953133    22.867058    19.272812    7912.1702    10527.949    8915.7299    8323.5844   -1672.0519    835.38266   -2769.2421   -3230.1343 
16864000     261.9516   -4812.5005    -4288.565   -4812.5005            0    5835.1072    17.954025    23.007972    19.400304    8013.9883    6995.8071    4970.1895    5539.3249    499.27605   -425.36071    -400.9489   -3606.5822 
16865000    263.87421   -4817.9599   -4290.1789   -4817.9599            0    8216.8004    17.806458    22.967409    19.388952     7929.465     9533.071    7755.6337    7361.6966    1210.7002   -875.51493   -223.79822   -3339.9625 
16866000     254.6034   -4836.5712   -4327.3329   -4836.5712            0    6443.3391    18.100037    22.941543    19.246114    7991.8098    5522.6677    7655.7464    6151.6031    1446.6051    39.202682   -2045.5229   -3576.3466 
16867000    256.03364   -4837.0689   -4324.9699   -4837.0689            0     7911.933    17.887588    22.942762     19.29588    7918.8492    7284.0409    8412.7868    8038.9712    511.70945    173.74491   -1576.4461   -3411.2343 
16868000    262.60878    -4838.673    -4313.423    -4838.673            0    7978.6867    18.039545    22.869561    19.327528     7973.697    6918.6033    7733.2859     9284.171    1616.5654   -534.77775    1056.3521    -3385.596 
16869000    247.77396   -4814.6978   -4319.1193   -4814.6978            0    8788.6584    17.908771    22.894495    19.312266    7918.2663    9055.0996     8869.779    8441.0967    257.49023   -1456.8927   -69.594483   -3304.2069 
16870000    262.84752   -4829.5805    -4303.853   -4829.5805            0     7564.076    18.010324    22.876627    19.316903    7958.8626    8078.3888    7410.8779    7202.9615  -0.25022069    298.64368    421.97478   -3425.8767 
16871000    263.86724   -4849.3453   -4321.5783   -4849.3453            0    7215.7916    17.990556    22.977805    19.238956    7953.0664    8292.5432    6525.9129    6828.9186    482.95379    874.80867    1367.4936    -3484.638 
16872000    257.58797    -4785.993   -4270.7852    -4785.993            0    5734.0189    17.871499    23.298697    19.318164    8043.7483    5333.6139    5232.9707     6635.472    1177.6626   -84.209559     328.2951   -3598.1285 
16873000     260.0417   -4821.7375    -4301.622   -4821.7375            0    7758.3645    17.802763    23.245465    19.245506    7964.4351    6826.5779    7391.4685    9057.0472    813.73869     602.1362   -1306.7011   -3400.4638 
16874000    266.91307   -4814.4158   -4280.5566   -4814.4158            0    8443.4957    17.876219    23.091048     19.23557    7940.0708    9329.0806      8333.96    7667.4466   -1314.7329   -844.73652   -147.13957   -3302.8185 
16875000    269.54835   -4811.5994   -4272.4694   -4811.5994            0    8556.7571    17.972543      23.0947    19.189371    7964.9416    8290.0403    9000.7893    8379.4418    699.19921   -102.98675   -922.68759   -3278.5121 
16876000     266.3224     -4838.25   -4305.5723     -4838.25            0    8542.2341    17.829257    23.139559    19.262874    7947.1134    10316.399    7123.0988    8187.2039    256.96435   -416.42304    1240.6984   -3315.5231 
16877000    262.23431   -4841.7687   -4317.2677   -4841.7687            0    7563.4028    17.792292    23.140601    19.355818    7969.2612      8734.36    7486.4446    6469.4039   -957.30825    1155.6888    -1164.535   -3438.2225 
16878000    257.11931   -4820.4885   -4306.2181   -4820.4885            0    9562.4738    17.976429    22.920946    19.206995    7913.9881    7993.9324    9859.8326    10833.656    1326.0894    119.50824    431.13022   -3202.5422 
16879000    262.98004   -4767.3774   -4241.3849   -4767.3774            0    8704.0813    17.942373    22.786436    19.418011    7938.9127    9179.8669    9242.5019    7689.8751    73.559951    529.48901   -1977.8673   -3233.6185 
16880000    259.55676   -4852.5067   -4333.3611   -4852.5067            0    7580.1988    17.995851    22.827818    19.333407    7942.2798    7736.8196    7241.1548    7762.6219    1675.1003   -801.79899    333.48532   -3455.3467 
16881000      250.491   -4836.6113   -4335.5984   -4836.6113            0    8273.3702    17.874482    22.973881    19.335379    7940.0003    8367.3454    7083.7197    9369.0455   -1619.7366    544.31941   -1898.8965   -3377.5689 
16882000    269.63022   -4804.9682   -4265.6744   -4804.9682            0    5785.5484    17.961849    23.019225    19.379495     8012.798    6774.7694    4562.8861    6018.9897    939.33214   -1444.5352   -1465.4986   -3589.5842 
16883000    256.68478   -4787.3453    -4273.944   -4787.3453            0    8573.0567    18.147596    22.853864    19.204895    7965.0897    7849.2176    8617.7586    9252.1938    1412.3457   -770.14655   -62.610555   -3278.0749 
16884000    250.81925   -4824.0876   -4322.4181   -4824.0876            0    7272.7669    17.992393    22.723428    19.523754    7982.2641    8763.8023    7879.8809    5174.6174    740.00789    422.38678   -2568.8649   -3475.7725 
16885000    259.72405   -4828.5162    -4309.036   -4828.5162            0    8924.8676     18.05576    22.665892    19.376369     7929.777     9379.911    8789.8299    8604.8618    1298.9436    274.24279    724.82197   -3276.8959 
16886000    276.11491   -4825.9359    -4273.672   -4825.9359            0    8231.6725    17.998567     22.74714    19.406985    7945.5284     8128.704    9191.4947    7374.8188    258.26916      334.855    1477.8296   -3319.8074 
16887000     258.0004   -4815.5757    -4299.543   -4815.5757            0    10422.411    17.980474    22.747498     19.31826    7901.3771    9782.7353    11253.201    10231.298   -439.56556     1283.404   -1288.6237   -3098.5323 
16888000    261.59893   -4823.5203   -4300.2901   -4823.5203            0    7895.9479    18.198038     22.53733    19.365231    7942.3626    8413.0213    7992.9143    7281.9082   -1513.0149   -933.15335   -1727.9309   -3385.6929 
16889000    253.17406   -4837.6587   -4331.2793   -4837.6587            0    8229.2229    17.971326    22.745065    19.400309    7930.0507    7939.2101    8651.2083    8097.2502     116.5513   -25.918587    670.50629   -3379.5561 
16890000    268.23096   -4819.6206   -4283.1256   -4819.6206            0    7574.8053    18.104606    22.644302    19.446765    7972.5158    6444.9008    8177.4846    8102.0305    236.37578   -592.37025   -1656.1445   -3402.3956 
16891000    263.70796    -4835.808   -4308.3595    -4835.808            0    7981.0804    18.028888     22.67311    19.411123    7934.7035    7775.2357    9246.7324    6921.2733   -510.03415    302.69219   -10.764488   -3384.7928 
16892000    263.69257   -4816.4344   -4289.0167   -4816.4344            0    8343.9914    18.006772    22.856704    19.262683    7928.0472    7792.5466     9148.426    8091.0017    1049.4865   -394.11549    1390.9262   -3324.2641 
16893000    250.93775   -4807.0712   -4305.1647   -4807.0712            0    7372.8266     18.04028    22.887652    19.298908    7968.5127    9418.0164    6037.9027    6662.5608   -212.34781   -1354.1114   -673.44593   -3448.3495 
16894000    267.55705   -4825.5757   -4290.4286   -4825.5757            0    8491.7333    17.992093     23.08107    19.121976    7940.9123    7083.9246    7978.1462    10413.129    378.09225    1.7437053    464.71845   -3307.0004 
16895000    271.16616   -4847.2223   -4304.8565   -4847.2223            0    6938.9371    17.893108    22.992832    19.372899    7970.2671    8218.5227    6587.0915    6011.1971    443.08269    218.52308   -1907.5698   -3498.2871 
16896000    256.89409   -4827.5869   -4313.7669   -4827.5869            0    7060.4116    18.010585    22.895006    19.283836    7951.7371    7319.9883    7154.3109    6706.9357   -857.55357     185.3088   -1610.1854   -3494.9856 
16897000    254.26173   -4833.0336   -4324.4788   -4833.0336            0    8201.3725    17.904536    22.935732    19.319563    7933.6492    8474.4885    7207.0938    8922.5352   -451.03241   -1349.1867   -1434.8065    -3375.546 
16898000    253.70621   -4817.8983   -4310.4546   -4817.8983            0    8034.0058    18.038239    22.940973    19.204294    7947.0203    8659.6737    7530.4879    7911.8559   -41.328749    -945.5549   -833.34798   -3379.3202 
16899000    276.14708   -4818.7075   -4266.3793   -4818.7075            0    7089.3264    17.947241    22.905934    19.423097    7984.8026    6973.7576    7384.3767     6909.845    1006.0243    461.15109    1084.7437   -3440.8261 
16900000    254.94505   -4810.8239   -4300.9023   -4810.8239            0    10248.414    17.955156    22.721202    19.289711    7869.4827    11275.422    10304.209    9165.6118    1633.8247   -779.74474    1147.1648   -3124.7089 
16901000    271.89803   -4795.8942   -4252.0646   -4795.8942            0    7285.4292    17.990392    22.860574    19.487917    8014.8088    6712.3337     8019.652    7124.3019   -967.29283    114.05846    1235.8077    -3400.487 
16902000    266.69873   -4815.9052   -4282.4748   -4815.9052            0    10094.036     18.14076    22.815961    19.054626    7886.6881    8796.0884    11188.182    10297.838    1826.4798    88.374477   -759.13706   -3121.4663 
16903000    257.54306   -4792.3366   -4277.2186   -4792.3366            0    7927.1405     17.87056     22.81796     19.58508    7986.2027    9546.2575    7262.2378    6972.9262   -756.11203   -71.852851   -498.56124     -3353.94 
16904000    252.43956   -4799.6032   -4294.6928   -4799.6032            0    9074.5456    18.000914    22.865479    19.180156     7894.543    10288.405    8395.9849    8539.2463     257.1312   -395.53765    508.56586   -3249.9058 
16905000    259.25565   -4825.2276   -4306.6843   -4825.2276            0    8750.9918    17.932802    22.789283     19.37488    7918.0427    7846.6956    9335.5425    9070.7372    1593.3705   -811.75335   -251.40594   -3296.1501 
16906000      250.963   -4840.1781   -4338.2211   -4840.1781            0    5222.9007    18.173101    22.675874    19.500833    8036.1166    5290.7973    5793.1449    4584.7599   -427.90155    220.18096    609.70198   -3726.1049 
16907000    262.45847   -4837.9768   -4313.0275   -4837.9768            0    7866.0742     18.14002    22.789069    19.278052    7969.4342    7709.1682    7677.4878    8211.5666    169.65454    1566.4634    834.26322   -3398.7849 
16908000    257.80615   -4838.0448   -4322.4006   -4838.0448            0     9072.006    17.915907    22.763286    19.390648    7907.9892    8607.1987    9581.0663    9027.7529   -1541.5242     288.6179    1284.6279    -3276.127 
16909000    261.74632   -4837.0155   -4313.4905   -4837.0155            0    8449.2632    18.095483    22.728263    19.326008    7948.3791    7355.7875    8841.4512     9150.551    511.05655    195.80246     691.0852   -3334.0607 
16910000    278.41798   -4849.9603     -4293.09   -4849.9603            0    8421.9372    18.025669     22.74305     19.49575    7992.4523    8683.0516    8585.0925    7997.6675    79.426136    1035.6108      709.604   -3311.4145 
16911000     255.2103   -4823.2547   -4312.8026   -4823.2547            0    9993.6393    17.914058    22.835769    19.286294    7889.6621    9690.7815    10933.901    9356.2357   -197.38637    1050.5172    2157.6121   -3162.9082 
16912000    252.33887   -4790.3579    -4285.649   -4790.3579            0    9225.9709     17.99585    22.927267    19.256943    7945.3312    8913.2452    9280.4038    9484.2636    148.63935    699.62102     2070.536   -3216.5942 
16913000    264.86333   -4822.9337   -4293.1743   -4822.9337            0    8685.8447    17.915625     22.69555    19.486969    7923.4981    8766.0849    8655.5717    8635.8777   -1108.7474   -575.67106     1217.585    -3289.472 
16914000    265.45564   -4829.3722   -4298.4281   -4829.3722            0    7459.6072    18.067059    22.966152    19.120351    7933.6229     8337.992    6513.4523    7527.3774    790.87022   -1411.8867    337.72796   -3435.3236 
16915000    269.85045   -4849.1793    -4309.445   -4849.1793            0    7849.5492    17.928069    22.801945     19.42624    7941.3469    7659.5198    8668.3699    7220.7581     -887.385    658.95558   -510.14325   -3400.3385 
16916000    274.14699   -4797.4254   -4249.0976   -4797.4254            0    8556.1812    18.066302    22.777898     19.31345    7947.7242    8610.8474    8523.8484    8533.8479   -444.40285    725.96869    21.794497   -3257.3557 
16917000    251.98159   -4813.5048   -4309.5105   -4813.5048            0    7142.8174    17.995251    22.846017    19.397118    7974.5395    6558.7783    7796.6204    7073.0535   -1753.9995    522.88241      819.948   -3478.7974 
16918000    264.35904   -4809.5715   -4280.8207   -4809.5715            0    8547.4779    18.051884    22.943666    19.253026    7974.1494    9314.1361    7563.6707    8764.6271    961.25601   -584.80881    532.55385   -3286.7936 
16919000    271.76456   -4795.9922   -4252.4295   -4795.9922            0    8309.3188    17.936164    22.969765    19.325903    7962.0683     8883.897    7840.5249    8203.5345   -755.58182    18.050997    -982.4593    -3287.563 
16920000    266.02859   -4832.2421   -4300.1521   -4832.2421            0    5342.8614    18.004858    22.975993    19.439395    8041.6788    4053.6779    6994.5604    4980.3458    351.91608    1231.2335    2721.4623   -3673.5432 
16921000    266.80785   -4823.6274   -4289.9787   -4823.6274            0     8177.465    17.964737    22.828439    19.427304    7967.2718    8103.0776    8948.6798    7480.6377   -1507.9164    894.82721   -915.39414   -3339.8024 
16922000    253.55558   -4814.6983   -4307.5558   -4814.6983            0      7979.38    18.126999    22.858159    19.241277    7972.6198    6069.6753    8214.1156    9654.3492   -153.27656    -648.5237    1246.4093   -3379.7735 
16923000    255.82641   -4840.9895   -4329.3051   -4840.9895            0    5927.0049    17.897716    23.007069    19.359615    7971.7861    6374.9704    5983.9481    5422.0961   -962.03366   -387.30266    183.00733   -3640.2296 
16924000    261.77516   -4827.6142   -4304.0315   -4827.6142            0    7465.3459    17.997403    22.893674    19.248056    7930.7126    7132.2187    7411.1379     7852.681   -1036.8625   -1167.7027    364.47522   -3440.5799 
16925000    263.97345   -4840.4699   -4312.4904   -4840.4699            0    8897.2689    17.872551    22.900921     19.44623    7959.3008    8667.0382    10555.371    7469.3978   -992.07512    1201.4521   -1767.7021   -3279.7111 
16926000    264.75489   -4826.8732   -4297.3307   -4826.8732            0    8485.4994    18.119317    22.920316    19.124634    7942.4696    9337.7753    6913.3992    9205.3238    591.09069    470.11208   -159.78007   -3314.4318 
16927000    259.05002   -4802.0098   -4283.8777   -4802.0098            0    7847.4134     17.94677    22.923475    19.385057    7975.0578    8454.5701    7847.8752    7239.7947    -774.7792    939.33543      -1963.2   -3371.1605 
16928000    259.46402   -4803.2272   -4284.2671   -4803.2272            0    9347.2211    17.924588    22.850565    19.334975    7919.3534     10876.94    8101.8125     9062.911   -413.33929   -2071.7012   -736.53947   -3204.7038 
16929000    268.45711   -4812.8735   -4275.9261   -4812.8735            0    7161.5579      18.0573    22.828888    19.385585    7991.2825    6931.6218    8080.3261    6472.7256     54.21956    656.33376    642.18402   -3441.2848 
16930000    258.71998   -4816.5541   -4299.0822   -4816.5541            0    7311.8321    18.113876    22.678363    19.429109    7981.3431    8180.2812    6692.7744    7062.4407   -765.04723     320.2126    82.601134   -3447.9871 
16931000    259.94451   -4826.6891   -4306.7679   -4826.6891            0    10949.475    18.113339    22.528691    19.303729    7877.2691    10666.397    11915.958    10266.071   -405.95242    426.77855   -2216.2936   -3048.8715 
16932000    264.94388   -4806.8762   -4276.9557   -4806.8762            0    9003.2157    18.048991    22.627918    19.418075    7930.5573    8445.3278    9881.3782    8682.9411   -873.74424   -1245.9894   -1767.0148   -3235.6524 
16933000     261.6766   -4850.4382   -4327.0527   -4850.4382            0    6330.9149    18.105115      22.6544    19.555304    8020.8136    7130.7071    6892.4672    4969.5705   -2331.1501   -438.01196   -1028.6558   -3586.4917 
16934000    253.01205   -4835.1757   -4329.1203   -4835.1757            0     7776.267    18.355267    22.352107    19.463004    7985.2597    7482.8385    8844.8642    7001.0984    1678.7462    627.45443    1005.8112    -3423.521 
16935000    266.39326   -4800.5968   -4267.7774   -4800.5968            0    8522.5772    18.014616     22.66833    19.475494     7953.037    7359.8689    9195.7763    9012.0864    182.61197   -318.28758   -509.18423   -3279.2702 
16936000    268.99899   -4814.8518   -4276.8206   -4814.8518            0    8098.2897    18.008936    22.699079    19.421501     7939.243    7680.8076     8482.928    8131.1336    1399.9953    -410.5933   -251.38019   -3339.1543 
16937000     260.3806   -4835.9859   -4315.1925   -4835.9859            0    6300.2527    17.976869    22.949908    19.359187    7986.9712    7939.2063    4487.4389    6474.1129   -293.59199    -1765.485   -610.13101   -3581.3279 
16938000    275.51903   -4819.5765   -4268.5044   -4819.5765            0    7250.3177    17.984282     22.90012    19.319825    7956.7194    8945.7838    6953.1305    5852.0387   -126.90972   -764.24121    -1361.233   -3427.1732 
16939000    255.78594    -4848.425   -4336.8215    -4848.425            0    5945.0171    18.056875    22.773639    19.403332    7979.0527    4092.0289    6781.8376     6961.185   -526.06561   -194.57585    1862.4703   -3645.0219 
16940000    263.34368   -4767.5576   -4240.8377   -4767.5576            0    10506.178    18.132202     22.55553    19.367355    7920.8884    9391.2603    11133.827    10993.447   -361.85625    561.03181    533.02691   -3027.1847 
16941000    267.38782   -4826.9841   -4292.1754   -4826.9841            0     6471.203    18.158306    22.665818    19.505641    8027.9922    5425.9034     6636.051    7351.6546   -640.75705   -681.03838    -765.9234   -3534.5268 
16942000    274.30594   -4834.1135   -4285.4677   -4834.1135            0    8386.0586    17.941745    22.527927    19.636308    7936.8056    7708.3229    9809.6505    7640.2022    1428.7007    3.4257364    518.81826     -3314.78 
16943000    255.97345   -4810.8474   -4298.8688   -4810.8474            0    8384.4276    18.130841    22.684626    19.297968     7937.087    7011.4976     9598.722    8543.0632   -40.351187    503.95305    2844.6248   -3328.3355 
16944000    275.70865   -4842.7263    -4291.275   -4842.7263            0    8204.1451    17.974671    22.751362    19.441437    7950.5416    7233.0614    9098.8796    8280.4943    372.76747    237.23142    1382.7601   -3340.0003 
16945000    260.97751   -4822.0722   -4300.0849   -4822.0722            0    8069.0383    18.115847     22.69752    19.375236    7966.8022    9515.2675    7244.2136    7447.6339   -1107.3281   -641.09514    737.01298   -3362.5624 
16946000    264.36097   -4837.5736    -4308.819   -4837.5736            0    6357.9582     18.01566     22.79688    19.440432    7984.2018    7607.8089    5695.7161    5770.3497   -570.17908    341.32869   -495.58047   -3568.4895 
16947000    261.74313   -4822.6745   -4299.1559   -4822.6745            0    8427.8877    18.090733    22.895263    19.241778    7969.7922    6710.3134    9131.0463    9442.3035    474.51802   -601.34479    -1570.002    -3319.572 
16948000    271.35632   -4835.1101   -4292.3639   -4835.1101            0    8243.2639    17.799603     22.95543    19.384553     7920.481    8903.7859    7980.9573    7845.0486   -575.30669   -254.36499   -2472.5909   -3340.1673 
16949000    271.59585    -4820.594   -4277.3688    -4820.594            0    8134.4493    18.185759    22.730985    19.296141    7976.6429    5591.0536    8929.3751    9882.9191    1256.1148    586.59996    1193.4795   -3331.0789 
16950000    259.55007   -4814.8261   -4295.6939   -4814.8261            0    9142.5827    17.936456    22.876868    19.320635    7927.8351     10574.89    8605.4103     8247.448    1439.7641   -367.18444    1941.2399   -3238.6345 
16951000    272.34165    -4838.729   -4294.0121    -4838.729            0    6871.8591    17.962209    23.124117    19.252656    7996.7877    7518.3877    5393.7081    7703.4814   -950.35767   -655.79797    628.22694   -3492.5819 
16952000    250.02581   -4779.0592   -4278.9767   -4779.0592            0    8785.4829    17.768763    23.320441    19.130456      7927.19     7702.858    8417.5085    10236.082   -1511.3305   -753.38448    805.04866   -3263.2876 
16953000    259.79583    -4839.558   -4319.9343    -4839.558            0    9032.7664    17.897979    22.924861    19.289478    7914.6403    9037.9374    8885.3694    9174.9924   -1117.9208    411.85064   -704.13359     -3277.31 
16954000    253.94493    -4832.067   -4324.1457    -4832.067            0    6272.0324    17.959837    23.124431    19.181904    7966.4559    4412.2864    6777.9487    7625.8622     435.8583    625.19603    366.05671   -3595.4448 
16955000    246.69891   -4825.8018   -4332.3735   -4825.8018            0    6096.6659      17.7495    23.306052    19.334502    7998.1186    8158.7612    5433.1548    4698.0818   -109.12282    311.94378    162.94466   -3621.2318 
16956000    257.06011   -4820.2783   -4306.1263   -4820.2783            0    8702.9673    17.894056    23.028376    19.164804    7897.2612    9171.9375    8391.8201    8545.1443    548.10079     -1778.94    336.03841   -3303.7755 
16957000      261.046   -4803.5339   -4281.4096   -4803.5339            0    10735.528    17.751888    23.156407    19.157568    7875.1004    11512.438    10911.675    9782.4709    729.74522     321.8506   -610.26039   -3048.4315 
16958000    280.73065   -4834.0855   -4272.5895   -4834.0855            0    9294.8355    17.862035    23.141989    19.190117    7932.4845    11449.135    7094.7183    9340.6531   -848.79712    1054.7185   -108.55765   -3197.2965 
16959000    250.08055   -4780.0398   -4279.8478   -4780.0398            0    10065.568    17.868675     23.32915    18.951742    7900.2421    8934.3668    8683.5506    12578.787    1809.9122   -274.28342    -336.5407    -3120.124 
16960000    264.46578   -4811.2623    -4282.298   -4811.2623            0    6339.3919    17.757022    23.259997    19.348107    7991.3152    6525.4545    5613.5237    6879.1973   -261.38867   -572.55991   -684.41223   -3543.4728 
16961000    268.74677   -4831.7837    -4294.257   -4831.7837            0    9105.4335    17.896149    23.132973    19.164197    7933.8077    7774.0535    9512.8318    10029.415   -743.81111    120.75471   -544.99238   -3240.6996 
16962000    254.55125   -4804.4402   -4295.3063   -4804.4402            0    7890.4054    17.864395    22.974001    19.361826     7946.415    10009.753      7969.67    5691.7933   -1450.3232    599.77276    1535.9019   -3380.8847 
16963000    258.43999   -4809.9276   -4293.0157   -4809.9276            0     10129.54    17.823631    22.945406    19.349647    7913.4341    10782.093    9275.1126    10331.414   -2159.1051    1334.9358   -164.52448   -3123.9724 
16964000    265.11544   -4827.7769   -4297.5133   -4827.7769            0    5103.4858    18.103271    23.072744    19.221773    8028.7836    6493.8746    4614.7858     4201.797    -1149.461   -867.21629   -1057.2237   -3699.9381 
16965000    245.67443   -4838.8538   -4347.4746   -4838.8538            0    7720.9885    17.904319    22.837784    19.556275    7996.4627    4826.7998    9544.9895    8791.1761   -957.77599    463.33299    700.02941   -3447.0513 
16966000     261.6953   -4820.8186   -4297.3957   -4820.8186            0    8956.4233    18.079995    22.840696     19.20344    7930.2464    8143.2853    8866.7536    9859.2311    636.41121   -875.68489    358.69738    -3261.545 
16967000    252.48509   -4837.5048   -4332.5034   -4837.5048            0    9228.5441    18.025595    22.611218    19.456805     7930.217     8191.922    10400.194    9093.5163   -772.86827   -228.76456   -93.414409   -3265.1846 
16968000    268.52419   -4814.3347   -4277.2531   -4814.3347            0    8484.6092    17.930967    22.936336     19.44435    7996.8913    8947.5249    8314.2831    8192.0196    717.09863    731.90464    986.16144   -3287.7232 
16969000    265.02143   -4832.8841   -4302.8085   -4832.8841            0    8252.1804    18.019766    23.012907    19.160218    7945.4974    10361.092    7426.5272    6968.9223    577.34413    273.03022    1485.7297   -3346.5711 
16970000    254.88542   -4834.0701   -4324.2678   -4834.0701            0    8852.8206    17.681871    23.143761    19.253785      7879.13    9922.1886    8587.7561    8048.5169   -1232.4842    873.26005    1294.1364   -3306.9988 
16971000    248.82625   -4799.5455   -4301.8622   -4799.5455            0    8362.9596    17.904893    23.259242    19.088718    7949.5776    6604.1669    8144.6686    10340.043    1155.6017   -1300.0845   -128.68239   -3332.2905 
16972000    250.79584   -4837.9439   -4336.3212   -4837.9439            0    8119.6929    17.837665     23.10025    19.256285    7934.6391    8907.2036    7288.9434    8162.9316    196.78669    107.71594    823.16279   -3396.7219 
16973000    252.69035   -4834.9801   -4329.5682   -4834.9801            0    7014.7381    17.992306    23.291364    19.059236    7987.0653    6328.2682    5332.4114    9383.5348   -208.89719   -963.56287   -460.48441   -3512.4694 
16974000    254.50269   -4799.6675   -4290.6306   -4799.6675            0    7653.5131    17.812211    23.017893    19.438923    7969.9498     8640.237    7681.3435    6638.9587   -8.3992132    168.24526    274.31508   -3401.0357 
16975000    261.54165     -4838.01   -4314.8944     -4838.01            0    7883.5129    17.989046    23.042003    19.148875    7937.2782    5537.2349    8293.0185    9820.2852   -84.166986   -1338.0174     1250.763   -3402.3221 
16976000    255.77049   -4819.2718   -4307.6992   -4819.2718            0    6583.9996    17.635005    23.179823    19.532261    7984.3254    7904.4642    6650.1394    5197.3952   -636.33292     741.5055   -191.20609   -3541.0372 
16977000     268.3571   -4769.8446   -4233.0973   -4769.8446            0    9958.9548    18.026904    23.096182    19.072851    7941.0317     10192.95    10154.492    9529.4221    416.28251    827.41376    564.60636   -3079.7328 
16978000     265.9191   -4804.2691    -4272.398   -4804.2691            0    7259.4137    17.860773    22.954584      19.3585    7936.7256    6758.2065    7639.4251    7380.6093   -647.71919   -334.54477   -875.79454   -3432.1281 
16979000    263.95572   -4808.2711   -4280.3271   -4808.2711            0    6548.4638    17.863593    23.381068    19.166676    8005.3432    4124.6935    6735.6007    8785.0972    1563.1239    1057.1618   -899.61887   -3515.7958 
16980000    269.32594   -4784.2536   -4245.5684   -4784.2536            0    9329.7553    17.907917    23.222524     19.04643    7920.7822    7048.5527    9776.9044    11163.809   -161.48791    579.53341   -1122.3473   -3167.8279 
16981000    263.01693   -4795.3543    -4269.288   -4795.3543            0    8790.1926    17.860937    23.121571    19.314707    7976.4511    6621.7214    9442.7882    10306.068   -804.06145    849.40902    1400.3009   -3246.7393 
16982000    259.23718   -4810.0275   -4291.5211   -4810.0275            0    7143.6542    17.877243    23.226269    19.212569    7977.4747      9096.68    5304.2135    7030.0692    783.98246   -196.06696    516.07171   -3460.4049 
16983000    257.41645   -4830.3615   -4315.4968   -4830.3615            0    7180.2085     17.91585    22.966502    19.412712    7987.6402    8136.9153    6939.3272    6464.3831    756.35526    -1089.009    2262.7254   -3479.0632 
16984000    274.70979   -4825.4746   -4276.0211   -4825.4746            0    8132.8093    18.099047    22.767006    19.317475    7959.9798    9224.0071    7557.9402    7616.4807    380.31824    -831.4791   -638.64501   -3331.8983 
16985000    244.38292   -4810.6825   -4321.8865   -4810.6825            0    9269.5687    18.033343    22.768059    19.334157    7938.2994    8908.6693    10024.862    8875.1748   -2235.9328    359.50193    725.39899   -3248.7304 
16986000    258.11391   -4820.5134   -4304.2537   -4820.5134            0    9503.7806    17.904953    22.700804    19.555138    7948.3196     9824.429    10485.667    8201.2456   -958.89879   -496.71865    520.80698   -3202.5936 
16987000    266.01235   -4831.0363   -4298.9787   -4831.0363            0    8469.1849    18.103394    22.909223    19.129085     7933.495      7049.84    9344.4709    9013.2437    -785.4477    205.05725    1016.1147   -3319.0781 
16988000    265.03789   -4798.6666   -4268.5581   -4798.6666            0    9816.1612    17.843836    22.896244    19.351555    7906.2096    10783.971    9995.0755    8669.4374    1109.7435    5.4254411    979.72475   -3136.7159 
16989000    260.59731   -4808.6841   -4287.4573   -4808.6841            0    8721.1401    18.065201    22.942124    19.117956    7923.5149    6790.4098    9346.5047    10026.506    293.78958    -292.0807   -564.49582   -3279.6743 
16990000    259.60794   -4792.7758   -4273.5278   -4792.7758            0     9087.767    17.718855    22.793072    19.602402    7916.7659    11400.892    8020.9999     7841.409     617.8317   -435.60021    2246.5432   -3224.2732 
16991000    258.67743   -4830.9186   -4313.5318   -4830.9186            0    9550.3902    18.101992    22.914002     18.99838    7880.3202    8923.5809    8641.6838    11085.906   -138.38836   -1300.1886    1073.2119   -3215.9399 
16992000    263.19219     -4820.57   -4294.1531     -4820.57            0    9647.5954    17.869606     22.93043    19.328759    7920.1082    9097.1812    9382.9495    10462.656    9.1894134    933.67029   -468.04029   -3179.7916 
16993000    268.52752   -4799.7786   -4262.6904   -4799.7786            0    8737.9335    17.969156    23.181664     19.12902    7968.2876      9157.26    7583.8305    9472.7102    742.65117    304.42179    365.05122   -3247.2612 
16994000    265.53575   -4806.1839   -4275.0796   -4806.1839            0    8705.6027    17.837778    23.037236    19.324676    7941.1491    7912.5134    10060.082    8144.2131   -643.34281    1052.2987   -1035.6422   -3266.8532 
16995000    269.12171   -4795.6801   -4257.4034   -4795.6801            0    7705.7558     17.94669      22.8457    19.418004    7961.4728    7146.1417    9520.6182    6450.5075    116.07278    685.89745    768.93413   -3362.6888 
16996000    253.64973   -4812.1453   -4304.8145   -4812.1453            0    8938.7382    17.925015    22.959535    19.338917    7958.9313    7100.9925    9074.1268    10641.095    1907.4518    1016.2212    379.32923   -3267.2696 
16997000    261.62531   -4820.5928   -4297.3099   -4820.5928            0    7718.8376    18.100824    22.973554    19.119072    7950.4798    7094.8681    6497.1524    9564.4923   -218.53107   -1301.4226   -1098.3711   -3402.3138 
16998000    266.17673    -4797.085   -4264.6987    -4797.085            0    8824.5612    17.884799    23.020619    19.278977     7937.524    10655.598    8058.9506    7759.1348   -68.355099   -803.12474   -283.38815   -3243.1618 
16999000    262.01563   -4837.1382   -4313.0746   -4837.1382            0    7954.7934     17.99951    23.045838    19.132875    7936.5804    7854.3038    6723.1838    9286.8926   -902.03652   -513.74653    1030.9029    -3392.332 
17000000    267.27625   -4793.6626    -4259.077   -4793.6626            0    9968.2058    17.889544    22.933011    19.315145    7924.2529    13079.207    8364.9742    8460.4359    -1211.573    374.68899   -206.14484   -3107.0804 
Loop time of 518.151 on 64 procs for 250000 steps with 1008 atoms

Performance: 83.373 ns/day, 0.288 hours/ns, 482.485 timesteps/s
99.2% CPU use with 64 MPI tasks x 1 OpenMP threads

MPI task timing breakdown:
Section |  min time  |  avg time  |  max time  |%varavg| %total
---------------------------------------------------------------
Pair    | 28.234     | 32.463     | 35.932     |  31.9 |  6.27
Bond    | 0.27049    | 0.28131    | 0.2993     |   1.2 |  0.05
Kspace  | 243.23     | 251.53     | 265.51     |  29.9 | 48.54
Neigh   | 4.3957     | 4.9349     | 6.2383     |  19.0 |  0.95
Comm    | 95.372     | 109.38     | 115.7      |  42.6 | 21.11
Output  | 0.79385    | 0.79619    | 0.79767    |   0.1 |  0.15
Modify  | 108.24     | 112.29     | 114.75     |  17.7 | 21.67
Other   |            | 6.478      |            |       |  1.25

Nlocal:        15.7500 ave          20 max          12 min
Histogram: 1 7 11 8 0 16 7 11 2 1
Nghost:        2524.92 ave        2555 max        2497 min
Histogram: 3 3 9 14 6 7 9 6 5 2
Neighs:        5282.95 ave        6703 max        4028 min
Histogram: 2 6 11 8 7 9 7 11 2 1

Total # of neighbors = 338109
Ave neighs/atom = 335.42560
Ave special neighs/atom = 2.0000000
Neighbor list builds = 9655
Dangerous builds = 0

unfix		3
unfix		2
unfix		1

write_data	data.final.${pid}
write_data	data.final.0
System init for write_data ...
PPPM initialization ...
  extracting TIP4P info from pair style
  using 12-bit tables for long-range coulomb (../kspace.cpp:340)
  G vector (1/distance) = 0.37958296
  grid = 24 27 36
  stencil order = 5
  estimated absolute RMS force accuracy = 0.0024081142
  estimated relative force accuracy = 7.2519643e-06
  using double precision FFTW3
  3d grid and FFT values/proc = 4050 480
Last active /omp style is kspace_style pppm/tip4p/omp
WARNING: Not all mixed pair coeffs generated from mixing. Use write_data with 'pair ij' option to store all pair coeffs. (../write_data.cpp:312)

write_restart   restart.lmp.${pid}
write_restart   restart.lmp.0
System init for write_restart ...
PPPM initialization ...
  extracting TIP4P info from pair style
  using 12-bit tables for long-range coulomb (../kspace.cpp:340)
  G vector (1/distance) = 0.37958296
  grid = 24 27 36
  stencil order = 5
  estimated absolute RMS force accuracy = 0.0024081142
  estimated relative force accuracy = 7.2519643e-06
  using double precision FFTW3
  3d grid and FFT values/proc = 4050 480
Last active /omp style is kspace_style pppm/tip4p/omp
Total wall time: 0:08:41
