LAMMPS (30 Jul 2021)
Processor partition = 0
  using 2 OpenMP thread(s) per MPI task
using multi-threaded neighbor list subroutines
variable        pid world 0 1
variable        phase world IceIh Liquid

shell cd ${phase}
shell cd IceIh
include Restart.lmp
echo both
log log.lammps
#include		in.partitions
include		in.temp
variable        temperature equal 259.50
variable	tempDamp equal 100.0
include		in.pressure
variable        pressure equal 928.7
variable        pressureDamp equal 1000.0 # This is 1 ps
include		in.seed
variable        seed equal 745823

units		real
atom_style	full
#include		in.box
read_restart	restart.lmp.${pid}
read_restart	restart.lmp.0
Reading restart file ...
  restart file = 30 Jul 2021, LAMMPS = 30 Jul 2021
  restoring atom style full from restart
  orthogonal box = (0.11434816 0.075779648 -0.041151059) to (18.093224 23.553398 22.254347)
  2 by 4 by 4 MPI processor grid
  restoring pair style lj/cut/tip4p/long/omp from restart
  restoring bond style harmonic/omp from restart
  restoring angle style harmonic/omp from restart
  864 atoms
  576 bonds
  288 angles
Finding 1-2 1-3 1-4 neighbors ...
  special bond factors lj:    0        0        0       
  special bond factors coul:  0        0        0       
     2 = max # of 1-2 neighbors
     1 = max # of 1-3 neighbors
     1 = max # of 1-4 neighbors
     2 = max # of special neighbors
  special bonds CPU = 0.002 seconds
  read_restart CPU = 0.006 seconds
include 	in.setup
variable	out_freq equal 1000
variable	out_freq2 equal 10000
variable	out_freq3 equal 1000

timestep	2.0

neigh_modify    delay 7 every 1

include		in.tip4p
# This is TIP4P/Ice

# create groups ###
group ox type 2
288 atoms in group ox
group hy type 1
576 atoms in group hy

# set charges - beside manually ###
set group ox charge -1.1794
Setting atom values ...
  288 settings made for charge
set group hy charge 0.5897
Setting atom values ...
  576 settings made for charge

# ### TIP3P Potential Parameters ###
pair_style lj/cut/tip4p/long/omp 2 1 1 1 0.1577 8.5
pair_coeff 1 1*2 0.000 0.000
pair_coeff 2 2 0.21084 3.1668
bond_style  harmonic
bond_coeff  1 450 0.9572
angle_style harmonic
angle_coeff 1 55 104.52
kspace_style pppm/tip4p/omp 1.0e-5
pair_modify tail yes

thermo          ${out_freq}
thermo          1000
thermo_style    custom step temp pe etotal epair emol press lx ly lz vol pxx pyy pzz pxy pxz pyz enthalpy

restart 	${out_freq3} restart.lmp.${pid} restart2.lmp.${pid}
restart 	1000 restart.lmp.${pid} restart2.lmp.${pid}
restart 	1000 restart.lmp.0 restart2.lmp.${pid}
restart 	1000 restart.lmp.0 restart2.lmp.0


include         in.dump
dump            myDump all atom ${out_freq2} dump.water.${pid}
dump            myDump all atom 10000 dump.water.${pid}
dump            myDump all atom 10000 dump.water.0
dump            myDump2 all dcd ${out_freq2} dump.dcd
dump            myDump2 all dcd 10000 dump.dcd
dump_modify     myDump append yes
dump_modify     myDump2 append yes


variable natoms 	equal  "count(all)"                        # NUMBER ATOMS
variable H      	equal  "enthalpy/v_natoms"                 # ENTHALPY-per-atom
variable Vol      	equal  "vol/v_natoms"                 # volume-per-atom
fix AVG all 		ave/time ${out_freq} 1 ${out_freq} v_Vol v_H file vol_enthalpy.dat
fix AVG all 		ave/time 1000 1 ${out_freq} v_Vol v_H file vol_enthalpy.dat
fix AVG all 		ave/time 1000 1 1000 v_Vol v_H file vol_enthalpy.dat


timer           timeout 23:50:00 every 1000
New timer settings: style=normal  mode=nosync  timeout=23:50:00

fix 		1 all shake 1e-6 200 0 b 1 a 1
Finding SHAKE clusters ...
       0 = # of size 2 clusters
       0 = # of size 3 clusters
       0 = # of size 4 clusters
     288 = # of frozen angles
  find clusters CPU = 0.000 seconds
fix             2 all nph aniso ${pressure} ${pressure} ${pressureDamp}
fix             2 all nph aniso 928.7 ${pressure} ${pressureDamp}
fix             2 all nph aniso 928.7 928.7 ${pressureDamp}
fix             2 all nph aniso 928.7 928.7 1000
fix             3 all temp/csvr ${temperature} ${temperature} ${tempDamp} ${seed}
fix             3 all temp/csvr 259.5 ${temperature} ${tempDamp} ${seed}
fix             3 all temp/csvr 259.5 259.5 ${tempDamp} ${seed}
fix             3 all temp/csvr 259.5 259.5 100 ${seed}
fix             3 all temp/csvr 259.5 259.5 100 745823


run             250000
PPPM initialization ...
  extracting TIP4P info from pair style
  using 12-bit tables for long-range coulomb (../kspace.cpp:340)
  G vector (1/distance) = 0.37112664
  grid = 24 27 25
  stencil order = 5
  estimated absolute RMS force accuracy = 0.003234559
  estimated relative force accuracy = 9.7407785e-06
  using double precision FFTW3
  3d grid and FFT values/proc = 4410 672
Last active /omp style is kspace_style pppm/tip4p/omp
Neighbor list info ...
  update every 1 steps, delay 7 steps, check yes
  max neighbors/atom: 2000, page size: 100000
  master list distance cutoff = 10.8154
  ghost atom cutoff = 10.8154
  binsize = 5.4077, bins = 4 5 5
  1 neighbor lists, perpetual/occasional/extra = 1 0 0
  (1) pair lj/cut/tip4p/long/omp, perpetual
      attributes: half, newton on, omp
      pair build: half/bin/newton/omp
      stencil: half/bin/3d
      bin: standard
Setting up Verlet run ...
  Unit style    : real
  Current step  : 2250000
  Time step     : 2
  Walltime left : 23:49:59.94
Per MPI rank memory allocation (min/avg/max) = 10.19 | 10.20 | 10.21 Mbytes
Step Temp PotEng TotEng E_pair E_mol Press Lx Ly Lz Volume Pxx Pyy Pzz Pxy Pxz Pyz Enthalpy 
 2250000    265.59935   -4199.1071   -3743.8789   -4199.1071            0    1170.5343    17.978876    23.477619    22.295498    9410.9563    1973.3743    845.15093    693.07781    476.10133    552.33962    616.71557    -3583.224 
 2251000    254.19911     -4215.42   -3779.7314     -4215.42            0     1701.384     18.28154    23.605735    21.830063    9420.7462    2007.8434    673.19902    2423.1094    494.28837   -275.45349   -343.37983    -3545.975 
 2252000    259.44377   -4233.2958   -3788.6181   -4233.2958            0    823.86274    18.108543    23.392155    22.204519    9405.7863     1927.414    723.17529   -179.00109    578.47332   -67.183079    280.74575   -3675.6057 
 2253000    256.67655   -4233.0654   -3793.1306   -4233.0654            0    883.24547    17.966369    23.488226     22.31265    9415.8968     1252.056     485.1645    912.51586   -1095.8458    457.61075    192.98215   -3671.8423 
 2254000    246.62696   -4256.5213   -3833.8111   -4256.5213            0    520.85227    18.107977     23.67711    21.946422     9409.409    118.56193   -596.29581    2040.2907    606.65491   -314.15776     210.9033   -3762.3363 
 2255000    261.31347   -4221.9935   -3774.1112   -4221.9935            0    1557.3511    17.966699     23.47713     22.20955    9368.1332    1538.1655     2501.804    632.08389    160.76835    696.00323   -399.51724   -3561.3387 
 2256000    264.70064   -4224.3001   -3770.6123   -4224.3001            0    942.80376    18.136222    23.419592    22.129959    9399.5433    1133.5811     756.9595    937.87065    182.04809    1112.6892   -1.9327274   -3641.3702 
 2257000    262.49434   -4224.1785   -3774.2722   -4224.1785            0    2561.7306    18.331119    23.152654    21.970266    9324.4898    2235.6032    1901.1612    3548.4274   -1035.7595     727.6073    66.813672   -3425.9073 
 2258000     261.8998   -4220.9849   -3772.0976   -4220.9849            0    515.11408    18.049903    23.512927    22.228973    9434.1108    639.19363    441.85981     464.2888   -932.46548   -125.86367    607.70669   -3701.2247 
 2259000    266.80154   -4209.1323   -3751.8436   -4209.1323            0    2662.3548     17.68775     23.95095    21.994557    9317.7392    4696.5807    1144.9001    2145.5835    91.493356   -802.39249   -552.66633   -3390.0571 
 2260000    262.96645   -4224.3043   -3773.5888   -4224.3043            0   -452.22697    18.069814    23.656636     22.26974    9519.6684   -279.67707   -1757.9556     680.9518    1049.1901    97.740411   -273.08599   -3836.3736 
 2261000    265.99325   -4247.5173   -3791.6139   -4247.5173            0    424.44499    18.314833    23.238908    22.073944    9395.0395    198.85817   -222.41592    1296.8927    1422.3126    52.389364    117.76952   -3733.4578 
 2262000     270.8995   -4200.4215    -3736.109   -4200.4215            0   -75.846381    18.303197    23.490883    21.943049    9434.5953   -102.25664   -304.35801    179.07551    713.38818   -670.11409    73.789611    -3746.545 
 2263000    268.23778   -4219.6559   -3759.9056   -4219.6559            0    379.38078    17.957539     23.61208    22.127381    9382.3381    961.36166    923.66152   -746.88083   -1535.0248    593.03566   -367.30404   -3707.9942 
 2264000    253.88825   -4239.2068   -3804.0511   -4239.2068            0    1408.4687    17.697678    23.733385    22.323396    9376.4027    2913.8496    1587.1969   -275.64046   -135.72531    77.224239    14.900142   -3611.4497 
 2265000    256.95426   -4216.9068    -3776.496   -4216.9068            0    893.20028    18.128623    23.448006    22.097506    9393.2088    956.90776    107.55482    1615.1383    148.79162    419.04244   -393.17995   -3654.1362 
 2266000    258.05971    -4224.302   -3781.9965    -4224.302            0    1.0675668    18.314657    23.196687     22.24468    9450.4161   -1341.4013    734.05585    610.54818   -123.53677   -218.54307    344.24761   -3781.8493 
 2267000    262.21727   -4230.8792   -3781.4477   -4230.8792            0    2407.8074    18.202155    23.346448    22.041537    9366.6763    3196.6238     1699.344    2327.4544    1082.8572    232.54378   -1257.3706   -3452.5331 
 2268000    261.07853    -4263.936   -3816.4563    -4263.936            0    394.26047    18.114821    23.679989    21.960736    9420.2501   -133.77407   -871.95083    2188.5063    119.31219    1064.2227    255.42477   -3762.2909 
 2269000    257.35523   -4227.4689   -3786.3708   -4227.4689            0     1178.297    17.820419    23.742491    22.118453    9358.3424    1657.6491    1466.4536    410.78821    114.57839   -538.06367   -523.20146   -3625.5547 
 2270000    249.72482   -4237.8883   -3809.8685   -4237.8883            0    116.98211    18.085548     23.59426    22.098352    9429.7008   -840.73211    398.04218    793.63627    261.96756   -758.77951   -159.99598   -3793.7808 
 2271000    258.57078   -4249.0502   -3805.8688   -4249.0502            0    1834.8894    18.199324    23.258447    22.049999    9333.5004    2437.2281    1485.5556    1581.8846    1099.1643    682.67208    -471.8874   -3556.1045 
 2272000    254.39738   -4193.4508   -3757.4224   -4193.4508            0    1607.3667    18.153348    23.276829    22.266138    9408.6099    2825.6177    2525.9051   -529.42284    255.27961    126.97541    40.857633   -3536.8677 
 2273000    245.74679   -4233.1924   -3811.9908   -4233.1924            0    686.87447    18.157636     23.48266    22.034957    9395.4767    1334.0749    957.54303   -230.99456    904.82925    140.91826     138.1949   -3717.8729 
 2274000    272.37004   -4198.4484   -3731.6155   -4198.4484            0    1218.4147    18.090928    23.711102    21.970611     9424.422    1304.1232      42.8833    2308.2375   -436.58957    601.08572    1034.2068   -3564.1499 
 2275000    255.54011   -4211.7572   -3773.7702   -4211.7572            0    537.65961    17.934831    23.451545    22.433491    9435.5154   -740.44162    2167.4445    185.97589   -805.47022    260.43378   -323.66736   -3699.7843 
 2276000    274.43583   -4225.6352   -3755.2615   -4225.6352            0    621.54643    18.250029    23.532413    21.895299    9403.3133   -874.71333    1931.1833    808.16932    1198.8267    47.434406    145.51516   -3670.0241 
 2277000    267.97174   -4222.2956   -3763.0012   -4222.2956            0    528.90917    18.111859    23.346476    22.153282    9367.4732    57.612184    962.53005    566.58527    356.38328   -119.13504    373.41172   -3690.7443 
 2278000    268.92748   -4262.7797   -3801.8472   -4262.7797            0    1139.8958    17.972051    23.514191    22.135372     9354.369     1270.077   -42.077179    2191.6876   -449.43449   -685.38648   -346.30119   -3646.3382 
 2279000    247.66409   -4248.0547   -3823.5669   -4248.0547            0   -541.35375    18.120839    23.746316    22.042973    9485.1609   -704.30102   -858.81955   -60.940691    707.60765   -411.10241   -11.769923   -3898.4531 
 2280000     271.0919    -4224.913   -3760.2708    -4224.913            0    1303.5015    17.900804    23.473866    22.399784    9412.4133     2274.338    1633.8013    2.3653024   -776.29231    516.93937    348.25197   -3581.3386 
 2281000    272.73312   -4218.2073   -3750.7521   -4218.2073            0    1737.8381    18.196514    23.422269    22.116281    9426.0398    1592.7149    3322.7578    298.04162   -462.75331   -617.64616    482.50615    -3511.853 
 2282000    272.25204    -4235.544   -3768.9134    -4235.544            0    740.49688    18.261546    23.444695     22.06989    9448.9225   -1184.6508    1065.9565    2340.1849    434.12563    -1183.999    1100.9524   -3666.8708 
 2283000    264.48332   -4224.3057   -3770.9904   -4224.3057            0    2886.4443    17.809952    23.376026    22.158561     9225.183      5158.53    3142.1672    358.63567    838.18567    274.82196   -573.38802   -3382.6486 
 2284000    257.41937   -4254.1993   -3812.9913   -4254.1993            0    839.98487     18.00472    23.606986    21.992168    9347.4889     1937.395    154.90534    427.65428   -178.84729    91.945397    615.89065   -3698.4816 
 2285000    254.39665   -4258.5052   -3822.4781   -4258.5052            0    113.66291     18.12405    23.672473    22.043583     9457.603    348.73447   -105.24879    97.503047   -1094.4749   -620.45945   -63.868005   -3806.8006 
 2286000    252.34978   -4242.8403   -3810.3214   -4242.8403            0    815.38945    18.077022    23.320345    22.312801    9406.2383   -782.35378    2568.6853    659.83687    629.84612    302.45104      311.513    -3698.466 
 2287000    261.05606   -4223.7894   -3776.3483   -4223.7894            0    278.27547     18.31642    23.423355    21.966831    9424.4738   -193.04426   -106.03838    1133.9091   -959.12872    -654.5185    144.24025   -3738.1004 
 2288000    271.87681   -4254.1767   -3788.1891   -4254.1767            0    661.57354     18.11194    23.543206    22.095986    9422.0189    750.64208   -524.48862    1758.5672    1212.7619    215.71295   -157.30489    -3697.282 
 2289000    254.73056   -4222.9725    -3786.373   -4222.9725            0    1103.1124    17.879422    23.669046     22.28188    9429.4433    1959.2152    1272.4247    77.697275    386.84352    704.46432    616.33865   -3634.6744 
 2290000    263.46977   -4251.4366   -3799.8584   -4251.4366            0   -255.02949    18.094792    23.819265    21.991098    9478.2654   -466.05518    376.22969   -675.26299    63.419859   -417.50737   -89.168629   -3835.1114 
 2291000    258.98599   -4230.8573   -3786.9642   -4230.8573            0    1539.6112    18.065686    23.427994    22.044138    9330.0223    3219.7825    2398.6931   -999.64184   -942.34537    22.626483    276.76776   -3577.4711 
 2292000    261.45447   -4246.1646   -3798.0406   -4246.1646            0    845.77868    18.238983    23.185023     22.19782    9386.8201    327.62583    2008.0124    201.69785    617.67579   -503.57262   -734.26014   -3682.2559 
 2293000    259.68478   -4222.0237   -3776.9329   -4222.0237            0    411.48432    18.266529    23.483883    22.013945    9443.3005   -232.92145     2376.733   -909.35857    572.90739    87.800455    823.72163   -3720.2629 
 2294000    264.02356   -4232.8015   -3780.2741   -4232.8015            0    2068.0871    17.722425    23.529655    22.329305    9311.3771    2937.5932    1631.2418    1635.4264   -297.81674    361.92629    105.06275   -3499.4343 
 2295000    242.73082   -4251.5827   -3835.5504   -4251.5827            0    806.96207    18.031277    23.601865     22.03441    9377.2224    309.80912   -292.16992     2403.247   -738.64136    -173.2121    335.92545   -3725.1925 
 2296000    268.78724   -4229.1188   -3768.4267   -4229.1188            0    921.90314    18.257644    23.465685    22.062179    9452.0581    594.70857    1369.8676     801.1332   -533.08545    361.25726    731.38543   -3641.3436 
 2297000    247.80434   -4229.9363   -3805.2082   -4229.9363            0    952.12186    18.164794    23.454423    22.114422    9421.7342    604.85734    668.68847    1582.8198    611.51913   -266.90499   -561.17328   -3674.3806 
 2298000    259.02184   -4221.1801   -3777.2255   -4221.1801            0    661.61604    18.053255    23.594641    22.254693    9479.6107    1084.3432   -119.11915    1019.6241    1680.3561   -149.14415   -191.74849   -3685.7568 
 2299000    253.59361   -4200.9915   -3766.3407   -4200.9915            0   -106.93768    18.116525      23.5903     22.21564     9494.393    62.785551    108.52192    -492.1205    217.95731    294.73801   -439.75626    -3781.148 
 2300000    257.67531   -4244.1787    -3802.532   -4244.1787            0   -615.68624    18.341215    23.425798    22.042427    9470.6961   -921.05251   -1117.0386    191.03236    205.32587   -276.83817    219.91093   -3887.5708 
 2301000     264.8205   -4210.9078   -3757.0145   -4210.9078            0    1468.5035    18.150754     23.48781    22.026913    9390.5456    1410.1592    1616.4648    1378.8867   -220.71945    104.09228    456.64502   -3555.9008 
 2302000    266.54899   -4253.1531   -3796.2973   -4253.1531            0    434.32753    18.060705    23.618464    22.188928    9465.0444    263.59008     691.1859    348.20661   -809.38713   -575.50992     122.3849   -3736.3436 
 2303000    249.04496   -4233.2538   -3806.3993   -4233.2538            0   -322.43992    17.968368    23.606561    22.240531     9433.797    288.76954   -1164.5732   -91.516058    1157.4952    569.96262   -179.67965   -3850.7613 
 2304000    264.81464    -4213.058   -3759.1747    -4213.058            0    1594.1968    17.962816    23.881571    21.870495    9382.0106    1396.1921    26.878564    3359.5198    -513.8426    347.08307    248.80263   -3541.0456 
 2305000     273.0527   -4253.0358   -3785.0328   -4253.0358            0    576.87435    18.096051    23.423007    22.241842    9427.5149    952.70591    455.08491    322.83223   -257.37411     154.1522    2.6300431    -3705.718 
 2306000    264.77573   -4202.4247   -3748.6082   -4202.4247            0    889.86717    18.397674    23.328059    21.951897    9421.3599   -785.45074     2233.927    1221.1252   -146.91125    551.20113   -1044.5961   -3626.3397 
 2307000    253.67796   -4221.8728   -3787.0774   -4221.8728            0    1118.4501    18.155598    23.459329     22.11568    9419.4694    707.84854   -125.47556    2772.9773    233.08262   -221.60733    159.47841   -3633.4323 
 2308000     259.6302   -4225.6194   -3780.6221   -4225.6194            0    380.91781    18.109214    23.545094    22.242435    9483.7992    1372.3187   -471.84646    242.28119   -220.54122     204.6324   -626.93268   -3727.9368 
 2309000    258.83808   -4226.1272   -3782.4876   -4226.1272            0    1859.4264    17.847228     23.76476    22.025069     9341.605     1721.711    1224.7393    2631.8288   -1129.9018     718.7038    390.20759   -3529.1635 
 2310000    248.67487   -4247.5083   -3821.2881   -4247.5083            0    551.14691     18.04981    23.624211    22.198163     9465.575    1534.8313    427.13439   -308.52493     25.94302   -312.20583    362.07598   -3745.2046 
 2311000    260.14004   -4226.4115   -3780.5404   -4226.4115            0    1257.0048    18.297989    23.325771    22.092446     9429.381    463.70904    2656.1542    651.15114   -785.31936    -455.7578   -200.59224   -3607.6798 
 2312000    262.50599   -4213.1572    -3763.231   -4213.1572            0    885.22125    18.313711    23.241712     22.20439    9451.1209    247.04439    549.85584    1858.7635   -593.81224    -447.8552    234.17752   -3641.2166 
 2313000    280.68282    -4232.134   -3751.0532    -4232.134            0    518.61339    18.144493    23.467352    22.249342    9473.8411   -849.22306    1699.9006    705.16268    352.42161   -1141.8205    35.030839   -3679.3984 
 2314000    270.54506   -4253.0362   -3789.3313   -4253.0362            0     880.4899    17.970318    23.749603    21.988575    9384.4584    1942.3756    369.11385    329.98024    32.695528    22.005115    1046.8219    -3668.825 
 2315000    239.28677   -4232.3993     -3822.27   -4232.3993            0   -687.13528    18.022193    23.493835    22.356172    9465.8361   -1477.8365    897.46394   -1481.0333    1139.9576   -666.56788    13.646394   -3917.1286 
 2316000    283.14164   -4240.3919   -3755.0969   -4240.3919            0    1763.2335    18.182011    23.423844    22.035113    9384.5911     1122.225    1797.2164     2370.259    1119.1463    732.47253   -7.7726052   -3513.7725 
 2317000    255.85948   -4276.0186   -3837.4842   -4276.0186            0    96.898184    18.148045    23.572552    22.186175    9491.1512   -709.86301   -132.56809    1133.1257   -454.39415   -616.70032    470.38342   -3824.0717 
 2318000    257.90241   -4231.9757   -3789.9398   -4231.9757            0    2777.7938    17.979565    23.376742    22.273809     9361.763    4388.3354    2949.1716    995.87441   -378.83802   -358.16085    212.01737   -3410.6828 
 2319000    251.94937   -4269.2932   -3837.4606   -4269.2932            0    1319.9752    18.093598    23.621717    21.951203    9381.9851    884.30812    1693.4411    1382.1764     737.8973   -27.783195    219.70643   -3656.8528 
 2320000    259.77332   -4226.4157   -3781.1731   -4226.4157            0   -1006.2741    18.306139    23.580296    22.245415    9602.5488   -1568.2412   -1064.5832   -385.99801   -108.18462   -181.12991    972.19311   -3922.0951 
 2321000    266.18971   -4247.1164   -3790.8764   -4247.1164            0    820.41276    18.087875    23.270548    22.334967    9401.1172    1772.8811    39.334693     649.0225    -510.2069   -1032.1041    37.974504   -3678.3931 
 2322000    278.64187   -4202.8191   -3725.2364   -4202.8191            0     1595.001    18.289613    23.498659    21.807537    9372.4732    2320.0927     1472.718    992.19231    131.44193   -594.03493   -554.58157   -3507.2191 
 2323000    241.67543   -4240.2922   -3826.0687   -4240.2922            0    486.12389    18.020197    23.551992    22.187406    9416.5911     568.8846    1114.9113   -225.42429     46.15435   -323.81307    552.57126   -3759.3087 
 2324000    273.50718   -4261.5031   -3792.7212   -4261.5031            0   -34.125846    18.011111    23.793469    22.132478    9484.8027    87.118192    1779.7666   -1969.2624   -1422.5473    149.52732    437.68174   -3797.4417 
 2325000    259.90686   -4236.9019   -3791.4305   -4236.9019            0    1303.9449    18.086126    23.655304    21.983802    9405.3917    726.58706   -181.68764    3366.9353   -524.30715     40.39355   -235.12574    -3612.571 
 2326000    264.72257   -4244.1163   -3790.3909   -4244.1163            0    1653.7149    18.036662    23.399764    22.203493    9371.0648     751.0243    3129.4566    1080.6637   -424.75831   -175.37126    5.6445798   -3564.3821 
 2327000    258.42242   -4251.4433   -3808.5161   -4251.4433            0    335.96519    18.101605    23.605922    22.126729    9454.8634    482.16347    749.82353   -224.09143    94.781028   -59.582054   -234.49774     -3762.19 
 2328000    274.16054   -4209.9703   -3740.0685   -4209.9703            0     -233.131    17.883539    23.978742    22.130822    9490.2448    448.24172   -537.83978   -609.79495    19.213806    476.24509   -534.06655   -3772.3351 
 2329000    255.18287   -4230.6346   -3793.2599   -4230.6346            0    1397.1998    18.081899    23.639759    22.033118    9418.0945    1888.9228    1774.4627    528.21383   -54.729375    833.91249   -512.61422     -3601.35 
 2330000    265.99518   -4192.8056    -3736.899   -4192.8056            0    1609.1853    18.270015    22.929116    22.424444    9393.9423   -254.26089    3234.9444    1846.8725    405.29314   -361.81793   -193.90246    -3516.439 
 2331000    273.68107   -4256.0294   -3786.9494   -4256.0294            0    1105.8813    18.205377    23.329725    22.023909    9354.1367    686.31267    150.62831     2480.703      207.339   -555.90596    369.09674   -3636.0845 
 2332000     256.1373   -4254.5683   -3815.5577   -4254.5683            0    922.02175    18.082178    23.432292    22.096796    9362.5649    626.87197    62.457613    2076.7357    255.94769   -500.88413    112.72584   -3689.6617 
 2333000     247.3862   -4238.6823   -3814.6709   -4238.6823            0    787.98923    17.954775    23.677744    22.100299    9395.4682    2254.9659    518.11548   -409.11373    148.53318    35.236531    367.53218    -3706.698 
 2334000    267.92561   -4201.4027   -3742.1874   -4201.4027            0    648.21281    18.061995    23.646251    22.083143    9431.6767    1070.7087    173.69962    700.23006   -1014.9795    21.298988    572.03905   -3653.0248 
 2335000    255.63684   -4228.3432   -3790.1904   -4228.3432            0    1570.7619    18.036485    23.336466    22.219251    9352.2568    1517.9595     3233.588   -39.261852    773.26716   -240.94828   -282.94164   -3575.9493 
 2336000    262.48709   -4237.3391   -3787.4452   -4237.3391            0   -1080.4004    18.248646    23.419925    22.251838    9510.0331   -3288.0148    -209.4317    256.24514    -219.1545    586.34989   -100.42611   -3937.2904 
 2337000    250.76951   -4229.6051   -3799.7948   -4229.6051            0    2003.8839    18.167555      23.5223    21.855895    9339.9567    2806.6507    2487.5472    717.45374   -506.67586    377.38607    269.95839   -3526.8384 
 2338000    277.30438   -4225.1728   -3749.8826   -4225.1728            0    2072.8262    18.035604    23.471802    22.037504    9329.0952    1489.8476    2363.4658    2365.1653    1439.3057   -9.5839981   -67.221996   -3467.8636 
 2339000    250.76314   -4253.7194     -3823.92   -4253.7194            0    334.52459    17.949713    23.494742    22.318646    9412.3059   -775.42734    847.94252    931.05858    79.710445   -684.60132    974.33281   -3778.0002 
 2340000    250.56281   -4213.9337   -3784.4776   -4213.9337            0    1237.9778    18.234596    23.541264     21.80645    9360.7551    751.76238    888.55318    2073.6179   -542.35787    303.87679    378.84351   -3615.4726 
 2341000    260.92579   -4269.4488   -3822.2309   -4269.4488            0   -153.94808    18.089523    23.359877    22.324099    9433.4731    577.18069   -133.50601   -905.51892     67.48503    102.30378   -246.47092   -3843.4107 
 2342000     259.8618   -4218.2235   -3772.8293   -4218.2235            0   -306.43849    18.328764     23.54367     22.09773    9535.7533   -162.31979   -719.39269    -37.60301    697.68106    184.21297    -39.73931   -3815.4455 
 2343000     248.8132   -4238.3006   -3811.8433   -4238.3006            0    55.574118    18.149683    23.637238    22.123394    9491.1211   -324.91033    299.33024    192.30244    247.21475    132.66276    936.54418   -3804.1508 
 2344000    267.61014   -4251.1312   -3792.4566   -4251.1312            0    2882.1311    17.893022    23.327066    22.232338    9279.5934    3264.5925    2203.3821    3178.4188   -66.237439   -572.45937    75.974997   -3402.4081 
 2345000    266.75354   -4273.0297   -3815.8233   -4273.0297            0    1006.3156    18.270051    23.476043    21.951352    9415.1219   -633.76098    1918.1452    1734.5627   -147.09711   -136.15518    457.95318   -3677.6462 
 2346000    254.93312   -4205.0411   -3768.0945   -4205.0411            0    2421.2781    18.114923    23.341069    22.135591    9359.4075    1736.4143    3570.0279    1957.3922   -84.618747    52.574784   -230.55343   -3437.5964 
 2347000    257.50018   -4227.5113   -3786.1648   -4227.5113            0    605.52066    18.007782    23.570041    22.291247    9461.3897    -373.5678     1304.906    885.22379    950.07563    232.42106    400.11713   -3702.6123 
 2348000    252.66939    -4258.233   -3825.1663    -4258.233            0    341.83956     18.11619    23.651027    22.025149     9437.038    586.52807   -818.70043     1257.691   -1315.9937    161.61225   -369.71913   -3778.1191 
 2349000    265.36052   -4239.8365   -3785.0176   -4239.8365            0    715.82515    18.067626    23.325403    22.371111    9427.9616    1167.3001    422.63906    557.53631   -223.65506    -881.5622   -532.01356   -3686.5937 
 2350000    267.07155   -4265.7284   -3807.9769   -4265.7284            0    1102.7718    18.158042    23.471065    21.994529    9373.8171    3322.9619   -160.35378    145.70732    723.76089     502.1901    335.19949   -3657.2197 
 2351000    249.09123     -4248.88   -3821.9461     -4248.88            0    1045.6551    18.108467    23.371578    22.265311    9423.2014    549.05861    2118.9107    468.99604    1243.6422    370.64923    673.54558   -3678.2441 
 2352000    259.67974   -4217.3479   -3772.2657   -4217.3479            0    -340.8462    18.103355     23.59671    22.339632    9543.0359   -48.744755    757.38329   -1731.1771    513.09424    793.37764    420.07349   -3819.7031 
 2353000    255.08355   -4215.3906   -3778.1861   -4215.3906            0    1280.7945    18.033057    23.703348    22.003837    9405.4042    1858.6386    2183.2686   -199.52373   -467.92492   -386.41471   -256.97247   -3602.5018 
 2354000    255.04371   -4229.4978   -3792.3616   -4229.4978            0    1642.7405    17.873252    23.652716    22.139946    9359.6837    1016.2152    1842.9803    2069.0259    1360.9125   -21.681006   -65.925366   -3568.1253 
 2355000    280.00403   -4239.4353    -3759.518   -4239.4353            0    2139.1933     18.04017     23.32687    22.247513    9362.2139    2470.3536    4199.0892    -251.8628    852.76168    32.481002    219.02015   -3467.4362 
 2356000    256.83323   -4251.1627   -3810.9593   -4251.1627            0    2055.4416    18.376655    23.368537    21.872325     9392.754     1112.009     2780.483    2273.8328   -1165.9863   -511.00024    663.88608   -3529.3973 
 2357000    252.04974   -4247.1575   -3815.1529   -4247.1575            0    885.07966    18.145882    23.539073    22.115635    9446.4113    737.99821    1122.6291    794.61164    38.351802   -342.15511   -420.32202   -3693.2188 
 2358000    252.66536   -4221.2291   -3788.1693   -4221.2291            0    1861.4587    17.820464    23.595013    22.220281    9343.0523    3356.2354    300.62146    1927.5191   -1256.4164    433.50704   -121.33944   -3534.5291 
 2359000    259.37576   -4244.3042    -3799.743   -4244.3042            0    1697.0977    18.059902    23.620624    22.016461    9391.9172    2205.6598    316.01111    2569.6223    191.77383   -361.67259   -600.72612    -3567.289 
 2360000    249.44599   -4223.7875   -3796.2456   -4223.7875            0   -193.89888     18.10991    23.676877    22.211261    9523.8805   -665.99828   -748.09846    832.40009    361.06943    109.17997    233.22933   -3823.1774 
 2361000    255.08072   -4216.5443   -3779.3447   -4216.5443            0   -480.91906    18.129651    23.718427    22.237865    9562.4329   -519.45163   -812.19095   -111.11461    648.91688   -265.29594    -20.58883   -3846.4128 
 2362000    264.57528   -4238.4959   -3785.0229   -4238.4959            0    714.32613    18.223515    23.444213    22.008611    9402.8702    657.49261    1584.8726    -99.38676   -1120.4106    139.98756    945.37637   -3687.0665 
 2363000    256.98236   -4239.3607   -3798.9018   -4239.3607            0    1146.1666    18.038658    23.271955    22.278318    9352.3229    2052.5045    937.29888    448.69631   -981.04171   -661.82877    328.49766   -3642.5715 
 2364000    267.87774   -4205.3359   -3746.2026   -4205.3359            0    347.48742    18.033141     23.65519    22.141375      9445.01    544.01886   -757.30615    1255.7496    337.54153    734.62059    214.36803   -3698.3377 
 2365000     270.7506   -4231.0508   -3766.9936   -4231.0508            0   -228.20333    17.991611     23.81586    22.164618    9497.2219   -746.69149   -353.78751      415.869     703.3303     158.0744   -50.352404   -3798.6014 
 2366000    247.46719   -4231.4011   -3807.2509   -4231.4011            0    1450.6691    18.065115    23.474617    22.218189    9422.1041    1662.9448    309.51147    2379.5509    30.932213   -161.26736   -559.80453   -3607.9119 
 2367000    246.95001   -4241.3918   -3818.1279   -4241.3918            0    1371.9606    18.438546    23.286869    21.835221    9375.5195    987.70689    166.81905    2961.3557   -787.41687   -338.12667   -105.24665   -3630.5366 
 2368000    262.69155   -4264.2746   -3814.0303   -4264.2746            0    189.90889    18.129666    23.361853    22.234096    9417.0864    1197.2996    842.14193   -1469.7149    119.19279    202.69968     305.6504   -3787.9484 
 2369000    257.81433   -4221.6158   -3779.7309   -4221.6158            0    1814.6467    17.986568    23.405026    22.256611     9369.501    2824.2462    1361.5497    1258.1441   -898.49623    268.63111    18.013143   -3531.7693 
 2370000    254.85435   -4242.7638   -3805.9521   -4242.7638            0    -338.5607    18.147004    23.796497    21.915234    9463.7677   -457.00553   -812.20317     253.5266   -485.74187    288.61132   -505.92967   -3852.6801 
 2371000    255.75648   -4244.6066   -3806.2487   -4244.6066            0     657.8383    18.050637    23.614534    22.177281      9453.23     893.0087   -568.90521    1649.4114    1411.4304   -521.61491    914.47684   -3715.5554 
 2372000    261.10316   -4204.5381   -3757.0162   -4204.5381            0    1677.6065    18.077634     23.41773    22.212555    9403.3993    2114.0742    1176.4569    1742.2885   -794.95463   -481.31399   -552.54739    -3526.951 
 2373000    252.93867   -4263.1735   -3829.6453   -4263.1735            0    598.70064     18.22191    23.497877    21.864389    9361.8112    16.681025    1268.2837    511.13718   -681.39273   -317.64992     489.6802   -3747.9033 
 2374000    262.93163   -4215.1639   -3764.5081   -4215.1639            0    402.88955    18.099071    23.277157    22.425372    9447.6951   -120.07482    2383.5599   -1054.8165   -323.82823   -130.01119   -33.083491    -3708.996 
 2375000    264.10173   -4194.5523    -3741.891   -4194.5523            0    2119.9637     18.02306    23.518541    22.076868    9357.8564    3299.6475     1131.351    1928.8925    258.32298    305.98464    -252.8055   -3452.5695 
 2376000    260.66736   -4236.2411   -3789.4662   -4236.2411            0    1497.7068    18.026342    23.657122    21.888338    9334.3117    1786.4455    478.96649    2227.7085   -620.65893    682.47463    16.021397   -3585.5813 
 2377000    257.52104   -4223.0705   -3781.6882   -4223.0705            0   -270.90486    17.972887    23.705514     22.21298    9463.9849   -169.71024    486.08234   -1129.0867    475.25333    23.285697    -550.5807   -3819.0792 
 2378000    260.20917   -4231.4049   -3785.4153   -4231.4049            0    1444.7956    18.154218    23.435798    21.944454    9336.4567    1302.7591    1112.3357    1919.2921     45.25442    723.67834    237.66324   -3588.6881 
 2379000    267.29609   -4216.1263   -3757.9899   -4216.1263            0    122.40957    18.255081    23.402757    22.121332    9450.6582   -487.30624   -298.75601     1153.291     649.4112    137.45754   -877.13936   -3741.1184 
 2380000    255.68762   -4255.5995   -3817.3597   -4255.5995            0    42.317472    18.009814    23.418132    22.299515    9404.9588     1362.166   -309.46457   -925.74905   -21.868444   -929.84559   -172.37655   -3811.5553 
 2381000    261.17746   -4274.3004   -3826.6512   -4274.3004            0     400.1233    17.971322    23.676792    22.060461    9386.7984    66.732558    490.22007    643.41727    317.16229   -408.75498   -233.80237   -3771.8756 
 2382000    261.04054   -4204.8643   -3757.4498   -4204.8643            0   -117.11995    18.087207    23.639635    22.112468    9454.7379     322.9829    548.31032   -1222.6531   -1141.5308    585.10413    136.68072   -3773.5991 
 2383000    252.24007   -4224.9671   -3792.6362   -4224.9671            0    1159.9673    18.122681    23.323474    22.201625    9384.2689    652.79467    2592.9918    234.11543   -67.955087   -196.73654    1344.0065   -3633.8832 
 2384000    250.25694   -4248.9885   -3820.0567   -4248.9885            0    132.89086    18.404866    23.381728    21.909095    9428.3067   -1003.5794    31.250311    1371.0016   -366.84761   -261.50198   -347.27223   -3801.7839 
 2385000    256.97294   -4274.2011   -3833.7583   -4274.2011            0    443.47529    18.036053    23.454139    22.210094    9395.3159    422.15056    1311.8117   -403.53636    564.55597    144.13319   -114.48201   -3772.9929 
 2386000    259.37008   -4236.0382   -3791.4868   -4236.0382            0    911.14825    17.902802    23.833902    22.089551    9425.4704    1972.3901   -20.642419    781.69706    822.17034    1036.6871    541.42613   -3666.2396 
 2387000    255.51375   -4251.9223   -3813.9805   -4251.9223            0    1288.0161    18.053353    23.664068    22.028357    9410.8616    1751.8795    1057.1375    1055.0313    -813.9479    103.45547    596.37567   -3637.2032 
 2388000    267.66294   -4240.0583   -3781.2932   -4240.0583            0    1919.8126    17.932554    23.411892    22.240255    9337.2379    2454.4601    2258.4185    1046.5591    -130.3764   -261.60719   -100.48937   -3519.8646 
 2389000    254.93993   -4279.1186   -3842.1603   -4279.1186            0     537.5245    18.260013    23.562629    21.795849    9377.7494   -911.12899    368.80392    2154.8986   -419.77512   -33.136375    544.65859   -3768.6458 
 2390000    264.10268   -4245.2838   -3792.6209   -4245.2838            0    331.47029    18.139396    23.464372    22.135091    9421.3486    1047.0953    135.82963    -188.5141   -166.70935   -28.872314   -374.51981   -3747.0766 
 2391000    252.06178    -4252.667   -3820.6417    -4252.667            0    -25.98359    18.083469    23.450228    22.292564    9453.4173   -125.00388    1546.6101    -1499.557    891.01615    547.04483    182.12665    -3824.224 
 2392000    252.18102   -4232.4858   -3800.2562   -4232.4858            0    1825.0594    18.192359    23.591384    21.865014    9384.0905    2330.3388    1241.7104    1903.1289   -752.43342     65.17137   -924.72386   -3550.4834 
 2393000    252.06491   -4244.2376    -3812.207   -4244.2376            0    2195.9744    17.918385    23.402467    22.300472    9351.3555    2515.9436    1343.1573    2728.8223    807.73714    69.786086     387.8801   -3512.7201 
 2394000    244.91428   -4221.0589   -3801.2842   -4221.0589            0    1484.5337    18.058628      23.6113    22.147167     9443.279     1934.027     1604.712    914.86212   -707.90824     226.0139    159.59799   -3596.8334 
 2395000    262.60139   -4218.9042   -3768.8144   -4218.9042            0    1293.5612     18.14078    23.631407    21.997506    9430.1583   -413.29801    1208.1987    3085.7829    171.54269   -759.22007    1037.1614    -3590.912 
 2396000    246.78447   -4226.8551   -3803.8749   -4226.8551            0   -246.53784    18.189985    23.418331    22.311131    9504.0751    394.74583    -213.6116   -920.74775    320.81073    55.436719   -51.050017   -3838.0469 
 2397000    242.81446   -4240.0681   -3823.8924   -4240.0681            0   -104.73495    18.133994    23.444024    22.287148    9475.0192   -690.29858    105.30025    270.79347    112.18104   -114.02945    939.72826   -3838.3651 
 2398000    244.34994   -4248.9391   -3830.1317   -4248.9391            0    179.94001    18.081418    23.820911     21.95347    9455.7073   -201.71991    464.13777    277.40218   -462.37047   -79.514985   -340.66414   -3805.3176 
 2399000    264.45424   -4204.6283   -3751.3628   -4204.6283            0    1754.5663     17.94317    23.538398    22.256015    9399.9053    2049.1217     1825.978    1388.5991   -167.48933    722.15991   -259.31725   -3510.8329 
 2400000    242.03011   -4219.0409   -3804.2095   -4219.0409            0     613.2402     18.39793    23.299172    22.073597    9461.9919   -40.314035    815.60135    1064.4333    343.07393   -643.65577    202.53185   -3719.5864 
 2401000    259.56126   -4212.2439   -3767.3648   -4212.2439            0   -376.35066    18.273894      23.4662    22.081745    9469.0683    -2607.057    929.86571    548.13933    127.96744   -768.63188    253.99079   -3819.3376 
 2402000    242.01001   -4233.9437   -3819.1468   -4233.9437            0    451.03643    17.904657    23.428653    22.439955    9413.1573    2286.4384    363.92386    -1297.253    505.84163   -927.70871     -150.575    -3757.228 
 2403000     259.7709   -4226.8164    -3781.578   -4226.8164            0    1058.5749    18.124152    23.560773    22.153875    9460.1263   -424.36772    2162.7639    1437.3286    889.35731    616.52127    678.93972   -3635.5304 
 2404000    253.72488   -4252.5303   -3817.6545   -4252.5303            0    200.61032    18.280226    23.518911    21.952185    9437.9249   -109.61719     1264.144   -552.69584    350.82458    185.36165   -373.81647    -3790.042 
 2405000    261.70564   -4248.8219   -3800.2674   -4248.8219            0    1124.8591     18.09347      23.3744    22.327892    9443.0014     295.6562    2058.6509    1020.2701   -54.879689   -848.33267    336.22079   -3645.3557 
 2406000    231.76361   -4238.0467   -3840.8118   -4238.0467            0    597.26716    18.380543    23.406678    21.899585    9421.8025    5.9411636     666.6038    1119.2565   -533.85572    12.232345   -597.08995    -3758.743 
 2407000    252.75631   -4241.0211   -3807.8054   -4241.0211            0    130.15898    18.155623    23.570953     22.02864    9427.0541   -194.88891    407.00345    178.36239     67.83567    65.462771     1000.318   -3789.9107 
 2408000    259.22111   -4252.1883   -3807.8922   -4252.1883            0     696.0719    17.839093    23.535398    22.396374    9403.1213   -249.36556    1234.9367    1102.6446    20.209619   -565.96002    -740.5438   -3712.4364 
 2409000     260.9314   -4248.3313   -3801.1038   -4248.3313            0    1932.6555     18.07102       23.603    22.004665    9385.6561    2831.0853     2385.902    580.97914   -516.97044    94.848929   -59.976043   -3536.5616 
 2410000    273.36332   -4237.9636   -3769.4283   -4237.9636            0     719.1985     18.20666    23.547765    22.023179    9441.9124    950.61573    959.54132    247.43845   -535.12621    308.01069    538.31914   -3670.3942 
 2411000    250.62786   -4250.8729   -3821.3053   -4250.8729            0   -279.71705    18.287923    23.422837    22.101007    9467.0778    593.96776   -1519.8408    86.721885   -1451.3827    193.22109     769.0536   -3859.9252 
 2412000     253.9743   -4240.7359   -3805.4327   -4240.7359            0    918.95091    17.961146    23.434328    22.397353    9427.2114    985.98776    1810.6118   -39.746861   -546.53509     393.0323    266.31078   -3679.0896 
 2413000    258.89755   -4229.8413   -3786.0997   -4229.8413            0    978.87487    17.992531    23.717427    22.120858    9439.7782    530.66135    1099.2357    1306.7276    -322.5124    -853.8854    -232.9432   -3651.3385 
 2414000    255.06098   -4242.9258     -3805.76   -4242.9258            0     2256.133    18.052852    23.368388    22.027455    9292.6353    1984.2183    1413.6252    3370.5554   -127.05966   -952.76582   -137.80337   -3500.0008 
 2415000    252.55317   -4228.6484   -3795.7809   -4228.6484            0    1237.3146    18.247488    23.304667    22.104225    9399.8575    783.35566    627.22978    2301.3582   -11.663007   -2.8745629   -194.77139   -3626.1608 
 2416000    270.05337     -4235.97   -3773.1078     -4235.97            0    695.65485    18.262596    23.396869    22.164554    9470.6385    861.51248     1330.307    -104.8549   -468.69408   -326.47986    431.00616   -3677.0242 
 2417000    252.15906   -4258.3299   -3826.1379   -4258.3299            0   -651.26755    18.090057    23.717111    22.111192    9486.6717   -994.61835   -1387.3246    428.14031   -953.45406   -301.22309    45.874917    -3916.243 
 2418000    271.39655   -4215.9514    -3750.787   -4215.9514            0    813.99166    17.881883    23.763876    22.137153    9407.0247    981.02077    494.93705    966.01716   -461.64443   -457.74565   -153.29828    -3639.114 
 2419000    262.17701   -4211.7386   -3762.3761   -4211.7386            0    1288.9484    18.218807    23.459548    22.059849    9428.4893    400.45588    1536.8298    1929.5596    832.82722   -134.63165    657.52249   -3585.1395 
 2420000    252.60374   -4221.4413   -3788.4871   -4221.4413            0    2080.3055    18.216496    23.224554    22.194265    9389.7279    1737.6619    3273.9266    1229.3281   -734.79391    145.49727     629.3639    -3503.611 
 2421000    256.53122   -4233.4584   -3793.7727   -4233.4584            0    653.85849    18.245161    23.529103    21.920488    9410.2961   -21.295666    413.00867    1569.8625    948.01336   -94.216515    395.20149   -3704.0375 
 2422000    267.66486   -4254.2414    -3795.473   -4254.2414            0    2216.6429    17.902841    23.660193    22.071339     9349.081    2866.5977    301.94457    3481.3864    322.15606    543.91604    117.42209   -3493.2409 
 2423000    250.15589   -4236.3982   -3807.6396   -4236.3982            0    1121.0651    17.910042    23.591926    22.265616    9407.9438    2548.1897    134.34168    680.66389   -797.89859   -85.978701   -23.934312   -3653.8236 
 2424000    241.69548   -4227.3473   -3813.0895   -4227.3473            0    1067.4877    18.183905    23.574424    22.042086    9448.8929    382.06413    326.51712    2493.8817    73.444156   -47.069927    457.26822   -3665.9871 
 2425000    265.10157   -4234.8235   -3780.4485   -4234.8235            0    557.99197    18.199089    23.258601    22.326477    9450.4707    70.142601    2395.8788   -792.04544    1032.0935   -127.00067    332.99007    -3703.543 
 2426000    256.61238   -4244.2592   -3804.4344   -4244.2592            0    1951.2335    18.140542    23.458904    22.033991    9376.7241    2674.8808    1671.0644    1507.7552    981.85816    118.97064   -304.98982   -3537.6034 
 2427000    276.84777    -4241.199   -3766.6914    -4241.199            0    322.63026    17.939655    23.856388    22.087104    9452.7362    1417.9353   -1372.7843     922.7398    496.43912    138.58292   -19.888162   -3722.2141 
 2428000    261.19512    -4222.023   -3774.3435    -4222.023            0    1614.0354    18.121523    23.511516    22.150195    9437.4113    2575.0898   -124.22875    2391.2453    419.75001    449.08501    236.76719   -3552.1958 
 2429000    257.68173   -4233.2637   -3791.6061   -4233.2637            0    1187.5302    18.328705    23.290973    22.162601    9461.0671    427.56705    1791.1711    1343.8524    646.07513    146.14695   -196.77577   -3627.7507 
 2430000    254.49747   -4231.9799   -3795.7799   -4231.9799            0    374.41316    18.218552    23.287147    22.295941    9459.2332     892.2388    47.297661    183.70301   -165.59663   -282.69823    790.64644   -3744.1284 
 2431000    258.10185   -4222.5492   -3780.1715   -4222.5492            0    1646.3624     18.12012    23.650685    22.006978    9431.1623    229.11384    2709.6315    2000.3419    126.15783    1104.3445   -495.83419   -3553.7245 
 2432000    266.50693    -4214.407   -3757.6233    -4214.407            0    1008.4362    17.927349    23.634494    22.295276    9446.5942    730.81635    30.502028    2263.9903    299.58438    36.133666    210.01454   -3618.6921 
 2433000     256.0244   -4250.6929   -3811.8758   -4250.6929            0    1430.6888    18.162988    23.462772    22.085068    9411.6413    2818.7605    451.19884    1022.1072    400.82031    361.93794   -110.07909   -3615.5007 
 2434000     264.1203   -4265.5926   -3812.8995   -4265.5926            0    301.78295    18.258665    23.528505    21.928348    9420.3986    669.77601   -171.87212    407.44496     107.8452    516.18884    95.498775   -3771.4384 
 2435000    264.05068   -4223.5576   -3770.9838   -4223.5576            0    1488.1429    18.078879    23.443325     22.23477     9423.741    3748.1787    1092.5694   -376.31937    192.14177   -693.19987    245.34223     -3566.46 
 2436000    259.14188   -4219.2983    -3775.138   -4219.2983            0    1179.5081     18.21813    23.613631    22.020192     9473.003    1182.6696    656.19291    1699.6618    -990.3287    186.32034    443.55361   -3612.1842 
 2437000    263.43893   -4262.8343    -3811.309   -4262.8343            0   -56.928379    18.206634    23.643124    21.973257    9458.6457    691.57687     -671.074   -191.28801    404.09124    568.52739    623.55313   -3819.1619 
 2438000    271.42833   -4219.5666   -3754.3477   -4219.5666            0    1052.4168    18.001336    23.349597    22.366631    9401.2303    2424.6331    782.35476   -49.737441    -1141.948    203.53388   -452.70941   -3610.0537 
 2439000    249.17404   -4241.7958     -3814.72   -4241.7958            0   -189.82838    18.480183    23.430587    21.876022    9472.3509    -2667.312    469.74772    1628.0791    665.13755    294.94335   -514.42159   -3840.9438 
 2440000    273.54742   -4217.8542   -3749.0033   -4217.8542            0    1140.9735    18.025568    23.532518    22.222983    9426.7007    2521.9962    148.27261     752.6518   -823.90542    301.86201     1003.078   -3592.1437 
 2441000    267.88406   -4235.3089   -3776.1648   -4235.3089            0     1429.212    17.956948     23.51749    22.344644    9436.1955    1872.1211     2280.916    134.59889    343.29314   -803.57734    226.45973   -3579.4806 
 2442000    262.90356   -4232.0309   -3781.4232   -4232.0309            0     447.1224    18.173474    23.715774    21.973264    9470.4325    1285.6232      465.017   -409.27302   -355.33575   -343.95586    16.077684   -3719.6682 
 2443000    258.28838   -4223.7436   -3781.0462   -4223.7436            0     1551.182    17.903065    23.487152    22.371195    9406.9089    1241.0651    1974.4278    1438.0532    292.06239    181.05815    566.30532   -3568.2393 
 2444000    271.07102   -4227.3572   -3762.7507   -4227.3572            0    435.11923    18.185217    23.539077    22.073107    9448.6855    686.22652    1946.9332    -1327.802   -317.22558    679.53315    183.96422   -3702.7916 
 2445000     256.4942   -4236.0314   -3796.4091   -4236.0314            0     634.6018    18.181178       23.461    22.114036    9432.7114    738.28904   -10.002621     1175.519   -599.24712     -868.006    269.43981   -3709.1092 
 2446000    263.89306   -4238.9572   -3786.6535   -4238.9572            0    1932.7142    17.978325    23.321671     22.26507    9335.4006    1379.5861     1767.708    2650.8485   -1084.3495    -797.3378   -1094.8416   -3523.5198 
 2447000    259.69486   -4228.1126   -3783.0045   -4228.1126            0    2132.4812     18.02083    23.663434    21.944516    9357.9038    2491.0728    3021.4047     884.9662    767.50749   -1062.4513   -344.39069   -3491.9732 
 2448000    261.24256   -4231.3977   -3783.6369   -4231.3977            0    481.83133    18.115119     23.62639    22.099871    9458.6314    1973.6658   -978.85899    450.68718   -266.19484   -149.05748    641.60131   -3717.1709 
 2449000    261.58666   -4215.4554   -3767.1048   -4215.4554            0    2617.0192    18.119651    23.140483    22.278997    9341.5272    1195.2823    3487.5781    3168.1971    146.07406    269.08267    173.90385    -3410.571 
 2450000    261.85846   -4246.2747   -3797.4582   -4246.2747            0     1145.397    18.206516    23.506206     21.97237    9403.4296    356.41551    1500.5004    1579.2751   -350.40713    107.10943   -69.548166   -3640.3792 
 2451000    261.20076    -4233.672   -3785.9828    -4233.672            0    727.13759    17.900154    23.605235    22.337332    9438.3567    1997.2149    1960.6943   -1776.4965    1536.0476   -578.45113   -585.41852   -3685.8933 
 2452000    252.10764   -4209.2664   -3777.1626   -4209.2664            0    565.32142    18.013722    23.686271    22.244161     9491.092     709.3652    1296.0209   -309.42183   -58.149443   -227.39353     151.0329    -3698.912 
 2453000    248.15929   -4241.5198   -3816.1833   -4241.5198            0    1539.0224    18.245368    23.581401    21.799015     9379.055    2173.4216    1652.4593    791.18636   -1161.7484    351.99294   -636.61642   -3605.6698 
 2454000    248.61889   -4245.5587   -3819.4344   -4245.5587            0    1116.7159    18.050534    23.417394    22.228761    9396.0186    1245.6785    2189.4193   -84.950059    695.05951    71.922589   -7.5605309   -3666.4094 
 2455000    253.85179   -4257.3675   -3822.2742   -4257.3675            0    794.32778    18.213652    23.461974    21.968208    9387.6356    1521.7289   -38.819018    900.07349   -423.85468    497.40127   -36.345454   -3713.5235 
 2456000     253.7187   -4253.3439   -3818.4788   -4253.3439            0    997.43878    18.107066    23.524136    22.035613    9386.1373    809.84649    110.32926    2072.1406     92.16899    511.79287    1.9546821   -3681.9422 
 2457000      256.271    -4238.367   -3799.1273    -4238.367            0    201.73248     17.92145     23.57124    22.470859    9492.3829    215.10348    382.95608      7.13789    1019.2077    -150.9158    80.777149   -3771.2001 
 2458000    259.61511   -4220.7896   -3775.8182   -4220.7896            0    1462.1969    18.117579    23.685894    21.983953    9433.9968    1465.4302    468.71075    2452.4498    803.70386    184.23952    92.527045   -3574.6416 
 2459000     259.9347   -4241.0489   -3795.5298   -4241.0489            0     641.9358    18.198402    23.236926    22.401885    9473.1951    342.85809    697.16241     885.7869    -731.7632   -307.55148     260.6592    -3706.842 
 2460000    268.47091   -4222.2695   -3762.1196   -4222.2695            0    667.12265    18.242017    23.512377    22.179658    9513.1479    559.80303   -360.06201    1801.6269   -441.07685    57.409946    176.12693   -3669.5633 
 2461000    255.62984   -4241.0549   -3802.9141   -4241.0549            0    340.39476    18.178089    23.709818    21.981629     9474.064    1256.7189   -499.66769    264.13307    -448.7488    343.24945    764.54716   -3755.8819 
 2462000    255.11601   -4227.2352   -3789.9751   -4227.2352            0    959.49549    17.930625    23.479019    22.307159    9391.1687    1043.7326    1490.4306    344.32336    77.611889   -338.71133   -422.16137   -3658.5621 
 2463000    265.69843   -4220.3985   -3765.0005   -4220.3985            0    1574.7502      18.0457    23.587456    21.929588    9334.3766    1824.6115    2222.3736    677.26541   -655.26052   -971.32367    463.49281   -3550.6261 
 2464000    256.30889    -4242.813   -3803.5084    -4242.813            0   -625.16075    18.237469    23.473617    22.270743     9534.091   -953.57537    546.38739   -1468.2943   -528.06506    132.44926    23.750687   -3890.4338 
 2465000    257.98526   -4289.0227   -3846.8448   -4289.0227            0    735.68167    18.080032    23.496414    22.224008    9441.1121    1031.0436    854.39843    321.60293   -501.10472   -231.86037    747.32079   -3745.5495 
 2466000    253.51161     -4239.91   -3805.3998     -4239.91            0    1035.1672    18.145642    23.621284    21.898519    9386.2165     1167.832     1343.437    594.23257    574.03436     561.5772   -146.35878   -3663.6975 
 2467000     256.8803   -4264.8651   -3824.5811   -4264.8651            0    989.30936    17.995818    23.390309    22.362047    9412.8059    360.51615    1743.7901    863.62179   -524.87647    100.17985   -464.93407   -3688.7725 
 2468000    262.97381   -4237.2933   -3786.5652   -4237.2933            0   -200.07243    18.276672    23.717207    21.991576    9532.7242   -968.00297   -711.68338    1079.4691     331.7023   -379.55185    185.46468   -3814.3802 
 2469000    256.90977   -4215.4268   -3775.0922   -4215.4268            0   -14.718982    18.198421    23.427707    22.313606    9513.3451   -89.054795     805.2255   -760.32765    212.05479    217.43312     153.7428   -3777.1344 
 2470000    248.68143   -4246.8168   -3820.5853   -4246.8168            0    912.43155     18.12175    23.398131    22.169802    9400.3305    1116.5032    1194.5958    426.19562    1078.4956    -459.7705   -250.30095   -3695.4962 
 2471000    277.82379   -4273.1202   -3796.9397   -4273.1202            0    470.07786    18.171571    23.631797    21.931196    9417.8451    751.79109   -372.01942    1030.4619    76.147564   -146.77668     462.3742   -3732.3747 
 2472000    258.38685   -4252.7498   -3809.8836   -4252.7498            0    1491.2734    17.872838    23.605146    22.217564    9373.3891    835.76517    2303.6759    1334.3792    515.47226   -129.50384    432.03842   -3606.0246 
 2473000    257.66715   -4252.1732   -3810.5405   -4252.1732            0    1910.1656    17.947063    23.624922    22.153177    9392.9014    1850.9241     1803.581    2075.9918   -173.59858   -545.71232   -304.27927   -3548.8749 
 2474000    263.70984   -4240.7715   -3788.7818   -4240.7715            0    927.17081    18.306444    23.497165    21.793897    9374.6349    65.654615    1723.9018    991.95602   -664.56591   -525.51914    880.08954   -3662.0196 
 2475000    252.43956   -4251.8447   -3819.1719   -4251.8447            0     236.6609    18.178496    23.343897    22.295082    9461.0732    241.31141    1816.6662   -1347.9949    189.51487    254.75014   -267.58066   -3786.5174 
 2476000     257.3606   -4227.6453    -3786.538   -4227.6453            0    1009.2252    17.980839    23.497261    22.229223     9391.857    2371.9049   -121.58345    777.35423    488.77782   -512.60822    291.18736   -3648.3038 
 2477000    282.81788   -4218.0889   -3733.3487   -4218.0889            0    851.13777    18.132543    23.680127    21.906613    9406.2818   -742.37389    1074.9331     2220.854    310.08637    115.84711   -132.63963   -3616.5888 
 2478000    250.05837   -4193.4208   -3764.8293   -4193.4208            0    2325.7608    17.916535    23.431741    22.305882    9364.3574    2861.5263    1384.7525    2731.0035     229.1809   -1315.9221   -544.77997   -3447.2012 
 2479000    251.10656   -4209.3997   -3779.0117   -4209.3997            0    653.18106    18.166113    23.572975    22.190738    9502.7244   -1.6057905    -206.0865    2167.2355   -678.57528    119.72104    709.69503    -3688.489 
 2480000    259.78426   -4197.4477   -3752.1864   -4197.4477            0     922.4821    18.272613    23.550732    21.875887    9413.9249    777.61073     899.7411    1090.0945    64.745899   -507.70409    258.23785   -3625.5366 
 2481000     265.2847   -4218.1418   -3763.4529   -4218.1418            0   -7.5720526    18.129845    23.445378    22.342037    9496.7301    148.09429    968.41598   -1139.2264   -1200.9596    587.31019    649.63681   -3764.5017 
 2482000      257.123   -4221.2054   -3780.5054   -4221.2054            0   -30.111823    18.444965    23.480376    21.941573    9502.7791   -394.77067    171.41318    133.02202     129.4338   -213.06656   -70.728597   -3784.6786 
 2483000    257.39591   -4247.0153   -3805.8476   -4247.0153            0    2070.9158    17.994994    23.539396    22.016162    9325.8546    3596.1886    1690.3224    926.23633    79.701007   -55.144081   -259.24191   -3524.1864 
 2484000    262.33837   -4223.8591   -3774.2201   -4223.8591            0    827.99212    17.999347     23.59285    22.230332    9440.2415   -617.28307    1563.3698    1537.8896    729.04942   -200.49532     841.1754   -3660.2253 
 2485000    252.23772   -4238.8941   -3806.5672   -4238.8941            0    2160.5272    18.248336    23.445034    21.999923      9412.29    1374.9254    1738.1352    3368.5211    -314.6577   -72.845581    207.19273   -3509.9947 
 2486000    269.13479   -4257.4213   -3796.1334   -4257.4213            0    1018.0883     18.20655    23.371704    22.083671    9397.0022    581.37243    2030.3202    442.57223   -216.21987   -184.32412     290.8191   -3656.6089 
 2487000    260.05914    -4242.441   -3796.7085    -4242.441            0    2174.2311    17.896367    23.632149    22.031655    9317.8395    2751.6198    411.92566    3359.1478   -778.13031    -562.2726    63.340392   -3501.2498 
 2488000    262.04095   -4223.2026   -3774.0734   -4223.2026            0    54.674526    18.081956    23.637901    22.234338    9503.3891   -426.11887    456.70059    133.44185   -747.60086   -536.92157     475.2091   -3766.4956 
 2489000    261.88514   -4240.1648   -3791.3026   -4240.1648            0    838.54295     18.22812    23.476145    22.138884    9473.8039    82.642472    1150.1416    1282.8448     753.9399   -300.75248    49.510088   -3675.4448 
 2490000      255.776   -4222.2223    -3783.831   -4222.2223            0    1243.7106    18.351297    23.320694      22.0348    9430.1229    685.38186    1395.5627    1650.1873   -601.60976     299.2742    756.41539   -3612.7851 
 2491000    239.89765   -4226.5757   -3815.3993   -4226.5757            0    1021.2729    18.027161    23.408831    22.241043    9385.6039    2369.3783     1086.403   -391.96249    492.02557    5.7623706    531.60478   -3675.6081 
 2492000    270.84704    -4249.164   -3784.9415    -4249.164            0    1862.3884    17.824283    23.569077    22.189801    9321.9775    3040.9812    1405.2764    1140.9075   -171.16433    761.12817    723.59417    -3531.747 
 2493000    262.52712   -4210.4924   -3760.5299   -4210.4924            0    258.17575    18.126224    23.625613    22.023312    9431.3327   -401.98083   -81.410727    1257.9188    56.391078   -593.95842   -316.00635   -3725.0187 
 2494000    266.38925   -4231.7443   -3775.1623   -4231.7443            0    2717.4579    18.096296    23.108718    22.268231    9312.1781    2586.5181    4411.6106     1154.245   -18.644049     -858.572   -437.26439   -3406.1082 
 2495000    263.15415   -4205.6043   -3754.5671   -4205.6043            0    1242.6025    18.281784    23.401526    21.963984    9396.6673    12.536092    770.77012    2944.5013    147.81019   -450.90392   -242.64912   -3584.2799 
 2496000    258.37004   -4232.0313   -3789.1939   -4232.0313            0    687.98243     17.98078    23.489403    22.306734    9421.4229    2455.7921    202.70762   -594.55244   -1309.1426   -629.22968    558.26567   -3694.6639 
 2497000    250.17964   -4222.7443   -3793.9449   -4222.7443            0    808.40732    17.999139    23.751398     22.15154    9469.8881     1831.386   -155.80734     749.6433     600.0212   -675.01964    1249.1187   -3682.2969 
 2498000    261.08181   -4219.2195   -3771.7342   -4219.2195            0   -320.19031    18.089924    23.829091    22.027424    9495.2832    74.061471   -1619.1118    584.47938   -110.43882   -741.71466    -20.98174   -3816.0739 
 2499000    256.73193    -4260.241   -3820.2112    -4260.241            0    654.05614    18.033957    23.473498    22.292669    9436.9337    945.53465    150.74198     865.8918   -170.31105   -141.24878   -767.68501   -3730.1948 
 2500000    261.71084   -4196.8509   -3748.2874   -4196.8509            0    1885.2716     18.24859    23.342027    21.982148    9363.4957    1044.4635    3284.4012    1326.9501   -499.52537      3.66374    604.02817   -3490.8404 
Loop time of 369.5 on 64 procs for 250000 steps with 864 atoms

Performance: 116.915 ns/day, 0.205 hours/ns, 676.590 timesteps/s
193.2% CPU use with 32 MPI tasks x 2 OpenMP threads

MPI task timing breakdown:
Section |  min time  |  avg time  |  max time  |%varavg| %total
---------------------------------------------------------------
Pair    | 17.571     | 24.542     | 33.582     | 103.7 |  6.64
Bond    | 0.84832    | 1.0224     | 1.1493     |   7.0 |  0.28
Kspace  | 182.95     | 192.44     | 200.13     |  38.4 | 52.08
Neigh   | 1.6843     | 1.7825     | 1.9494     |   5.4 |  0.48
Comm    | 56.832     | 61.412     | 64.054     |  23.5 | 16.62
Output  | 0.66064    | 0.66093    | 0.66237    |   0.0 |  0.18
Modify  | 66.916     | 68.986     | 73.044     |  16.7 | 18.67
Other   |            | 18.65      |            |       |  5.05

Nlocal:        27.0000 ave          38 max          17 min
Histogram: 5 3 4 1 5 3 3 1 2 5
Nghost:        2111.31 ave        2220 max        2012 min
Histogram: 8 7 1 0 0 0 0 4 7 5
Neighs:        6502.12 ave        9197 max        4119 min
Histogram: 5 4 2 1 5 5 2 1 2 5

Total # of neighbors = 208068
Ave neighs/atom = 240.81944
Ave special neighs/atom = 2.0000000
Neighbor list builds = 6397
Dangerous builds = 0

unfix		3
unfix		2
unfix		1

write_data	data.final.${pid} nocoeff
write_data	data.final.0 nocoeff
System init for write_data ...
PPPM initialization ...
  extracting TIP4P info from pair style
  using 12-bit tables for long-range coulomb (../kspace.cpp:340)
  G vector (1/distance) = 0.37161331
  grid = 24 27 25
  stencil order = 5
  estimated absolute RMS force accuracy = 0.0031587661
  estimated relative force accuracy = 9.5125302e-06
  using double precision FFTW3
  3d grid and FFT values/proc = 4410 672
Last active /omp style is kspace_style pppm/tip4p/omp

write_restart   restart.lmp.${pid}
write_restart   restart.lmp.0
System init for write_restart ...
PPPM initialization ...
  extracting TIP4P info from pair style
  using 12-bit tables for long-range coulomb (../kspace.cpp:340)
  G vector (1/distance) = 0.37161331
  grid = 24 27 25
  stencil order = 5
  estimated absolute RMS force accuracy = 0.0031587661
  estimated relative force accuracy = 9.5125302e-06
  using double precision FFTW3
  3d grid and FFT values/proc = 4410 672
Last active /omp style is kspace_style pppm/tip4p/omp
Total wall time: 0:06:09
