LAMMPS (30 Jul 2021)
  using 1 OpenMP thread(s) per MPI task
package omp 0
using multi-threaded neighbor list subroutines
echo both

include		in.partitions
variable        pid world 0
include		in.temp
variable        temperature equal 253.06
variable	tempDamp equal 100.0
include		in.pressure
variable        pressure equal 10625.0
variable        pressureDamp equal 1000.0 # This is 1 ps
include		in.seed
variable        seed world 745823

units		real
atom_style	full

read_restart	restart.lmp.${pid}
read_restart	restart.lmp.0
Reading restart file ...
  restart file = 30 Jul 2021, LAMMPS = 30 Jul 2021
  restoring atom style full from restart
  orthogonal box = (0.11503168 0.21460525 0.012824535) to (19.884969 19.785396 20.687173)
  4 by 4 by 4 MPI processor grid
  restoring pair style lj/cut/tip4p/long/omp from restart
  restoring bond style harmonic/omp from restart
  restoring angle style harmonic/omp from restart
  972 atoms
  648 bonds
  324 angles
Finding 1-2 1-3 1-4 neighbors ...
  special bond factors lj:    0        0        0       
  special bond factors coul:  0        0        0       
     2 = max # of 1-2 neighbors
     1 = max # of 1-3 neighbors
     1 = max # of 1-4 neighbors
     2 = max # of special neighbors
  special bonds CPU = 1.575 seconds
  read_restart CPU = 1.792 seconds
include 	in.setup
variable	out_freq equal 1000
variable	out_freq2 equal 10000
variable	out_freq3 equal 1000

timestep	2.0

neigh_modify    delay 7 every 1

include		in.tip4p
# This is TIP4P/Ice

# create groups ###
group ox type 2
324 atoms in group ox
group hy type 1
648 atoms in group hy

# set charges - beside manually ###
set group ox charge -1.1794
Setting atom values ...
  324 settings made for charge
set group hy charge 0.5897
Setting atom values ...
  648 settings made for charge

# ### TIP3P Potential Parameters ###
pair_style lj/cut/tip4p/long/omp 2 1 1 1 0.1577 8.5
pair_coeff 1 1*2 0.000 0.000
pair_coeff 2 2 0.21084 3.1668
bond_style  harmonic
bond_coeff  1 450 0.9572
angle_style harmonic
angle_coeff 1 55 104.52
kspace_style pppm/tip4p/omp 1.0e-5
pair_modify tail yes

thermo          ${out_freq}
thermo          1000
thermo_style    custom step temp pe etotal epair emol press lx ly lz vol pxx pyy pzz pxy pxz pyz enthalpy

restart 	${out_freq3} restart.lmp.${pid} restart2.lmp.${pid}
restart 	1000 restart.lmp.${pid} restart2.lmp.${pid}
restart 	1000 restart.lmp.0 restart2.lmp.${pid}
restart 	1000 restart.lmp.0 restart2.lmp.0


include         in.dump
dump            myDump all atom ${out_freq2} dump.water.${pid}
dump            myDump all atom 10000 dump.water.${pid}
dump            myDump all atom 10000 dump.water.0
dump            myDump2 all dcd ${out_freq2} dump.dcd
dump            myDump2 all dcd 10000 dump.dcd
dump_modify     myDump append yes
dump_modify     myDump2 append yes


variable natoms 	equal  "count(all)"                        # NUMBER ATOMS
variable H      	equal  "enthalpy/v_natoms"                 # ENTHALPY-per-atom
variable Vol      	equal  "vol/v_natoms"                 # volume-per-atom
fix AVG all 		ave/time ${out_freq} 1 ${out_freq} v_Vol v_H file vol_enthalpy.dat
fix AVG all 		ave/time 1000 1 ${out_freq} v_Vol v_H file vol_enthalpy.dat
fix AVG all 		ave/time 1000 1 1000 v_Vol v_H file vol_enthalpy.dat


timer           timeout 02:55:00 every 1000
New timer settings: style=normal  mode=nosync  timeout=02:55:00

fix 		1 all shake 1e-6 200 0 b 1 a 1
       0 = # of size 2 clusters
       0 = # of size 3 clusters
       0 = # of size 4 clusters
     324 = # of frozen angles
  find clusters CPU = 0.500 seconds
fix             2 all nph aniso ${pressure} ${pressure} ${pressureDamp}
fix             2 all nph aniso 10625 ${pressure} ${pressureDamp}
fix             2 all nph aniso 10625 10625 ${pressureDamp}
fix             2 all nph aniso 10625 10625 1000
fix             3 all temp/csvr ${temperature} ${temperature} ${tempDamp} ${seed}
fix             3 all temp/csvr 253.06 ${temperature} ${tempDamp} ${seed}
fix             3 all temp/csvr 253.06 253.06 ${tempDamp} ${seed}
fix             3 all temp/csvr 253.06 253.06 100 ${seed}
fix             3 all temp/csvr 253.06 253.06 100 745823


run             250000
PPPM initialization ...
  extracting TIP4P info from pair style
  using 12-bit tables for long-range coulomb (../kspace.cpp:340)
  G vector (1/distance) = 0.37348375
  grid = 24 24 25
  stencil order = 5
  estimated absolute RMS force accuracy = 0.0032782858
  estimated relative force accuracy = 9.8724602e-06
  using double precision FFTW3
  3d grid and FFT values/proc = 2366 288
Last active /omp style is kspace_style pppm/tip4p/omp
Neighbor list info ...
  update every 1 steps, delay 7 steps, check yes
  max neighbors/atom: 2000, page size: 100000
  master list distance cutoff = 10.8154
  ghost atom cutoff = 10.8154
  binsize = 5.4077, bins = 4 4 4
  1 neighbor lists, perpetual/occasional/extra = 1 0 0
  (1) pair lj/cut/tip4p/long/omp, perpetual
      attributes: half, newton on, omp
      pair build: half/bin/newton/omp
      stencil: half/bin/3d
      bin: standard
Per MPI rank memory allocation (min/avg/max) = 9.232 | 9.235 | 9.242 Mbytes
Step Temp PotEng TotEng E_pair E_mol Press Lx Ly Lz Volume Pxx Pyy Pzz Pxy Pxz Pyz Enthalpy 
26750000    276.68898   -4720.0241   -4186.4062   -4720.0241            0    9698.1737    19.769938     19.57079    20.674349    7999.1807    10942.871    9534.6981    8616.9521    189.16534    5.9928028   -1902.3062   -3055.0187 
26751000    240.03474   -4699.9657   -4237.0385   -4699.9657            0    9709.9169    19.635228    19.850824    20.494665    7988.3173    8099.0994    11063.923    9966.7286   -67.076886   -486.41414   -34.644499   -3105.8194 
26752000    255.30127   -4712.2356   -4219.8656   -4712.2356            0    9668.8227    19.725828    19.786157    20.351428    7943.1287    8644.0711    11669.434    8692.9634    337.19207   -322.78276     9.699552   -3099.8061 
26753000    235.81621   -4694.8214     -4240.03   -4694.8214            0    7722.1294    19.901712    19.704677    20.574102     8068.274    7880.8258    8919.5979    6365.9646    109.22047    552.20467     730.0952   -3331.3864 
26754000    240.55329   -4724.3676   -4260.4403   -4724.3676            0    9802.4253    19.988545    19.743463    20.207779    7974.8606     10217.57    9757.5094     9432.196    723.96746    1468.8797   -1526.5096   -3120.3677 
26755000    249.10357   -4713.4581   -4233.0409   -4713.4581            0    10403.977    19.920444      19.6523    20.554029    8046.5433    11358.517    12282.255    7571.1608   -136.15487   -604.29898   -691.99969   -3012.1281 
26756000    255.32448   -4708.9542   -4216.5395   -4708.9542            0    8182.0074    19.953701    19.808713    20.343726     8041.003    7388.1598    8945.0455    8212.8169    281.55843   -171.15118    275.15779   -3257.0373 
26757000     245.1685   -4694.1639   -4221.3358   -4694.1639            0    9801.5941    19.795814    19.954601    20.241325    7995.6791    8496.5841    9108.3885     11799.81    -490.1802    231.08902    1240.3136   -3078.3839 
26758000    259.66668    -4721.635   -4220.8459    -4721.635            0    8297.6121    20.090754    19.567012    20.392269    8016.5273    6701.5917    9982.6402    8208.6045    591.51169   -550.24577    1953.1064   -3250.7486 
26759000    264.06967   -4697.3058   -4188.0252   -4697.3058            0    11886.878      19.7698    19.788239    20.261183    7926.3678    11443.106    12123.946     12093.58    52.435592    1742.1378    581.18097   -2813.9266 
26760000    264.67741   -4708.4313   -4197.9787   -4708.4313            0    9979.9731    19.952589    19.541024    20.367057     7940.994    9851.9992    10469.345    9618.5752   -101.02215    608.27898    471.89073   -3042.1855 
26761000    251.86592   -4717.5123   -4231.7677   -4717.5123            0    10561.445    19.819935    19.800194    20.408267    8008.9908    11809.309    9975.5431    9899.4842    292.73295    1194.0783   -958.19112   -2998.1601 
26762000    266.47997   -4692.9539   -4179.0249   -4692.9539            0    10647.946    19.710532    19.987972    20.209284    7961.9234    9400.0955      10138.8    12404.943    -560.4989    1019.5165    1150.8243   -2942.6228 
26763000    273.64552   -4703.7088   -4175.9604   -4703.7088            0    9741.2405    19.789868    19.679073      20.4165    7951.1293    10410.571    9709.6592    9103.4914    123.15363    811.47474   -817.30993   -3046.3752 
26764000    251.81598   -4711.1961   -4225.5478   -4711.1961            0    11181.134    19.616222    19.753201    20.582263    7975.2806    13578.121    10570.599    9394.6803    71.779439    1686.0488    340.15266   -2925.0558 
26765000    247.71338   -4691.6367   -4213.9006   -4691.6367            0    11375.177    19.481038    19.668445    20.662257    7916.9862    13310.923    10388.828    10425.779    431.78307   -1278.7215   -614.41871   -2900.5099 
26766000    248.38494   -4707.4485   -4228.4172   -4707.4485            0    8775.3811    19.693625    19.884558    20.377468    7979.7965    8330.5895    10120.072    7875.4815   -977.29507    1166.2727   -306.79982   -3207.1634 
26767000    255.07569   -4715.5018   -4223.5668   -4715.5018            0    11741.777    19.717329    19.807088    20.297396    7927.0034    12001.243     10727.51    12496.578    181.20611    462.04074   -974.19887   -2866.1327 
26768000    237.22068   -4712.2873   -4254.7873   -4712.2873            0    9422.1913    20.018299    19.830523    20.320583    8066.7295    7949.0833    10476.863    9840.6275   -237.55567   -443.78993    1100.1596   -3146.3138 
26769000    254.68412   -4725.0167    -4233.837   -4725.0167            0    10845.369    19.636231       20.002     20.36706    7999.4459    11334.503    10263.228    10938.376    241.62904    213.70324    355.47861    -2968.576 
26770000    254.08943   -4719.6393   -4229.6064   -4719.6393            0    10645.215    19.912223    19.764876    20.261248    7974.0698    11694.744    8801.9317    11438.971   -648.17347    718.07822   -591.61284   -2991.6357 
26771000    245.15309   -4719.1551   -4246.3568   -4719.1551            0    9064.1534    19.786567    19.824054    20.319131    7970.1785    9887.2128    8357.8904     8947.357    493.41203    116.28857   -288.61199   -3192.7679 
26772000    248.94463   -4682.7194   -4202.6088   -4682.7194            0    12851.532     19.52018    19.610843    20.500186    7847.6188    14098.385    11271.555    13184.656    1102.0465    696.53379    -143.8134   -2731.7578 
26773000    246.68334   -4731.8666   -4256.1171   -4731.8666            0    9847.9864    19.548975    19.731923       20.728     7995.595    11470.648    8708.3389    9364.9726   -213.39339   -670.90852   -97.673514   -3107.7675 
26774000    267.07095   -4697.6695   -4182.6008   -4697.6695            0     9316.004    19.626559    19.962561    20.476504    8022.6201    8937.0985     9090.418    9920.4955   -36.589779    107.27837    995.47768   -3092.6126 
26775000    265.34247   -4701.6927   -4189.9575   -4701.6927            0    10445.299    19.728832    19.802589    20.503186    8010.2248    11331.078     9987.862    10016.957    1285.6067    110.64013   -67.775083   -2969.7281 
26776000    264.40923   -4707.5091   -4197.5736   -4707.5091            0    10358.907    19.827043    19.710416    20.426575    7982.6906    10285.537    11050.475     9740.708   -239.71536    1584.3814   -36.966977   -2991.5964 
26777000    263.19085   -4693.5372   -4185.9515   -4693.5372            0    11281.652     19.94435    19.622496    20.434836     7997.335    12381.097    10833.042    10630.816    146.89537     1327.258    1732.4891   -2870.1394 
26778000    247.46422   -4710.1274   -4232.8718   -4710.1274            0    11309.235    19.636918     19.91351    20.323284    7947.2158    13022.475    9778.4273    11126.804   -344.31244   -1104.4732    917.97858   -2922.1089 
26779000    268.27422   -4726.6168   -4209.2274   -4726.6168            0    10064.772    19.516255    19.695367    20.655102     7939.404    11104.841    9637.4614    9452.0139   -213.13851    547.97141    457.67298   -3043.8469 
26780000    257.04575   -4699.7912   -4204.0569   -4699.7912            0    9482.5395    19.804403    19.900304     20.29575    7998.8321    9743.9983    9284.6082     9419.012   -383.49225    1157.9729    1625.7406   -3097.8735 
26781000    256.21468   -4695.5137   -4201.3822   -4695.5137            0    9701.0196    19.784007    19.835089    20.369169    7993.2196    9443.7052     8950.588    10708.766   -372.98704   -2398.5199   -660.14684   -3070.5061 
26782000    249.76128   -4675.7636    -4194.078   -4675.7636            0    11869.656    19.549075    19.812645    20.333467    7875.5356    10070.714    13199.683    12338.571     1580.031   -317.90644    60.085437   -2830.7696 
26783000    259.40526   -4717.9263   -4217.6414   -4717.9263            0    9901.0602    19.792187    19.963725    20.212143    7986.3382    8455.3006     10617.11     10630.77   -1066.3134   -517.83053    605.43616   -3064.4397 
26784000    250.22182   -4718.4972   -4235.9234   -4718.4972            0    11840.924    19.713131    19.543712    20.408209     7862.625    11823.773    12065.366    11633.632    622.57073    568.42006    253.62219   -2878.1445 
26785000    243.51277   -4733.9757   -4264.3409   -4733.9757            0    11465.459    19.647287     19.77114     20.43477    7937.8715    11605.251    11283.446     11507.68    219.84447   -785.74006     519.0285   -2937.0338 
26786000    233.08179   -4702.1066   -4252.5887   -4702.1066            0    10402.575    19.763493    19.993855    20.184904    7976.0326    9601.6971    10417.927    11188.099   -82.601149    -2011.945    586.95675   -3042.5378 
26787000    254.79923   -4713.7244   -4222.3226   -4713.7244            0    13407.372    19.664245    19.748781    20.341791    7899.6298    12853.534    13097.604    14270.979    390.11687   -630.29815    60.502254   -2677.6861 
26788000    247.51333   -4691.3475   -4213.9972   -4691.3475            0    10840.623    19.782334    19.804454    20.418931    7999.6943    13294.737    8992.2435    10234.888   -399.09782    -499.8619   -1275.6053   -2949.2506 
26789000    239.26793   -4715.5336   -4254.0852   -4715.5336            0    10401.942    19.965036    19.661734    20.426363    8018.3121     8042.015    12405.862    10757.951   -252.59476    950.82749   -166.93975    -3037.694 
26790000     249.1505   -4720.7335   -4240.2258   -4720.7335            0    9500.7808    19.794246     19.75588    20.531067    8028.7302    11433.084     9292.563    7776.6951    452.65148    551.80029    79.743788   -3127.7719 
26791000    253.60212   -4701.7837   -4212.6907   -4701.7837            0    12084.707    19.885843     19.77276    20.220584     7950.693    12210.381    13162.321    10881.418    627.96063    1271.1422   -379.68243   -2811.4363 
26792000    246.23855   -4702.1944   -4227.3026   -4702.1944            0    12715.506    19.923999     19.68355    20.314248    7966.7407    12031.241    12827.148    13288.129   -387.25414    411.02582   -221.49648   -2749.9294 
26793000    254.48674   -4689.7739   -4198.9748   -4689.7739            0    10920.968    19.601659     19.79568    20.558569    7977.3038    10462.806    10899.027    11401.072   -56.044349     758.6916    1307.1411   -2928.4207 
26794000    244.26105   -4721.7702   -4250.6922   -4721.7702            0    11063.007    19.637609    19.668878    20.695348    7993.5727    11455.701    10107.909    11625.412   -240.49043    939.94972    1333.4139   -2960.9883 
26795000    244.99215   -4718.5791   -4246.0911   -4718.5791            0     12038.33    19.516432    19.664835     20.52781    7878.3154    12701.107    11548.766    11865.118   -1175.0064   -1290.3897    912.32059   -2862.9213 
26796000    241.06053   -4701.9204   -4237.0149   -4701.9204            0    13446.175    19.894659    19.776596    20.190532    7943.9374    10245.861    15574.543    14518.121    95.154449    695.80271    701.99837   -2679.2193 
26797000    260.47872   -4723.1537   -4220.7986   -4723.1537            0    9647.9973    19.447575    20.057038    20.369056    7945.1694    12673.627    6504.7248    9765.6397   -559.74801    610.79691   -136.94821   -3102.8645 
26798000    251.94386   -4734.1264   -4248.2314   -4734.1264            0    10678.555    19.834524    19.284222    20.661026    7902.7054    10860.442    11225.855    9949.3692    136.61281   -286.29851    210.63474   -3017.4975 
26799000    254.31712     -4699.58   -4209.1081     -4699.58            0    10566.701    19.732351     19.66942    20.535938    7970.4884    11421.942    10351.819    9926.3424    293.71091   -1184.9806   -508.93601     -2980.82 
26800000    254.11301   -4723.5694   -4233.4911   -4723.5694            0     12339.35    19.857337     19.36895     20.50687    7887.2659    11608.679    13163.204    12246.167    194.28208    999.91303   -239.50501   -2814.1242 
26801000    268.57962   -4684.1953   -4166.2169   -4684.1953            0      8585.89    19.454998    19.955167    20.699794    8036.2343     7181.212    10340.391    8236.0671   -507.03933   -188.23163    1211.5256   -3159.9486 
26802000    244.10711   -4720.8795   -4250.0984   -4720.8795            0    9616.6698     19.85097    19.727621    20.406368    7991.3871    7430.2751     10891.66    10528.074   -289.04299    360.59157   -1265.2728   -3129.3122 
26803000     250.5632   -4741.2569   -4258.0247   -4741.2569            0    11814.026    19.405304    19.964054    20.456584     7925.055    12883.272    10560.591    11998.214   -443.13765    627.04969    1320.7536   -2892.5738 
26804000    257.42532   -4689.6884    -4193.222   -4689.6884            0    11062.552    19.872197    19.695545    20.291413    7941.9321    10653.528    11221.484    11312.644    1058.6861     339.2226   -388.80966   -2911.9027 
26805000    256.30543   -4709.4732   -4215.1666   -4709.4732            0     11948.52    19.510896    19.916067     20.45458    7948.2473    11781.714    11154.669    12909.179   -407.32348    353.78919    740.30794   -2830.1295 
26806000     267.0328   -4691.9426   -4176.9474   -4691.9426            0    12481.934    19.729994    19.750929     20.40408    7951.1784     14752.16     10492.57    12201.071    149.91416   -69.775928    1438.8063   -2729.5451 
26807000     244.0256   -4724.3574   -4253.7335   -4724.3574            0    11216.244     19.75384    19.861371    20.330716    7976.5193    9741.9469    11649.577    12257.206    88.216729    708.21749   -710.69873   -2948.9552 
26808000    253.34172   -4723.6541   -4235.0633   -4723.6541            0     10417.07    19.839044    19.719092    20.508622    8023.1354    10339.507    11220.554    9691.1483    282.33997    348.92335    15.656882   -3016.1703 
26809000    251.61559   -4711.7572   -4226.4954   -4711.7572            0    9805.5713    19.592475    19.871285    20.472153     7970.375    11173.043    9603.8644    8639.8068    709.46138   -695.41026    350.31127   -3086.6983 
26810000    251.91122   -4720.9178   -4235.0859   -4720.9178            0    10533.677    19.966697    19.652516    20.409101    8008.4461    11767.549    9880.5368    9952.9446    395.66635    1204.0064     979.2457   -3004.8054 
26811000    252.37793   -4707.3365   -4220.6045   -4707.3365            0    9877.6305    19.768969    19.872557     20.40395    8015.8951     7171.676    11509.421    10951.794   -999.08509    1390.6469   -50.782216   -3065.8738 
26812000     253.2778   -4658.3721   -4169.9046   -4658.3721            0    10531.373    19.601475    19.955538    20.314568    7946.2056    12014.864    8394.1274    11185.126   -788.67803    2637.8067   -353.57862   -2949.4527 
26813000    265.19941   -4707.7282   -4196.2688   -4707.7282            0     9417.338    19.685613    19.819549    20.374681    7949.3849    8900.4266    8634.2271     10717.36    1398.4571    -34.15457    221.80445   -3104.4827 
26814000    239.53503   -4683.7341   -4221.7706   -4683.7341            0    12153.428    19.570471    19.693325    20.727665    7988.6006    11685.091    13435.261    11339.932   -235.12436    208.31979   -1328.6962   -2805.8289 
26815000     252.5632   -4715.9113   -4228.8219   -4715.9113            0    13663.784    19.516067    19.671885    20.530742    7882.1178    12813.463    14992.028     13185.86   -293.27446   -150.10401   -478.85358   -2658.1344 
26816000       260.83   -4696.6011   -4193.5685   -4696.6011            0    9946.8964    19.723663     19.88963    20.465063      8028.37    10009.308    10616.517    9214.8648   -338.53004    22.136963    878.44554   -3028.9307 
26817000    248.74039   -4731.7301   -4252.0134   -4731.7301            0    9589.9365    19.909684    19.707955    20.409729    8008.3519    9929.5243    9467.1073    9373.1778    444.51984   -374.98871   -159.57033   -3131.9702 
26818000    255.23346   -4720.3266   -4228.0874   -4720.3266            0    10478.152    19.701173    19.775908     20.56208    8011.1628    10608.356     9426.951    11399.151   -10.141695   -297.94293   -246.81382   -3003.8768 
26819000    240.70382   -4725.9494   -4261.7318   -4725.9494            0    10282.443    19.791386     19.62099    20.453028    7942.4545    8787.9978    13334.526     8724.806    342.38798    637.90026   -949.77411   -3070.6902 
26820000    268.65895   -4736.7554   -4218.6241   -4736.7554            0    8525.2715    19.611059    20.001763    20.397657    8001.0985     7222.457    9527.4851    8825.8722    180.97447    1937.2592    854.28519   -3223.8288 
26821000    253.89435     -4700.98   -4211.3234     -4700.98            0    11532.643    19.963509    19.665705    20.264293    7955.6901    10647.202     12198.33    11752.397     -431.337    -296.8779    -752.2177   -2873.2418 
26822000    265.00863   -4672.0922   -4161.0007   -4672.0922            0    10849.458    19.718971    19.924557    20.387546    8010.0988     10268.94    11387.788    10891.647   -961.87006   -42.026975    631.48864    -2893.577 
26823000    246.99783   -4745.4115   -4269.0554   -4745.4115            0    8945.8834    19.822323    19.886268    20.362496    8026.7337    6894.3168    11243.506    8699.8274   -602.02232    904.56822    1085.9892   -3221.8353 
26824000    237.63806   -4717.5087   -4259.2037   -4717.5087            0    8869.1646    19.723573    19.793836     20.54106    8019.3359    8121.0344    8554.1375     9932.322    635.38485    49.348737    1197.6748   -3221.9213 
26825000    253.60612   -4724.0834   -4234.9826   -4724.0834            0    8840.1077    19.564156    19.776187     20.61466    7975.9028    10750.602    6609.4855    9160.2356    269.77988   -192.10963    436.61178   -3206.6981 
26826000    251.65275   -4718.6408   -4233.3074   -4718.6408            0    9735.7517    19.800101    19.668892    20.516683    7990.1409    9662.6385    9363.1569     10181.46   -569.57116   -191.73751    60.683367   -3098.8196 
26827000     232.4017   -4704.6868   -4256.4806   -4704.6868            0    12225.731    19.694263     19.60321    20.442599    7892.2899    12457.727    12025.508    12193.957   -108.83437   -788.61282    115.92345   -2849.2874 
26828000    264.06985   -4685.8262   -4176.5453   -4685.8262            0     11725.41    19.751878     19.69396    20.299492    7896.3546    12139.233    10680.084    12356.913   -1137.4941    941.90247   -141.80237   -2826.2443 
26829000    249.80191   -4732.5794   -4250.8154   -4732.5794            0    9155.6422     19.77195    19.720338    20.597876    8031.3081    7964.3947    10911.046    8591.4863   -111.65831    531.51882    233.42408   -3178.4297 
26830000    257.69479   -4697.3086   -4200.3226   -4697.3086            0    10855.447    19.742305    20.034781    20.250219    8009.6248    12633.328    8494.5375    11438.474    160.03637     112.3243   -1233.1726   -2932.2744 
26831000    245.95629   -4682.5281   -4208.1807   -4682.5281            0    10703.694     19.89612    19.596091    20.422912    7962.6107     10257.71    11172.178    10681.195    470.31593   -327.56436    1514.1675    -2965.198 
26832000    252.10692   -4737.7422   -4251.5328   -4737.7422            0    10206.185    19.766353    19.723302    20.454065    7974.1761    10236.361     9975.398    10406.797   -174.29151    6.8168507   -346.22541   -3064.6026 
26833000    253.79852   -4704.0777   -4214.6059   -4704.0777            0    12306.963    20.006412    19.722574    20.194401    7968.2654    10961.101    12973.837     12985.95    812.30043    489.96077    1720.4715   -2784.4264 
26834000    253.86477   -4663.4872   -4173.8877   -4663.4872            0    12456.493    19.711525    20.003074    20.125828    7935.4348    12633.142    13133.402    11602.936    1306.7484   -1602.8648    -108.2284   -2732.2955 
26835000    254.23577   -4743.4044   -4253.0893   -4743.4044            0    10762.789    19.745046    19.736982    20.491593    7985.7299    10482.064    11308.406    10497.898    523.99448    536.91928   -492.47766   -2999.6153 
26836000    251.69383   -4729.4316   -4244.0189   -4729.4316            0    9620.7747    19.908206    19.567281    20.532427    7998.3959    8919.8587    10407.192    9535.2734   -527.16341   -1258.6642   -273.23474   -3121.7709 
26837000    251.22921   -4713.6174   -4229.1007   -4713.6174            0    10991.318    19.913893    19.638467    20.206138    7902.1825    11424.656     7551.029    13998.268    194.57446    172.42266     122.3854   -2962.4038 
26838000    257.64384   -4714.2658    -4217.378   -4714.2658            0    11528.024    19.615113    19.715058     20.58831    7961.7689    12727.856    10420.302    11435.914   -55.115602   -2127.4296    542.24864   -2878.8103 
26839000    246.42515   -4754.5013   -4279.2497   -4754.5013            0    9065.5283    19.656736    19.835766    20.537899    8007.8589    9328.8613    10081.088    7786.6359   -79.553915    -867.3973   -859.69424   -3220.5192 
26840000    241.66924   -4712.6942   -4246.6147   -4712.6942            0    9127.6077    19.884873    19.865023    20.346063    8036.9687    7788.0422    9525.4103    10069.371    427.27554    855.46095     50.53962   -3176.7592 
26841000    243.90452   -4700.1485   -4229.7581   -4700.1485            0    11504.326    19.695879    19.604802    20.548093    7934.3134     11273.98    11350.742    11888.256   -196.81181      2211.73   -540.71797   -2898.5486 
26842000    255.63009   -4732.1756   -4239.1714   -4732.1756            0     7589.006    19.756129    19.885123    20.457635    8036.8445    7665.3407    8371.6363    6730.0411    96.542736   -982.09844    376.47772   -3349.6706 
26843000    260.17174   -4707.5713   -4205.8082   -4707.5713            0     8721.845    19.950837    19.705669    20.482269     8052.493     7629.541    10043.048    8492.9456   -391.65092    1747.6636    564.82729   -3181.5378 
26844000    249.62302   -4696.6317   -4215.2127   -4696.6317            0    11508.839    19.698086    19.839666    20.425471    7982.3445    9800.4415    11764.272    12961.802    93.308119   -966.91422   -155.53754   -2875.4192 
26845000    249.01781   -4731.3798    -4251.128   -4731.3798            0    11757.753    19.756397    19.526207    20.547308    7926.4836    9910.9667    14250.889    11111.403     780.1433    388.88775   -1590.1074   -2891.9361 
26846000    251.94846   -4693.3372   -4207.4334   -4693.3372            0    10527.842    19.543915     19.79812     20.61896    7978.1514    12654.769    9250.8688    9677.8896    918.04961   -164.36909   -184.02619   -2982.4857 
26847000    258.00866   -4728.5367   -4230.9453   -4728.5367            0     8738.964    19.821418    20.015295    20.183947    8007.6077    7711.4107    8845.0813       9660.4    381.17109   -1412.8066   -1058.8567   -3210.3851 
26848000    245.65722   -4698.1173   -4224.3467   -4698.1173            0    10495.737     19.83696    19.764955    20.356647    7981.3654    9222.7178    12276.502    9987.9907    1178.0468   -116.48876   -146.38058   -3002.6427 
26849000    246.19558   -4703.6188   -4228.8099   -4703.6188            0     11143.26     19.70396    19.748488    20.319084    7906.6315    12062.065    10733.848    10633.866   -14.342147    2058.3709   -472.60419   -2943.8794 
26850000    242.81493   -4691.3603   -4223.0713   -4691.3603            0    11502.425    19.772078    19.586561    20.441667    7916.3832    11254.132    12099.361    11153.784    307.17266   -591.65378    290.93728   -2895.0895 
26851000    248.58685   -4735.6391   -4256.2184   -4735.6391            0    10912.663    19.865402    19.738914     20.17132    7909.6074     11921.34    9288.0987    11528.549   -165.39948    359.03371    78.413917   -2997.4045 
26852000     234.9476   -4671.8167   -4218.7005   -4671.8167            0    11555.749    19.920999    19.761303    20.222396    7960.8475    11237.585    9878.5802    13551.082   -586.03958   -1600.8526    879.99113   -2877.0688 
26853000    254.84039   -4704.5127   -4213.0316   -4704.5127            0    11365.851    19.679559     19.73421     20.54541    7979.0267    11551.463    12352.332    10193.757   -412.33895    1.6962947   -612.41283   -2890.4339 
26854000    255.13262   -4695.7385   -4203.6938   -4695.7385            0    11991.113    19.809113     19.56291     20.49568    7942.5657     9475.028     15444.07    11054.242    202.89206   -940.79364    871.53711   -2814.7131 
26855000    269.86653   -4694.8657   -4174.4055   -4694.8657            0    11334.802     19.81243    19.831198    20.280902    7968.4523    11594.581    11563.823    10846.002    372.30474    1395.4461    325.68393   -2857.1688 
26856000    244.71382   -4716.2585   -4244.3073   -4716.2585            0    11515.837    19.948033    19.519608    20.462119    7967.4945    9359.5801    13469.763    11718.168   -541.66595   -965.54652     297.9196   -2906.1931 
26857000    251.31618   -4708.7055   -4224.0211   -4708.7055            0    9983.5972    19.716646    19.682495    20.524055     7964.827    8995.1918    9872.3302    11083.269    103.60622   -295.91866   -473.00725   -3064.3381 
26858000    262.11385   -4703.5395   -4198.0309   -4703.5395            0    10580.245    19.704942    19.857162    20.357671    7965.6355    11616.973    9226.1879    10897.573    577.88135    645.44017    665.48888   -2968.9172 
26859000      253.391   -4712.7073   -4224.0215   -4712.7073            0     11735.71    19.948297    19.560424    20.429849    7971.6688    13377.337    11763.453    10066.339    159.07843    1935.0035   -743.32993   -2859.6441 
26860000    259.30843   -4697.3139   -4197.2158   -4697.3139            0    11038.516    19.644137    19.942145      20.2853    7946.6899    12262.693    9164.7649    11688.091   -341.57202   -346.50757   -1080.0479   -2917.9144 
26861000    259.17019   -4692.0478   -4192.2163   -4692.0478            0    9678.0623    19.799539    19.960177    20.192755    7980.2236    9987.6445    9275.9466    9770.5959    401.38189   -771.22608   -230.76123   -3065.8507 
26862000    258.13907   -4704.6441   -4206.8012   -4704.6441            0    11472.194    19.658824    19.731034    20.469393     7939.851    11319.239    11146.609    11950.734   -354.88164   -1492.9239   -1135.0415   -2878.3833 
26863000    259.59474   -4746.2995   -4245.6492   -4746.2995            0    10976.733    19.667543     19.65054    20.509773    7926.5726    9216.3852     13139.18    10574.634    247.03972   -583.88298   -32.498244   -2976.7286 
26864000    263.35228   -4715.6566   -4207.7595   -4715.6566            0    10279.299    19.980222     19.41088    20.440927    7927.6801    10246.934    9775.7059    10815.258   -364.09426    -384.6541   -930.81577   -3019.2969 
26865000    258.38418   -4719.2652   -4220.9495   -4719.2652            0    10117.296    19.610101    19.709875    20.608205    7965.3318     8702.039    11139.756    10510.092    884.67036    -789.7266    507.36631   -3045.6618 
26866000    243.91644   -4717.7798   -4247.3665   -4717.7798            0     9708.407    19.707948    19.904251    20.207078    7926.6699     10067.24    8592.9793    10465.001    86.797393    1323.2393     792.3058   -3125.0518 
26867000    240.42983   -4723.3386   -4259.6494   -4723.3386            0    8582.8293    19.477282     19.89267    20.722824    8029.1648    10062.587    7825.9423    7859.9592   -99.800139    1761.2788   -60.449733   -3254.6247 
26868000    243.19427   -4709.9836    -4240.963   -4709.9836            0     10850.97    19.718822    19.644002    20.487822    7936.0924    13126.757    8927.5919    10498.561    1025.5349    1536.7754   -22.218987   -2985.0743 
26869000    250.70463   -4725.8345   -4242.3295   -4725.8345            0    10411.558    19.380726    20.056904    20.458754    7952.6726    14571.475    7090.7515    9572.4486     -698.044   -331.47512   -749.92442   -3034.7806 
26870000    247.32911   -4688.1797   -4211.1847   -4688.1797            0    12105.172    19.577151      19.6492    20.515346    7891.7481    13110.595    13116.976    10087.946   -377.00938   -1152.7228    2019.1298   -2817.9635 
26871000     243.6255   -4723.5522      -4253.7   -4723.5522            0    11183.709    19.725581     19.99887    20.139821    7944.9447    12246.848    10421.912    10882.368     214.0203    1127.8948   -340.56421   -2957.8562 
26872000    265.08757   -4707.8566   -4196.6129   -4707.8566            0    11193.591     19.85304     19.69892     20.37036    7966.5104    11332.731    10758.074    11489.968   -572.22153    513.93415   -135.07015   -2896.1037 
26873000    262.80664   -4742.3763   -4235.5316   -4742.3763            0    9248.7981    19.796059    19.905742    20.390446    8034.9618    10924.818    7807.8076    9013.7692    541.08045   -142.89893   -1675.1866   -3151.7419 
26874000    250.62374   -4703.3243   -4219.9753   -4703.3243            0    10557.997    19.799896    19.727804    20.380884    7960.9457     8483.153    12344.455    10846.382    421.45042    215.50338    1113.6397   -2994.1684 
26875000    260.27017   -4695.5301   -4193.5772   -4695.5301            0    11910.869    19.733694    20.058998    20.190618    7992.2165    11692.894    11086.448    12953.264    553.51761    1383.3669    269.62049   -2805.2669 
26876000    241.31056   -4727.9441   -4262.5563   -4727.9441            0    8737.0437    19.969291     19.51715    20.530702    8001.7107    7642.1381    9225.5199    9343.4732    281.74154    74.032916    122.75674   -3242.9718 
26877000    263.46334    -4734.332   -4226.2208    -4734.332            0    12569.334    19.780128    19.668665    20.349163    7916.8154     13063.82    11552.684    13091.499   -463.26462   -57.902415    2196.1841   -2774.9827 
26878000    253.01103   -4733.5731     -4245.62   -4733.5731            0    9606.4025    20.004603    19.748389    20.301327    8020.2152    7763.2166    10565.289    10490.702   -16.808571    1512.7334   -40.174779   -3121.9917 
26879000    260.80917    -4679.969   -4176.9766    -4679.969            0    10056.045    19.776963    19.758899    20.535125    8024.5316    10496.996    10278.105    9393.0327    232.18738   -261.46544   -361.62506   -3000.1221 
26880000    234.03738   -4714.9316   -4263.5709   -4714.9316            0    10936.898    19.794394    19.818384    20.315181    7969.5011    12762.869    7795.1084    12252.718    46.411653    713.25408    1026.2679    -2992.408 
26881000    244.64303   -4744.2562   -4272.4415   -4744.2562            0    10571.096    19.761953    19.929874    20.335961    8009.3841    12298.016    8554.3736    10860.899   -499.55279    736.16966    1555.1483    -3037.646 
26882000    262.05436   -4696.8355   -4191.4416   -4696.8355            0     10254.89    19.674116      19.9951    20.317919    7992.7832    9527.7527    10374.147    10862.771   -349.33496   -1352.9757   -60.048499   -2996.0645 
26883000    258.84791   -4691.8296   -4192.6196   -4691.8296            0    11828.604    19.667989    19.671339    20.610354    7974.0567    10465.104    12800.696    12220.011   -248.29537    749.71273    1628.5924   -2817.0306 
26884000    238.91704   -4704.0025   -4243.2309   -4704.0025            0    10247.702    19.733942    19.841842    20.335805    7962.6419    11263.553    10095.989    9383.5644    68.293756    372.61874    647.25421   -3053.1964 
26885000    256.67813   -4726.3543   -4231.3289   -4726.3543            0    11673.077    19.590581    19.956591     20.27819    7927.9857    12714.989    9960.3406    12343.901   -312.81498    54.800138    1194.8299   -2881.6698 
26886000    268.57994   -4734.4865   -4216.5075   -4734.4865            0    10678.924    19.600668    19.686816    20.555226    7931.7426     10197.91    10988.315    10850.548    144.51929     987.3388    1015.1891   -2981.2087 
26887000    252.42469   -4732.4221   -4245.5999   -4732.4221            0    10697.018    19.796266     19.75386    20.401076    7977.8956    11622.683    8917.1733    11551.198    74.116583     525.1389     67.01623    -3001.008 
26888000     241.5237   -4697.9636   -4232.1649   -4697.9636            0     11853.65    19.831308    19.680676    20.319584    7930.6026    13410.439    11444.442     10706.07   -181.18571    44.203435    957.42013   -2861.1752 
26889000    231.08307   -4718.5717   -4272.9086   -4718.5717            0    10784.888    19.709429    19.931991    20.258834    7958.6456    11232.432    10011.074    11111.158   -357.62858   -7.9125048    1226.3295   -3021.1208 
26890000    256.94633   -4703.2336    -4207.691   -4703.2336            0    11561.013    20.049514    19.569902    20.306694    7967.6767     12346.02    9572.3251    12764.695    471.22416   -268.14737     1620.653   -2864.2967 
26891000    243.86721   -4692.1807   -4221.8623   -4692.1807            0     11777.42    19.601031     19.66838    20.441811    7880.7376    11566.179     12562.61     11203.47    633.04979   -969.18141   -294.00875   -2868.2542 
26892000    257.19055   -4717.3082   -4221.2946   -4717.3082            0    10263.615    19.545066      19.8727    20.421608     7932.023    11687.765    8511.3631    10591.717    572.28075   -145.44338    -396.5856   -3033.9953 
26893000    247.68432   -4707.1857   -4229.5056   -4707.1857            0     10911.48    19.737611     19.95582     20.16493    7942.5667    11196.558    9441.5538    12096.327   -92.805412    1543.7191    -684.7841   -2965.5832 
26894000    251.77921   -4718.3506   -4232.7733   -4718.3506            0    10240.334    19.707648    19.884658     20.40047     7994.533    9924.4864    10017.884     10778.63    43.510181   -47.342519    1439.0339   -3038.8316 
26895000    253.03695    -4711.932   -4223.9289    -4711.932            0    9796.1267    19.692798     19.53786    20.745175    7981.8125    9856.3809    10008.143    9523.8561   -145.22918    460.23433    422.19138   -3083.5956 
26896000    238.94816    -4718.144   -4257.3124    -4718.144            0    9370.3388    19.557913    19.837381    20.534109    7966.7778    11684.945    7249.5625    9176.5085   -349.51601    1652.5248    720.98022   -3168.5982 
26897000    239.41731   -4717.5561   -4255.8196   -4717.5561            0     10329.08    20.007692    19.542951    20.372381    7965.7917     6755.471    13619.725    10612.043     432.5471    1630.0089    174.73754   -3055.8605 
26898000    250.85516   -4733.2415   -4249.4462   -4733.2415            0    8004.6647    19.789786    19.789739    20.413273     7994.546    8231.0136    6930.3203      8852.66   -501.54163    562.64689   -418.78377   -3316.1643 
26899000    257.52702   -4705.6295    -4208.967   -4705.6295            0    11012.475    19.836774    19.638313    20.525996    7996.1227     9330.628    12522.015    11184.782   -251.35132   -977.95596   -882.93362   -2924.7445 
26900000    260.85441   -4737.2234   -4234.1437   -4737.2234            0    11457.518    19.573237     19.81037    20.476177    7939.7008    11522.234    12452.723    10397.597   -39.670065   -1458.7445    3233.8436   -2907.4503 
26901000     255.5365   -4683.4476    -4190.624   -4683.4476            0    9620.1745    19.711379    19.796746    20.490067    7995.6581    8917.9124    11226.931    8715.6797   -1145.0017   -480.02042   -255.41387   -3068.8301 
26902000    252.25513   -4698.0084   -4211.5132   -4698.0084            0     10267.91    19.791598     19.73229    20.524375    8015.4572    9562.1168    10988.712      10252.9   -77.180411    1364.2343   -1167.2515   -3011.2231 
26903000    247.00173   -4726.9184   -4250.5548   -4726.9184            0    9318.7277    19.900937    20.009216    20.265145     8069.624    8012.3725     9252.136    10691.675    6.4493211    290.23738    1648.0247     -3153.86 
26904000    239.12236   -4678.8465   -4217.6789   -4678.8465            0    11608.092    19.777778    19.689481    20.297115    7903.9844    13212.516    10361.024    11250.736   -402.66438    364.60881   -1755.6394   -2879.5967 
26905000    254.66669   -4722.0079   -4230.8618   -4722.0079            0    9470.1928     19.76429    19.986297    20.216274    7985.7308    7355.4197     10429.54    10625.619    145.00507   -35.116703    64.479169   -3127.9282 
26906000    240.77384   -4712.8061   -4248.4535   -4712.8061            0    10455.791    19.568395    19.894259    20.413596    7946.9868    8336.8093    12757.851    10272.713    209.91323    1868.7566    309.93214   -3036.6414 
26907000    263.90913   -4733.7458   -4224.7748   -4733.7458            0    10463.384    19.852255     19.62594    20.555718    8008.9013    11510.416    9473.7477    10405.987   -438.42887     41.71205    756.31111   -3002.6348 
26908000    245.19508   -4718.0981   -4245.2188   -4718.0981            0    11058.919    19.479554    19.766025    20.481063    7885.8922    13606.264     10103.77    9466.7245   -735.50792   -816.19643    154.37701   -2973.3585 
26909000    253.87464    -4738.924   -4249.3054    -4738.924            0    10361.803    19.900006    19.790767    20.252768    7976.2769    10177.764    9845.0707    11062.575    684.70405    427.36162    77.020339   -3043.9601 
26910000    265.85767   -4723.8514   -4211.1225   -4723.8514            0    10675.011    19.771092    19.713516    20.414716    7956.7935     10862.18    10349.599    10813.256   -104.29635    710.92132   -428.60197   -2972.3763 
26911000    246.49056   -4728.3217   -4252.9439   -4728.3217            0    11537.214    19.820454    19.782121    20.394971    7996.6769    11982.261    10976.659    11652.721    540.39056    163.03434   -1541.3094   -2907.4357 
26912000    247.58484   -4704.1339   -4226.6457   -4704.1339            0    9162.3386    19.815084    19.916133    20.326668    8021.7133    8673.4028    8962.4095    9851.2034    377.94152   -102.14571    1422.0946   -3154.7578 
26913000    263.04099   -4724.1291   -4216.8324   -4724.1291            0    11329.409    19.699725    19.713207    20.539075    7976.2421    10904.153     11567.71    11516.364    359.99114   -643.42037   -573.19121   -2898.9354 
26914000    249.94286   -4727.3683   -4245.3325   -4727.3683            0    10676.768    19.661642    19.664517    20.608099     7967.847    9100.8733     12754.23    10175.201    285.67145    6.9143335    231.14834   -3004.6613 
26915000    251.80949   -4715.2227   -4229.5869   -4715.2227            0    12296.149    19.418467    19.970716    20.475209    7940.3001    14831.169    9854.6483    12202.631    651.47472    -54.27831   -245.19734   -2805.6789 
26916000    247.76289   -4685.6932   -4207.8616   -4685.6932            0    11657.261    20.008286    19.682092    20.258255    7977.8006    12342.356    11862.348    10767.079    -205.2174    430.89102    100.50594   -2851.5622 
26917000    266.83392   -4736.8818   -4222.2702   -4736.8818            0    11119.615    19.718375    19.695926     20.45363      7943.61    12274.682    10187.323     10896.84     -402.082    601.80149    302.78143   -2934.0694 
26918000    270.68303    -4706.635      -4184.6    -4706.635            0    11856.613    19.926612    19.510861    20.384731    7925.2853    11636.397    12128.514    11804.928    886.66824   -35.588466    411.01851   -2814.1871 
26919000    259.99919   -4687.9421   -4186.5118   -4687.9421            0    12759.125    19.886761    19.741327    20.174932    7920.4981    12938.546    11700.762    13638.068   -990.31711    946.11551    605.94492   -2712.6754 
26920000    257.42088   -4717.1548   -4220.6969   -4717.1548            0    9677.2909    19.685788    19.790095    20.542177    8002.8956    11558.752    8968.4385    8504.6818    594.15133   -1077.6519    1028.3751   -3091.2214 
26921000    251.40073    -4690.118   -4205.2706    -4690.118            0    11929.455    19.612538     19.85182    20.428811    7953.8464    13202.663    10039.859    12545.844    583.53967    712.94275   -128.57417   -2821.4694 
26922000    252.90276   -4724.1479   -4236.4037   -4724.1479            0    11081.689    19.554295    19.756569    20.618934    7965.6256    11297.394    12437.778    9509.8966    508.63227    1301.5929    615.56016   -2949.0385 
26923000    253.70839   -4739.4248   -4250.1268   -4739.4248            0    8553.5632    19.813218    19.646318     20.47495    7970.0127    8951.6261    8273.1672    8435.8962     321.2514    1490.3404   -313.42764    -3255.908 
26924000    247.50875   -4703.1109   -4225.7694   -4703.1109            0    10451.583    19.741941    19.867505    20.354392    7983.4631    10592.993    10922.467    9839.2886   -512.28046    412.31289   -560.47612   -3008.8851 
26925000    254.66067   -4728.9791   -4237.8446   -4728.9791            0    10214.496    19.594101    19.810568    20.545458    7975.1359    9969.3022      10618.3    10055.885    -343.9587   -71.253636   -1842.3041    -3049.805 
26926000    250.02695   -4739.5483   -4257.3503   -4739.5483            0    10559.121    19.864095    19.658889    20.391693    7963.0793    12296.824    9684.6726    9695.8663   -482.13862   -44.979983   -1501.5133   -3031.0842 
26927000    259.40183   -4721.6737   -4221.3955   -4721.6737            0    9463.1721    19.910739    19.873026    20.158022    7976.2599    11099.601    7943.0306    9346.8846    546.04566     631.8386   -32.732565   -3120.5866 
26928000    244.59788   -4689.4475   -4217.7199   -4689.4475            0     10500.23    19.985895    19.482834    20.448016    7962.0868    10090.951    10157.839    11251.899   -86.525113   -1332.5177   -673.20633   -2998.4451 
26929000    259.81319   -4693.8024   -4192.7309   -4693.8024            0    11133.978    19.881968    19.485269    20.492018    7938.7202    10580.822     10474.81    12346.303     727.2343    387.16509    541.42163   -2903.6601 
26930000    251.38492   -4704.8649    -4220.048   -4704.8649            0     8812.987    19.893705    20.061363    20.245546    8079.8927    9850.3673    7424.6693    9163.9245    185.24792   -776.56306   -284.64092   -3181.5525 
26931000    265.61305   -4747.9037   -4235.6466   -4747.9037            0    11200.628    19.857584    19.567984    20.487152    7960.7518    10820.617    12288.371    10492.898    309.59964     1628.242    233.89382   -2935.2603 
26932000    254.56507   -4706.2286   -4215.2785   -4706.2286            0    13002.224    19.877843    19.744068    20.108103     7891.817    13922.508    12436.382    12647.782   -465.64568    -1906.018   -1833.7327   -2718.7998 
26933000    245.23666   -4726.6489   -4253.6893   -4726.6489            0     10237.11     19.82677    19.711574     20.38825    7968.0714    9954.7191    11441.629     9314.981   -586.52406    341.21182   -203.28199   -3064.0743 
26934000    236.59391   -4710.2398   -4253.9485   -4710.2398            0    10661.488    19.832823    19.574638    20.501166    7958.9693     12850.84    9421.6719    9711.9515    121.29913   -37.178122    516.42452   -3016.4334 
26935000    258.26876   -4693.7519   -4195.6588   -4693.7519            0    12634.952    19.631268    19.662663    20.562492    7937.1836    11589.956    12617.943    13696.959    692.06215    723.69744    104.26307   -2733.0913 
26936000     261.5492   -4704.1901   -4199.7704   -4704.1901            0    10996.173     19.81716    19.721763    20.419168    7980.4096    10584.011    11368.345    11036.162    164.96965    426.51887   -1133.0514   -2919.9689 
26937000    245.32688   -4709.1365    -4236.003   -4709.1365            0    11275.293    19.946076     19.76107    20.189345    7957.7473    10740.084    11141.122    11944.674    167.16457   -856.28763    529.99606   -2927.4423 
26938000    253.71109   -4703.5082    -4214.205   -4703.5082            0    11370.921    19.781257    19.829852    20.363067    7987.6043    14211.646    9345.2077    10555.909   -195.42092    1038.4203    438.25914   -2889.5949 
26939000    248.92999   -4726.5158   -4246.4334   -4726.5158            0    9165.0258    19.532631    19.633021     20.82047    7984.3286    9656.3842    11474.191    6364.5017    446.20164   -141.56798   -353.36436    -3179.228 
26940000    259.40379   -4680.2059   -4179.9238   -4680.2059            0    12911.274    19.884604    19.472137    20.435736    7912.6298    11703.367    14729.962    12300.494   -440.48823   -1765.0384   -969.70284   -2689.9939 
26941000    250.68186   -4697.4109   -4213.9499   -4697.4109            0    10484.573    19.627453    19.923267    20.333708     7951.354    7930.9697    12806.021    10716.728   -354.93804   -1338.9595   -719.65504   -2998.1343 
26942000    254.97681   -4702.7263   -4210.9821   -4702.7263            0    11145.708    19.870456    19.644902    20.408471    7966.5109    10324.549     12631.96    10480.616    587.44559   -210.67315    1538.4268   -2916.0359 
26943000    254.18707   -4694.3278   -4204.1066   -4694.3278            0    12481.019    19.399063    19.849366    20.434884    7868.6385    12812.638    10931.933    13698.486    28.938138   -647.16031   -196.78127   -2771.8345 
26944000    258.65892   -4703.7806   -4204.9351   -4703.7806            0    11518.865    19.782634    19.685091     20.47064    7971.7371      12418.6    10708.736     11429.26    -249.5249   -840.40621   -713.27075   -2865.7563 
26945000    252.76683   -4716.1266   -4228.6445   -4716.1266            0    10898.047    19.773595    19.728496    20.471822    7986.1253    10258.525    10381.228    12054.386    287.98011    725.38187   -1759.9895   -2959.3551 
26946000    259.15628   -4737.3455   -4237.5408   -4737.3455            0    9981.3341    19.759847    19.904825    20.443656    8040.8235    10233.925    8355.1123    11354.965    207.67609   -535.44782   -976.69009   -3067.0581 
26947000      253.103   -4702.4741   -4214.3437   -4702.4741            0    10415.645    19.928421    19.598348    20.283324    7921.9389    9343.9689    11049.605    10853.361    309.06529   -642.91359   -1430.1107   -3010.9894 
26948000      258.355   -4721.8298   -4223.5705   -4721.8298            0    11823.197    19.810808    19.698136    20.416375    7967.2044    13590.959    9168.5769    12710.057    106.64916   -1629.5592    856.97392   -2849.7918 
26949000    262.19946   -4699.8629   -4194.1892   -4699.8629            0    11114.649    19.689767    19.645467    20.519148    7937.1072      11361.4     11903.99    10078.556    609.84247    234.36341   -904.42428   -2907.6179 
26950000    259.70342   -4737.0172   -4236.1573   -4737.0172            0    10256.578    19.672027    19.703395    20.540319    7961.5453     11406.09    9938.7592    9424.8847    310.76616   -869.46689   -165.65879   -3045.2561 
26951000    245.30218   -4714.0804   -4240.9945   -4714.0804            0    10929.315    19.787938     19.77843    20.494037    8020.8406    12435.379    10439.225    9913.3397    417.35741   -94.013867    910.03703   -2962.5299 
26952000    251.28373   -4710.4177   -4225.7959   -4710.4177            0    10901.426    20.025647    19.668951    20.295968    7994.2463    8393.9482    11694.258    12616.072    77.835439    251.61271    1360.2121   -2954.8217 
26953000    242.41629   -4723.0213   -4255.5011   -4723.0213            0    10470.791    19.755722    19.944286    20.205426    7961.2161    10346.606    9590.9756    11474.791   -248.30748    907.34575     843.1661   -3039.7777 
26954000    248.89742   -4716.6709   -4236.6513   -4716.6709            0    12293.874    19.484526    19.763975    20.457251    7877.9172    12301.379    12740.087    11840.156    217.58239   -320.72508   -1250.4533   -2824.1916 
26955000    236.22559   -4710.0924   -4254.5115   -4710.0924            0    11106.112    19.677214    19.649866    20.460295    7911.0675    9770.7325    12705.103    10842.502    617.44238    689.74621   -516.27637   -2973.1459 
26956000    241.33907   -4709.7954   -4244.3527   -4709.7954            0    12751.338    19.616558    19.509773    20.628404    7894.7915    12415.481    13632.483    12206.048    379.93707    333.47452    950.96894   -2776.1964 
26957000    254.69763   -4718.9419   -4227.7361   -4718.9419            0    11959.781    19.905268    19.485502    20.494685    7949.1534    11131.075    14706.201    10042.066    342.34587    1135.0118    196.37311   -2841.2357 
26958000    253.15551   -4701.0429   -4212.8112   -4701.0429            0    10511.777    19.779787    19.878961    20.232724    7955.5395    11792.549    8121.3223     11621.46   -260.75755   -125.71231    251.54169   -2993.1993 
26959000    245.93549    -4705.745   -4231.4378    -4705.745            0    10670.002    19.844794    19.660254    20.338349    7935.0821    8914.0889    12216.267    10879.649   -418.73404    376.97453    845.63619   -2996.6515 
26960000    270.14345   -4728.6158   -4207.6214   -4728.6158            0    9535.2028    19.724947    19.734507     20.56489    8005.1321    10361.991    8829.4795    9414.1381    13.023671   -470.76549   -1403.9474   -3094.4185 
26961000    246.58982   -4690.0151   -4214.4459   -4690.0151            0    9595.7548     19.89888    19.643263     20.43855    7988.9989    9238.3442    10301.395    9247.5249   -259.10389    488.90214   -1902.6691   -3096.4315 
26962000    259.64772   -4716.9021   -4216.1496   -4716.9021            0    11524.576    19.775905    19.828074    20.166118    7907.4998    9971.5327    11986.081    12616.115   -158.92116    -42.64249    2356.8533   -2887.1035 
26963000    267.33561   -4722.8816   -4207.3024   -4722.8816            0    9904.7562    19.700166    19.834573    20.383205    7964.6227    11174.834    8882.8066    9656.6276    750.62188    451.15401    106.81693    -3056.807 
26964000    253.39993   -4712.2474   -4223.5443   -4712.2474            0    10123.213    19.796107    19.786966    20.367362    7977.9954    10050.706     11951.16    8367.7726   -18.971932     -368.717   -1303.4525   -3045.6996 
26965000    247.14213   -4745.8044     -4269.17   -4745.8044            0    10143.855    19.776846    19.549207    20.600053    7964.4262    10619.098    10129.428    9683.0398   -189.67782    270.23382    328.00026    -3090.931 
26966000    245.55848   -4721.1459   -4247.5657   -4721.1459            0    9739.8206    19.950769    19.831707    20.272442    8020.9503    8183.5538    9935.3712    11100.537    -60.29661    1468.1849    825.56655   -3108.2274 
26967000    235.15068   -4707.4194   -4253.9115   -4707.4194            0    11573.298    19.604442    20.022011    20.275481    7958.5389    13772.509    9289.7853    11657.598   -387.49801   -327.05838    482.04051   -2910.6321 
26968000      265.393   -4720.3283   -4208.4956   -4720.3283            0    10766.205    19.786308    19.660283    20.528467    7985.6645    9754.4296    11278.298    11265.886    201.52033    729.84122   -499.25313    -2954.634 
26969000    251.45883   -4700.6153   -4215.6558   -4700.6153            0    9685.9008    19.837337     19.88126    20.289605    8002.0426    11125.098    8435.9445    9496.6598   -625.11077   -33.741371   -1287.2877   -3085.2958 
26970000    246.69429   -4709.6881   -4233.9174   -4709.6881            0    11201.522    19.538088    19.937328    20.209988    7872.5434    11440.018    10566.343    11598.205   -460.13554   -7.1522657   -1121.0386   -2947.8374 
26971000    251.13227   -4717.5556   -4233.2259   -4717.5556            0    10195.259    19.636411    19.819385    20.571996    8006.2418    10456.628    10493.208    9635.9402    140.25322    930.64833    781.67642   -3042.7987 
26972000    253.43262   -4723.2936   -4234.5275   -4723.2936            0    13201.061    19.605845    19.743781    20.364677    7883.0344    14814.907    11878.893    12909.384     268.5772   -251.89401    59.620743   -2716.8547 
26973000     249.0508    -4711.827   -4231.5116    -4711.827            0    12773.865    19.656751    19.784646    20.278265    7886.2549    11911.945    13333.836    13075.812    38.165667    332.54807   -499.64357   -2762.3519 
26974000    247.61317   -4711.2565   -4233.7137   -4711.2565            0    9332.7582    19.625929    19.996247     20.40762    8008.8669    9368.0548    10903.469    7726.7513   -160.89478   -939.13761    662.57905   -3143.6372 
26975000    253.48173   -4748.0974   -4259.2366   -4748.0974            0    9432.9493    19.781938    19.762476     20.43913    7990.4749    10091.561     8983.445    9223.8418    51.061968    1236.5097    610.22962   -3159.9879 
26976000    249.26283   -4718.7834   -4238.0591   -4718.7834            0    10225.082    19.746277    20.010327    20.325418    8031.1711    10938.148    9318.2498    10418.847   -245.81114   -570.48598    777.15675   -3040.4322 
26977000    263.90031   -4668.4939   -4159.5399   -4668.4939            0    9058.1565    19.711905    19.742756    20.512149    7982.6583    8051.0142    10602.509     8520.946   -558.98731   -1276.2904    496.99975   -3104.9995 
26978000    272.55032   -4720.1374   -4194.5011   -4720.1374            0    11209.209    19.488741    19.764392    20.611295    7939.1227    12740.032    10496.973    10390.624    164.92332    128.96727   -1533.2946   -2896.6545 
26979000    248.99921   -4701.6698   -4221.4539   -4701.6698            0    10078.147    19.707871    19.807875    20.448973     7982.687    8563.3354    11270.399    10400.706    322.94626   -10.484186    2525.2356   -3048.1631 
26980000    266.45761   -4692.5726   -4178.6866   -4692.5726            0     10956.26    19.811215    20.055663    19.960902    7931.0062    9242.0149     11757.69    11869.076   -361.99341   -540.80649   -1234.3487   -2911.4243 
26981000    264.92242   -4721.0409   -4210.1157   -4721.0409            0    10031.909    19.713941    19.798736    20.456608    7984.4414    10363.379    8762.6327    10969.714   -502.39031    -1480.818   -93.064368   -3041.9513 
26982000     259.0237   -4716.6076   -4217.0587   -4716.6076            0    12007.079    19.608007    19.553833    20.617571    7905.0178    11877.278    13622.758    10521.201    66.040435    496.51306   -329.24063   -2832.8036 
26983000     252.5897   -4722.0723   -4234.9319   -4722.0723            0    11939.831    19.765664    19.554574    20.605402    7964.1762    12859.715    12947.791    10011.986     -404.579    1563.6881   -489.29436   -2848.1284 
26984000    264.82128   -4722.6996   -4211.9695   -4722.6996            0    9971.3372    19.665558    20.001548    20.278967    7976.5614    10568.113    9118.8905    10227.008    147.36531    1870.1368     1174.196   -3052.0042 
26985000    246.37044   -4729.7156   -4254.5695   -4729.7156            0    10177.378    19.835776    19.765714    20.331928    7971.5039     8155.239    11945.446     10431.45    291.61963   -493.43323   -259.78604   -3071.3861 
26986000    240.83176   -4705.8503    -4241.386   -4705.8503            0    9493.9423     19.56946    19.673052    20.700074    7969.3421    10937.144    7430.7353    10113.948    854.09408    932.70263     1246.889   -3137.9555 
26987000     246.2786   -4696.0756   -4221.1066   -4696.0756            0    10106.119    20.081282     19.46199    20.441559    7989.0048    8273.4719    10236.832    11808.053    897.48222    1022.4898    717.20728   -3043.6281 
26988000    266.76524   -4731.0274   -4216.5482   -4731.0274            0    10784.803    19.608116    19.954045    20.406379    7984.2246    12558.135    6874.8365    12921.439    540.00512   -56.250623     780.0742   -2960.7471 
26989000    247.19905   -4700.6604   -4223.9162   -4700.6604            0    9986.3567    19.988345    19.460328    20.393737     7932.751    9142.6694    11190.897    9625.5039   -468.21888   -826.14159   -336.38226   -3068.5843 
26990000    258.92854   -4717.1882   -4217.8228   -4717.1882            0    10961.783    19.826889    20.057159    20.064484    7979.0646    9681.1772     11409.05    11795.122    311.14756   -417.67135   -434.17783   -2942.2387 
26991000    249.72467   -4721.3718   -4239.7567   -4721.3718            0    10754.129    19.522756    19.663274    20.659473    7930.7851    14164.479    9482.0534    8615.8548   -31.034017   -853.16747   -45.141961   -2995.9087 
26992000    244.25972   -4703.3849   -4232.3095   -4703.3849            0    9864.9749    19.929114    19.608552    20.465222    7997.4212    6449.5517    13318.448    9826.9245   -313.22836    402.81746    657.22106   -3081.7162 
26993000    240.97991   -4672.6038   -4207.8538   -4672.6038            0    11239.907    19.626404    19.854031    20.527155    7998.6775    9804.4659    11403.561    12511.694    106.81999   -694.92593    -628.2832   -2896.6904 
26994000    256.93022   -4708.6156    -4213.104   -4708.6156            0    10827.981     20.11369    19.624578    20.208443    7976.7306    9217.5792    11421.845    11844.518    48.247737    85.955359   -18.587247   -2953.4587 
26995000    268.52715   -4696.0138   -4178.1366   -4696.0138            0    10564.961    19.773328    20.029872    20.165752    7986.7918    11429.119    8963.1892    11302.575    514.61831   -214.26297    328.70616   -2947.5388 
26996000    259.25733   -4706.5055    -4206.506   -4706.5055            0    9559.2598    19.845985    19.529144     20.63671    7998.2749     10958.45    9482.6359    8236.6935    755.13607    636.40979    1264.7513   -3091.4505 
26997000    254.88701   -4720.0615   -4228.4905   -4720.0615            0    11224.946     19.70723    19.499305    20.690259    7950.7964    10265.726    12239.047    11170.064    1293.4702   -1039.4772    761.60826   -2926.9108 
26998000    273.93227   -4724.2611   -4195.9597   -4724.2611            0     11255.93    19.998367    19.481857    20.370207    7936.3411    10863.344    12421.929    10482.517    1224.6137   -694.83145   -769.04453   -2893.1601 
26999000    255.93388   -4755.0382   -4261.4482   -4755.0382            0    8760.2589    19.757369    19.935155    20.417843    8041.8983    9620.2791    6881.9386     9778.559   -261.48717   -879.57245    1539.4299   -3234.0201 
27000000    255.08804   -4685.5352   -4193.5764   -4685.5352            0    10869.049    19.802478    19.832854    20.475058    8041.3673    11140.448    10291.969     11174.73   -326.68655   -855.32989    2141.2049   -2918.9077 
Loop time of 517.225 on 64 procs for 250000 steps with 972 atoms

Performance: 83.523 ns/day, 0.287 hours/ns, 483.349 timesteps/s
99.0% CPU use with 64 MPI tasks x 1 OpenMP threads

MPI task timing breakdown:
Section |  min time  |  avg time  |  max time  |%varavg| %total
---------------------------------------------------------------
Pair    | 21.374     | 29.535     | 38.336     |  79.9 |  5.71
Bond    | 0.26263    | 0.2816     | 0.29662    |   1.1 |  0.05
Kspace  | 217.15     | 230.28     | 241.47     |  40.3 | 44.52
Neigh   | 3.3642     | 3.7087     | 4.2497     |  12.9 |  0.72
Comm    | 105.17     | 114.36     | 124.12     |  40.2 | 22.11
Output  | 1.3633     | 1.3643     | 1.3659     |   0.0 |  0.26
Modify  | 125.35     | 128.73     | 133.57     |  16.3 | 24.89
Other   |            | 8.956      |            |       |  1.73

Nlocal:        15.1875 ave          19 max          11 min
Histogram: 2 5 9 9 0 9 12 7 8 3
Nghost:        2306.89 ave        2338 max        2277 min
Histogram: 5 5 10 7 4 8 11 6 4 4
Neighs:        4880.89 ave        6725 max        3123 min
Histogram: 1 5 8 7 15 4 12 8 1 3

Total # of neighbors = 312377
Ave neighs/atom = 321.37551
Ave special neighs/atom = 2.0000000
Neighbor list builds = 7288
Dangerous builds = 0

unfix		3
unfix		2
unfix		1

write_data	data.final.${pid}
write_data	data.final.0
System init for write_data ...
PPPM initialization ...
  extracting TIP4P info from pair style
  using 12-bit tables for long-range coulomb (../kspace.cpp:340)
  G vector (1/distance) = 0.37215411
  grid = 24 24 24
  stencil order = 5
  estimated absolute RMS force accuracy = 0.0035132269
  estimated relative force accuracy = 1.0579979e-05
  using double precision FFTW3
  3d grid and FFT values/proc = 2197 216
Last active /omp style is kspace_style pppm/tip4p/omp
WARNING: Not all mixed pair coeffs generated from mixing. Use write_data with 'pair ij' option to store all pair coeffs. (../write_data.cpp:312)

write_restart   restart.lmp.${pid}
write_restart   restart.lmp.0
System init for write_restart ...
PPPM initialization ...
  extracting TIP4P info from pair style
  using 12-bit tables for long-range coulomb (../kspace.cpp:340)
  G vector (1/distance) = 0.37215411
  grid = 24 24 24
  stencil order = 5
  estimated absolute RMS force accuracy = 0.0035132269
  estimated relative force accuracy = 1.0579979e-05
  using double precision FFTW3
  3d grid and FFT values/proc = 2197 216
Last active /omp style is kspace_style pppm/tip4p/omp
Total wall time: 0:08:41
