LAMMPS (30 Jul 2021)
Processor partition = 0
  using 2 OpenMP thread(s) per MPI task
using multi-threaded neighbor list subroutines
variable        pid world 0 1
variable        phase world IceIh Liquid

shell cd ${phase}
shell cd IceIh
include Restart.lmp
echo both
log log.lammps
#include		in.partitions
include		in.temp
variable        temperature equal 254.50
variable	tempDamp equal 100.0
include		in.pressure
variable        pressure equal 1299.7
variable        pressureDamp equal 1000.0 # This is 1 ps
include		in.seed
variable        seed equal 745823

units		real
atom_style	full
#include		in.box
read_restart	restart.lmp.${pid}
read_restart	restart.lmp.0
Reading restart file ...
  restart file = 30 Jul 2021, LAMMPS = 30 Jul 2021
  restoring atom style full from restart
  orthogonal box = (-0.00039738372 0.089133301 -0.0050372943) to (18.207970 23.540044 22.218233)
  2 by 4 by 4 MPI processor grid
  restoring pair style lj/cut/tip4p/long/omp from restart
  restoring bond style harmonic/omp from restart
  restoring angle style harmonic/omp from restart
  864 atoms
  576 bonds
  288 angles
Finding 1-2 1-3 1-4 neighbors ...
  special bond factors lj:    0        0        0       
  special bond factors coul:  0        0        0       
     2 = max # of 1-2 neighbors
     1 = max # of 1-3 neighbors
     1 = max # of 1-4 neighbors
     2 = max # of special neighbors
  special bonds CPU = 0.002 seconds
  read_restart CPU = 0.008 seconds
include 	in.setup
variable	out_freq equal 1000
variable	out_freq2 equal 10000
variable	out_freq3 equal 1000

timestep	2.0

neigh_modify    delay 7 every 1

include		in.tip4p
# This is TIP4P/Ice

# create groups ###
group ox type 2
288 atoms in group ox
group hy type 1
576 atoms in group hy

# set charges - beside manually ###
set group ox charge -1.1794
Setting atom values ...
  288 settings made for charge
set group hy charge 0.5897
Setting atom values ...
  576 settings made for charge

# ### TIP3P Potential Parameters ###
pair_style lj/cut/tip4p/long/omp 2 1 1 1 0.1577 8.5
pair_coeff 1 1*2 0.000 0.000
pair_coeff 2 2 0.21084 3.1668
bond_style  harmonic
bond_coeff  1 450 0.9572
angle_style harmonic
angle_coeff 1 55 104.52
kspace_style pppm/tip4p/omp 1.0e-5
pair_modify tail yes

thermo          ${out_freq}
thermo          1000
thermo_style    custom step temp pe etotal epair emol press lx ly lz vol pxx pyy pzz pxy pxz pyz enthalpy

restart 	${out_freq3} restart.lmp.${pid} restart2.lmp.${pid}
restart 	1000 restart.lmp.${pid} restart2.lmp.${pid}
restart 	1000 restart.lmp.0 restart2.lmp.${pid}
restart 	1000 restart.lmp.0 restart2.lmp.0


include         in.dump
dump            myDump all atom ${out_freq2} dump.water.${pid}
dump            myDump all atom 10000 dump.water.${pid}
dump            myDump all atom 10000 dump.water.0
dump            myDump2 all dcd ${out_freq2} dump.dcd
dump            myDump2 all dcd 10000 dump.dcd
dump_modify     myDump append yes
dump_modify     myDump2 append yes


variable natoms 	equal  "count(all)"                        # NUMBER ATOMS
variable H      	equal  "enthalpy/v_natoms"                 # ENTHALPY-per-atom
variable Vol      	equal  "vol/v_natoms"                 # volume-per-atom
fix AVG all 		ave/time ${out_freq} 1 ${out_freq} v_Vol v_H file vol_enthalpy.dat
fix AVG all 		ave/time 1000 1 ${out_freq} v_Vol v_H file vol_enthalpy.dat
fix AVG all 		ave/time 1000 1 1000 v_Vol v_H file vol_enthalpy.dat


timer           timeout 23:50:00 every 1000
New timer settings: style=normal  mode=nosync  timeout=23:50:00

fix 		1 all shake 1e-6 200 0 b 1 a 1
Finding SHAKE clusters ...
       0 = # of size 2 clusters
       0 = # of size 3 clusters
       0 = # of size 4 clusters
     288 = # of frozen angles
  find clusters CPU = 0.000 seconds
fix             2 all nph aniso ${pressure} ${pressure} ${pressureDamp}
fix             2 all nph aniso 1299.7 ${pressure} ${pressureDamp}
fix             2 all nph aniso 1299.7 1299.7 ${pressureDamp}
fix             2 all nph aniso 1299.7 1299.7 1000
fix             3 all temp/csvr ${temperature} ${temperature} ${tempDamp} ${seed}
fix             3 all temp/csvr 254.5 ${temperature} ${tempDamp} ${seed}
fix             3 all temp/csvr 254.5 254.5 ${tempDamp} ${seed}
fix             3 all temp/csvr 254.5 254.5 100 ${seed}
fix             3 all temp/csvr 254.5 254.5 100 745823


run             250000
PPPM initialization ...
  extracting TIP4P info from pair style
  using 12-bit tables for long-range coulomb (../kspace.cpp:340)
  G vector (1/distance) = 0.37109388
  grid = 24 27 25
  stencil order = 5
  estimated absolute RMS force accuracy = 0.0032267868
  estimated relative force accuracy = 9.7173726e-06
  using double precision FFTW3
  3d grid and FFT values/proc = 4410 672
Last active /omp style is kspace_style pppm/tip4p/omp
Neighbor list info ...
  update every 1 steps, delay 7 steps, check yes
  max neighbors/atom: 2000, page size: 100000
  master list distance cutoff = 10.8154
  ghost atom cutoff = 10.8154
  binsize = 5.4077, bins = 4 5 5
  1 neighbor lists, perpetual/occasional/extra = 1 0 0
  (1) pair lj/cut/tip4p/long/omp, perpetual
      attributes: half, newton on, omp
      pair build: half/bin/newton/omp
      stencil: half/bin/3d
      bin: standard
Setting up Verlet run ...
  Unit style    : real
  Current step  : 3000000
  Time step     : 2
  Walltime left : 23:49:59.94
Per MPI rank memory allocation (min/avg/max) = 10.19 | 10.20 | 10.22 Mbytes
Step Temp PotEng TotEng E_pair E_mol Press Lx Ly Lz Volume Pxx Pyy Pzz Pxy Pxz Pyz Enthalpy 
 3000000    264.86389   -4215.8132   -3761.8456   -4215.8132            0    286.27408    18.208367    23.450911     22.22327    9489.3987    192.33975    216.22516    450.25733    493.08666    620.85729    803.21334   -3722.2272 
 3001000     262.1863   -4255.3494    -3805.971   -4255.3494            0    893.93739    18.316197    23.338169    21.972366    9392.4506    609.00282    1340.4818    732.32758   -385.13779   -709.18876   -477.70663   -3683.5201 
 3002000    251.64127   -4240.8553   -3809.5508   -4240.8553            0    1350.5034    18.095944    23.651131     21.89755    9371.9224    304.39047    1371.7601    2375.3597    14.440487   -577.46194   -420.77715   -3624.9641 
 3003000    256.94663   -4245.8102   -3805.4124   -4245.8102            0    1931.0509    17.807672    23.512275    22.219899    9303.4471    1405.5245    2841.5686    1546.0596   -420.50549   -98.083075    1.0714709   -3543.4051 
 3004000    239.76898   -4263.1897   -3852.2339   -4263.1897            0    1483.4077    18.019972    23.565354    22.092858     9381.666    2012.5101    2572.9699   -135.25699   -517.01761    684.32833    541.08674   -3649.2711 
 3005000    263.71184   -4246.9396   -3794.9465   -4246.9396            0    1576.6482    18.101129    23.515396    21.972666    9352.7803    632.98702    1646.1032    2450.8543   -578.44702   -1232.4333   -53.782203   -3579.8906 
 3006000    263.62603   -4239.6686   -3787.8226   -4239.6686            0    1293.4361    18.133695    23.290943    22.266197    9404.1475    730.64002    2350.1357    799.53259   -1008.6334   -47.933716   -203.23926    -3610.428 
 3007000    252.78219   -4237.0911    -3803.831   -4237.0911            0    1345.4818    18.285546    23.347405    22.037278    9408.1557    1783.3062    166.94144    2086.1977     60.72592    1301.0524   -362.55249   -3619.2198 
 3008000    261.92851   -4232.9453   -3784.0088   -4232.9453            0     1888.002    18.027459    23.381972     22.16936     9344.774    3267.6017     744.2032    1652.2011    613.29534   -270.58714   -415.72286   -3526.7045 
 3009000    265.64058    -4230.025   -3774.7261    -4230.025            0    963.08597    17.919027    23.721164    22.074174     9382.852    1178.1212   -323.06414    2034.2009   -126.71688    450.29735    134.16959   -3642.9381 
 3010000    256.78497   -4239.0716    -3798.951   -4239.0716            0    1588.6861    17.982293    23.634439    21.996978    9348.7466    2160.1684    2971.8193   -365.92949    780.10465    -499.1628   -535.56223   -3582.3465 
 3011000      260.724   -4259.7699   -3812.8978   -4259.7699            0    1375.5233    18.051019    23.268098    22.244867    9343.1306    1951.2218    1072.8495    1102.4986   -217.44048   -183.39394    350.62371   -3625.4691 
 3012000    266.68034   -4214.2482   -3757.1672   -4214.2482            0    1575.0424    18.325902    23.367811    22.071439    9451.7895     2187.681    1569.7792    967.66691   -368.75074    215.17891   -328.50776    -3540.056 
 3013000     268.1529   -4236.4092   -3776.8043   -4236.4092            0    1734.5192    18.086875    23.492851    22.006077    9350.6519    2219.1293    1296.4185    1688.0098   -903.18629   -42.275285   -16.108911   -3540.2685 
 3014000    245.97842   -4250.8832   -3829.2846   -4250.8832            0    2092.7542    17.993692    23.478075    22.146425    9355.9176    2240.0073    1503.3264    2534.9287   -328.15552    100.77734   -67.111456   -3543.7357 
 3015000    245.02502   -4228.0042   -3808.0397   -4228.0042            0    427.89557    18.001984    23.897148    22.051131    9486.3102    838.71938   -931.31927    1376.2866   -540.83275   -3.5149242    1035.8973   -3748.8412 
 3016000    262.33807   -4249.4398   -3799.8013   -4249.4398            0    2287.8463    17.980121    23.544625    21.968229    9299.9252      2609.61    1173.1183    3080.8106   -448.40822     313.0402    329.39651    -3489.501 
 3017000    264.97169   -4255.8342   -3801.6818   -4255.8342            0    2365.6305     18.16406    23.015213    22.298749    9321.9857    2302.9048    3174.8331    1619.1534    -186.1613    791.91148   -813.41093   -3480.0705 
 3018000    239.86108   -4249.4399   -3838.3262   -4249.4399            0     805.3269     18.31578    23.355297    21.982826    9403.6036   -276.13929    321.56742    2370.5526    695.18123    423.61607    1044.6172   -3727.8821 
 3019000     247.6187   -4236.5717   -3812.1617   -4236.5717            0    1557.9277    18.066852    23.553532    22.046712    9381.7175    3566.0785   -365.67661    1473.3813   -61.224866   -225.02126    -102.6194   -3599.0018 
 3020000    253.53516   -4262.6239   -3828.0733   -4262.6239            0    1417.4595    17.726597     23.66261    22.253004    9334.1906    500.39457    1407.2789    2344.7049    203.91258   -289.05846    29.610289   -3635.1151 
 3021000    244.61678   -4244.8039   -3825.5391   -4244.8039            0    1655.3436    18.075119    23.570564    21.950018     9351.602    1494.4288    1475.3971    1996.2049   -688.92427    476.05544    883.36785   -3599.7775 
 3022000    262.61013    -4241.592   -3791.4873    -4241.592            0    307.53616    18.121185    23.451462     22.28469    9470.2863    217.23422    874.55257   -169.17832   -518.13388    594.19906     61.90862   -3749.0121 
 3023000    250.38677   -4259.7934   -3830.6391   -4259.7934            0    1417.3212    18.071394    23.302605    22.275215    9380.3282    2412.5983    2274.3144   -434.94924   -518.80714    62.889797    385.98194   -3636.7461 
 3024000    257.85423   -4195.1954   -3753.2421   -4195.1954            0    2101.2827    18.214764    23.529959     21.90143    9386.7919    2610.9887    1295.8886    2396.9708   -546.24122    72.860562    148.53971   -3465.5833 
 3025000    261.76335   -4248.1097   -3799.4563   -4248.1097            0   -255.00096    18.131012    23.347565    22.369992    9469.5528   -845.55474    1938.5807   -1858.0289    297.34898    487.97295   -385.83146   -3834.6728 
 3026000    261.71519   -4227.8277   -3779.2569   -4227.8277            0    2161.2276    18.068563    23.465103     22.09494    9367.8279    1836.2466    1860.4561      2786.98    1469.8766    67.500777   -792.80421   -3483.9896 
 3027000    263.01385   -4228.0851   -3777.2884   -4228.0851            0    2186.7878    18.006751    23.829971    21.764742    9339.2583    2208.9961    193.16913    4158.1982    1011.8933   -746.53719    -160.0048   -3479.4402 
 3028000    246.77282   -4254.8396   -3831.8795   -4254.8396            0    1252.3948    18.016243    23.510187    22.165905    9388.7067    1663.5745    1778.5901    315.01974    465.81498    223.28984   -264.31514   -3660.3958 
 3029000    249.27536    -4274.597   -3847.3476    -4274.597            0    998.70477     18.29897    23.441466    21.964151    9421.6255    2108.0228    1225.4566   -337.36508   -659.11872   -321.74729   -244.22425   -3710.1208 
 3030000    265.55553   -4238.2943   -3783.1412   -4238.2943            0    1920.3088    18.160101    23.544598    21.933727    9378.2533    299.01185    1790.6822    3671.2324    -333.2705   -12.483854   -399.07007   -3520.4963 
 3031000     269.1077   -4237.9362   -3776.6948   -4237.9362            0    177.65808    18.041764    23.474184    22.316639    9451.4469    1281.1992    397.87681   -1146.1018   -448.80565    1110.7754    437.48758   -3752.2065 
 3032000     262.6137   -4246.9485   -3796.8376   -4246.9485            0    1666.1876    18.176747    23.327568    22.105316    9373.0804    591.26644    2399.8805    2007.4158    955.16983   -357.33945    1235.7555   -3569.0751 
 3033000    267.67458   -4262.2551     -3803.47   -4262.2551            0    1442.0879    18.096707    23.584868    22.017545    9397.2745    559.71809    2021.6219    1744.9236    202.82152    902.92976    512.31048   -3605.8324 
 3034000    238.88638   -4240.9151    -3831.472   -4240.9151            0    393.76376    17.854224    23.859526    22.136493    9429.9981    1558.8267   -164.85101   -212.68441     665.7858   -114.46487    124.50527   -3777.3189 
 3035000    248.01485   -4273.3527   -3848.2637   -4273.3527            0    1397.8258     18.02806    23.449516    22.146186    9362.2842    2008.5531    853.18299    1331.7413   -261.25085   -470.25473    290.92528   -3657.4056 
 3036000    236.22323   -4227.5276    -3822.649   -4227.5276            0    -668.3397    18.253053    23.507292    22.132138    9496.4547   -10.741317   -1191.2785   -802.99926    -301.3046    -192.4829   -169.18347   -3915.2115 
 3037000    256.66361   -4237.9906   -3798.0779   -4237.9906            0    1130.6168     17.82602    23.474829     22.23449    9304.3062    1718.5762    792.94017    880.33408    846.84773    177.62329    276.12554   -3644.6603 
 3038000    253.63014   -4245.5528   -3810.8395   -4245.5528            0     435.5942    18.001745    23.705397    22.140996    9448.4159    1223.9324    1556.7895   -1473.9393    92.031524   -311.93637    188.52921   -3750.8165 
 3039000    247.57549   -4231.5648   -3807.2289   -4231.5648            0    980.67257    18.240831    23.555239    21.949181    9430.8418   -157.61754     1673.777    1425.8583   -626.16309   -683.94312   -15.981833    -3672.348 
 3040000     256.5707   -4260.5091   -3820.7557   -4260.5091            0    1446.5484    18.185269    23.256377      22.1895    9384.4607    2029.8874    1282.8793    1026.8785    296.93412   -742.33397    520.56857   -3622.7772 
 3041000    250.48992   -4244.8876   -3815.5565   -4244.8876            0    1878.3993    18.205861    23.527902    21.858066    9362.8087    3250.7404    465.86151    1918.5962   -321.79905    212.89265     -572.035   -3559.0667 
 3042000    254.05445   -4253.1223   -3817.6816   -4253.1223            0    2768.2412    17.849661    23.412257    22.265212    9304.6514    2391.4206    2503.5348    3409.7683    180.30653   -85.419715   -1013.9686   -3442.0346 
 3043000    258.78014   -4239.0034   -3795.4631   -4239.0034            0    483.22342    18.044684    23.556308    22.124486    9404.3694    443.83574    864.99736    140.83715   -926.39525   -732.71774    1220.5353   -3729.1875 
 3044000     263.0552   -4253.0272   -3802.1596   -4253.0272            0    907.04882    18.058588    23.707581    21.864549    9360.7692    994.37289    -826.7837    2553.5573    335.43018    204.99368   -515.46286   -3678.3318 
 3045000    246.88778   -4279.5794   -3856.4222   -4279.5794            0      1770.12    17.798548    23.515943    22.254011    9314.4085    2424.3455    3039.9491   -153.93453    156.55238   -362.40118   -1117.6361   -3615.9672 
 3046000    255.81651   -4228.2347    -3789.774   -4228.2347            0    362.06303    18.192772    23.562543    22.010087    9435.0192    90.666958    525.71633    469.80581   -277.95521    -289.7189    600.06938   -3739.9541 
 3047000     244.1024   -4244.5863   -3826.2031   -4244.5863            0    1774.7138    18.139635    23.245489    22.023891    9286.6971    550.03906    2711.8396    2062.2628   -130.15165    -14.84984    355.26005   -3585.8413 
 3048000    264.04616   -4250.6606   -3798.0945   -4250.6606            0    1752.4473    18.016127    23.338321    22.160552    9317.7622    2182.0062    2454.6153    620.72032   -389.54014   -1007.6649    1304.4262   -3559.9545 
 3049000    257.85912   -4234.2173   -3792.2556   -4234.2173            0    583.06249    18.153402    23.762902    21.692752    9357.7654   -557.07619   -806.49769    3112.7613   -961.76428   -239.14087    1176.3546    -3712.683 
 3050000    257.46603   -4260.1169    -3818.829   -4260.1169            0    1257.1406     17.98271    23.462184     22.11575    9330.9367    1490.6126    1291.4034    989.40564   -628.36176    305.83235    187.83774   -3647.7546 
 3051000    257.48986   -4220.7833   -3779.4545   -4220.7833            0    948.25334    18.050577    23.475767    22.183245    9400.1752    1143.4727    1367.5491    333.73824    387.87723   -677.08919   -87.700163   -3649.4567 
 3052000     242.3297   -4226.6822   -3811.3374   -4226.6822            0    958.48685     18.17955    23.779172    21.861869    9450.7691    711.09833   -1308.5961    3472.9583    1207.2521   -172.83881    70.855539   -3679.2294 
 3053000    254.09624   -4264.3231   -3828.8109   -4264.3231            0    2541.7017    18.014152    23.378828    22.208741    9353.2059    3818.1084    1484.3692    2322.6274    476.87719   -350.81066   -1261.9241   -3482.1052 
 3054000     265.9051   -4234.0257   -3778.2734   -4234.0257            0    1500.4258    18.088155    23.461632    22.127415    9390.3801    985.32559     1375.829    2140.1227    325.65471   -711.70168    239.93222   -3572.7915 
 3055000    252.55903   -4238.6628   -3805.7853   -4238.6628            0    1155.5819    18.433675    23.308235    21.874732    9398.6196    469.71415    1386.6666     1610.365   -112.51481    634.22651    429.14042   -3647.3906 
 3056000    265.64065   -4227.9768   -3772.6779   -4227.9768            0    1981.0833    18.092701    23.320615    22.217599    9374.3366    1452.1845    1759.4146    2731.6509    758.68251    397.82081    758.87399   -3501.8339 
 3057000    261.28428   -4253.7159   -3805.8836   -4253.7159            0     1042.057    18.077196     23.59975    22.055877    9409.4187    1319.2598    474.11629    1332.7949   -1108.0201     451.4338   -515.82903   -3662.8856 
 3058000    245.50706   -4223.3584   -3802.5677   -4223.3584            0    843.86559    18.046543    23.715872    21.937169    9388.8777   -1190.8755    1018.0422    2704.4301    -408.9012   -408.78048    194.95715   -3687.0195 
 3059000    255.02737   -4237.9253   -3800.8171   -4237.9253            0    1922.9736    17.812306    23.440706    22.293954    9308.4623    2069.4713    3458.0613    241.38834   -838.13758   -29.152081    38.182313    -3539.765 
 3060000    244.19294   -4259.0266   -3840.4883   -4259.0266            0    76.445583    18.179494    23.399925    22.074165    9390.3234    689.34832    312.88624   -772.89781    136.72671   -404.34893   -598.61506   -3830.0192 
 3061000    256.07204    -4248.828   -3809.9293    -4248.828            0    -137.7385    18.430357    23.476675    21.813931    9438.5284   -2185.2236    25.055034    1746.9531   -165.41254    908.64256    653.18364   -3828.8891 
 3062000    265.55134   -4239.3949    -3784.249   -4239.3949            0    2493.4851    17.988544    23.376538    22.162947     9319.738    2975.0367    3208.8719    1296.5466    651.33866    476.88279   -216.39851   -3445.3374 
 3063000    270.40029   -4225.6836   -3762.2268   -4225.6836            0    287.49428    17.882435    23.828173    22.137314    9432.8369    -138.4897   -1013.9012    2014.8737   -510.68075    626.48042    435.61408   -3722.6767 
 3064000    250.51891   -4234.6576   -3805.2768   -4234.6576            0    2713.0869    18.044984    23.479994    21.996599    9319.8738    4408.7392    2138.4572    1592.0642    31.110308   -760.06376     305.8741   -3436.5118 
 3065000    252.14387   -4275.7755   -3843.6096   -4275.7755            0    483.97369    18.265962    23.351998    22.053435    9406.8201   -602.43132    1426.0564    628.29594    159.68452   -514.85425   -770.68681   -3777.2138 
 3066000    256.17577   -4219.0389   -3779.9624   -4219.0389            0    1780.1575    18.209086     23.29995    21.977911    9324.5863    811.10006    692.62009    3836.7524    570.99152    62.883634    557.72188   -3537.8796 
 3067000     251.4903   -4275.8735   -3844.8277   -4275.8735            0     817.7379    17.949252    23.530006    22.244401    9394.8339   -316.28305    481.77868    2287.7181   -123.38001    387.82231    56.154843   -3732.7861 
 3068000    260.96006   -4262.4555   -3815.1789   -4262.4555            0     583.2865    17.990976    23.791258     22.02504    9427.3329    606.67295     521.3172    621.86934    55.114677   -875.63922   -73.537088    -3734.984 
 3069000    242.57077    -4266.461    -3850.703    -4266.461            0    596.07935     17.96615    23.517274    22.170816    9367.4995    781.32916    1016.4461   -9.5372522   -180.56881   -473.76592    674.40672   -3769.2694 
 3070000    250.24049   -4238.1751   -3809.2715   -4238.1751            0    76.075935    18.235262    23.402388    22.191689    9470.2737   -568.97299    243.91604    553.28475    704.60992   -145.97067    345.28193   -3798.7643 
 3071000    266.24404   -4268.9864   -3812.6532   -4268.9864            0    1392.8331    18.283336    23.152035    21.994317    9310.1156    1455.4072    1136.2617    1586.8303   -193.90175   -640.13196    523.07354   -3623.5364 
 3072000     265.2191   -4208.2332   -3753.6568   -4208.2332            0    640.08939     18.19791    23.577221    22.020766    9448.1447    163.92158   -175.13865    1931.4852   -438.93258   -482.61767    250.69628   -3665.4579 
 3073000     240.3294   -4258.1447   -3846.2283   -4258.1447            0    1032.3352    17.896127    23.790271    22.117302    9416.5237    336.99018    1414.6714     1345.344   -92.439005   -171.01925    580.12935   -3704.4574 
 3074000    261.22044   -4271.5259    -3823.803   -4271.5259            0    1532.2482     17.88085    23.615225    22.153501    9354.5439    1797.7686    1409.1724    1389.8034   -109.43941    237.41436   -342.23013   -3614.7639 
 3075000    253.26291   -4247.0559   -3812.9719   -4247.0559            0    1320.5294    18.252658    23.401713    21.984123    9390.3747    2962.7214    912.68291     86.18391    491.69717    191.64681   -234.06719   -3632.1268 
 3076000    244.08897   -4234.9346   -3816.5744   -4234.9346            0    1646.3818    18.200644    23.210009    22.114654    9342.0505    1707.8716    2466.6938    764.57986   -1145.0729   -433.54507    38.555861   -3592.2644 
 3077000    241.66347   -4248.9076   -3834.7047   -4248.9076            0    751.77751    18.100956    23.596134     21.97885    9387.4436    1009.6349   -230.66155    1476.3592   -10.934236    13.298826   -24.192373   -3731.7817 
 3078000    274.15862   -4230.5377   -3760.6392   -4230.5377            0    49.154394    18.088284    23.691192    22.035219    9442.8188    303.70493   -1359.0482    1202.8064   -367.03122     52.81588   -149.60297     -3753.87 
 3079000    253.47965   -4258.8369   -3824.3815   -4258.8369            0    676.43065    18.110662    23.294707    22.255491    9389.2038    1097.6235   -288.78373    1220.4522    381.69418   -299.64999    551.10885   -3731.7566 
 3080000    257.54277   -4203.7018   -3762.2823   -4203.7018            0    3305.5365    18.258467    23.254018    21.766021    9241.4766    2154.4734    3914.1478    3847.9883   -288.64641   -111.05112   -1098.5023   -3316.7705 
 3081000     250.5678    -4238.979   -3809.5144    -4238.979            0    -97.76722    18.052482    23.581398    22.195579    9448.7198    -440.1846   -69.156873    216.03981    385.56042    106.59906    763.37189   -3822.9867 
 3082000    248.72099   -4259.6176   -3833.3183   -4259.6176            0    1485.7539    17.829763    23.779634    22.080948    9361.9962    2589.1832    1105.3294    762.74923   -234.44001    360.88649   -77.679009   -3630.4607 
 3083000    247.50323   -4250.6841   -3826.4721   -4250.6841            0    808.43652    18.009631    23.555837      22.0141    9339.0837    1012.4516    576.60596    836.25197    330.84081   -234.01879     185.0315   -3716.3622 
 3084000    253.08482    -4195.872   -3762.0933    -4195.872            0    149.07096    18.210486    23.327283    22.250758    9452.1475   -69.370285    2010.8638   -1494.2806    881.54746   -102.96694    577.30482   -3741.5439 
 3085000    263.02531   -4265.9081   -3815.0917   -4265.9081            0    3368.8091    18.127963    23.399666    21.885706    9283.6604    2241.9281    3591.1386    4273.3608   -927.16455    445.61711   -261.97903   -3358.9796 
 3086000    252.89442    -4237.895   -3804.4426    -4237.895            0    1235.8481    17.982722    23.696367    22.005294    9377.0097    1810.7871    837.20849    1059.5488    -1239.038    117.45848   -50.004309   -3635.4353 
 3087000    250.77843   -4256.5365   -3826.7109   -4256.5365            0    901.90148    17.921148    23.492774    22.333821    9402.9286    1094.5367    2147.5514   -536.38363   -39.834599    796.49564    69.238412   -3703.0313 
 3088000    263.92834   -4232.3677   -3780.0036   -4232.3677            0      2422.07    18.064722    23.489386    21.964982     9320.384     2279.419    1767.3688    3219.4222    263.62042   -21.640072   -72.805137   -3450.7759 
 3089000    249.57931   -4269.8758   -3842.1054   -4269.8758            0    792.01806    18.036813    23.357853    22.223925    9362.9666    441.69839    2132.0663   -197.71051   -299.11555    -251.6877   -60.349908   -3733.9559 
 3090000    255.04844   -4239.3238   -3802.1795   -4239.3238            0    818.78449    18.133034    23.277771    22.260062    9395.8969    476.15379    2380.1237   -399.92401     1052.539   -43.556255    412.64421   -3689.9819 
 3091000    245.79541   -4260.2786   -3838.9937   -4260.2786            0    1205.4522    18.168104    23.622187    21.759318    9338.4542   -438.98432    845.06977    3210.2711    387.69631   -690.87986   -42.067306   -3674.8211 
 3092000    260.27435   -4241.5415   -3795.4402   -4241.5415            0    774.79896    18.018209    23.525922    22.174756    9399.7676    1081.1138     322.9012    920.38191   -1437.1728    621.62995    66.114686   -3689.2261 
 3093000    257.13731   -4280.9532   -3840.2286   -4280.9532            0    899.42971    18.016278    23.596896    22.151149     9417.079    2926.8403     682.5574   -911.10854    22.502812   -774.35246   -247.26414   -3716.7024 
 3094000     251.6845   -4251.2055   -3819.8269   -4251.2055            0     1075.826    18.014307    23.685766     21.93477    9359.1859    788.65068   -654.39859    3093.2258    113.16554    812.79243    -124.1707    -3672.983 
 3095000    245.84597   -4251.2067   -3829.8351   -4251.2067            0    2047.1492    17.877714    23.443499    22.265915    9332.0051     2805.075    967.02456    2369.3481    751.11091   -220.26274    1104.3237   -3551.2227 
 3096000    261.15004   -4236.5011   -3788.8989   -4236.5011            0    517.57431    18.198641    23.440993    22.020411    9393.7795    1357.2981   -269.78481    465.20962   -695.98817      546.769    607.70451   -3717.9919 
 3097000    265.02831   -4250.9331   -3796.6837   -4250.9331            0    509.95969    18.272995    23.505313    21.973776    9438.0108   -138.37469   -219.55636    1887.8101     559.9941   -265.15354    484.62647   -3726.4909 
 3098000    249.39817   -4266.5932   -3839.1333   -4266.5932            0     980.3789    17.939293    23.469973    22.296724    9387.6953    1636.4707    2110.9921   -806.32611    47.124524     -656.001   -77.578107   -3704.9097 
 3099000    252.48526   -4236.2585   -3803.5074   -4236.2585            0    1023.2514    17.995713    23.630889    22.115889    9404.8859     1927.537   -1465.3488     2607.566    575.24623   -949.43379    125.41412   -3663.1576 
 3100000    243.87976    -4251.272   -3833.2705    -4251.272            0    791.71555    18.118998    23.670708    21.985357    9429.2892    781.72707    446.08043    1147.3392   -936.50365   -189.27251    131.85408   -3724.3965 
 3101000    249.89723   -4268.1326   -3839.8173   -4268.1326            0    2575.3801    18.012638    23.403055    22.135395    9331.1926    2422.3907    2125.2995    3178.4502    34.364082   -195.99042    105.06961   -3489.3444 
 3102000    258.03175   -4233.4189   -3791.1613   -4233.4189            0    1922.3058    18.255781    23.272651    22.114877     9395.736     1314.205    3076.1352    1376.5773    1058.2253   -844.77053   -89.083303   -3527.7531 
 3103000    263.53306   -4250.6871   -3799.0004   -4250.6871            0    1363.9149    18.230459    23.455957    21.978616    9398.3392    769.38611    917.18584    2405.1727    1798.8939    155.14767    126.35063   -3612.0552 
 3104000    245.12563   -4234.9934   -3814.8565   -4234.9934            0    2316.6554    17.940144    23.421183    22.269578    9357.2182    1612.5931    2552.3954    2784.9777   -1041.6172    522.85797    760.94097   -3498.7131 
 3105000    267.06628   -4245.6833   -3787.9408   -4245.6833            0   -765.13743    18.113883    23.790696    21.910607    9442.1982   -961.52159   -285.83033   -1048.0604   -477.52582    56.665926   -405.94543   -3893.3039 
 3106000     256.0053   -4271.5081   -3832.7238   -4271.5081            0    1570.7803    17.980322    23.531084    22.035592    9323.1811   -458.01612    1371.0857    3799.2714    769.74382    194.66174   -706.61956   -3619.1463 
 3107000    246.86448   -4253.5762    -3830.459   -4253.5762            0    161.74806    18.078784    23.335499    22.284947    9401.5166   -50.676358     413.1084    122.81213   -155.25373     62.75045   -49.821701   -3808.2814 
 3108000    251.87211   -4240.8916   -3809.1914   -4240.8916            0    1173.3749    18.231713    23.369149     22.01649    9380.3373    1731.4966    2142.8936   -354.26558    526.70025   -870.68357   -37.990516   -3648.6706 
 3109000    247.44843   -4242.8915   -3818.7734   -4242.8915            0    2711.2847    18.039705    23.418776    21.935635    9267.0997    4373.2143    1026.7026    2733.9371   -664.35719    482.06498    758.84503   -3452.3402 
 3110000     239.1429   -4225.6519   -3815.7692   -4225.6519            0    897.27739     17.82108     23.58033     22.16752    9315.3896    1215.7722    863.93884    612.12113   -492.48507    302.98524   -113.52186   -3693.8692 
 3111000     254.4153   -4236.2682   -3800.2091   -4236.2682            0    1586.4472    17.984902    23.607594    22.018769    9348.7347    2929.1979    389.49264     1440.651   -7.5101315    82.608183    768.74691   -3583.9102 
 3112000     258.4399   -4249.9974   -3807.0403   -4249.9974            0    761.79904     18.18506     23.47106     21.98027     9381.677    760.01614    555.67194    969.70902   -250.86767    744.98981    527.60196   -3702.8093 
 3113000    251.12788   -4249.9583   -3819.5337   -4249.9583            0    503.07028    18.234987    23.370458    22.154748    9441.4672    266.02383    495.08395    748.10305   -647.55796   -10.750902   -423.60279   -3750.2639 
 3114000    261.08636   -4218.9599   -3771.4669   -4218.9599            0    2839.8391    18.038773    23.429259     22.04748    9318.0387    1640.2172    2922.4908    3956.8094   -887.88952   -1909.7559    166.50482   -3385.5497 
 3115000    266.12516   -4240.3219   -3784.1925   -4240.3219            0    2264.4779    17.801343    23.698172     22.03082    9293.9065    3254.9837    1489.4753    2048.9746   -271.79831   -396.07066   -233.10793   -3477.2604 
 3116000    251.63801   -4259.4251   -3828.1262   -4259.4251            0    2216.0155    17.993274    23.520385    22.047361    9330.6355    1855.0583    1960.4307    2832.5575   -856.66713    280.19004    -520.4951   -3526.5758 
 3117000    249.07823   -4271.8993   -3844.9877   -4271.8993            0     438.9015    18.225197    23.448275    22.039789    9418.6913    476.31521   -473.87711    1314.2664   -173.92459    116.54779    339.77731   -3784.6993 
 3118000    253.14732   -4267.6391   -3833.7533   -4267.6391            0   -229.71688    18.257685    23.344846    22.190393    9458.0527   -510.57491    485.84854   -664.42426   -163.14161     -189.439   -74.673419   -3865.4395 
 3119000    255.18614   -4238.2746   -3800.8943   -4238.2746            0    2628.6204    18.153243    23.273793    22.037793    9310.8529    2192.3558    4698.1214    995.38386   -653.72663    573.58645   -314.57598    -3443.956 
 3120000    247.22029   -4244.7156   -3820.9885   -4244.7156            0    2224.5045    18.021978    23.472056    22.052256    9328.3883    3464.0088    2637.2822    572.22261   -1300.5564   -1076.0326   -203.31734   -3518.3558 
 3121000    259.55269    -4274.875   -3830.0106    -4274.875            0    2530.4078    17.966178    23.505328    22.181108    9367.1019    4027.3505    1852.1279    1711.7451   -110.51148   -1146.9648    488.74132   -3484.3327 
 3122000    260.82905    -4229.269   -3782.2169    -4229.269            0    1569.4809     18.12461     23.64547    21.940314    9402.8492    159.95892    3302.5306    1245.9532   -196.01671    202.57473    397.71723   -3566.9926 
 3123000    239.57811   -4251.9617    -3841.333   -4251.9617            0    1717.4108    17.847097     23.22483    22.407002    9287.6084    1951.1993    2622.4346    578.59846    627.56504   -599.44115   -127.17101   -3608.7093 
 3124000    259.13335   -4236.2054   -3792.0597   -4236.2054            0    1139.2475    18.187537    23.507382    21.985457    9399.6927    1054.0222    634.24871    1729.4716   -86.566032   -125.33713    223.15406   -3635.8861 
 3125000    282.46159   -4250.6304   -3766.5009   -4250.6304            0    -108.3433    18.153012    23.416283    22.130498    9407.1448   -1139.6907    337.95041     476.7104    786.33956     16.66303   -1239.1466   -3781.3649 
 3126000    259.41723   -4252.6784   -3808.0461   -4252.6784            0    2176.8236    17.986184    23.451889    22.111545    9326.8704    2112.1478    2788.1591    1630.1639   -771.76084   -671.87359   -694.77566   -3511.9484 
 3127000    255.57447   -4245.6763   -3807.6304   -4245.6763            0    637.33592    18.261854     23.60711    21.833192    9412.4983    -94.91138    1540.9778    465.94128   -87.111648    221.81065   -544.36746   -3720.1423 
 3128000    241.52755   -4223.9432   -3809.9732   -4223.9432            0    1902.2481     18.06885    23.265264    22.059744    9273.3994    1323.1226    1995.6044    2388.0173   -383.92144   -494.26852   -857.71044   -3552.7074 
 3129000    255.98411   -4226.3988   -3787.6508   -4226.3988            0    1886.8606     18.11417    23.506581    22.028484    9379.7771    2045.6745    694.69707    2920.2104    247.93265   -260.52037    -6.452697   -3529.5388 
 3130000    249.10627   -4267.9013   -3840.9416   -4267.9013            0    1638.1823    17.843577    23.796929    22.088356    9379.2094    1878.3098     1045.219    1991.0181   -321.93025     50.74533    700.43395    -3616.861 
 3131000    255.97206   -4285.0277   -3846.3003   -4285.0277            0    1307.5252      17.9478    23.527677    22.196966    9373.1139    2626.5084    965.24773    330.81961    43.986374    528.76782   -228.25304   -3667.5652 
 3132000    256.80064   -4216.8206   -3776.6731   -4216.8206            0    1372.0142    18.374807    23.224249    21.947306    9365.8174    1282.9913    2378.3446    454.70656    412.88868   -658.35339    459.76744   -3589.2685 
 3133000    259.38643   -4269.3514   -3824.7719   -4269.3514            0    663.09429    18.191778    23.236553    22.079007      9333.11    1571.9252    1465.2993   -1047.9415    496.54689   -646.23649    557.46163   -3734.5156 
 3134000    242.03864   -4255.2742   -3840.4282   -4255.2742            0    239.65277    18.051519    23.502219    22.105477    9378.2656     723.0652    496.02742   -500.13432    215.59923   -626.65317    -20.96194   -3807.6503 
 3135000    245.83455   -4270.3646   -3849.0126   -4270.3646            0    708.19053    17.997824      23.7659    21.878069    9358.0045    621.50512   -297.05432    1800.1208   -338.57927   -445.64972   -705.94118    -3752.361 
 3136000    255.93429   -4245.9336    -3807.271   -4245.9336            0    1135.5752      17.9191    23.527107    22.246892    9378.9467    1972.2714    147.10792    1287.3462   -890.22059   -589.71901   -450.41851   -3651.9444 
 3137000    243.16489   -4245.8772   -3829.1009   -4245.8772            0    1859.3933    18.094847     23.49402    21.994736    9350.4179    662.54668     2378.038    2537.5953   -36.148784    -361.7893    280.85331   -3575.5424 
 3138000    252.21778   -4247.6551   -3815.3625   -4247.6551            0    1043.3953    18.211126    23.383415    22.086111    9405.1124    763.96923    2886.7432   -520.52652   -779.25226   -106.08061   -407.89416   -3672.2463 
 3139000    234.73544   -4264.8207   -3862.4921   -4264.8207            0    1685.8479     18.17286    23.321438    22.035755    9339.1327     1569.863     1443.984    2043.6966   -1306.2303   -274.07082     676.6718   -3632.8768 
 3140000    259.58161   -4253.6436   -3808.7296   -4253.6436            0    2481.4379    18.090383    23.421691    21.967217    9307.6711      1638.07    3248.9092    2557.3345    596.26701    1222.3299   -892.11086   -3471.8922 
 3141000    255.16457   -4278.7216   -3841.3782   -4278.7216            0    242.95284    18.047071     23.49817    22.286526    9451.1172    1103.5755    45.396658   -420.11363   -666.50951   -139.93529   -299.86741   -3807.8908 
 3142000    246.25223    -4249.325   -3827.2571    -4249.325            0    1229.9031    18.103787    23.460849    22.051458    9365.9201     3157.485     1093.441   -561.21662    567.60684   -127.85506    843.61722   -3659.2618 
 3143000    255.05186   -4268.0019   -3830.8518   -4268.0019            0    1450.4377    18.269875    23.549223    21.841204    9396.9894   -390.72283    1962.8736    2779.1622    174.36876    448.65623   -207.59199   -3632.0759 
 3144000    241.07888   -4235.5675   -3822.3665   -4235.5675            0    795.26327    17.856275     23.52206    22.351822    9388.1313    1991.8201    1269.2164   -875.24663   -263.41523    188.11074    1165.9153   -3713.4821 
 3145000    258.02624   -4228.1284   -3785.8803   -4228.1284            0    1265.0357    18.042185    23.759411    21.986071    9424.8059    1845.4431    1361.8017     587.8623   -253.12207      606.029    375.58039   -3611.9997 
 3146000    243.63404   -4251.4194    -3833.839   -4251.4194            0    1621.9265    18.027072    23.407824    22.189648    9363.4664    811.11112    2648.4423     1406.226    128.17481    208.86367    54.564727   -3612.3543 
 3147000    248.21345   -4275.2203    -3849.791   -4275.2203            0    1532.2863    18.125898    23.234741     22.26277    9375.9777    3116.4441    1425.9102      54.5045    553.57753    23.685307    667.30639   -3640.2677 
 3148000    243.37666   -4264.2747   -3847.1354   -4264.2747            0    1286.3333    18.141047     23.48855    21.997683    9373.3644    404.29149    2578.4841    876.22425    50.594437    18.603299    1024.0104   -3671.2925 
 3149000    275.09358   -4241.6951   -3770.1942   -4241.6951            0    1225.0201    18.027698    23.638277    21.998843     9374.669    1610.1151    885.19197    1179.7532    -384.6395    354.28199   -571.30033   -3602.7095 
 3150000    247.47787   -4246.1052   -3821.9366   -4246.1052            0    1870.3652    17.942531    23.446187    22.251815     9360.981    1624.2768    2288.6889    1698.1298    884.80497   -9.9860697    -607.3666   -3566.5938 
 3151000    243.99236   -4201.5095    -3783.315   -4201.5095            0    2269.4935    18.181239    23.352514    21.899839    9298.1821    995.04116    3527.4573    2285.9821    209.62082   -282.02582    743.84828   -3475.5616 
 3152000    241.30462   -4254.0912   -3840.5033   -4254.0912            0    1753.2837    18.221522    23.181248    22.111963    9340.0406    1429.2925    2401.3944    1429.1642    574.98315    863.29506   -67.692496     -3601.68 
 3153000    252.04551   -4231.5752   -3799.5778   -4231.5752            0    247.10796    18.160167    23.455688    22.098208    9412.9353    639.32212    524.99635   -422.99459   -442.51902    142.68056   -567.28055   -3765.6553 
 3154000    240.75525   -4248.5869   -3835.9406   -4248.5869            0    1909.6159    17.708568    23.835744     21.97088    9273.8403    1799.3007     1108.502     2821.045    396.11641   -252.93508    225.78162   -3577.6661 
 3155000    250.14175   -4246.8518   -3818.1174   -4246.8518            0    612.64209    17.931825    23.681345    22.219042    9435.3102    1782.8802    1096.2437   -1041.1977   -582.86845    13.988627   -372.00102   -3733.8152 
 3156000     237.6996   -4265.8563   -3858.4473   -4265.8563            0    3314.5828    17.979311    23.415084    22.007759     9264.982    2746.9098    3889.4245    3307.4142    224.64387    64.321693    551.90201     -3410.58 
 3157000    250.49205   -4252.4205   -3823.0857   -4252.4205            0     107.8694    18.176498    23.447517    22.129269    9431.3562    184.82041    124.43558    14.352218    242.61857    169.65272    1491.7881   -3808.2486 
 3158000    264.41147   -4284.7105   -3831.5182   -4284.7105            0    2442.3521    18.091065    23.345436    22.089272     9329.267    1636.5983    3815.3489    1875.1091   -1254.9826    -39.80036   -171.49201   -3499.2172 
 3159000    255.20243   -4259.8877   -3822.4795   -4259.8877            0    1862.9079    18.041718    23.641747    22.022732    9393.5258    3479.2364    1978.1485    131.33882    1120.2511    654.68412   -160.28904   -3567.2705 
 3160000    262.35852   -4235.5108   -3785.8373   -4235.5108            0    2901.2641    18.001454    23.421727    22.083077    9310.7806    4123.8337    3027.0401    1552.9184   -192.98821   -540.51021   -129.50742   -3391.8799 
 3161000    250.27237   -4277.5186   -3848.5603   -4277.5186            0     2019.706    18.282393    23.235536    21.995188     9343.582    1081.4462    2254.0814    2723.5904   -722.43113   -580.42873    563.58515   -3573.3419 
 3162000    246.32879   -4255.0737   -3832.8746   -4255.0737            0    949.46158    18.198684    23.476582      22.0651    9427.1575     55.17266    1424.5604    1368.6516   -801.48759   -662.34338    254.67167   -3702.3374 
 3163000    249.49506   -4234.2732   -3806.6472   -4234.2732            0    1135.9516     18.00272    23.477481    22.163605    9367.6364    674.15897     192.2237    2541.4721   -41.501668    427.37278   -562.76997   -3651.4565 
 3164000    242.15678   -4239.9555    -3824.907   -4239.9555            0    1080.3917    18.006138    23.809174    21.919063    9396.9495    1603.5602    228.30821    1409.3067   -202.72166   -459.90244    371.81057   -3676.8449 
 3165000     257.9572   -4262.7794   -3820.6496   -4262.7794            0    390.52651    17.978217    23.591263    22.114239    9379.2864    382.02183    66.111576    723.44613   -314.28899   -269.41575   -450.83618   -3767.2306 
 3166000    251.54527   -4231.3625   -3800.2225   -4231.3625            0    2713.7847    17.956633    23.375808    22.111197    9281.1928    2238.2432    2398.7766    3504.3344   -478.98251    339.95014    1465.4121   -3432.8936 
 3167000    247.90901   -4270.8383   -3845.9307   -4270.8383            0   -2.9110178    18.332065    23.367941    22.047788    9444.8887    37.218312     1109.283   -1155.2343     86.05276    43.529268    373.99838   -3846.3317 
 3168000    263.35876   -4219.7757   -3768.3878   -4219.7757            0   -95.695949    18.223054    23.417284    22.090771    9426.8926    -1181.794    573.42843    321.27776   -399.69011    201.15235    160.79381   -3781.5442 
 3169000    258.67404   -4220.4415   -3777.0831   -4220.4415            0    71.061561    18.017174    23.463362    22.391672     9465.933    2093.4992    465.21585   -2345.5304    293.46396   -941.20835   -29.458083    -3767.273 
 3170000    258.60808   -4254.5939   -3811.3485   -4254.5939            0    842.02688    17.924322    23.626476    22.103865    9360.7339    1399.9604   -51.787708    1177.9079    815.43759     355.3647    1411.2951   -3696.3978 
 3171000    253.12025   -4255.5071   -3821.6677   -4255.5071            0   -37.518933    17.941766    23.788948    22.120925    9441.5589    217.45859   -705.62729     375.6119   -199.80376   -160.15035    324.63567   -3826.8339 
 3172000    259.17445    -4271.219   -3827.0028    -4271.219            0    561.80839    18.092998    23.350391    22.183763    9372.1648    1249.4874    114.40545    321.53234    576.54615   -451.41451   -732.40085   -3750.2129 
 3173000     245.3904   -4241.2461   -3820.6553   -4241.2461            0    126.80871    18.222306     23.42426    22.017789    9398.1617   -920.47306    713.83449    587.06469   -89.592178    185.03533    26.132307   -3803.2746 
 3174000    252.42844   -4267.8167    -3835.163   -4267.8167            0    716.93382    18.119125    23.486343     22.10013    9404.7541    1315.7523    1168.5593   -333.51022     454.9138    309.90222   -896.14019   -3736.8293 
 3175000    261.80484   -4254.1576   -3805.4331   -4254.1576            0   -186.30695    18.043987    23.590842    22.152581    9429.7522    436.38904    465.55985   -1460.8698    226.62177    864.65785    76.359647   -3831.0546 
 3176000    244.72142   -4250.3623   -3830.9181   -4250.3623            0    842.47965    17.816776    23.680625    22.089072    9319.6532    947.37097    655.06231    925.00566   -220.31269   -14.373669    863.90413   -3716.4103 
 3177000    259.13187   -4228.0811   -3783.9379   -4228.0811            0    993.01991    17.999887    23.706697     21.96054    9370.9552    847.13605    1556.8062    575.11746    189.49558   -426.30681    447.63946   -3648.2261 
 3178000    254.31636   -4236.2359   -3800.3464   -4236.2359            0    661.28583    18.163576    23.384027    22.195055    9427.0731    2124.9885    928.78376   -1069.9148    204.23433    988.30005    560.20503   -3709.4301 
 3179000    259.16328   -4256.0296   -3811.8326   -4256.0296            0     2759.866    18.162635    23.233652    21.983669    9276.7643    3387.2385    3593.8834    1298.4762   -158.69073    673.39664    26.177411   -3438.4445 
 3180000    245.16287   -4243.9567    -3823.756   -4243.9567            0    1315.9076    18.109707    23.618234    22.032094    9423.5518    1977.6631    99.544878    1870.5148    -37.27667   -1102.9805    118.98804   -3642.9071 
 3181000    267.03864   -4262.8356   -3805.1405   -4262.8356            0    1461.4976    18.102573     23.48611    22.003402    9354.9452    1825.8521   -140.87377    2699.5146   -80.657045   -193.36526    719.89962    -3605.745 
 3182000    256.11755   -4215.5378   -3776.5611   -4215.5378            0     2064.563    18.058701     23.30584    22.045915    9278.5351    2563.9593    1559.0249    2070.7049    185.12907   -651.91585    190.29626   -3497.1887 
 3183000    245.35417   -4250.8802   -3830.3516   -4250.8802            0    2624.5367    17.953508    23.421455      22.1548    9316.0333    2607.5828     3197.937    2068.0903   -570.43245   -164.78768    366.73028   -3473.7694 
 3184000    246.34664   -4256.0029   -3833.7732   -4256.0029            0    950.47627    18.094017    23.824447    21.884635    9434.0277    733.35766    856.36388    1261.7073    122.29441    -276.3503    1036.4526   -3703.0014 
 3185000    252.96958   -4224.5041   -3790.9229   -4224.5041            0    2836.7935    18.156269     23.48003    21.981565    9370.9555    2871.7079    1951.6798     3686.993   -815.62289    78.540768    761.31694   -3403.2304 
 3186000    262.54119    -4239.234   -3789.2474    -4239.234            0   -41.389062    18.031702    23.298675    22.529817    9465.1087     720.7192    511.59766    -1356.484    -1249.415    145.39798     378.1753   -3794.9607 
 3187000    252.67273   -4259.1787   -3826.1063   -4259.1787            0    620.89654    18.178926    23.616583    21.944019     9421.097    196.38931    570.01814    1096.2822   -436.25656   -40.780338    107.65748    -3740.797 
 3188000    270.53833   -4247.4171   -3783.7236   -4247.4171            0    2132.2268    17.995131    23.620803      22.0428    9369.4999    962.85432    3558.5727    1875.2534    436.96446    177.94083    -151.9474   -3492.3665 
 3189000    246.04356   -4261.4744   -3839.7641   -4261.4744            0    1234.7734    17.889479    23.517253    22.322901    9391.4988     1607.774   -190.80241    2287.3485    507.72546    166.39075    653.43859   -3670.6429 
 3190000    267.42797   -4224.8329   -3766.4705   -4224.8329            0    2137.0768    18.161171    23.414815    21.818059    9277.9213    2149.9346    728.20719    3533.0884   -206.95565    1065.4939   -155.80186   -3477.3049 
 3191000    261.88814   -4255.1157   -3806.2484   -4255.1157            0     653.0923     18.21798     23.37297    22.092973     9407.371    61.355162    1475.6163    422.30545   -637.25064    157.90727    26.922148   -3716.6462 
 3192000    260.42719   -4244.6897   -3798.3265   -4244.6897            0    2189.1862    17.960004    23.157133    22.417914    9323.6595    2369.3994    3880.8311    317.32826   -281.71832   -285.08126    1296.1576   -3500.6496 
 3193000    262.03447   -4251.3585   -3802.2404   -4251.3585            0    1607.7202    18.091941    23.497971    21.957934    9334.8425    1444.5179    570.96676    2807.6761    -234.4044     70.07974    395.31334   -3583.3668 
 3194000    264.35257   -4243.2195   -3790.1283   -4243.2195            0     1599.986    17.976273      23.6241    22.080451    9376.9774    1370.2445    795.15475    2634.5588   -309.16907   -411.63128    241.57247   -3571.3244 
 3195000      262.778   -4268.2957   -3817.9032   -4268.2957            0    756.18789    17.883641    23.654856    22.134767      9363.78    1558.2872    1253.4349   -543.15841   -162.89086   -57.417983    279.85573   -3714.6374 
 3196000    256.77088   -4248.4267   -3808.3302   -4248.4267            0    2443.7179    18.049913    23.512735    21.944634    9313.3644    2601.9588    1505.3528     3223.842   -2344.1303    95.907705   -765.23304   -3476.4101 
 3197000    246.04466   -4224.6048   -3802.8927   -4224.6048            0    1510.6963    18.136948    23.387332    22.129425    9386.7452    1753.9508    1204.3834    1573.7546   -578.07394    775.57636    163.60028   -3596.0843 
 3198000    258.79307   -4241.4941   -3797.9316   -4241.4941            0    3158.2528    18.209202    23.176625    21.973621    9273.4794    2536.4498    2617.4639    4320.8448    409.68321   -127.85893    570.50368   -3370.7963 
 3199000    259.63102   -4236.9709   -3791.9723   -4236.9709            0    1459.9711     18.09942    23.515917    21.953522     9343.956   -577.31934    1473.9374    3483.2952   -272.48671   -656.96331    525.64401   -3593.0191 
 3200000    265.87956   -4278.1545    -3822.446   -4278.1545            0    1829.1038    17.853403    23.558952    22.250852    9358.8748    2592.9081    1738.7801    1155.6231   -348.14201   -621.64606    139.18756   -3572.7924 
 3201000    253.47183    -4241.854    -3807.412    -4241.854            0    1199.4563    17.988031    23.582914     22.12073    9383.8388    1895.3611    910.58412    792.42365     738.7691   -8.8438762   -699.89877    -3643.262 
 3202000    248.87552   -4227.6406   -3801.0765   -4227.6406            0    2246.6595    18.120093    23.509601    21.927095    9340.8583    1759.1739    1467.1228    3513.6819    798.08309   -292.94304    -564.2118   -3495.0211 
 3203000    250.50424   -4263.4773   -3834.1216   -4263.4773            0    1134.2333    18.284439     23.10086     22.20973    9381.0848   -29.112763    1464.0915    1967.7211    -507.8706     43.59282     226.8923   -3678.9432 
 3204000    239.43748   -4241.2193   -3830.8317   -4241.2193            0    1516.3809    18.179565    23.410095    22.093375    9402.6167    2733.8184    1283.0348    532.28956   -348.08053   -68.509411    26.433008   -3622.8941 
 3205000    254.80115   -4283.9362   -3847.2157   -4283.9362            0    182.15856    18.011283    23.590822    22.217854    9440.3876    640.72499   -51.816798   -42.432505    144.92974    300.27633    436.92214   -3822.1364 
 3206000    250.82908   -4265.0159   -3835.1035   -4265.0159            0    1504.5427    17.929085    23.780394    21.922861    9347.0463    341.78408    426.63257    3745.2115    571.84746    523.58332    334.77268   -3630.0086 
 3207000    251.16051   -4252.2526   -3821.7721   -4252.2526            0    2060.2235    18.015414    23.361768    22.079067     9292.459    1303.5328    1741.2885    3135.8492    587.71474    -682.8123    98.771963   -3542.5686 
 3208000    253.19348   -4227.9106   -3793.9456   -4227.9106            0    1412.2316    18.142077    23.495342    22.005666    9380.0097    1702.3475    1351.2886    1183.0585     773.2871    278.65738    -234.6282   -3600.7554 
 3209000    258.32795   -4263.0249   -3820.2596   -4263.0249            0    967.39251    18.142631    23.442837    21.962596    9341.0163      140.559    1171.6317    1589.9869   -1801.3392     195.0462    584.00592   -3688.4726 
 3210000    270.30491   -4243.2735   -3779.9801   -4243.2735            0   -470.19433    18.153765     23.17055    22.594512    9503.9912    1229.1168   -652.53871    -1987.161    603.55483   -125.99885   -571.38613   -3845.1519 
 3211000    252.49975   -4255.7364   -3822.9605   -4255.7364            0   -157.48931    18.115795     23.70661    21.936214     9420.816   -119.64682   -1895.3552    1542.5341    -846.1815    663.93534    116.87357   -3844.5984 
 3212000    257.13925   -4251.7843   -3811.0564   -4251.7843            0    1949.1334    17.948224    23.512109    22.053205    9306.4658    2315.5009    2075.0215    1456.8777    324.69048    207.53598   -1572.1876   -3546.5098 
 3213000    263.59806   -4245.0768   -3793.2788   -4245.0768            0    71.965071    18.210382    23.338448     22.20132    9435.6068    369.63148    37.528913   -191.26518   -236.32988    152.68751   -239.40128   -3783.3758 
 3214000    256.02852   -4256.3468   -3817.5227   -4256.3468            0    1436.3502    18.234021    23.362153    21.958632    9354.0696    1754.9423    1971.3921    582.71623    -1012.657   -687.06407    491.51025   -3621.5765 
 3215000    249.99145   -4293.3783   -3864.9015   -4293.3783            0    2727.9318    17.871829    23.298736    22.159063    9226.8354    3137.0489     2655.838    2390.9086    33.675995    306.05823   -61.940475   -3497.8202 
 3216000     245.1822   -4252.4464   -3832.2125   -4252.4464            0   -21.474762    18.098933    23.722438    22.002651    9446.8563   -366.56867   -382.17007    684.31445    217.21899    409.01978   -34.228478   -3835.1711 
 3217000    240.85199   -4253.6316   -3840.8196   -4253.6316            0    1942.2424    18.131756    23.521144    21.958461    9364.8364    1692.7804    2569.4387    1564.5082   -1006.3725    -538.9001   -505.99349   -3575.5548 
 3218000    248.77657   -4237.1057   -3810.7112   -4237.1057            0    968.57979    18.094085    23.357123    22.168617    9369.0289    1503.2052    2069.6247   -667.09053   -1013.5107   -1101.4503    230.57637   -3678.3667 
 3219000    262.62938   -4239.2866   -3789.1488   -4239.2866            0    1937.6009    18.140933    23.339004    21.959219    9297.3428     2722.674    3389.6426   -299.51388   -1267.7611    494.59199   -99.259993   -3526.4253 
 3220000    237.94738   -4247.3277   -3839.4941   -4247.3277            0    16.685839    18.119767    23.563337    22.199611    9478.3942    1419.0353   -585.94576   -783.03203    399.84311     263.7776    -88.33747   -3837.1875 
 3221000    259.69416   -4256.7863   -3811.6794   -4256.7863            0    1317.7048    17.979352    23.621267    22.098359    9385.0643    2013.0502    1121.4784    818.58578    902.24801    -221.2548    577.31501   -3631.3231 
 3222000    254.68239   -4265.0293   -3828.5124   -4265.0293            0    1197.7495    18.044039    23.577209    22.059997    9384.9425    356.16049    2707.0644     530.0236   -442.35552   -631.81175      413.348   -3664.5767 
 3223000     243.8516   -4246.9448   -3828.9915   -4246.9448            0    1433.9442    18.038691    23.297394    22.346715    9391.3077    1992.0003     1100.398    1209.4344   -144.84894    719.68772    902.61241   -3632.5948 
 3224000    255.12173   -4248.7896   -3811.5197   -4248.7896            0    1806.8419     18.26632    23.205193    21.989156    9320.6197     1849.697    2519.1647     1051.664   -230.41153     -473.141    26.010958   -3565.9127 
 3225000    254.59498   -4269.1392   -3832.7722   -4269.1392            0    1104.0318    18.172972    23.447518    21.999883    9374.3942    2089.0859    1968.2338   -745.22423   -848.73531   -419.25915    275.58084   -3681.8334 
 3226000    255.22748   -4248.8951    -3811.444   -4248.8951            0    672.03578    17.935319    23.388566    22.420897    9405.1493    2146.1791     276.8111   -406.88283   -1182.4716    -523.2278    174.61622   -3719.2645 
 3227000    263.03401   -4205.8441   -3755.0128   -4205.8441            0    1086.1208    18.018242    23.573611     22.06597    9372.6321    637.47349    1917.4472    703.44183   -1723.3419   -530.41555    396.88478   -3606.5507 
 3228000    261.61682   -4235.6443   -3787.2421   -4235.6443            0    1625.9146    17.934919    23.697497    21.942907    9326.0138    1805.6947    1939.5666    1132.4824    154.67669    730.82689    283.75181   -3566.1009 
 3229000    260.24357   -4246.4476    -3800.399   -4246.4476            0     1473.526    17.952801    23.506063    22.191383    9364.7565    447.45543    491.38477    3481.7379   -542.66859   -86.353675   -613.92968   -3599.1517 
 3230000    258.94538   -4219.1244   -3775.3009   -4219.1244            0    1202.2605    18.127344    23.453614    22.080465    9387.5481    1427.7224    796.54596    1382.5133    1521.0827    176.75052    72.298587   -3610.7021 
 3231000     265.3368   -4249.7133   -3794.9352   -4249.7133            0    748.91544    18.382372    23.306406     21.99154    9421.7697    996.27756     1216.078    34.390715    1154.4031   -659.45185    401.97798    -3692.029 
 3232000    255.55941   -4244.3449   -3806.3248   -4244.3449            0    1000.6568    18.124938     23.34902    22.210874    9399.6314    1979.3583    1160.9841   -138.37198   -868.58091   -192.01419    532.18688   -3669.1508 
 3233000    247.84743    -4255.103    -3830.301    -4255.103            0    2346.0652    17.923975    23.540486    22.132839    9338.7097    3060.6005    2688.9297    1288.6654   -1402.1297    135.30149    926.12647   -3510.7775 
 3234000    265.92877   -4240.0288    -3784.236   -4240.0288            0    1276.1014    17.977884     23.51239    22.130605    9354.6736     2078.651    1162.2207     587.4325    309.39764   -359.86884    616.96431   -3610.1396 
 3235000    240.32585   -4245.1039   -3833.1936   -4245.1039            0    1268.5605    18.056379    23.343257    22.226231    9368.2385    1274.9016    910.43455    1620.3455    492.57627     373.4726    78.511783   -3659.8751 
 3236000    255.32528   -4246.7775   -3809.1587   -4246.7775            0    1012.3024    18.415204    23.231488    21.971069    9399.4996    119.23795    1708.6065    1209.0627   -102.06645    -621.9592   -59.645465   -3670.3902 
 3237000    262.61945   -4265.5275   -3815.4068   -4265.5275            0    511.50537    18.173914    23.293604    22.242376    9415.9976    105.59408    1391.8406    37.081406   -343.05241   -84.326024    -370.6171   -3745.1655 
 3238000    262.03356   -4245.2026    -3796.086   -4245.2026            0    616.06013    18.108038    23.506371    22.067871    9393.2834    393.53728    717.78464    736.85848    -934.2038    362.52126    -339.0522    -3711.691 
 3239000    260.46237   -4254.4931   -3808.0695   -4254.4931            0    571.83936    18.034491    23.737949    21.970138    9405.4564    1154.5498   -147.86685     708.8351   -26.869236   -472.72532   -821.04283   -3729.6309 
 3240000    253.11693   -4244.0099   -3810.1761   -4244.0099            0    2362.3548    17.920452    23.507052    22.290248    9389.9229    4395.4321    235.84106    2455.7913   -701.27297    508.32317    -408.1727   -3486.6696 
 3241000    250.93963   -4269.3556   -3839.2537   -4269.3556            0    1425.2047    18.260684    23.577986    21.763066    9370.0914    529.52879    1457.8676    2288.2178    1097.8199   -1151.9617    386.36603   -3644.4949 
 3242000    253.29274   -4247.7107   -3813.5756   -4247.7107            0    658.38885    18.142374     23.35374    22.264303    9433.2135    1378.1355     1404.553   -807.52192   -541.69756     524.1454   -714.28243   -3722.9986 
 3243000    267.42181   -4242.3852   -3784.0334   -4242.3852            0     2172.789    17.972255    23.230106    22.379386     9343.335    2345.2981    2836.8275    1336.2415   -310.96299    783.11747   -666.73057   -3487.9628 
 3244000    248.22195   -4228.0994   -3802.6554   -4228.0994            0    1651.0647    18.132199    23.676974    21.805264    9361.3405    1363.7671     741.5824    2847.8445   -241.82851   -81.590981    515.72048   -3577.2429 
 3245000    259.50047   -4222.7583   -3777.9834   -4222.7583            0    2476.4096    17.905648    23.556955    22.124337    9332.1018    2158.6362    3088.4095     2182.183    2.5783935    459.76292    360.74379   -3440.9462 
 3246000    250.04154   -4240.8258   -3812.2632   -4240.8258            0    -54.76566    18.022265    23.642701    22.124693    9427.2217    325.80544    617.19523   -1107.2977    266.53917   -299.82141    136.66935   -3819.7927 
 3247000    241.51938   -4234.4365   -3820.4805   -4234.4365            0   -388.25161    18.233644    23.570902    22.031833    9468.9166    665.81673   -643.77857    -1186.793    429.90826   -814.28227     -410.942   -3874.0959 
 3248000    257.01504   -4225.5188   -3785.0038   -4225.5188            0    191.84643    18.275602    23.274577    22.106933    9403.3365    656.80498    508.66409   -589.92979     426.0299   -40.124239    774.11634   -3758.6943 
 3249000    249.68402   -4267.1975   -3839.2476   -4267.1975            0    857.57844    18.082853    23.423557    22.119693    9369.1223     845.3494    2024.7821    -297.3962    756.59616    287.66744    107.74378   -3722.0689 
 3250000    252.85969   -4201.8827   -3768.4898   -4201.8827            0   -253.33838    18.076122    23.711721    22.156814    9496.7642    171.54006    401.39769   -1332.9529    380.85243   -961.94462   -177.60661   -3803.5773 
Loop time of 413.775 on 64 procs for 250000 steps with 864 atoms

Performance: 104.405 ns/day, 0.230 hours/ns, 604.193 timesteps/s
191.1% CPU use with 32 MPI tasks x 2 OpenMP threads

MPI task timing breakdown:
Section |  min time  |  avg time  |  max time  |%varavg| %total
---------------------------------------------------------------
Pair    | 17.307     | 24.717     | 32.488     |  99.4 |  5.97
Bond    | 0.81892    | 1.0328     | 1.435      |  11.8 |  0.25
Kspace  | 203.37     | 213.58     | 224.3      |  41.9 | 51.62
Neigh   | 1.7265     | 1.8947     | 2.1088     |   7.9 |  0.46
Comm    | 67.349     | 72.052     | 78.013     |  28.6 | 17.41
Output  | 0.52685    | 0.52711    | 0.52845    |   0.0 |  0.13
Modify  | 72.187     | 76.167     | 79.289     |  17.4 | 18.41
Other   |            | 23.8       |            |       |  5.75

Nlocal:        27.0000 ave          38 max          17 min
Histogram: 5 4 4 2 3 2 1 2 6 3
Nghost:        2084.22 ave        2185 max        1981 min
Histogram: 5 11 0 0 0 0 0 2 5 9
Neighs:        6414.38 ave        9105 max        4098 min
Histogram: 3 5 5 1 6 0 1 5 3 3

Total # of neighbors = 205260
Ave neighs/atom = 237.56944
Ave special neighs/atom = 2.0000000
Neighbor list builds = 6172
Dangerous builds = 0

unfix		3
unfix		2
unfix		1

write_data	data.final.${pid} nocoeff
write_data	data.final.0 nocoeff
System init for write_data ...
PPPM initialization ...
  extracting TIP4P info from pair style
  using 12-bit tables for long-range coulomb (../kspace.cpp:340)
  G vector (1/distance) = 0.3710043
  grid = 24 27 25
  stencil order = 5
  estimated absolute RMS force accuracy = 0.0032411324
  estimated relative force accuracy = 9.7605738e-06
  using double precision FFTW3
  3d grid and FFT values/proc = 4410 672
Last active /omp style is kspace_style pppm/tip4p/omp

write_restart   restart.lmp.${pid}
write_restart   restart.lmp.0
System init for write_restart ...
PPPM initialization ...
  extracting TIP4P info from pair style
  using 12-bit tables for long-range coulomb (../kspace.cpp:340)
  G vector (1/distance) = 0.3710043
  grid = 24 27 25
  stencil order = 5
  estimated absolute RMS force accuracy = 0.0032411324
  estimated relative force accuracy = 9.7605738e-06
  using double precision FFTW3
  3d grid and FFT values/proc = 4410 672
Last active /omp style is kspace_style pppm/tip4p/omp
Total wall time: 0:06:53
