#include		in.partitions
include		in.temp
variable        temperature equal 93.97
variable	tempDamp equal 100.0
include		in.pressure
variable        pressure equal 6899.0
variable        pressureDamp equal 1000.0 # This is 1 ps
include		in.seed
variable        seed equal 745823

units		real
atom_style	full
read_restart    restart.lmp.${pid}
read_restart    restart.lmp.0
Reading restart file ...
  restart file = 30 Jul 2021, LAMMPS = 30 Jul 2021
  restoring atom style full from restart
  triclinic box = (-3.0947783 -0.10833451 0.040166410) to (14.704777 22.688334 19.189832) with tilt (0.10896816 -6.4623482 0.064242129)
  2 by 4 by 4 MPI processor grid
  restoring pair style lj/cut/tip4p/long/omp from restart
  restoring bond style harmonic/omp from restart
  restoring angle style harmonic/omp from restart
  1008 atoms
  672 bonds
  336 angles
Finding 1-2 1-3 1-4 neighbors ...
  special bond factors lj:    0        0        0       
  special bond factors coul:  0        0        0       
     2 = max # of 1-2 neighbors
     1 = max # of 1-3 neighbors
     1 = max # of 1-4 neighbors
     2 = max # of special neighbors
  special bonds CPU = 0.002 seconds
  read_restart CPU = 0.006 seconds

include 	in.setup
variable	out_freq equal 1000
variable	out_freq2 equal 10000
variable	out_freq3 equal 1000

timestep	2.0

neigh_modify    delay 7 every 1

include		in.tip4p
# This is TIP4P/Ice

# create groups ###
group ox type 2
336 atoms in group ox
group hy type 1
672 atoms in group hy

# set charges - beside manually ###
set group ox charge -1.1794
Setting atom values ...
  336 settings made for charge
set group hy charge 0.5897
Setting atom values ...
  672 settings made for charge

# ### TIP3P Potential Parameters ###
pair_style lj/cut/tip4p/long/omp 2 1 1 1 0.1577 8.5
pair_coeff 1 1*2 0.000 0.000
pair_coeff 2 2 0.21084 3.1668
bond_style  harmonic
bond_coeff  1 450 0.9572
angle_style harmonic
angle_coeff 1 55 104.52
kspace_style pppm/tip4p/omp 1.0e-5
pair_modify tail yes

thermo          ${out_freq}
thermo          1000
thermo_style    custom step temp pe etotal epair emol press lx ly lz vol pxx pyy pzz pxy pxz pyz enthalpy

restart 	${out_freq3} restart.lmp.${pid} restart2.lmp.${pid}
restart 	1000 restart.lmp.${pid} restart2.lmp.${pid}
restart 	1000 restart.lmp.0 restart2.lmp.${pid}
restart 	1000 restart.lmp.0 restart2.lmp.0


include         in.dump
dump            myDump all atom ${out_freq2} dump.water.${pid}
dump            myDump all atom 10000 dump.water.${pid}
dump            myDump all atom 10000 dump.water.0
dump            myDump2 all dcd ${out_freq2} dump.dcd
dump            myDump2 all dcd 10000 dump.dcd
dump_modify     myDump append yes
dump_modify     myDump2 append yes


variable natoms 	equal  "count(all)"                        # NUMBER ATOMS
variable H      	equal  "enthalpy/v_natoms"                 # ENTHALPY-per-atom
variable Vol      	equal  "vol/v_natoms"                 # volume-per-atom
fix AVG all 		ave/time ${out_freq} 1 ${out_freq} v_Vol v_H file vol_enthalpy.dat
fix AVG all 		ave/time 1000 1 ${out_freq} v_Vol v_H file vol_enthalpy.dat
fix AVG all 		ave/time 1000 1 1000 v_Vol v_H file vol_enthalpy.dat



fix 		1 all shake 1e-6 200 0 b 1 a 1
       0 = # of size 2 clusters
       0 = # of size 3 clusters
       0 = # of size 4 clusters
     336 = # of frozen angles
  find clusters CPU = 0.002 seconds
fix             2 all nph tri ${pressure} ${pressure} ${pressureDamp}
fix             2 all nph tri 6899 ${pressure} ${pressureDamp}
fix             2 all nph tri 6899 6899 ${pressureDamp}
fix             2 all nph tri 6899 6899 1000
fix             3 all temp/csvr ${temperature} ${temperature} ${tempDamp} ${seed}
fix             3 all temp/csvr 93.97 ${temperature} ${tempDamp} ${seed}
fix             3 all temp/csvr 93.97 93.97 ${tempDamp} ${seed}
fix             3 all temp/csvr 93.97 93.97 100 ${seed}
fix             3 all temp/csvr 93.97 93.97 100 745823


run             250000
PPPM initialization ...
  extracting TIP4P info from pair style
  using 12-bit tables for long-range coulomb (../kspace.cpp:340)
  G vector (1/distance) = 0.37895514
  grid = 24 27 32
  stencil order = 5
  estimated absolute RMS force accuracy = 0.0025169467
  estimated relative force accuracy = 7.5797104e-06
  using double precision FFTW3
  3d grid and FFT values/proc = 5355 672
Last active /omp style is kspace_style pppm/tip4p/omp
Neighbor list info ...
  update every 1 steps, delay 7 steps, check yes
  max neighbors/atom: 2000, page size: 100000
  master list distance cutoff = 10.8154
  ghost atom cutoff = 10.8154
  binsize = 5.4077, bins = 5 5 4
  1 neighbor lists, perpetual/occasional/extra = 1 0 0
  (1) pair lj/cut/tip4p/long/omp, perpetual
      attributes: half, newton on, omp
      pair build: half/bin/newton/tri/omp
      stencil: half/bin/3d/tri
      bin: standard
Per MPI rank memory allocation (min/avg/max) = 10.31 | 10.32 | 10.33 Mbytes
Step Temp PotEng TotEng E_pair E_mol Press Lx Ly Lz Volume Pxx Pyy Pzz Pxy Pxz Pyz Enthalpy 
33500000    99.134068   -5185.3594   -4987.0791   -5185.3594            0    6664.7717    17.799556    22.796668    19.149665    7770.3704    6149.5102    7146.3387    6698.4663    -1198.557   -13.013679   -196.68958   -4231.8079 
33501000     91.97461   -5192.8288   -5008.8682   -5192.8288            0    7251.5049     17.86774    22.741179    19.073977    7750.3954    6949.2693      6894.66    7910.5853    577.94001   -538.06822    1027.3213   -4189.2193 
33502000    93.845246   -5193.4946   -5005.7925   -5193.4946            0    7701.9002    17.892357    22.573701    19.185282    7748.8722    7019.6662    8176.9993    7909.0351   -369.22312    731.74519   -382.22125   -4135.4058 
33503000    94.401606   -5200.1411   -5011.3262   -5200.1411            0    6020.9005    17.871399    22.624027    19.219735    7770.9812     5076.492    6267.5422    6718.6675    75.504268   -151.90127   -90.359336   -4328.9667 
33504000    92.790638   -5205.9369   -5020.3442   -5205.9369            0    7565.1641    17.712354    22.812199    19.124143    7727.2579    8204.7604    7318.7483    7171.9836   -1749.8426    240.52057    -2245.967   -4167.7946 
33505000    92.236184    -5195.811   -5011.3273    -5195.811            0     6092.046     17.88601    22.615494    19.248037    7785.8493    6134.7392    6006.6835    6134.7152    842.87435   -555.19396    765.69901   -4319.5838 
33506000    95.757237   -5191.0952   -4999.5689   -5191.0952            0    7364.7457    17.944291    22.464403    19.225145    7749.8054    6644.1952    8100.1521    7349.8898    774.44429     125.3307    757.17069   -4167.1836 
33507000    92.652468    -5192.608   -5007.2916    -5192.608            0     7879.374    17.775767     22.84203    19.057388     7737.959    6493.2137    7659.5273     9485.381    239.92366    327.41333    -630.5711   -4118.1027 
33508000    88.741342   -5181.1135   -5003.6198   -5181.1135            0     7422.897    17.876333    22.783629    19.052304    7759.7696    7588.7842     7105.798    7574.1088    258.29908   -97.301363   -41.180324   -4163.5833 
33509000    94.579865   -5185.3298   -4996.1584   -5185.3298            0    7399.4666    17.852133    22.607017    19.218248    7756.1673    6222.8635    8407.2845    7568.2519     130.3891    43.503412    642.53641   -4159.1623 
33510000    96.543898   -5194.9999   -5001.9001   -5194.9999            0    7445.1174    17.818081    22.632485    19.217111    7749.6351    8202.1845     7006.485    7126.6827    402.97725   -491.63533   -675.68981   -4160.4494 
33511000    91.297976   -5192.4613    -5009.854   -5192.4613            0    7446.8999    17.832664    22.735885    19.111468    7748.5804    8393.6727    7273.3961     6673.631   -822.65383    1083.5688    106.45015   -4168.3164 
33512000    100.60431   -5190.7923   -4989.5712   -5190.7923            0    7269.2122    17.828867    22.646791    19.181453    7744.8307    6545.0993    7526.4008    7736.1363   -97.192116   -196.50835    998.64331   -4168.5107 
33513000    96.623398   -5189.4601   -4996.2013   -5189.4601            0    6274.4561    17.967812    22.577803      19.1498    7768.5704     6045.191    6564.1763    6214.0009   -476.42607    191.12143     -1021.88   -4285.3266 
33514000    98.036972   -5207.6574   -5011.5714   -5207.6574            0    5824.7951    17.854242    22.769153    19.128643      7776.29    4885.0756    6466.3196      6122.99    -654.9626    980.18424    83.150393    -4350.986 
33515000    95.124898   -5198.1648   -5007.9032   -5198.1648            0    6771.8791    17.755562    22.791568    19.186734    7764.4317    6909.0952    6439.7315    6966.8107    573.49009   -387.56765     1528.366   -4241.0809 
33516000    95.551277    -5193.988   -5002.8736    -5193.988            0    7636.6185    17.849464    22.646141    19.138289    7736.1076    7654.2698    7522.9932    7732.5925   -434.58764   -200.20423   -1394.0644   -4141.2859 
33517000    93.470314   -5192.7352    -5005.783   -5192.7352            0    7530.0377    17.787638    22.755394    19.136231     7745.671    7987.6298    7252.2871    7350.1961   -59.888233    487.40899    -254.8861   -4155.1698 
33518000    93.564647     -5198.77   -5011.6292     -5198.77            0    7488.1326    17.856007    22.608983    19.163286     7736.337      7640.87    7423.1632    7400.3645    -1717.911   -351.60141   -444.78119   -4166.7691 
33519000    94.863203    -5198.281   -5008.5428    -5198.281            0    6410.2922    17.909094    22.708639    19.104369    7769.5778    6759.8103    6023.6545    6447.4119    380.73586   -328.13305    7.2963823   -4282.1842 
33520000    94.018484   -5194.6643   -5006.6157   -5194.6643            0    7635.0854    17.770242    22.780174    19.124002    7741.5722    7442.3261    7392.4798    8070.4505   -953.94333    196.47087   -1316.3202   -4144.5925 
33521000    91.718648   -5200.7304   -5017.2818   -5200.7304            0    7479.4097    17.910998    22.582855     19.17362    7755.3738    9243.2036    6510.0308    6684.9948    676.10149   -984.61537   -199.46784   -4171.3293 
33522000    91.359929   -5190.6867   -5007.9555   -5190.6867            0    5941.1046    17.830473    22.882877     19.07368    7782.3004    5584.3062     6195.093    6043.9145    540.45935     794.7358   -650.29832   -4333.6588 
33523000    95.670843   -5210.2254   -5018.8719   -5210.2254            0    6589.4862    17.812997    22.842705    19.065279    7757.6055    6739.7096    5983.1178    7045.6313    161.06848   -558.90496   -235.41063    -4273.359 
33524000    100.24748   -5193.1457   -4992.6384   -5193.1457            0    6767.7487    18.058596    22.422964     19.23118    7787.2287    4993.0607    7618.2256    7691.9597    681.66298   -297.74991    942.07646   -4224.0337 
33525000    97.936276   -5192.6225   -4996.7379   -5192.6225            0    6880.7316    17.755196    22.736507     19.21532    7757.0544    6496.5701    7406.1919    6739.4328   -280.31433    1335.1116   -245.55189   -4218.3298 
33526000      96.0889   -5191.3581   -4999.1684   -5191.3581            0    7060.7493    17.902989    22.588629    19.168994    7752.0174    6619.1892    7112.9903    7450.0683    322.38693   -1136.1897    886.20808   -4200.9138 
33527000    97.104415   -5189.6887   -4995.4679   -5189.6887            0    7189.1204    17.925731    22.614268    19.144971    7760.9363    6186.3383    7881.3267    7499.6961    511.38317    -183.6687    44.905355   -4181.7652 
33528000    92.061405   -5197.1117   -5012.9775   -5197.1117            0    6912.1773    17.767376    22.864235    19.052864    7739.9867    6706.0792    6669.8758    7360.5769   -217.47503    14.351235    341.79351   -4232.7326 
33529000    90.594959   -5188.6185   -5007.4174   -5188.6185            0    6250.7446    17.886335     22.70273    19.154768    7778.1505    5952.6034    6322.9232     6476.707    -398.5021    577.59618   -485.35598   -4298.3557 
33530000    98.043178   -5194.1485     -4998.05   -5194.1485            0    6422.0759     17.99655     22.56883    19.103916    7759.2667    6813.0411    6377.5706    6075.6161    513.06627   -1166.5196   -720.64397   -4271.3218 
33531000    96.614712   -5189.1196   -4995.8782   -5189.1196            0    6080.2365    17.833756    22.804164    19.097629    7766.6979    3663.6963    7626.5197    6950.4936   -922.74702    794.70976    140.72389   -4307.1739 
33532000    96.620469   -5194.5191   -5001.2662   -5194.5191            0    7281.6782    17.784853    22.643968    19.221313    7740.8003    8111.0945    7349.7843    6384.1558    358.94859   -61.339711    1666.8872   -4179.2257 
33533000    90.679705   -5184.4323   -5003.0616   -5184.4323            0     8489.912    17.721318    22.750982    19.165749    7727.1967    9487.3433    8395.1611    7587.2316    1108.5951    610.96361    254.80102    -4046.306 
33534000    93.370242   -5203.9325   -5017.1805   -5203.9325            0    6006.2682    17.948765    22.519414    19.231123    7773.1366    5793.2565    6050.5133    6175.0349     258.0803   -890.11606    339.57574   -4336.2906 
33535000    91.894925    -5201.888   -5018.0868    -5201.888            0    8225.5085    17.774602    22.638108    19.167672    7712.7522    8405.6616    8089.4945    8181.3695   -423.02783    229.13332   -285.77883   -4092.8604 
33536000    91.600149   -5198.5143   -5015.3027   -5198.5143            0    7414.0013    17.868164    22.732996    19.059327    7741.8397    6537.8257    7091.3377    8612.8404    546.16526    17.026011    897.79721   -4178.2116 
33537000    96.316129    -5200.145   -5007.5008    -5200.145            0    7027.4322      17.7593    22.697448     19.26993    7767.5311     8067.388    7018.1858    5996.7229    245.36476   -145.28763    91.889874   -4211.4229 
33538000    93.300877   -5198.6777   -5012.0645   -5198.6777            0    6432.8345    17.981986    22.567884    19.147989    7770.5488    5687.7435    7012.7461    6598.0139     -234.921   -173.95637   -190.19546   -4283.0604 
33539000    91.780725   -5193.2921   -5009.7193   -5193.2921            0    6806.8956    17.788764    22.775006    19.148353    7757.7484    7986.0585    6274.4392     6160.189   -114.76787   -644.13152    -147.9525   -4239.5953 
33540000    93.785874   -5190.1082   -5002.5249   -5190.1082            0    8062.9298    17.690716    22.732857    19.228093    7732.7798    8810.6366    7978.6763    7399.4765    47.596457    391.61303    468.55894   -4093.2307 
33541000     95.14257   -5196.6943   -5006.3974   -5196.6943            0    6786.7355    18.085448    22.546176    19.055785    7770.1432    5416.5834    7632.6834    7310.9397   -680.38128     653.9473    -404.4395   -4237.3274 
33542000    96.082987   -5200.8448    -5008.667   -5200.8448            0    5650.3268    17.870756    22.688581    19.164487    7770.4726    6146.8954    5405.1403    5398.9446    1189.0483    302.46349   -349.92289   -4368.3472 
33543000    96.002278   -5191.6182   -4999.6018   -5191.6182            0    6525.2941    17.862414    22.625797    19.251111    7780.3626    6015.5134    7238.3023    6322.0668    540.60461   -81.238492    -559.3181   -4259.1858 
33544000    91.229942   -5200.6688   -5018.1977   -5200.6688            0    6532.4251    17.867326    22.695549    19.171072    7774.0378    7633.1509    6011.4564    5952.6679   -66.242533    719.25781    1016.4765    -4277.575 
33545000    93.442281   -5206.0697   -5019.1736   -5206.0697            0    6643.6455    17.894816    22.710882    19.102311    7763.3139    7163.7194    5974.4639     6792.753    970.74324   -622.55355    197.84309   -4266.9802 
33546000    95.641388   -5206.8735   -5015.5789   -5206.8735            0    6359.7777    17.776421    22.695358    19.223333    7755.5046    6858.1116    6889.2603    5331.9611    524.16539    63.337132    695.34878   -4296.2494 
33547000     91.80586   -5196.3395   -5012.7164   -5196.3395            0    6167.0321    17.964639    22.583374    19.209252    7793.2351    4940.5518    6712.2912    6848.2533    1.9135963    172.67371   -334.87298   -4311.7941 
33548000    91.155472   -5198.6269   -5016.3047   -5198.6269            0     6126.175    17.867675     22.73896    19.134118    7774.0455    6406.2823    6018.5587     5953.684     167.4506    122.06591    398.61673   -4321.7406 
33549000    98.904542   -5203.3874   -5005.5661   -5203.3874            0    6150.0803    17.789022    22.839515    19.155546    7782.7575      5388.53    6439.7252    6621.9857    35.241976    1112.4818   -460.74278   -4307.5102 
33550000    90.846121   -5198.7928   -5017.0893   -5198.7928            0    7327.2597    17.911086    22.581404    19.175767    7755.7823    8034.5397    7287.6053    6659.6341    469.95084    112.24105   -408.71761    -4188.302 
33551000    100.45448   -5185.8559   -4984.9345   -5185.8559            0    7576.9605     17.79785    22.591489    19.259573     7743.888    8718.7888    8094.6076    5917.4851   -675.24618    1063.4159    621.11798   -4129.2179 
33552000    92.874886   -5199.2047   -5013.4435   -5199.2047            0    8244.0035    17.852757    22.648878    19.143013    7740.3799    7491.6763    8444.3628    8795.9715   -1113.6062   -289.74672   -1267.1088    -4082.815 
33553000    87.754703   -5196.5839   -5021.0637   -5196.5839            0    7703.4421    17.864756    22.733358    19.043296    7733.9754    7770.1293    7596.9306    7743.2665     83.49697    778.04443   -800.29059   -4152.1763 
33554000    96.898792   -5187.0641   -4993.2546   -5187.0641            0    7395.6648    17.783063    22.692563    19.181475    7740.5554    6994.6832    7904.6566    7287.6547   -1004.6507    395.54056    -1273.316   -4158.3723 
33555000    93.487794   -5188.5344   -5001.5473   -5188.5344            0    7765.2665    17.958367    22.462257    19.216913    7751.8231    7331.9346    8582.4348      7381.43   -320.50061     68.05394   -1146.9648   -4123.6653 
33556000    95.430394   -5179.1759   -4988.3033   -5179.1759            0    8568.5179     17.78341     22.74635     19.08906    7721.6709    8065.6362    8302.0228    9337.8946    1385.0465     190.8778    742.51079   -4023.3798 
33557000    89.335083   -5195.6976   -5017.0164   -5195.6976            0    7594.7044    17.824863    22.752777     19.07924    7737.8748    6898.3741    7825.9394    8059.7996   -200.19861    13.785984   -329.84116   -4159.9618 
33558000    93.549222   -5198.4583   -5011.3483   -5198.4583            0    5779.4897    17.895168     22.69241    19.200552    7797.0463    6358.4052    5583.7864    5396.2777   -312.76042    174.00854   -1343.9884   -4354.1514 
33559000     93.27945   -5197.6232   -5011.0528   -5197.6232            0    6564.9826      17.8227    22.756634    19.128501    7758.2264    7306.3656    6083.4601     6305.122    19.431865   -292.61874    1164.3025   -4268.2528 
33560000    96.535789   -5204.3873   -5011.3038   -5204.3873            0    6017.2403    17.875059    22.611131    19.273416     7789.839    6754.8968    5699.6877    5597.1363    -576.7034   -807.50132   -162.90762   -4327.7043 
33561000    99.964688   -5200.1347    -5000.193   -5200.1347            0    6366.4683    17.972124    22.677519    19.082672    7777.3944    6544.1861    5727.3813    6827.8376    373.20402    267.86374   -432.79428   -4278.0742 
33562000    97.777297    -5183.566   -4987.9994    -5183.566            0    7086.4514    17.820853    22.826545    19.073381    7758.8321    8051.8542    5803.4063    7404.0937    247.81325   -224.82755    643.53771   -4186.1347 
33563000     98.79491   -5192.7684   -4995.1664   -5192.7684            0    7733.1198    17.837869    22.641507    19.173188    7743.5946    7348.8853    7436.5138    8413.9603   -903.78079   -923.04167   -1073.2928   -4121.8467 
33564000    90.914014   -5189.0512    -5007.212   -5189.0512            0    8146.7424    17.905729    22.682174    19.037001    7731.7038    7974.9341     7797.677    8667.6162    672.43546    -221.5152    933.12341   -4088.5937 
33565000    93.339953   -5202.0893   -5015.3978   -5202.0893            0    6293.3902    17.861738    22.649156    19.168955    7754.8636    6780.8283    6301.0377    5798.3045   -745.58191     15.52224   -437.06791    -4303.636 
33566000    98.292801   -5191.2138    -4994.616   -5191.2138            0    6872.1091    17.930662    22.549131     19.19688    7761.6988    6333.6709    7756.7832    6525.8731   -14.245667     807.0182    770.27307   -4216.7179 
33567000    93.149001   -5195.9613   -5009.6518   -5195.9613            0    7491.5403    17.835234    22.811242      19.0286    7741.6686    7629.3954    6553.1732    8292.0522   -69.360522   -658.02173    599.63894   -4163.8247 
33568000    94.925273   -5194.3015   -5004.4392   -5194.3015            0    7611.2919    17.804057     22.65305    19.221737    7752.4376     7358.031    8357.1952    7118.6493   -532.85637    1189.4037   -390.68919   -4143.8963 
33569000     90.75814   -5205.1214   -5023.5939   -5205.1214            0     5428.039    17.956653    22.659269    19.146592     7790.454    5607.3051    5294.7526    5382.0591   -244.05477   -345.77688    257.02473    -4406.883 
33570000     92.63159    -5193.672   -5008.3974    -5193.672            0    5629.1054     17.75093    22.838978     19.23605    7798.5464    6631.6618    5280.9441    4974.7104   -108.97353    489.60788    -790.1995   -4368.1779 
33571000    92.915164   -5189.9008    -5004.059   -5189.9008            0    8131.4148    17.918108     22.52699    19.161407      7734.33    8658.5522    8644.7052    7090.9869    54.770055     1087.174   -213.95009   -4086.8576 
33572000    95.335834   -5180.3415   -4989.6581   -5180.3415            0    5896.2384    17.897761    22.823239    19.078458    7793.2614    5025.8425    5896.1461    6766.7265    99.266863   -704.92512    -92.73526   -4319.5109 
33573000    89.503902   -5198.7475   -5019.7286   -5198.7475            0    7376.5025      17.7596    22.707446     19.21615     7749.396    8367.6011    7234.1833    6527.7231    338.52071    245.15011   -373.18888   -4186.0585 
33574000    88.959313   -5201.3399   -5023.4103   -5201.3399            0    6226.2916     17.92161    22.703103    19.098697    7770.8043    6021.7504    5647.5693    7009.5551    96.637786   -585.50044    1205.4231   -4317.7896 
33575000    92.851879   -5194.1933   -5008.4781   -5194.1933            0    7431.0001    17.812467    22.752457    19.087214     7735.616    7663.5711    6951.7686    7677.6605    241.58468   -144.54109   -202.13088   -4170.1422 
33576000    97.302636    -5197.564   -5002.9467    -5197.564            0    7055.3277    17.798824    22.783773    19.131536    7758.3038    7710.7115    6479.5018    6975.7699   -1317.6895    203.83559   -1568.1323   -4204.6582 
33577000    90.846493   -5212.6339   -5030.9297   -5212.6339            0    5129.8016    17.939104    22.614052    19.235742    7803.4755    5167.1599    4948.2966    5273.9482   -179.17931    -126.3309    901.98098   -4447.1291 
33578000    97.184719   -5181.7286   -4987.3471   -5181.7286            0    6713.3452    17.797621    22.715021    19.173674    7751.4047    6262.9909    6735.5972    7141.4476    930.53764   -1263.2158   -694.66927   -4228.4284 
33579000     94.71136   -5205.5024    -5016.068   -5205.5024            0    6352.2234    17.793637    22.785939    19.122466    7753.1028    7449.9902    5578.0407    6028.6394   -966.78284   -224.35546   -981.14903   -4297.8154 
33580000    100.19594   -5195.1737   -4994.7695   -5195.1737            0    7419.2142    17.877219    22.616952    19.149153    7742.5427    7014.9314    7251.1305    7991.5806    -116.7661   -522.80329    578.30217   -4157.0137 
33581000    92.449903   -5188.1372    -5003.226   -5188.1372            0    6450.3402    17.820486    22.811588    19.103456    7765.8142    6609.5176    6549.5929    6191.9102   -49.233261    222.48118    84.330665   -4272.6835 
33582000    90.303945   -5197.9928   -5017.3737   -5197.9928            0    7273.9969    17.834691    22.665777    19.177607    7752.3007    7012.8647    7300.8505    7508.2756    771.69616   -65.510431   -110.57452   -4194.9803 
33583000    94.908236   -5191.6961   -5001.8679   -5191.6961            0    7471.3586    17.801942    22.729661    19.124231    7738.2778    7673.3722    6952.4906    7788.2131   -598.44807    221.82648   -765.70388   -4158.6889 
33584000    97.852411   -5191.2351   -4995.5182   -5191.2351            0    6155.8699    17.838338    22.771252    19.140542    7774.9132    4469.1813    6881.5481    7116.8804   -115.06771    157.81448   -280.17999   -4297.5094 
33585000    90.900467   -5198.7288   -5016.9166   -5198.7288            0     6178.958    17.987535    22.511403    19.221414    7783.2243    4925.7083    6689.1662    6921.9994    796.24349    135.79842    753.19758    -4315.541 
33586000    92.849722   -5199.9975   -5014.2866   -5199.9975            0     6516.093    17.825107    22.712038    19.168769    7760.3711    7220.7703    6102.9322    6224.5765   -690.30347    168.59983    145.96949   -4276.8144 
33587000    89.467252   -5192.8773   -5013.9317   -5192.8773            0     7421.408     17.76168    22.934765    19.041351     7756.684    7955.9052    6947.3283    7360.9905    605.15657    587.63135    1359.7202   -4174.3977 
33588000    94.072468   -5191.6094   -5003.4528   -5191.6094            0    8063.2253     17.88517    22.517029    19.197608    7731.2779    7898.7186    8208.5125    8082.4447    38.713879   -166.14197   -1239.5371   -4094.3019 
33589000    87.486097   -5199.2464   -5024.2634   -5199.2464            0    6896.2497    17.813213    22.696765    19.183402    7755.8937    7802.8237    6906.0829    5979.8425   -592.20548   -247.92582    556.10792   -4244.2165 
33590000    91.203638   -5192.5664   -5010.1478   -5192.5664            0    7957.6372    17.796086    22.803157    19.069915     7738.704    7326.5926    7807.0377    8739.2812    36.953199   -435.44613   -2024.1435   -4112.0404 
33591000    94.028516   -5203.1893   -5015.1206   -5203.1893            0    6689.1805    17.837584    22.646772    19.208363    7759.4812    7031.9226    6990.5885    6045.0302    876.57992   -51.115958    1113.3087   -4258.1457 
33592000    93.274713   -5197.4546   -5010.8937   -5197.4546            0    6761.0194     17.84955     22.78519    19.094014    7765.6384     7508.296    6011.2799    6763.4824   -665.05461   -68.613349    890.25909    -4245.182 
33593000    96.543832   -5194.0113   -5000.9118   -5194.0113            0    6656.7123    17.870827    22.795586    19.054274    7762.2536    7219.7869    5860.9163    6889.4336    509.32572    -778.0511    -483.5362   -4247.3419 
33594000    94.241071     -5200.84   -5012.3462     -5200.84            0    5860.9533     17.82587    22.725909    19.218302    7785.5091    6717.3271     5599.028    5266.5049     480.7403   -60.370429    602.69925   -4346.8721 
33595000    88.069933   -5203.5018   -5027.3511   -5203.5018            0    7449.9782    17.836271    22.692524    19.155899    7753.3504    7663.4761    7400.2593    7286.1991   -655.61796    161.93069   -1572.6832   -4184.9473 
33596000    95.737529   -5193.4784   -5001.9915   -5193.4784            0    7414.4074    17.723432    22.805047    19.143977    7737.6835    7864.7475    7146.4833    7231.9913    1698.4277    911.42166    572.86096    -4165.304 
33597000    92.541655   -5194.0802   -5008.9855   -5194.0802            0     6934.608    17.839771    22.800243     19.06244    7753.6685    6775.1391    6621.5743    7407.1107   -1375.1736    380.09558   -883.40074   -4224.8249 
33598000    97.995663   -5204.1799   -5008.1765   -5204.1799            0    7250.9448    17.848162    22.649024    19.172928    7750.5303     8199.751    7108.8739    6444.2095   -588.06319    124.88981    7.7350835   -4188.5765 
33599000    90.453887   -5190.6005   -5009.6816   -5190.6005            0    6057.9568    17.908316     22.63394    19.164396    7768.0149    6090.6339    6201.3847    5881.8518    778.69598   -589.92297   -140.66156   -4323.3846 
33600000    95.939302   -5203.0854    -5011.195   -5203.0854            0     6401.744    17.854046    22.752369     19.15568    7781.4556     7175.821    6258.6965    5770.7147   -972.48342   -44.771078   -856.42423   -4284.6959 
33601000    89.655088   -5205.4829   -5026.1617   -5205.4829            0    6203.1062    17.754337    22.866044    19.133358    7767.5972    7190.7959    5943.6288    5474.8939    435.85712    110.52061    695.15126   -4323.4587 
33602000    91.146425   -5189.2755   -5006.9714   -5189.2755            0    6789.9799    17.895362    22.538084     19.23478    7757.9094    6060.2475    6882.5405    7427.1516    1225.3059    477.76096   -47.990687   -4238.7452 
33603000    97.227747    -5193.954   -4999.4865    -5193.954            0     6719.657     17.82842     22.65105    19.208097    7756.8526    7761.0147    6079.4897    6318.4667   -392.30617   -381.35699    1271.4989   -4239.3204 
33604000    92.768836   -5189.0242   -5003.4751   -5189.0242            0     6996.951    17.755857     22.83288    19.108504    7746.9194    6586.8854    7478.4774    6925.4902   -862.78287    1022.3743    556.27506   -4212.9535 
33605000    97.584645   -5190.4743   -4995.2929   -5190.4743            0    6317.3649    17.822991    22.786551    19.176564    7788.0727    6185.3242    5874.2844     6892.486    -449.9561   -301.01687    92.808379     -4277.76 
33606000    92.137231   -5203.4556   -5019.1698   -5203.4556            0    6888.9008    17.863781    22.589599    19.210146    7751.9786    6340.9413     7600.216    6725.5452   -89.784133    13.098318   -636.32353   -4240.3475 
33607000    98.171362   -5199.3778   -5003.0229   -5199.3778            0    7079.1831     17.88791     22.72873    19.042214    7741.9828    6137.9929    7117.7372    7981.8193    392.43315    373.85055   -977.23307   -4203.7203 
33608000    94.594971   -5189.4125   -5000.2109   -5189.4125            0    7824.9561    17.748006    22.780619     19.14186    7739.2561    9037.6145    6559.9392    7877.3147    685.48519   -977.37385    591.23053   -4117.0151 
33609000    96.129168   -5204.3485   -5012.0783   -5204.3485            0    6426.9191    17.874474    22.663491    19.173029    7766.9556    7041.1321    6173.2514    6066.3738   -463.29722    286.76481    537.12706   -4284.0813 
33610000    96.287665   -5196.9431   -5004.3559   -5196.9431            0     5915.102    17.948984    22.645973    19.200065    7804.2931    4839.0914    6370.3802    6535.8343    1447.6083     701.2596    25.041332   -4331.1131 
33611000     97.66497   -5188.5074   -4993.1654   -5188.5074            0    7531.0438    17.881601    22.669494    19.124961    7752.6255    7192.9836    7117.4631    8282.6847    518.89494    244.92994   -360.89883   -4141.6748 
33612000    93.445726   -5194.5777   -5007.6747   -5194.5777            0    5543.8572    17.832856    22.886261    19.085204    7789.1946    5295.8395    4903.5881     6432.144   -25.311888   -28.736665    22.877662   -4377.9069 
33613000    92.104245   -5198.8886   -5014.6688   -5198.8886            0    6258.9274    17.950631    22.630132    19.127595    7770.1102    6149.7648    6579.9755    6047.0418    24.524369     417.0249     381.5239   -4305.4128 
33614000    96.234151   -5190.6176   -4998.1374   -5190.6176            0    7898.0017    17.764573    22.652286    19.230915    7738.6777    6915.6758    8291.1401    8487.1891   -434.77438   -209.59058    877.51984   -4106.7636 
33615000    92.693752    -5191.045    -5005.646    -5191.045            0    7547.3414    17.833407    22.722725    19.092203    7736.6113    6769.5638     7684.986    8187.4744    306.61158    163.62838   -155.16185   -4154.0754 
33616000     87.67828   -5195.0562   -5019.6889   -5195.0562            0    7831.5746    17.891086    22.707938    19.067722    7746.6374    7796.1909    7181.6319     8516.901   -852.65649    248.66911    67.014657   -4134.9029 
33617000    90.153879   -5200.0979    -5019.779   -5200.0979            0    6813.1445     17.86432    22.640823    19.170852    7753.8985    7358.9734    7089.1211    5991.3389    5.3978808    172.83681    43.515546   -4249.3305 
33618000    91.734328    -5200.256   -5016.7761    -5200.256            0    6906.9953    17.865858    22.641969    19.212436    7771.7802    7437.0607    7286.0025    5997.9227    583.64041    470.43925    2220.7328   -4233.9134 
33619000    89.891465   -5198.5655   -5018.7715   -5198.5655            0    6271.4124    17.913395    22.782031    19.052315    7775.3169    6710.7518    5491.7702    6611.7153   -1227.0952   -943.95914   -643.47329   -4307.6245 
33620000    96.497995   -5205.8054   -5012.7975   -5205.8054            0     6244.063    17.895552    22.615853    19.201377    7771.2424    5576.5813    7400.7255    5754.8822    385.90303    -487.8839    48.650988   -4305.1229 
33621000    91.930508   -5204.3814    -5020.509   -5204.3814            0    5657.5045    17.873805    22.648062    19.249279    7792.2439     4361.123    6149.3031    6462.0875   -317.57741   -397.07985   -288.45185   -4377.5795 
33622000    97.190573   -5189.5475   -4995.1543   -5189.5475            0    7673.1919    17.786738    22.759472       19.121    7740.5016     7930.566    7308.3027    7780.7071    430.26481   -377.59002    1304.5266   -4128.9486 
33623000    91.536082   -5193.8344   -5010.7509   -5193.8344            0    6552.8592    17.839098    22.696263    19.189281    7769.3725    7443.7734    5729.4682    6485.3361   -904.83432    -705.3909    186.28583   -4268.2574 
33624000    96.275383   -5196.1587    -5003.596   -5196.1587            0     6979.379    17.844932    22.674964    19.194115    7766.5758    7570.8879    7492.9524    5874.2967   -263.20719     565.6671   -1863.4904   -4213.0589 
33625000    95.420507   -5191.1895   -5000.3367   -5191.1895            0    6944.8011    17.798575     22.70518    19.179639    7750.8727    7467.3665    6794.6051    6572.4317   -248.76564   -436.05244     349.1099   -4215.3066 
33626000     95.39242   -5204.0269   -5013.2302   -5204.0269            0    6736.0825    17.823938    22.757737    19.145427    7766.0071    7524.4268    6162.4245    6521.3963   -2.3900616   -719.52851   -1661.8327   -4250.3066 
33627000    93.164329   -5199.8451    -5013.505   -5199.8451            0    7300.4316    17.795884    22.686585    19.196855    7750.3047    7576.9214    7633.4879    6690.8854    895.54324    265.41024    633.65265   -4188.3354 
33628000    93.254353   -5202.2077   -5015.6874   -5202.2077            0    7131.1454    17.817714    22.658614    19.189497    7747.2744    7227.2739    7248.0567    6918.1055    24.536031   -546.55345   -686.91509   -4209.9675 
33629000    95.329053   -5183.5809    -4992.911   -5183.5809            0    6608.8654    17.910793    22.654877    19.179784    7782.5202    6210.8275    7507.5159    6108.2528   -217.19224    844.91886   -1416.6553   -4242.8043 
33630000    90.822452   -5203.1416   -5021.4855   -5203.1416            0    6004.9231    17.774185    22.916159    19.070314    7767.6453    5744.0235    5347.6203    6923.1254   -1605.6348    186.69428    -873.9077    -4341.229 
33631000    88.747587    -5202.836   -5025.3299    -5202.836            0    5913.5947    17.827294    22.696089    19.242524    7785.7148    6052.5605    5954.7205    5733.5031   -450.42571    -550.7377   -671.98886   -4353.8609 
33632000    97.569802   -5194.7667    -4999.615   -5194.7667            0    6486.4102    17.929777    22.715265    19.121366     7787.743    5170.7706    7169.6737    7118.7862    158.04562    745.02335    1480.2951   -4262.9129 
33633000    97.678964   -5194.3469   -4998.9769   -5194.3469            0    7151.6767    17.828625     22.64071    19.205712    7752.4378    7914.1036    6690.6044    6850.3221   -133.54972    376.10669   -229.56603   -4190.3986 
33634000    89.774244   -5200.5716   -5021.0121   -5200.5716            0    5621.3289    17.851553    22.815268    19.103711    7780.7114    5701.5347    5170.7547    5991.6974    210.52295   -335.32828   -357.44335   -4383.1391 
33635000    92.409231    -5197.345   -5012.5151    -5197.345            0     7778.408    17.771324    22.714349    19.133316    7723.4321    7286.4591    8216.6797    7832.0851    936.68983    716.95574    916.21023   -4136.3682 
33636000    93.645825    -5186.399   -4999.0958    -5186.399            0    7651.3568    17.881277    22.636767    19.145546     7749.625    7428.2111    7536.6179    7989.2412    33.942015    21.701212   -649.72447   -4134.3369 
33637000    95.520876   -5205.4061   -5014.3525   -5205.4061            0    5636.7439     17.88251    22.639576    19.208315    7776.5333    5726.2015    5959.1994    5224.8307   -68.458417   -141.56378    459.88387   -4375.0738 
33638000    92.067246   -5195.6746   -5011.5288   -5195.6746            0    6647.2166    17.870266    22.827962    19.030782    7763.4506    6864.1168    5485.7886    7591.7444    577.65688   -245.66844    531.72806   -4258.9178 
33639000    90.605653   -5196.8677   -5015.6452   -5196.8677            0    7783.8882    17.780128    22.681658    19.168935    7730.5012    7538.3741    7810.0459    8003.2445   -600.07855   -43.551587   -150.44332   -4138.0785 
33640000    96.526093   -5197.7485   -5004.6844   -5197.7485            0    6287.1716    17.777513    22.743377    19.210611    7767.2473     7148.302    6241.4394    5471.7735    217.11085   -1042.0687   -14.290655   -4292.4904 
33641000    90.945435   -5193.6661    -5011.764   -5193.6661            0    7511.8205    17.872249    22.675949    19.121323    7749.3024     6567.933    8352.4941    7615.0344   -320.65418    981.86909    659.10275   -4162.8109 
33642000    97.961963    -5203.774   -5007.8379    -5203.774            0    6561.0972    17.910593    22.585525    19.169704    7754.5311    6434.4081    6837.3163    6411.5671    510.19438    312.09308    466.51514   -4265.8311 
33643000     92.12125   -5201.0947   -5016.8408   -5201.0947            0    6362.0466    17.765894    22.802573    19.152986    7759.0297    6446.9603    6130.5485    6508.6309    171.25896   -770.17731   -524.49775   -4296.9276 
33644000    96.619997   -5201.0833   -5007.8314   -5201.0833            0    7120.6685    17.862524    22.611101    19.172915    7743.7741    7084.4533    7811.3718    6466.1802   -236.33332    280.63029    350.38687   -4203.6587 
33645000    92.960325   -5198.1791    -5012.247   -5198.1791            0    6363.6867    17.902344    22.704336    19.146065    7782.1257    7376.5509    5708.0055    6006.5037    412.38827   -1152.8621    245.98536   -4290.0047 
33646000    91.658738   -5197.5712   -5014.2424   -5197.5712            0    5922.1157    17.808808    22.843418    19.120509    7778.4917    5749.1279    5591.0381    6426.1812   -1214.6666   -20.662117   -2252.9986   -4342.4297 
33647000    89.831612   -5203.5806   -5023.9063   -5203.5806            0    5971.6406     17.82242      22.6512     19.27474     7781.197    7262.1918    5977.2954    4675.4345   -19.402864   -7.7878266    -224.8978   -4346.2399 
33648000     87.64371    -5189.621   -5014.3228    -5189.621            0    7156.7584    17.972727    22.551437    19.153667    7763.1885    7269.9458     7522.435    6677.8943    5.2456707   -429.16431    1099.3144   -4204.0479 
33649000    94.830295   -5189.7301   -5000.0578   -5189.7301            0    7597.7934    17.832627    22.747564    19.144083    7765.7744    7796.2642    7165.4024    7831.7135    35.193721    135.62641   -931.57376   -4139.5632 
33650000    93.385795   -5200.5258   -5013.7426   -5200.5258            0    7237.2384    17.783578    22.853601    19.079775    7754.3788    8057.9922    6433.3191    7220.4039    158.68949   -229.11632   -66.669111   -4195.2858 
33651000    103.02592   -5198.8543   -4992.7897   -5198.8543            0    6963.2253    17.913709    22.614649    19.178001     7769.243    6672.7033     6889.303    7327.6697    139.64033   -190.84141    124.60997   -4203.8114 
33652000    91.238493    -5189.615   -5007.1267    -5189.615            0    7064.0269    17.934281    22.599824    19.146565    7760.3252    6444.5103    7971.6927    6775.8776   -19.226389   -181.55441     -706.615   -4207.6457 
33653000    91.552659   -5186.3119   -5003.1953   -5186.3119            0    7844.9632    17.729079      22.8054    19.146287    7741.2027    8450.2681    7183.4915    7901.1301   -692.78152    48.312078   -344.72208   -4117.5185 
33654000    94.485469   -5200.0467   -5011.0641   -5200.0467            0    6971.1569    17.860554     22.69892    19.105566    7745.6885    6719.0294    7783.6851    6410.7561    1096.9103    956.90788    30.847596   -4223.5818 
33655000    92.652748   -5201.8377   -5016.5208   -5201.8377            0      6501.02    17.850039    22.711216    19.159842    7767.3251    6130.4305     6644.338    6728.2914   -292.64746    376.93916   -551.28513   -4280.0952 
33656000    88.597524   -5197.5227   -5020.3167   -5197.5227            0    7206.6232    17.698294    22.804076    19.173534    7738.3089    7216.3103    7492.2789    6911.2805    832.71151    1299.5295    107.56583   -4207.0111 
33657000    92.552068   -5194.5027   -5009.3871   -5194.5027            0    7547.6497    17.947186    22.555469    19.116762    7738.6026    6831.0067    7363.5572    8448.3852   -516.80278    51.705839   -21.917205   -4157.5626 
33658000    90.950772   -5200.5015   -5018.5887   -5200.5015            0    6824.3743    17.772739    22.856589     19.06621    7745.1557    6835.0963    6609.3233    7028.7032    322.18727   -356.03073   -293.63339   -4247.7405 
33659000    91.455705   -5195.1268   -5012.2041   -5195.1268            0    7997.6825    17.790573    22.753762    19.072712    7720.6807    8409.8601    7230.8883    8352.2991   -542.20706    410.61649   -87.021497   -4111.6794 
33660000    94.516249   -5195.3496   -5006.3055   -5195.3496            0    6726.5051    17.998538    22.379265    19.289941    7769.8737    6340.7494    7661.4128    6177.3533    79.125464   -387.82659    1796.5421   -4244.0872 
33661000    90.296742   -5198.5353   -5017.9307   -5198.5353            0    7615.6404    17.738548    22.740277    19.150166    7724.7843    7985.4425    7059.8016    7801.6771    129.60673    202.77782   -635.73714   -4159.9674 
33662000    96.014286   -5198.4141   -5006.3737   -5198.4141            0    7806.7397    17.843515    22.743921      19.0282    7722.2424    8055.2376    8313.4185    7051.5628   -166.44953    872.12709   -1200.9279    -4127.171 
33663000    90.021185   -5192.8572   -5012.8037   -5192.8572            0     7089.453    17.868663    22.565658    19.199834    7741.7213      8202.87    7079.2371    5986.2519    201.23417    -326.7297   -124.05926   -4212.3685 
33664000    92.099807   -5195.4411   -5011.2301   -5195.4411            0    7669.0467    17.728627    22.945874    18.998748    7728.6687    8020.4546    7140.7403    7845.9452   -87.811036   -315.42753   -566.01093   -4146.8157 
33665000    89.132644   -5190.1624   -5011.8861   -5190.1624            0    7424.8441    17.895611    22.536613    19.211293    7748.0386    7715.5474      7688.41    6870.5748    1524.4741    211.64724     1537.821   -4172.8996 
33666000    97.658419   -5190.7566   -4995.4277   -5190.7566            0    7391.9355    17.930328    22.579621    19.160048    7757.1374    6671.0497    7852.1323    7652.6244    80.605795   -435.01371   -37.047038   -4159.1788 
33667000    96.223312   -5203.3613   -5010.9028   -5203.3613            0    7035.9378    17.769778    22.916777    19.040643    7753.8454    7307.3257    6632.6807     7167.807   -612.63953   -75.128086     242.3008   -4215.2657 
33668000    96.720369   -5194.6696    -5001.217   -5194.6696            0    6105.3272    17.874338    22.561031    19.295981    7781.3645    7815.7788     5804.215    4695.9879    1051.8682   -481.71469   -342.00167   -4308.3648 
33669000    98.084597   -5191.5756   -4995.3943   -5191.5756            0    7558.3086    17.861959    22.629735    19.179196    7752.4497    8042.0846    7365.1075    7267.7338   -439.56324   -125.66199    1001.2994   -4140.8404 
33670000    97.105476   -5203.0157   -5008.7927   -5203.0157            0    6301.4771    17.824907    22.849692    19.098144    7778.5528    7295.2925    5282.4617    6326.6772    1055.9737   -416.19305    1003.6783   -4293.9392 
33671000    94.108519   -5191.3155   -5003.0869   -5191.3155            0    7012.2322    17.891678    22.593938    19.175778    7751.6829    6823.4448    7532.3855    6680.8663    548.26451    517.83226    444.68603   -4210.3516 
33672000    92.666226   -5199.8158   -5014.4719   -5199.8158            0    6877.7915    17.805622    22.784369    19.098887    7748.2248    7259.1449    6361.8984    7012.3313     339.4938   -285.46846    1485.0371    -4237.282 
33673000    92.287094   -5203.3661   -5018.7805   -5203.3661            0    6958.3853    17.936869    22.700969    19.046742    7755.5345    6740.6114    6570.4437    7564.1006   -618.77997   -683.50821    441.02878   -4231.7418 
33674000    93.475377   -5200.5352   -5013.5729   -5200.5352            0    7161.8336    17.791831    22.648789    19.256105    7759.5062    8165.2097    6567.1023    6753.1887    735.93222   -360.33186    79.658134    -4203.108 
33675000    91.468617   -5195.8493   -5012.9008   -5195.8493            0    7244.5095    17.817885    22.782916    19.107662    7756.6291    7851.7046     6728.875    7152.9487   -90.473076    606.49434    333.43453   -4193.3839 
33676000    91.506208    -5196.245   -5013.2213    -5196.245            0    6498.3327    17.817127    22.675071    19.243827    7774.5952    7462.9251    6705.2086    5326.8643    302.14263    615.76947    777.03252   -4276.4111 
33677000    97.357834    -5194.456   -4999.7283    -5194.456            0    6397.8528    17.890604    22.687205    19.118632    7760.0194    6197.2732    6371.7439    6624.5415   -117.83771   -298.29218   -1445.0413    -4275.671 
33678000    97.155612    -5198.769   -5004.4458    -5198.769            0    7237.7671    17.805657    22.727852    19.141768    7746.3737    7416.2294    7654.6813    6642.3904    45.823085   -82.048586    683.36326   -4186.7741 
33679000     98.11333   -5193.8076   -4997.5688   -5193.8076            0     8273.124    17.837161    22.658572    19.112363    7724.5406    7054.9765    8707.9172    9056.4784    431.84038    810.81029   -173.23409   -4065.5642 
33680000    93.484034   -5190.1622   -5003.1826   -5190.1622            0     7380.165    17.761693    22.717293    19.155483    7729.1911     6607.366    7594.7109    7938.4182    321.68229    387.08773    880.42989   -4171.2732 
33681000    91.290826   -5193.2536   -5010.6606   -5193.2536            0    7422.5446    17.917449    22.608219    19.109746    7741.0068    8102.9015    7252.8235     6911.909   -1090.3116    514.43076    1156.7897   -4172.6951 
33682000    94.218372   -5198.1028   -5009.6544   -5198.1028            0     5919.931    17.861163    22.694953    19.206206    7785.3941    6246.1572    6495.8339    5017.8018    1392.8599    474.20546   -1308.9811   -4337.4936 
33683000    90.746987   -5200.7143   -5019.2091   -5200.7143            0     6670.008    17.885744    22.732869    19.093639    7763.3642    6765.9722    6465.2543    6778.7975   -1818.2064   -333.06878   -907.11223   -4264.0261 
33684000    91.256358   -5199.1621   -5016.6381   -5199.1621            0    7627.8823    17.718102    22.761369    19.174616    7732.8977    7929.9155    7763.2414    7190.4901   -294.08125    662.39392   -162.33888   -4156.3932 
33685000    97.448122   -5195.2738   -5000.3656   -5195.2738            0    7390.2137    17.865257    22.664108    19.136964    7748.5587    6997.9103    7109.2278    8063.5029   -1393.2826   -170.40442    137.20079   -4165.2361 
33686000    93.434409   -5189.6435   -5002.7632   -5189.6435            0    7924.2382    17.866011    22.564577     19.17977    7732.1132    8439.8303    7958.6117    7374.2727   -340.50463   -592.01479   -1551.5482   -4109.1869 
33687000    91.606673   -5196.3751   -5013.1504   -5196.3751            0    6863.6257    17.844799    22.827079    19.023777    7749.2334    5459.6414    6768.0226    8363.2133   -701.86945    208.78242   -98.271457   -4237.4604 
33688000    98.836204   -5201.1026    -5003.418   -5201.1026            0    6142.6548    18.029757    22.533058    19.155144    7782.0751    5918.0725    6887.8493    5622.0426   -256.84068  -0.48496245   -166.36015   -4306.2661 
33689000    90.841008   -5200.5785   -5018.8852   -5200.5785            0    7056.1695    17.883144    22.501279    19.268992     7753.719    7391.7994    8261.7059    5515.0033    265.54826    425.74058    194.48839   -4220.9733 
33690000    98.075662   -5189.2566   -4993.0931   -5189.2566            0     6325.081    17.781249     22.87693     19.12129    7778.1657    5789.7821    6528.5833    6656.8775    82.649263    771.45167    386.83172   -4275.5976 
33691000     94.17259   -5189.7727   -5001.4159   -5189.7727            0    7972.4774    17.760169    22.529592    19.320905    7730.8613    7983.7619    8967.7737    6965.8967    109.41721   -148.26974    844.47201   -4102.5455 
33692000    95.303882   -5196.9149   -5006.2953   -5196.9149            0    6084.9782    17.844908    22.740864    19.176375    7781.9384    5158.5258    6565.5249    6530.8841   -176.47779    890.42124   -26.174503   -4315.7015 
33693000    90.509229   -5192.5631   -5011.5334   -5192.5631            0     6814.617    17.824902    22.785132    19.093269    7754.5928    5425.7428    7068.1549    7949.9535    748.79494    82.851393    185.03754   -4240.8494 
33694000    95.948396   -5199.1588   -5007.2502   -5199.1588            0     6730.869    17.888348    22.627454    19.153876    7752.8719    6305.8962    6742.4928    7144.2179   -25.470273    456.79476    540.14358   -4246.2064 
33695000    94.746938   -5198.1403   -5008.6348   -5198.1403            0    5932.9019     17.80484     22.77554    19.187987    7781.0133    5597.2098    6529.1755    5672.3204    187.55323    1150.1782   -482.12418   -4335.3803 
33696000    89.842118   -5196.2001   -5016.5048   -5196.2001            0    5679.5426    17.983938    22.737147    19.055811    7791.9866     4960.746    5042.5632    7035.3186    468.38521   -643.95538   -772.93151   -4371.0921 
33697000    92.043242   -5190.4009    -5006.303   -5190.4009            0    7272.9843     17.83385    22.691864    19.143606    7747.0976    6917.4653    7172.8505    7728.6371    491.95733    435.96354    465.34727    -4184.576 
33698000    94.134171   -5196.9764   -5008.6965   -5196.9764            0    7255.3525    17.812354    22.745177    19.122528    7747.3993    7181.6476    7255.6647    7328.7454    700.51173    -568.5966    975.43649   -4188.9296 
33699000     94.21301   -5191.1316   -5002.6939   -5191.1316            0    6057.9265    17.927388    22.595897    19.188954    7773.1655    5982.6875    6385.5269    5805.5651   -960.18693   -372.62194   -993.25825   -4315.9453 
33700000    93.005621   -5199.4781   -5013.4554   -5199.4781            0    6832.0452    17.759121     22.79771    19.152123     7754.068    6323.1559    7174.6679    6998.3117   -365.43996     681.5815    141.71757   -4240.8527 
33701000    96.085949   -5202.1664   -5009.9826   -5202.1664            0     6473.715     17.88073    22.697305    19.110743    7755.9878    6164.2768    6985.1844    6271.6838    131.47229   -66.369657    226.07702   -4277.7205 
33702000    92.425361   -5194.8408   -5009.9787   -5194.8408            0    6625.6177     17.89799    22.425852     19.35996     7770.656    6613.9333     6699.908    6563.0119    499.54059    -443.4484     367.0159    -4259.117 
33703000    88.274284   -5198.6238   -5022.0643   -5198.6238            0    5919.0699    17.844559    22.792113    19.149598    7788.4325    6050.7523    5779.0625     5927.395   -982.29699    316.30649    65.352419   -4349.7391 
33704000    94.742476   -5209.7989   -5020.3023   -5209.7989            0    7618.2525    17.835105    22.692403    19.120953    7738.6587    7285.0105    7971.2075    7598.5396   -497.20356    1004.0852   -955.21907   -4160.5032 
33705000    95.949148   -5206.0764   -5014.1662   -5206.0764            0     7040.142    17.882162     22.66112    19.050165    7719.6947    7106.8642     7097.463    6916.0988   -363.47415   -1495.4552   -1074.1146   -4221.5601 
33706000    92.497766    -5202.763   -5017.7561    -5202.763            0     5985.139    17.905552    22.732167    19.123204    7783.7558    5853.6783    6045.4634    6056.2753     880.2317    204.84935    584.41761   -4338.3345 
33707000    92.321245   -5192.7782   -5008.1243   -5192.7782            0    7440.3406    17.956851    22.612355    19.088949    7751.0049    6931.3073    7779.4502    7610.2643    560.54874      669.435    114.52083   -4167.0648 
33708000     96.62613   -5192.7994   -4999.5352   -5192.7994            0    6741.1995    17.767309    22.815485    19.116221    7749.1377    7976.5398     6158.685    6088.3736   -172.52866   -79.225632    232.46707   -4237.6905 
33709000    97.732567   -5202.8671   -5007.3899   -5202.8671            0    6771.7449    17.818016    22.718036     19.13225    7744.5496    6839.1945    6618.8014    6857.2388    362.97959    49.972938   -630.32328   -4242.5462 
33710000    96.691383   -5195.9778   -5002.5831   -5195.9778            0    6213.1329    17.926652    22.584747    19.191231    7769.9323    6124.3344    6363.9885    6151.0757    243.92065    47.850702     -337.126   -4298.5326 
33711000    95.175336   -5197.4642   -5007.1017   -5197.4642            0    7210.7339    17.862931    22.669839    19.163227    7760.1443    6944.9839    7064.0314    7623.1864    393.31962   -857.35593   -67.885988    -4191.036 
33712000    95.220308   -5201.5375   -5011.0851   -5201.5375            0     6133.569    17.844986    22.785166    19.126045    7776.6682    6310.5004    6200.0558    5890.1507   -687.57769    737.09146   -595.79208   -4315.4481 
33713000    93.778865   -5199.9063    -5012.337   -5199.9063            0    6185.0498    17.979897    22.564295    19.157843    7772.4081     4827.913    6706.5888    7020.6476    759.98211   -438.81221    886.42551   -4311.2456 
33714000    95.377041   -5202.2824   -5011.5166   -5202.2824            0    6000.9632     17.80264    22.799155    19.163702    7778.2616    6212.9527    5812.4397    5977.4972    1537.8785   -91.679066    1624.9809   -4330.7795 
33715000    90.274626   -5206.4206   -5025.8602   -5206.4206            0    5835.7159    17.817102    22.745281     19.18524    7774.9144    5837.9106    6366.1131     5303.124   -146.02006    862.86969    253.74884   -4364.1533 
33716000    92.512679   -5196.8137   -5011.7769   -5196.8137            0    7120.6185    17.862109    22.655368    19.162939    7754.7173    7164.2713    6849.0094    7348.5746   -298.01028    197.99579   -20.980516   -4206.4734 
33717000    87.628091   -5196.8276   -5021.5606   -5196.8276            0    7139.8532    17.696286     22.91035    19.079616    7735.4129    8393.2197     6570.017     6456.323    529.35492    123.87234   -612.88428   -4216.0919 
33718000    97.400294   -5199.1694   -5004.3567   -5199.1694            0     6037.738    17.835399    22.600705    19.307578    7782.7416    6726.1274    6325.9588    5061.1277    1125.2541    470.97325    1077.1222   -4319.0535 
33719000    92.950259   -5198.9021   -5012.9901   -5198.9021            0    6498.7853    17.796365    22.744983    19.176377    7762.1759    7171.9373    5944.9704    6379.4483   -223.77726    107.90452    301.32644   -4277.3057 
33720000    89.380021   -5196.2959   -5017.5248   -5196.2959            0    7491.5127    17.789533    22.815663    19.059801    7735.9922    7595.7371    6575.9554    8302.8455    986.34685   -217.81565   -752.90094    -4172.321 
33721000      96.9531   -5207.1328   -5013.2146   -5207.1328            0    7590.9633    17.849405    22.691766    19.138379    7751.7041    7591.3858    7471.5283    7709.9759   -615.80577   -203.35577    524.33421   -4155.0513 
33722000    91.318306   -5207.3586   -5024.7107   -5207.3586            0    7354.3955    17.903651    22.578129    19.152169    7741.8994    6133.3639    8149.9654    7779.8572    267.71552   -520.77914   -274.11458   -4194.3431 
33723000    90.120941   -5200.8215   -5020.5685   -5200.8215            0    7798.1961    17.845011    22.681888    19.068658    7718.2022    8123.4033      7516.84    7754.3449    236.55683   -433.97905   -162.09949   -4142.7875 
33724000    95.463382   -5202.6213   -5011.6827   -5202.6213            0    6945.1555    17.863548    22.697809    19.095397     7742.485    6311.0297    6563.8214    7960.6153    279.69553   -455.30655   -236.48593   -4227.4622 
33725000    90.144062   -5193.8551   -5013.5558   -5193.8551            0     7638.538    17.738386    22.789447    19.102744     7722.246    7956.6752    7078.9073    7880.0314    123.86126   -676.38182      138.166   -4153.2957 
33726000    95.587396   -5206.5406    -5015.354   -5206.5406            0    6441.1392    17.863622    22.724526      19.1646     7779.723    6000.6231    6725.9778    6596.8169    444.12208    366.24828    669.53479    -4284.547 
33727000    100.23401   -5187.8894    -4987.409   -5187.8894            0     6865.484    17.944949    22.483414    19.244181    7764.3289    6665.1105    6957.0893    6974.2523    610.17372   -351.67341    536.50848   -4209.9975 
33728000    98.985472   -5197.0217   -4999.0385   -5197.0217            0     6854.245    17.840478    22.789209    19.052094    7746.0169    7331.4765    6764.1537    6467.1049    712.12059   -83.195923   -1930.9313   -4224.7302 
33729000    95.636627   -5193.1904   -5001.9054   -5193.1904            0    7334.4103    17.824364    22.755534    19.088647    7742.4106    7900.3015    7461.8285    6641.1008    83.115548    517.04297    368.83374   -4173.7396 
33730000    95.824501   -5181.8723   -4990.2115   -5181.8723            0    7904.4778    17.854453    22.451694    19.278581     7728.064    7729.1412    9177.7124    6806.5798   -588.11528   -184.48216   -951.65182   -4099.3303 
33731000    98.092473   -5191.1293   -4994.9322   -5191.1293            0    8170.9591    17.910663    22.722832    18.981667    7725.1778    7594.7124    8331.8472    8586.3177    -933.9702    384.00754     405.7662   -4074.3609 
33732000    92.101216   -5188.5531   -5004.3393   -5188.5531            0    8080.8263    17.800541    22.667596    19.150142    7726.9958    9134.1904    7745.9984      7362.29    282.32436    245.46785   -470.57066   -4093.7085 
33733000     89.34044   -5194.6253   -5015.9334   -5194.6253            0    7682.8942    17.913185    22.596411    19.106479    7733.7999    7207.7909    7425.4453    8415.4463    760.95902    -773.0866   -421.24975   -4149.3833 
33734000    96.756855   -5195.3724   -5001.8467   -5195.3724            0    6473.1244    17.684328    22.946687    19.165205    7777.1775    7313.8445    6089.4718    6016.0568    207.46076    415.93991    697.89391    -4267.651 
33735000     91.19874   -5202.4469   -5020.0382   -5202.4469            0    6372.9047    17.902631    22.737332    19.109436    7778.6504    4527.7496     6748.464    7842.5005     367.6177    421.61828    635.28007   -4297.0727 
33736000    91.888926   -5199.8024   -5016.0132   -5199.8024            0    5968.5886    17.807427    22.794858    19.165253    7779.5169    6024.7286    5525.3898    6355.6475    443.42717   -1355.2387    340.42439   -4338.8394 
33737000    92.952704   -5201.4058   -5015.4889   -5201.4058            0    6498.9103    17.908601    22.600983    19.220901    7779.6981    6355.1162    6822.6393    6318.9755    -446.4784    474.24451    1.6666026   -4278.1296 
33738000    95.911997   -5194.6535   -5002.8177   -5194.6535            0    6472.8838    17.895314    22.684779    19.150065    7773.9927    6235.9726    6301.9425    6880.7363    120.55899    309.62933   -554.38991   -4268.9499 
33739000    98.687186    -5203.521   -5006.1345    -5203.521            0    7045.0777    17.745943    22.781856    19.148914    7741.6288    7393.9184    7631.0933    6110.2214   -651.41281    219.45912   -345.77269    -4210.719 
33740000    94.612984   -5192.8971   -5003.6594   -5192.8971            0    6971.2786    17.933649    22.559874    19.204267    7769.6791    6705.1144    7299.0996    6909.6218   -405.94674    10.814821    784.89283   -4213.7243 
33741000     94.05671   -5202.8479   -5014.7228   -5202.8479            0    7133.0439    17.856992    22.650906    19.153575    7747.1817    7847.6723    6853.0401    6698.4194     276.1437     242.8005   -796.66833    -4208.798 
33742000    91.662901   -5196.0202   -5012.6831   -5196.0202            0    7282.3432    17.845358    22.679989    19.145928    7748.9794    7736.1781    6964.4958    7146.3557     -315.869   -920.25879   -695.34763   -4189.6988 
33743000    97.737263   -5194.9158   -4999.4292   -5194.9158            0    6788.4146    17.922359    22.685247    19.087901     7760.628    6755.8358    6422.4139    7186.9941   -12.310145   -435.37382    190.63854    -4231.111 
33744000    98.380051   -5199.2534   -5002.4811   -5199.2534            0    6651.6041    17.722906    22.834834    19.182153    7763.0099    7021.0932    6740.4018    6193.3173    53.979495    4.6368109    168.61439   -4249.4162 
33745000    97.288697   -5190.9125    -4996.323   -5190.9125            0    7528.1676     17.89089    22.604237    19.172218    7753.4349    7383.7661    7638.2359    7562.5007   -687.26229   -218.63655    528.67484   -4145.0688 
33746000    95.437781   -5204.5493   -5013.6619   -5204.5493            0    6133.1978    17.865789    22.736508    19.153756    7780.3638    6282.3887    5749.0469     6368.158    145.85246   -182.21282   -286.94746   -4317.7364 
33747000    94.577089   -5200.1917   -5011.0258   -5200.1917            0    6343.8509    17.754428    22.702348    19.224877    7748.9177    6290.3037     6834.386    5906.8629   -48.700612   -619.53897    474.03134   -4294.1071 
33748000    95.007966   -5193.3593   -5003.3317   -5193.3593            0    5720.1008    18.006431    22.586752    19.130764    7780.6117    4999.1485    5730.5508     6430.603   -1048.7072    61.515656   -741.32597    -4354.259 
33749000    95.822962   -5209.9368   -5018.2791   -5209.9368            0    6503.9658    17.853055    22.620364    19.254602    7775.8284    6802.4244    7127.6979     5581.775    923.46804    616.06059    222.53237   -4280.7132 
33750000    94.711954   -5184.0879   -4994.6523   -5184.0879            0    6924.4417     17.68593     22.85967    19.198024    7761.6561    7083.2263    7130.3575    6559.7413   -30.260716    324.51658    180.08243   -4210.8347 
Loop time of 552.877 on 64 procs for 250000 steps with 1008 atoms

Performance: 78.137 ns/day, 0.307 hours/ns, 452.180 timesteps/s
195.5% CPU use with 32 MPI tasks x 2 OpenMP threads

MPI task timing breakdown:
Section |  min time  |  avg time  |  max time  |%varavg| %total
---------------------------------------------------------------
Pair    | 36.503     | 40.779     | 46.931     |  38.4 |  7.38
Bond    | 0.96239    | 1.2246     | 1.6236     |  13.1 |  0.22
Kspace  | 270.26     | 285.7      | 298.1      |  53.1 | 51.67
Neigh   | 0.9861     | 1.2851     | 1.4864     |  16.3 |  0.23
Comm    | 86.556     | 97.88      | 113.37     |  88.1 | 17.70
Output  | 0.4919     | 0.49234    | 0.49762    |   0.1 |  0.09
Modify  | 105.28     | 109.38     | 112.88     |  21.5 | 19.78
Other   |            | 16.14      |            |       |  2.92

Nlocal:        31.5000 ave          37 max          27 min
Histogram: 1 0 6 6 4 3 6 3 2 1
Nghost:        2944.62 ave        2960 max        2929 min
Histogram: 1 2 2 8 4 4 4 2 3 2
Neighs:        10746.2 ave       12589 max        9207 min
Histogram: 1 4 7 2 3 4 7 1 2 1

Total # of neighbors = 343879
Ave neighs/atom = 341.14980
Ave special neighs/atom = 2.0000000
Neighbor list builds = 2455
Dangerous builds = 0

unfix		3
unfix		2
unfix		1

write_data	data.final.${pid}
write_data	data.final.0
System init for write_data ...
PPPM initialization ...
  extracting TIP4P info from pair style
  using 12-bit tables for long-range coulomb (../kspace.cpp:340)
  G vector (1/distance) = 0.37910404
  grid = 24 27 32
  stencil order = 5
  estimated absolute RMS force accuracy = 0.002497912
  estimated relative force accuracy = 7.5223879e-06
  using double precision FFTW3
  3d grid and FFT values/proc = 5355 672
Last active /omp style is kspace_style pppm/tip4p/omp
WARNING: Not all mixed pair coeffs generated from mixing. Use write_data with 'pair ij' option to store all pair coeffs. (../write_data.cpp:312)

write_restart   restart.lmp.${pid}
write_restart   restart.lmp.0
System init for write_restart ...
PPPM initialization ...
  extracting TIP4P info from pair style
  using 12-bit tables for long-range coulomb (../kspace.cpp:340)
  G vector (1/distance) = 0.37910404
  grid = 24 27 32
  stencil order = 5
  estimated absolute RMS force accuracy = 0.002497912
  estimated relative force accuracy = 7.5223879e-06
  using double precision FFTW3
  3d grid and FFT values/proc = 5355 672
Last active /omp style is kspace_style pppm/tip4p/omp
Total wall time: 0:09:13
