LAMMPS (30 Jul 2021)
Processor partition = 0
  using 2 OpenMP thread(s) per MPI task
using multi-threaded neighbor list subroutines
variable        pid world 0 1
variable        phase world IceIII Liquid

shell cd ${phase}
shell cd IceIII
include Restart.lmp
echo both
log log.lammps
#include		in.partitions
include		in.temp
variable        temperature equal 259.35
variable	tempDamp equal 100.0
include		in.pressure
variable        pressure equal 2500.0
variable        pressureDamp equal 1000.0 # This is 1 ps
include		in.seed
variable        seed equal 745823

units		real
atom_style	full

read_restart	restart.lmp.${pid}
read_restart	restart.lmp.0
Reading restart file ...
  restart file = 30 Jul 2021, LAMMPS = 30 Jul 2021
  restoring atom style full from restart
  orthogonal box = (-0.20270610 -0.10511089 -0.023381008) to (20.202707 20.105112 20.723379)
  4 by 2 by 4 MPI processor grid
  restoring pair style lj/cut/tip4p/long/omp from restart
  restoring bond style harmonic/omp from restart
  restoring angle style harmonic/omp from restart
  972 atoms
  648 bonds
  324 angles
Finding 1-2 1-3 1-4 neighbors ...
  special bond factors lj:    0        0        0       
  special bond factors coul:  0        0        0       
     2 = max # of 1-2 neighbors
     1 = max # of 1-3 neighbors
     1 = max # of 1-4 neighbors
     2 = max # of special neighbors
  special bonds CPU = 0.002 seconds
  read_restart CPU = 0.007 seconds
include 	in.setup
variable	out_freq equal 1000
variable	out_freq2 equal 10000
variable	out_freq3 equal 1000

timestep	2.0

neigh_modify    delay 7 every 1

include		in.tip4p
# This is TIP4P/Ice

# create groups ###
group ox type 2
324 atoms in group ox
group hy type 1
648 atoms in group hy

# set charges - beside manually ###
set group ox charge -1.1794
Setting atom values ...
  324 settings made for charge
set group hy charge 0.5897
Setting atom values ...
  648 settings made for charge

# ### TIP3P Potential Parameters ###
pair_style lj/cut/tip4p/long/omp 2 1 1 1 0.1577 8.5
pair_coeff 1 1*2 0.000 0.000
pair_coeff 2 2 0.21084 3.1668
bond_style  harmonic
bond_coeff  1 450 0.9572
angle_style harmonic
angle_coeff 1 55 104.52
kspace_style pppm/tip4p/omp 1.0e-5
pair_modify tail yes

thermo          ${out_freq}
thermo          1000
thermo_style    custom step temp pe etotal epair emol press lx ly lz vol pxx pyy pzz pxy pxz pyz enthalpy

restart 	${out_freq3} restart.lmp.${pid} restart2.lmp.${pid}
restart 	1000 restart.lmp.${pid} restart2.lmp.${pid}
restart 	1000 restart.lmp.0 restart2.lmp.${pid}
restart 	1000 restart.lmp.0 restart2.lmp.0


include         in.dump
dump            myDump all atom ${out_freq2} dump.water.${pid}
dump            myDump all atom 10000 dump.water.${pid}
dump            myDump all atom 10000 dump.water.0
dump            myDump2 all dcd ${out_freq2} dump.dcd
dump            myDump2 all dcd 10000 dump.dcd
dump_modify     myDump append yes
dump_modify     myDump2 append yes


variable natoms 	equal  "count(all)"                        # NUMBER ATOMS
variable H      	equal  "enthalpy/v_natoms"                 # ENTHALPY-per-atom
variable Vol      	equal  "vol/v_natoms"                 # volume-per-atom
fix AVG all 		ave/time ${out_freq} 1 ${out_freq} v_Vol v_H file vol_enthalpy.dat
fix AVG all 		ave/time 1000 1 ${out_freq} v_Vol v_H file vol_enthalpy.dat
fix AVG all 		ave/time 1000 1 1000 v_Vol v_H file vol_enthalpy.dat


timer           timeout 02:55:00 every 1000
New timer settings: style=normal  mode=nosync  timeout=02:55:00

fix 		1 all shake 1e-6 200 0 b 1 a 1
Finding SHAKE clusters ...
       0 = # of size 2 clusters
       0 = # of size 3 clusters
       0 = # of size 4 clusters
     324 = # of frozen angles
  find clusters CPU = 0.002 seconds
fix             2 all nph aniso ${pressure} ${pressure} ${pressureDamp}
fix             2 all nph aniso 2500 ${pressure} ${pressureDamp}
fix             2 all nph aniso 2500 2500 ${pressureDamp}
fix             2 all nph aniso 2500 2500 1000
fix             3 all temp/csvr ${temperature} ${temperature} ${tempDamp} ${seed}
fix             3 all temp/csvr 259.35 ${temperature} ${tempDamp} ${seed}
fix             3 all temp/csvr 259.35 259.35 ${tempDamp} ${seed}
fix             3 all temp/csvr 259.35 259.35 100 ${seed}
fix             3 all temp/csvr 259.35 259.35 100 745823


run             250000
PPPM initialization ...
  extracting TIP4P info from pair style
  using 12-bit tables for long-range coulomb (../kspace.cpp:340)
  G vector (1/distance) = 0.37156483
  grid = 24 24 25
  stencil order = 5
  estimated absolute RMS force accuracy = 0.0035155047
  estimated relative force accuracy = 1.0586838e-05
  using double precision FFTW3
  3d grid and FFT values/proc = 3458 576
Last active /omp style is kspace_style pppm/tip4p/omp
Neighbor list info ...
  update every 1 steps, delay 7 steps, check yes
  max neighbors/atom: 2000, page size: 100000
  master list distance cutoff = 10.8154
  ghost atom cutoff = 10.8154
  binsize = 5.4077, bins = 4 4 4
  1 neighbor lists, perpetual/occasional/extra = 1 0 0
  (1) pair lj/cut/tip4p/long/omp, perpetual
      attributes: half, newton on, omp
      pair build: half/bin/newton/omp
      stencil: half/bin/3d
      bin: standard
Setting up Verlet run ...
  Unit style    : real
  Current step  : 2000000
  Time step     : 2
  Walltime left : 2:54:59.94
Per MPI rank memory allocation (min/avg/max) = 10.19 | 10.19 | 10.20 Mbytes
Step Temp PotEng TotEng E_pair E_mol Press Lx Ly Lz Volume Pxx Pyy Pzz Pxy Pxz Pyz Enthalpy 
 2000000    280.76995   -4690.9052   -4149.4168   -4690.9052            0    899.49595    20.405413    20.210223     20.74676    8555.9212    1323.1452   -478.90602    1854.2487   -135.35619    229.07388   -322.40234   -4037.1783 
 2001000    256.64598   -4688.3755   -4193.4121   -4688.3755            0    2238.6579      20.0922    20.246998     20.81728    8468.6097    2081.5886    1838.2438    2796.1413    168.85883     1316.396    150.13264   -3916.9245 
 2002000     260.3938    -4690.721   -4188.5297    -4690.721            0    1248.4286     20.29834    20.068255    21.011775    8559.1943    1374.5778    1274.2582    1096.4498   -460.12263    489.53166   -349.00816    -4032.692 
 2003000    248.43194   -4666.8126   -4187.6907   -4666.8126            0    2411.9574     20.16979    19.981448    21.113417     8509.163    1025.1178     2809.696    3401.0584    915.58717   -231.15321   -1307.1548    -3888.373 
 2004000     254.7678   -4716.7742   -4225.4331   -4716.7742            0    3789.9256    19.877604    19.831828    21.471561    8464.2873    4316.2753    3388.5904     3664.911   -587.72022   -845.89742   -522.62077   -3757.5935 
 2005000    256.48153   -4676.5254   -4181.8792   -4676.5254            0    1641.4197    20.134859    20.152355    20.971899    8509.6591    1779.4601    269.18829    2875.6106    474.99155     844.7386    221.70244   -3978.1714 
 2006000    262.12768   -4677.9221   -4172.3868   -4677.9221            0    3153.3227    20.184519    20.198178    20.808401    8483.3874    3653.4032    928.61902    4877.9458   -501.88899    222.69419    -408.8768    -3782.253 
 2007000     260.4229   -4682.0379   -4179.7904   -4682.0379            0    2626.3121     20.21644    19.987626    21.084264     8519.701    1663.0026    3859.4527    2356.4812   -300.53956    310.84861   -230.55842   -3853.4682 
 2008000    262.73592   -4686.2369   -4179.5286   -4686.2369            0    1647.5573      20.2513    20.089223    20.862218    8487.4362    1052.8811    2340.1903    1549.6007    465.42098   -1679.1736   -820.91051   -3975.5931 
 2009000    278.71285   -4688.4286   -4150.9074   -4688.4286            0    3430.4337    20.055342    20.080642    21.066182    8483.8602     3056.654    3313.8412     3920.806    200.60698    37.195985    1378.7143   -3726.4653 
 2010000    257.17457   -4666.9821   -4170.9993   -4666.9821            0    1068.7031     20.23322    20.060722    21.244512    8622.9991    1413.3364    827.42953    965.34341   -206.06823   -345.89199    457.77662   -4036.6018 
 2011000    261.39394   -4700.6994   -4196.5792   -4700.6994            0    3239.5331     20.12039    20.086961    20.898132    8446.1366    2462.3362    4028.3544    3227.9087    438.83438   -914.10508    1240.6763   -3797.5392 
 2012000     249.9796   -4625.7188   -4143.6121   -4625.7188            0     2069.128    19.854451    20.453093    20.962679    8512.6282    2221.2633    171.72078    3814.3998   -181.63464    576.85129    1564.5409   -3886.7342 
 2013000    265.72033   -4657.6553   -4145.1913   -4657.6553            0    1314.1929    20.137172    20.468084    21.037278    8670.9203   -283.98636    1471.2588    2755.3062   -698.94018    116.74957   -869.09625   -3979.0031 
 2014000    260.56102   -4696.9954   -4194.4815   -4696.9954            0    3208.6548    20.197087    20.000832    20.870462    8430.8016    2867.6209    3056.4549    3701.8885    -140.9813    74.219739   -1348.4769   -3799.9627 
 2015000    253.74085   -4664.3624   -4175.0018   -4664.3624            0    1215.3235    20.190567    20.392026    20.845289    8582.5591    2001.8362    348.32319    1295.8112    512.74195    135.28258    691.07759   -4022.8824 
 2016000    262.51522   -4694.0091   -4187.7264   -4694.0091            0    2294.9333    20.183442    19.993542    21.107407    8517.6515    2685.0589    2483.3081    1716.4328   -375.76844   -142.61823   -1308.9074    -3902.647 
 2017000    257.28182   -4689.8459   -4193.6563   -4689.8459            0    1552.4261    20.065364    20.079509    21.111837    8506.0152    3332.0697    393.20392    932.00478   -692.93784   -1145.8961    348.99478   -4001.0755 
 2018000    255.94935   -4703.1876   -4209.5678   -4703.1876            0    1371.7878    20.075445    19.957654    21.305017    8536.0422    369.58767    2012.8168    1732.9591    194.74143    216.63206   -1110.8668   -4038.7947 
 2019000    271.43839   -4713.7104   -4190.2186   -4713.7104            0    2121.1764    20.069759      20.2243    21.075967    8554.6683    3409.5655    1142.5034    1811.4602   -465.69337    1033.2936   -1267.9091   -3925.5784 
 2020000    254.40288   -4686.4733   -4195.8359   -4686.4733            0    2612.7717    20.177675    20.153032     20.96565    8525.4998    1429.3561    3350.4487    3058.5104    632.35136     412.8355    53.278393   -3870.9752 
 2021000     252.1301   -4702.0099   -4215.7558   -4702.0099            0    3007.2465    20.038732    20.321925    20.812762    8475.4898    3818.2815    1071.7806    4131.6774   -257.15535    1099.6004   -1047.9857   -3844.0411 
 2022000    256.81876   -4680.5129   -4185.2163   -4680.5129            0    1879.8192    20.282338    20.101096    21.006677    8564.3638    1646.2211    1683.4399    2309.7965    255.08148   -184.06649    714.33238   -3950.4223 
 2023000    246.50355   -4686.9921   -4211.5893   -4686.9921            0    3091.8061    20.028458    20.030218    21.109534    8468.6038    4037.5274    1891.8531     3346.038     341.6281   -395.29571    -1666.549    -3829.733 
 2024000    270.48263   -4656.9852   -4135.3367   -4656.9852            0    1995.6736    20.415858    19.858414    21.216808    8601.8577    3857.9929   -122.01604     2251.044    19.716531    610.55538   -62.823828   -3884.9809 
 2025000    265.90873   -4663.5273      -4150.7   -4663.5273            0    1545.7968    20.178223    20.130777     21.21334    8616.9289    1683.4051    1426.0233     1527.962    27.663791    1163.5399    460.16457   -3956.4411 
 2026000    267.00398   -4670.0794   -4155.1397   -4670.0794            0    3280.7436    20.201761    19.868835    21.136235    8483.7775    4177.4062    2533.4583    3131.3663   -417.85807   -489.44986   -695.39175   -3749.2225 
 2027000    265.57161   -4655.5605   -4143.3833   -4655.5605            0    3364.8263    19.815954    20.111063    21.517489    8575.1473    5607.8543    2423.5088    2063.1157   -88.413855    1367.0432    143.22499    -3722.579 
 2028000    254.81158   -4683.0744   -4191.6489   -4683.0744            0    2614.1942     20.13205    20.068742    21.014195    8490.2585    1697.1688    4129.8808    2015.5329    598.01599   -1154.1258    1100.7818   -3867.9549 
 2029000    255.16899   -4669.4436   -4177.3288   -4669.4436            0    1676.2288    20.331412    20.342804    20.584678    8513.7801    947.01726    598.30163    3483.3675   -210.23443    47.365187    881.69743   -3969.2002 
 2030000    262.19192   -4661.7515   -4156.0924   -4661.7515            0    3408.6056     20.25882    20.165415    20.712395    8461.5832    2901.4532     2612.821    4711.5426   -39.729658   -34.456788     197.1057   -3735.4585 
 2031000    265.05509   -4664.5078   -4153.3268   -4664.5078            0    2504.7555     20.03184    20.171006    20.980812    8477.5563    3529.6977    1851.4402    2133.1285   -948.59997    1304.7616    545.82373   -3843.6477 
 2032000    259.79046    -4671.372   -4170.3442    -4671.372            0    1796.5814    20.209172    20.294571    20.850408     8551.513    2034.9946    2079.7799    1274.9699    378.01691    1914.0534     1488.301   -3946.2835 
 2033000    250.48838   -4663.5115   -4180.4236   -4663.5115            0    2793.4699    20.217248    20.148647    20.913655    8519.1814    3120.1433    2396.3797    2863.8868     204.3741   -362.63378   -981.47584   -3833.3531 
 2034000     263.2861   -4710.6733   -4202.9039   -4710.6733            0    3078.2664    20.028041    20.003814    21.157321    8476.4102    2459.4032    4475.9342    2299.4619   -555.99619     278.1964    884.71904   -3822.3694 
 2035000    245.70404   -4711.4264   -4237.5655   -4711.4264            0   -163.76666    20.054424    20.161519    21.319929    8620.2364    165.40219   -999.14664    342.44448    223.23265    754.72673   -355.19531   -4258.1538 
 2036000    254.32626   -4703.3426    -4212.853   -4703.3426            0    4446.2207    20.103001    19.970827    20.992819    8428.0616    3950.3434     6080.656    3307.6628     553.5804   -101.44733    176.42544   -3666.3474 
 2037000    253.70881   -4673.5705   -4184.2717   -4673.5705            0    3201.1796    20.200811     20.23659    20.860753    8527.7825    1626.9361    4794.0388     3182.564    -90.10172    363.55637   -903.47216   -3786.1443 
 2038000    270.84321   -4694.1552   -4171.8113   -4694.1552            0    2009.5098    20.089669    20.116869    20.964079    8472.4491    668.46468    3512.5283    1847.5363   -684.50199    304.33373    447.13041   -3923.5123 
 2039000    241.03832   -4672.7643   -4207.9016   -4672.7643            0    3862.5405    20.105582    19.976541    21.075007    8464.5654     3825.554    4471.5726    3290.4948   -449.75009    15.337325     630.7752   -3731.0826 
 2040000    260.71643   -4695.8414   -4193.0278   -4695.8414            0    2087.3601    20.124587    20.025657    21.204753    8545.6864    706.19732    4150.0228    1405.8603    419.14777     1050.584   -253.77204     -3932.88 
 2041000    262.41071   -4691.5164   -4185.4353   -4691.5164            0     1990.481    19.987536    20.169026    21.079891    8497.9179    4436.2828    553.15039    982.00989    100.83415    -1405.221    1396.7617   -3938.7481 
 2042000    269.15526   -4717.1065   -4198.0179   -4717.1065            0    1970.3499    20.280296    20.178714    20.764119    8497.3063    1904.2101    856.71726    3150.1223    423.13768   -587.88191    672.40105   -3953.8433 
 2043000     253.6359   -4656.4562    -4167.298   -4656.4562            0     979.1024    20.132945     20.24719    20.907499    8522.6401     1148.432   -393.80848    2182.6837   -318.69094    600.35406   -1034.7564   -4045.6015 
 2044000    252.95913   -4701.5903   -4213.7374   -4701.5903            0    3076.6591    20.182148    19.872113    21.124424    8472.2025    1744.5754     5609.456    1875.9458   -114.72239    290.60929   -357.78111   -3833.5903 
 2045000    257.66032   -4716.1912   -4219.2716   -4716.1912            0    2533.5072    20.012101    19.907134    21.329152    8497.1838    1677.0659    5084.9159     838.5398    329.39279    428.89797   -363.94983   -3905.3125 
 2046000    259.84797   -4708.3855   -4207.2469   -4708.3855            0    1126.7285    20.127764    20.309906    20.880912    8535.9707    1400.3212   -143.94008    2123.8044    223.05627    1437.0917    555.63283   -4066.9823 
 2047000    259.32945   -4689.8429   -4189.7042   -4689.8429            0    2989.8209    20.036486    20.336282    20.758885    8458.5735    3950.8512    2457.1965    2561.4152    440.58177     63.03275   -439.43969    -3820.881 
 2048000    249.66647   -4698.5324   -4217.0296   -4698.5324            0    2459.9858    20.129094    20.167389    20.901781    8485.1042    3245.3054    2337.4561     1797.196    378.88689   -76.720732   -457.43034   -3912.6148 
 2049000    269.15702    -4698.218    -4179.126    -4698.218            0    2004.8159     20.00659    20.167676    21.171649    8542.4728    1376.9427     3317.473    1320.0319    552.08343    1792.3239    157.16462   -3929.3596 
 2050000    252.90187   -4695.6281   -4207.8856   -4695.6281            0    3631.2523    20.122863    19.966583    21.106365    8480.2171     1602.477    6096.3393    3194.9407    255.76769    1661.4121   -726.06643   -3758.7895 
 2051000    270.38955   -4639.9077   -4118.4387   -4639.9077            0     3177.977    20.226118    20.135125    20.908679    8515.1728    4297.2014    2349.6576     2887.072    236.07936    1272.4371    478.33107   -3723.7815 
 2052000    262.91934   -4711.4468   -4204.3847   -4711.4468            0    2124.9002    20.247383     20.22297    20.660229    8459.5832    1570.2948    1678.5222    3125.8836    116.94945    1519.3594    623.54709   -3942.2266 
 2053000    246.51483   -4702.1197   -4226.6951   -4702.1197            0    2158.0372    20.404952    20.087512    20.939793    8582.9016    1608.7891    1694.6305    3170.6921   -254.08922    1302.9242   -537.21431   -3956.5675 
 2054000    262.01087   -4667.6215   -4162.3115   -4667.6215            0    3108.6493    20.042773    20.154652    21.000921    8483.4295    2370.4964    3625.3372    3330.1143    987.74302    -1.371369    909.81869   -3777.7028 
 2055000    262.92132   -4692.0819    -4185.016   -4692.0819            0    1878.8363     20.35275    19.806626    21.071905    8494.4919    303.83327    3489.4377    1843.2378    289.70092   -87.277174    703.14341   -3952.2593 
 2056000    277.10787    -4679.054   -4144.6282    -4679.054            0     3647.208    20.139389     20.11968     21.02733    8520.2334    3987.4645    4270.5236    2683.6358    680.83713    600.83382   -160.19282   -3691.4303 
 2057000    251.98755   -4712.1091     -4226.13   -4712.1091            0    3422.9333    20.025967    20.036993    21.091109    8463.0217     5391.316    3046.7282    1830.7558   -664.66414    136.59473    61.428951   -3803.6562 
 2058000    251.55495   -4667.8298   -4182.6849   -4667.8298            0    2999.4527    20.015403    20.064018    21.179757     8505.566    4501.0623    2354.9587    2142.3371    8.4998417    1751.0532    94.421316   -3810.6179 
 2059000    255.12775   -4684.8086   -4192.7732   -4684.8086            0    2880.0708    20.161494    20.102002     20.84599    8448.5961    2308.5805    3263.1013    3068.5306    274.66942   -789.08346   -865.18219   -3837.9079 
 2060000    258.92883   -4686.9841   -4187.6181   -4686.9841            0    2395.7542    20.276899     20.08356    20.845756    8489.0656    972.75501    2566.2083    3648.2993   -640.67817   -812.85489   -120.90822   -3891.0134 
 2061000    274.57442   -4702.9245   -4173.3846   -4702.9245            0    2304.9893    20.266232    20.158334    20.732583    8469.9542    2578.3649    1421.8602    2914.7429   -438.22154    643.49283    213.89218   -3888.6595 
 2062000     276.0644   -4669.4784    -4137.065   -4669.4784            0    2987.8426    19.980444     20.42276    20.865788    8514.4063    2512.5421    3824.2318    2626.7538    553.67475   -41.844987    438.40343    -3766.053 
 2063000    263.99537   -4661.7627   -4152.6255   -4661.7627            0    2655.7953    20.129353    20.083937    21.086362    8524.7244    2058.2766    2202.5706    3706.5387    324.99629   -1119.9234    152.69398   -3822.4454 
 2064000    269.07318   -4704.7877   -4185.8575   -4704.7877            0    2157.3954    19.697382    20.190515     21.33562    8485.1822    3869.9401    2030.6013    571.64468    -379.2047    955.44181    927.84253   -3918.8848 
 2065000    258.82615   -4696.5177   -4197.3498   -4696.5177            0    3680.9968    20.093132    20.184063    20.752578    8416.4373    5201.2627    1623.3861    4218.3416   -324.24643   -449.19226    288.14001   -3745.5254 
 2066000    273.41838   -4671.6466   -4144.3362   -4671.6466            0     2313.302    20.263385    20.304378    20.792201     8554.648    912.34369    3185.3691    2842.1934   -723.96509   -377.70349    -278.3528   -3855.7269 
 2067000    251.87417    -4681.898   -4196.1374    -4681.898            0    2684.3136    20.064729    20.157945    20.878347    8444.5335    2410.9096    3375.2173    2266.8141   -177.55706    534.65074    329.76871   -3865.5512 
 2068000    266.09691   -4693.2102   -4180.0199   -4693.2102            0    2515.2844    19.933636    20.216085    21.245332    8561.4459    2268.6348    2591.6183    2685.6001    590.57052   -207.86126    644.97726   -3865.9618 
 2069000    247.74341   -4704.8101   -4227.0161   -4704.8101            0    2227.6415     20.12777    19.994718    21.242649    8549.0847    1855.8745    1900.7536    2926.2965    38.980938   -258.78387   -19.400799   -3949.2746 
 2070000    261.18487   -4679.8246   -4176.1076   -4679.8246            0    2517.3547    20.095096    20.041616    20.959121    8441.0384    3001.3674    2731.9928    1818.7041    1129.6563   -226.49928    946.10669   -3866.2115 
 2071000    258.03104   -4676.1998   -4178.5652   -4676.1998            0    2149.6773    20.232659    20.300366    20.629515    8473.1685    3380.3614    738.87984    2329.7906    995.89418    350.19299   -28.064668   -3912.9243 
 2072000     275.1039   -4656.1932   -4125.6322   -4656.1932            0    1892.2287    20.274968    20.061503    21.096318    8580.8501    1799.8598    2079.6815    1797.1447   -518.72923   -845.13164   -352.29738   -3888.8332 
 2073000    245.46368   -4699.9785   -4226.5812   -4699.9785            0    2339.4864    20.039893    20.098035    21.146009    8516.8187    4419.7518    1025.0466    1573.6609   -174.27159   -1822.7823   -349.94036   -3935.9957 
 2074000    248.87061   -4701.0827   -4221.1148   -4701.0827            0    2467.8175    20.073555     20.06394     21.15872     8521.772    4016.4792    1024.4187    2362.5545   -516.89801    102.63957   -107.22512   -3914.4113 
 2075000    254.81311   -4693.1352   -4201.7067   -4693.1352            0    2417.5041    19.926739    20.305886    21.055334    8519.6213    5189.4727    857.37696    1205.6627    -714.5264    803.09586    48.298503   -3901.3319 
 2076000     260.5137   -4691.6289   -4189.2064   -4691.6289            0    4216.1209    19.966541    20.180564    20.871315    8409.8053    4306.9386    4308.3761     4033.048    183.53522    1086.1824    1343.1436   -3672.1059 
 2077000    241.50813   -4695.0396   -4229.2709   -4695.0396            0    2814.1128    20.237268    19.964717    20.842355    8420.9644    2766.0151    3944.6589    1731.6644   -189.44377    606.50424   -369.23738   -3883.6665 
 2078000    274.48025   -4672.6382   -4143.2799   -4672.6382            0    2567.7072    20.205693    20.259537    20.702728    8474.8268    2386.9751    1176.2931    4139.8533    280.69666    310.93477     1689.661   -3825.9199 
 2079000    246.62064   -4677.2447    -4201.616   -4677.2447            0     2462.692     20.10021    20.203776    20.869796    8475.2271    1761.3458    2415.7089    3211.0212   -357.74093    766.94188    8.0456385   -3897.2211 
 2080000     267.9265   -4686.1398    -4169.421   -4686.1398            0    2516.2731    20.218287    20.089738    20.935822    8503.7141    1868.9892    1672.9908    4006.8393    65.857615    772.20182    -1034.858    -3857.358 
 2081000    271.62374   -4707.7527   -4183.9035   -4707.7527            0    2122.7303    20.089422    20.073755    21.039279    8484.5124    2021.6313    2840.6622    1505.8974   -581.88281    450.69801   -951.85096   -3921.2413 
 2082000    263.12608   -4720.3722   -4212.9114   -4720.3722            0    2173.0608    20.124711     20.00846    21.074586    8485.9871    1859.4218     2205.633    2454.1274   -72.157601    505.98363    1273.5107   -3943.9747 
 2083000    264.08445   -4679.1866   -4169.8776   -4679.1866            0    2746.7859    20.062444    20.229022    20.886886    8476.8095    2167.1971    3024.3651    3048.7955    413.59052    -1184.003   -96.502666   -3830.3046 
 2084000    267.77999   -4664.9534   -4148.5172   -4664.9534            0    1823.9618    20.443142    19.985537    20.797228    8497.0643   -997.70857    3831.2364    2638.3574    72.692854    998.48759    460.96829   -3922.4901 
 2085000    258.37434   -4709.5944   -4211.2978   -4709.5944            0    2072.6738    20.178089    20.094612    20.898776    8473.8445    3420.7348    972.11523    1825.1712   -1014.3244   -714.59391     10.87256    -3955.152 
 2086000    258.86008   -4700.5639   -4201.3304   -4700.5639            0    2139.2056    20.032263    20.150019    21.199207    8557.0698    4278.8614    909.84307    1228.9123   -343.28562   -515.73176   -540.99008   -3934.3659 
 2087000    260.94183   -4707.9497   -4204.7015   -4707.9497            0    2391.3712    20.036106    19.987363    21.189114    8485.5814    1628.9335    3217.0406    2328.1395   -75.308247     327.9226    263.42468   -3908.7609 
 2088000    260.31853   -4681.7972    -4179.751   -4681.7972            0    3542.6577    19.908329    20.054139    21.092886    8421.2165    4026.9945    4741.5493    1859.4294      65.7219   -783.23045   -1735.9434   -3744.6602 
 2089000    251.05215   -4731.8358   -4247.6606   -4731.8358            0    2893.5087    20.274155    20.107332    20.961164    8545.0104     1079.205     4031.899    3569.4222    514.81943   -801.44646   -178.36587   -3887.0709 
 2090000    255.82523   -4694.6414    -4201.261   -4694.6414            0    2958.3819    20.105769    20.273598    20.666644    8424.0603    3514.3219    2195.2642    3165.5597    334.61653    -749.6958   -1414.9694   -3837.8052 
 2091000    259.26932   -4698.8388   -4198.8161   -4698.8388            0    794.83551    20.127066    20.150363    20.925624     8486.757   -972.96623    1675.8662    1681.6066   -544.29419   -87.651615     2218.965   -4100.4388 
 2092000    267.21276   -4711.7088   -4196.3665   -4711.7088            0    2601.8652    20.019541    19.900222    21.357415    8508.6513    3161.3716    3905.0138    739.21024    -949.8905    1299.9763   -1087.4828   -3873.5012 
 2093000    277.15515   -4704.2698   -4169.7528   -4704.2698            0    1224.4188    20.039923    20.259166    21.185815     8601.274    1056.3118    2043.5489    573.39566   -18.237647     2362.406    309.18719   -4016.1608 
 2094000     257.1026   -4692.6169   -4196.7729   -4692.6169            0    2555.4751    20.222035    20.133755    20.893611    8506.7401    3714.4468    2095.3964    1856.5821    504.50564   -513.54197    -165.5608   -3879.7353 
 2095000    259.81899   -4723.9951   -4222.9123   -4723.9951            0    2851.1651    20.123694    20.300369    20.742089    8473.5258    2985.8569    2008.8603    3558.7782   -869.29326    1373.1068    70.668548   -3870.5719 
 2096000    268.84958   -4684.9834   -4166.4843   -4684.9834            0    3594.3347    20.142968    19.948239    20.992458    8435.1206    3587.7331    4368.7536    2826.5175   -467.92938   -12.167339     -408.985    -3724.318 
 2097000    262.16371   -4695.2201   -4189.6154   -4695.2201            0    3028.6794    19.903006    20.091014    21.144419     8455.052    4331.3924    3284.7014    1469.9446   -51.697974    895.04903   -621.07811   -3816.1542 
 2098000    261.58944   -4690.9048   -4186.4075   -4690.9048            0    2247.7029    19.972259    20.409133    20.855888     8501.204    3160.8807   -554.50757    4136.7355    183.33921   -489.01593   -6.6776129   -3907.7343 
 2099000    258.96792   -4691.1959   -4191.7545   -4691.1959            0    3858.9914    20.189616    19.988345    20.820239    8402.1531    3131.8453    4584.5831    3860.5459    127.51013   -743.02913    2121.2126   -3718.8861 
 2100000    260.77156   -4690.5143   -4187.5944   -4690.5143            0     4209.262    20.213706    20.037586    20.692467      8381.15    3380.8003    4940.5928    4306.3929    633.58402   -320.46852   -167.98888   -3673.0943 
 2101000    245.41646   -4697.2973    -4223.991   -4697.2973            0     2671.758    20.180011    19.937249    21.024501    8458.8694    1893.1875    3399.5379    2722.5486   -17.050892   -396.24078    676.12247   -3894.3924 
 2102000    248.40499   -4662.4014   -4183.3315   -4662.4014            0    1663.1536    20.105035    20.122118    21.026361    8506.3378    3544.3753   -322.25977    1767.3453    -130.5106    -326.3092     491.9386    -3977.007 
 2103000     266.2053   -4682.8091   -4169.4098   -4682.8091            0    2301.3258    20.106751    19.990629    21.093832    8478.5943    2163.0026    2799.9624    1941.0125    52.272788   -561.68004    1512.3184   -3884.8472 
 2104000    252.86784   -4659.5325   -4171.8556   -4659.5325            0    2468.4014    20.014403    20.202667    21.057427     8514.451    3129.7743    2936.2837    1339.1461   -148.60803   -119.72964    665.67262    -3865.343 
 2105000    266.42448   -4649.6599   -4135.8378   -4649.6599            0     2252.886    20.391948    20.102957    20.741969    8502.9305    1329.4799     2506.765     2922.413     168.6398   -20.046059   -12.963091   -3856.4653 
 2106000    248.89591   -4694.6748   -4214.6582   -4694.6748            0    1849.9558    20.214641    20.184471    20.855968      8509.69    2220.7356    1846.1334    1482.9985   -92.004956   -740.28279    384.99884   -3985.0692 
 2107000    251.44317   -4669.4834   -4184.5541   -4669.4834            0     1943.152    20.217801     20.35604    20.731266     8532.043    2352.7898   -114.74716    3591.4133    292.92616   -422.28745    1291.0897   -3942.7655 
 2108000    265.16493   -4678.6291   -4167.2362   -4678.6291            0    2198.3335    19.947822     20.14354    21.037395    8453.2408    1537.6557    2692.5837    2364.7611   -100.52154    895.93144    1955.1721   -3896.2216 
 2109000    254.35804   -4679.4795   -4188.9287   -4679.4795            0    2912.3662    20.057108    20.204296    21.060163    8534.4152    3258.2063    2291.6278    3187.2646   -48.342619   -907.67147    44.446426    -3826.439 
 2110000    259.15268   -4656.7089   -4156.9112   -4656.7089            0    4058.7374    20.201023    19.946775    21.009428    8465.6495    2982.0675    3345.5214    5848.6233   -235.48355   -107.72235    567.23901    -3655.808 
 2111000    265.79067    -4659.687   -4147.0873    -4659.687            0    3329.8604    19.981638    20.261183     20.99365    8499.3137    5041.1589    2042.7222    2905.7001    646.11298   -192.16322     1592.829   -3734.3385 
 2112000    257.86089   -4675.3458   -4178.0394   -4675.3458            0    1371.6645    20.190631     20.07863    21.107225    8556.8733    2405.6321    1413.6608    295.70048    237.65081     1379.011   -376.14571    -4006.865 
 2113000    257.90895   -4713.3965   -4215.9974   -4713.3965            0    1975.6444     19.90278    20.091629    21.169803    8465.3657    709.62841    2495.0673    2722.2375    219.59166   -1663.4319    708.75045    -3972.087 
 2114000    260.59022   -4681.3684   -4178.7982   -4681.3684            0    2216.4569    20.038531    20.125014    21.120658    8517.4486    3450.7712    1112.6428    2085.9567   -127.62719    606.35857    206.37416   -3903.4738 
 2115000    259.34875    -4685.382   -4185.2061    -4685.382            0    3192.2848    20.215183      19.9173    20.928822    8426.6108    1074.6956    3806.9313    4695.2273   -70.286733     118.9092    -1098.562   -3792.8952 
 2116000    248.62857    -4695.477   -4215.9759    -4695.477            0    2068.0787    20.070659    20.315183    20.721409    8448.9286    1721.8185    1103.5088    3378.9089   -1213.9698    234.14466   -533.70474   -3961.1494 
 2117000    257.19219   -4713.6449   -4217.6282   -4713.6449            0    3082.5719    20.078819    20.109345    20.751499    8378.8726     2321.214    2435.0156     4491.486    279.04138   -70.319968    1131.4437   -3840.9463 
 2118000    254.85422   -4704.9444   -4213.4365   -4704.9444            0    1977.0011    20.113403    20.064702    21.164041    8541.1604    1364.5774    3391.8212    1174.6046    518.21049    267.20466     572.4618   -3967.1733 
 2119000    244.15828   -4682.3849   -4211.5051   -4682.3849            0    1922.9039    20.159985    20.003114    21.047616    8487.7143    2527.6222     1510.334    1730.7556   -748.56272    1520.6294    -743.2647   -3973.4792 
 2120000    257.90819   -4680.4627    -4183.065   -4680.4627            0     1859.352    20.330631    20.109446    20.840021    8520.1865     2200.819    339.05013     3038.187    138.51441    842.15408    1507.5495   -3952.0253 
 2121000    251.89588   -4703.2838   -4217.4815   -4703.2838            0    2902.5946    20.345976    20.042734    20.809002    8485.6818    702.44658    4490.4305    3514.9069    4.7517829   -600.55969   -84.135973    -3858.271 
 2122000    258.80027   -4647.5308   -4148.4128   -4647.5308            0     4570.162    19.951288    20.244392    20.785493    8395.2953    6367.1535    1708.1806     5635.152   -195.14056    -758.9769   -123.88966   -3588.8569 
 2123000    252.81767   -4675.5372   -4187.9571   -4675.5372            0    1374.4053    20.191464     20.18898    21.253148    8663.7407    35.565732    3312.4538    775.19641    236.18855      1710.39   -191.54674   -4014.2985 
 2124000    260.82768   -4687.6424   -4184.6143   -4687.6424            0    3097.0802    20.163132    20.212898     20.95753    8541.3529    1003.5868    4978.8131    3308.8407    78.075666   -157.20466   -471.42778   -3798.8207 
 2125000    272.54025     -4694.87   -4169.2532     -4694.87            0    3071.7884    20.279662    20.252938    20.731385    8514.8514    4801.6653    778.17875     3635.521   -579.81401   -403.32241    504.55199   -3787.7974 
 2126000    247.15784   -4698.9439   -4222.2792   -4698.9439            0    1140.6338    20.156643    20.230755     20.88125    8515.0421    316.12901    729.56819    2376.2043   -634.61856    555.36688    546.13076   -4080.6317 
 2127000    256.81025   -4695.6148   -4200.3346   -4695.6148            0    1661.0269    20.137568    19.937249    21.249864     8531.559    2043.8358    2596.1277    343.11728   -350.45372   -227.90292   -332.36216   -3993.6629 
 2128000    245.78263   -4678.5888   -4204.5764   -4678.5888            0    4143.2955    20.052364    20.030083    21.075337    8464.9199    5969.0984    3077.9313    3382.8567    22.914713   -954.38688    706.60998   -3693.0775 
 2129000    269.56773   -4658.3842   -4138.5002   -4658.3842            0    1721.5844    20.109731    20.302365    20.980043    8565.6289    1975.4686    1136.4072    2052.8775   -157.76622    -1661.516    337.88107   -3923.4383 
 2130000    244.88776   -4704.6848   -4232.3981   -4704.6848            0     862.2847    20.194656    19.942621    21.067202    8484.4868   -1124.2156    3716.9923   -5.9225843    394.47058    610.04885    -224.0608   -4125.7012 
 2131000     244.5352   -4698.9223   -4227.3156   -4698.9223            0    2700.5585    20.100827    20.188932    20.938792    8497.2596    3244.5504    1228.4793    3628.6458    138.74811    662.34046    195.23732    -3892.652 
 2132000    257.88332   -4653.1787    -4155.829   -4653.1787            0     1739.319    20.156196    20.137675    21.063335    8549.5848    2161.6151    453.74671     2602.595   -63.021521    356.23605    503.48376   -3938.9587 
 2133000    258.98777   -4658.7451   -4159.2654   -4658.7451            0    3378.7818    19.995472    19.970865    21.267187    8492.5594    3868.7562    3696.6058    2570.9835    555.52154    119.21808   -1133.5604   -3740.7854 
 2134000    243.98303   -4680.5567   -4210.0149   -4680.5567            0    197.14146    19.983726    20.368371    20.983621    8541.0881    1012.4853   -846.16242    425.10148   -463.46161    97.082323   -602.81727   -4185.4583 
 2135000    264.99541   -4709.3898   -4198.3239   -4709.3898            0    3228.5951    19.896132    20.201132     20.91994    8408.2342    4675.1674    886.70991    4123.9081    72.950616    173.02058    406.89338   -3802.4159 
 2136000    261.23351   -4686.2141   -4182.4034   -4686.2141            0     827.8341    20.248201    20.096317    20.972071    8533.8349      422.251    1436.2909    624.96038    420.64488    838.26842    1092.9686   -4079.3734 
 2137000    251.83672   -4691.8678   -4206.1796   -4691.8678            0    2508.1277    20.068154    20.300398    21.042498     8572.535    3330.1302    2187.5901    2006.6627    496.88898   -1293.0186   -1062.2821   -3892.6093 
 2138000    258.34037   -4696.6437   -4198.4125   -4696.6437            0    4230.6551     20.01043    19.972501    20.983969     8386.418    4817.0288     4977.542    2897.3946   -213.49647    122.06447    1540.4861   -3680.9725 
 2139000    243.21906    -4704.296   -4235.2276    -4704.296            0    2589.5349    19.965685    20.113053    21.274375    8543.1693    3550.8833    2395.7484    1821.9731   -372.30146   -1361.0238    529.96875   -3912.5888 
 2140000    263.16056   -4681.6352   -4174.1079   -4681.6352            0    2056.0978    20.045669    20.116838    20.991455    8464.9194    3040.0993    1176.2679    1951.9263    9.4741972   -296.20355    374.67035   -3920.2782 
 2141000    261.62081   -4694.2554   -4189.6976   -4694.2554            0    2438.6575    20.036344    20.241513    20.912853    8481.5405    4380.1652    36.137841    2899.6694   -670.59118    699.85849    313.14565   -3888.0489 
 2142000    265.99524   -4707.6361   -4194.6419   -4707.6361            0    1231.4675     20.36932    19.853559    21.009123    8496.1631    1406.3785     1225.151    1062.8731    618.71686    230.20609   -527.98436   -4042.0535 
 2143000    274.46895    -4734.193   -4204.8566    -4734.193            0    3053.2076    20.165295    20.010279     20.96537     8459.803    2274.2532    3281.1883    3604.1813    233.31036   -723.04291   -1023.9647   -3828.1593 
 2144000     266.1164   -4700.5284   -4187.3005   -4700.5284            0    3350.9905    20.031036    20.122741    20.887295    8419.2375    2813.9061    3102.7896    4136.2756   -710.35038   -1120.6271    641.01674    -3775.846 
 2145000     259.5127   -4690.7859   -4190.2939   -4690.7859            0    4298.5295    20.082627    20.053273    20.995046    8455.1753    4460.8704    4523.3388    3911.3794    7.4831807   -909.96042    709.35925   -3660.2419 
 2146000    255.29105   -4695.3968   -4203.0465   -4695.3968            0    2873.7264    20.032995    20.017297     21.15828    8484.6062    3495.6256    2698.3715     2427.182    436.48064    605.71737     1128.533   -3847.4537 
 2147000    260.52397   -4732.1659   -4229.7236   -4732.1659            0    1915.1853     20.16301    20.143626    20.918926    8496.3501    3216.6283    143.48813    2385.4396    -22.27665    255.78941    688.61412   -3992.4119 
 2148000    248.07727   -4689.7472   -4211.3094   -4689.7472            0    3147.3527      20.2071    20.364271    20.624301    8486.9592      3997.73    1023.8008    4420.5273   -527.25085    488.18203   -697.75137   -3821.7502 
 2149000    268.10137   -4693.7054   -4176.6494   -4693.7054            0    1790.7513    20.188585    20.017668     21.01467    8492.6247     193.2004    3798.8361    1380.2173   -300.57538    344.49887    259.96188   -3954.8537 
 2150000    258.08204   -4695.2859   -4197.5529   -4695.2859            0    2238.4981    19.958315    20.135459    21.026182    8449.7882    2216.8893    1840.4504    2658.1546    636.56215    178.16488   -390.19995   -3921.6995 
 2151000    264.18226   -4658.4345   -4148.9368   -4658.4345            0     2221.434    20.273878    19.961561    21.071023    8527.4064    1096.1874    2966.5564    2601.5583    938.42572    466.42024    81.809874   -3872.6715 
 2152000    265.33123   -4678.3753   -4166.6617   -4678.3753            0    2183.2973    20.287353    19.826164    21.128117    8498.1599    664.08642    3178.5757    2707.2299   -240.85824    960.62136    242.26256   -3896.0705 
 2153000    258.28727   -4693.9083   -4195.7795   -4693.9083            0    2321.3873    20.209718    20.138492    20.904521     8507.999    2193.1791    2673.1157     2097.867   -577.45596    894.84879    1270.3082   -3907.7408 
 2154000    268.06399   -4704.5807   -4187.5967   -4704.5807            0    3496.1966    20.237765    20.203673    20.572113    8411.4672    4343.0296     2083.346    4062.2141   -203.11873    167.39171   -722.46233   -3758.7091 
 2155000    257.85602   -4695.4559   -4198.1589   -4695.4559            0    3286.1406    20.190274    20.082669      20.9198    8482.4475    3324.9039    3421.4269    3112.0908   -340.23387    1812.1473   -24.115554   -3791.6377 
 2156000    250.13063   -4698.1553   -4215.7574   -4698.1553            0    1882.7218     20.02956    20.083545     21.23817    8543.3631    1657.1582    2944.7421    1046.2652    490.72071   -346.68777   -700.48412   -3981.1774 
 2157000    264.12276   -4685.1581   -4175.7751   -4685.1581            0    3008.6038    20.111017    20.185822    20.818934    8451.6004    4111.8569    1519.8396     3394.115    373.38434   -545.91127    76.433657   -3804.9408 
 2158000    247.94288   -4705.4516   -4227.2729   -4705.4516            0    2005.7293    20.273891    20.100533    20.985602    8551.9688    765.20707    1759.8131    3492.1677    737.68606     141.1896    693.26143   -3977.1149 
 2159000     252.4223   -4697.2133   -4210.3956   -4697.2133            0    4940.3563     20.23687    20.006674    20.695293    8378.9541    5610.2416    3078.9467    6131.8808   -304.30004    1973.4767    120.61723   -3606.6917 
 2160000     244.5808   -4653.6002   -4181.9055   -4653.6002            0    2581.8169    20.262562    20.128619    20.910781    8528.6167    1892.7269    2120.7446    3731.9791    -673.1753   -482.00449   -102.94816   -3860.7762 
 2161000    255.63977   -4700.4094   -4207.3865   -4700.4094            0     3876.867    19.872669    19.951419     21.13521    8379.8561    4133.5337    4075.9495    3421.1178   -322.13139    369.45457    1680.9435   -3733.5884 
 2162000    266.22597   -4697.9053   -4184.4662   -4697.9053            0    3405.1362     20.30395    19.935914    21.091209    8537.2534    2752.2456    3683.4984    3779.6646    569.62946    865.03108    638.88648   -3760.5026 
 2163000    270.71031    -4702.229   -4180.1414    -4702.229            0    4098.5878    19.951278    19.791602    21.414411    8455.8603    3372.3833    6593.1131     2330.267     285.0282   -780.25718   -1157.2026   -3674.7034 
 2164000     255.4099   -4702.1435   -4209.5641   -4702.1435            0    970.23128     20.03409    20.192683    21.230969    8588.8194    1867.0006   -252.43114    1296.1244    106.85442    882.93667    919.57037   -4088.0337 
 2165000    253.90413   -4681.9519   -4192.2764   -4681.9519            0    4760.6466    20.162519     20.05868    20.872885    8441.6943    5063.1075    4179.4823    5039.3501    62.913587   -148.92295   -1211.7625   -3606.1768 
 2166000     255.6024   -4660.0443   -4167.0936   -4660.0443            0    3466.2928    20.176927    20.316896    20.484166    8397.1257    3901.1447    2808.2082    3689.5255   -606.09695     1361.239    1269.1256   -3742.5994 
 2167000    257.78071   -4683.5941   -4186.4424   -4683.5941            0    2728.0325    19.997004    20.258069    20.788378    8421.3863     2796.959    2350.8147    3036.3238    304.81878   -351.44081    1529.6666   -3851.3928 
 2168000     263.1507    -4670.225   -4162.7167    -4670.225            0    1699.6676    20.098946    20.201488    21.081568    8559.7198    3284.6197    735.51989    1078.8631    112.38569   -918.80138    1105.8826   -3950.5391 
 2169000    264.65776   -4661.1317   -4150.7169   -4661.1317            0    3416.8355    20.040562    19.994881    21.192162    8491.8826    4436.5051    2950.6676     2863.334   -744.64739    555.98034   -722.35935   -3727.5576 
 2170000    259.11995   -4678.8892   -4179.1546   -4678.8892            0    775.37012    20.078555     20.16331    21.427858    8675.0711   -621.91357     1974.295    973.72889   -312.53601    592.27174   -1261.1386   -4081.0571 
 2171000     253.9017   -4659.2624   -4169.5916   -4659.2624            0    2030.0564    20.080046    20.128524    21.052313    8508.9594    1405.4108    3635.9295     1048.829   -862.57097    351.88201   -593.56956   -3917.6729 
 2172000     252.9284   -4698.9791   -4211.1854   -4698.9791            0      2923.73     20.06042     20.01131    21.169197    8498.0626    3076.9619    2748.5009    2945.7272    115.43576   -476.39627    195.80293   -3848.8314 
 2173000    253.38902   -4703.4413   -4214.7593   -4703.4413            0    2267.8443    19.986116    20.257758    20.976366    8492.7834    2134.0812    3566.2919    1103.1598   -340.51655     1139.239    893.86448   -3933.8674 
 2174000     254.8628   -4679.4435   -4187.9191   -4679.4435            0    769.45426    20.159722    20.333017    20.945383    8585.6796    708.28305    289.26048    1310.8193    62.936797    441.72911   -106.13774   -4091.5732 
 2175000    256.88409   -4694.4705   -4199.0479   -4694.4705            0    2299.3217    20.275516    20.233021    20.672672    8480.6528    1820.1001    1218.1062    3859.7587   -125.90791     498.6733    238.76541   -3914.6641 
 2176000    255.51842   -4710.3701   -4217.5814   -4710.3701            0    3294.6653     20.07309     20.04004     21.04407    8465.3038    4076.4356    3226.6218    2580.9386    173.37369    1443.2905   -755.99973   -3810.8293 
 2177000    266.47251   -4697.1442   -4183.2295   -4697.1442            0    2605.6679    19.967218     19.74815     21.29136    8395.5157    1561.0145    5340.7895    915.19956    -422.0748   -742.58136   -47.378831   -3864.1916 
 2178000    254.98527   -4678.3901   -4186.6295   -4678.3901            0    1776.9868    19.933107    20.223607    21.074832    8495.6722    1436.6619    1840.9358    2053.3626   -287.77162   -1172.1515    276.52454   -3966.4597 
 2179000    266.32773   -4665.7635   -4152.1281   -4665.7635            0     3169.047    20.107502    20.196384    20.756883    8429.3456    3717.0236    2279.6182    3510.4994    881.43733   -409.51046   -242.64045   -3762.5465 
 2180000    272.66727   -4699.2998    -4173.438   -4699.2998            0    2162.9878     20.21469    20.103453    21.039747    8550.2393    993.06198    3110.2812    2385.6203    337.94004    -700.9558     848.4893   -3903.7211 
 2181000    248.68754   -4681.9348   -4202.3199   -4681.9348            0    2873.8171    20.119387    20.202118    20.807268    8457.2023    1566.9788    4121.7772    2932.6952   -206.15903    685.02042   -640.23532   -3847.8644 
 2182000    255.88624   -4683.0017   -4189.5036   -4683.0017            0    1097.0192    19.977083    20.551803    20.689329    8494.3156    3889.2834   -2395.9433    1797.7175    33.677552    2494.9482   -130.90802   -4053.6039 
 2183000    249.20398   -4692.4489    -4211.838   -4692.4489            0     1862.829    20.331312    19.856319    20.946369    8456.1544    1519.2057    3097.4348     971.8464    557.63858   -474.98424    1434.5663   -3982.1059 
 2184000     259.8806   -4716.2435   -4215.0419   -4716.2435            0     2145.795    20.204534    20.010072    21.118325    8538.0155    3151.3275    1828.6164    1457.4412    70.004154   -1004.4504    216.27663   -3947.8514 
 2185000    258.00656   -4671.6859   -4174.0985   -4671.6859            0    3444.7744    20.185075    20.129873    20.864881     8477.881    4044.0743    3406.6744    2883.5743   -574.96677    1239.2574    79.702737   -3748.1825 
 2186000    274.45847   -4685.4626   -4156.1463   -4685.4626            0    1580.0725    20.377613    20.094477    20.922518    8567.2999    619.65227    2081.1547    2039.4104   -733.04139    594.70317    271.46265   -3958.7237 
 2187000    258.75887   -4703.3636   -4204.3253   -4703.3636            0    1436.7136     20.31237    20.091667    20.836253    8503.4701    55.238768    2168.3597    2086.5423   -90.122022   -88.658266    255.75227   -4026.1521 
 2188000    270.83126   -4696.0474   -4173.7265   -4696.0474            0    2772.7449    20.129304    19.997625    21.007141    8456.1787    3525.4847     2971.264     1821.486   -123.87558     234.4009    528.04286   -3831.7786 
 2189000    249.57734    -4706.957   -4225.6261    -4706.957            0     1369.758     20.00178    20.114635    21.163553    8514.7007    1915.5082    2353.4046   -159.63872   -251.25065    15.594376   -819.98647   -4055.5321 
 2190000    272.14132   -4675.7724   -4150.9249   -4675.7724            0    1887.7779    20.213919    19.900094    21.240858    8544.3242   -1115.5882    5934.3949    844.52702   -443.47384   -698.20425    334.84162   -3915.6885 
 2191000    256.51458   -4680.8404   -4186.1304   -4680.8404            0    1837.5385    20.046057     20.28211    20.908012    8500.7028     3470.635    523.52407    1518.4564   -75.889408     787.8275    780.23981   -3958.3234 
 2192000    263.20727   -4690.6317   -4183.0143   -4690.6317            0    2952.0776    20.121739    20.438425    20.700418    8513.1851    3251.4597     1967.716    3637.0569   -248.89753    353.76929   -263.13908   -3816.4959 
 2193000    256.64282   -4671.8721   -4176.9148   -4671.8721            0     2163.019    20.213323    20.026342    20.979879    8492.6321    2932.2512    2194.9764    1361.8293    17.604962    1455.0399    651.63667   -3909.0112 
 2194000     266.9026     -4673.67   -4158.9259     -4673.67            0    1408.6219    19.957193    20.212479    21.204949    8553.7444    1210.6437    2178.1566    837.06538    157.40675   -1332.1399    158.14753   -3983.2037 
 2195000    254.91093   -4680.6758   -4189.0586   -4680.6758            0    1140.7287    20.038863    19.998186    21.458577    8599.3295    1677.1998    1692.7802    52.206086    242.67035    -504.3994   -625.06212   -4045.9971 
 2196000    250.64013      -4672.8   -4189.4194      -4672.8            0     2589.041    20.231994    19.985856    21.126432    8542.5515    2533.1387    3023.3175    2210.6667    294.10724    266.88535    23.601763   -3866.8654 
 2197000    245.17321   -4658.7244   -4185.8873   -4658.7244            0    3724.2116    20.099798    20.135139    20.812928    8423.2466    3119.8683     4319.001    3733.7653     1062.139     1765.563   -634.09937   -3728.3887 
 2198000    259.90705   -4687.5256    -4186.273   -4687.5256            0    3913.2366    20.295647    19.983583    20.847939    8455.5018    3534.0301    4620.4977    3585.1821    464.24725    172.70641    160.07363   -3703.7129 
 2199000    254.95528   -4648.8605   -4157.1578   -4648.8605            0    2224.9495    20.088202     20.19113    20.921066    8485.6574    1487.8518    3451.1591    1735.8376   -107.62278   -26.452732   -555.95653     -3881.81 
 2200000    263.39299   -4705.7232   -4197.7477   -4705.7232            0    1881.5016    20.281758    20.061516    20.908274    8507.2175    1319.5999    1459.5188    2865.3862   -407.19689    294.14806    1283.3441   -3964.3116 
 2201000    258.20481   -4687.2735   -4189.3038   -4687.2735            0    1771.9228    20.201173    20.344978    20.652332    8487.9518    2029.4626   -477.57363    3763.8794    121.87929   -1047.8367    1242.8322   -3969.9609 
 2202000    252.01981   -4674.6164    -4188.575   -4674.6164            0    2171.0164    20.308322    20.048423    20.897421     8508.381    232.34976    3447.6814    2833.0179    293.65047    1482.6409   -150.24209   -3919.1822 
 2203000    250.79345   -4699.7073    -4216.031   -4699.7073            0    3217.5897    20.124091     19.90828    21.327873    8544.7146    5053.6465    2462.5524    2136.5702   -265.78429    919.35427   -593.14055   -3815.0682 
 2204000    256.45711   -4713.7397   -4219.1406   -4713.7397            0    3295.7417    20.078034    19.984958    21.136164    8481.0689    3821.2384    3390.4831    2675.5035     222.7209    771.87529   -859.12702    -3811.498 
 2205000    253.02825   -4708.8661   -4220.8799   -4708.8661            0    1846.1994    20.070372     20.26936    20.860634    8486.3895     3220.828    87.052107    2230.7183    156.43196   -635.89915   -1877.9067   -3992.3845 
 2206000    254.40936   -4708.8055   -4218.1557   -4708.8055            0    1035.3327    20.319188    20.150467    20.905338    8559.5051    801.72694    459.64954    1844.6215    613.81478    313.91166     369.4485   -4088.9134 
 2207000    260.30716   -4696.1308   -4194.1065   -4696.1308            0    4338.5214     19.95395    20.165528    20.909934    8413.7797    4346.3264    5257.2114    3412.0263   -575.90125   -918.69303   -762.87836   -3661.7424 
 2208000    261.26317    -4694.419    -4190.551    -4694.419            0    1916.2002    19.976457    20.062737    21.247968    8515.8117    2629.2319    2964.9274    154.44111    24.833648     547.9294    201.29314   -3952.5697 
 2209000    260.69686   -4696.8577   -4194.0819   -4696.8577            0    2929.6108     19.99984    20.107996    21.103126    8486.7635    2660.8858    3227.3197    2900.6269   -312.49906    472.14372   -186.25094   -3831.4818 
 2210000    270.94518   -4681.2627   -4158.7221   -4681.2627            0    1937.4391     20.17846    20.158505    21.190421    8619.5761    2528.9588    1104.9802    2178.3782    54.981207   -2.2911206     532.1883   -3915.1712 
 2211000    262.36762   -4689.3495   -4183.3515   -4689.3495            0    3289.3064    20.063453    20.019657    21.019785     8442.879    3161.4683    3423.8061    3282.6448     602.1614   -1336.2414    399.04166   -3778.3368 
 2212000     267.5352   -4709.5791    -4193.615   -4709.5791            0    2065.1354    20.223229    20.176854    20.810454    8491.5212    2818.1885    1359.2311    2017.9866   -366.63891   -391.14498   -122.00146   -3937.8684 
 2213000    265.22443   -4672.3342   -4160.8266   -4672.3342            0    2748.3892    20.140244    20.194404    20.733416    8432.6997    3576.5903    2853.1232     1815.454   -438.15003     17.92186   -759.37988   -3822.8234 
 2214000     266.9471   -4689.1038   -4174.2738   -4689.1038            0    482.83285    20.313226    20.197829    20.869457    8562.3847     1044.277   -518.93331    923.15491    380.70643    688.32724    138.86391   -4113.9808 
 2215000    245.54363   -4714.3655    -4240.814   -4714.3655            0    4543.1896    20.101222    19.882655    20.944171     8370.666    5594.0754    4430.9414    3604.5519    413.15404   -522.04196    506.18048   -3686.1924 
 2216000    254.04187   -4700.5889   -4210.6478   -4700.5889            0    1102.0796    20.056816    20.115418    21.090354    8508.9296    2377.6238     852.2497    76.365408    101.43431   -607.20617    104.32076   -4073.8863 
 2217000    257.78783   -4718.9326   -4221.7671   -4718.9326            0    3804.3279     20.21503    19.884742    20.919025    8408.8342    2345.6861    4228.3841    4838.9136   -182.35713    521.62295   -1095.0937   -3755.2263 
 2218000    263.92618    -4678.844   -4169.8401    -4678.844            0      3038.93    20.286158    20.190865    20.737673    8494.0489    4382.9338    1639.8385    3094.0179     122.8291    958.72373    1117.3739   -3793.3866 
 2219000    261.63305   -4684.1737   -4179.5923   -4684.1737            0    3892.7975    20.251315    20.112781    20.797488      8471.03    2464.1927    3570.7571    5643.4429    155.77593    574.59442   -1837.9416   -3698.6711 
 2220000    256.50507   -4709.0386    -4214.347   -4709.0386            0    2408.7581    20.025396    20.019155    21.171879    8487.6263    3096.1744    2623.9544    1506.1455    89.716428    918.41273    802.83944   -3916.1829 
 2221000    257.74472   -4692.1667   -4195.0843   -4692.1667            0    3372.8337    20.013564    20.024314    21.208089    8499.3091    2562.9886     4893.801    2661.7115    764.82129    -1241.769    770.33631   -3777.0091 
 2222000    258.54471   -4714.4489   -4215.8236   -4714.4489            0    3807.3372    20.029375       20.073    20.968263    8430.2829    4621.4284    3258.4284    3542.1549    27.351136    985.14164    576.82558   -3747.7228 
 2223000    242.33556   -4681.4756   -4214.1111   -4681.4756            0    2547.0334    20.178504    20.092797    20.891279    8470.2145    2419.0375    3354.1306    1867.9322    580.73158   -877.48949   -393.07647   -3899.4777 
 2224000    261.15158   -4689.9905   -4186.3377   -4689.9905            0    3860.5097    20.262204    20.125101    20.639227    8416.2415    3788.5672    3574.8395    4218.1225   -176.89083   -559.45183    430.85058   -3712.4901 
 2225000    255.75474   -4709.0916   -4215.8471   -4709.0916            0    3522.1353    20.106928    20.045523    21.006626    8466.8026    2447.3735     4031.843    4087.1894    686.34701    167.27477   -1069.9775   -3780.9351 
 2226000    248.81527   -4675.4262    -4195.565   -4675.4262            0    3281.4141    20.013808    19.936741    21.215875    8465.3487    3725.5688    3430.6839    2687.9897    579.42965   -694.68851   -146.63751   -3790.4468 
 2227000    257.40611   -4616.1444   -4119.7151   -4616.1444            0    2932.0628     20.19907    19.897674    21.146116    8498.9306    2403.0053    3405.7559    2987.4273    573.94993    107.82943    20.277407   -3756.2912 
 2228000    273.41453   -4696.9265   -4169.6236   -4696.9265            0    3478.6033    20.071679    20.194036    20.929376    8483.2664    3329.5462    4085.4908    3020.7727   -23.559913    -238.6348    949.80882   -3739.2517 
 2229000    260.53938   -4670.2959   -4167.8238   -4670.2959            0    2997.4973      20.4379    20.041193    20.652578     8459.294     3080.862    2292.0259    3619.6038    257.96282    1059.3707     1694.979   -3798.0222 
 2230000    268.86042   -4674.1474   -4155.6274   -4674.1474            0    2534.8001    20.166155    20.226625    20.962946    8550.6441    2034.4478    3647.2092    1922.7433   -69.503331   -45.737516   -213.54361   -3839.5318 
 2231000    265.54883   -4671.5063   -4159.3731   -4671.5063            0    3623.4971    20.281902     19.93473    21.043665    8508.2538    2720.7469    5232.7704    2916.9739    80.502571   -1707.7931     344.5508   -3709.7545 
 2232000    257.96581   -4684.7423   -4187.2336   -4684.7423            0     1649.794    20.121606      20.0004    21.222655    8540.8488    1633.5228    1990.2868    1325.5723    307.54693    1410.1139     693.3794    -3981.736 
 2233000    256.43991   -4693.3179   -4198.7519   -4693.3179            0    1897.3432    20.120931     19.88928     21.25005    8504.0748    3252.7418    1041.7221    1397.5657    305.55453    18.119125   -44.168921   -3963.4374 
 2234000    262.89035   -4677.2766   -4170.2705   -4677.2766            0    3132.0217    20.387742     19.91005    20.833125    8456.6023    3197.0659    3800.5414    2398.4577    635.08035    -901.0087   -732.69401   -3783.9955 
 2235000     254.2739   -4703.0058   -4212.6172   -4703.0058            0    2032.0815    20.150827    20.108347    20.925267    8478.9143    3059.8767    1154.7882    1881.5794    544.98541   -929.51804    1167.2732   -3961.3376 
 2236000    260.27328   -4701.7752   -4199.8163   -4701.7752            0    4396.6593    20.220201    19.752463    21.021269    8395.8691    3537.1937    5883.4233     3769.361   -11.745272   -1492.6112   -609.63283   -3661.4668 
 2237000    253.94117   -4680.9749    -4191.228   -4680.9749            0    3976.5086    20.122137    19.988318    21.216291    8533.3549    5403.1229    3502.1129    3024.2899   -599.11522    822.53011    446.75579   -3696.3506 
 2238000    263.24805   -4681.6742   -4173.9782   -4681.6742            0    2102.2036    20.003693    20.211702    21.116382    8537.5364    3506.5716    2215.7018    584.33747    61.474853     632.9056   -980.46342   -3912.2303 
 2239000    250.35249   -4683.2108    -4200.385   -4683.2108            0    2211.9478    20.141254    20.127331    20.902012    8473.4601    3382.3913    19.839526    3233.6126   -54.086557    733.63909    469.48478   -3927.0397 
 2240000    264.35451   -4684.9596   -4175.1297   -4684.9596            0    3256.0875    20.102597    20.099349    21.005369    8487.2006    2780.1185    4416.4326    2571.7116   -309.40641   -245.99654   -596.65976   -3772.1005 
 2241000    253.55997   -4707.3092   -4218.2975   -4707.3092            0    2451.2728    19.992668    20.055481     21.28612    8534.9374    2559.0389     3738.403    1056.3766   -47.644558   -1238.3784    1214.7375   -3913.1794 
 2242000    268.36018   -4700.1665   -4182.6113   -4700.1665            0    3659.9384    20.002191    20.100244    21.040855    8459.4531    4719.6002    1953.6371    4306.5779    255.85228    554.71439   -274.19756   -3731.0758 
 2243000    256.21852    -4665.358    -4171.219    -4665.358            0    5742.1421    20.041004    20.146704    20.970007    8466.8539       7229.8    5001.0498    4995.5764    39.541863    46.446504   -17.803734   -3462.1771 
 2244000    262.63299   -4684.8871   -4178.3773   -4684.8871            0    3050.0998    20.083538    20.233752    20.699648    8411.6192    2918.7304    2496.1225    3735.4465   -654.25625   -622.70594   -312.13113   -3804.2068 
 2245000    270.14355   -4668.6201   -4147.6255   -4668.6201            0    2802.5524    20.070198    20.178829    21.206339    8588.4207     2552.024    3495.7375    2359.8957    49.548205    1213.9702    746.57968   -3796.5965 
 2246000    253.75892     -4663.52   -4174.1245     -4663.52            0    1717.9045    20.122533    20.096154    20.970911    8480.3328    2256.7004    1697.5498    1199.4633    -996.4436    230.75104   -801.53186   -3961.6593 
 2247000    267.33781   -4710.1697   -4194.5863   -4710.1697            0    1586.8158    20.082578     20.24753    21.024456    8549.0189    1183.1597     2071.042    1506.2456   -117.10408    46.122113   -198.91852   -3996.7442 
 2248000    277.70492   -4704.1657   -4168.5884   -4704.1657            0    2138.8274    20.219774    19.978743    21.074838     8513.511    960.44181    3058.3194    2397.7208   -445.03412   -153.23027   -638.74129   -3903.0299 
 2249000    259.68347   -4710.7742   -4209.9527   -4710.7742            0    3211.2031    20.179535    20.204762     20.78875    8476.0451    4428.6811    2745.3248    2459.6035    526.80822    173.47752   -210.78072   -3813.0017 
 2250000    270.39255   -4664.1126   -4142.6378   -4664.1126            0    2283.3393    20.340928    20.285989    20.815542    8589.2385    1789.6027    2397.5844    2662.8309    207.00842   -546.14893     1601.397   -3856.6148 
Loop time of 353.421 on 64 procs for 250000 steps with 972 atoms

Performance: 122.234 ns/day, 0.196 hours/ns, 707.371 timesteps/s
194.4% CPU use with 32 MPI tasks x 2 OpenMP threads

MPI task timing breakdown:
Section |  min time  |  avg time  |  max time  |%varavg| %total
---------------------------------------------------------------
Pair    | 25.306     | 33.245     | 42.109     |  74.0 |  9.41
Bond    | 0.88748    | 1.077      | 1.5097     |  13.7 |  0.30
Kspace  | 152.82     | 164.46     | 173.33     |  38.6 | 46.53
Neigh   | 2.1541     | 2.4499     | 2.7236     |  12.2 |  0.69
Comm    | 65.973     | 69.708     | 73.662     |  30.7 | 19.72
Output  | 0.52097    | 0.52126    | 0.52291    |   0.0 |  0.15
Modify  | 67.331     | 69.281     | 74.083     |  17.5 | 19.60
Other   |            | 12.68      |            |       |  3.59

Nlocal:        30.3750 ave          36 max          26 min
Histogram: 2 1 7 4 3 4 3 3 4 1
Nghost:        2515.06 ave        2542 max        2489 min
Histogram: 4 0 3 7 3 4 3 3 2 3
Neighs:        9179.94 ave       11284 max        6707 min
Histogram: 1 0 5 3 8 1 6 3 2 3

Total # of neighbors = 293758
Ave neighs/atom = 302.22016
Ave special neighs/atom = 2.0000000
Neighbor list builds = 8314
Dangerous builds = 0

unfix		3
unfix		2
unfix		1

write_data	data.final.${pid}
write_data	data.final.0
System init for write_data ...
PPPM initialization ...
  extracting TIP4P info from pair style
  using 12-bit tables for long-range coulomb (../kspace.cpp:340)
  G vector (1/distance) = 0.37147287
  grid = 24 24 25
  stencil order = 5
  estimated absolute RMS force accuracy = 0.003526065
  estimated relative force accuracy = 1.061864e-05
  using double precision FFTW3
  3d grid and FFT values/proc = 3458 576
Last active /omp style is kspace_style pppm/tip4p/omp
WARNING: Not all mixed pair coeffs generated from mixing. Use write_data with 'pair ij' option to store all pair coeffs. (../write_data.cpp:312)

write_restart   restart.lmp.${pid}
write_restart   restart.lmp.0
System init for write_restart ...
PPPM initialization ...
  extracting TIP4P info from pair style
  using 12-bit tables for long-range coulomb (../kspace.cpp:340)
  G vector (1/distance) = 0.37147287
  grid = 24 24 25
  stencil order = 5
  estimated absolute RMS force accuracy = 0.003526065
  estimated relative force accuracy = 1.061864e-05
  using double precision FFTW3
  3d grid and FFT values/proc = 3458 576
Last active /omp style is kspace_style pppm/tip4p/omp
Total wall time: 0:05:53
