#include		in.partitions
include		in.temp
variable        temperature equal 35.22
variable	tempDamp equal 100.0
include		in.pressure
variable        pressure equal 2161.0
variable        pressureDamp equal 1000.0 # This is 1 ps
include		in.seed
variable        seed equal 745823

units		real
atom_style	full
#include		in.box
read_restart	restart.lmp.${pid}
read_restart	restart.lmp.0
Reading restart file ...
  restart file = 30 Jul 2021, LAMMPS = 30 Jul 2021
  restoring atom style full from restart
  orthogonal box = (0.18745503 0.14071740 0.17220433) to (18.020117 23.488460 22.040991)
  2 by 4 by 4 MPI processor grid
  restoring pair style lj/cut/tip4p/long/omp from restart
  restoring bond style harmonic/omp from restart
  restoring angle style harmonic/omp from restart
  864 atoms
  576 bonds
  288 angles
Finding 1-2 1-3 1-4 neighbors ...
  special bond factors lj:    0        0        0       
  special bond factors coul:  0        0        0       
     2 = max # of 1-2 neighbors
     1 = max # of 1-3 neighbors
     1 = max # of 1-4 neighbors
     2 = max # of special neighbors
  special bonds CPU = 0.004 seconds
  read_restart CPU = 0.010 seconds
include 	in.setup
variable	out_freq equal 1000
variable	out_freq2 equal 10000
variable	out_freq3 equal 1000

timestep	2.0

neigh_modify    delay 7 every 1

include		in.tip4p
# This is TIP4P/Ice

# create groups ###
group ox type 2
288 atoms in group ox
group hy type 1
576 atoms in group hy

# set charges - beside manually ###
set group ox charge -1.1794
Setting atom values ...
  288 settings made for charge
set group hy charge 0.5897
Setting atom values ...
  576 settings made for charge

# ### TIP3P Potential Parameters ###
pair_style lj/cut/tip4p/long/omp 2 1 1 1 0.1577 8.5
pair_coeff 1 1*2 0.000 0.000
pair_coeff 2 2 0.21084 3.1668
bond_style  harmonic
bond_coeff  1 450 0.9572
angle_style harmonic
angle_coeff 1 55 104.52
kspace_style pppm/tip4p/omp 1.0e-5
pair_modify tail yes

thermo          ${out_freq}
thermo          1000
thermo_style    custom step temp pe etotal epair emol press lx ly lz vol pxx pyy pzz pxy pxz pyz enthalpy

restart 	${out_freq3} restart.lmp.${pid} restart2.lmp.${pid}
restart 	1000 restart.lmp.${pid} restart2.lmp.${pid}
restart 	1000 restart.lmp.0 restart2.lmp.${pid}
restart 	1000 restart.lmp.0 restart2.lmp.0


include         in.dump
dump            myDump all atom ${out_freq2} dump.water.${pid}
dump            myDump all atom 10000 dump.water.${pid}
dump            myDump all atom 10000 dump.water.0
dump            myDump2 all dcd ${out_freq2} dump.dcd
dump            myDump2 all dcd 10000 dump.dcd
dump_modify     myDump append yes
dump_modify     myDump2 append yes


variable natoms 	equal  "count(all)"                        # NUMBER ATOMS
variable H      	equal  "enthalpy/v_natoms"                 # ENTHALPY-per-atom
variable Vol      	equal  "vol/v_natoms"                 # volume-per-atom
fix AVG all 		ave/time ${out_freq} 1 ${out_freq} v_Vol v_H file vol_enthalpy.dat
fix AVG all 		ave/time 1000 1 ${out_freq} v_Vol v_H file vol_enthalpy.dat
fix AVG all 		ave/time 1000 1 1000 v_Vol v_H file vol_enthalpy.dat


timer           timeout 23:50:00 every 1000
New timer settings: style=normal  mode=nosync  timeout=23:50:00

fix 		1 all shake 1e-6 200 0 b 1 a 1
       0 = # of size 2 clusters
       0 = # of size 3 clusters
       0 = # of size 4 clusters
     288 = # of frozen angles
  find clusters CPU = 0.000 seconds
fix             2 all nph aniso ${pressure} ${pressure} ${pressureDamp}
fix             2 all nph aniso 2161 ${pressure} ${pressureDamp}
fix             2 all nph aniso 2161 2161 ${pressureDamp}
fix             2 all nph aniso 2161 2161 1000
fix             3 all temp/csvr ${temperature} ${temperature} ${tempDamp} ${seed}
fix             3 all temp/csvr 35.22 ${temperature} ${tempDamp} ${seed}
fix             3 all temp/csvr 35.22 35.22 ${tempDamp} ${seed}
fix             3 all temp/csvr 35.22 35.22 100 ${seed}
fix             3 all temp/csvr 35.22 35.22 100 745823


run             250000
PPPM initialization ...
  extracting TIP4P info from pair style
  using 12-bit tables for long-range coulomb (../kspace.cpp:340)
  G vector (1/distance) = 0.3721695
  grid = 24 27 25
  stencil order = 5
  estimated absolute RMS force accuracy = 0.0031086508
  estimated relative force accuracy = 9.3616095e-06
  using double precision FFTW3
  3d grid and FFT values/proc = 4410 672
Last active /omp style is kspace_style pppm/tip4p/omp
Neighbor list info ...
  update every 1 steps, delay 7 steps, check yes
  max neighbors/atom: 2000, page size: 100000
  master list distance cutoff = 10.8154
  ghost atom cutoff = 10.8154
  binsize = 5.4077, bins = 4 5 5
  1 neighbor lists, perpetual/occasional/extra = 1 0 0
  (1) pair lj/cut/tip4p/long/omp, perpetual
      attributes: half, newton on, omp
      pair build: half/bin/newton/omp
      stencil: half/bin/3d
      bin: standard
Per MPI rank memory allocation (min/avg/max) = 10.19 | 10.22 | 10.23 Mbytes
Step Temp PotEng TotEng E_pair E_mol Press Lx Ly Lz Volume Pxx Pyy Pzz Pxy Pxz Pyz Enthalpy 
43750000    35.969301   -4675.0068   -4613.3566   -4675.0068            0    2121.5377    17.832662    23.347743    21.868787    9105.1224    1860.1973    1901.9199    2602.4958   -333.46931    112.98978    7.9420938     -4331.64 
43751000     36.93589   -4680.1521   -4616.8453   -4680.1521            0    2182.1712    17.871821    23.150552    21.998332    9101.6453     2851.384    1904.4084    1790.7212   -131.48265    12.715978    18.357807   -4327.1879 
43752000    35.026281   -4678.5364   -4618.5025   -4678.5364            0     2075.421    17.930104     23.23463    21.855343    9104.9212    1968.4277    2330.0337    1927.8018  -0.24076409   -243.00497     100.9546   -4342.9158 
43753000    35.188029   -4679.3725   -4619.0614   -4679.3725            0    2342.4884    17.866659    23.249921    21.908455    9100.7377    2671.0907    1790.1489    2566.2257    149.40001   -91.886446    168.94211   -4308.1548 
43754000    32.789899    -4678.617   -4622.4162    -4678.617            0    2251.7618     17.91488    23.227472     21.86817    9099.7249    1730.3147    2609.6319    2415.3388    124.71589    210.51764    184.29866   -4323.5846 
43755000    35.599508   -4676.8865   -4615.8702   -4676.8865            0    1645.1982    17.903508    23.262197    21.935171     9135.449    1602.1728    1513.2248     1820.197    28.194852   -168.27888   -25.544337   -4396.6785 
43756000    34.421694   -4675.4013   -4616.4037   -4675.4013            0    2077.0313    17.959497    23.165343    21.912973    9116.6273    1556.4075    2149.6103    2525.0759   -93.682453   -70.931716    29.268848   -4340.2486 
43757000    36.294041   -4680.1136   -4617.9068   -4680.1136            0    2044.1291    17.846151    23.273809    21.922965    9105.6575    2429.9679    1994.3464    1708.0731    337.08583    312.82772    299.43247   -4346.4533 
43758000    35.587462   -4675.6799   -4614.6842   -4675.6799            0    2165.1365     17.87591    23.186582    21.954339    9099.6621    2193.9392    2347.3194    1954.1508    -240.7381   -27.753358    196.76952   -4327.3506 
43759000     36.51381   -4675.7881   -4613.2047   -4675.7881            0    2264.2554     17.85143    23.286684    21.893369     9101.087    2557.9892    2146.4079     2088.369    339.09697    -266.5878   -96.331177   -4312.6701 
43760000    35.170377   -4676.8521   -4616.5713   -4676.8521            0    2394.2614    17.849315    23.381636    21.793973     9095.632    2457.4412    2250.0455    2475.2975   -342.50745     124.8192   -66.789561   -4298.9714 
43761000    34.322029   -4676.8726   -4618.0458   -4676.8726            0    2304.6606    17.813404    23.324634    21.917172    9106.3904    2648.1455    2073.4429    2192.3933   -286.20491   -144.59195   -33.376459   -4311.9699 
43762000    38.009698   -4676.9989   -4611.8516   -4676.9989            0     1560.308    17.930462    23.332834    21.841255     9137.693    1498.3076    1189.8949    1992.7216    78.510699   -151.30129   -114.93825   -4403.9189 
43763000    35.279957    -4675.873   -4615.4044    -4675.873            0    2034.3197    17.877605    23.387907    21.797561    9113.9908    2090.3236    1873.1088    2139.5265    170.93874   -184.74838    120.90635   -4345.0063 
43764000      34.4128   -4679.5365   -4620.5542   -4679.5365            0    2422.8985    17.879353    23.253692    21.869546    9092.5035    2489.4325    2076.0875    2703.1754   -28.841692    160.76383    94.020768   -4299.2661 
43765000    35.730087   -4677.9856   -4616.7455   -4677.9856            0    2790.2948    17.914832    23.173419    21.876425    9081.9523    2565.4119    3048.8237    2756.6488    55.446341  -0.55921864    92.608721   -4247.1683 
43766000    34.753281   -4677.5326   -4617.9667   -4677.5326            0    2260.3412      17.8963    23.253962    21.873705    9102.9582    2307.7037    1939.4805    2533.8393   -141.34206   -72.805952    28.035928   -4317.8899 
43767000    35.306182   -4677.5026    -4616.989   -4677.5026            0    2180.8199    17.771746    23.341503    21.951878    9106.0619    2354.1061     2153.758    2034.5956   -45.467516     189.0619   -372.46622   -4327.3705 
43768000    34.171758   -4680.4152    -4621.846   -4680.4152            0    1994.1032     17.85285    23.369795    21.853303    9117.5796    2182.0978    2026.6181    1773.5936   -139.64034   -100.36969    155.72861    -4356.689 
43769000    35.963872   -4680.2338    -4618.593   -4680.2338            0    2120.1134    17.965306    23.210026    21.843335    9108.1293    2291.9944    2137.3549    1930.9909   -279.05148    217.52141    433.39111   -4336.9725 
43770000    35.026389   -4680.3919   -4620.3579   -4680.3919            0    2109.9283    17.859623    23.283584    21.900283    9106.9269    1941.9071    2467.9171    1919.9606    202.14636     169.0799   -195.78019   -4340.1274 
43771000     35.54931   -4682.5994   -4621.6691   -4682.5994            0    1862.2102    17.930977    23.243361     21.89356    9124.7144     2008.804    1358.7769    2219.0498   -362.28699   -95.214516   -88.004966   -4373.8562 
43772000    36.669917   -4677.6602   -4614.8092   -4677.6602            0    2461.7562    17.859382    23.303231    21.846984    9092.3063    2397.3915    2300.3455    2687.5317   -196.81955    -2.699431    350.90078   -4288.3755 
43773000    34.830414   -4680.5741   -4620.8759   -4680.5741            0    2296.2462    17.864416    23.312956    21.853104    9101.2136    2531.0499    2083.3435    2274.3451   -223.66248   -33.559473   -241.13323   -4316.0909 
43774000    38.107366   -4675.5373   -4610.2226   -4675.5373            0    2290.8736    17.881875    23.241181    21.889947    9097.3719    1938.2343     2111.259    2823.1276   -272.63174    149.57217   -261.85043    -4306.279 
43775000     35.66737   -4677.7152   -4616.5826   -4677.7152            0     2120.644    17.808417    23.302302    21.948467    9108.1116    2710.9431    1677.9363    1973.0527    149.21629   -275.38758   -11.106852   -4334.8922 
43776000    38.752393   -4679.2493    -4612.829   -4679.2493            0    2447.3778    17.872069    23.330419    21.834477    9104.1659    2403.2244     2497.313    2441.5961   -400.66478    135.52397    266.60273   -4287.8786 
43777000    35.361704   -4674.8192   -4614.2104   -4674.8192            0    2143.8922    17.958694    23.183648    21.866915     9104.247    1909.8592    2428.9661    2092.8514   -8.4282171    193.36243   -82.506705   -4329.5528 
43778000    35.459954   -4680.7208   -4619.9437   -4680.7208            0    1931.7134    17.918548    23.234358    21.901258    9118.0627    1879.5208    2475.7822    1439.8372    154.59009   -147.27337   -319.94903   -4363.0691 
43779000    33.323933   -4679.2472   -4622.1311   -4679.2472            0    2015.5702    17.832135     23.42566    21.819236    9114.5392    2140.6423    2048.7105    1857.3579   -301.71572    -159.3497   -154.80649    -4354.209 
43780000    35.641258   -4676.8886   -4615.8007   -4676.8886            0    1956.3644     17.89222    23.233635    21.938595    9119.9025    2087.8922     2157.737    1623.4639    98.530511    52.102446    205.77809   -4355.5956 
43781000    35.786979   -4675.9588   -4614.6211   -4675.9588            0    2258.8766    17.885965    23.186759      21.9449    9100.9354    2047.6212    2025.0394    2703.9693    128.02376   -33.317585   -36.186944   -4314.8054 
43782000    34.578012   -4674.5848   -4615.3193   -4674.5848            0    2409.0554    17.817797    23.376813    21.844117    9098.5836    2817.2331    2245.8955    2164.0375    328.28493   -495.70516   -128.32301   -4295.6533 
43783000    37.025886   -4680.3149   -4616.8538   -4680.3149            0    2180.4834    17.842458    23.333781    21.882855    9110.5331    2979.4537    2090.0436     1471.953    31.844075    224.70483   -26.434966   -4327.1378 
43784000    34.032306   -4680.9005   -4622.5703   -4680.9005            0    1978.9806    17.880463    23.254119    21.924436    9116.0576    1990.5977    2255.0871     1691.257   -671.79328    205.60612    577.61918   -4359.4681 
43785000    33.309334   -4679.1671    -4622.076   -4679.1671            0    2376.6018    17.873327    23.377397    21.763224    9093.3681    2424.1023    1967.6884    2738.0146   -337.60502   -124.98497   -96.654397   -4306.8971 
43786000    34.714638   -4679.9076   -4620.4079   -4679.9076            0    2114.2471      17.8837    23.322624    21.838004    9108.5184    2288.8354     1697.555     2356.351   -23.755244    134.65942   -35.692984   -4339.5547 
43787000    35.897659   -4678.2388   -4616.7114   -4678.2388            0     2055.864    17.879995    23.320305    21.866846    9117.7517    1679.0519    2092.0194    2396.5206    -621.8741   -120.34984   -86.031745   -4343.3369 
43788000    35.316805   -4679.4022   -4618.8704   -4679.4022            0    1898.1292    17.848754    23.340327    21.885147    9117.2594    2073.5905    1357.7232    2263.0739     101.9794   -6.8592888   -91.218889    -4366.484 
43789000    36.345168   -4679.2291   -4616.9347   -4679.2291            0    2077.4591    17.857202    23.357877    21.837697    9108.6417    1602.6612     2388.121     2241.595   -377.29268   -6.4852149     113.3003   -4340.9647 
43790000    35.159479   -4678.7542   -4618.4921   -4678.7542            0    2154.6973    17.889125    23.335261    21.809096    9104.1505    2478.7561    1800.4835    2184.8524     493.8486   -68.774408    224.83844   -4332.4028 
43791000    34.542895   -4678.0093   -4618.8039   -4678.0093            0    1955.1586    17.877861    23.281297    21.904621    9117.1372    1785.9443    2466.1018    1613.4297   -37.873931    1.6426741    -191.0878   -4358.8381 
43792000     34.66583   -4678.2443   -4618.8282   -4678.2443            0    1928.6583    18.061212    23.109628    21.840961    9116.1524    1649.5985    1925.8456    2210.5308   -222.00768    -4.529824   -105.31433   -4362.4136 
43793000    35.560377   -4677.5803    -4616.631   -4677.5803            0    2149.9399    17.916674    23.176238     21.94035    9110.5353    1506.7427    2580.6431    2362.4339   -52.349774   -118.41802    148.94885   -4330.9732 
43794000     36.51511   -4678.4673   -4615.8816   -4678.4673            0     2535.118    17.901459    23.231876    21.876639    9098.1548     2572.804    2235.8586    2796.6913    84.782463    177.13483    69.500183   -4279.5038 
43795000    33.623782    -4682.452    -4624.822    -4682.452            0    1837.1578    17.920097    23.289472    21.856469    9121.7886    1590.2724    2335.9596    1585.2414   -97.520717   -127.19837    141.47907   -4380.4214 
43796000    36.983475   -4680.0878   -4616.6994   -4680.0878            0    2270.2407    17.928954    23.253563    21.833291    9102.5627    2616.5318    1937.8334     2256.357   -20.284497   -339.38225    247.11407   -4315.3214 
43797000    34.422813   -4679.0492   -4620.0496   -4679.0492            0    2070.9722    17.816078    23.307063    21.950015    9114.5343    2705.7194    2022.8981    1484.2991    90.252456    21.133544    33.913123   -4344.7633 
43798000    35.244412   -4676.7602   -4616.3525   -4676.7602            0    2239.5095    17.854848    23.268755    21.903368    9099.9754    2216.5056    2417.8374    2084.1856   -437.44451    137.15172    213.45649   -4319.1387 
43799000     35.74801   -4677.8633   -4616.5925   -4677.8633            0    2111.0484    17.916592    23.292085    21.846429    9116.8378    1737.0624    2038.3647    2557.7182   -294.14148     102.3937   -56.407183   -4335.9081 
43800000    34.846713   -4679.1764   -4619.4503   -4679.1764            0    2011.0768    17.893875    23.333703    21.829967    9114.6742    2111.2882     1752.339    2169.6031   -269.44877    58.089914    -93.16901   -4352.1215 
43801000    36.488859   -4677.2382   -4614.6975   -4677.2382            0    2155.6607     17.88323    23.349617    21.804065    9104.6484    2187.1098    1965.0121    2314.8602   -94.958706   -218.90634   -117.69262   -4328.4647 
43802000    35.124353   -4677.4762   -4617.2743   -4677.4762            0    2429.2915    17.777102    23.257375    22.004858    9097.8803    3104.4377    2526.1978    1657.2389    103.59488    59.019096   -82.896765    -4294.948 
43803000    33.990071   -4678.8497   -4620.5918   -4678.8497            0    2058.8221     17.99633    23.188619    21.862403    9123.4004    1997.8335     2310.491    1868.1419    29.828748    12.540703    58.112249   -4346.6544 
43804000    35.042764   -4675.0714   -4615.0093   -4675.0714            0    2393.9832    17.915594    23.248875    21.853533    9102.3768    2208.3763    2411.9517    2561.6216   -271.95271   -182.17567   -28.113981   -4297.2109 
43805000    34.313392   -4676.8028   -4617.9909   -4676.8028            0    1972.6555    17.937933    23.262759    21.853063    9118.9728    1860.4452    1943.2243     2114.297   -36.340309   -33.286255    386.11869   -4355.6457 
43806000    36.767008    -4677.933   -4614.9156    -4677.933            0    1791.3722    17.895719    23.309445    21.884646    9128.9455    2102.7712    1734.4849    1536.8606   -610.45155   -179.92428    87.301331    -4376.419 
43807000    35.879123   -4679.7133   -4618.2177   -4679.7133            0    2150.6066    17.932161    23.281193    21.833873    9115.2512    2020.3896    2178.8733     2252.557    -272.3238   -72.464446    24.836189   -4332.3234 
43808000    33.140907   -4673.3635   -4616.5611   -4673.3635            0    2057.4797    17.946691    23.222448    21.876785    9117.5022    1647.9025    1999.8997     2524.637    129.92851    16.478125    342.07001   -4342.9792 
43809000    34.824107   -4677.2744    -4617.587   -4677.2744            0    1986.8838    17.965905    23.191374    21.867756    9111.2885    1523.7855    2170.3706    2266.4952   -11.741842   -23.487555   -12.348225   -4353.5723 
43810000     34.40442   -4682.3063   -4623.3383   -4682.3063            0    2227.4157    17.888542    23.211365    21.932336    9106.6891    2319.1736    2584.2714    1778.8022     18.49528   -42.907127   -146.73711   -4327.5114 
43811000    36.194047   -4679.8868   -4617.8515   -4679.8868            0    2625.2037    17.840813    23.236322    21.935493    9093.4655    3197.8379    2283.1489    2394.6242    209.83828    118.59414    210.38023   -4269.6999 
43812000    35.082444   -4674.7351    -4614.605   -4674.7351            0    2151.4083    17.893459    23.204325    21.954234    9115.5221    2302.5603    2469.6827    1681.9821   -79.192975   -221.24296     3.210926   -4328.5956 
43813000    36.134137   -4674.6698   -4612.7371   -4674.6698            0    1953.1731    17.865478    23.306099    21.912152    9123.6637    2160.7253    2243.0369    1455.7572   -535.76328    208.30298    104.12764   -4352.8493 
43814000    36.266476   -4681.2155    -4619.056   -4681.2155            0    1797.5172    17.898006    23.350618    21.814911    9117.0949    1608.2627    1910.2688      1874.02    93.270562   -93.636164    350.59454   -4380.0519 
43815000    34.261092   -4680.6289   -4621.9065   -4680.6289            0    2516.9103    17.921948    23.222805    21.843403    9091.1784    2202.4601    2532.4705    2815.8003   -53.404376     246.2871    338.36986   -4288.2007 
43816000    35.185663   -4674.0084   -4613.7014   -4674.0084            0    2233.5385    18.008683    23.190293    21.803115    9105.5617    2159.6511    2056.6247    2484.3396   -83.465217   -12.557927   -518.87271   -4317.0981 
43817000    34.339589      -4682.6   -4623.7432      -4682.6            0     2029.162    17.956735     23.21212    21.866476    9114.2509    2445.9029    2078.4737    1563.1095    310.82227   -436.52585    283.34271   -4354.0229 
43818000    34.750479   -4677.4841   -4617.9229   -4677.4841            0    2208.4389    17.855553    23.215871    21.963694    9104.6587    2135.5887    2995.6839    1494.0442    143.70041    35.438692    138.16462   -4324.6818 
43819000    34.728082   -4682.6847    -4623.162   -4682.6847            0    2178.4256    17.831825    23.276583    21.922037    9099.0472    2405.3021     2025.469    2104.5055    137.51137    20.309003   -379.79749   -4334.0843 
43820000    34.532214   -4676.9779   -4617.7909   -4676.9779            0    2023.4354    17.967157    23.246954    21.821129    9114.2858    1702.7174     1765.348    2602.2408   -191.30647   -370.07567    243.87495   -4348.8308 
43821000    35.952597   -4681.8336   -4620.2121   -4681.8336            0     1855.996    17.919587    23.267645    21.889992    9126.9575    1511.2119    2044.4009    2012.3752    138.03756     222.1586    163.59571   -4373.1655 
43822000    38.587026   -4674.8141   -4608.6772   -4674.8141            0    2927.2457    17.815559    23.230814    21.918665    9071.4765    3087.7524    2698.3883    2995.5964    48.354747    -32.90041    89.600815   -4221.4079 
43823000    33.830091   -4679.7373   -4621.7537   -4679.7373            0    2111.2073     17.84043    23.291727    21.919665    9108.3757    2383.8233    1838.4582    2111.3405   -385.60208     256.6202      289.457   -4341.3087 
43824000    35.293602   -4680.3664   -4619.8744   -4680.3664            0    1996.0365    17.913125    23.282706     21.87808    9124.6033    1730.4097    2244.5385    2013.1613   -13.180772     210.9554    95.138949   -4354.2558 
43825000    35.514753   -4681.0315   -4620.1604   -4681.0315            0    1932.7514    17.882013    23.357795    21.841066    9122.6727    1965.4886    1746.0957    2086.6698   -91.596275   -153.20971    5.0171938   -4363.0178 
43826000    33.973354   -4676.8999   -4618.6707   -4676.8999            0    2666.0871    17.890483    23.211931    21.880634    9086.4289    2782.2458    2499.7768    2716.2387   -212.39645   -150.35646    169.32914   -4265.3709 
43827000    35.762187   -4681.5416   -4620.2464   -4681.5416            0    1993.4001    17.896194    23.278488    21.872719    9112.0947    1979.0188    2475.0455     1526.136    101.33997    182.65362   -171.41965   -4355.3424 
43828000    37.111872    -4677.375   -4613.7666    -4677.375            0    2023.1551    17.936452    23.331342    21.788335     9118.015    2408.5658    2244.2004    1416.6991   -555.52593    185.17216    51.934642   -4344.7337 
43829000    36.329068   -4681.5228    -4619.256   -4681.5228            0    2330.0913    17.918268    23.312646    21.770546    9094.0415    1968.5379    1973.3858    3048.3502    49.844733   -84.004314    117.23131   -4310.2224 
43830000    37.251318   -4677.0009   -4613.1535   -4677.0009            0    1998.5733    17.875297    23.246405    21.926829    9111.3954    1903.7781    1689.9367    2402.0051   -91.365519   -122.22954   -63.703105   -4347.5823 
43831000    34.908088   -4677.5786   -4617.7474   -4677.5786            0    2157.1126    17.879723    23.296586    21.866588    9108.2324    2192.3813    2167.6523    2111.3043     245.4057   -18.972478   -74.685643    -4331.209 
43832000    33.029014   -4677.5622   -4620.9516   -4677.5622            0    1915.6522    17.796043    23.344321    21.927379    9109.4349    2441.4002    1863.9062    1441.6503    120.60517   -76.503278     143.2033   -4366.4538 
43833000    35.840098   -4683.3968   -4621.9681   -4683.3968            0     2429.231    17.909578    23.202874    21.901555     9101.272    2363.6866    2739.7752    2184.2311   -347.47041   -104.80069   -63.990912   -4299.5297 
43834000    38.060002   -4677.2298   -4611.9962   -4677.2298            0    2175.7775    17.866449    23.280553     21.91997      9117.41    2007.5669    1919.4177    2600.3479    -101.4486   -74.416389    55.216686   -4322.6873 
43835000    34.628153    -4678.131   -4618.7795    -4678.131            0    2247.9683    17.896813    23.338276    21.813229    9110.9659    2511.9413    1903.3775     2328.586   -3.0486517    425.10031   -23.244242   -4320.0828 
43836000    35.174541   -4678.7356   -4618.4477   -4678.7356            0    2268.1424    17.922032    23.334914    21.762755    9101.3814    2065.6332    2277.7745    2461.0195   -393.95468    141.17991    40.559125   -4317.3874 
43837000    34.510163   -4678.5859   -4619.4366   -4678.5859            0    2232.3185    17.830896    23.316924    21.907827    9108.4341    2825.9597    2153.0642    1717.9316   -54.197011   -69.134585   -136.77604   -4322.9018 
43838000    36.361935   -4676.8604   -4614.5373   -4676.8604            0    1623.8799    17.899591    23.309023    21.905607    9139.5008    1283.3642    1565.4673    2022.8083   -619.06744    142.66398    87.915668   -4398.0899 
43839000    34.227951    -4681.906   -4623.2405    -4681.906            0    2192.4618    17.823779    23.276369    21.950149     9106.521    1926.2663    2330.6829    2320.4361    269.21788    -61.72956   -49.662055   -4332.0612 
43840000    35.449846   -4677.9896   -4617.2298   -4677.9896            0    2440.0387    17.867043    23.284761    21.862232    9095.3404    2502.8246    2199.7498    2617.5416    435.12024   -146.30514   -352.86399   -4293.5679 
43841000    35.577996   -4682.9549   -4621.9754   -4682.9549            0    2445.3375     17.82571    23.328899    21.874417    9096.5678    2401.6787     2878.419    2055.9148    17.713588    28.492075    131.87744   -4297.5669 
43842000    36.621648   -4677.6171   -4614.8489   -4677.6171            0    2111.6563    17.884858    23.315291    21.844663    9109.0209    2304.4991    2022.6663    2007.8036   -284.51402   -78.442492    117.47986   -4334.3243 
43843000    33.580867   -4679.5097   -4621.9533   -4679.5097            0    2141.4114    17.934331    23.202999    21.887437    9108.0255     1787.233     2335.732    2301.2692   -204.66751    37.931237   -40.329072    -4337.507 
43844000    35.117305   -4678.3933   -4618.2034   -4678.3933            0    2238.1866    17.881582    23.256577    21.884042    9100.7938    1941.0839    2078.6062    2694.8696   -33.771497    -269.8956    29.399481   -4321.1385 
43845000    34.564181    -4678.767   -4619.5252    -4678.767            0    2050.9748    17.871878    23.288779    21.900659    9115.3653    1843.9486    1968.5641    2340.4117   -30.517146    -58.01502    340.52977   -4346.8722 
43846000    35.492517   -4676.4852   -4615.6523   -4676.4852            0     2141.445    17.888807    23.222735     21.92281    9107.3274    1996.2429     2690.419     1737.673   -285.74055    88.844506    16.515185   -4331.2234 
43847000    35.534226   -4678.3024    -4617.398   -4678.3024            0    2495.6723    17.966436    23.114782    21.890355    9090.8511    2138.8798    2871.7653    2476.3717    25.868459   -140.75947    257.00252   -4286.5199 
43848000    33.790784   -4680.3462     -4622.43   -4680.3462            0    2085.0626    17.903827    23.190816    21.947208    9112.5762    2223.4644    2636.2124    1395.5109   -147.15192    15.090264    134.33222   -4345.3302 
43849000    36.092476   -4679.1179   -4617.2566   -4679.1179            0    2197.6543    17.887288    23.284951    21.864906    9106.8344    2059.3295    2662.3924    1871.2409     66.99327    143.89102    -144.6606   -4325.3777 
43850000    36.048879   -4683.6158   -4621.8293   -4683.6158            0    1874.7703    17.863091    23.336819    21.866439    9115.4124    2099.9493    1649.1371    1875.2243    356.62888   -320.46207    21.503645   -4372.5993 
43851000    35.864737    -4684.052   -4622.5811    -4684.052            0    2444.9699    17.860914    23.312135    21.830158    9089.5542    2562.8755    2086.7121    2685.3222   -19.518445    -110.1985    16.109722   -4298.4714 
43852000    37.256462   -4679.4156   -4615.5593   -4679.4156            0    1968.3865    17.922477    23.279814    21.850041    9116.5349    1941.7673    2102.4075    1860.9847   -301.24415    117.46105    513.11818   -4353.8519 
43853000    34.709224   -4677.1032   -4617.6128   -4677.1032            0    1965.2353    17.887939    23.307591    21.858304    9113.2683    2321.4125     2052.051    1522.2423    424.22427    18.757276   -187.82312    -4356.418 
43854000    35.851062   -4679.6088   -4618.1613   -4679.6088            0    2195.6407    17.941471    23.227666    21.856118    9108.2855    2363.0356    1966.0827    2257.8037   -249.01376   -272.59271   -88.344775   -4326.5034 
43855000    36.370936   -4677.7744   -4615.4359   -4677.7744            0    2385.3745     17.86824    23.221936    21.919363    9095.1136    2355.5708     2580.488    2220.0647    36.740901    261.47458    152.92079   -4299.0329 
43856000    35.396396   -4681.4427   -4620.7745   -4681.4427            0     2358.919    17.739743    23.349835    21.960074    9096.3031    3073.6347     2093.844    1909.2784   -90.511536   -79.125278    262.86746   -4307.8397 
43857000    34.238042   -4679.4163   -4620.7334   -4679.4163            0    1992.2423    17.906903    23.290191     21.85847    9116.1884    1860.1192    2016.9567    2099.6509     -36.1597    161.47175   -511.08881   -4355.8643 
43858000    34.921558   -4678.4377   -4618.5833   -4678.4377            0    2214.4398    17.882113    23.348889    21.805823    9104.5301    2292.8932    2096.8426    2253.5837    62.965766    -45.53286    151.69602   -4324.5495 
43859000    34.963562   -4680.1582   -4620.2319   -4680.1582            0    1807.3996    17.929427    23.308238    21.834977      9124.91    1706.6949    1875.6051    1839.8987   -446.59337   -169.24923    145.11443   -4379.7078 
43860000    34.356914   -4677.8493   -4618.9627   -4677.8493            0    2497.5003    17.962001    23.220775    21.807103    9095.5592    2663.7901    2249.0325    2579.6784    226.49184   -60.071228   -626.82767   -4287.6708 
43861000    36.100235    -4678.856   -4616.9815    -4678.856            0    2262.6026    17.903089    23.186668    21.930279    9103.5434    2503.1635    2223.7904    2060.8539   -589.65707    81.594755   -6.6161764   -4316.5851 
43862000    35.599623   -4678.9427   -4617.9261   -4678.9427            0    2072.7907    17.969264    23.166339    21.884359     9110.066    1841.4219    2304.3795    2072.5707   -223.72433   -31.615546   -168.46768   -4342.5332 
43863000    35.041833    -4678.625   -4618.5645    -4678.625            0     2225.497    17.907841    23.240029    21.883404    9107.4079     2040.472    1709.4744    2926.5445    82.512883    125.58504   -401.07409    -4322.969 
43864000    36.950087   -4677.0172    -4613.686   -4677.0172            0     2055.997    17.832802    23.215224     22.00506    9109.9295    2172.2812    2360.2892    1635.4207     214.3796   -283.54309    274.34247   -4340.5283 
43865000    37.099825    -4676.993   -4613.4052    -4676.993            0    2401.3882    17.850094    23.316896    21.846115     9092.545    2011.5105    1696.5001    3496.1541    45.452423   -99.751645    71.535577    -4294.968 
43866000    35.368713   -4681.1447   -4620.5239   -4681.1447            0      1795.72    17.994258    23.216452    21.846634    9126.7115     1123.922    1468.1351     2795.103   -255.47176    38.414797    113.13864   -4381.5069 
43867000    34.331993   -4682.0295   -4623.1856   -4682.0295            0    2056.4137    17.863147    23.262577    21.932931    9114.0722    2301.6442    1982.1497    1885.4473   -22.216878    338.13175     253.0585   -4349.8484 
43868000    35.132801   -4681.6215   -4621.4051   -4681.6215            0    1991.9984    17.929357    23.307854    21.823654    9119.9925    2096.3975    1645.1649    2234.4328     115.2948    20.656229    147.18957   -4356.4579 
43869000    35.153375   -4677.6478   -4617.3961   -4677.6478            0    2056.8145    17.924872    23.282268    21.851858    9119.4721    2679.9895    1799.8177    1690.6363    57.834125   -139.36505    120.80308   -4343.8436 
43870000    34.447899   -4679.1656   -4620.1231   -4679.1656            0    2069.3566    17.878344    23.200467    21.986476    9119.6809     2307.629    2547.0086    1353.4321   -183.28044    84.511154    213.23868   -4344.8962 
43871000    34.627279   -4679.7909    -4620.441   -4679.7909            0    2253.7646    17.894268    23.207724    21.933441    9108.6337    2186.5404    2779.6084    1795.1449   -473.70077    81.282164    47.806215   -4321.0507 
43872000    35.747414   -4675.7195   -4614.4496   -4675.7195            0    1983.1843     17.96267    23.092573    21.980684    9117.6815    1945.2728     2590.439    1413.8411    -225.0374   -201.17392    16.696904   -4350.7416 
43873000    34.393171   -4682.7317    -4623.783   -4682.7317            0     2317.783     17.87573    23.287607    21.868507    9103.4874    2527.4815    2253.5041    2172.3634   -372.38608   -280.56858    182.22119   -4316.0625 
43874000    33.664768   -4673.2804   -4615.5801   -4673.2804            0    2122.9974    17.870641     23.33775    21.877692    9124.3221    2091.9561    2076.8393    2200.1967   -93.694268    37.020273    77.331508   -4333.0752 
43875000    36.234869   -4675.0335   -4612.9282   -4675.0335            0    1987.5329    17.936351    23.288637    21.826714    9117.3056    1988.5713    1523.2673    2450.7601   -223.72211   -211.91221    131.13168   -4348.6528 
43876000    35.310745   -4679.9646   -4619.4432   -4679.9646            0    2302.2395    17.870239    23.363798    21.811261    9106.5648    2059.0703    1643.7391     3203.909    229.58173    4.3011555    66.137968    -4313.683 
43877000    35.751663    -4678.663   -4617.3859    -4678.663            0    2203.8702     17.88818    23.290494    21.879012    9115.3333    2464.2295    1892.7419    2254.6392   -96.046533   -167.42088    40.612429   -4324.4082 
43878000    35.146917   -4679.2892   -4619.0486   -4679.2892            0    1788.3752    17.901127    23.274941    21.904321    9126.3842    1819.9338    1735.3677    1809.8242   -384.75507     255.1225    214.75967   -4381.0177 
43879000    37.155299   -4677.1296   -4613.4467   -4677.1296            0    2444.7244    17.828512    23.350194     21.83821    9091.2298    2064.3574    2583.8011    2686.0147    95.216885    146.80084    301.47316   -4289.3098 
43880000    33.638361   -4680.0134   -4622.3584   -4680.0134            0    1701.4166    17.925259    23.203932    21.939227    9125.3253    1618.2499    1709.6005    1776.3996   -336.41599    15.757699    280.49825   -4395.9279 
43881000    35.477207   -4683.8775   -4623.0707   -4683.8775            0    2079.3157    17.851599    23.279738    21.938187    9117.0839    2202.8317    2500.4324    1534.6829    339.21434    -199.1558    115.17329    -4346.598 
43882000    36.730347   -4677.1392   -4614.1847   -4677.1392            0    2164.2814    17.982936    23.263022    21.776036    9109.7314     1561.152    2287.8891    2643.8031    223.63816    54.335471   -139.04449   -4326.6467 
43883000    33.494935   -4678.3385   -4620.9294   -4678.3385            0    1890.8825    17.890987    23.225326    21.946678    9119.3714    1664.8654    2304.9643    1702.8177    -112.7556    4.0216417    6.8766404   -4369.4483 
43884000    35.360371   -4683.2078   -4622.6013   -4683.2078            0    2447.7789    17.917638    23.306423    21.789621    9099.2594    2212.7684    2311.7121    2818.8563   -322.75963   -325.98943    160.24933   -4297.7728 
43885000    33.024914   -4680.1804   -4623.5768   -4680.1804            0    1723.0844    17.910206    23.245063    21.919229    9125.4983    1374.6896    1898.4008    1896.1629   -286.49601    103.47928   -26.553459   -4394.2584 
43886000    35.725615   -4681.0509   -4619.8184   -4681.0509            0    2045.7229    17.895679    23.276271    21.894412    9120.0009     2675.789    1967.7636    1493.6162   -360.15758    95.840921    122.53946   -4347.7253 
43887000    36.118855   -4682.6336   -4620.7271   -4682.6336            0    2422.2003    17.910488    23.193879    21.904969    9099.6242     2343.685    2596.6379     2326.278   -97.075341   -132.76472    374.18895   -4299.2801 
43888000    35.447186   -4678.1757   -4617.4204   -4678.1757            0    2435.0292     17.91862    23.238791    21.836094    9092.7041    2031.7127    2707.3056    2566.0694    -19.78116    41.252685   -175.37188   -4294.5166 
43889000    34.208364   -4683.4359   -4624.8039   -4683.4359            0     2121.372    17.824711    23.328595     21.91537    9112.9688     2608.415    2088.3634    1667.3376    -54.78163    89.086604   -81.264526   -4342.8666 
43890000    34.551674    -4678.917   -4619.6966    -4678.917            0    1878.3684    17.926065    23.263332    21.889727    9128.4541    1611.9169    1860.5691     2162.619    82.070359   -182.22318    626.71752    -4369.631 
43891000     34.99079   -4683.0293   -4623.0563   -4683.0293            0    2094.3648    17.911162     23.29463    21.841798    9113.1381    2005.6171    2096.7609    2180.7162    363.12409    73.557131    204.18848   -4344.7031 
43892000    34.526677   -4680.3987   -4621.2211   -4680.3987            0    2310.3773    17.899815    23.261597    21.858785    9101.5235     2642.652    2619.4171    1669.0628   -80.476796   -182.40102    186.81017     -4314.55 
43893000    34.958124   -4681.6329   -4621.7158   -4681.6329            0     2035.426    17.943067    23.263441    21.838062     9115.589    1989.1327    2011.3638    2105.7814    -22.84678    32.345848   -4.4542895   -4351.1232 
43894000    34.546436   -4678.6856   -4619.4742   -4678.6856            0    2507.4733    17.806057    23.258031    21.965066    9096.4768    2811.8717    2190.8954    2519.6529    126.04974    23.252445    173.77947   -4286.8258 
43895000    35.684221   -4676.2543   -4615.0928   -4676.2543            0    2140.1688    17.914004    23.244763    21.876794    9109.6451    2430.0338    2262.1427    1728.3299   -290.21772   -138.12988    -131.4749    -4330.761 
43896000    33.842382   -4679.9097   -4621.9051   -4679.9097            0    2381.8383    17.844156    23.299362    21.875594    9094.9417    2654.1058    2604.4177    1886.9913    479.53537   -192.90826    -36.67303   -4305.9771 
43897000    34.084342   -4680.7975   -4622.3781   -4680.7975            0    2399.4297    17.889428    23.274014    21.873263    9107.1253    2530.8978    2688.5259    1978.8654    97.788028    390.63508    219.44693   -4303.6905 
43898000    33.599582   -4680.3909   -4622.8023   -4680.3909            0    2328.5102    17.852061    23.275807    21.914397    9105.8951    2301.3405    2173.8037    2510.3864   -171.82152   -229.69764   -163.25084   -4313.5759 
43899000    35.368586   -4674.3552   -4613.7346   -4674.3552            0    2309.5696    17.912487    23.270375    21.851264    9108.2689    1947.9041    2435.7329    2545.0719    134.94831    52.409493   -338.07236   -4306.9435 
43900000    34.026643   -4678.2691   -4619.9486   -4678.2691            0    2112.2006    17.904176    23.258768    21.885127    9113.6029    1793.7912    2433.7597    2109.0509    152.26618    371.24791    198.67356   -4339.2106 
43901000    35.780091   -4677.1771   -4615.8513   -4677.1771            0     1895.178    17.972825    23.272558    21.790602    9114.4339    1731.7769    1619.6037    2334.1534   -174.17158   -389.16229    329.84113   -4363.9354 
43902000    34.530878   -4684.0262   -4624.8414   -4684.0262            0    1956.1201    17.855113     23.30879    21.897849    9113.4703    1581.9579    2383.6498    1902.7526   -123.14352    34.329835    -371.4429   -4364.8523 
43903000    35.627721   -4678.8903   -4617.8256   -4678.8903            0    2052.9171    17.947497    23.227291     21.88054    9121.3787    2364.5304    2033.8632    1760.3576   -442.33473    68.203844    460.11433   -4344.7344 
43904000    33.354956   -4679.4955   -4622.3263   -4679.4955            0     2186.016    17.947196    23.160753    21.920042    9111.5162    1595.4599    2638.7902    2323.7979    136.99635    -59.76296    416.08473   -4331.8438 
43905000     35.19614   -4678.4992   -4618.1742   -4678.4992            0    2173.5053    17.919346    23.175045    21.932095    9107.9967    2611.0869    1929.5469    1979.8821   -207.42077    4.5621293   -104.04767   -4329.4658 
43906000    33.869884   -4685.5801   -4627.5283   -4685.5801            0    1933.0341    17.972272    23.315235    21.775991    9124.7448    1664.6102    2079.5155    2054.9766   -296.63707   -228.85251   -57.558333   -4370.2897 
43907000    34.675778   -4678.6188   -4619.1858   -4678.6188            0    2548.4386    17.811548    23.250785    21.937068    9084.8519    2588.1743    2462.6738    2594.4677   -338.31333   -98.353519    105.01183   -4281.5348 
43908000     34.00289   -4679.6665   -4621.3867   -4679.6665            0    1656.3499    17.897111     23.31023    21.891169    9132.6839    1647.0433    2024.6378    1297.3687   -312.17917  -0.56269246   -457.16791   -4400.7761 
43909000    35.586126   -4680.8451   -4619.8517   -4680.8451            0    2111.8257    17.860757    23.264073    21.924564     9109.962    2087.3931    2163.8381    2084.2458    383.89447   -448.79594    199.77164   -4339.2757 
43910000    36.727001   -4676.4435   -4613.4947   -4676.4435            0    2154.8958    17.851825    23.262947     21.93301    9108.4733    2256.0205    2097.2665    2111.4004   -227.42437    106.34882    192.35343   -4327.2432 
43911000     34.33596   -4683.0454   -4624.1948   -4683.0454            0     1687.329    17.893091    23.328173    21.875415    9131.0856    1718.7368    1420.1916    1923.0587   -237.17232    17.912615    60.985312   -4399.4974 
43912000    33.384294   -4676.6049   -4619.3853   -4676.6049            0    2632.9689    17.864626    23.286427    21.837192    9084.3437    2526.8355    2600.5359    2771.5352   -258.65162   -323.10332    250.83149   -4270.5543 
43913000     33.78716   -4677.2838   -4619.3738   -4677.2838            0    1807.3414     17.89492    23.360104     21.83692    9128.4261    1787.0874    1979.0917    1655.8451   -9.3927743   -72.737003     273.5803   -4378.7647 
43914000    34.609781   -4679.7499   -4620.4299   -4679.7499            0    1874.3778    17.835057    23.297571    21.944984     9118.437    2387.4229    1638.2164     1597.494   -184.38654   -211.32381    -50.24043   -4371.1694 
43915000    34.194804   -4676.6442   -4618.0355   -4676.6442            0    2305.5591    17.973169    23.227365    21.768565    9087.7087    1904.7189    2435.2563    2576.7021   -512.17883   -330.74173    312.15834   -4312.4684 
43916000    35.805785   -4677.9102   -4616.5403   -4677.9102            0    2285.6947    17.829409    23.315654     21.89096    9100.1671     2429.372    2211.2398    2216.4722   -49.970924    444.99177    162.14006   -4313.1907 
43917000    33.001023   -4678.6594   -4622.0967   -4678.6594            0    2195.4433    17.903357    23.292687    21.833769    9105.0591    2004.5929    2015.3342    2566.4028   -54.912965   -262.72332    182.37591   -4330.5683 
43918000    37.738808   -4677.4021   -4612.7191   -4677.4021            0     1989.468    17.790016    23.356918    21.940012    9116.5128    2410.6262    1896.0299    1661.7481   -58.783807    187.34348   -12.063625   -4348.2094 
43919000    36.783697   -4678.2731   -4615.2271   -4678.2731            0    1549.9158    17.930398    23.226843     21.91389    9126.4022    1650.9761    1764.0271    1234.7441   -37.821622    145.39202    154.84659   -4408.9346 
43920000    34.716802   -4678.9985   -4619.4951   -4678.9985            0    2277.8477    17.909787    23.185909    21.936841    9109.3763    1764.0065    2498.1342    2571.4025    304.29272    32.878108   -133.20633    -4316.881 
43921000    34.833536   -4678.7722   -4619.0687   -4678.7722            0     2060.594    17.879089    23.274856    21.891854    9109.9276    2120.8611     1974.582     2086.339   -482.87997   -209.14693   -112.61895   -4345.3003 
43922000    33.495439   -4677.7344   -4620.3244   -4677.7344            0    1900.6578    17.891834    23.283536    21.888508    9118.4281    2254.1517    1973.1881    1474.6335    290.21819   -225.68614    457.67723   -4367.5694 
43923000     35.38624     -4680.35   -4619.6992     -4680.35            0    2415.2039    17.862819    23.271594    21.873073    9092.5551    2127.6644     2750.866    2367.0812    7.1599994   -67.855695   -80.559799   -4299.4297 
43924000    34.088594   -4680.1727    -4621.746   -4680.1727            0    2293.2212    17.965375     23.25429    21.795025    9105.3522     2175.045    2331.0883    2373.5305   -206.56966   -44.917148    66.197203   -4317.2241 
43925000    37.549063   -4680.3819   -4616.0241   -4680.3819            0    2489.1843    17.847325     23.33294    21.825901    9088.9723    2533.1757    2731.4884    2202.8887    198.75457    233.23621    242.72758   -4286.0744 
43926000    33.957976   -4677.5781   -4619.3753   -4677.5781            0    1940.6841    17.804811    23.300554      21.9657    9112.7333    2596.8823    2136.9641     1088.206    -418.1488    136.44604    189.12478   -4361.4586 
43927000    37.140118   -4679.2632   -4615.6064   -4679.2632            0    2109.9008    17.908265    23.273697    21.869723    9115.1152    1911.6819    2405.4251    2012.5955    477.51105    53.019863   -339.08662   -4335.1275 
43928000    36.275417   -4678.8651   -4616.6902   -4678.8651            0    2252.3256     17.85476    23.375018    21.808795    9102.0172    2085.8077    1875.9896    2795.1795   -21.667323   -26.858312    375.29508   -4317.7085 
43929000    35.523767   -4679.7334   -4618.8469   -4679.7334            0    2380.5306    17.942823    23.226313    21.827998    9096.7227    2122.2353    2211.8878    2807.4686    174.42012   -353.50935    56.035177   -4303.0305 
43930000    34.697963   -4679.5544   -4620.0832   -4679.5544            0    2015.0272    17.944225    23.272078    21.835794    9118.6146    2106.7975    1905.7788    2032.5053   -7.5335081    253.41383   -106.23294   -4352.1136 
43931000    35.887695    -4680.228   -4618.7177    -4680.228            0    1878.9011    17.901565    23.326106    21.862382    9129.1581     1941.561    1890.6127    1804.5298    -440.7714   -27.264775    55.270839    -4368.562 
43932000    37.442263   -4677.9507   -4613.7759   -4677.9507            0    2325.3073    17.925265    23.276791    21.815424    9102.3251    2180.6628    2252.8474    2542.4118    169.59363   -284.81477    -55.14096   -4305.0959 
43933000    33.825504   -4678.7595   -4620.7838   -4678.7595            0    1969.5153    17.820457    23.233837    22.029628     9121.094    2023.5728    2528.8269    1356.1462   -110.97275    225.66215   -41.919595   -4358.7953 
43934000     34.69602    -4681.955   -4622.4872    -4681.955            0     2089.733    17.852373    23.258482    21.948098    9113.2698    2630.2348    1830.9715    1807.9926   -262.09033   -206.43989    375.83046   -4344.7456 
43935000    35.989998   -4677.7755   -4616.0898   -4677.7755            0    1987.5848    17.874933    23.263795    21.931392    9119.9232    2275.9935    2172.7948    1513.9661   -219.97533     16.57565    45.400948   -4351.7317 
43936000    35.732167   -4677.5775   -4616.3338   -4677.5775            0    2206.0103    17.884406    23.310562    21.846162    9107.5678    2814.1343    1336.1214    2467.7752    -320.7561    305.88074   -38.759084   -4323.3215 
43937000    33.566945   -4676.8973   -4619.3647   -4676.8973            0    2409.3023    17.917729    23.281924    21.814035    9099.9254    1628.2139     2782.609    2817.0841    528.29689   -453.30471   -91.830219   -4299.6188 
43938000    36.487937   -4676.1069   -4613.5679   -4676.1069            0    2140.4821    17.879731    23.253187    21.905628    9107.4999     2385.836    1539.7331    2495.8772   -242.40882    223.67669    319.46595   -4329.2615 
43939000    32.545603   -4677.4477   -4621.6656   -4677.4477            0    2219.6692    17.890167    23.325015    21.811905    9101.8552    1890.7469    2294.8909    2473.3699    -136.5787   -234.39645    27.025052    -4327.024 
43940000    36.827172   -4676.4123   -4613.2917   -4676.4123            0     2123.102    17.825364    23.386907    21.872005    9118.0044    2568.1728    1675.5503    2125.5829   -330.08131    28.737607   -133.45596   -4330.9685 
43941000    34.590414   -4676.7606   -4617.4738   -4676.7606            0    1806.0688    17.869686    23.292199    21.901053    9115.7499    1514.2324    2350.7043    1553.2696    44.571154    112.52777    230.66683   -4377.3681 
43942000     35.49192   -4677.8203   -4616.9883   -4677.8203            0    2367.7087    17.838823    23.292461    21.891803    9096.2647    2568.8028    1832.1783     2702.145    356.87356   -254.72037    324.78784   -4302.8888 
43943000    34.530303   -4676.5823   -4617.3986   -4676.5823            0       2374.6    17.887817    23.245781    21.898096    9105.5848    2160.1369    2635.9799    2327.6832   -237.81152    128.98963   -166.95518   -4302.0621 
43944000    36.774979   -4676.9613   -4613.9303   -4676.9613            0    2372.3204    17.868543    23.326241    21.811851    9091.3091    1955.6518    1974.5906    3186.7188   -278.42706    190.94665   -3.3204297   -4299.3904 
43945000    35.879325   -4681.0747   -4619.5788   -4681.0747            0    1942.8076    17.880565    23.325935    21.845828    9111.4779     1857.796     1812.139    2158.4877   -332.43566   -222.43282    192.30539   -4361.4155 
43946000    34.814044   -4679.0358   -4619.3657   -4679.0358            0    1883.4337    17.877124    23.246519    21.925257     9111.718    2008.5533    1464.0938    2177.6539   -625.30656   -102.24228   -95.985311   -4369.0855 
43947000    35.122704   -4677.6045   -4617.4053   -4677.6045            0    2426.0699    17.921588    23.266693    21.830662    9102.8637     2180.535    2463.6536    2634.0212    1.2077051    426.02295   0.30209805   -4295.3302 
43948000      34.0897   -4676.2752   -4617.8466   -4676.2752            0    1952.5932    17.920262     23.32846    21.830305    9126.2051    1951.5251    1856.6809    2049.5737   -371.27549   -214.13117    156.09194   -4357.9636 
43949000    35.229976   -4675.7474   -4615.3644   -4675.7474            0    2391.3039    17.933771    23.272266    21.789618    9094.1037    1966.7188    2623.7731    2583.4198   -136.03802    135.98756    18.985963   -4298.2102 
43950000    35.621475   -4680.0941   -4619.0401   -4680.0941            0    2347.4468    17.907132    23.254624    21.857383    9101.9306    2397.5704    2123.7372    2521.0328    426.49066    35.007239   -48.106891   -4307.4345 
43951000    34.508387     -4677.17   -4618.0239     -4677.17            0    1802.2833    17.855313    23.302329    21.938651    9128.0226    2085.2536     1718.221    1603.3754   -151.28072   -335.28784    10.232254   -4378.0988 
43952000    34.883903   -4678.8225   -4619.0327   -4678.8225            0    2167.9474    17.942838    23.281732    21.803712    9108.2904    1943.5941    2081.4654    2478.7827    111.20441    229.00665    80.846747   -4331.0532 
43953000    34.607331   -4681.1013   -4621.7855   -4681.1013            0    2358.9167     17.80734    23.329053    21.914129    9103.7506    2566.2146    2134.7757    2375.7598     82.50908      18.4579   -161.70373   -4308.5948 
43954000    34.210748    -4679.909   -4621.2729    -4679.909            0    2178.5485    17.861395    23.305567    21.885491    9110.2721    2460.1049     2025.181    2050.3595    86.665329    57.679736    23.589995   -4331.8223 
43955000    33.453966   -4680.2245   -4622.8856   -4680.2245            0    1997.4079    17.758506    23.374826    21.945736    9109.7189    2636.5782    1644.5931    1711.0525    234.63848    60.922006   -9.6106726   -4357.5181 
43956000    34.524579   -4681.2073   -4622.0334   -4681.2073            0    2218.7382    17.908656    23.356846    21.771902    9106.9627    2304.2165    2151.7582    2200.2399    263.02599   -18.270415    8.4726116   -4327.3501 
43957000    36.155734   -4681.7897     -4619.82   -4681.7897            0    1819.9009    17.830055    23.373723     21.87705    9117.3645    1717.5976    1398.0538    2344.0512    -137.4143   -77.722389   -163.35982   -4377.8325 
43958000    37.304789   -4680.0853   -4616.1461   -4680.0853            0    2498.7347    17.855001    23.274049    21.882309    9093.3724    2871.1709    2132.8758    2492.1576   -375.33991   -401.26684    192.98619   -4284.7702 
43959000    36.548448   -4680.9189   -4618.2762   -4680.9189            0    2297.4313     17.89936    23.227833    21.902682    9106.3323    1829.0846     2642.207    2421.0023    24.782615    509.06465   -38.726312   -4313.1623 
43960000    36.926193   -4678.0749   -4614.7846   -4678.0749            0    2224.1819    17.951087    23.223345    21.839799    9104.6689    2054.8426    2253.9039    2363.7993   -229.07825    70.933103     321.5583   -4319.4527 
43961000    36.342604   -4681.8619   -4619.5719   -4681.8619            0    2182.1176    17.908287    23.330845    21.801804    9109.1305    1665.8282    2181.9849    2698.5396    114.19151  -0.63057514    169.28459   -4329.6834 
43962000    37.537834    -4683.205   -4618.8664    -4683.205            0    1857.9988    17.908918    23.242083    21.907546    9118.8096    1810.9726    2176.6892    1586.3347   -72.144095   -39.495983     143.3635   -4371.7739 
43963000    36.860996   -4679.1517   -4615.9732   -4679.1517            0    2629.9927    17.856609    23.327749    21.844458    9099.4077    2792.9669    2799.4452    2297.5661   -131.60267    2.3282248   -71.548571   -4266.9587 
43964000     34.84955   -4678.5239    -4618.793   -4678.5239            0    2283.6049    17.833914    23.290379    21.919629    9104.5065    2600.6125    2233.3668    2016.8354   -210.62912    144.63798    132.38028   -4315.5762 
43965000    31.871235   -4681.1626   -4626.5364   -4681.1626            0    1743.8297    17.825165    23.370805    21.926269    9134.2304    1956.1256     1660.254    1615.1095   -34.567967    52.127193   -176.59934    -4394.235 
43966000    35.709462   -4683.4545   -4622.2497   -4683.4545            0    1876.8385    17.813778    23.328103      21.9633    9127.1053    2522.9207    1470.5396    1637.0551    165.46117   -321.53073    122.07999   -4372.4247 
43967000    34.379345   -4681.9909   -4623.0659   -4681.9909            0    2371.7397    17.930474    23.215919    21.852261    9096.4937    1776.8848     2783.751    2554.5835   -74.669282    59.520869    37.122979   -4308.4237 
43968000    35.692996   -4679.4932   -4618.3166   -4679.4932            0    1884.3847    17.846146     23.39657    21.843596    9120.5446    2586.6013    1650.1279    1416.4249   -37.676011   -205.13168   -23.091222   -4367.6675 
43969000    37.261069    -4680.278   -4616.4138    -4680.278            0    2018.6123    17.968122    23.214412    21.845376    9112.1299    1545.4172    2787.7883    1722.6315    -255.2153    25.956338    468.87166   -4348.1583 
43970000    34.758625   -4682.0289   -4622.4538   -4682.0289            0    2271.4499    17.938036    23.276669     21.82182    9111.4332    2097.3107    2000.9565    2716.0824   -253.19804    107.47995    7.8398328   -4320.6215 
43971000    34.977949   -4678.4847   -4618.5337   -4678.4847            0    2275.6913     17.98267    23.196184    21.818959     9101.328    1477.9946     2396.859    2952.2203   -289.40701   -183.45204   -204.38292   -4316.4731 
43972000    35.636782    -4683.022   -4621.9418    -4683.022            0    1697.3781    17.907702    23.261266    21.888823    9117.9168    1698.3105    1618.9269    1774.8968    167.51875    74.782829    116.18766   -4396.2322 
43973000    34.192443   -4678.0823   -4619.4776   -4678.0823            0    2658.8887    17.878565    23.178297    21.928162    9086.9138    3024.3774     2832.994    2119.2946    5.8643472    352.99337    222.00628   -4267.1128 
43974000    34.456311    -4677.647     -4618.59    -4677.647            0    2042.5892    17.845768    23.300239     21.92411    9116.2783    2032.6281    1883.8721    2211.2675    30.765663   -254.03461    33.149793   -4347.0246 
43975000    33.877831   -4677.6859   -4619.6205   -4677.6859            0    2730.1191    17.935419     23.24312    21.803137    9089.1852    2646.6033    2898.3762    2645.3778   -97.801235   -203.11498   -384.14968   -4257.7256 
43976000    34.599414   -4678.0656   -4618.7634   -4678.0656            0    2081.6368    17.865011    23.356751    21.842297     9114.105    2050.7651    1906.5578    2287.5875   -54.647303   -195.61886    410.19739   -4342.0725 
43977000    37.585934   -4674.1387   -4609.7177   -4674.1387            0    2687.2365    17.898158    23.162496    21.930698    9091.7223    2315.4063    3326.5392    2419.7641   -227.63885   -37.799687    -140.6133   -4253.4077 
43978000     36.76067   -4678.1644   -4615.1578   -4678.1644            0    1894.9739    17.866923    23.216618    21.989874    9121.6093    2201.8527    2172.8622    1310.2069   -353.37257     1.375825   -151.12154   -4363.0708 
43979000    34.478638   -4676.3045   -4617.2093   -4676.3045            0    2015.5499    17.829407    23.351312    21.909538    9121.8179    2004.6298     2101.724     1940.296    220.43451    7.1364629    13.661067    -4349.076 
43980000    38.005715   -4679.6427   -4614.5022   -4679.6427            0    2212.3142    17.955066    23.227084    21.837232    9107.0824    1867.7192    2028.5456    2740.6779   -406.03149   -206.06191   -102.68323   -4320.6683 
43981000    35.812824   -4677.0437   -4615.6618   -4677.0437            0    2318.1685    17.796006    23.350179    21.904366    9102.1387    2996.8248    1802.5773    2155.1033   -433.98916   -44.577731   -21.955985   -4307.9357 
43982000    35.567489   -4678.6417   -4617.6803   -4678.6417            0     2254.448    17.930974    23.278223    21.798471    9098.7082    1923.4334    2438.1748    2401.7357   -451.34059     23.57749    192.77607   -4318.5256 
43983000    34.742661   -4680.7203   -4621.1726   -4680.7203            0    1923.5014    17.940832    23.241911    21.869609    9119.1726    1770.6577    1769.8903    2229.9561    541.85381    88.196162    117.95124   -4365.3589 
43984000    34.513046   -4674.0295   -4614.8753   -4674.0295            0    2167.1116    17.913988    23.302582    21.800601    9100.4903    2141.1378     2461.255    1898.9421    70.406514   -117.56089   -128.94388   -4327.2534 
43985000    33.741788   -4679.8579   -4622.0256   -4679.8579            0    2074.5316    17.889906    23.343347    21.811185     9108.575    2016.5089    2365.2246    1841.8613   -248.71639    135.30274    38.746708   -4346.4465 
43986000     34.75786   -4679.0811   -4619.5073   -4679.0811            0    2449.7808    17.821502    23.227007    21.989612    9102.3834    2616.5027    3327.7763    1405.0633    242.59714   -162.54661      59.7169   -4294.3016 
43987000    35.596696   -4678.9921   -4617.9806   -4678.9921            0    2337.6144    17.905858    23.174754    21.924437    9097.8484    2689.5633    2331.0341    1992.2457   -233.04313    246.90127    55.122727   -4307.8194 
43988000    34.187157   -4675.0012   -4616.4056   -4675.0012            0    2194.6383    17.859036    23.241747    21.947803    9109.9886    2042.5675    2487.5688    2053.7786   -65.794295   -111.42998    70.888895   -4324.8263 
43989000    35.633084   -4678.8765   -4617.8027   -4678.8765            0    2233.6542    17.922315     23.24977    21.847201    9103.5037    1975.2731    2039.1053    2686.5842   -56.384125   -287.85831    15.354474    -4321.251 
43990000    34.782183   -4677.5095    -4617.894   -4677.5095            0    2194.9588    17.808901    23.313388    21.941829    9109.9366    2112.2358    2191.9241    2280.7166    286.20849    84.980772    50.968038   -4326.2738 
43991000    33.089538   -4678.4559   -4621.7415   -4678.4559            0    2436.7653    17.885937    23.389569    21.762854    9104.3675    2486.3552    2039.1496     2784.791   -146.02642   -334.74744   -147.20016    -4298.193 
43992000    35.680288     -4679.44   -4618.2852     -4679.44            0    1993.1921    17.874361    23.362181    21.835953    9118.3458    2396.4769    1925.6958    1657.4037    95.320574    224.48048    134.60101   -4353.2271 
43993000     36.25225   -4677.5244   -4615.3893   -4677.5244            0    1955.6154    17.933223    23.185077    21.903141     9106.957    2139.4036    1913.0605    1814.3822   -446.06996    125.33008    281.90717    -4355.653 
43994000    34.046685   -4674.6144   -4616.2595   -4674.6144            0    2661.9945    17.846134    23.286263     21.87064     9088.777    3172.3838    2315.4201    2498.1798   -252.48254   -491.31454     143.1854   -4263.4108 
43995000    35.940348    -4675.087   -4613.4865    -4675.087            0    2279.8444    17.894552    23.200779    21.931619    9105.2965    1979.6158    2344.8937    2515.0238   -158.35515    60.790298    142.74114   -4310.7427 
43996000    35.054689   -4679.1478   -4619.0653   -4679.1478            0    1853.0089    17.940391    23.293624    21.821364    9119.0766    1913.0847    1650.4241    1995.5178    131.38275   -146.01168   -69.641013   -4372.6292 
43997000    34.100842   -4677.7169   -4619.2692   -4677.7169            0    2049.7444    17.860557    23.324096    21.869714     9110.515    2600.3497    1889.0132    1659.8705   -350.48905   -317.46375    29.774731   -4346.9248 
43998000    37.446682   -4679.5093    -4615.327   -4679.5093            0    2211.9841    17.894793    23.287622    21.870254    9113.9292    2357.8945    2229.5316    2048.5262    265.37709    329.86411   -167.93747    -4321.316 
43999000    35.484089   -4683.0618   -4622.2433   -4683.0618            0     1820.027    17.941489    23.180364    21.940044    9124.6502    1763.8256    2315.5093    1380.7463   -287.67274   -75.909388    293.42459   -4380.0456 
44000000    36.081668   -4676.0726   -4614.2298   -4676.0726            0    2312.2943    17.861046    23.344999     21.83914    9106.1812    2652.7123    1859.7521    2424.4185    271.31831   -49.816568    84.264007   -4307.1472 
Loop time of 333.96 on 64 procs for 250000 steps with 864 atoms

Performance: 129.357 ns/day, 0.186 hours/ns, 748.592 timesteps/s
195.3% CPU use with 32 MPI tasks x 2 OpenMP threads

MPI task timing breakdown:
Section |  min time  |  avg time  |  max time  |%varavg| %total
---------------------------------------------------------------
Pair    | 17.193     | 24.623     | 34.953     | 113.1 |  7.37
Bond    | 1.0172     | 1.198      | 1.807      |  13.4 |  0.36
Kspace  | 167.04     | 178.23     | 187.42     |  45.4 | 53.37
Neigh   | 0.069433   | 0.074632   | 0.080878   |   1.1 |  0.02
Comm    | 47.847     | 51.312     | 55.094     |  22.2 | 15.36
Output  | 0.51413    | 0.51442    | 0.51609    |   0.0 |  0.15
Modify  | 60.913     | 62.73      | 66.614     |  15.0 | 18.78
Other   |            | 15.28      |            |       |  4.58

Nlocal:        27.0000 ave          39 max          17 min
Histogram: 3 5 6 2 1 6 0 2 4 3
Nghost:        2169.78 ave        2282 max        2064 min
Histogram: 9 7 0 0 0 0 0 1 8 7
Neighs:        6678.22 ave        9891 max        4200 min
Histogram: 3 6 7 0 2 5 0 4 3 2

Total # of neighbors = 213703
Ave neighs/atom = 247.34144
Ave special neighs/atom = 2.0000000
Neighbor list builds = 250
Dangerous builds = 0

unfix		3
unfix		2
unfix		1

write_data	data.final.${pid} nocoeff
write_data	data.final.0 nocoeff
System init for write_data ...
PPPM initialization ...
  extracting TIP4P info from pair style
  using 12-bit tables for long-range coulomb (../kspace.cpp:340)
  G vector (1/distance) = 0.3722005
  grid = 24 27 25
  stencil order = 5
  estimated absolute RMS force accuracy = 0.0031032561
  estimated relative force accuracy = 9.3453637e-06
  using double precision FFTW3
  3d grid and FFT values/proc = 4410 672
Last active /omp style is kspace_style pppm/tip4p/omp

write_restart   restart.lmp.${pid}
write_restart   restart.lmp.0
System init for write_restart ...
PPPM initialization ...
  extracting TIP4P info from pair style
  using 12-bit tables for long-range coulomb (../kspace.cpp:340)
  G vector (1/distance) = 0.3722005
  grid = 24 27 25
  stencil order = 5
  estimated absolute RMS force accuracy = 0.0031032561
  estimated relative force accuracy = 9.3453637e-06
  using double precision FFTW3
  3d grid and FFT values/proc = 4410 672
Last active /omp style is kspace_style pppm/tip4p/omp
Total wall time: 0:05:34
