LAMMPS (30 Jul 2021)
Processor partition = 1
  using 4 OpenMP thread(s) per MPI task
using multi-threaded neighbor list subroutines
variable        pid world 0 1
variable        phase world IceII IceIh

shell cd ${phase}
shell cd IceIh
include Restart.lmp
echo both
log log.lammps
#include		in.partitions
include		in.temp
variable        temperature equal 30.10
variable	tempDamp equal 100.0
include		in.pressure
variable        pressure equal 2001.3
variable        pressureDamp equal 1000.0 # This is 1 ps
include		in.seed
variable        seed equal 745823

units		real
atom_style	full
#include		in.box
read_restart	restart.lmp.${pid}
read_restart	restart.lmp.1
Reading restart file ...
  restart file = 30 Jul 2021, LAMMPS = 30 Jul 2021
  restoring atom style full from restart
  orthogonal box = (0.17161915 0.18500710 0.14577508) to (18.035953 23.444171 22.067421)
  2 by 4 by 2 MPI processor grid
  restoring pair style lj/cut/tip4p/long/omp from restart
  restoring bond style harmonic/omp from restart
  restoring angle style harmonic/omp from restart
  864 atoms
  576 bonds
  288 angles
Finding 1-2 1-3 1-4 neighbors ...
  special bond factors lj:    0        0        0       
  special bond factors coul:  0        0        0       
     2 = max # of 1-2 neighbors
     1 = max # of 1-3 neighbors
     1 = max # of 1-4 neighbors
     2 = max # of special neighbors
  special bonds CPU = 0.001 seconds
  read_restart CPU = 0.006 seconds
include 	in.setup
variable	out_freq equal 1000
variable	out_freq2 equal 10000
variable	out_freq3 equal 1000

timestep	2.0

neigh_modify    delay 7 every 1

include		in.tip4p
# This is TIP4P/Ice

# create groups ###
group ox type 2
288 atoms in group ox
group hy type 1
576 atoms in group hy

# set charges - beside manually ###
set group ox charge -1.1794
Setting atom values ...
  288 settings made for charge
set group hy charge 0.5897
Setting atom values ...
  576 settings made for charge

# ### TIP3P Potential Parameters ###
pair_style lj/cut/tip4p/long/omp 2 1 1 1 0.1577 8.5
pair_coeff 1 1*2 0.000 0.000
pair_coeff 2 2 0.21084 3.1668
bond_style  harmonic
bond_coeff  1 450 0.9572
angle_style harmonic
angle_coeff 1 55 104.52
kspace_style pppm/tip4p/omp 1.0e-5
pair_modify tail yes

thermo          ${out_freq}
thermo          1000
thermo_style    custom step temp pe etotal epair emol press lx ly lz vol pxx pyy pzz pxy pxz pyz enthalpy

restart 	${out_freq3} restart.lmp.${pid} restart2.lmp.${pid}
restart 	1000 restart.lmp.${pid} restart2.lmp.${pid}
restart 	1000 restart.lmp.1 restart2.lmp.${pid}
restart 	1000 restart.lmp.1 restart2.lmp.1


include         in.dump
dump            myDump all atom ${out_freq2} dump.water.${pid}
dump            myDump all atom 10000 dump.water.${pid}
dump            myDump all atom 10000 dump.water.1
dump            myDump2 all dcd ${out_freq2} dump.dcd
dump            myDump2 all dcd 10000 dump.dcd
dump_modify     myDump append yes
dump_modify     myDump2 append yes


variable natoms 	equal  "count(all)"                        # NUMBER ATOMS
variable H      	equal  "enthalpy/v_natoms"                 # ENTHALPY-per-atom
variable Vol      	equal  "vol/v_natoms"                 # volume-per-atom
fix AVG all 		ave/time ${out_freq} 1 ${out_freq} v_Vol v_H file vol_enthalpy.dat
fix AVG all 		ave/time 1000 1 ${out_freq} v_Vol v_H file vol_enthalpy.dat
fix AVG all 		ave/time 1000 1 1000 v_Vol v_H file vol_enthalpy.dat


timer           timeout 23:50:00 every 1000
New timer settings: style=normal  mode=nosync  timeout=23:50:00

fix 		1 all shake 1e-6 200 0 b 1 a 1
Finding SHAKE clusters ...
       0 = # of size 2 clusters
       0 = # of size 3 clusters
       0 = # of size 4 clusters
     288 = # of frozen angles
  find clusters CPU = 0.000 seconds
fix             2 all nph aniso ${pressure} ${pressure} ${pressureDamp}
fix             2 all nph aniso 2001.3 ${pressure} ${pressureDamp}
fix             2 all nph aniso 2001.3 2001.3 ${pressureDamp}
fix             2 all nph aniso 2001.3 2001.3 1000
fix             3 all temp/csvr ${temperature} ${temperature} ${tempDamp} ${seed}
fix             3 all temp/csvr 30.1 ${temperature} ${tempDamp} ${seed}
fix             3 all temp/csvr 30.1 30.1 ${tempDamp} ${seed}
fix             3 all temp/csvr 30.1 30.1 100 ${seed}
fix             3 all temp/csvr 30.1 30.1 100 745823


run             250000
PPPM initialization ...
  extracting TIP4P info from pair style
  using 12-bit tables for long-range coulomb (../kspace.cpp:340)
  G vector (1/distance) = 0.37215925
  grid = 24 27 25
  stencil order = 5
  estimated absolute RMS force accuracy = 0.0031097689
  estimated relative force accuracy = 9.3649767e-06
  using double precision FFTW3
  3d grid and FFT values/proc = 6300 1296
Last active /omp style is kspace_style pppm/tip4p/omp
Neighbor list info ...
  update every 1 steps, delay 7 steps, check yes
  max neighbors/atom: 2000, page size: 100000
  master list distance cutoff = 10.8154
  ghost atom cutoff = 10.8154
  binsize = 5.4077, bins = 4 5 5
  1 neighbor lists, perpetual/occasional/extra = 1 0 0
  (1) pair lj/cut/tip4p/long/omp, perpetual
      attributes: half, newton on, omp
      pair build: half/bin/newton/omp
      stencil: half/bin/3d
      bin: standard
Setting up Verlet run ...
  Unit style    : real
  Current step  : 42000000
  Time step     : 2
  Walltime left : 23:49:59.95
Per MPI rank memory allocation (min/avg/max) = 12.26 | 12.29 | 12.31 Mbytes
Step Temp PotEng TotEng E_pair E_mol Press Lx Ly Lz Volume Pxx Pyy Pzz Pxy Pxz Pyz Enthalpy 
42000000    32.470292   -4678.2093   -4622.5563   -4678.2093            0    2204.2184    17.864334    23.259164    21.921646    9108.6513    2381.5343    2187.7756    2043.3453   -60.752431    88.233918   -161.93579   -4329.7472 
42001000    30.815642   -4688.9067   -4636.0897   -4688.9067            0    1917.6549    17.808724    23.329635    21.939846    9115.3706    2339.7287    1387.4256    2025.8105    79.856456    -48.43427    346.47863   -4381.1599 
42002000     30.12916   -4687.5775   -4635.9371   -4687.5775            0    1977.5256     17.90026    23.247584    21.902952    9114.6462    1651.0198    2056.3043    2225.2526    199.14452   -249.82088    86.211706   -4373.0691 
42003000     29.86544   -4688.6485   -4637.4602   -4688.6485            0    2006.7215      17.9589    23.197551    21.884824    9117.2724     1762.931    1970.0081    2287.2255   -108.99022    278.78999     160.2299   -4370.6343 
42004000    30.154596   -4691.4806   -4639.7967   -4691.4806            0    1855.0881    17.911058    23.218724    21.921891    9116.6984    1858.2485    1788.3246    1918.6913   -214.50862   -68.788734    110.50682   -4393.1484 
42005000    31.040009   -4688.3229   -4635.1214   -4688.3229            0    2366.8369    17.885991    23.313177     21.81859    9097.8997    1987.4667    2384.9242      2728.12    448.58457   -198.17756      135.875   -4321.0811 
42006000    29.346482     -4685.91   -4635.6112     -4685.91            0    1692.7408     17.95226     23.33351    21.806794    9134.6312    1849.9182    1307.8613    1920.4428   -71.870058    364.68791    311.46452   -4410.1056 
42007000    30.482611   -4688.0091   -4635.7629   -4688.0091            0    1856.1631    17.924685    23.279258    21.850031    9117.4358    1518.1052    1864.1345    2186.2497   -35.511484    142.44759     41.09011   -4388.9518 
42008000    31.007948   -4686.3934   -4633.2469   -4686.3934            0    2208.8101    17.973248    23.220154     21.83166    9111.2598    1894.2918     2275.434    2456.7044   -162.14441    9.7865519    291.09243   -4339.7438 
42009000    32.452104    -4688.721   -4633.0992    -4688.721            0    2121.5153     17.85107      23.3103    21.893537    9110.2027    2469.4467    1781.0176    2114.0817    338.19878   -13.477315   -102.55781   -4351.2284 
42010000    29.909561    -4686.924     -4635.66    -4686.924            0      1781.52    17.876406    23.302973    21.926539    9134.0127    1740.2628    2220.1671    1384.1301    13.849714   -230.24393   -90.604662   -4398.3434 
42011000    30.700469   -4688.9025   -4636.2829   -4688.9025            0     1800.479    17.850927    23.382185     21.86544    9126.4958     1663.588    1845.7887    1892.0602   -41.544999    249.28145    39.303729   -4396.6381 
42012000    31.418691   -4683.7622   -4629.9116   -4683.7622            0     2142.335    17.854423    23.303346    21.888807    9107.2273    2481.1606    1878.7041    2067.1404    34.527787   -163.74632    -61.15592   -4345.3676 
42013000    31.814644   -4687.3355   -4632.8063   -4687.3355            0    2175.0314    17.900562    23.196151    21.949314     9113.885    1763.3225    2847.3437    1914.4282   -211.92964   -21.145281    45.371464   -4343.7084 
42014000    29.406851   -4689.3734    -4638.971   -4689.3734            0    2072.7345    17.950838    23.259048    21.840491    9118.8289    2072.0943     1779.979    2366.1302   -38.616668     -20.1906    207.95483   -4363.3206 
42015000    31.022018    -4688.741   -4635.5703    -4688.741            0    1961.0585    17.914402    23.187873    21.939278    9113.5075    2060.8391    1887.0032    1935.3333    163.92106   -163.96482    329.21661   -4374.9238 
42016000    30.400129    -4688.685   -4636.5802    -4688.685            0     2027.049    17.928775    23.217137    21.888256    9111.0924    1422.8709    2182.5104    2475.7658   -271.44083    -390.1386    16.014399   -4367.2342 
42017000    29.675805   -4685.5746   -4634.7113   -4685.5746            0    1705.5956    17.797946    23.266043    22.016826     9116.898    2063.6211    1845.4934    1207.6724   -192.56492    110.29634    98.624705   -4407.9343 
42018000      29.3881   -4689.6263   -4639.2561   -4689.6263            0    1767.8937    17.981355    23.132634    21.925837    9120.1858     1591.637    2047.3022     1664.742   -139.19372      54.9805    98.600369   -4404.1111 
42019000    30.841709   -4688.4061   -4635.5445   -4688.4061            0     1916.567    17.904816    23.210915    21.942212    9118.9019    2174.0531    2178.3405    1397.3073    357.81379    -4.458304   -26.372551   -4380.6605 
42020000    29.211611   -4687.6832   -4637.6155   -4687.6832            0    2049.5396    17.854281    23.398408    21.790253    9103.1343    2197.7672    1730.3292    2220.5224    82.452975   -295.21806    351.28801   -4365.5189 
42021000    29.346111   -4688.9373   -4638.6391   -4688.9373            0    2076.0362    17.864573    23.299585    21.891133    9111.9025    2177.2696    2070.7255    1980.1136    553.07279    196.52798    53.414492   -4362.7593 
42022000    30.886648   -4686.8108   -4633.8721   -4686.8108            0    1907.6297    17.875359    23.306902    21.869518     9111.262    1910.3364    1945.3798    1867.1728   -164.60347   -9.2615949   -111.56435   -4380.3893 
42023000    30.374636   -4691.2363   -4639.1752   -4691.2363            0    1732.9469    17.869112    23.369329      21.8619    9129.2924    1729.4064    1603.7921    1865.6422    369.00373   -6.4306024    315.06788   -4408.4483 
42024000    31.207219   -4683.1323   -4629.6442   -4683.1323            0    1864.9676    17.921438      23.2106    21.931508     9122.791     1316.998    2307.5651    1970.3398   -80.063863   -126.40706    49.280113   -4381.5167 
42025000    29.429948   -4685.3698   -4634.9279   -4685.3698            0    1862.4942    17.887865    23.274565    21.898729     9117.148     1931.008    1611.2544    2045.2204    80.230868   -29.168204   -315.85367   -4387.2827 
42026000    31.778744   -4685.7588   -4631.2911   -4685.7588            0    2234.3734    17.862922     23.39713    21.767181    9097.3997    2089.7013    1641.8458    2971.5732    25.413056    181.58711     219.1441   -4334.8428 
42027000    30.978107   -4686.0501   -4632.9547   -4686.0501            0    2195.7828    17.854802    23.297425    21.909299    9113.6309    2272.4511    1751.2929    2563.6043   -363.12623   -12.741358    193.61118   -4341.1067 
42028000    28.085981   -4686.2823   -4638.1439   -4686.2823            0    2115.9192    17.936654    23.306937    21.782034    9105.9455    1382.2704    2283.3401     2682.147    202.32405    25.123256   -53.773993   -4357.1479 
42029000    29.338198   -4689.4404   -4639.1557   -4689.4404            0    2169.4418    17.876941    23.354749    21.800328    9101.8869    2462.1791    1453.0635    2593.0828    444.80434    107.76611    74.359852   -4351.1803 
42030000    31.865318   -4688.3304   -4633.7143   -4688.3304            0    2055.2206    17.947845    23.254946    21.819513    9106.9451    1455.1164    1815.7428    2894.8026   -14.318531   -218.96737    115.76004   -4360.7493 
42031000    30.123567   -4684.1636   -4632.5328   -4684.1636            0    1918.3919    17.898403    23.280995    21.874642    9115.0024    1951.9568    1764.3248    2038.8942   -68.945934   -34.012131   -352.78178   -4377.5153 
42032000    31.021082   -4686.2141   -4633.0451   -4686.2141            0    2174.9351    17.929471    23.171973    21.906161    9101.1603    1917.4278    2383.5207    2223.8569    114.78348   -103.18676   -68.365735   -4344.3635 
42033000    29.124195   -4684.7236   -4634.8057   -4684.7236            0     2382.233    17.965746    23.127831    21.892071    9096.3471    2165.5264    2753.0609    2228.1119    196.27365   -182.13659    307.48179   -4318.7766 
42034000    29.856603   -4690.0655   -4638.8923   -4690.0655            0    2020.7328    17.920292    23.214908    21.899812    9110.7148    2286.7879    1844.6635    1930.7469     437.4739   -231.41208     41.71722   -4370.3967 
42035000      29.1703   -4689.0832   -4639.0863   -4689.0832            0    2091.4123    17.859921     23.22834    21.940431    9102.1262    2316.9454    1668.9044    2288.3872   -145.81185    282.94681   -120.25085   -4361.4614 
42036000    29.089961   -4687.5199   -4637.6607   -4687.5199            0    2309.8584    17.905119    23.234542     21.85361    9091.4784    1986.1505    2611.6595    2331.7653   -124.15998    166.49755    221.49698   -4331.3968 
42037000    30.054265   -4686.0556   -4634.5436   -4686.0556            0    2530.6021    17.858701    23.293728    21.843097    9086.6349    2524.3265    2269.7427    2797.7371   -52.921804     1.914538   -3.8131827   -4299.1901 
42038000    29.509113   -4686.4218   -4635.8442   -4686.4218            0    1235.1351    17.916026     23.30074    21.912168    9147.3806    847.36402    1070.9759    1787.0654   -103.51764   -241.37651    59.487474   -4471.0708 
42039000    31.235916    -4687.744   -4634.2067    -4687.744            0    2038.8393    17.911875    23.195354    21.908625    9102.4266    2140.4307    2133.6532     1842.434   -277.50346    139.52743    27.884942   -4363.5517 
42040000    29.525111   -4687.2837   -4636.6787   -4687.2837            0    2219.5339    17.862777    23.253979    21.895511    9094.9715    2363.8662    2298.6577    1996.0778    378.35177    143.91051    93.943752   -4342.2779 
42041000    30.462013   -4688.5057   -4636.2949   -4688.5057            0    2239.9945    17.850363    23.332857    21.849598    9100.3567    2777.2858    1929.0421    2013.6554    80.131588   -192.02742   -122.48016   -4339.0042 
42042000    30.319949   -4688.5383   -4636.5709   -4688.5383            0    2199.5591    17.823999    23.337319    21.885359    9103.5291    2264.7101    2495.2268    1838.7403   -303.68881    233.70079   -43.034628    -4344.545 
42043000    29.833098   -4686.1662   -4635.0333   -4686.1662            0    2099.5538     17.97913     23.26107     21.76835    9103.8246    1754.0469    2359.1972    2185.4172   -127.88202    12.686528    204.19214   -4356.2757 
42044000    29.988055    -4686.035   -4634.6365    -4686.035            0    2152.1866    17.869423    23.311357    21.856868     9104.708    2293.2807    1987.9485    2175.3306   -443.45374    -39.98179   -17.946317   -4348.8631 
42045000    28.977192   -4691.0312   -4641.3652   -4691.0312            0    1541.0377     17.85313    23.380669     21.88065      9133.38    1887.2725    1445.7926    1290.0479    57.583831    -1.639379    65.599624   -4436.0975 
42046000    31.151115   -4686.6536   -4633.2616   -4686.6536            0    2165.1029    17.806804     23.25456    21.992612    9106.9074    2640.6368    2144.8095    1709.8624    215.30758   -51.291002   0.80038266   -4345.7037 
42047000     28.25173   -4685.6796   -4637.2571   -4685.6796            0    1967.5198    17.865944    23.201639    21.966843    9105.6777    2119.3109    1937.1667    1846.0818   -355.63553   -23.721517   -44.716824   -4375.9764 
42048000    31.089359   -4687.4913   -4634.2052   -4687.4913            0    2059.4333     17.88318    23.253691    21.909508    9111.0676    1843.5245    2370.0905    1964.6848    165.16276    77.908541    39.838321   -4360.5568 
42049000    30.608078   -4686.9834   -4634.5222   -4686.9834            0    1749.0093    17.952328    23.240981    21.860252    9120.7468    1441.0485    2070.8287    1735.1506   -440.03899    85.731779   -177.44096   -4401.8747 
42050000    30.745628   -4689.1516   -4636.4547   -4689.1516            0     2037.236    17.882645    23.328822    21.804377    9096.3725    2093.2887    1779.1403     2239.279     88.06437   -68.978567    254.48911   -4366.1924 
42051000    30.364698   -4684.8135   -4632.7695   -4684.8135            0    2039.0797    17.972204    23.128967     21.91378    9109.0874    1488.7175     2813.268    1815.2535   -63.802797   -91.834698   -301.83633   -4361.8845 
42052000    30.054571   -4687.1931   -4635.6806   -4687.1931            0     2088.381    17.916325    23.204774     21.91359    9110.4495    2269.5579    2203.8593    1791.7257   -91.420471   -163.92751   -30.366691   -4358.2046 
42053000    28.985624    -4687.027   -4637.3466    -4687.027            0    2141.3976    17.934963    23.220689    21.856577    9102.4381    1741.5014    2788.1587    1894.5326   -220.10011   -138.14361    229.76873   -4353.0767 
42054000    30.755874   -4685.6223   -4632.9078   -4685.6223            0     2235.283     17.82291    23.288255    21.931569    9103.0151    2812.1416    1920.8314    1972.8762   -110.38536    321.39572   -64.198949   -4336.1558 
42055000    29.058956   -4685.6129   -4635.8068   -4685.6129            0    2213.3919    17.953678    23.167924    21.876961    9099.7098    1980.0859    2957.0922    1702.9976    310.40904   -89.782977    205.49984   -4342.0677 
42056000    32.730264   -4688.9874   -4632.8888   -4688.9874            0    1808.5944    17.955844    23.198616    21.905213    9124.6325    1630.7939    2459.0063    1335.9831   -377.43114    144.02833    30.554268    -4392.213 
42057000    30.599151   -4688.0501   -4635.6042   -4688.0501            0    1981.1891    17.860476    23.338641    21.858767    9111.5916    2097.4274     1735.797    2110.3428    164.58882    -63.82611   -212.93225   -4372.3374 
42058000     30.30719   -4687.4385    -4635.493   -4687.4385            0    2056.0994    17.915831    23.307499     21.80262    9104.1898    1986.3812    1794.4657    2387.4513   -407.61868   -92.324508    270.64839   -4362.4938 
42059000    29.680083   -4686.3928   -4635.5222   -4686.3928            0    1846.9432     17.87754    23.294703    21.889439    9115.9003    1408.3162    1965.8945    2166.6188    122.36287    266.89653   -73.373785   -4389.9784 
42060000    28.505051    -4689.762   -4640.9053    -4689.762            0    2035.4001    17.883308    23.216835    21.943857    9110.9533    2068.9576    2118.5583    1918.6843   -184.24779   -123.42945    1.5015168   -4370.4537 
42061000     29.36491   -4686.4495    -4636.119   -4686.4495            0    1746.5613    17.951077    23.287114    21.824037    9123.0755    1718.8868      1299.28    2221.5172   -89.791061    55.976728    130.38846   -4403.7378 
42062000    29.592284   -4683.9314   -4633.2113   -4683.9314            0    1995.0786    17.872621    23.287587    21.908453    9118.5218    1929.0755    1828.6517    2227.5087    -75.76047   -74.909951   -112.59734   -4367.8972 
42063000    30.852697   -4684.7282   -4631.8477   -4684.7282            0     2116.662    17.819979    23.332322    21.893245    9102.8063     2128.311     2067.273    2154.4019   -507.56069   -142.44651    379.07828   -4350.8501 
42064000    29.836906   -4688.0431   -4636.9037   -4688.0431            0    1750.6219     17.85742    23.343675    21.907412     9132.276    1967.2298    1457.1543    1827.4816   -419.51855   -32.631053    195.16759   -4403.7473 
42065000    28.948058   -4688.3109   -4638.6949   -4688.3109            0    2081.4768    17.911773    23.258451    21.865755    9109.2752    2121.3448    1979.0658    2144.0198    76.018258    42.211019    -56.77834   -4362.1719 
42066000    30.082872   -4684.9451   -4633.3841   -4684.9451            0    1736.0756    17.921057    23.323689    21.843368    9130.2036    1886.4026    1339.9079    1981.9163   -46.182323   -181.48644   -16.873657   -4402.2175 
42067000    27.384909   -4685.5822   -4638.6454   -4685.5822            0    2407.7145    17.856174    23.253442    21.888544    9088.5068    2289.4125    2552.3278    2381.4032   -362.91932   -124.91168    71.488628   -4319.5112 
42068000    29.463305   -4686.9059   -4636.4068   -4686.9059            0    2797.0919    17.848963    23.282364    21.847579    9079.1119    2618.8464    2985.5673    2786.8619    187.77525   -253.46463   -124.57583   -4266.0452 
42069000    28.517306    -4690.066   -4641.1883    -4690.066            0    1956.2624    17.896146    23.264031     21.89199     9114.434    2030.3423    2087.3379    1751.1072    80.599706   -88.783338    298.85628   -4381.1528 
42070000    30.478986   -4687.7873   -4635.5474   -4687.7873            0    2020.8186    17.859424    23.280075    21.906756    9108.1438    2195.4352    1607.3116     2259.709   -193.41054    287.34146    170.41536   -4367.1161 
42071000    30.531583   -4689.0882   -4636.7581   -4689.0882            0    1886.0306    17.920384     23.29043    21.842131    9116.3255    1814.1642    1689.8206    2154.1071   -27.725663    156.41048   -76.357529   -4386.0061 
42072000    32.819197   -4686.5807   -4630.3297   -4686.5807            0    2103.4921    17.859755    23.314717     21.87255    9107.6235     2407.602    1974.9037    1927.9707    206.65807    5.0868978    287.69217   -4350.9327 
42073000    28.732779   -4689.4434   -4640.1964   -4689.4434            0    1674.9754    17.812957    23.324723    21.948169    9119.0755    2228.6835    1795.1131    1001.1297   -184.96682   -230.05161   -11.626614   -4417.4374 
42074000    30.160493    -4687.671   -4635.9769    -4687.671            0    1963.3383    17.841813    23.261453    21.936889    9104.3899    2204.9705    1843.2784     1841.766   -37.844909    -94.78127    -12.56097   -4375.2884 
42075000    29.891601   -4688.8786   -4637.6454   -4688.8786            0    1707.6868    17.969239    23.231354    21.863745    9127.0144    1476.8609    2200.4678    1445.7316    403.18611   -67.802879    289.17298   -4410.3384 
42076000    28.640874   -4685.1186   -4636.0291   -4685.1186            0      2384.08    17.850038    23.327174      21.8327    9090.9388    2745.6021     1997.214    2409.4238   -377.74834    42.311042   -100.62956   -4319.9429 
42077000     30.64781   -4690.1809   -4637.6516   -4690.1809            0    2500.8856    17.813817    23.331792    21.867816    9088.8826    2780.9168    2514.1386    2207.6015   -348.43535   -148.24985   -20.107774   -4306.1541 
42078000    31.603458   -4686.1476   -4631.9803   -4686.1476            0    1597.3334    17.910853     23.32395    21.843249    9125.0571    1361.7285    1257.1524    2173.1192    323.47975    141.86196   -74.318066   -4419.4078 
42079000    30.294662   -4687.5655   -4635.6414   -4687.5655            0    1886.8453    17.879362    23.278573    21.904486     9116.779    1603.7212    1980.7253    2076.0894    32.206905     47.98622    111.97672   -4384.7686 
42080000    31.538481    -4684.513   -4630.4572    -4684.513            0    2215.3572    17.902125    23.213377    21.893443    9098.2308    2338.0273    2026.5136    2281.5307   -460.88292   -39.171727    112.37796    -4336.505 
42081000    29.635967   -4686.2554   -4635.4604   -4686.2554            0    2185.6847    17.886369     23.32298     21.81741    9101.4252    1907.5629    2303.0878    2346.4036   -361.22432    112.09363    229.83016   -4345.3437 
42082000    29.892328   -4688.9138   -4637.6793   -4688.9138            0    2202.5019    17.878977    23.228576    21.913044    9100.5568    2244.4622    2392.1807    1970.8627    152.68762     26.60388    10.202411   -4345.3583 
42083000    29.013409   -4687.5106   -4637.7826   -4687.5106            0    2616.6736    17.872194    23.235068    21.879841    9085.8588    2569.3019    2882.3627    2398.3564    53.165618   -297.78756   -338.09873   -4291.0526 
42084000    31.203982   -4685.4688   -4631.9862   -4685.4688            0    1870.1304    17.916142    23.250387    21.895408    9120.6908    2037.9549    1469.1561    2103.2801   -30.038923   -93.233929    256.27207   -4383.2291 
42085000    29.296529   -4685.3246   -4635.1114   -4685.3246            0    2043.7562    17.954569    23.162132    21.889466    9103.0872    1912.1498    2600.2272    1618.8916   -228.05208    39.593856    12.270197    -4363.784 
42086000    29.463788   -4686.8759    -4636.376   -4686.8759            0    2148.7583    17.838079    23.300606    21.903522    9103.9373    2482.4238    1732.9973    2230.8537   -439.09466   -56.757985   -205.35577   -4351.0819 
42087000    30.924239   -4691.3916   -4638.3885   -4691.3916            0    1883.9008    17.967355    23.259268    21.824205    9120.4993    1544.3334     1918.415    2188.9541    20.456578   -345.58636    350.39112    -4387.805 
42088000    29.200801   -4681.6774   -4631.6283   -4681.6774            0    2529.2479    17.868292    23.219796    21.922014    9095.4019    2614.1533    2807.2445     2166.346   -356.24558    25.917635    325.68558   -4296.1309 
42089000    28.221703    -4688.326    -4639.955    -4688.326            0    2120.6271    17.922962    23.265486    21.829418     9102.571    2162.7554    1779.2165    2419.9095    145.02072    -146.0524   -186.77191   -4358.4382 
42090000    29.540935   -4686.6165   -4635.9844   -4686.6165            0    1804.6885    17.889997    23.295344    21.897694    9125.9434    1888.7917    1387.5795    2137.6941    223.37801   -3.5457509    44.645617   -4395.7939 
42091000    29.830168   -4691.0141   -4639.8862   -4691.0141            0    1856.2948    17.937932    23.252359    21.858752    9117.2686    1602.3301    2085.0714     1881.483   -28.434619    123.15006    184.37537   -4393.0621 
42092000    30.605759    -4685.275   -4632.8177    -4685.275            0    2218.0585    17.839791    23.266085    21.927724    9101.3672    2424.8987    2217.3356    2011.9413    151.25556   -368.77355   -192.03001   -4338.4057 
42093000    28.792499   -4688.5844   -4639.2351   -4688.5844            0     2257.945    17.985272    23.228711    21.775723    9097.3459    1617.8969    2475.7545    2680.1837   -566.42053    197.12793    236.03256   -4339.6612 
42094000    29.752015   -4688.2904   -4637.2965   -4688.2904            0    2120.9841     17.97555    23.211263    21.847073    9115.3684     2020.285    1962.6503     2380.017    -287.1376   -340.90837     492.6307   -4355.3365 
42095000    30.590623   -4691.1576   -4638.7263   -4691.1576            0    1906.6316    17.916231    23.312509    21.839998    9121.9619    1403.7563    2029.8842    2286.2545   -284.59737    197.38736   -22.866572   -4385.0786 
42096000    29.478874   -4684.3799   -4633.8541   -4684.3799            0    2269.6803    17.872345    23.285432    21.886993    9108.6061    2805.6292    1992.8838    2010.5279    286.22736   -112.67833    123.76316   -4332.3505 
42097000    32.129954   -4691.0161   -4635.9464   -4691.0161            0    1952.4194    17.914407    23.327635    21.812595    9115.4994    1721.3982    2504.0514    1631.8086   -344.86888   -207.80025    166.65354   -4376.3914 
42098000    30.120419   -4692.2894    -4640.664   -4692.2894            0    1720.2186    17.895972    23.295354    21.885495    9123.9095    1815.0195    2063.3571    1282.2791   -321.19495   -42.382137   -73.837697   -4411.7668 
42099000     30.97451    -4687.277   -4634.1877    -4687.277            0    2016.9324    17.944668     23.16395      21.9329    9116.8355    2054.3939    2274.0287    1722.3745   -8.5831211    189.87095   -213.55124    -4366.017 
42100000    28.134988    -4686.325   -4638.1026    -4686.325            0    2241.1443    17.795459     23.30148    21.957093    9104.7399    2495.0962    2380.9372    1847.3996   -341.76802   -35.682464    19.555616   -4340.5161 
42101000    30.018912   -4691.6557   -4640.2043   -4691.6557            0    1892.7933    17.847733    23.348059    21.879242    9117.2977    2100.7201    1769.4799    1808.1799     190.8343    30.273212    198.32887   -4388.5263 
42102000    30.637325   -4687.6892   -4635.1779   -4687.6892            0    2193.5298    17.905017    23.297477     21.85477    9116.5367    2598.1883    2083.7669    1898.6343   -284.71257    35.518336   -35.437962   -4343.5364 
42103000     30.11862   -4687.1479   -4635.5256   -4687.1479            0    1761.8443    17.934795    23.287784    21.854381    9127.7366     1677.261    1985.0323    1623.2395    -248.3717   -28.338688   -344.39815   -4400.9912 
42104000    30.302852   -4687.7343   -4635.7962   -4687.7343            0    1670.2696    17.941583    23.319186    21.816256    9127.5531    1788.0059    1289.0245    1933.7785   -187.46909    109.07431    174.52384   -4413.4566 
42105000    30.491749   -4686.3424   -4634.0806   -4686.3424            0    2303.2967    17.835812    23.367525    21.835639    9100.6312    2367.4812    2386.1927    2156.2163    266.56049    155.38469    309.09102   -4328.3793 
42106000    28.085607   -4688.5014   -4640.3636   -4688.5014            0     2141.645    17.931442    23.285635    21.818959    9110.3978    1673.2519    2493.3483    2258.3346   -318.62196   -36.717859   -8.5216639   -4355.8122 
42107000    29.000746   -4688.7892   -4639.0829   -4688.7892            0     1811.747    17.895994    23.170665    21.995852    9120.8458    2055.6161    1927.5152    1452.1098    217.56158   -68.715112   -67.241571   -4398.0876 
42108000     30.45936   -4688.1763     -4635.97   -4688.1763            0    1811.8365    17.898619    23.301826    21.862682    9118.2798    1816.3606    1768.4409    1850.7081   -237.27547   -5.9532272   -85.871239   -4395.0306 
42109000    30.219319   -4688.5334   -4636.7385   -4688.5334            0    2251.3352    17.846161    23.269948    21.925155    9105.0614    2322.7159    1911.7358    2519.5538    559.56461   -234.63392    158.59246   -4337.7882 
42110000    29.285196   -4686.3636   -4636.1698   -4686.3636            0    2397.1045    17.849439    23.256579    21.899927    9091.0294    2297.0022    2422.0257    2472.2855    -6.180959    37.077681   -156.16806   -4318.3536 
42111000    31.192868   -4689.4692   -4636.0057   -4689.4692            0    1774.7721     17.90941    23.271366    21.881339    9119.6267    1412.0334    1628.5478    2283.7352   -112.90683    -104.2895    112.01772   -4399.9602 
42112000    30.771976   -4688.1609   -4635.4187   -4688.1609            0    1750.2619    17.933474     23.24627    21.879066    9121.0843    1523.7155    1752.9727    1974.0977   -314.71573   -80.734477    -78.30324    -4402.596 
42113000    30.158906   -4688.6699   -4636.9786   -4688.6699            0    1892.9252    17.887665     23.24214    21.924061    9114.8763    2061.1871    1730.1914    1887.3971   -184.84175    132.66318    78.187185   -4385.3499 
42114000    30.781876   -4684.3409   -4631.5819   -4684.3409            0    2138.0355     17.96617     23.22187    21.829874    9107.5994    1944.4228    2230.1673    2239.5163    15.631059   -6.2594809   -106.57598   -4347.5973 
42115000    31.022985   -4686.4659   -4633.2936   -4686.4659            0    1795.4692    17.801534    23.366151    21.906047    9111.8933    1943.8368    1725.0245    1717.5462    218.78512    24.308583    243.94441   -4394.6979 
42116000    29.180551   -4687.3369   -4637.3225   -4687.3369            0    1788.5052      17.8743      23.3262    21.860201     9114.381    1932.3093    1385.8321    2047.3743   -19.089468    -173.9959    308.98996   -4399.5874 
42117000    28.987465   -4690.5405    -4640.857   -4690.5405            0    2036.4195    17.897775    23.224838    21.901982    9104.0615    2094.3869     2284.111    1730.7607   -239.43005    103.56337   -321.33176   -4370.4747 
42118000    29.305537   -4688.1722   -4637.9435   -4688.1722            0    2044.5228    17.913146    23.197989    21.912373    9105.6641    1564.8363    2428.1698    2140.5622   -397.38164   -43.991269    31.852772   -4366.4375 
42119000    31.422188   -4688.8043   -4634.9478   -4688.8043            0    1933.4508    17.824657     23.35854    21.898054    9117.4292    2387.0144    1143.4888    2269.8492    8.5796767   -22.175097    57.760657     -4377.86 
42120000    29.107114   -4688.0743   -4638.1857   -4688.0743            0    2019.9708    17.914129    23.331523     21.80197    9112.4371    1918.8573    1907.7989    2233.2562   -31.635997     33.89973   -83.764594   -4369.7406 
42121000    30.328475   -4690.7203   -4638.7383   -4690.7203            0    1777.6519    17.881022     23.21294    21.955055    9112.9085    2244.0178    1545.2022    1543.7358    -202.7113    -18.15164   -37.418329   -4402.4841 
42122000    31.885184   -4687.3546   -4632.7045   -4687.3546            0    2018.5804    17.891773    23.241313    21.907081    9109.5841     2060.686    2256.2441     1738.811    21.604356    64.234615    253.33757   -4364.5281 
42123000    27.075934   -4686.5114   -4640.1042   -4686.5114            0    1948.9445    17.906471    23.264301    21.886185    9117.3803    2031.5222    2065.3714      1749.94    296.95356      176.401   -55.416833   -4380.9576 
42124000    29.907781   -4684.6349    -4633.374   -4684.6349            0    2196.9772    17.802291    23.341271     21.93216    9113.4288    2788.2058     1777.911    2024.8147    39.063195   -163.49234   -108.80357   -4341.3737 
42125000    31.806008   -4686.7478   -4632.2334   -4686.7478            0    2090.5103     17.80589    23.305147    21.932591    9101.3429    2357.1065    1935.0998    1979.3247    82.084876     370.6222    110.84532   -4354.7521 
42126000     30.62873   -4688.9361   -4636.4395   -4688.9361            0    1742.9111     17.86296    23.329136    21.894961    9124.2312    1295.7004    1878.7311    2054.3019   -152.62347   -195.27708    235.80707   -4404.5146 
42127000    29.927174   -4686.1895   -4634.8953   -4686.1895            0    1520.1545    17.985287    23.167236    21.933334    9138.9491    1361.5191    1901.0577    1297.8866   -166.66192   -396.69575    136.58249   -4432.2858 
42128000     31.53087   -4689.5549   -4635.5121   -4689.5549            0    2198.2435    17.871313    23.210389    21.926832     9095.253    2213.7932    2264.7922    2116.1451   -216.10063    90.045746    82.326707   -4343.9262 
42129000    32.358409   -4688.8079   -4633.3467   -4688.8079            0    1952.9758    17.910347    23.175863    21.951655    9111.8626    2140.6046    2019.3358    1698.9871   -234.66764   -46.330549    81.302247   -4373.8213 
42130000    29.680004   -4690.1634   -4639.2929   -4690.1634            0    1915.3309    17.867336    23.335361    21.880963    9123.0645    2033.1313    1949.3369    1763.5246   -105.61797   -169.42136    495.07427    -4384.457 
42131000    29.594061   -4688.3288   -4637.6056   -4688.3288            0    2321.0215    17.890122    23.278205    21.824788    9088.9317    2094.3083    2545.8131    2322.9433    43.409625    177.76171    39.534759   -4329.9479 
42132000    30.579727   -4686.3282   -4633.9156   -4686.3282            0    1842.6873    17.986838    23.242873     21.82709    9125.1596    1988.9911    2117.8458     1421.225   -87.703308   -253.47137    226.67792   -4388.6887 
42133000    29.064696    -4686.822   -4637.0061    -4686.822            0    2010.2247    17.877146    23.286523    21.885208    9110.7371    2167.5789    1810.1484    2052.9466   -184.65811   -84.618987     166.7729    -4369.906 
42134000    28.568972   -4688.3745   -4639.4083   -4688.3745            0    2077.4618    17.877505    23.230861    21.929314    9107.4599    2172.0065    2232.0403    1828.3385    -8.729269    36.759216    125.00757   -4363.4737 
42135000    29.006057   -4690.2049   -4640.4895   -4690.2049            0    1991.5533    17.874679    23.244464    21.905065    9101.2772    2135.9863    2263.7121    1574.9614    76.421661   -144.59834     91.01681   -4376.1451 
42136000    29.346829   -4685.8285   -4635.5291   -4685.8285            0    1943.9867    17.894438    23.183872    21.960172    9110.4487    1962.1883    2183.7918      1685.98    -293.3648   -153.19923   -7.1390025   -4377.2383 
42137000     28.97109   -4687.4735    -4637.818   -4687.4735            0    2053.6871    17.927349    23.155739     21.93029    9103.7242    2211.1207    2313.1648    1636.7757   -25.134556   -133.74144     117.7039   -4365.1531 
42138000    30.464192   -4687.1212   -4634.9066   -4687.1212            0    2042.6918    17.901402    23.192451    21.952056    9113.9977    1870.9681    2429.9951    1827.1123    270.60244    113.52128   -228.83586   -4363.3954 
42139000    28.224277   -4690.3084    -4641.933   -4690.3084            0    2283.6133    17.857314    23.380214    21.789134     9097.134    2490.8765    2071.5393    2288.4241   -318.40418    79.331599    236.14569   -4338.9606 
42140000    29.210056   -4687.8159   -4637.7509   -4687.8159            0    2094.2502    17.906575    23.384935    21.755713    9110.0766    1853.5902    1829.7861    2599.3744    -205.8534    169.32873    86.909559   -4359.5065 
42141000    29.372874   -4690.5372   -4640.1931   -4690.5372            0    1913.0805     17.82602    23.337219    21.915279    9116.9696     2194.773    1586.8832    1957.5854   -292.18677    58.863587   -167.54636   -4385.8268 
42142000    29.932555   -4690.4484    -4639.145   -4690.4484            0    2163.2773    17.834244    23.249037    21.959112    9104.8848    2066.3524    2434.5597    1988.9198    167.50942   -19.967022   -63.398818   -4351.8933 
42143000    29.019841   -4689.7321   -4639.9931   -4689.7321            0    1895.9391    17.915547    23.219638    21.923442    9119.9882    1580.1975    2597.9496    1509.6702   -114.10855    88.961082    174.49563   -4387.8224 
42144000    30.007892   -4689.1275    -4637.695   -4689.1275            0    1525.6936    17.932006    23.264631    21.890163    9132.1711     1631.734    1650.0077    1295.3391   -267.63859   -15.193677    33.494666   -4434.4981 
42145000    30.903005   -4684.7755   -4631.8088   -4684.7755            0    2019.3201    17.831803    23.295898    21.912883    9102.7837    2047.4244    2289.0428    1721.4932    184.47291    177.73904   -170.36148   -4363.7345 
42146000    28.839895   -4688.3022   -4638.8716   -4688.3022            0    2096.5887    17.928267     23.35539    21.750291    9107.3181     2617.356    1695.0633    1977.3467   -258.80274   -286.48801   -3.2970932   -4360.4008 
42147000    28.315592   -4688.4842   -4639.9523   -4688.4842            0    2046.3286     17.83259    23.344681    21.878052    9107.7482    2115.4187    2448.5882     1574.979    373.80058   -2.2455727     304.6747   -4368.1443 
42148000    27.699932   -4687.9607    -4640.484   -4687.9607            0    1674.4686    17.852684    23.350521     21.87823    9120.3662    1780.6842    1572.4003    1670.3214   -272.07519    169.84014   -273.40268   -4417.7609 
42149000    31.235039   -4685.5554   -4632.0196   -4685.5554            0    1941.6497    17.821612    23.360647     21.89666    9116.1139     2106.377    2041.7605    1676.8115    57.966726    -35.45219    55.025912   -4373.8789 
42150000    29.676852   -4688.4074   -4637.5422   -4688.4074            0    2204.9016    17.872954    23.228029    21.912771    9097.1638     2233.401    2418.7643    1962.5397    49.462134   -95.643317   -115.54272   -4345.0118 
42151000    28.645784   -4682.7181   -4633.6203   -4682.7181            0    2123.5474    17.805929     23.27286    21.985195    9110.5522    2647.7505    2099.1598    1623.7319   -34.946518    70.611642  -0.40106569   -4351.4686 
42152000    29.150282    -4690.985   -4641.0224    -4690.985            0    1895.2358     17.87824    23.304776    21.887643    9119.4509    2415.6006    1812.5847     1457.522   -45.634116   -131.09645    124.93014   -4388.9601 
42153000     30.68865   -4687.5525   -4634.9532   -4687.5525            0    2041.2424    17.874138    23.273784    21.889272    9105.9119    2130.0457    2114.6251    1879.0563    173.68946    150.43157   -123.37064   -4363.8754 
42154000    27.091079   -4684.9089   -4638.4758   -4684.9089            0    2060.6749    17.938563    23.186851    21.888911    9104.4471     2003.782    2409.2264    1769.0162   -422.52733   -49.865346    93.850288   -4364.8614 
42155000    29.872025   -4687.3766    -4636.177   -4687.3766            0    1894.4406    17.904731    23.315809     21.84305    9118.6715    1794.3076    1883.3331     2005.681    61.056471    120.09511    111.89584    -4384.242 
42156000    27.695772   -4690.2897   -4642.8201   -4690.2897            0    2123.5405    17.893322    23.342899    21.804748    9107.4505    1910.9675    2077.5203    2382.1336    170.13002    235.21827    12.007178   -4360.7654 
42157000     28.97324   -4687.2696   -4637.6104   -4687.2696            0    1982.1565    17.843835    23.222862    21.978214    9107.4408    2552.4923    1991.4055    1402.5716   -229.51378   -37.064851   -22.125887   -4374.3351 
42158000    29.273616    -4688.196   -4638.0221    -4688.196            0      2206.44    17.899024    23.263784    21.864638     9104.414    2244.5337    1930.9879    2443.7985   -260.90925    167.27538   -83.110902   -4345.0542 
42159000    30.438151   -4688.6287   -4636.4587   -4688.6287            0    2066.4919     17.83617    23.309761    21.920881    9113.7566    2040.4354    2109.4598    2049.5807    229.04731   -123.12146    79.313089   -4361.7914 
42160000    31.535067   -4687.0659   -4633.0159   -4687.0659            0    2303.9318    17.932298    23.234863    21.840623    9099.9941    2088.0912    2428.4551    2395.2491    319.80679    47.504424    80.415874   -4327.2517 
42161000      28.4816   -4689.5045   -4640.6881   -4689.5045            0    1714.8848     17.88579    23.295346    21.894801     9122.593    1494.2785    2198.5925    1451.7833   -45.155755   -33.750594    -165.6188   -4412.5335 
42162000    28.676975   -4687.1766   -4638.0253   -4687.1766            0    2316.1435    17.924827    23.228846    21.853147     9099.061    2241.2774    2202.2213    2504.9318   -176.81314   -19.467875    106.26535    -4330.672 
42163000    30.282584   -4688.6116   -4636.7083   -4688.6116            0    2046.0481    17.848637    23.211818    21.984592    9108.2013    2129.6326    1977.7097    2030.8019    187.83121    41.716105   -179.54049    -4364.924 
42164000    30.265849    -4690.063   -4638.1883    -4690.063            0    2043.8893    17.912287    23.315114    21.818546    9112.0147    1985.1917    2096.3707    2050.1054   -33.804878   -21.440517    70.226413   -4366.5771 
42165000    29.880344   -4688.3599    -4637.146   -4688.3599            0    2051.5487    17.855421    23.307045    21.884087    9107.2181    2622.8676    1754.7829    1776.9955   -606.52883    155.33506     76.60655   -4364.6605 
42166000    30.169577   -4687.3719   -4635.6623   -4687.3719            0    1872.2726    17.854884    23.361271    21.843797    9111.3268    1604.5634    1812.5277    2199.7267   -44.416759   -145.70933    -285.6257   -4386.8759 
42167000    28.429622   -4688.8066   -4640.0792   -4688.8066            0     1822.349    17.886013    23.312432    21.863438    9116.3203     1689.253    1539.2883    2238.5059   -333.09482    -119.0257    385.15816   -4397.7939 
42168000    31.805708   -4686.8545   -4632.3406   -4686.8545            0     2101.778    17.886234    23.312277    21.841452     9107.205    2328.0081    2055.5592    1921.7668   -28.037281   -115.12868    208.94813    -4353.184 
42169000    30.009957   -4683.6299   -4632.1939   -4683.6299            0    1811.6732    17.880256    23.267461    21.922243    9120.2699    1828.4118    1866.0932    1740.5144    -341.9209    165.38876    16.951899   -4391.2236 
42170000    29.405828   -4687.7977   -4637.3971   -4687.7977            0     2072.434    17.942822    23.254657    21.828469    9108.0195    1502.8893     2383.321    2331.0918   -14.362674    59.591324    54.485804   -4362.1134 
42171000    29.382221   -4686.5979   -4636.2377   -4686.5979            0     2059.446    17.899396    23.229643    21.904343    9107.7508    2244.8902    2101.9965    1831.4515    322.30339   -138.49443    75.750298   -4362.6873 
42172000    30.510597    -4689.504   -4637.2099    -4689.504            0    2066.9138    17.964742     23.13383    21.925194    9111.9637    2012.8281    2681.7829    1506.1303     83.09082    -279.1354    7.0710627   -4362.5405 
42173000    30.311035    -4689.904    -4637.952    -4689.904            0    1873.6147    17.901834    23.217915    21.920661    9111.1748    2174.2241    1741.0793    1705.5406    55.178647    251.74375    148.84691   -4388.9914 
42174000    29.794123   -4689.4892   -4638.4231   -4689.4892            0    1720.9796    17.963009    23.159597    21.928321    9122.5334    1244.8884    2050.6035     1867.447   -95.683355   -76.813122    184.17799   -4409.4591 
42175000    30.119287    -4685.227   -4633.6036    -4685.227            0    2293.9396    17.823788    23.244888    21.963558    9099.7646    2554.0537    2231.6881    2096.0769   -256.32222   -445.49244    105.30223   -4329.1732 
42176000    28.918651   -4687.2052   -4637.6396   -4687.2052            0    2052.9318    17.845219    23.338176     21.88476    9114.4525    1829.8215    2124.3344    2204.6396   -558.39643     84.21264    100.39759   -4364.7538 
42177000    31.523776   -4687.7687   -4633.7381   -4687.7687            0    1706.1986    17.874362    23.244946    21.978164    9131.6758    1429.5769    2195.4601    1493.5589   -107.29434     -105.331    643.24668   -4406.5131 
42178000    29.423686   -4683.7125   -4633.2813   -4683.7125            0    1748.8046    17.951613    23.202788    21.893848    9119.3889    1693.6898    1854.4308    1698.2934   -33.106387    44.565468    -24.67503   -4400.6956 
42179000    29.277729   -4687.0772   -4636.8962   -4687.0772            0     2188.998    17.899346    23.262391    21.857618    9101.1097    2220.4015    2117.6723    2228.9203    -296.7695   -164.67782    -221.7804   -4346.3497 
42180000    30.187966    -4689.398   -4637.6569    -4689.398            0    2169.9487    17.890004    23.351189    21.797736    9106.0667    2008.2406     1995.996    2505.6093    169.19274    142.74212    256.86015    -4349.482 
42181000    30.997542   -4689.0332   -4635.9045   -4689.0332            0    1853.1082    17.963882    23.264348    21.820411    9119.1428    1675.2976    1792.0293    2091.9977    235.09251     310.4449   -4.0436992   -4389.4534 
42182000    31.197807   -4685.6004   -4632.1285   -4685.6004            0    1969.3283    17.903529    23.213396    21.935131    9116.2778    1731.3938    2195.7271     1980.864   -368.20989    105.93082    74.856474   -4370.3032 
42183000     30.31371   -4690.8476    -4638.891   -4690.8476            0    1939.0335    17.933988    23.244705    21.860805    9113.1194    1980.2393     1768.316    2068.5452    247.07234    -297.7402   -43.726123   -4381.1828 
42184000    30.231889   -4690.2108   -4638.3944   -4690.2108            0    2258.9374    17.961336    23.194542    21.845421    9100.9105    1993.4575     2424.639    2358.7157   -38.595026    208.93143    85.518003   -4338.5714 
42185000    30.968696   -4686.7821   -4633.7028   -4686.7821            0    1838.2192    17.799038    23.366753    21.935052    9122.9139    2327.1511    1837.7096    1349.7968    80.072986    79.617719    -10.31491   -4389.1308 
42186000    31.502086   -4688.2049   -4634.2114   -4688.2049            0    1939.6781    17.852159    23.313099     21.90228    9115.4911    2205.2609    1931.0553     1682.718   -127.42428    115.04879    71.894185   -4376.3504 
42187000    29.562085   -4688.0965   -4637.4281   -4688.0965            0    2350.9491    17.885039    23.273406    21.850812    9095.3083    2440.5183    2083.5705    2528.7585    11.764949    27.166631     101.5046   -4325.5847 
42188000    31.598769   -4687.2379   -4633.0787   -4687.2379            0    2067.5825    17.944063    23.251142    21.829825    9107.8387     1500.039    2340.7798    2361.9288   -97.118656   -62.348395    52.276291   -4358.4448 
42189000     29.05859   -4688.6806   -4638.8752   -4688.6806            0    2073.4642    17.890263    23.229581    21.887946    9096.2647     1668.891    2257.3602    2294.1414    -209.0674   -229.08348     169.6833   -4363.8101 
42190000    31.673617   -4686.5657   -4632.2782   -4686.5657            0    2047.4667    17.866346    23.326017    21.839425    9101.5951     2290.618    1785.2079    2066.5741    399.44058   -142.05584    174.65771   -4360.5027 
42191000    31.210054   -4690.1618   -4636.6689   -4690.1618            0    1630.5442    17.888637    23.343639    21.855352    9126.4864    1465.1144    1356.4908    2070.0274     160.9745    -45.49302    82.025764   -4419.6427 
42192000     30.41842   -4685.8627   -4633.7265   -4685.8627            0    1869.5516    17.927654    23.190621     21.93356    9118.9529    1165.9861    2401.5634    2041.1053   -269.79363   -323.63052    99.206695   -4385.0938 
42193000    30.406589   -4686.0476   -4633.9317   -4686.0476            0    2610.1334    17.906898    23.228886    21.840786     9084.834    2965.5253     2562.508    2302.3667     217.0195   -46.493048    95.743976   -4288.1073 
42194000    31.156882   -4685.6968    -4632.295   -4685.6968            0    2807.7372    17.864893    23.214057    21.876723     9072.641    2684.8551    3070.7437    2667.6127   -308.29761    150.06407   -98.308926   -4260.7888 
42195000    29.382423   -4687.7987   -4637.4383   -4687.7987            0    1977.7598    17.930329    23.255632    21.853968    9112.6927    1831.1041    1824.8115    2277.3638   -316.69133   -63.674475    198.28033   -4374.5954 
42196000    30.138003   -4687.2665    -4635.611   -4687.2665            0    1866.9028    17.831473    23.335423    21.918451    9120.3763    2596.4741    1625.4178    1378.8165    121.94889   -17.962113    62.798468   -4387.2918 
42197000    30.076019   -4687.5507   -4636.0014   -4687.5507            0    2116.7352    17.874762    23.282412    21.893307    9111.2843    2488.4589     2112.402    1749.3447    39.497176   -11.982108   -201.39133   -4354.7323 
42198000    30.135231   -4686.9865   -4635.3358   -4686.9865            0    1939.9287    17.952552    23.230155    21.870619    9120.9351    1678.6816    2386.0589    1755.0457   -79.010639   -30.828877    41.961244   -4377.2875 
42199000    30.670879   -4686.4965   -4633.9277   -4686.4965            0    1822.3611    17.883729    23.348726    21.836104     9117.933    2104.2476    1415.4514    1947.3843   -390.61231    52.703281    117.00486   -4391.5979 
42200000    29.465353   -4687.8948   -4637.3922   -4687.8948            0     1969.247    17.903551    23.263681     21.87178     9109.651    1682.8205    2057.9381    2166.9824   -22.115643    10.783137    26.843922   -4375.7681 
42201000    29.418102   -4686.0348   -4635.6132   -4686.0348            0    1791.6444    17.894203    23.281793    21.903681     9125.274    1625.7522     1700.852     2048.329   -3.3493987   -113.54492   -52.989285   -4397.1762 
42202000    29.930256   -4686.6432   -4635.3437   -4686.6432            0    2082.8381    17.896792    23.277222    21.874315    9112.5684    2478.8001    2183.1552     1586.559    81.094302   -50.187612    317.33686   -4358.5398 
42203000    28.657572    -4687.905   -4638.7869    -4687.905            0    1875.2925    17.803975    23.276215    21.991594    9113.5179    2496.9906    1891.8706    1237.0163    233.43713   -116.95362    57.394419   -4389.5393 
42204000    28.881652   -4688.4709   -4638.9688   -4688.4709            0    1482.9948    17.875757    23.268731    21.974294    9140.1237    1980.2108    1417.4584    1051.3151    43.315241   -90.436975    178.11081   -4441.2866 
42205000    29.938973    -4689.902   -4638.5876    -4689.902            0    2047.9344    17.901334    23.256901    21.886801    9112.1217    1725.4731    2640.4259    1777.9043   -376.00929   -184.76594    669.09441   -4366.4356 
42206000      28.9196    -4689.184   -4639.6168    -4689.184            0    2075.0321    17.883034     23.29112    21.878312    9112.6648    2386.7423    1836.8748    2001.4793    -451.6545   -336.52423   -179.81896   -4363.8474 
42207000    30.262008   -4689.4397   -4637.5716   -4689.4397            0    1821.4702    17.945093    23.246083    21.873946    9124.7848    1943.7616    1950.8021    1569.8468   -391.29895   -116.00512    20.391653   -4395.1784 
42208000    30.207501    -4686.003   -4634.2283    -4686.003            0    1941.7206    17.901218     23.19174    21.965604    9119.2491      1930.91    2037.2803    1856.9716   -164.52483     -144.498     274.5683   -4375.9894 
42209000    29.232648   -4685.7355   -4635.6318   -4685.7355            0    2446.8337    17.937103    23.161256    21.883894    9091.5723    2138.6874    2769.8436    2431.9702   -110.54096   -168.58748   -9.6115034    -4311.203 
42210000    30.439957   -4685.1929   -4633.0199   -4685.1929            0    2147.1119     17.85007    23.336549    21.863493    9107.4355    2264.8582    2039.9288    2136.5487   -270.80783    25.692521    302.08355   -4347.8349 
42211000    30.152355   -4690.1863   -4638.5062   -4690.1863            0    1923.2124    17.911285    23.320276    21.826942    9117.0286     1924.472    2197.5579    1647.6073   -347.42664   -264.57791    23.314493    -4382.791 
42212000    29.788677   -4686.9514   -4635.8946   -4686.9514            0    1666.9543    17.829496    23.237632    22.023855    9124.8197    2005.8422     2192.859    802.16187    387.14427   -236.65196   -91.277726   -4414.0627 
42213000      30.8268   -4686.4365   -4633.6004   -4686.4365            0    2112.3417     17.95195    23.260246    21.812658    9108.2415    2079.1911    1869.6508    2388.1831   -442.32493    -209.7235   -6.4904575   -4353.0089 
42214000     30.44585   -4690.3579   -4638.1748   -4690.3579            0    2143.0724    17.878015    23.309017    21.843015    9102.3983    2062.5111    2537.5956    1829.1104   -188.51868    134.78739    251.90306   -4353.6838 
42215000    28.676547   -4692.2808   -4643.1302   -4692.2808            0    1579.5528     17.81992    23.368521    21.930917    9132.5859     2306.784     1760.036    671.83847   -274.13856    1.2870082   -186.18677   -4432.7505 
42216000    29.214518   -4687.0124   -4636.9397   -4687.0124            0    2355.3116    17.838697    23.286351    21.891274    9093.5945    2857.2034    2585.2606    1623.4708   -466.72394   -145.23516    72.654825   -4324.5765 
42217000    29.504083   -4690.2564   -4639.6874   -4690.2564            0    2185.5971     17.86884    23.299841    21.849503    9096.8468    2156.9678    2284.4941    2115.3293   -198.64413    229.69504      25.4891   -4349.7282 
42218000    30.752674   -4688.8405   -4636.1314   -4688.8405            0    1877.0376    17.897411    23.312683    21.859766    9120.6957    2125.8723    1501.9759    2003.2646   -355.05087   -154.93022    77.780561   -4386.4554 
42219000    29.480575   -4686.3826   -4635.8539   -4686.3826            0    1832.9855    17.937031     23.26666    21.869134    9126.7506    1825.8796    1862.7259    1810.3509     18.05996   -163.58799   -47.147292   -4391.8757 
42220000    29.792799   -4690.6984   -4639.6346   -4690.6984            0    1855.9477    17.961493    23.196485    21.900237    9124.5911    1564.9514    1842.2769    2160.6148   -105.26053    1.1737891    54.223342   -4392.6584 
42221000    29.119183    -4686.629   -4636.7197    -4686.629            0    2078.6078    17.893389    23.255953    21.888638     9108.471     2004.577     1817.663    2413.5835   -173.48714   -32.366845    134.13714   -4360.6022 
42222000    29.785854   -4689.7953   -4638.7434   -4689.7953            0    2034.3879     17.89872    23.267841    21.896246     9119.011    2215.2347    2109.7942    1778.1348    157.30304     16.07827    140.97853   -4368.1872 
42223000    29.697849   -4687.2945   -4636.3934   -4687.2945            0    2065.1252    17.883206    23.251184    21.914352    9112.1125    1874.5216    2575.4154    1745.4386    93.380293   -194.51276   -19.567853   -4361.9573 
42224000    29.450768   -4686.3447   -4635.8671   -4686.3447            0    2327.5299    17.942761    23.194723     21.85091    9093.8541    2469.3364    2132.8669    2380.3863    186.84599    151.11117     272.1392   -4327.1795 
42225000    29.956667   -4689.8709   -4638.5262   -4689.8709            0    1760.1047    17.935026    23.267309    21.869739    9126.2374    1795.8113    2148.4547    1336.0481    76.428444    -98.02565    172.81036   -4404.2619 
42226000    30.055329   -4687.5267   -4636.0129   -4687.5267            0    2018.4725     17.90217    23.347887    21.781654    9104.2484    2610.2678    1769.5556     1675.594   -89.257984    78.665284    270.44987   -4368.0079 
42227000    32.051078   -4685.1772   -4630.2427   -4685.1772            0    2012.3486    17.893788    23.305855    21.864701    9118.2366    2303.9452    1818.6925     1914.408   -87.903657   -146.69818    230.51513   -4362.6404 
42228000     30.77762   -4686.6165   -4633.8647   -4686.6165            0    1950.0976    17.897417     23.24124    21.904537     9111.371    1921.1552    2061.3908    1867.7468     -88.8019   -116.07969    62.063961   -4374.7358 
42229000    30.040076   -4685.7627   -4634.2751   -4685.7627            0    2122.6091    17.961841    23.159164     21.88413    9103.3868    2740.5371    2058.8995    1568.3907    147.55149     52.31042    164.56316   -4352.4699 
42230000    30.097582   -4685.0147   -4633.4284   -4685.0147            0    2216.0352     17.86165    23.295074    21.878311    9103.3126    2192.9238    2502.7292    1952.4527   -339.32097     66.45214   -104.29767   -4339.2221 
42231000    31.447422   -4688.2979   -4634.3981   -4688.2979            0    1615.3601    17.891799    23.272241    21.936888    9134.1312    1884.8875    1864.1959    1096.9968    51.313825   -95.468957    218.36336   -4419.2129 
42232000    30.697894   -4688.7583   -4636.1432   -4688.7583            0    1948.4161    17.905273    23.364873    21.793268    9117.3101    1983.8981    1762.1482    2099.2021    77.478377    29.315569    145.84767   -4377.0689 
42233000    28.398173   -4686.4636   -4637.7901   -4686.4636            0     2098.627    17.868596    23.239099    21.926062    9104.7987    2414.6931    2195.3686    1685.8194    277.26665    288.13037    212.60098   -4359.1257 
42234000    31.587706   -4688.1772    -4634.037   -4688.1772            0    2177.8519    17.929473    23.232112    21.849883    9101.3398    2010.7061    2142.0237    2380.8258   -117.28798   -177.26267   -29.486911   -4344.9626 
42235000    28.535242   -4686.9787   -4638.0703   -4686.9787            0     2035.068    17.879167    23.233492    21.923346    9106.8591    2041.9758    1924.0081    2139.2202    -75.07059   -142.06656   -201.32335   -4367.7844 
42236000    29.390014   -4687.9938   -4637.6203   -4687.9938            0    2073.8219    17.916758    23.212697    21.888379    9103.2952     2085.641    1914.5768    2221.2479   -252.91757   -51.295977   -56.656979   -4362.2951 
42237000    29.616087   -4687.6822   -4636.9213   -4687.6822            0    2310.5026     17.81244    23.281849    21.934299    9096.2968     2370.357    2431.0368    2130.1139    106.57595   -138.64397    149.53712   -4330.4096 
42238000    30.144857   -4686.0528   -4634.3856   -4686.0528            0    1808.9878    17.880188    23.289189     21.88488    9113.1943    1592.8744    1575.9277    2258.1613   -332.02158    103.46279    173.98879   -4393.9592 
42239000    30.707646   -4687.7103   -4635.0784   -4687.7103            0    2157.0096    17.895529    23.269278    21.849487     9098.477     1981.241    1531.2154    2958.5725    159.02007   -123.63702    265.34117   -4348.8606 
42240000    30.726972   -4688.4848   -4635.8198   -4688.4848            0    2165.8355    17.900145    23.244008    21.863592    9096.8087    1381.1647     2501.859    2614.4829   -352.86953    45.656325    168.66357   -4348.4836 
42241000    29.613097   -4690.2786   -4639.5228   -4690.2786            0    2052.1139    17.893651    23.266148    21.886305    9111.6263    2242.9412    1536.5954     2376.805    45.001413   -33.234092    32.483347   -4366.8302 
42242000    30.534274   -4688.3123   -4635.9776   -4688.3123            0    1963.1467     17.87376    23.283199    21.875903     9103.839    1608.5384    1628.7294    2652.1725   -5.1294068   -80.257653   -86.246318   -4375.3303 
42243000    30.799774   -4686.5646   -4633.7748   -4686.5646            0    1932.7469    17.839761    23.235517    22.001376    9119.9241    1795.3339    1896.9543    2105.9525   -182.08738    110.07428   -156.13293   -4376.7103 
42244000     30.88597   -4687.0663   -4634.1288   -4687.0663            0    1987.9244     17.87336     23.27725    21.875621    9101.1915    2116.3387    1529.3976     2318.037    -272.1419   -97.801522   -198.15127   -4370.2685 
42245000    30.673149   -4686.2557    -4633.683   -4686.2557            0    2146.2102    17.934541    23.227207    21.875887    9112.8227    1894.0181    1973.6607    2570.9517    15.195415   -316.13158    95.881493   -4348.4491 
42246000    30.600435    -4688.914   -4636.4659    -4688.914            0    1780.0603    17.953088    23.240283    21.843469    9113.8563    1686.5635    1450.0008    2203.6167    -326.0363    141.03351     35.71656   -4399.8669 
42247000    30.126595   -4687.7213   -4636.0853   -4687.7213            0    2121.7476    17.899597     23.25445    21.883904    9109.0719    1928.3219    2355.3376    2081.5834   -229.94075    117.17422    302.59642   -4354.2187 
42248000    31.554067   -4687.3397   -4633.2572   -4687.3397            0    2323.4509    17.907643    23.278528    21.840282    9104.4178    2182.8419    2236.5663    2550.9444   -357.33364      134.867    2.7075471   -4324.7526 
42249000    28.319878   -4688.0961   -4639.5568   -4688.0961            0    1921.8569    17.847715    23.276127    21.940777    9114.7627    2155.9132     1864.838    1744.8195   -36.844342   -312.57955    308.53285   -4384.0854 
42250000    32.047591   -4686.7399   -4631.8114   -4686.7399            0    1942.6086    17.872956    23.322419     21.87048    9116.5035    1474.7059    2192.4746    2160.6452   -472.16679    159.41983    23.741139   -4373.5322 
Loop time of 382.473 on 64 procs for 250000 steps with 864 atoms

Performance: 112.949 ns/day, 0.212 hours/ns, 653.642 timesteps/s
388.1% CPU use with 16 MPI tasks x 4 OpenMP threads

MPI task timing breakdown:
Section |  min time  |  avg time  |  max time  |%varavg| %total
---------------------------------------------------------------
Pair    | 24.458     | 26.47      | 28.545     |  24.4 |  6.92
Bond    | 1.5104     | 1.7078     | 1.8355     |   7.7 |  0.45
Kspace  | 205.37     | 212.16     | 219.83     |  27.5 | 55.47
Neigh   | 0.062587   | 0.072002   | 0.087244   |   2.8 |  0.02
Comm    | 48.235     | 58.553     | 64.117     |  59.8 | 15.31
Output  | 0.51001    | 0.51027    | 0.51174    |   0.1 |  0.13
Modify  | 60.807     | 67.694     | 74.199     |  52.3 | 17.70
Other   |            | 15.31      |            |       |  4.00

Nlocal:        54.0000 ave          61 max          48 min
Histogram: 3 4 1 0 0 1 1 2 0 4
Nghost:        2586.25 ave        2602 max        2574 min
Histogram: 1 4 2 2 1 2 0 0 2 2
Neighs:        13339.6 ave       15454 max       11937 min
Histogram: 6 2 0 0 1 0 3 2 1 1

Total # of neighbors = 213434
Ave neighs/atom = 247.03009
Ave special neighs/atom = 2.0000000
Neighbor list builds = 250
Dangerous builds = 0

unfix		3
unfix		2
unfix		1

write_data	data.final.${pid} nocoeff
write_data	data.final.1 nocoeff
System init for write_data ...
PPPM initialization ...
  extracting TIP4P info from pair style
  using 12-bit tables for long-range coulomb (../kspace.cpp:340)
  G vector (1/distance) = 0.37216383
  grid = 24 27 25
  stencil order = 5
  estimated absolute RMS force accuracy = 0.0031076495
  estimated relative force accuracy = 9.3585943e-06
  using double precision FFTW3
  3d grid and FFT values/proc = 6300 1296
Last active /omp style is kspace_style pppm/tip4p/omp

write_restart   restart.lmp.${pid}
write_restart   restart.lmp.1
System init for write_restart ...
PPPM initialization ...
  extracting TIP4P info from pair style
  using 12-bit tables for long-range coulomb (../kspace.cpp:340)
  G vector (1/distance) = 0.37216383
  grid = 24 27 25
  stencil order = 5
  estimated absolute RMS force accuracy = 0.0031076495
  estimated relative force accuracy = 9.3585943e-06
  using double precision FFTW3
  3d grid and FFT values/proc = 6300 1296
Last active /omp style is kspace_style pppm/tip4p/omp
Total wall time: 0:06:22
