LAMMPS (30 Jul 2021)
  using 1 OpenMP thread(s) per MPI task
package omp 0
using multi-threaded neighbor list subroutines
echo both

include		in.partitions
variable        pid world 0
include		in.temp
variable        temperature equal 250.88
variable	tempDamp equal 100.0
include		in.pressure
variable        pressure equal 5500.0
variable        pressureDamp equal 1000.0 # This is 1 ps
include		in.seed
variable        seed world 745823

units		real
atom_style	full
read_restart	restart.lmp.${pid}
read_restart	restart.lmp.0
Reading restart file ...
  restart file = 30 Jul 2021, LAMMPS = 30 Jul 2021
  restoring atom style full from restart
  orthogonal box = (0.48853969 1.6669665 0.59601728) to (17.719033 21.962211 21.617179)
  4 by 4 by 4 MPI processor grid
  restoring pair style lj/cut/tip4p/long/omp from restart
  restoring bond style harmonic/omp from restart
  restoring angle style harmonic/omp from restart
  864 atoms
  576 bonds
  288 angles
Finding 1-2 1-3 1-4 neighbors ...
  special bond factors lj:    0        0        0       
  special bond factors coul:  0        0        0       
     2 = max # of 1-2 neighbors
     1 = max # of 1-3 neighbors
     1 = max # of 1-4 neighbors
     2 = max # of special neighbors
  special bonds CPU = 1.344 seconds
  read_restart CPU = 1.647 seconds
include 	in.setup
variable	out_freq equal 1000
variable	out_freq2 equal 10000
variable	out_freq3 equal 1000

timestep	2.0

neigh_modify    delay 7 every 1

include		in.tip4p
# This is TIP4P/Ice

# create groups ###
group ox type 2
288 atoms in group ox
group hy type 1
576 atoms in group hy

# set charges - beside manually ###
set group ox charge -1.1794
Setting atom values ...
  288 settings made for charge
set group hy charge 0.5897
Setting atom values ...
  576 settings made for charge

# ### TIP3P Potential Parameters ###
pair_style lj/cut/tip4p/long/omp 2 1 1 1 0.1577 8.5
pair_coeff 1 1*2 0.000 0.000
pair_coeff 2 2 0.21084 3.1668
bond_style  harmonic
bond_coeff  1 450 0.9572
angle_style harmonic
angle_coeff 1 55 104.52
kspace_style pppm/tip4p/omp 1.0e-5
pair_modify tail yes

thermo          ${out_freq}
thermo          1000
thermo_style    custom step temp pe etotal epair emol press lx ly lz vol pxx pyy pzz pxy pxz pyz enthalpy

restart 	${out_freq3} restart.lmp.${pid} restart2.lmp.${pid}
restart 	1000 restart.lmp.${pid} restart2.lmp.${pid}
restart 	1000 restart.lmp.0 restart2.lmp.${pid}
restart 	1000 restart.lmp.0 restart2.lmp.0


include         in.dump
dump            myDump all atom ${out_freq2} dump.water.${pid}
dump            myDump all atom 10000 dump.water.${pid}
dump            myDump all atom 10000 dump.water.0
dump            myDump2 all dcd ${out_freq2} dump.dcd
dump            myDump2 all dcd 10000 dump.dcd
dump_modify     myDump append yes
dump_modify     myDump2 append yes


variable natoms 	equal  "count(all)"                        # NUMBER ATOMS
variable H      	equal  "enthalpy/v_natoms"                 # ENTHALPY-per-atom
variable Vol      	equal  "vol/v_natoms"                 # volume-per-atom
fix AVG all 		ave/time ${out_freq} 1 ${out_freq} v_Vol v_H file vol_enthalpy.dat
fix AVG all 		ave/time 1000 1 ${out_freq} v_Vol v_H file vol_enthalpy.dat
fix AVG all 		ave/time 1000 1 1000 v_Vol v_H file vol_enthalpy.dat


timer           timeout 23:50:00 every 1000
New timer settings: style=normal  mode=nosync  timeout=23:50:00

fix 		1 all shake 1e-6 200 0 b 1 a 1
       0 = # of size 2 clusters
       0 = # of size 3 clusters
       0 = # of size 4 clusters
     288 = # of frozen angles
  find clusters CPU = 0.001 seconds
fix             2 all nph iso ${pressure} ${pressure} ${pressureDamp}
fix             2 all nph iso 5500 ${pressure} ${pressureDamp}
fix             2 all nph iso 5500 5500 ${pressureDamp}
fix             2 all nph iso 5500 5500 1000
fix             3 all temp/csvr ${temperature} ${temperature} ${tempDamp} ${seed}
fix             3 all temp/csvr 250.88 ${temperature} ${tempDamp} ${seed}
fix             3 all temp/csvr 250.88 250.88 ${tempDamp} ${seed}
fix             3 all temp/csvr 250.88 250.88 100 ${seed}
fix             3 all temp/csvr 250.88 250.88 100 745823

run             250000
PPPM initialization ...
  extracting TIP4P info from pair style
  using 12-bit tables for long-range coulomb (../kspace.cpp:340)
  G vector (1/distance) = 0.37459052
  grid = 24 24 25
  stencil order = 5
  estimated absolute RMS force accuracy = 0.003035604
  estimated relative force accuracy = 9.1416313e-06
  using double precision FFTW3
  3d grid and FFT values/proc = 2730 288
Last active /omp style is kspace_style pppm/tip4p/omp
Neighbor list info ...
  update every 1 steps, delay 7 steps, check yes
  max neighbors/atom: 2000, page size: 100000
  master list distance cutoff = 10.8154
  ghost atom cutoff = 10.8154
  binsize = 5.4077, bins = 4 4 4
  1 neighbor lists, perpetual/occasional/extra = 1 0 0
  (1) pair lj/cut/tip4p/long/omp, perpetual
      attributes: half, newton on, omp
      pair build: half/bin/newton/omp
      stencil: half/bin/3d
      bin: standard
Per MPI rank memory allocation (min/avg/max) = 9.239 | 9.244 | 9.249 Mbytes
Step Temp PotEng TotEng E_pair E_mol Press Lx Ly Lz Volume Pxx Pyy Pzz Pxy Pxz Pyz Enthalpy 
 6250000    267.94275   -3903.6867    -3444.442   -3903.6867            0    6880.7793    17.230493    20.295245    21.021161    7351.0386    5734.0502    6278.7297     8629.558    820.47447   -757.55529    649.74107   -2706.7718 
 6251000    263.02554   -3930.0123   -3479.1956   -3930.0123            0    5386.2357    17.223869    20.287443     21.01308    7342.5642    5481.9701    4941.7477    5734.9894   -738.16751   -484.07631   -472.91399   -2902.4171 
 6252000    253.55764   -3912.3898   -3477.8007   -3912.3898            0    5888.6004    17.251586     20.32009    21.046895    7378.0686    6125.5909    5778.1482    5762.0622   -1385.8789    409.33555   -76.550489   -2844.1781 
 6253000      243.061   -3898.0251   -3481.4269   -3898.0251            0    4006.4817    17.229996     20.29466    21.020555    7350.4031    4397.0968    3396.0454    4226.3029    596.53046     554.6547    281.82261   -3051.9397 
 6254000    236.18697   -3931.9101   -3527.0937   -3931.9101            0     4818.803     17.18562    20.242391    20.966416    7293.7558     5406.606    3665.5214    5384.2816   -344.04904    341.99684   -592.90087   -3014.5082 
 6255000    250.78085   -3919.9308    -3490.101   -3919.9308            0    5191.2305    17.286216    20.360879    21.089143     7422.589    5299.3159    3958.2204    6316.1553   -449.68573    685.76159    1857.3217   -2928.1459 
 6256000    248.24838   -3907.4964   -3482.0071   -3907.4964            0     4488.067    17.258038     20.32769    21.054766    7386.3499    4892.3078    3434.6021    5137.2911   -662.50048    297.38235    141.12482   -2998.5421 
 6257000    246.18273   -3925.3018    -3503.353   -3925.3018            0    7416.5132    17.200136    20.259488    20.984126    7312.2535     8129.708    6551.2273    7568.6041     1483.948   -30.461553    443.02834   -2712.4433 
 6258000    261.51088   -3935.8463   -3487.6256   -3935.8463            0    5604.9319    17.264308    20.335074    21.062415    7394.4029    6121.3621    4440.7696     6252.664    541.05591    1233.2017    1792.7444    -2883.191 
 6259000    263.17293   -3931.3912   -3480.3218   -3931.3912            0    5706.8452    17.239543    20.305905    21.032203    7362.6281     5560.441    5745.3286    5814.7659   -494.48538    1147.7668   -676.86479   -2867.5415 
 6260000    243.79065   -3915.2875   -3497.4386   -3915.2875            0    5499.0033    17.231842    20.296834    21.022807    7352.7655    5986.3257    5304.2768    5206.4073   -793.04392    867.12511    674.82995   -2907.7665 
 6261000    278.95135   -3977.4494   -3499.3363   -3977.4494            0    5023.3532    17.211749    20.273167    20.998294    7327.0747     4400.399    4579.6631    6089.9973   -90.194934    361.51683    121.99017   -2962.5515 
 6262000    255.36276   -3898.8758   -3461.1927   -3898.8758            0    6911.2973    17.171192    20.225397    20.948815    7275.4014    8407.0674    4948.9686    7377.8559   -705.07333    36.180815    38.540579   -2727.8746 
 6263000    250.80894   -3899.4055   -3469.5275   -3899.4055            0     6197.463    17.219123    20.281852     21.00729    7336.4959    5789.3305      7099.82    5703.2387    276.32259   -776.74312   -1806.6756   -2806.4283 
 6264000    240.67281   -3922.5301   -3510.0251   -3922.5301            0    5863.4199    17.202595    20.262385    20.987126    7315.3901     5579.581     6350.151    5660.5277     646.1832    187.79159   -502.11869   -2884.4717 
 6265000    260.07068   -3964.5351   -3518.7829   -3964.5351            0    5653.3474    17.235593    20.301251    21.027383    7357.5674    4352.1165    6288.2204    6319.7055   -253.62924   -465.55526   -93.050719   -2912.1642 
 6266000    258.54827   -3941.4872   -3498.3443   -3941.4872            0    5936.6427    17.212632    20.274207     20.99937    7328.2018     6421.522     3557.306    7831.1001   -377.59814    313.21934    1326.1853   -2863.8698 
 6267000    254.50112   -3920.3182    -3484.112   -3920.3182            0     3754.393    17.289922    20.365244    21.093664    7427.3631    3782.4336    4033.6279    3447.1174    106.04842    208.79936   -897.47079   -3077.4344 
 6268000    234.99617    -3931.449   -3528.6736    -3931.449            0    4842.1043    17.278376    20.351644    21.079578    7412.4936    6607.8544    4377.9191    3540.5394    561.06196    64.300041   -1779.2928   -3005.2247 
 6269000     245.7515   -3913.8764   -3492.6667   -3913.8764            0    3897.3738    17.307717    20.386204    21.115374    7450.3203    4562.4192    3659.7515    3469.9506   -1725.6776   -1547.7983   -161.48034   -3069.1965 
 6270000    240.56776   -3930.0951   -3517.7702   -3930.0951            0    6847.5716    17.231055    20.295906    21.021847    7351.7576    7843.3315    5924.5072    6774.8762   -1099.2029    712.11886    471.10313   -2783.5883 
 6271000    255.07355   -3952.8834   -3515.6961   -3952.8834            0     6274.201    17.269378    20.341046    21.068601    7400.9195    5678.5876    5770.2522    7373.7631   -157.82193    1451.4508   -164.22026   -2838.4914 
 6272000    256.61732   -3921.1549   -3481.3216   -3921.1549            0    4823.1573     17.24621    20.313758    21.040336    7371.1732    5632.9694    4668.6017    4167.9007    1092.0861   -1774.6635    344.66418   -2962.8274 
 6273000    240.03996   -3934.4603     -3523.04   -3934.4603            0    5114.4727    17.264137    20.334873    21.062207    7394.1835    5909.1335    4627.8521    4806.4326   -194.15087    696.87544   -792.20935   -2971.5127 
 6274000    263.77779     -3905.87   -3453.7639     -3905.87            0    4814.5292    17.275028    20.347701    21.075493    7408.1852    4478.4458    4592.1222    5373.0196    372.75269     112.4951    1009.2651   -2933.5984 
 6275000    260.58558   -3935.7001   -3489.0654   -3935.7001            0    5635.7756    17.220865    20.283905    21.009415     7338.723     6518.734    4870.6048    5517.9881   -1191.5145   -545.22074    855.54512    -2885.881 
 6276000     263.3651   -3920.8391   -3469.4404   -3920.8391            0    4828.5211    17.322711    20.403865    21.133667    7469.7001    3991.2289    4379.8306    6114.5039   -1364.8787    1251.9687   -476.18228   -2943.4313 
 6277000     269.5948   -3929.4112   -3467.3349   -3929.4112            0    7130.9966    17.166551     20.21993    20.943152    7269.5034    6103.6457     7297.685    7991.6592     1540.488    619.63187    778.30005   -2711.3191 
 6278000    242.26238   -3928.8035   -3513.5741   -3928.8035            0    4585.7839    17.247481    20.315254    21.041886    7372.8022     4335.813    2681.7599    6739.7789   -2381.3322   -18.698509    448.57475   -3020.4888 
 6279000       238.84    -3942.028   -3532.6644    -3942.028            0    3023.0324    17.299658    20.376712    21.105543    7439.9181    3857.5339    1513.2054    3698.3578   -971.28646   -678.44206   -1618.9922   -3204.6546 
 6280000    262.03273    -3913.138   -3464.0229    -3913.138            0    5976.7806    17.192183    20.250121    20.974423    7302.1152    6883.1379    5554.1304    5493.0736    -1080.312    1807.6661   -353.41017   -2827.5324 
 6281000    252.60402   -3879.1778   -3446.2232   -3879.1778            0    5034.1871    17.229754    20.294374    21.020259    7350.0925    6536.7201     4331.408    4234.4332   -1898.4987   -1385.9632   -446.31518   -2906.5908 
 6282000    243.04115   -3870.3435   -3453.7793   -3870.3435            0     5616.186    17.197913     20.25687    20.981414    7309.4189    4323.5811    6812.6883    5712.2887    102.75514   -1132.0144     738.0327   -2855.0918 
 6283000    249.39465   -3912.2544   -3484.8005   -3912.2544            0    4563.5282     17.22759    20.291826     21.01762    7347.3238    4367.5998    5738.9733    3584.0115    633.23277   -2860.7004   -134.64631    -2995.804 
 6284000    242.23519   -3926.5303   -3511.3475   -3926.5303            0    4082.8925    17.226536    20.290584    21.016333    7345.9749    3546.6782    4232.1244    4469.8748     233.0657    1112.9266    255.63335   -3073.9329 
 6285000    243.18239   -3953.2294   -3536.4231   -3953.2294            0    4435.0033    17.173718    20.228371    20.951896    7278.6118    6245.6416    3653.7549    3405.6133    11.381688   -2213.1636    1222.4993   -3065.6427 
 6286000    249.75959     -3932.72   -3504.6407     -3932.72            0    6711.0655    17.169717    20.223659    20.947015    7273.5266    5337.1245    7851.6429    6944.4291    974.72274   -773.79541   -1310.0864   -2792.7515 
 6287000    251.98084   -3938.0098   -3506.1233   -3938.0098            0    4860.2404    17.200447    20.259854    20.984505    7312.6497    6522.7701    2798.1075    5259.8437    338.41989   -324.54835    584.73379   -2987.7908 
 6288000    257.14948   -3939.9302   -3499.1848   -3939.9302            0    4743.1892    17.240207    20.306686    21.033012     7363.478    5134.8972    3491.6339    5603.0366   -1491.5116      -589.41    2095.8153   -2989.8195 
 6289000    245.89923   -3901.1752   -3479.7123   -3901.1752            0    4918.5668    17.201097     20.26062    20.985298    7313.4785    5497.4035    5036.1999    4222.0969    1088.2699   -1486.3262    -789.5988      -2955.1 
 6290000    254.12883   -3939.4648   -3503.8966   -3939.4648            0     4695.729     17.27672    20.349694    21.077558    7410.3623    3777.3927    5092.9991    5216.7952    57.999333   -138.80222    1358.2281   -2996.4173 
 6291000    244.59452   -3888.6514   -3469.4248   -3888.6514            0    7101.3748    17.172112     20.22648    20.949937    7276.5704    7614.6209    7030.9537    6658.5498   -165.46498    89.159516   -67.570286   -2715.8175 
 6292000    251.11823   -3915.1998   -3484.7918   -3915.1998            0    7120.5045    17.139374    20.187918    20.909996    7235.0317     8595.582    6818.6123    5947.3192   -468.06285   -978.64302    -80.63448    -2733.468 
 6293000    259.33127   -3894.5613   -3450.0764   -3894.5613            0     6263.981    17.196107    20.254743     20.97921    7307.1161    6303.0063    5128.4952    7360.4414   -1592.4284   -465.50745    1288.2157    -2782.544 
 6294000    259.95821   -3909.1394   -3463.5799   -3909.1394            0    4817.4048    17.222041     20.28529     21.01085    7340.2268    6070.9174    3368.5878    5012.7092   -715.77806    1049.3068     2286.626   -2947.8782 
 6295000     250.0414   -3955.6247   -3527.0623   -3955.6247            0    3904.1129    17.289552    20.364808    21.093213    7426.8866    3656.4281    2469.3944    5586.5161    257.71243    766.76549    680.55376   -3104.1941 
 6296000    248.47324   -3898.9292   -3473.0545   -3898.9292            0    4491.6854    17.343926    20.428854     21.15955    7497.1785    3531.5566    4721.2719    5222.2277    1107.6091      -182.22    241.77909   -2981.9397 
 6297000    253.81857   -3931.0007   -3495.9644   -3931.0007            0    6236.7641    17.217724    20.280205    21.005584    7334.7083    5522.2371    7153.9833     6034.072   -866.98121   -106.69892    1557.5779   -2828.8227 
 6298000     249.9357   -3869.8264   -3441.4452   -3869.8264            0    7402.2104     17.15481    20.206101    20.928829     7254.598    5786.4621    8235.9537    8184.2155   -1088.7703    302.15168   -1211.7983   -2658.2849 
 6299000    243.97305   -3878.1194   -3459.9579   -3878.1194            0    6344.3493    17.240421    20.306939    21.033274     7363.753    7788.1054    6777.0932    4467.8492   -360.33188    144.99183   -58.424295   -2778.6206 
 6300000    252.70383   -3909.4948    -3476.369   -3909.4948            0    4484.8235    17.323408    20.404686    21.134517    7470.6014    5095.1291    3528.3818    4830.9595   -322.06426   -405.73556    1375.7693   -2987.7428 
 6301000      262.092   -3888.7195   -3439.5028   -3888.7195            0    5745.6809    17.240517    20.307052    21.033391    7363.8762    6910.4469    4309.4945    6017.1015   -1877.5062    1232.5954   -360.29283   -2822.4478 
 6302000    252.95395   -3906.8992   -3473.3448   -3906.8992            0    5714.3226    17.232808    20.297971    21.023985    7354.0018    5824.5252    6003.4411    5315.0016   -1180.3221    1385.5918    1210.1396   -2860.4804 
 6303000    248.31504   -3902.6175    -3477.014   -3902.6175            0    6913.5441    17.200003    20.259331    20.983963    7312.0832    5903.8178    5593.5685    9243.2459   -805.29653   -783.14092    657.17639    -2739.759 
 6304000    252.60163   -3890.8125    -3457.862   -3890.8125            0    6132.0211    17.211807    20.273235    20.998364    7327.1483    6461.4124     5538.226    6396.4248   -174.67098   -2129.0627    680.34441   -2802.6007 
 6305000    254.51464   -3894.4396   -3458.2103   -3894.4396            0    6368.3443    17.205247    20.265509    20.990362    7318.7742    5451.1092    5454.2679    8199.6559   -14.610751   -682.85159    118.12639   -2778.4735 
 6306000    259.94118   -3859.1667   -3413.6364   -3859.1667            0    3647.5408    17.251482    20.319967    21.046768    7377.9351     4480.332    3079.4975    3382.7929   -303.18294    1547.6665    654.81297   -3021.1624 
 6307000    254.50569   -3911.9657   -3475.7516   -3911.9657            0    5320.9476    17.196793    20.255551    20.980048     7307.991      5954.56    5624.3958    4383.8871   -845.13532    552.24586   -787.32502   -2908.6474 
 6308000    251.10105   -3891.8867   -3461.5081   -3891.8867            0     3381.433    17.271231    20.343229    21.070862    7403.3025    1863.2801    4011.3492    4269.6696    2188.0662   -266.92391    24.838031   -3096.4163 
 6309000    242.47683   -3901.3986   -3485.8016   -3901.3986            0    2817.1141    17.297433    20.374091    21.102827     7437.047    2669.8926    3568.8626    2212.5872    705.05704   -34.327874    215.41528   -3180.2527 
 6310000      252.019   -3959.0453   -3527.0934   -3959.0453            0    6061.6866    17.246921    20.314594    21.041203    7372.0841    5545.3133    7364.9787    5274.7678   -478.91066    800.04124   -795.23077   -2875.3755 
 6311000    246.45043   -3907.6906    -3485.283   -3907.6906            0     5353.221    17.225062    20.288848    21.014536    7344.0901    5467.6203    5518.1963    5073.8463    799.09947   -103.33098    785.39076   -2911.9208 
 6312000    254.45069   -3895.4114   -3459.2916   -3895.4114            0    5177.3518    17.218872    20.281556    21.006983    7336.1747      5731.07    5795.5358    4005.4495    -2216.299    12.033115   -228.65101   -2905.3638 
 6313000    268.28347   -3909.4712   -3449.6425   -3909.4712            0    5385.8162    17.270577    20.342458    21.070063    7402.4607    5288.9896    6901.5556    3966.9035   -432.65007    2486.4803   -142.00768   -2868.2044 
 6314000      246.194   -3886.9435   -3464.9755   -3886.9435            0    7760.5602    17.134172    20.181792     20.90365    7228.4465    7361.7033     7130.299    8789.6784   -174.61116   -75.225727   -12.797072   -2646.8613 
 6315000    248.59176   -3923.8285   -3497.7507   -3923.8285            0    5553.3129    17.133406    20.180889    20.902715    7227.4766    6030.0521    6673.5515    3956.3352   -357.58832    129.64741    496.12524   -2912.4019 
 6316000    267.00736   -3895.7125   -3438.0711   -3895.7125            0    5743.3599    17.162715    20.215411    20.938472    7264.6306    4971.4818     6498.554    5760.0438    1024.5306    240.94122    403.24783   -2829.5782 
 6317000    237.86314   -3912.7147   -3505.0254   -3912.7147            0    5380.0825      17.1495    20.199846     20.92235    7247.8633    5529.8918    5195.4349    5414.9207   -580.00655    364.46524    -588.8585   -2936.3364 
 6318000    250.16137   -3906.9537   -3478.1856   -3906.9537            0    2969.1861    17.265376    20.336332    21.063718    7395.7753    2431.7965    2965.6574    3510.1044    829.10065   -95.929099   -2015.6765   -3157.9298 
 6319000    253.60989   -3948.0997    -3513.421   -3948.0997            0    5192.0202    17.253697    20.322576     21.04947    7380.7773    6977.4088    3309.6979     5288.954    148.36232   -581.57782   -1240.6776   -2954.5464 
 6320000     246.1935   -3879.6164   -3457.6492   -3879.6164            0     4432.902    17.254833    20.323914    21.050856    7382.2349    4449.2818    4934.6081    3914.8161   -121.95244    1387.1995   -1271.8612   -2980.3927 
 6321000    237.48333   -3899.0955   -3492.0572   -3899.0955            0    4074.2706     17.29721    20.373829    21.102556    7436.7599    2504.1562    5813.4485    3905.2072    108.88262   -264.38489    339.31792   -3050.1719 
 6322000    259.73545    -3873.606   -3428.4283    -3873.606            0    5752.3272    17.275741    20.348541    21.076364    7409.1031    3837.8025    7348.4545    6070.7245   -390.92096   -1115.1947    1041.0074   -2806.8654 
 6323000    248.36593   -3939.3729   -3513.6822   -3939.3729            0    6847.9186    17.194959    20.253391     20.97781    7305.6529    5809.4633    8834.3983    5899.8943   -171.65524    425.42264   -312.64729   -2784.0676 
 6324000    252.64271   -3901.1905   -3468.1695   -3901.1905            0     6574.104    17.163419    20.216241    20.939331    7265.5254    6592.0469    6930.7609    6199.5043    597.00775   -439.91821    -354.3147   -2771.5759 
 6325000    253.01044   -3887.3604   -3453.7092   -3887.3604            0    4156.0993    17.237302    20.303265    21.029468    7359.7568    3298.6477    5618.4144    3551.2357   -378.63483    1645.9828   -106.93302   -3007.6163 
 6326000    243.15029   -3873.3269   -3456.5756   -3873.3269            0    3654.5456    17.247232    20.314961    21.041583    7372.4832    3165.4663     5142.385    2655.7857    708.07632    501.86791   -542.79323   -3063.6384 
 6327000    249.46258   -3901.1994   -3473.6291   -3901.1994            0    5264.8523    17.120306    20.165458    20.886733    7210.9108    4492.1498    6142.2579     5160.149    77.510198   -222.07527    691.25782   -2919.9576 
 6328000    267.27624   -3883.7164   -3425.6141   -3883.7164            0    5174.3978    17.195053    20.253501    20.977924    7305.7721    5045.1805    5280.4803    5197.5325   -1794.2376     723.2795   -237.78613   -2874.2966 
 6329000    246.85305   -3890.5361   -3467.4384   -3890.5361            0    4760.6059    17.245763    20.313231    21.039791    7370.5998    4468.6881    4447.1471    5365.9825    1415.1087   -1054.3618    156.58182   -2955.7084 
 6330000    258.37912   -3861.5524   -3418.6994   -3861.5524            0    3894.5259    17.272125    20.344281    21.071952    7404.4513    3660.4388    5208.7341    2814.4048   -740.43252   -483.00269   -828.90141   -2998.1438 
 6331000    258.34805   -3899.6162   -3456.8164   -3899.6162            0    4170.6632    17.196681    20.255418     20.97991    7307.8474    4632.6233    3462.9433    4416.4229   -653.17729   -158.24077    34.406495   -3012.3178 
 6332000    251.35999   -3939.9032   -3509.0808   -3939.9032            0    4825.5277    17.214443    20.276341    21.001581     7330.516    3148.2782    6673.9036    4654.4014   -938.53752   -983.57083    542.10458    -2993.193 
 6333000    229.41037   -3902.4025    -3509.201   -3902.4025            0    5920.3929    17.205928     20.26631    20.991191    7319.6423    8563.4231    4281.4537     4916.302   -601.02106    951.54453    322.50006   -2877.2021 
 6334000    258.86254    -3900.748   -3457.0665    -3900.748            0    3122.2523    17.286402    20.361098     21.08937    7422.8286    1246.7463    4419.2454    3700.7652    172.46065    145.76749    125.61353   -3119.0691 
 6335000    259.73972   -3935.9306   -3490.7456   -3935.9306            0    5059.2455    17.190292    20.247893    20.972116    7299.7052    6951.7982     4250.346    3975.5924    523.64408   -863.16052    770.46723   -2952.1449 
 6336000     249.2367   -3934.6453   -3507.4621   -3934.6453            0    5226.6117    17.177389    20.232695    20.956374      7283.28    6370.3885    4883.6918    4425.7546   -619.24627   -945.99303   -135.67392   -2952.2958 
 6337000     242.5677    -3929.166   -3513.4132    -3929.166            0    5069.0461      17.2071    20.267691    20.992622    7321.1392    5395.2784    5176.6636    4635.1963    194.95787   -84.637725    2240.9287   -2972.1846 
 6338000    263.81704   -3905.3517   -3453.1784   -3905.3517            0    4508.2241    17.212322    20.273841    20.998992    7327.8056    4617.1796    3833.9833    5073.5093    594.05532   -299.49091   -71.992782   -2971.3911 
 6339000    234.98243   -3932.8193   -3530.0674   -3932.8193            0    5995.6022    17.193854    20.252089    20.976462    7304.2444     6529.875    5629.2972    5827.6344   -498.78426   -521.42936   -423.76295   -2891.3864 
 6340000    271.93711   -3942.1147   -3476.0238   -3942.1147            0    4779.8474    17.261419    20.331672    21.058891    7390.6921    5252.5114    3398.1729    5688.8579    102.80085   -177.14129   -1066.5921   -2960.8248 
 6341000    233.32359   -3906.9012   -3506.9926   -3906.9012            0    6827.3577    17.211517    20.272894    20.998011    7326.7782    6703.1024    7415.4498    6363.5208    85.599476    -387.2258   -301.51176   -2777.4652 
 6342000    254.28999   -3901.0373   -3465.1929   -3901.0373            0    5941.6557    17.117583    20.162252    20.883412    7207.4715    7179.7497    5952.6441    4692.5734    813.98707    651.02161   -1647.0245   -2840.6442 
 6343000    233.76595   -3918.3861   -3517.7193   -3918.3861            0    2826.6554    17.360171    20.447988    21.179368    7518.2638     3748.437    1556.2796    3175.2496    267.25645    291.85077    -243.0996   -3207.7874 
 6344000    252.14063    -3927.202   -3495.0416    -3927.202            0    3849.2171    17.260276    20.330325    21.057497    7389.2235    2727.0161    5241.0767    3579.5586    3.3815195   -529.39139    707.94225   -3080.2336 
 6345000    246.64568   -3922.5503    -3499.808   -3922.5503            0    5291.4231    17.189761    20.247268    20.971469    7299.0296    4576.7755    5189.2744    6108.2194   -214.33727    -1558.135   -914.96762   -2936.5421 
 6346000    250.66645   -3886.8785   -3457.2448   -3886.8785            0    5577.8545    17.210851     20.27211    20.997199    7325.9282    6310.9803    5066.8642     5355.719   -742.23476     430.7326    -1672.406   -2861.3004 
 6347000    251.45419   -3904.1905   -3473.2066   -3904.1905            0    5032.2281    17.197436    20.256308    20.980832    7308.8109    5900.8229     6678.813    2517.0484     2204.356     718.6014    70.741874   -2936.8138 
 6348000      245.082   -3934.3582    -3514.296   -3934.3582            0    3605.1697    17.196955    20.255741    20.980245    7308.1968     3765.461    4066.3502    2983.6977    -991.9096    1790.8625     90.51352   -3130.0479 
 6349000     255.9709    -3924.007   -3485.2817    -3924.007            0    4455.7778    17.197084    20.255894    20.980403    7308.3618    2446.0326     4638.492    6282.8089    1161.2354   -1252.8394    369.03566   -3010.3628 
 6350000    242.59077   -3918.4586   -3502.6663   -3918.4586            0    5685.0412    17.197007    20.255803    20.980308    7308.2635    4154.4987    7326.7791    5573.8458    2201.7076    1015.8786   -95.558463   -2896.7345 
 6351000    243.92048   -3930.4531   -3512.3817   -3930.4531            0     3894.907    17.176165    20.231253    20.954881    7281.7232    4236.8288    2954.2292     4493.663   -788.48576   -487.82799    575.36766   -3098.7564 
 6352000    249.43973    -3898.896   -3471.3648    -3898.896            0    6756.8375     17.16882    20.222602     20.94592    7272.3858    7464.7831    6756.1196    6049.6099   -586.07753   -396.75494   -92.713735   -2754.7327 
 6353000    255.95304   -3903.8397   -3465.1449   -3903.8397            0    4572.0275    17.231975    20.296991    21.022969    7352.9358    3350.2955    5283.4448    5082.3423    1088.8288   -1588.7021   -504.71273   -2974.8634 
 6354000    255.07504   -3925.2802   -3488.0903   -3925.2802            0    3792.9301    17.259642    20.329579    21.056723    7388.4094     4529.372      3366.05    3483.3682   -476.69566    -996.3189    1329.6774   -3079.3931 
 6355000    264.78947   -3902.5185   -3448.6784   -3902.5185            0    6161.7132     17.19339    20.251542    20.975896    7303.6531    6186.8695    7507.2197    4791.0505   -837.93321    -610.0439   -1651.2283   -2792.3556 
 6356000    237.60608   -3922.2419   -3514.9932   -3922.2419            0    5331.4116    17.223622    20.287152    21.012779    7342.2479      4482.82    3802.5302    7708.8845    1166.5418   -526.19418    343.05801   -2944.1102 
 6357000    246.99796   -3918.0938   -3494.7478   -3918.0938            0    5964.8356    17.202445    20.262208    20.986943     7315.199    7404.0393    4977.1961    5513.2713    141.33335   -416.89906   -350.12819   -2858.3912 
 6358000    250.22583   -3917.8658   -3488.9872   -3917.8658            0    4803.1817    17.261114    20.331312    21.058519    7390.2998    5275.0535     4468.312    4666.1797    644.61083   -1459.3565   -1615.0226   -2971.3006 
 6359000    251.48145   -3912.5955   -3481.5649   -3912.5955            0    6040.6478    17.200386    20.259783    20.984431    7312.5726    7244.2786    6192.9388    4684.7259     418.7052   -61.789827   -147.87004   -2837.3517 
 6360000    239.89306   -3880.9056   -3469.7371   -3880.9056            0    4567.4901    17.240199    20.306677    21.033002    7363.4677     4711.899    5008.6055    3981.9657   -291.11809   -918.10049   -482.74246   -2979.2406 
 6361000    264.03262   -3904.7836   -3452.2407   -3904.7836            0     4934.304    17.163617    20.216473    20.939572    7265.7759    3178.7833    5937.4745    5686.6543    161.30614    -160.4412    933.91587   -2929.3827 
 6362000    249.26989   -3918.1931   -3490.9531   -3918.1931            0    5051.9074    17.220334    20.283279    21.008768    7338.0442     4159.096    4962.0492    6034.5771    1634.4461   -317.82064   -909.69721   -2950.3088 
 6363000    252.51272   -3929.4266   -3496.6284   -3929.4266            0    4682.0239      17.1806    20.236477    20.960291    7287.3654    5224.5966       4450.4    4371.0751    377.58461    1558.2653    234.89198   -2999.0288 
 6364000    276.32439   -3924.7675    -3451.157   -3924.7675            0    4868.0569    17.210567    20.271775    20.996852    7325.5651    5209.6826    3275.3657    6119.1224    2035.2119    1708.5133   -120.54279    -2931.074 
 6365000    266.44716   -3914.9906   -3458.3093   -3914.9906            0    5068.6573    17.170952    20.225113    20.948521    7275.0953     4886.768    3488.2996    6830.9043    795.89345    8.5719169   -672.17201   -2920.5257 
 6366000    236.98053   -3899.6247   -3493.4481   -3899.6247            0    5419.4379    17.193436    20.251596    20.975952    7303.7115    5067.3019    3522.2324    7668.7794   -569.21682     747.1233   -440.41046   -2916.1851 
 6367000    257.35663   -3967.1202   -3526.0198   -3967.1202            0    4926.7105    17.185315    20.242031    20.966044    7293.3667    4071.6153    4445.1322    6263.3838   -1050.8718   -1228.0689    298.30045    -3001.984 
 6368000    247.82859   -3950.3838   -3525.6141   -3950.3838            0    6729.9952    17.181408    20.237429    20.961277    7288.3936    6678.6557    6576.4696    6934.8603    1188.5477    -861.1278   -611.23352   -2810.2577 
 6369000    263.87151   -3924.2982   -3472.0315   -3924.2982            0    7489.4268    17.132053    20.179296    20.901065     7225.765    8339.4496    6706.2705    7422.5602     1090.464    148.08493    682.54414   -2682.7929 
 6370000    251.69788   -3925.9476    -3494.546   -3925.9476            0     5145.461    17.228451     20.29284     21.01867    7348.4257    5284.9877    6066.5111    4084.8843   -686.21229    1360.6865   -2584.8516   -2943.1108 
 6371000    244.41194   -3912.4922   -3493.5785   -3912.4922            0     6925.764    17.173484    20.228095     20.95161    7278.3142     7482.632    7850.9929    5443.6672   -303.33168    -8.766319    554.06847   -2758.4312 
 6372000    260.36043    -3886.187   -3439.9381    -3886.187            0    4724.1062    17.145337    20.194942    20.917271    7242.5859    4807.9224       3990.5    5373.8963    981.63304   -35.177609    474.40275   -2940.9512 
 6373000    230.13715   -3901.1785   -3506.7313   -3901.1785            0    5758.0665    17.206627    20.267133    20.992044    7320.5344    7247.7749    4342.6876     5683.737    1235.8751    965.75439   -121.92984   -2891.9858 
 6374000    258.50763    -3903.156   -3460.0827    -3903.156            0    4815.9104    17.176157    20.231245    20.954872    7281.7142    5627.4373    4550.9024    4269.3916   -529.00918   -509.00649   -357.56552   -2948.6507 
 6375000    254.71404   -3884.2461   -3447.6749   -3884.2461            0    5982.7888    17.201871    20.261532    20.986242    7314.4664    5935.3336    8116.5006    3896.5321    1115.0155    1803.8054    161.44163    -2809.467 
 6376000    250.62094   -3898.5222   -3468.9665   -3898.5222            0    4010.8543     17.16823    20.221907      20.9452    7271.6358    3498.8315    4963.6597    3570.0718    570.58994    1134.1923   -442.66165    -3043.618 
 6377000    253.07872   -3899.5214   -3465.7532   -3899.5214            0    5304.7638    17.189972    20.247516    20.971726     7299.298    7128.4699    3028.0253     5757.796   -161.11186    -308.7105   -329.56348   -2901.0464 
 6378000    258.50749   -3921.8665   -3478.7935   -3921.8665            0    4819.6136    17.197992    20.256963     20.98151    7309.5197    5658.8027    5455.0068    3345.0311   -143.77625   -57.166195   -198.39269   -2965.0138 
 6379000    264.05372   -3914.3883   -3461.8092   -3914.3883            0    6223.0952     17.26479    20.335643    21.063004     7395.023    6064.0852    6407.5604    6197.6401   -38.630028    -178.9128   -417.45349   -2790.6557 
 6380000    251.91456   -3942.8812   -3511.1082   -3942.8812            0    4707.3138    17.226033    20.289992     21.01572    7345.3318    3618.5989    5988.4791    4514.8635    697.23038   -336.48229   -54.501539   -3006.8413 
 6381000    237.37387   -3925.1361   -3518.2854   -3925.1361            0     6450.091    17.217657    20.280126    21.005502    7334.6226    5706.9718    6961.2154    6682.0859   -355.84594   -438.18105   -200.95362   -2828.3324 
 6382000    259.82473   -3908.5375   -3463.2068   -3908.5375            0    5611.5237    17.261149    20.331354    21.058562     7390.345    4208.7921    5535.6833    7090.0957    548.43333    -17.14252   -657.15804   -2858.3934 
 6383000    244.86385   -3909.4388   -3489.7506   -3909.4388            0    4702.8104    17.213636    20.275389    21.000596    7329.4845    4451.5284    3933.0788    5723.8241   -670.64563   -518.90539   -1449.1467    -2987.053 
 6384000    242.85996   -3939.7575   -3523.5039   -3939.7575            0    4898.9336    17.247931    20.315785    21.042436    7373.3802    5225.9053    4735.2567    4735.6387    992.12441    367.52701    313.88499   -2996.7059 
 6385000    243.41506     -3944.58   -3527.3749     -3944.58            0    3225.5637    17.270679    20.342578    21.070187    7402.5916    2050.2939    5063.2957    2563.1015    164.51871    251.58254   -934.52085   -3179.1456 
 6386000    266.44655   -3911.0993    -3454.419   -3911.0993            0    6348.8159    17.166481    20.219847    20.943067    7269.4143    4978.1433    6463.1773    7605.1271   -464.02782   -501.56988   -638.82406   -2781.3369 
 6387000    243.00527   -3911.7624   -3495.2596   -3911.7624            0    4950.5609    17.162123    20.214714     20.93775    7263.8794    4973.1663    4689.6462    5188.8702   -539.62251   -445.33037     536.5884   -2970.8159 
 6388000    259.26086   -3921.2804   -3476.9161   -3921.2804            0    5426.6315    17.166526      20.2199    20.943122    7269.4717     5114.176     5302.154    5863.5643    635.58702    374.44388    948.10191   -2901.5967 
 6389000     230.1129   -3952.0314   -3557.6258   -3952.0314            0    5908.6418    17.214859     20.27683    21.002088    7331.0472    6452.2478    6843.8677      4429.81    617.25868    236.71162    156.12275   -2925.8986 
 6390000    252.85999   -3922.0438   -3488.6504   -3922.0438            0    4799.2553    17.268098    20.339538    21.067039    7399.2736    2546.3021    5479.9355    6371.5282    -1127.776   -561.91753    236.46593   -2970.7589 
 6391000    250.95994   -3940.6923   -3510.5555   -3940.6923            0    3127.9805    17.279535     20.35301    21.080993     7413.986    2000.7362    4280.6532     3102.552   -476.35143   -60.989714    991.52872   -3172.3415 
 6392000    250.77105   -3916.4901   -3486.6771   -3916.4901            0    6611.1504    17.162162     20.21476    20.937797    7263.9285    7100.4142     6486.976    6246.0611    764.59299    952.89869    675.69818    -2786.312 
 6393000    246.71256   -3911.3632   -3488.5063   -3911.3632            0    5500.9288    17.236011    20.301744    21.027893    7358.1027    5795.5969    5440.5868    5266.6029     -335.142    395.72982    -212.7049   -2898.1996 
 6394000     253.3409   -3918.9163   -3484.6987   -3918.9163            0    5308.7349     17.18081    20.236725    20.960548    7287.6331    4564.8449    5258.5641    6102.7957   -1180.0149   -217.41637   -675.71673   -2920.4723 
 6395000    251.30554   -3883.4538   -3452.7247   -3883.4538            0     6517.157    17.251032    20.319437    21.046218    7377.3572    6970.0097    7413.0194    5168.4418   -1320.0201   -167.37145   -1375.2679   -2751.5361 
 6396000    250.19607      -3933.7   -3504.8725      -3933.7            0    6801.1919    17.188152    20.245372    20.969505    7296.9792    8719.7052     6904.185    4779.6856     1207.681   -1559.9138    1928.0542   -2781.0968 
 6397000    236.00856   -3903.3887   -3498.8781   -3903.3887            0    7149.1008    17.173012     20.22754    20.951035    7277.7145    6816.7678    6983.0458    7647.4888    698.99305    121.03933   -1727.5567   -2740.0868 
 6398000    241.85785   -3913.3413   -3498.8052   -3913.3413            0    6667.1073    17.199741    20.259023    20.983644    7311.7493    6728.2421    7837.4398    5435.6401    522.99239   -327.39853    243.16159   -2787.8625 
 6399000    264.93588   -3875.7152   -3421.6242   -3875.7152            0     9237.128    17.137219    20.185381    20.907367    7232.3036    8075.4625    11056.656    8579.2659   -1430.1681    2703.3544   -267.61921   -2447.3314 
 6400000    250.31564   -3902.8935   -3473.8611   -3902.8935            0    6352.9324    17.187603    20.244726    20.968836    7296.2809    7547.4045    6089.8963    5421.4963    621.80349   -514.70428   -254.07942   -2797.8533 
 6401000    255.68309   -3876.5222   -3438.2901   -3876.5222            0    5094.0265     17.21197    20.273427    20.998563    7327.3564    4123.8806    5581.5058    5576.6929    495.81978   -1569.0615   -1299.2605   -2893.9324 
 6402000    244.49905   -3921.2617   -3502.1987   -3921.2617            0    5755.2269    17.175292    20.230226    20.953817     7280.614     5727.778    6562.9055    4974.9972   -558.63136   -423.38019    1024.6682   -2891.1071 
 6403000    239.56877   -3878.6944   -3468.0817   -3878.6944            0    5555.4763    17.185448    20.242187    20.966206    7293.5361    5007.4252    6892.7348    4766.2687   -474.59649    803.62141   -48.018763   -2877.1527 
 6404000    241.64663   -3907.7279   -3493.5539   -3907.7279            0     5093.676    17.165054    20.218167    20.941326    7267.6021    4943.8796    6832.7354    3504.4131    227.63376    1286.2981    671.35643   -2953.6725 
 6405000    253.76819   -3906.5124   -3471.5624   -3906.5124            0    5995.7909    17.170844    20.224986    20.948389    7274.9578    5355.2615    7039.7321    5592.3792   -442.44679   -423.56276     511.8151   -2835.4222 
 6406000     240.7186   -3945.0804   -3532.4969   -3945.0804            0    3987.4089    17.250071    20.318305    21.045047     7376.125    3945.6299    3839.6352    4176.9616    735.09191     -1073.46   -82.531643   -3103.5585 
 6407000    250.95181   -3943.5334   -3513.4106   -3943.5334            0    5749.7498    17.238624    20.304822     21.03108    7361.4497    6098.7594    6306.3607    4844.1293    498.38122   -438.23846   -975.25944   -2896.1221 
 6408000    256.82291   -3950.1091   -3509.9234   -3950.1091            0     4417.218    17.192255    20.250205    20.974511    7302.2066    5703.5777    3075.5025     4472.574    111.12228    524.42312    -832.9942   -3039.5109 
 6409000    245.27267   -3900.3422   -3479.9532   -3900.3422            0    5331.8767    17.180001    20.235772    20.959561    7286.6034    7014.5676    5390.5931    3590.4693    1529.3204    513.09717    378.48286   -2913.3473 
 6410000     254.2769   -3879.0969    -3443.275   -3879.0969            0    6254.6716    17.164675     20.21772    20.940864    7267.1204    5797.4723    7212.2548    5754.2877    586.43484    970.10981    430.56828    -2780.383 
 6411000     234.3823   -3917.6955   -3515.9722   -3917.6955            0    5167.4953    17.238699    20.304911    21.031173    7361.5466    5731.6749    5649.5731    4121.2378    115.47687   -54.768962   -1945.2252   -2961.1868 
 6412000    243.97435   -3905.5874   -3487.4237   -3905.5874            0    3335.4758    17.266385    20.337521     21.06495    7397.0724    3729.1454    3651.5451     2625.737   -1402.9724    1420.3038   -562.95141   -3127.5969 
 6413000    247.68184   -3897.7906   -3473.2724   -3897.7906            0    6868.5317    17.199809    20.259103    20.983727    7311.8362    6006.7392    8262.4614    6336.3946   -459.70292    1228.7323   -2562.2763   -2740.8422 
 6414000    253.66936   -3903.5109   -3468.7303   -3903.5109            0    5345.0482    17.132257    20.179536    20.901314    7226.0232    6077.4585    4031.3936    5926.2925      2462.61    23.360375    157.02486   -2905.4471 
 6415000    246.21946   -3878.0196   -3456.0079   -3878.0196            0    5685.7193    17.169865    20.223833    20.947195    7273.7139    4502.3746    6663.9095    5890.8737    553.22001   -395.93811    413.38827   -2852.8688 
 6416000    246.43114   -3859.7756   -3437.4011   -3859.7756            0    5450.3557    17.171052    20.225231    20.948644    7275.2231    7215.1883    3972.5103    5163.3684   -1547.8009   -1031.0618    211.13578   -2859.1093 
 6417000    247.25072   -3922.5087   -3498.7294   -3922.5087            0    4750.0625    17.159917    20.212116    20.935059    7261.0789    4588.7438    4904.9333    4756.5103    1408.9222    815.11912    403.52162   -2995.7197 
 6418000    258.76594   -3890.1186   -3446.6027   -3890.1186            0    5530.3055    17.211061    20.272357    20.997455    7326.1962    5312.9197    5345.4615    5932.5354    86.368342    -910.1149    856.11366   -2855.7169 
 6419000    246.45755   -3862.5652   -3440.1454   -3862.5652            0    4966.6111    17.166964    20.220416    20.943656    7270.0277    6675.9885    3913.5106    4310.3342    405.88456    642.61772    1105.2432    -2913.556 
 6420000    258.57619   -3898.1174   -3454.9267   -3898.1174            0    8105.4814    17.051497    20.084411    20.802786    7124.3151    7107.1307    8153.2383    9056.0752   -1359.5203     1882.996    65.160085   -2612.7605 
 6421000    256.73731   -3925.8464   -3485.8074   -3925.8464            0    6286.5858    17.077536    20.115082    20.834554    7157.0036    5503.0494    6833.4718    6523.2361    191.71514    28.618346    -2504.863   -2829.6289 
 6422000    247.09279   -3925.0883   -3501.5798   -3925.0883            0    4808.7378    17.149067    20.199336    20.921822    7247.3146    6908.6619    2511.1825    5006.3691     1193.986   -60.981687   -563.03722   -2993.3219 
 6423000    240.66791   -3921.1405    -3508.644   -3921.1405            0    4313.5551    17.211834    20.273267    20.998397    7327.1829    4280.3364    3625.4895    5034.8395   -420.51645    1490.0533    1770.6382   -3047.6998 
 6424000    241.76952   -3927.7987    -3513.414   -3927.7987            0     4290.425    17.146573    20.196398    20.918779    7244.1523    1827.3357    5965.6144    5078.3248    1077.3422   -352.23742    548.88355   -3060.1369 
 6425000    259.21602   -3915.0024    -3470.715   -3915.0024            0    7084.0304    17.130078    20.176969    20.898655    7223.2659    6690.8246    7571.1128    6990.1538   -212.28851   -553.33549   -99.317993   -2724.4554 
 6426000     251.6352   -3960.2729   -3528.9788   -3960.2729            0    7829.9359    17.066305    20.101853    20.820852    7142.8921    8700.8415    7427.5438    7361.4223   -602.62503    458.38104   -979.05078   -2713.3207 
 6427000    246.29113   -3889.4606    -3467.326   -3889.4606            0    5970.4181    17.155514     20.20693    20.929687    7255.4911     6780.173    5519.8852    5611.1962   -613.12274   -237.85579   -844.37217   -2835.5728 
 6428000    245.03734   -3901.4494   -3481.4638   -3901.4494            0    4651.4389    17.242816    20.309759    21.036195    7366.8215    3848.2925    3226.0983    6879.9258     488.0435    762.92437    671.47776   -2981.7246 
 6429000    250.78244   -3937.7926     -3507.96   -3937.7926            0    4929.4688    17.229911    20.294559    21.020451    7350.2931    5632.8165    5786.1792    3369.4107   -747.64797   -1024.1885   -862.65515   -2979.5383 
 6430000    253.52038   -3942.4962    -3507.971   -3942.4962            0    4792.0923    17.223642    20.287175    21.012803    7342.2733    5313.6513    4556.7767    4505.8489    617.95747   -646.45327    -1114.672    -2994.836 
 6431000     251.9231   -3917.3121   -3485.5245   -3917.3121            0    6438.2828    17.172081    20.226443    20.949898    7276.5303    7151.8459    6101.0164     6061.986    887.30176    239.95913   -580.70365   -2802.2892 
 6432000    256.10688   -3908.2922   -3469.3338   -3908.2922            0    5820.1487    17.226181    20.290166      21.0159    7345.5208    6001.3651    5412.3574    6046.7236    2054.9946   -545.16035   -209.53587   -2845.8394 
 6433000    246.62293   -3921.8092   -3499.1059   -3921.8092            0    5585.7949    17.208208    20.268996    20.993974    7322.5532    4697.8504    4988.8653    7070.6689   -435.14223    1075.7637   -1100.1606   -2902.5881 
 6434000    235.82088   -3936.2799    -3532.091   -3936.2799            0    5206.8675    17.199033    20.258189     20.98278    7310.8463    6455.5578    5414.8257     3750.219   -945.74189   -215.64524   -499.61938   -2976.9286 
 6435000    248.55658   -3912.7202   -3486.7028   -3912.7202            0    5176.2746     17.22733    20.291519    21.017302     7346.991    6679.8149    4123.2299    4725.7789    1006.3353    644.18366   -308.84351   -2932.0736 
 6436000    251.32154   -3897.3745    -3466.618   -3897.3745            0    6284.4748    17.204963    20.265174    20.990015    7318.4113    4901.2279    6260.9302    7691.2663   -383.14683    585.36661   -1355.7267   -2795.8664 
 6437000    253.49852   -3934.5995   -3500.1117   -3934.5995            0    5008.6133    17.158742    20.210731    20.933625    7259.5866     4937.366    5239.0687    4849.4052   -265.54107        151.5   -743.21979   -2969.8316 
 6438000    246.85311    -3885.259   -3462.1612    -3885.259            0     4943.074    17.176156    20.231243     20.95487    7281.7123    1622.6802    4736.1479     8470.394    205.15111    638.36287   -70.385594    -2937.225 
 6439000    247.10348   -3922.6455   -3499.1186   -3922.6455            0    4719.7896    17.243503    20.310569    21.037033    7367.7025    3922.4449    4099.6675    6137.2564     381.8961   -212.27086    1139.1536   -2991.9754 
 6440000    268.76781   -3899.3559   -3438.6971   -3899.3559            0    6423.8365    17.155138    20.206487    20.929229    7255.0141    8302.5452    5224.1218    5744.8425   -974.50684    1541.0465   -771.96176   -2759.0106 
 6441000    252.37375   -3883.1235   -3450.5635   -3883.1235            0    5723.5968    17.144935    20.194469    20.916781    7242.0767    6006.7025    5736.9497    5427.1382    222.74193    850.24205   -306.94394   -2846.0472 
 6442000    248.00704   -3893.6102   -3468.5346   -3893.6102            0    5397.6278    17.198483    20.257541    20.982109    7310.1449    6314.0785    4133.9016    5744.9034   -154.10255   -974.21845   -405.44685   -2893.0883 
 6443000    256.02855    -3910.514   -3471.6899    -3910.514            0    5060.5096    17.182026    20.238157    20.962032    7289.1806    4802.9389     5905.413    4473.1769   -804.34515   -536.26272    118.66558   -2933.7313 
 6444000    263.71691   -3908.4257   -3456.4239   -3908.4257            0    6035.1519    17.205668    20.266005    20.990875    7319.3117    6451.8305     7159.685    4493.9402   -734.58747   -25.961538   -699.82546   -2812.2037 
 6445000     254.5098   -3901.8303   -3465.6092   -3901.8303            0    7086.3169    17.174724    20.229556    20.953123    7279.8914    6624.8779    7843.2481    6790.8247    848.36114   -58.735169    590.63301   -2713.2567 
 6446000    245.70664   -3913.0289   -3491.8961   -3913.0289            0    5212.3531    17.240577    20.307122    21.033463    7363.9522     5860.893    3493.0216    6283.1448   -510.80547   -641.75217    1233.2574   -2932.1119 
 6447000    246.34013   -3909.2856   -3487.0671   -3909.2856            0    5826.8945    17.200277    20.259655    20.984298    7312.4337    5661.9326    7358.8307    4459.9203   -1460.6226   -370.67263   -524.23993   -2865.6617 
 6448000    254.94033   -3927.5884   -3490.6294   -3927.5884            0    4107.6183    17.310224    20.389158    21.118433    7453.5588    4668.7693    3451.8286     4202.257   -644.01485    609.53539   -305.07071   -3044.1209 
 6449000    263.36065   -3906.9768   -3455.5857   -3906.9768            0    5502.3184    17.165543    20.218742    20.941922    7268.2221    6841.9851    5842.2604    3822.7099    780.19434    816.76426    559.23902   -2872.3423 
 6450000    260.43311   -3957.4509   -3511.0775   -3957.4509            0    6225.5509    17.194369    20.252696     20.97709    7304.9007    6879.5952    6530.1719    5266.8855    565.67914    345.79292   -322.70687   -2847.8416 
 6451000    250.12478   -3923.5504   -3494.8451   -3923.5504            0    5122.8621    17.252159    20.320765    21.047594    7378.8037    7224.4805    4497.4431    3646.6628    462.29776    1279.3191   -228.78509   -2943.5622 
 6452000    248.20716   -3900.0308   -3474.6122   -3900.0308            0    5752.7335    17.186071    20.242921    20.966966    7294.3296    6473.4479    7566.6248    3218.1278   -1920.0123   -935.95886    290.71257   -2862.6346 
 6453000    239.15124   -3932.2794   -3522.3824   -3932.2794            0    7926.2483    17.237942    20.304019    21.030249    7360.5766    7514.7292    7607.9307    8656.0852   -477.07147   -335.04183   -960.43423   -2671.5277 
 6454000    238.73679   -3924.0137    -3514.827   -3924.0137            0    4270.6234    17.274103    20.346612    21.074365    7406.9961    4623.7406    5083.4597    3104.6699   -1449.4253    265.05746    336.40722   -3053.4995 
 6455000    236.90836   -3915.3518   -3509.2989   -3915.3518            0    4558.3729    17.275956    20.348794    21.076625    7409.3792    5630.0815    4556.5865    3488.4508   -401.04254   -136.01468   -1615.8645   -3016.7294 
 6456000    245.95164   -3935.6496   -3514.0969   -3935.6496            0    5171.7129    17.178903    20.234479    20.958222    7285.2067    4873.1162    3955.8184    6686.2041   -285.76948   -184.24741    128.96339   -2964.6165 
 6457000    237.94417   -3893.7485   -3485.9203   -3893.7485            0    6153.8546    17.232985     20.29818    21.024201    7354.2283    5802.7886    5731.0013    6927.7738    674.49415   -587.72583   -410.26302   -2825.8956 
 6458000     246.2076   -3879.9371   -3457.9457   -3879.9371            0    4983.8971     17.17667    20.231848    20.955497    7282.3656    3444.1846    5013.9375    6493.5692    1059.7676   -611.50253    833.14859   -2928.6268 
 6459000    239.91973   -3898.2158   -3487.0016   -3898.2158            0      4858.41    17.159779    20.211953     20.93489    7260.9036    5090.0807    3837.3497    5647.7997   -1146.1965    -344.8114    826.38154   -2972.5308 
 6460000    263.73147   -3898.1865   -3446.1598   -3898.1865            0    5304.9174    17.109825    20.153114    20.873947     7197.676    6412.4256    4423.4995     5078.827    1111.3342    652.88093    285.43524   -2889.2988 
 6461000    256.89472   -3924.8134   -3484.5047   -3924.8134            0    4998.8387    17.166818    20.220244    20.943478    7269.8427    4113.2662    5542.5652    5340.6847   -556.49415    403.79201   -309.21845   -2954.5118 
 6462000    252.89585    -3895.159   -3461.7041    -3895.159            0    4731.2238    17.205194    20.265446    20.990297    7318.7064    5856.9796     4269.844    4066.8476    1224.9291     2321.168   -104.39756   -2956.7131 
 6463000    254.70832    -3891.115   -3454.5536    -3891.115            0    6548.2503    17.189178    20.246581    20.970757     7298.287    5752.7218    7735.8521    6156.1771    822.13877   -1358.3453   -517.56045   -2757.5708 
 6464000    241.01445   -3887.6526   -3474.5621   -3887.6526            0    5524.1708    17.210904    20.272171    20.997262     7325.995     7297.439    4085.9908    5189.0828   -754.99206   -1211.9127   -896.35105    -2884.348 
 6465000    234.86969   -3916.9144   -3514.3558   -3916.9144            0    5663.6498     17.17459    20.229399     20.95296    7279.7212    7292.1948    3571.7459    6127.0087   -947.98816    316.66072    55.021174   -2913.0616 
 6466000    247.23133   -3888.5044   -3464.7584   -3888.5044            0    5287.2415     17.17942    20.235087    20.958852    7285.8643    2913.4854    7441.6865    5506.5527   -459.82497    -944.4735   -128.45431   -2902.9527 
 6467000    248.38423   -3917.0821   -3491.3601   -3917.0821            0    5895.5155     17.23126    20.296148    21.022097    7352.0201    4913.3071    6698.8193      6074.42   -518.28808    1690.9383    345.57566    -2859.233 
 6468000    248.74526   -3881.7428    -3455.402   -3881.7428            0    3631.9809    17.267653    20.339015    21.066497    7398.7023    3714.3091    4881.7592    2299.8744    1029.2682    344.28265    49.479469   -3063.5022 
 6469000    251.58774   -3906.9402   -3475.7274   -3906.9402            0    5340.3134    17.284345    20.358675     21.08686    7420.1785    3988.5637    7860.8447    4171.5318   -952.04527    389.94021   -1716.6994   -2897.8217 
 6470000    236.45371   -3885.3975   -3480.1239   -3885.3975            0    3882.2984    17.203055    20.262927    20.987687     7315.977    2896.7807    6340.2935    2409.8209   -2185.8711   -1298.1755   -1733.2297   -3065.8981 
 6471000    257.47009   -3922.5375   -3481.2426   -3922.5375            0    5600.9144     17.16612    20.219422    20.942627    7268.9559    6889.8254    4598.2486    5314.6691    291.32445    193.36858   -930.11795   -2887.4881 
 6472000    247.77957   -3920.1415   -3495.4558   -3920.1415            0    5352.6873     17.22263    20.285983    21.011568    7340.9788    7645.2893    4185.8493    4226.9231     165.4869   -1697.7992   -535.08126   -2922.3937 
 6473000    240.39398   -3911.0638   -3499.0367   -3911.0638            0    4064.9256    17.269614    20.341324    21.068888    7401.2224    2980.3334    5307.5942    3906.8492      1408.61    -704.6899    869.65898   -3060.2718 
 6474000    252.50707   -3901.3733   -3468.5848   -3901.3733            0    7454.3408    17.152532    20.203417    20.926049    7251.7078    8343.2239    6481.4303    7538.3683   -150.17564    880.50791    740.81916   -2680.2233 
 6475000    253.61745    -3917.354   -3482.6623    -3917.354            0    7448.1469    17.186969     20.24398    20.968062    7295.4737    8687.3973    6225.3605     7431.683    614.99818    681.73607    -294.7817   -2690.2018 
 6476000    250.33838   -3903.1228   -3474.0514   -3903.1228            0    5331.5316    17.233294    20.298544    21.024579    7354.6242    4541.9088    6552.5261    4900.1598   -577.50618    508.89942   -113.18753   -2902.1932 
 6477000    274.55823   -3891.5215   -3420.9381   -3891.5215            0    6498.7784    17.269693    20.341417    21.068985    7401.3241    6120.6069    6245.6321    7130.0961   -1732.0818    283.36087    1683.6126   -2719.4553 
 6478000    247.51183   -3875.8332   -3451.6064   -3875.8332            0    6703.4548    17.265262    20.336198     21.06358    7395.6293     6421.248    8821.3719    4867.7446    316.04845   -967.53154   -600.94797   -2728.5874 
 6479000    252.01165   -3903.3066   -3471.3672   -3903.3066            0    6362.3409    17.235395    20.301018    21.027141    7357.3141    5589.1551    5974.2657     7523.602    179.05085   -513.39559    111.77612   -2788.6952 
 6480000    261.13466   -3891.7007   -3444.1248   -3891.7007            0    5029.5082    17.220856    20.283894    21.009405    7338.7116    5060.6444    3804.7175    6223.1628    1272.9774   -158.38824   -731.67784   -2905.8287 
 6481000    242.79175   -3879.5005   -3463.3637   -3879.5005            0     6163.303    17.231633    20.296587    21.022551    7352.4972    5288.4535    6600.5097    6600.9459   -466.19547    566.56896    1182.9469   -2802.4812 
 6482000    247.87938   -3890.3093   -3465.4525   -3890.3093            0     5036.766    17.257031    20.326503    21.053537    7385.0562    5712.4612    5740.5832    3657.2535    28.024527   -1869.6862    778.62466   -2922.9754 
 6483000    237.37011   -3870.0407   -3463.1964   -3870.0407            0    8278.4105    17.176932    20.232157    20.955817    7282.6993    9076.7184    8646.1372    7112.3758    157.40943   -63.833835    1185.4403   -2583.9407 
 6484000    260.34155   -3915.5501   -3469.3336   -3915.5501            0    4694.5865    17.299937     20.37704    21.105882    7440.2776    4162.6046    3937.5071    5983.6477   -2794.8924   -138.06801     1119.013   -2959.9296 
 6485000    257.06606    -3959.568   -3518.9656    -3959.568            0    5420.4511    17.268699    20.340247    21.067773    7400.0468    5495.8806    6242.8683    4522.6045    89.459364    1417.0324    545.01322   -2933.9792 
 6486000    240.54927   -3915.8743   -3503.5811   -3915.8743            0    4840.2598    17.261393     20.33164    21.058859    7390.6576    4952.0984    6285.5254    3283.1554   -1409.2496    1331.5795    611.83739   -2981.8729 
 6487000    252.26499   -3933.7918   -3501.4183   -3933.7918            0    7726.1754    17.207978    20.268725    20.993692    7322.2589    7472.0779    9345.3145    6361.1337   -2032.0963   -564.13748    -1302.625   -2676.3583 
 6488000    255.41272   -3906.1768   -3468.4081   -3906.1768            0    7347.0508     17.22277    20.286148    21.011739    7341.1584    8831.5569    6588.6983    6620.8972    2493.1223    20.100109   -232.27038   -2681.8089 
 6489000    252.92702   -3912.3343    -3478.826   -3912.3343            0    4799.4213    17.217318    20.279726    21.005087    7334.1885    4120.4654    5862.9072    4414.8912    -646.9422   -1096.3836   -650.01689   -2965.4722 
 6490000    246.28307   -3887.1639   -3465.0431   -3887.1639            0     4739.842    17.249985    20.318204    21.044941    7376.0144    4328.6058    5132.0893     4758.831   -853.35813    237.77129   -386.90429   -2955.1707 
 6491000    242.35055   -3889.0163   -3473.6358   -3889.0163            0    5356.1162    17.197951    20.256915     20.98146    7309.4674    5108.3591    6718.4868    4241.5027    807.73291    101.91192   -492.08445    -2902.668 
 6492000    244.10398   -3871.0697   -3452.6838   -3871.0697            0    6329.9892    17.182751    20.239011    20.962917    7290.1037    5205.9079    6126.8277    7657.2319   -707.17863    392.86947      613.402   -2779.6877 
 6493000    265.72596    -3900.278   -3444.8328    -3900.278            0    5130.0647    17.271571    20.343629    21.071276    7403.7392     4642.128    5367.9495    5380.1166   -481.53783    352.61746   -2060.1489   -2890.9092 
 6494000    250.76188   -3878.0362    -3448.239   -3878.0362            0    6961.7919    17.215902    20.278059    21.003361    7332.3801    6393.2113     8100.557    6391.6073   -194.61398    655.99157   -873.67125    -2703.778 
 6495000    249.37072   -3877.2575   -3449.8446   -3877.2575            0    6941.6456    17.221722    20.284913     21.01046    7339.8181     6818.729    6354.0116    7652.1961   0.23919275    513.27249    714.24222    -2706.785 
 6496000    233.64143   -3879.2736   -3478.8202   -3879.2736            0    5888.3269     17.30346    20.381191    21.110181    7444.8246    5262.3363    4915.5171    7487.1271   -606.07712  -0.50907177    1093.8658   -2839.4943 
 6497000    241.72378   -3903.1661   -3488.8599   -3903.1661            0    6814.5052    17.334662    20.417942    21.148247    7485.1705    7575.9851    5691.6335    7175.8969     1491.266    219.19286    1012.1063   -2744.9644 
 6498000    261.97396   -3895.0636   -3446.0492   -3895.0636            0    6959.2247     17.30307    20.380731    21.109705    7444.3211    8257.5663    6977.7579      5642.35   -2204.0942   -965.55929    1012.2785   -2690.5016 
 6499000    244.83865   -3914.3542   -3494.7091   -3914.3542            0    5200.2907    17.227852    20.292135     21.01794    7347.6594    4883.9288    5666.6718    5050.2716   -188.25557    1072.3686     348.7116    -2937.456 
 6500000    251.85949   -3885.2713   -3453.5928   -3885.2713            0    3529.8764    17.382963    20.474835    21.207175    7547.9157    6189.5951    1145.1739    3254.8602   -1324.4586   -435.22067   -73.005198   -3065.0289 
Loop time of 507.093 on 64 procs for 250000 steps with 864 atoms

Performance: 85.192 ns/day, 0.282 hours/ns, 493.007 timesteps/s
99.1% CPU use with 64 MPI tasks x 1 OpenMP threads

MPI task timing breakdown:
Section |  min time  |  avg time  |  max time  |%varavg| %total
---------------------------------------------------------------
Pair    | 20.737     | 25.642     | 30.364     |  48.1 |  5.06
Bond    | 0.27793    | 0.29618    | 0.31223    |   1.1 |  0.06
Kspace  | 220.95     | 233.17     | 248.88     |  40.6 | 45.98
Neigh   | 5.21       | 6.0095     | 7.7429     |  28.4 |  1.19
Comm    | 102.53     | 118.63     | 127.82     |  57.1 | 23.39
Output  | 1.222      | 1.2234     | 1.2246     |   0.0 |  0.24
Modify  | 112.79     | 115.56     | 119.48     |  14.3 | 22.79
Other   |            | 6.567      |            |       |  1.29

Nlocal:        13.5000 ave          21 max           7 min
Histogram: 1 2 10 9 14 14 7 6 0 1
Nghost:        2118.50 ave        2158 max        2081 min
Histogram: 4 5 6 7 12 10 7 6 4 3
Neighs:        4093.08 ave        6907 max        2294 min
Histogram: 3 4 12 17 16 7 3 1 0 1

Total # of neighbors = 261957
Ave neighs/atom = 303.19097
Ave special neighs/atom = 2.0000000
Neighbor list builds = 12909
Dangerous builds = 0

unfix		3
unfix		2
unfix		1

write_data	data.final.${pid}
write_data	data.final.0
System init for write_data ...
PPPM initialization ...
  extracting TIP4P info from pair style
  using 12-bit tables for long-range coulomb (../kspace.cpp:340)
  G vector (1/distance) = 0.3738656
  grid = 24 24 25
  stencil order = 5
  estimated absolute RMS force accuracy = 0.0031160842
  estimated relative force accuracy = 9.3839952e-06
  using double precision FFTW3
  3d grid and FFT values/proc = 2730 288
Last active /omp style is kspace_style pppm/tip4p/omp
WARNING: Not all mixed pair coeffs generated from mixing. Use write_data with 'pair ij' option to store all pair coeffs. (../write_data.cpp:312)

write_restart   restart.lmp.${pid}
write_restart   restart.lmp.0
System init for write_restart ...
PPPM initialization ...
  extracting TIP4P info from pair style
  using 12-bit tables for long-range coulomb (../kspace.cpp:340)
  G vector (1/distance) = 0.3738656
  grid = 24 24 25
  stencil order = 5
  estimated absolute RMS force accuracy = 0.0031160842
  estimated relative force accuracy = 9.3839952e-06
  using double precision FFTW3
  3d grid and FFT values/proc = 2730 288
Last active /omp style is kspace_style pppm/tip4p/omp
Total wall time: 0:08:30
