LAMMPS (30 Jul 2021)
  using 1 OpenMP thread(s) per MPI task
package omp 0
using multi-threaded neighbor list subroutines
echo both

include		in.partitions
variable        pid world 0
include		in.temp
variable        temperature equal 263.63
variable	tempDamp equal 100.0
include		in.pressure
variable        pressure equal 6125.0
variable        pressureDamp equal 1000.0 # This is 1 ps
include		in.seed
variable        seed world 745823

units		real
atom_style	full
read_restart	restart.lmp.${pid}
read_restart	restart.lmp.0
Reading restart file ...
  restart file = 30 Jul 2021, LAMMPS = 30 Jul 2021
  restoring atom style full from restart
  orthogonal box = (0.52086875 1.7050459 0.63545866) to (17.686704 21.924132 21.577737)
  4 by 4 by 4 MPI processor grid
  restoring pair style lj/cut/tip4p/long/omp from restart
  restoring bond style harmonic/omp from restart
  restoring angle style harmonic/omp from restart
  864 atoms
  576 bonds
  288 angles
Finding 1-2 1-3 1-4 neighbors ...
  special bond factors lj:    0        0        0       
  special bond factors coul:  0        0        0       
     2 = max # of 1-2 neighbors
     1 = max # of 1-3 neighbors
     1 = max # of 1-4 neighbors
     2 = max # of special neighbors
  special bonds CPU = 0.685 seconds
  read_restart CPU = 0.981 seconds
include 	in.setup
variable	out_freq equal 1000
variable	out_freq2 equal 10000
variable	out_freq3 equal 1000

timestep	2.0

neigh_modify    delay 7 every 1

include		in.tip4p
# This is TIP4P/Ice

# create groups ###
group ox type 2
288 atoms in group ox
group hy type 1
576 atoms in group hy

# set charges - beside manually ###
set group ox charge -1.1794
Setting atom values ...
  288 settings made for charge
set group hy charge 0.5897
Setting atom values ...
  576 settings made for charge

# ### TIP3P Potential Parameters ###
pair_style lj/cut/tip4p/long/omp 2 1 1 1 0.1577 8.5
pair_coeff 1 1*2 0.000 0.000
pair_coeff 2 2 0.21084 3.1668
bond_style  harmonic
bond_coeff  1 450 0.9572
angle_style harmonic
angle_coeff 1 55 104.52
kspace_style pppm/tip4p/omp 1.0e-5
pair_modify tail yes

thermo          ${out_freq}
thermo          1000
thermo_style    custom step temp pe etotal epair emol press lx ly lz vol pxx pyy pzz pxy pxz pyz enthalpy

restart 	${out_freq3} restart.lmp.${pid} restart2.lmp.${pid}
restart 	1000 restart.lmp.${pid} restart2.lmp.${pid}
restart 	1000 restart.lmp.0 restart2.lmp.${pid}
restart 	1000 restart.lmp.0 restart2.lmp.0


include         in.dump
dump            myDump all atom ${out_freq2} dump.water.${pid}
dump            myDump all atom 10000 dump.water.${pid}
dump            myDump all atom 10000 dump.water.0
dump            myDump2 all dcd ${out_freq2} dump.dcd
dump            myDump2 all dcd 10000 dump.dcd
dump_modify     myDump append yes
dump_modify     myDump2 append yes


variable natoms 	equal  "count(all)"                        # NUMBER ATOMS
variable H      	equal  "enthalpy/v_natoms"                 # ENTHALPY-per-atom
variable Vol      	equal  "vol/v_natoms"                 # volume-per-atom
fix AVG all 		ave/time ${out_freq} 1 ${out_freq} v_Vol v_H file vol_enthalpy.dat
fix AVG all 		ave/time 1000 1 ${out_freq} v_Vol v_H file vol_enthalpy.dat
fix AVG all 		ave/time 1000 1 1000 v_Vol v_H file vol_enthalpy.dat


timer           timeout 23:50:00 every 1000
New timer settings: style=normal  mode=nosync  timeout=23:50:00

fix 		1 all shake 1e-6 200 0 b 1 a 1
       0 = # of size 2 clusters
       0 = # of size 3 clusters
       0 = # of size 4 clusters
     288 = # of frozen angles
  find clusters CPU = 0.936 seconds
fix             2 all nph iso ${pressure} ${pressure} ${pressureDamp}
fix             2 all nph iso 6125 ${pressure} ${pressureDamp}
fix             2 all nph iso 6125 6125 ${pressureDamp}
fix             2 all nph iso 6125 6125 1000
fix             3 all temp/csvr ${temperature} ${temperature} ${tempDamp} ${seed}
fix             3 all temp/csvr 263.63 ${temperature} ${tempDamp} ${seed}
fix             3 all temp/csvr 263.63 263.63 ${tempDamp} ${seed}
fix             3 all temp/csvr 263.63 263.63 100 ${seed}
fix             3 all temp/csvr 263.63 263.63 100 745823

run             250000
PPPM initialization ...
  extracting TIP4P info from pair style
  using 12-bit tables for long-range coulomb (../kspace.cpp:340)
  G vector (1/distance) = 0.37333747
  grid = 24 24 24
  stencil order = 5
  estimated absolute RMS force accuracy = 0.0032680631
  estimated relative force accuracy = 9.8416749e-06
  using double precision FFTW3
  3d grid and FFT values/proc = 2535 216
Last active /omp style is kspace_style pppm/tip4p/omp
Neighbor list info ...
  update every 1 steps, delay 7 steps, check yes
  max neighbors/atom: 2000, page size: 100000
  master list distance cutoff = 10.8154
  ghost atom cutoff = 10.8154
  binsize = 5.4077, bins = 4 4 4
  1 neighbor lists, perpetual/occasional/extra = 1 0 0
  (1) pair lj/cut/tip4p/long/omp, perpetual
      attributes: half, newton on, omp
      pair build: half/bin/newton/omp
      stencil: half/bin/3d
      bin: standard
Per MPI rank memory allocation (min/avg/max) = 9.234 | 9.237 | 9.240 Mbytes
Step Temp PotEng TotEng E_pair E_mol Press Lx Ly Lz Volume Pxx Pyy Pzz Pxy Pxz Pyz Enthalpy 
 8750000    278.68908   -3855.9545    -3378.291   -3855.9545            0    6711.7994    17.165835    20.219086    20.942278    7268.5935    4839.8901     7943.136    7352.3722   -150.69149    532.97753    407.37825   -2666.8068 
 8751000    275.15181   -3881.8437   -3410.2429   -3881.8437            0     5446.974    17.176134    20.231217    20.954843    7281.6842    5360.3476    7237.0839    3743.4906   -1473.5311     1352.403   -2035.8246   -2831.7966 
 8752000     272.1672   -3862.0411   -3395.5558   -3862.0411            0    6758.3102    17.147106    20.197026    20.919429    7244.8282    7470.8728    7697.3983    5106.6595    1223.0091    1323.2461   -1217.1576   -2681.4836 
 8753000    264.83582   -3871.0408   -3417.1213   -3871.0408            0    5046.8197    17.176644    20.231817    20.955465    7282.3325    5111.2786     5096.168    4933.0125    141.83902    1835.5163   -182.17317    -2881.122 
 8754000    246.64193   -3862.9328    -3440.197   -3862.9328            0    5707.5725    17.192449    20.250434    20.974748    7302.4539    6578.6159    4372.1538    6171.9479     173.6494   -1099.0616    1342.4731   -2832.3474 
 8755000    267.96812   -3844.5118   -3385.2236   -3844.5118            0      6579.95    17.196686    20.255425    20.979917    7307.8543    8086.8322    5077.8214    6575.1963   -65.754757    121.28261    2015.0311   -2683.9486 
 8756000     265.2073   -3852.4338   -3397.8776   -3852.4338            0    4190.6273    17.336372    20.419956    21.150334    7487.3866    1878.6244    4071.8778    6621.3798    603.80792    1382.0854   -1424.1033   -2940.2785 
 8757000    265.15744   -3851.4824   -3397.0116   -3851.4824            0    7995.2484    17.186191    20.243063    20.967113    7294.4828    8736.7496    7791.3984    7457.5972   -844.60716   -378.58271   -482.79578   -2546.4567 
 8758000    258.49354   -3838.2894   -3395.2403   -3838.2894            0    6243.4305    17.237659    20.303685    21.029904    7360.2141    5883.9364    6103.4838    6742.8712    683.43487    357.07571    49.305254   -2725.0632 
 8759000     284.6117   -3859.2891   -3371.4743   -3859.2891            0    6839.8736    17.185836    20.242645     20.96668    7294.0309    5626.2383    7672.7012    7220.6814    49.247785    -318.2994    -454.3993   -2643.8762 
 8760000    280.03983   -3892.6297    -3412.651   -3892.6297            0    7487.0533    17.198757    20.257864    20.982443    7310.4946       5603.5    10085.372    6772.2882    475.79076   -496.31905   -19.464949   -2614.4108 
 8761000    270.01382   -3883.0133   -3420.2189   -3883.0133            0    6099.4419    17.202573    20.262359    20.987099    7315.3618    3670.0759    9129.1698    5499.0801    525.88372   -92.691616   -961.52311   -2769.4874 
 8762000     275.8232   -3843.5209   -3370.7694   -3843.5209            0    5361.3834    17.249573    20.317718    21.044438    7375.4855     4702.757    5687.5756    5693.8175   -1906.1457   -1559.9282   -842.23642   -2794.0782 
 8763000    274.19786   -3852.8249   -3382.8592   -3852.8249            0    8181.1174     17.16018    20.212425    20.935379    7261.4123    8088.9105    6632.1969    9822.2447    612.79959   -25.637007   -771.71541   -2516.4768 
 8764000    269.07318   -3893.1836   -3432.0014   -3893.1836            0    6371.6136    17.169972     20.22396    20.947326    7273.8508    4954.5369      6689.06    7471.2439   -954.86436    420.17531   -512.02841   -2756.0901 
 8765000    266.10291   -3856.4075   -3400.3163   -3856.4075            0    6162.7759    17.143979    20.193343    20.915614    7240.8652     4701.392    6015.6622    7771.2736    -128.3843    543.15447   -626.06252   -2749.5235 
 8766000     270.0455   -3865.6746   -3402.8259   -3865.6746            0    6759.4527    17.155424    20.206824    20.929577    7255.3767     7699.625    7387.9466    5190.7866    1328.6031   -1355.3845    186.51863   -2687.5931 
 8767000    268.67528   -3873.7014   -3413.2012   -3873.7014            0    5087.7258     17.24968    20.317844    21.044569    7375.6231    4766.4183    5859.9627    4636.7963   -946.56438    1764.1296   -171.28097   -2865.9354 
 8768000    253.90349   -3861.0312   -3425.8493   -3861.0312            0    5857.1412    17.171693    20.225986    20.949425    7276.0374    6047.3158    5458.1902    6065.9177   -229.07583   -169.63077   -1161.4868   -2804.3273 
 8769000    268.23795   -3856.7543   -3397.0036   -3856.7543            0      5704.66    17.118061    20.162815    20.883994     7208.075    6484.3432    4987.8236    5641.8133     -94.6629   -343.85461    512.96105   -2797.3162 
 8770000    256.30589    -3871.336   -3432.0365    -3871.336            0    4761.5863    17.190641    20.248305    20.972542    7300.1508     6436.586    3771.9588     4076.214     1710.384    29.837326   -241.81676   -2925.0932 
 8771000    253.71209   -3882.7657   -3447.9118   -3882.7657            0    7364.3632    17.160025    20.212243    20.935191    7261.2163    8119.0132    8488.9801    5485.0963   -491.25004    608.90363     750.8725    -2668.045 
 8772000    268.26017   -3867.9826   -3408.1939   -3867.9826            0     6104.529    17.243086    20.310078    21.036525    7367.1681    6457.1155    6928.2187    4928.2529   -183.01774    565.72052    920.65692   -2752.3075 
 8773000    255.03751   -3864.0463   -3426.9207   -3864.0463            0    6152.6804    17.207681    20.268375     20.99333    7321.8798    6428.2466    5896.8673    6132.9273   -1420.5407   -743.16601    3.8247352   -2769.9246 
 8774000    268.45658   -3815.8618   -3355.7365   -3815.8618            0    5436.6025    17.299585    20.376626    21.105454    7439.8242    4402.4046    6701.6801    5205.7227    311.03326   -827.96109    1452.5145   -2765.8531 
 8775000    266.01459   -3842.9267   -3386.9868   -3842.9267            0    7098.3761    17.085455    20.124409    20.844215    7166.9641    6658.3295    6614.1327     8022.666    733.87731    207.98058   -655.36272   -2645.0445 
 8776000    274.24146   -3868.5908   -3398.5503   -3868.5908            0    5892.6628    17.268134    20.339581    21.067083    7399.3198    7736.7957    5411.4633    4529.7293   -1344.5546    1053.8727   -485.18664   -2762.6643 
 8777000    266.78457   -3850.2719   -3393.0123   -3850.2719            0    6560.7037    17.231819    20.296807    21.022779    7352.7358    5827.5964    7131.0713    6723.4434   -863.07908   -798.11007   -10.032045   -2689.4942 
 8778000    264.79735   -3892.6831   -3438.8295   -3892.6831            0    6253.4213     17.19016    20.247738    20.971955    7299.5379    6315.6658    5532.9585    6911.6395   -1931.6601   -1367.8275    1682.8117   -2773.1136 
 8779000    260.44538    -3882.726   -3436.3315    -3882.726            0     5489.077    17.174654    20.229474    20.953038     7279.802    3603.0911    7311.0957    5553.0443    109.95458   -2217.9948    423.55321   -2853.5648 
 8780000    280.21988   -3844.6554   -3364.3681   -3844.6554            0    4739.3723    17.202836    20.262668    20.987419    7315.6971    2912.4942    5375.2209    5930.4017   -201.56721   -552.95409    1086.9413   -2858.7153 
 8781000    270.76299   -3834.2448   -3370.1663   -3834.2448            0     5398.564     17.17192    20.226253    20.949702    7276.3257    6265.2658    3459.8257    6470.6005     1089.905   -640.40111    -1430.316   -2797.2828 
 8782000    267.79961   -3860.6697   -3401.6704   -3860.6697            0    5051.0113    17.138451    20.186831     20.90887    7233.8627    3560.7813    6976.7673    4615.4852    1941.5212   -402.81908    1419.9274   -2868.7964 
 8783000    268.31147   -3863.6645   -3403.7879   -3863.6645            0     5587.837    17.178423    20.233913    20.957636    7284.5956    5485.7968    6851.0303    4426.6838     826.9128   -22.048046   -272.08833   -2810.1453 
 8784000    256.83392   -3885.1292   -3444.9246   -3885.1292            0    5962.2738    17.220096    20.282999    21.008477    7337.7396    6349.1002    4678.2191    6859.5021   -405.17327    1991.6591    1747.9959   -2806.8814 
 8785000    259.54808   -3884.9522   -3440.0957   -3884.9522            0    7420.3311    17.122483    20.168023    20.889389    7213.6625    5718.2272     7149.822    9392.9441   -1132.2528   -208.06882   -2096.4359   -2659.4482 
 8786000    258.99442   -3869.6778   -3425.7702   -3869.6778            0    5211.6482    17.154796    20.206084    20.928811    7254.5798    5674.2006    4808.9534    5151.7907    58.608703    204.70396   -997.35651   -2874.3747 
 8787000    260.90939   -3840.8929   -3393.7031   -3840.8929            0    6694.5505    17.204382     20.26449    20.989306    7317.6704    6768.7928    7980.2642    5334.5945   -385.74143    521.61076     1030.821   -2679.2559 
 8788000    257.89302   -3841.7953   -3399.7755   -3841.7953            0    6595.5973    17.121515    20.166883    20.888209    7212.4395    8585.7057    6295.0538    4906.0325    214.52841    683.22587   -435.24282   -2706.0108 
 8789000     270.8686    -3889.386   -3425.1265    -3889.386            0    4994.0531    17.207079    20.267667    20.992597    7321.1124    3705.5733    5924.9176    5351.6683    1501.6985     512.3091   -106.50607   -2891.9069 
 8790000     260.4097   -3874.4273    -3428.094   -3874.4273            0    5897.5592    17.145818    20.195509    20.917858    7243.1957    7030.9701    3365.6669    7296.0407   -1437.9273   -1325.7681   -578.52529   -2805.1078 
 8791000    266.84825   -3878.7424   -3421.3736   -3878.7424            0    6992.6108    17.190603    20.248259    20.972495    7300.1014    6061.8852     6978.532    7937.4151    485.51636      306.213   -46.910809   -2676.9088 
 8792000    254.73409   -3832.9332   -3396.3277   -3832.9332            0     5809.433    17.214005    20.275825    21.001046    7329.9565    7051.7335     3914.379    6462.1865    227.97959   -507.35821   -1473.5899   -2775.2999 
 8793000    261.62091   -3852.9025   -3404.4932   -3852.9025            0    5153.7081    17.263085    20.333634    21.060923    7392.8314    5080.6865    5032.4405    5347.9972   -1048.2763    -1500.449   -198.08626   -2848.8366 
 8794000    264.01867   -3856.7656   -3404.2467   -3856.7656            0    7956.4439    17.121622    20.167009    20.888339    7212.5745     7502.088    9562.6191    6804.6247   -983.95506   -443.96095    844.86179   -2567.3242 
 8795000    261.19736   -3903.2624   -3455.5791   -3903.2624            0    6652.7614    17.152951    20.203911     20.92656    7252.2396    5859.7753    5918.8136    8179.6952    286.21222    108.39165   -1164.8742   -2751.9399 
 8796000    288.61984   -3872.5577   -3377.8732   -3872.5577            0    4944.4348    17.200362    20.259754    20.984401    7312.5413    6055.2333    5919.6695    2858.4017   -709.33409    1707.1949   -547.14075   -2850.5694 
 8797000    249.09527   -3836.1549   -3409.2141   -3836.1549            0    5677.5818    17.147573    20.197576    20.919999    7245.4197    6255.6163     5660.699      5116.43    459.04358    2566.7511   -625.08343    -2809.281 
 8798000    258.77452   -3863.2874   -3419.7567   -3863.2874            0    6747.9772    17.163337    20.216144    20.939231    7265.4212    6780.5172    5307.2276    8156.1866   -597.84885      1627.99    834.19986   -2704.7498 
 8799000    266.59913   -3841.3252   -3384.3834   -3841.3252            0    6829.3764    17.086415     20.12554    20.845386    7168.1722    6061.9449     7502.872    6923.3123    7.8092849   -687.69108    577.29513   -2670.4374 
 8800000    268.43598   -3871.4035   -3411.3134   -3871.4035            0    7388.9768    17.102236    20.144175    20.864688    7188.1024    7817.9002    6900.3023    7448.7279    162.02383    719.21149   -89.862485   -2636.7188 
 8801000    267.52363   -3837.3237   -3378.7973   -3837.3237            0    5938.3845    17.125378    20.171434    20.892922    7217.3226    5874.9227    7272.1711    4668.0598    128.03106   -257.21318   -220.49507   -2753.7393 
 8802000    269.73679   -3888.3329   -3426.0133   -3888.3329            0     5240.964    17.190755    20.248438     20.97268    7300.2951    5897.1076    4812.7213    5013.0631    7.1161393   -523.70514    524.90252   -2868.0219 
 8803000    272.68647   -3898.0407   -3430.6654   -3898.0407            0    5605.4727    17.219003    20.281712    21.007144     7336.343    4098.8699    7656.3138    5061.2345   -1001.4753    742.66863   -713.46634   -2830.9189 
 8804000    280.01461   -3855.7633   -3375.8278   -3855.7633            0    7370.9346    17.105918    20.148512     20.86918    7192.7464    8709.5006    6536.4604    6866.8429   -328.32604    1649.2595    556.29444   -2602.6254 
 8805000    270.49804    -3894.035   -3430.4106    -3894.035            0    5206.1768    17.233567    20.298866    21.024911    7354.9736    4845.2027    5200.8498     5572.478    140.38006    54.781655    2596.8926   -2871.9713 
 8806000    272.99148    -3838.552   -3370.6539    -3838.552            0     6919.403    17.171948    20.226286    20.949736    7276.3612    7164.1627    7446.3431     6147.703       1169.7   -215.69751   -908.67125   -2636.3789 
 8807000    279.56743   -3893.4423   -3414.2733   -3893.4423            0    7448.0284    17.160557     20.21287     20.93584    7261.8914     7331.926    6520.0984    8492.0608   -1967.7677    849.07094   -1618.9682   -2625.4732 
 8808000    259.77471   -3853.4801   -3408.2351   -3853.4801            0    6502.7949    17.160346    20.212621    20.935582    7261.6235    5607.1367     5529.781    8371.4669    709.91185    768.50954    1951.5976   -2719.5675 
 8809000    268.55552   -3890.6753   -3430.3803   -3890.6753            0    6818.8552    17.167548    20.221104    20.944368    7270.7695    6304.6394    7656.0138    6495.9125    214.41559   -714.79473    781.01725   -2707.3313 
 8810000    258.22472   -3878.0813    -3435.493   -3878.0813            0     7076.466     17.12697    20.173308    20.894863    7219.3351     6320.298    6984.9731    7924.1269    651.47323    2355.4749   -308.69441   -2690.4359 
 8811000     254.9296   -3848.0953   -3411.1547   -3848.0953            0     4829.465     17.21947    20.282261    21.007713    7336.9394    5715.6967    4272.5506    4500.1478   -1307.3168   -293.42157    73.871297   -2894.3936 
 8812000     272.4016   -3853.1591    -3386.272   -3853.1591            0    6058.2735    17.222222    20.285502     21.01107    7340.4571    5124.4192    6797.4342    6252.9672    867.29588   -89.169302   -852.92273   -2737.7155 
 8813000     277.1092   -3832.0703   -3357.1146   -3832.0703            0    4929.0849    17.258376    20.328087    21.055179    7386.7836    3836.2265    6283.4644    4667.5637    1241.1744   -855.80225   -411.03512   -2826.1108 
 8814000    265.69093   -3833.2269   -3377.8418   -3833.2269            0    4616.0211    17.097543    20.138647    20.858962    7182.1866    4723.4314    3098.2265    6026.4053   -445.74882   -1088.8801   -620.91862   -2894.3375 
 8815000    257.06951   -3863.9625   -3423.3542   -3863.9625            0    6927.4575    17.142839       20.192    20.914224    7239.4211     3896.786    10004.901    6880.6852   -1032.6975    238.65122    159.44959   -2691.9565 
 8816000    274.95123   -3851.4305   -3380.1735   -3851.4305            0    6448.3885    17.244092    20.311262    21.037752    7368.4571    6568.8537     5260.956    7515.3559   -1316.0783   -833.12059    -1021.511   -2687.2207 
 8817000    254.15332   -3893.3658   -3457.7557   -3893.3658            0    5542.1671    17.178037    20.233459    20.957165    7284.1052    4846.0112    6135.5478    5644.9423     310.2408   -1435.7806   -455.55554   -2869.0046 
 8818000    256.97859   -3871.7246   -3431.2721   -3871.7246            0    5898.5006    17.212924     20.27455    20.999727    7328.5746     5351.489    4873.6751    7470.3378   -525.20295   -224.98208   -50.576857   -2800.8419 
 8819000    253.24713   -3881.0219    -3446.965   -3881.0219            0    4945.2457    17.181509    20.237549    20.961401    7288.5231    3224.1963    6370.4405    5241.1003   -201.79565   -767.38166   -147.61514    -2921.307 
 8820000    263.97595   -3861.1858   -3408.7401   -3861.1858            0    4493.4162    17.237494    20.303491    21.029702    7360.0024    4613.3702    4330.5506    4536.3277   -414.87873     113.0737    718.79287   -2926.4254 
 8821000    256.99442   -3847.4704   -3406.9908   -3847.4704            0    5510.5258    17.198385    20.257426     20.98199    7310.0205    5985.1869    5905.4959    4640.8945    163.31157    269.80348    97.712076   -2819.5183 
 8822000     278.8727   -3808.4007   -3330.4225   -3808.4007            0    7291.4554     17.13674    20.184816    20.906783    7231.6972    6849.8341    7289.9976    7734.5346    246.11346   -1061.8907   -1138.0399   -2561.4154 
 8823000    254.31898   -3854.9563   -3419.0623   -3854.9563            0    8092.8531    17.133549    20.181057     20.90289    7227.6577    6893.8415    8230.7306    9153.9871    1028.8399   -497.11415   -797.76597    -2566.011 
 8824000    267.30315    -3855.371   -3397.2226    -3855.371            0    6336.7769    17.145648    20.195309    20.917651    7242.9809    6861.8147    6408.1391    5740.3768    468.87447   -540.61264    1015.4324   -2727.8597 
 8825000    268.46578   -3857.4748   -3397.3337   -3857.4748            0    6207.0413     17.16239    20.215028    20.938076    7264.2183    7999.9655    4681.4667    5939.6917    162.34991     191.2778    724.87731   -2739.7525 
 8826000    251.82239   -3841.5854   -3409.9705   -3841.5854            0    5816.6207    17.184716    20.241326    20.965314    7292.6052    5134.2438    4957.1879    7358.4304   -470.97522    548.51129    883.20788   -2791.3428 
 8827000    259.25092   -3889.3895   -3445.0423   -3889.3895            0    5413.8831    17.088592    20.128105    20.848043    7170.9132    5773.4389    5960.6025    4507.6079   -1047.7764   -1277.6272    941.91159   -2878.8562 
 8828000    271.93234   -3833.3233   -3367.2406   -3833.3233            0    5263.8902    17.232812    20.297976     21.02399    7354.0067    6412.5685     3974.791     5404.311    176.14167   -566.43645   -2354.0061    -2802.685 
 8829000    264.86591   -3895.2344   -3441.2633   -3895.2344            0    4725.2582     17.17602    20.231083    20.954704    7281.5391    5104.0193    3443.6648    5628.0905   -1308.1535    229.86466    1113.9546   -2939.4702 
 8830000    275.61675   -3850.4264   -3378.0288   -3850.4264            0    6195.0964    17.178981    20.234571    20.958317    7285.3063    6543.6504    7720.2386    4321.4001   -1117.5553     810.1185   -577.41803   -2719.8077 
 8831000    258.27159   -3850.1014   -3407.4328   -3850.1014            0    6213.0786    17.163809      20.2167    20.939807    7266.0209    4384.5168    8691.7873    5562.9316    -2336.309    193.91759   -413.95951   -2749.0486 
 8832000    263.81432   -3902.2204   -3450.0517   -3902.2204            0    6005.1302    17.209449    20.270458    20.995487    7324.1373    6697.8144    5545.1858    5772.3902   -1495.8977    94.495829   -334.84071   -2808.6135 
 8833000    255.43709   -3910.5473   -3472.7369   -3910.5473            0    5565.3984    17.234744    20.300252    21.026347    7356.4803    6710.7929    5087.4178    4897.9843   -724.78361    1301.9208    1310.7504   -2875.6436 
 8834000    268.39896   -3846.5247    -3386.498   -3846.5247            0    6438.0678    17.151327    20.201997    20.924579    7250.1794    7608.5748    3452.6403    8252.9884     773.1838    648.34379    660.90349   -2705.7597 
 8835000    270.60859   -3878.7746   -3414.9607   -3878.7746            0    6305.1718    17.162825     20.21554    20.938606    7264.7702     3127.818    8724.4342     7063.263   -320.71067   -648.02469    1245.4222   -2746.9327 
 8836000    264.20338   -3866.1992   -3413.3637   -3866.1992            0     6381.799    17.210555     20.27176    20.996837    7325.5493    7605.8861    6259.7494    5279.7617    48.640114   -327.06188    869.31578   -2731.5602 
 8837000    265.66602   -3881.5281   -3426.1856   -3881.5281            0     6364.216    17.167034    20.220499    20.943741     7270.117    6512.8404    5987.6767    6592.1309     1715.528    96.770185    357.80214   -2751.4056 
 8838000    284.18284   -3862.5552   -3375.4756   -3862.5552            0    5898.5152    17.197049    20.255852    20.980359    7308.3166    6248.0338    5210.3921    6237.1198    277.04288   -676.88259    416.98964   -2746.7865 
 8839000    247.00984   -3850.9706   -3427.6042   -3850.9706            0    5587.4124    17.226073    20.290039    21.015769    7345.3829    4605.6633    5788.7891    6367.7848    524.76507    501.84909    -27.47351   -2829.0533 
 8840000    271.48254   -3872.9171   -3407.6053   -3872.9171            0    7223.1219    17.168337    20.222034    20.945331    7271.7727    6975.1523    6962.9733      7731.24     476.7218    55.846652    -590.1836   -2641.5835 
 8841000    248.61018   -3843.2462   -3417.1369   -3843.2462            0    7885.0336    17.174863    20.229719    20.953292    7280.0674    6327.8572      8116.68    9210.5636   -807.47779    722.26299    921.05711   -2579.9646 
 8842000     269.6701   -3859.6415   -3397.4362   -3859.6415            0    7039.0147    17.163612    20.216467    20.939566    7265.7695    6449.5326    7249.0645     7418.447    448.03767   -859.18935     439.9984   -2651.5555 
 8843000    259.95326   -3874.7507   -3429.1997   -3874.7507            0    6293.5804    17.093617    20.134023    20.854173    7177.2408    7281.8945    5006.8429    6592.0038   -546.60127   -273.55967     74.79291   -2770.4337 
 8844000    252.07106   -3862.3945   -3430.3533   -3862.3945            0    4509.4777     17.21998    20.282862    21.008335    7337.5913    5323.8303    4274.0175    3930.5854   -141.22655     335.1734    524.42885   -2947.7885 
 8845000    269.72817   -3885.6805   -3423.3757   -3885.6805            0    6462.5858     17.11155    20.155146    20.876052    7199.8537    6641.6221    6747.8485    5998.2866    -57.61415    552.13167   -213.11937   -2744.7881 
 8846000    262.20195    -3820.387   -3370.9819    -3820.387            0    6507.6684    17.166733    20.220144    20.943375    7269.7349    5889.5766    9669.1788    3964.2497   -1198.8701   -1793.0261    346.05413   -2681.0283 
 8847000    260.43924   -3851.1457   -3404.7617   -3851.1457            0    6583.5631    17.125644    20.171746    20.893245    7217.6581      7659.08    7678.9834     4412.626    1007.7423   -130.76852   -1281.3584   -2711.7618 
 8848000    266.15193   -3899.4636   -3443.2883   -3899.4636            0    5798.0692    17.118604    20.163454    20.884656    7208.7605    5471.7749    5955.0196    5967.4133   -728.69962    309.91551   -1105.3302   -2833.7234 
 8849000    262.00026   -3853.5284   -3404.4689   -3853.5284            0    4902.2914    17.163967    20.216886    20.939999    7266.2206    4765.3907     7194.183    2747.3005   -850.40114    781.26363   -210.29743   -2884.9713 
 8850000    261.62067   -3854.7728   -3406.3639   -3854.7728            0    3480.2893    17.262972    20.333501    21.060786    7392.6865    2343.7147    2109.2738    5987.8794   -2232.6739   -1005.7844    1456.3406   -3031.1374 
 8851000    264.22099   -3850.0612   -3397.1954   -3850.0612            0    6853.4656    17.216528    20.278795    21.004123    7333.1789    6717.7611    6042.9891    7799.6468    -221.6839   -357.46051   -232.69887   -2664.2386 
 8852000    263.14988   -3826.3905   -3375.3606   -3826.3905            0     6058.638    17.242811    20.309754     21.03619    7366.8159    6592.6865    4860.7443    6722.4833    1108.7945     256.9219   -28.770331   -2724.4359 
 8853000    263.04615    -3821.748   -3370.8959    -3821.748            0    6652.3257    17.160104    20.212336    20.935287    7261.3159    7526.6872    8077.7719     4352.518   -1386.6613    257.31324    640.27865   -2666.4223 
 8854000    269.28446   -3850.6101   -3389.0657   -3850.6101            0    7640.3439     17.19734    20.256195    20.980715    7308.6883    8248.3542     7714.687    6957.9904    -1058.017    842.82507   -1316.8582   -2574.6836 
 8855000    267.12484   -3817.7094   -3359.8666   -3817.7094            0    5596.7931     17.22371    20.287255    21.012886      7342.36    5882.2549    5046.8258    5861.2984    563.33202   -183.45853   -2079.8231   -2760.5576 
 8856000    251.36238   -3845.1525   -3414.3259   -3845.1525            0    5872.0938    17.175544    20.230523    20.954124    7280.9346    7195.2525    5029.3842    5391.6448    912.82932    275.11936    1723.4505   -2790.7979 
 8857000    259.51493   -3844.9676   -3400.1678   -3844.9676            0    7416.1377    17.138412    20.186786    20.908823    7233.8141    7494.2305    6644.5024    8109.6802   -385.89388    1459.7427   -270.71473   -2617.7819 
 8858000    268.91133   -3851.2153   -3390.3104   -3851.2153            0    7358.4353    17.162167    20.214766    20.937804    7263.9356    6535.5429    6913.5734    8626.1897    1005.9242   -2174.7414   -676.83271   -2610.7795 
 8859000    264.62087   -3863.6305   -3410.0794   -3863.6305            0    7498.1805    17.096975    20.137978    20.858269     7181.471    7265.9281    7435.0646     7793.549    899.32131    866.09152    1923.8684    -2624.762 
 8860000     258.1904   -3858.5124   -3415.9829   -3858.5124            0    5652.6702    17.237225    20.303174    21.029374    7359.6581    7494.8217    4080.4741    5382.7149    851.65892    3.0395053    565.02183   -2809.2645 
 8861000    265.21546   -3847.5477   -3392.9775   -3847.5477            0    5877.7382    17.143881    20.193228    20.915495    7240.7417    7151.0339     4599.776    5882.4046   -847.94117     259.9553    425.70148   -2772.2954 
 8862000    264.25834   -3861.3568   -3408.4271   -3861.3568            0    6838.1697    17.135699     20.18359    20.905513    7230.3789    6869.5448    6876.6081    6768.3562   -936.74995   -931.21581    260.50192   -2687.3581 
 8863000    264.17457   -3866.0084   -3413.2222   -3866.0084            0    8099.6921    17.015932     20.04252    20.759397    7079.8294    8478.3063    7075.9475    8744.8224   -149.92704   -8.5966783    70.704858   -2576.9124 
 8864000    272.08916    -3852.346   -3385.9945    -3852.346            0    4532.3476    17.184139    20.240646    20.964609    7291.8701    4626.2913     6630.116    2340.6357    231.08022    471.86338   -1808.0957   -2904.0045 
 8865000    271.55221   -3870.5983   -3405.1671   -3870.5983            0    6362.0115    17.172785    20.227273    20.950758    7277.4264    5674.6653    7467.0425    5944.3267   -604.16949    416.79775   -241.57381   -2729.9427 
 8866000    258.83803   -3887.5254   -3443.8858   -3887.5254            0    5591.7697    17.183046    20.239358    20.963276    7290.4782    4272.2339    5383.5827    7119.4926   -664.69925    254.04055   -332.75578   -2849.3457 
 8867000    267.70662   -3930.9532   -3472.1132   -3930.9532            0     5274.368       17.139    20.187478     20.90954    7234.5588    5109.3554    6108.1319    4605.6168   -875.67382   -785.01542   -336.29932   -2915.6219 
 8868000    268.37241   -3896.6718   -3436.6907   -3896.6718            0    5937.9322    17.130442    20.177398      20.8991     7223.727    5502.7813    6265.7845    6045.2307    116.98578   -474.49218    880.85922   -2811.1257 
 8869000    266.82464   -3866.1721   -3408.8438   -3866.1721            0    4854.8674    17.189825    20.247343    20.971546    7299.1102    3413.3054    3654.5105    7496.7862   -283.88199    1331.6099    -376.6408    -2892.043 
 8870000    262.55767   -3871.3199    -3421.305   -3871.3199            0     5797.434    17.041046    20.072101    20.790036    7111.2236    5388.1496    6745.0159    5259.1364    248.23789   -953.61568   -795.50252   -2820.0537 
 8871000    260.10661   -3881.4994   -3435.6856   -3881.4994            0    5177.0075    17.158024    20.209886    20.932749    7258.6757    5213.6809    5225.7852    5091.5565   -9.8647132    577.63789    122.76903   -2887.6458 
 8872000    270.93173   -3858.0708   -3393.7031   -3858.0708            0    6708.4271     17.06804    20.103896    20.822969    7145.0708    6951.0162    6767.1288    6407.1363   -1379.8106    130.57358    5.4197122   -2694.6614 
 8873000    251.44797   -3887.9199   -3456.9466   -3887.9199            0    5331.7505    17.130879    20.177912    20.899632    7224.2787    5323.3959    5677.1893    4994.6663    286.77228    840.32136   -844.29049   -2895.2004 
 8874000    257.23534   -3832.3475    -3391.455   -3832.3475            0    8093.5517    17.078792    20.116561    20.836086     7158.582    8217.4501    8591.4808     7471.724    706.17641    613.89485    188.56809   -2546.4835 
 8875000    270.25891   -3837.9282   -3374.7136   -3837.9282            0     6707.429     17.10582    20.148396     20.86906    7192.6225    6447.3116    7268.2729    6406.7025     -647.049   -1727.5821   -757.42842   -2671.1243 
 8876000    269.86631   -3892.2518   -3429.7101   -3892.2518            0    5810.3759    17.093665    20.134079    20.854231    7177.3006    7621.4945     3825.123    5984.5101   -123.68604    585.69447    293.85283   -2821.5174 
 8877000    254.82154   -3856.2205   -3419.4651   -3856.2205            0    5963.0196    17.160176    20.212421    20.935375    7261.4076    7798.1184     6055.004    4035.9366    1266.6236    1190.7373    491.83829   -2787.9802 
 8878000    272.19396   -3879.9589   -3413.4278   -3879.9589            0    6823.1242    17.122093    20.167564    20.888914    7213.1701    5374.9054    6180.8473    8913.6198   -1727.9094   -1646.8776     312.2199   -2695.6577 
 8879000    275.33809   -3860.7311   -3388.8111   -3860.7311            0    6043.5288     17.23606    20.301802    21.027953    7358.1664    6949.1771    6186.9178    4994.4914    32.030633    573.96687    964.17673   -2740.2721 
 8880000    262.75768   -3899.8174   -3449.4598   -3899.8174            0    4633.6475    17.230287    20.295003     21.02091    7350.7754    4774.7734    3562.1001    5564.0691    1179.6606    319.70752    594.46063   -2952.7164 
 8881000    262.27796   -3875.5953   -3426.0599   -3875.5953            0     7987.643    17.103659    20.145852    20.866424    7189.8976    8177.9365    7495.7569    8289.2357    553.08227    28.474685       99.489   -2588.4974 
 8882000    274.55944    -3842.708   -3372.1225    -3842.708            0    7889.1684    17.149189    20.199479     20.92197    7247.4684    9704.7499     6471.166    7491.5892   -1807.2471   -1082.0165      -545.76   -2538.2619 
 8883000    256.66178   -3882.0817   -3442.1722   -3882.0817            0    6035.8196    17.178341    20.233816    20.957535     7284.491    6764.6158     5926.561    5416.2818    704.47994    532.60103   -2217.8165   -2800.9459 
 8884000     253.8868   -3885.3289   -3450.1756   -3885.3289            0    4247.7279    17.189922    20.247458    20.971665    7299.2349    3956.5737    5567.3905    3219.2194    636.47701   -393.05147   -595.41198   -2997.9971 
 8885000    254.58169   -3886.6893    -3450.345   -3886.6893            0    5013.2866    17.128626    20.175259    20.896884      7221.43    3444.2439    5282.8955    6312.7203   -1191.3546   -884.31266   -775.52921   -2922.3599 
 8886000    259.94464    -3859.284   -3413.7478    -3859.284            0    6036.0603    17.218336    20.280925     21.00633      7335.49    5357.6962    5912.6868    6837.7979    -262.8444    1298.5985    414.76479   -2768.0065 
 8887000    250.02577    -3861.375   -3432.8394    -3861.375            0    6460.4486    17.137036    20.185164    20.907143    7232.0712    5963.0735    6700.6702     6717.602   -163.42159   -196.26172    177.21786   -2751.4408 
 8888000    264.11605   -3866.2031   -3413.5172   -3866.2031            0    6604.6558    17.231749    20.296724    21.022694    7352.6465    4195.1384    8979.5233    6639.3057   -635.68895    239.47645     1626.484   -2705.2947 
 8889000     245.0592   -3881.4809   -3461.4578   -3881.4809            0    5866.9274    17.136918    20.185026       20.907    7231.9225    5547.5089    7083.6295    4969.6438   -725.04617    604.21923    177.28443    -2842.672 
 8890000    264.55947   -3877.8005   -3424.3547   -3877.8005            0    6593.3188    17.097649    20.138772    20.859092    7182.3205    5560.9131    9174.5995    5044.4436    708.26666    54.865167   -1465.6212   -2733.7258 
 8891000    267.44166   -3888.4838    -3430.098   -3888.4838            0     5562.897    17.014075    20.040333    20.757132    7077.5126    6055.7159     6900.941    3732.0341   -99.289788    595.29706   -672.85624   -2855.9054 
 8892000     257.5903    -3854.136    -3412.635    -3854.136            0    7571.5973    17.110274    20.153643    20.874494    7198.2427    7661.9946    5706.5829    9346.2144   -1170.4795   -235.43487   -197.73097   -2617.7764 
 8893000    242.30174    -3818.254   -3402.9572    -3818.254            0    6107.2577     17.27659    20.349541    21.077399    7410.1956    6982.1203    7207.4807    4132.1719    666.80912   -367.66533   -1846.9856   -2742.9452 
 8894000    254.10161   -3833.5056   -3397.9841   -3833.5056            0    5881.4904    17.225745    20.289653    21.015369    7344.9638     5136.216    7593.7776    4914.4775    833.23923    -758.1803   -726.05264   -2767.9661 
 8895000    266.74617   -3838.0656   -3380.8718   -3838.0656            0    4262.4166    17.238835     20.30507    21.031338    7361.7202    4051.0718    4846.7019     3889.476    1413.1153   -231.30392   -2102.6384   -2923.2453 
 8896000    261.22594   -3860.3628   -3412.6304   -3860.3628            0    5454.0347    17.124274    20.170133    20.891575    7215.9268    5411.0319    5920.9962     5030.076   -146.48462    49.462834     801.8896   -2838.6648 
 8897000    268.93712   -3883.8291     -3422.88   -3883.8291            0    5553.0074    17.145692     20.19536    20.917704    7243.0354    4451.3132    6130.0419    6077.6672   -423.69228      711.183   -1194.7694   -2836.3034 
 8898000    250.99617   -3894.3736   -3464.1747   -3894.3736            0    4292.1365    17.196323    20.254998    20.979474     7307.392    4237.3701     3422.767    5216.2725   -395.38088    543.48666   -3050.3893   -3006.7582 
 8899000    260.94617   -3823.5717   -3376.3189   -3823.5717            0    8505.4473      17.0952    20.135888    20.856105    7179.2353    7534.8438     10309.38    7672.1182    366.86033   -7.4937431    483.02146   -2485.7834 
 8900000    273.87219   -3887.7438   -3418.3362   -3887.7438            0    5131.2777     17.12474    20.170682    20.892143    7216.5156    5699.2602    4721.6538    4972.9191   -779.12769   -300.03483    1102.2239   -2878.2925 
 8901000    269.24741   -3827.3167   -3365.8359   -3827.3167            0    5051.0258    17.076534    20.113901    20.833331     7155.743     3789.421    6280.0034     5083.653   -310.52193   -469.45266     402.0727    -2838.715 
 8902000    241.81402    -3856.306    -3441.845    -3856.306            0     4160.695    17.248208     20.31611    21.042773    7373.7347    6605.9065    2588.2149    3287.9637    -382.8834    1572.5973   -97.341411   -2994.4107 
 8903000    251.61622   -3819.7142   -3388.4526   -3819.7142            0    6510.1789      17.2109    20.272166    20.997257    7325.9896    6565.0669    5345.1569    7620.3128    667.26985    1166.4063   -989.13101   -2692.8918 
 8904000    258.68583   -3875.3805   -3432.0018   -3875.3805            0    6718.6436    17.144506    20.193963    20.916257     7241.533    8604.0513    5243.2319    6308.6476    1262.6876    356.31103   -654.32357   -2722.4436 
 8905000    269.12703   -3892.0869   -3430.8124   -3892.0869            0    5354.5235    17.184276    20.240807    20.964776    7292.0439    6812.0405    6073.0957    3178.4341    1011.9714   -1120.0425    1007.9022   -2861.3749 
 8906000    245.69921   -3895.0253   -3473.9053   -3895.0253            0    4581.8662    17.190434     20.24806    20.972289    7299.8864    5944.5584    3523.1466    4277.8935    438.43128   -535.67999   -471.54353   -2986.1136 
 8907000    258.30487   -3869.8087    -3427.083   -3869.8087            0    5661.1607    17.168539    20.222271    20.945577    7272.0287    7943.6708    5974.8874    3064.9238    691.34924   -268.93416   -449.72913   -2826.6882 
 8908000    270.35542   -3891.1289    -3427.749   -3891.1289            0    7304.5636    17.125199    20.171222    20.892703    7217.0957    7721.0894    7636.6983    6555.9032   0.99937372    2531.3291    6.2150351   -2658.9149 
 8909000    271.17196   -3873.7743   -3408.9949   -3873.7743            0    6557.7462     17.14412    20.193509    20.915787    7241.0445    5326.9343    7915.0628    6431.2416   -73.693997    284.56092    1151.3949   -2716.4758 
 8910000    273.81893   -3850.7791   -3381.4628   -3850.7791            0    7838.1901     17.21704    20.279399    21.004748    7333.8335    8279.8904    7144.2119    8090.4679    1535.6668   -394.93785   -466.31376   -2543.1179 
 8911000    247.45059   -3875.5965   -3451.4746   -3875.5965            0    4988.0728    17.208009    20.268761     20.99373    7322.2986    5602.0697    4943.8412    4418.3075   -223.89137    1380.2766    250.15856   -2918.8072 
 8912000     248.5229    -3880.168   -3454.2083    -3880.168            0    4469.7036    17.215211    20.277245    21.002517    7331.4967    2099.3701    5569.7761    5739.9644    -1528.655    292.87722    1455.6528    -2976.297 
 8913000    261.10804   -3885.7949   -3438.2646   -3885.7949            0    6442.3354    17.200108    20.259456    20.984092    7312.2183    6422.2456    5272.5576    7632.2029    462.71513   -591.44416     2224.026   -2751.2462 
 8914000    277.33854   -3901.0135   -3425.6647   -3901.0135            0    4405.4084    17.244584    20.311842    21.038352    7369.0883    4555.8629    5558.9245    3101.4378    908.06803   -1703.2764   -193.60644   -2952.2129 
 8915000    267.80382   -3881.0381   -3422.0315   -3881.0381            0    7691.3439     17.13241    20.179715      20.9015    7226.2159    7925.2554    6926.5268    8222.2495    926.17966    124.52793    1812.4496   -2611.4642 
 8916000    271.21659   -3866.2287   -3401.3727   -3866.2287            0    7854.8454    17.143806     20.19314    20.915404    7240.6467    7278.9424    9014.2581    7271.3357   -224.04418    128.19026    1204.4193   -2571.9214 
 8917000    242.58297   -3877.1525   -3461.3736   -3877.1525            0    6903.7607    17.150266    20.200748    20.923285    7248.8348    6991.3464    6984.7254    6735.2103   -1946.9743    182.35385   -1415.5888     -2731.53 
 8918000    270.02087   -3853.2942   -3390.4877   -3853.2942            0    6345.9012      17.2079    20.268633    20.993598    7322.1602     6332.188    6531.8004    6173.7152   -239.55724    752.55901    274.73498   -2712.8331 
 8919000    266.59598   -3847.4454    -3390.509   -3847.4454            0    5726.4507    17.218946    20.281644    21.007073    7336.2691    6372.3675    5441.4772    5365.5074    249.19417     774.5338     2265.194   -2777.8249 
 8920000    265.11185   -3885.9742   -3431.5816   -3885.9742            0    6140.0073    17.222272    20.285562    21.011132    7340.5217    4513.3287    6404.7054    7501.9878    601.23322   -729.85753     780.4418   -2774.2693 
 8921000    259.77883   -3859.7701   -3414.5181   -3859.7701            0    5404.6501    17.237022    20.302935    21.029126    7359.3977    5866.3325    3632.3041    6715.3138    1939.8448    307.69042    311.23284    -2834.441 
 8922000    268.08258   -3885.6534   -3426.1691   -3885.6534            0    6599.2415    17.210513    20.271711    20.996786     7325.496    7273.4599    7305.2989    5218.9657   -738.06918   -346.02306   -730.79385   -2721.1401 
 8923000    256.71775    -3864.368   -3424.3626    -3864.368            0    5348.8301    17.214653    20.276587    21.001836    7330.7836    3328.8511    6370.0687    6347.5706   -873.76003    551.33883    91.157525   -2852.5087 
 8924000    256.51171   -3883.8555   -3444.2032   -3883.8555            0    5546.3112    17.196324    20.254998    20.979475    7307.3928    5609.8497    6381.8235    4647.2604    1472.5534    1220.6352   -447.08015   -2853.1282 
 8925000    267.03675   -3857.8056   -3400.1137   -3857.8056            0    6781.5872    17.205028    20.265251    20.990095    7318.4949    6668.8347    8165.9614    5509.9654   -1749.3966    2015.5731   -1174.3459   -2676.2963 
 8926000     261.4369   -3866.6013   -3418.5074   -3866.6013            0    7475.9043     17.06456    20.099797    20.818723     7140.701    7439.8389    8885.4206    6102.4536   -781.08196   -674.43128    -174.0262   -2639.9682 
 8927000    270.86293   -3851.5451   -3387.2953   -3851.5451            0    6591.2709    17.168679    20.222436    20.945748    7272.2072    8389.0618     4795.439    6589.3118   -1758.2702    383.47547   -1236.8918   -2688.2404 
 8928000    266.58761   -3881.8365   -3424.9145   -3881.8365            0    5448.7889       17.232     20.29702    21.022999    7352.9672    5566.2427    5363.5157    5416.6082    399.35689     691.4418   -765.55676    -2840.611 
 8929000    262.53905   -3837.7874   -3387.8045   -3837.7874            0     4238.154    17.199451    20.258681     20.98329    7311.3795    4788.8816     3792.363    4133.2173    863.91915   -605.03673   -859.64389   -2935.8945 
 8930000    256.57462   -3846.6401     -3406.88   -3846.6401            0    6472.6687     17.12609    20.172272     20.89379    7218.2223    7043.7132    6434.1724    5940.1206    49.008635   -244.34519   -289.73601   -2725.4998 
 8931000    271.77751   -3866.9077   -3401.0904   -3866.9077            0    6807.3959    17.178982    20.234571    20.958317    7285.3065    4638.4945    6160.8852     9622.808   -795.77628   -653.79036    581.89851   -2677.8133 
 8932000    276.33897   -3843.3448   -3369.7093   -3843.3448            0    8057.4836    17.092446    20.132643    20.852744    7175.7653    8741.1142    8389.2683    7042.0682   -408.30178   -657.76841   -154.76997   -2526.4841 
 8933000    254.21587   -3847.0493    -3411.332   -3847.0493            0    6751.2224    17.116912    20.161462    20.882593    7206.6238     5602.086    8141.2921    6510.2889     1060.732    1289.8797   -1698.0159   -2701.7703 
 8934000    258.99691   -3868.4018     -3424.49   -3868.4018            0    6072.4031    17.099585    20.141052    20.861453    7184.7603    5035.6082    6145.4751    7036.1259    365.20637    1332.9541    503.97034   -2788.2092 
 8935000    276.38813   -3864.0252   -3390.3054   -3864.0252            0    3815.1343    17.206478    20.266958    20.991863    7320.3445    2847.1132    3157.2534    5441.0363    1402.9282   -770.36195    679.46043   -2983.0027 
 8936000    259.50492   -3837.0562   -3392.2736   -3837.0562            0    5170.7817    17.193598    20.251787     20.97615    7303.9182    5035.6071     6490.557    3986.1811    83.115087   -446.20318   -604.65275   -2841.4812 
 8937000    258.24859   -3871.6362   -3429.0069   -3871.6362            0    5786.5148    17.154911     20.20622    20.928952    7254.7263    5051.7112    7039.2893    5268.5439    638.11381   -140.08512   -429.62752   -2816.7778 
 8938000    262.65518   -3824.5147   -3374.3327   -3824.5147            0    6754.1866     17.16386     20.21676    20.939869    7266.0854    6851.9489    6334.0465    7076.5645    343.74775    244.25483   -418.55727   -2658.6023 
 8939000    257.06775   -3864.1409   -3423.5356   -3864.1409            0     5349.362    17.168929     20.22273    20.946053    7272.5243    8017.2721    3753.1808     4277.633     822.2664    491.86106    494.21956   -2856.1699 
 8940000    277.49599   -3838.1255   -3362.5069   -3838.1255            0    6747.2691    17.191688    20.249537    20.973819    7301.4839    7193.2129    6102.2472    6946.3473    582.18094    121.40109    417.38135   -2644.0262 
 8941000    265.15739   -3867.4235   -3412.9528   -3867.4235            0    4910.1641    17.221755    20.284952    21.010501    7339.8602    4585.1233    4379.5388    5765.8302   -1004.6098    -248.3135   -288.61534   -2887.3476 
 8942000    260.37077   -3840.5252   -3394.2586   -3840.5252            0    7194.2456    17.248526    20.316485    21.043161     7374.143    7242.0025    7122.8513    7217.8829   -588.64738     31.23932    1805.8923   -2620.5584 
 8943000    267.96926     -3873.82   -3414.5298     -3873.82            0    6236.3128    17.197424    20.256294    20.980817    7308.7953    5626.5598    7081.4901    6000.8886     195.0875   -908.30103   -68.378422   -2749.7932 
 8944000    271.99846   -3832.7966   -3366.6005   -3832.7966            0    6233.1064    17.184513    20.241087    20.965066    7292.3464    7733.6006    7072.1765    3893.5423   -129.55558    1220.0563   -26.308503    -2703.701 
 8945000    262.84283   -3850.8929   -3400.3892   -3850.8929            0     5481.337    17.157716    20.209523    20.932374    7258.2851    7080.7943    5989.9354    3373.2812   -965.87754    1062.8782    976.83265   -2820.1643 
 8946000    264.94514   -3852.1494   -3398.0425   -3852.1494            0    3980.2608    17.258366    20.328075    21.055166      7386.77    4092.6936    4782.0337    3066.0553    610.29047   -969.41285    -369.6087   -2969.2551 
 8947000    274.85836   -3860.5772   -3389.4793   -3860.5772            0    5338.8088    17.214825     20.27679    21.002046    7331.0037    6774.1488    4906.6365    4335.6411   -1175.7609     1584.488   -1494.8578   -2818.6797 
 8948000    264.52339   -3845.8501   -3392.4661   -3845.8501            0    3920.0155    17.283376    20.357534    21.085678    7418.9309    3226.2935    5072.4086    3461.3445   -1449.5807   -255.70378   -662.67109   -2968.3302 
 8949000      274.737   -3870.8814   -3399.9915   -3870.8814            0    6895.8759    17.190789    20.248478    20.972722    7300.3384    8287.4766    6376.5865    6023.5645   -206.36522   -473.50139    123.48059   -2665.8018 
 8950000    256.88801    -3856.763   -3416.4657    -3856.763            0    6713.4138    17.191423    20.249225    20.973496    7301.1463    7550.3403    6949.2445    5640.6565    970.02489    123.21312    53.248172   -2701.6233 
 8951000     260.7939   -3877.3885   -3430.3967   -3877.3885            0    5966.9216    17.103373    20.145514    20.866075    7189.5361    5940.7449    5670.7328     6289.287    1452.5618    54.204336    220.36936    -2804.753 
 8952000    264.65133   -3879.8895   -3426.2862   -3879.8895            0    5421.1948    17.253086    20.321856    21.048725     7379.993    6991.4674    5905.9497    3366.1674    1758.3657    984.09434   -1254.1124    -2842.805 
 8953000    262.05605   -3903.1219   -3453.9668   -3903.1219            0    8012.4999    17.072668    20.109348    20.828615    7150.8848    7133.9084    8506.3675     8397.224    528.31177    457.27253    870.08356   -2618.3567 
 8954000    255.14073   -3897.0822   -3459.7797   -3897.0822            0    3970.0695    17.214671    20.276609    21.001859    7330.8072    2483.6252    4324.8087    5101.7746   -664.15345    1564.3062    861.63508   -3035.3304 
 8955000     257.7361   -3926.8399   -3485.0891   -3926.8399            0    4938.4875     17.22076    20.283781    21.009287    7338.5885    3926.0149    5700.3065     5189.141    413.78451    1432.9631    1230.5233   -2956.5436 
 8956000      253.122   -3887.2962   -3453.4538   -3887.2962            0    5382.6784    17.144432    20.193876    20.916166    7241.4387    3691.8166    6994.2689    5461.9499   -899.47974   -1897.7084    30.745355   -2884.9947 
 8957000    272.41546   -3891.8617   -3424.9509   -3891.8617            0    6030.9641    17.181005    20.236954    20.960786    7287.8809    4049.0877    6748.5931    7295.2114   -575.81443   -777.91336    39.706169   -2783.9423 
 8958000    271.60076   -3859.8107   -3394.2963   -3859.8107            0    5465.9154    17.255842    20.325103    21.052087    7383.5307    5309.5637    7821.4787    3266.7037   -455.02071    393.28261    1713.5674   -2805.7198 
 8959000    260.19423   -3861.4641   -3415.5001   -3861.4641            0    6234.3836    17.199176    20.258358    20.982955    7311.0295    6572.7626    6726.6139    5403.7744   -1399.3721   -420.69759   -18.394557    -2750.766 
 8960000    271.10838   -3863.1092   -3398.4388   -3863.1092            0    5873.7303    17.205275    20.265542    20.990396    7318.8101    4494.8734    7600.1697    5526.1478   -1061.4877    37.701199   -265.80197   -2771.4924 
 8961000    259.56582    -3873.552   -3428.6651    -3873.552            0    6005.0614    17.197749    20.256677    20.981214    7309.2093    6279.7263     6338.215    5397.2428   -1154.8532   -219.27238    233.36385   -2788.5416 
 8962000    262.03978   -3864.7844   -3415.6572   -3864.7844            0    6478.3378    17.176826    20.232032    20.955687     7282.564    6353.6237    7312.2593    5769.1305    384.76705     920.2605   -1381.4831   -2727.6012 
 8963000     253.0273   -3849.8085   -3416.1284   -3849.8085            0     6186.931    17.264867    20.335733    21.063098    7395.1219    5614.6507    5610.8525    7335.2899    863.89527    46.915205    223.39461   -2748.8662 
 8964000     269.5567   -3882.1434   -3420.1324   -3882.1434            0    6151.1083    17.200833     20.26031    20.984977    7313.1428    6132.3774    6413.8066     5907.141    503.71727    870.08487   -1184.4563   -2764.0879 
 8965000    249.01624   -3892.1616   -3465.3563   -3892.1616            0    6298.2007    17.149898    20.200315    20.922836    7248.3681     7322.639    5798.3689     5773.594    637.12888   -301.72906    672.04915   -2799.5734 
 8966000    264.64125   -3882.1175   -3428.5314   -3882.1175            0    6082.6429    17.192516    20.250513    20.974829    7302.5391    6558.0278    5573.1711    6116.7299   -847.37917   -522.39646   -22.794247   -2780.7297 
 8967000    249.85499   -3877.3817   -3449.1388   -3877.3817            0    5593.0771    17.277535    20.350654    21.078553    7411.4119    4114.9902    6155.9773    6508.2638    217.77184    1050.8669    462.55523   -2844.5952 
 8968000    253.50788   -3829.6226   -3395.1187   -3829.6226            0    5334.4976    17.274697    20.347311     21.07509    7407.7602    3042.2245    5799.6859    7161.5823   -538.48038    313.62255    1439.6379   -2818.8085 
 8969000    259.86252   -3845.6991   -3400.3036   -3845.6991            0    7684.5524    17.233634    20.298944    21.024993    7355.0594    8413.2257    6637.5766    8002.8548    263.34808   -881.39833    1267.7619   -2576.0124 
 8970000    255.08391    -3881.668   -3444.4629    -3881.668            0    6536.9119    17.221982     20.28522    21.010777    7340.1503    4970.7583    8469.8621    6170.1153    347.47232   -663.38932   -191.52727   -2744.6959 
 8971000    264.89245   -3875.2382   -3421.2216   -3875.2382            0      5342.49     17.24408    20.311249    21.037738    7368.4423    7074.2582    5803.0344    3150.1772    708.82423    384.63753   -636.27719   -2847.1114 
 8972000    260.45389   -3888.1965   -3441.7875   -3888.1965            0    5893.6816    17.194071    20.252345    20.976727     7304.521    6291.1228     4942.815    6447.1069    159.25622   -1068.3855    345.73941   -2813.9398 
 8973000    260.39892   -3873.7044   -3427.3895   -3873.7044            0    5088.5315    17.171816    20.226131    20.949575     7276.194    5612.4717    4963.4203    4689.7026     881.9872    1398.0235    1236.8716   -2887.4158 
 8974000    271.20663   -3881.1309    -3416.292   -3881.1309            0    7285.7737    17.096943    20.137941    20.858231    7181.4309    6472.0481    8113.1834    7272.0897    384.27499    1558.7691    128.31761   -2653.2252 
 8975000    252.79455   -3863.3397   -3430.0585   -3863.3397            0    6687.1695    17.110829    20.154296    20.875171    7198.9429    8017.8141    6483.3878    5560.3066    1523.1381   -807.87795    1039.9944   -2727.9779 
 8976000    265.92545    -3882.243   -3426.4559    -3882.243            0     5995.071     17.22277    20.286148    21.011739    7341.1583    5117.3423    5472.4968    7395.3739   -711.48523    571.70368    1257.5579    -2784.604 
 8977000    282.82201   -3845.9927   -3361.2454   -3845.9927            0    5440.2426    17.207566    20.268239     20.99319     7321.733    4073.3862    5531.1535    6716.1881    182.29161    155.50843    43.164565   -2780.3365 
 8978000    273.50152   -3868.5053    -3399.733   -3868.5053            0    5488.7741    17.235447     20.30108    21.027205    7357.3813    3876.9275    6534.3866    6055.0083    374.14307   -1427.5322    702.06907   -2810.7883 
 8979000    271.87983   -3850.0734   -3384.0807   -3850.0734            0    4704.9358    17.189002    20.246374    20.970543    7298.0629    5199.1183    4243.5909    4672.0981    1257.2613    554.74495   -5.9677762   -2883.3119 
 8980000    271.99667   -3847.1068   -3380.9138   -3847.1068            0    4990.3507    17.197909    20.256866    20.981409    7309.4139    5519.0448    3382.9195    6069.0877     2483.962   -664.90558    1047.3083   -2848.9409 
 8981000    278.30799   -3863.2842   -3386.2738   -3863.2842            0    5629.0607    17.189838    20.247358    20.971562     7299.127    5762.6344    5814.4959    5310.0518    1569.1317    -141.0473   -341.91518   -2787.0587 
 8982000    256.71156   -3842.5174   -3402.5226   -3842.5174            0    7276.5561    17.076312     20.11364    20.833061    7155.4648    6712.6296    6864.3213    8252.7175    702.98597    556.21244   -1325.7333   -2643.1767 
 8983000    249.26031   -3851.6217   -3424.3981   -3851.6217            0    7110.7447    17.167874    20.221488    20.944766    7271.1842    6504.6738    7919.9566    6907.6038   -545.85332   -1665.5066    172.51238   -2670.3551 
 8984000     264.3938   -3860.1916   -3407.0297   -3860.1916            0    5347.1252    17.224479    20.288161    21.013824    7343.3439    5178.9547    5913.3097    4949.1113    29.961512   -1185.4732   -24.467361   -2834.3785 
 8985000    258.86553     -3896.88   -3453.1933     -3896.88            0    4972.9077    17.147861    20.197915     20.92035    7245.7847    5511.6589    4788.3545    4618.7097   -250.91401    1186.1102   -283.12371   -2927.6945 
 8986000    254.58225   -3862.9695   -3426.6242   -3862.9695            0    5712.1556    17.164688    20.217735    20.940879    7267.1366      6429.51    6467.2215    4239.7354    1196.6714   -1128.2659   -845.81308   -2821.2287 
 8987000    271.09879    -3898.791    -3434.137    -3898.791            0    5277.7797    17.141621    20.190565    20.912737    7237.8778    6089.7719    4735.0985    5008.4687    726.49023   -312.81212   -95.620135   -2877.0303 
 8988000    265.46178   -3857.0915   -3402.0991   -3857.0915            0    4484.9647    17.243292     20.31032    21.036776    7367.4319    3059.6736    3918.9639    6476.2566   -1216.8592    270.60003   -1578.0228   -2920.2056 
 8989000    264.43397   -3870.8918    -3417.661   -3870.8918            0    6934.0496      17.1407     20.18948    20.911614     7236.711     9158.773    6181.8304    5461.5455   -97.564591   -319.06825    585.44828   -2685.8414 
 8990000     263.9187   -3851.6351   -3399.2875   -3851.6351            0    7078.0701    17.112133    20.155832    20.876762    7200.5889    6634.2802    9311.1998    5288.7303    900.16746     206.4098    515.38345   -2655.9967 
 8991000     259.5876   -3872.2476   -3427.3234   -3872.2476            0    4657.9259    17.164964     20.21806    20.941216    7267.4873    3866.0267    5343.3584    4764.3927   -219.04365     499.5763   -827.09229   -2933.6352 
 8992000    269.46496   -3850.8386   -3388.9849   -3850.8386            0    6324.6821    17.180508    20.236369    20.960179    7287.2485    5291.1116    8307.1065    5375.8282    430.28957   -268.62162    464.93959   -2716.8164 
 8993000     275.6733   -3846.4331   -3373.9385   -3846.4331            0    6656.0296    17.168088     20.22174    20.945028    7271.4563    7457.8801    5683.1486    6827.0601    1570.3272   -1611.9312   -1504.2944   -2668.0883 
 8994000    258.55884   -3844.5997   -3401.4387   -3844.5997            0    7302.5818    17.150891    20.201484    20.924047     7249.627    6843.8434    8033.3467    7030.5552   -1906.2246    1344.6079   -2006.1825   -2629.3486 
 8995000     270.4908   -3847.9785   -3384.3665   -3847.9785            0    6598.9126     17.23598    20.301708    21.027855    7358.0635    5096.8857    6990.0463    7709.8057   -206.42171    208.88887    43.149698   -2676.2385 
 8996000    248.48476   -3833.3641   -3407.4697   -3833.3641            0    5106.0709    17.200455    20.259864    20.984515    7312.6598    5575.8146    5941.0776    3801.3207   -331.85012    1187.2294    383.68007   -2862.9193 
 8997000    250.19996    -3842.757   -3413.9228    -3842.757            0    7050.0239    17.155531     20.20695    20.929708    7255.5128    7441.7979    6110.4164    7597.8575   -1364.6664    18.459796    994.07777   -2667.9301 
 8998000    277.12808   -3859.4637   -3384.4756   -3859.4637            0    6985.2897    17.172161    20.226537    20.949996    7276.6325    5739.3114    6968.2605    8248.2972   -1414.8282    622.86898   -643.94716   -2643.1812 
 8999000    255.04162   -3851.5168   -3414.3842   -3851.5168            0    7616.1186    17.168703    20.222464    20.945777    7272.2373    7799.1431    10213.814    4835.3986   -1097.8562    526.55992    463.62024    -2606.633 
 9000000    272.79593   -3850.3184   -3382.7555   -3850.3184            0     4059.953     17.21203    20.273498    20.998637    7327.4339    2527.1419    6117.5459    3535.1713   -863.07915    365.01637   -401.82426   -2948.8963 
Loop time of 478.324 on 64 procs for 250000 steps with 864 atoms

Performance: 90.315 ns/day, 0.266 hours/ns, 522.658 timesteps/s
99.0% CPU use with 64 MPI tasks x 1 OpenMP threads

MPI task timing breakdown:
Section |  min time  |  avg time  |  max time  |%varavg| %total
---------------------------------------------------------------
Pair    | 21.522     | 25.903     | 30.376     |  45.7 |  5.42
Bond    | 0.26971    | 0.27955    | 0.29618    |   1.0 |  0.06
Kspace  | 206.29     | 217.34     | 230.57     |  39.1 | 45.44
Neigh   | 5.76       | 6.8179     | 8.2909     |  30.0 |  1.43
Comm    | 94.35      | 106.87     | 117.58     |  60.3 | 22.34
Output  | 1.6452     | 1.6518     | 1.6598     |   0.4 |  0.35
Modify  | 112.08     | 114.33     | 115.83     |   8.7 | 23.90
Other   |            | 5.126      |            |       |  1.07

Nlocal:        13.5000 ave          19 max           7 min
Histogram: 2 2 3 5 10 19 12 4 5 2
Nghost:        2173.66 ave        2201 max        2144 min
Histogram: 4 5 3 9 8 10 5 13 4 3
Neighs:        4211.70 ave        6023 max        2182 min
Histogram: 3 3 6 5 8 14 12 5 5 3

Total # of neighbors = 269549
Ave neighs/atom = 311.97801
Ave special neighs/atom = 2.0000000
Neighbor list builds = 14291
Dangerous builds = 0

unfix		3
unfix		2
unfix		1

write_data	data.final.${pid}
write_data	data.final.0
System init for write_data ...
PPPM initialization ...
  extracting TIP4P info from pair style
  using 12-bit tables for long-range coulomb (../kspace.cpp:340)
  G vector (1/distance) = 0.37467855
  grid = 24 24 25
  stencil order = 5
  estimated absolute RMS force accuracy = 0.0030259605
  estimated relative force accuracy = 9.1125901e-06
  using double precision FFTW3
  3d grid and FFT values/proc = 2730 288
Last active /omp style is kspace_style pppm/tip4p/omp
WARNING: Not all mixed pair coeffs generated from mixing. Use write_data with 'pair ij' option to store all pair coeffs. (../write_data.cpp:312)

write_restart   restart.lmp.${pid}
write_restart   restart.lmp.0
System init for write_restart ...
PPPM initialization ...
  extracting TIP4P info from pair style
  using 12-bit tables for long-range coulomb (../kspace.cpp:340)
  G vector (1/distance) = 0.37467855
  grid = 24 24 25
  stencil order = 5
  estimated absolute RMS force accuracy = 0.0030259605
  estimated relative force accuracy = 9.1125901e-06
  using double precision FFTW3
  3d grid and FFT values/proc = 2730 288
Last active /omp style is kspace_style pppm/tip4p/omp
Total wall time: 0:08:00
