#include		in.partitions
include		in.temp
variable        temperature equal 90.77
variable	tempDamp equal 100.0
include		in.pressure
variable        pressure equal 8242.7
variable        pressureDamp equal 1000.0 # This is 1 ps
include		in.seed
variable        seed equal 745823

units		real
atom_style	full
read_restart    restart.lmp.${pid}
read_restart    restart.lmp.1
Reading restart file ...
  restart file = 30 Jul 2021, LAMMPS = 30 Jul 2021
  restoring atom style full from restart
  triclinic box = (-3.1171708 0.0023860505 0.023774524) to (14.727170 22.577613 19.206223) with tilt (-0.12263716 -6.7763088 0.18471102)
  2 by 4 by 2 MPI processor grid
  restoring pair style lj/cut/tip4p/long/omp from restart
  restoring bond style harmonic/omp from restart
  restoring angle style harmonic/omp from restart
  1008 atoms
  672 bonds
  336 angles
Finding 1-2 1-3 1-4 neighbors ...
  special bond factors lj:    0        0        0       
  special bond factors coul:  0        0        0       
     2 = max # of 1-2 neighbors
     1 = max # of 1-3 neighbors
     1 = max # of 1-4 neighbors
     2 = max # of special neighbors
  special bonds CPU = 0.001 seconds
  read_restart CPU = 0.005 seconds

include 	in.setup
variable	out_freq equal 1000
variable	out_freq2 equal 10000
variable	out_freq3 equal 1000

timestep	2.0

neigh_modify    delay 7 every 1

include		in.tip4p
# This is TIP4P/Ice

# create groups ###
group ox type 2
336 atoms in group ox
group hy type 1
672 atoms in group hy

# set charges - beside manually ###
set group ox charge -1.1794
Setting atom values ...
  336 settings made for charge
set group hy charge 0.5897
Setting atom values ...
  672 settings made for charge

# ### TIP3P Potential Parameters ###
pair_style lj/cut/tip4p/long/omp 2 1 1 1 0.1577 8.5
pair_coeff 1 1*2 0.000 0.000
pair_coeff 2 2 0.21084 3.1668
bond_style  harmonic
bond_coeff  1 450 0.9572
angle_style harmonic
angle_coeff 1 55 104.52
kspace_style pppm/tip4p/omp 1.0e-5
pair_modify tail yes

thermo          ${out_freq}
thermo          1000
thermo_style    custom step temp pe etotal epair emol press lx ly lz vol pxx pyy pzz pxy pxz pyz enthalpy

restart 	${out_freq3} restart.lmp.${pid} restart2.lmp.${pid}
restart 	1000 restart.lmp.${pid} restart2.lmp.${pid}
restart 	1000 restart.lmp.1 restart2.lmp.${pid}
restart 	1000 restart.lmp.1 restart2.lmp.1


include         in.dump
dump            myDump all atom ${out_freq2} dump.water.${pid}
dump            myDump all atom 10000 dump.water.${pid}
dump            myDump all atom 10000 dump.water.1
dump            myDump2 all dcd ${out_freq2} dump.dcd
dump            myDump2 all dcd 10000 dump.dcd
dump_modify     myDump append yes
dump_modify     myDump2 append yes


variable natoms 	equal  "count(all)"                        # NUMBER ATOMS
variable H      	equal  "enthalpy/v_natoms"                 # ENTHALPY-per-atom
variable Vol      	equal  "vol/v_natoms"                 # volume-per-atom
fix AVG all 		ave/time ${out_freq} 1 ${out_freq} v_Vol v_H file vol_enthalpy.dat
fix AVG all 		ave/time 1000 1 ${out_freq} v_Vol v_H file vol_enthalpy.dat
fix AVG all 		ave/time 1000 1 1000 v_Vol v_H file vol_enthalpy.dat



fix 		1 all shake 1e-6 200 0 b 1 a 1
       0 = # of size 2 clusters
       0 = # of size 3 clusters
       0 = # of size 4 clusters
     336 = # of frozen angles
  find clusters CPU = 0.000 seconds
fix             2 all nph tri ${pressure} ${pressure} ${pressureDamp}
fix             2 all nph tri 8242.7 ${pressure} ${pressureDamp}
fix             2 all nph tri 8242.7 8242.7 ${pressureDamp}
fix             2 all nph tri 8242.7 8242.7 1000
fix             3 all temp/csvr ${temperature} ${temperature} ${tempDamp} ${seed}
fix             3 all temp/csvr 90.77 ${temperature} ${tempDamp} ${seed}
fix             3 all temp/csvr 90.77 90.77 ${tempDamp} ${seed}
fix             3 all temp/csvr 90.77 90.77 100 ${seed}
fix             3 all temp/csvr 90.77 90.77 100 745823


run             250000
PPPM initialization ...
  extracting TIP4P info from pair style
  using 12-bit tables for long-range coulomb (../kspace.cpp:340)
  G vector (1/distance) = 0.37999148
  grid = 24 27 32
  stencil order = 5
  estimated absolute RMS force accuracy = 0.002384542
  estimated relative force accuracy = 7.1809774e-06
  using double precision FFTW3
  3d grid and FFT values/proc = 7875 1344
Last active /omp style is kspace_style pppm/tip4p/omp
Neighbor list info ...
  update every 1 steps, delay 7 steps, check yes
  max neighbors/atom: 2000, page size: 100000
  master list distance cutoff = 10.8154
  ghost atom cutoff = 10.8154
  binsize = 5.4077, bins = 5 5 4
  1 neighbor lists, perpetual/occasional/extra = 1 0 0
  (1) pair lj/cut/tip4p/long/omp, perpetual
      attributes: half, newton on, omp
      pair build: half/bin/newton/tri/omp
      stencil: half/bin/3d/tri
      bin: standard
Per MPI rank memory allocation (min/avg/max) = 12.46 | 12.47 | 12.48 Mbytes
Step Temp PotEng TotEng E_pair E_mol Press Lx Ly Lz Volume Pxx Pyy Pzz Pxy Pxz Pyz Enthalpy 
34750000    92.096447   -5194.6074   -5010.4032   -5194.6074            0    8220.5035    17.844341    22.575227    19.182449    7727.4584    7754.2963    8076.7288    8830.4853   -406.74648   -280.36323    134.83484   -4083.9766 
34751000    89.540101   -5198.2214   -5019.1301   -5198.2214            0    8455.5062    17.825038    22.659312    19.046864    7693.0872    7774.4222    8983.4244    8608.6719    197.78367   -646.01333   -50.769388    -4070.458 
34752000    91.038358    -5200.389   -5018.3011    -5200.389            0    7921.6271    17.801444    22.777635    19.036629    7718.8736    8978.6379    7236.0842    7550.1592   -194.66797    411.10719   -206.11147   -4126.5488 
34753000     88.84142   -5199.1246   -5021.4307   -5199.1246            0    8197.8321     17.76072     22.64116    19.187944    7715.9197    8867.4612    8594.5935    7131.4418    356.06121    608.30735   -614.33585   -4098.9387 
34754000    88.112576   -5204.6541    -5028.418   -5204.6541            0    8137.6058    17.680917    22.744908    19.160623    7705.4605    8770.7716    7711.8006     7930.245     787.6134   -1321.1043    74.448872   -4113.9445 
34755000    88.259403   -5197.0298   -5020.5001   -5197.0298            0    7756.4989    17.889769     22.62282    19.094078    7727.6985    8123.1342    7514.7741    7631.5883    -312.9269    569.73055   -397.39516   -4146.3384 
34756000    89.207092   -5191.8687   -5013.4435   -5191.8687            0    7295.5685    17.749484    22.717556    19.186101    7736.3138    6848.9693     7699.348    7338.3881    618.52504   -144.50496   -274.64919   -4190.3122 
34757000    88.837443   -5200.2211   -5022.5353   -5200.2211            0    7753.6729     17.79395    22.651425    19.144786    7716.4656    8467.3657    8174.7741    6618.8791   -905.91515    108.15498   -560.87265   -4149.9622 
34758000    92.599285   -5202.8442   -5017.6342   -5202.8442            0     7915.029    17.872962     22.52875    19.184542    7724.7608    7962.1102    8681.8715    7101.1054      -107.81   -59.383336   -292.31094   -4125.9451 
34759000    95.929018   -5200.0719    -5008.202   -5200.0719            0    7860.2158    17.747389    22.799755    19.060865    7712.7148     7625.592    7751.6377    8203.4176   -67.231793    140.15331    635.87187    -4124.069 
34760000    90.446573   -5193.2374   -5012.3331   -5193.2374            0    8179.3704    17.747973    22.724109    19.111081    7707.6302    7662.6321    7871.6333    9003.8457    775.47945    146.26071    993.44391   -4092.9074 
34761000    91.643382   -5202.0833   -5018.7852   -5202.0833            0    8725.8031    17.872208    22.565951    19.099601    7702.9334    9235.4435    9046.9438    7895.0219    -240.7619     527.7969   -10.578342   -4038.5339 
34762000    91.905644   -5186.3482   -5002.5256   -5186.3482            0    8261.5248    17.821475     22.57396    19.168627     7711.563    7626.5021    8869.9993    8288.0731   -28.963378   -551.79191    17.305777   -4073.3912 
34763000    92.996612   -5192.1585   -5006.1538   -5192.1585            0    8039.6857    17.786166    22.726858     19.10635    7723.2388    8492.0455    8246.9509    7380.0608    661.56629    981.65488   -249.18569   -4100.5996 
34764000    93.549931     -5200.05   -5012.9386     -5200.05            0    9430.2139     17.77608     22.75933    18.966591    7673.3451     9565.765    8253.2635    10471.613    934.96932   -38.128737    247.61436   -3957.6234 
34765000    91.700397   -5202.6511   -5019.2389   -5202.6511            0    8163.9491    17.854551    22.599142    19.147288    7725.8834    8568.2479    7760.4142    8163.1853    -219.9279    -679.9811    586.15744   -4099.3734 
34766000    90.423783   -5199.1262   -5018.2674   -5199.1262            0    7864.1536     17.75107    22.770323    19.111643      7724.88    10124.773    6760.6318    6707.0561    -687.0738   -723.73254   -574.67007   -4132.2962 
34767000    94.410352   -5205.6884    -5016.856   -5205.6884            0    8051.0514    17.776616    22.702057     19.10231    7709.0381    7155.0878    8136.5538    8861.5125    433.04817   -3.5772898   -510.97656   -4111.6891 
34768000    90.392809   -5207.4895   -5026.6927   -5207.4895            0    8064.4371    17.971979    22.512605    19.085832    7722.0526     7574.983    8206.8488    8411.4793   -321.57195    870.87455    607.57923   -4118.4902 
34769000    92.190302    -5204.379    -5019.987    -5204.379            0    7319.1948    17.765438    22.713451    19.119628    7715.0455    7373.3981    7653.2417    6930.9447   -199.23436   -88.272608   -1495.8071   -4196.4603 
34770000    92.676917   -5205.1914   -5019.8261   -5205.1914            0    8029.1574    17.875538    22.588923    19.103316    7713.7117    7879.2293    7733.6399    8474.6031    279.33376   -1393.3239   -953.39696   -4116.5734 
34771000     89.58261   -5206.3456   -5027.1693   -5206.3456            0    7712.5492    17.765476    22.671058    19.158578    7716.3495    8018.2936    7721.5934    7397.7604   -190.83535   -34.168474    382.38925   -4159.2372 
34772000    92.039189   -5200.4263   -5016.3366   -5200.4263            0    8144.8324    17.713825    22.782346    19.096336    7706.5646     7779.011    8211.8497    8443.6365   -758.89054   -133.34405   -577.31048   -4100.9198 
34773000    89.467905   -5204.3302   -5025.3834   -5204.3302            0     8679.992    17.887184    22.469512    19.142394    7693.6399    7247.7544    9680.1538    9112.0679    491.27804   -79.229331    863.11435   -4051.4549 
34774000    95.306175   -5189.7745   -4999.1504   -5189.7745            0    9053.5501    17.706336    22.745377    19.092273    7689.1703     9168.855     8521.809    9469.9862    191.74574   -4.6502908    746.33122   -3983.8974 
34775000    94.166343   -5193.7526   -5005.4082   -5193.7526            0    8991.4609    17.851077    22.719482    18.964251    7691.2789    8787.1506    8778.4315    9408.8005    479.86988    246.08786    182.36806   -3996.8413 
34776000    94.638615   -5205.2359    -5015.947   -5205.2359            0    7725.1951    17.733846    22.812436    19.119605    7734.8792    8305.6164    7348.9133    7521.0554    66.481094    355.37076   -414.97762   -4144.5042 
34777000    98.979111   -5202.1789   -5004.2084   -5202.1789            0    8776.9142    17.799024    22.604534    19.131809    7697.4663    9452.0036    8748.7256    8130.0133   -436.83153   -198.31023   -258.24579   -4018.9151 
34778000    90.123723   -5202.0262   -5021.7676   -5202.0262            0    8409.8474    17.878456     22.61384    19.035164    7695.9272    8047.2104    8466.8613    8715.4705    533.02806    82.667923   -477.47804   -4077.8699 
34779000    89.780409   -5198.0878   -5018.5159   -5198.0878            0    7611.9643    17.767534    22.697445    19.131916     7715.474    7593.0965    8185.7277    7057.0687   -368.34086    174.51079   -928.84138   -4162.0003 
34780000     97.33128   -5206.5246     -5011.85   -5206.5246            0     8437.938    17.743339    22.805247    19.061384    7713.0216    8941.7816    7743.3507    8628.6818   -468.82021    129.72393   -92.087204   -4062.6958 
34781000     93.21111   -5192.5274   -5006.0936   -5192.5274            0    7480.4616    17.941514    22.583093    19.089645    7734.6448    6645.9457    7541.3162    8254.1229    737.64763    -208.6999    467.18436   -4162.2836 
34782000    90.951635   -5192.8024   -5010.8879   -5192.8024            0    8733.8959     17.85299    22.513949    19.162385    7702.1543    8998.5942     8721.705    8481.3885    915.57355    861.22357    808.56099   -4029.8267 
34783000    90.779713    -5200.447   -5018.8763    -5200.447            0    7788.6051    17.826719    22.774116     19.05786    7737.2578    7248.2807    7986.4839    8131.0506    589.29778    383.92496    1131.9577   -4140.0104 
34784000     88.23456    -5197.591    -5021.111    -5197.591            0    9204.4704    17.732869      22.7092    19.050159    7671.4855    9469.6785    9046.3784    9097.3542    6.2516407   -231.00338   -327.39088    -3991.308 
34785000    92.770108   -5214.6979   -5029.1463   -5214.6979            0    8184.4598    17.783377    22.616068    19.143619    7699.3732    8396.6626    7954.4496    8202.2673    219.10197   -430.01068   -668.71979    -4110.134 
34786000    87.415502   -5203.7735   -5028.9317   -5203.7735            0    8283.1908    17.999209    22.589525     18.99751    7724.2654    6885.2996    8393.5956    9570.6771    391.78131    463.17753    378.77992   -4095.8262 
34787000    90.677144   -5197.3089   -5015.9434   -5197.3089            0    7874.9797    17.751241    22.813849    19.054874    7716.7313    7464.0809    7896.6619    8264.1961    439.02844   -117.75115   -351.76686   -4129.6884 
34788000    88.496724   -5200.6213   -5023.6169   -5200.6213            0    7119.6412    17.740464     22.82235    19.096611    7731.8185    8209.3015    6559.0927    6590.5296    220.82608   -382.98028   -164.74834   -4220.8016 
34789000    93.486534   -5208.5542   -5021.5696   -5208.5542            0    7516.6612    17.895367    22.546675     19.15988    7730.6481    6975.1379    8461.4865    7113.3591   -348.80707    354.81131   -19.254804   -4174.1143 
34790000    88.101439   -5194.9186   -5018.7049   -5194.9186            0    7951.9232    17.753446    22.715217    19.152978    7723.8861    7584.6408    8149.3944    8121.7343    163.17774      629.442    655.07007   -4122.9608 
34791000    88.979287   -5198.7855   -5020.8159   -5198.7855            0    7250.2736    17.764512    22.784893    19.133141    7744.3783    6976.7273    7198.1195     7575.974    80.187423   -288.93606   -1118.4539   -4201.9424 
34792000    92.217398   -5201.2595   -5016.8133   -5201.2595            0    8133.6117    17.922077    22.516975    19.095536    7706.0216    6633.5001    8884.5414    8882.7935    113.89765    535.68824   -257.35212   -4102.7221 
34793000    95.264472   -5202.1726   -5011.6319   -5202.1726            0    8535.9054    17.769335    22.677056    19.122577    7705.5612    9381.9053     8302.451    7923.3599   -211.69091   -245.32192   -334.87732   -4052.3864 
34794000    88.885109   -5204.6106   -5026.8294   -5204.6106            0     8949.072    17.666251    22.791447    19.119665    7698.3308    9263.9268     9042.828    8540.4611   -256.05446    69.053346   -81.167291   -4022.0968 
34795000    87.514339    -5201.687   -5026.6475    -5201.687            0    9094.2251    17.863805    22.494317     19.11745    7682.0433    9195.8228    9022.2254    9064.6272    101.13442   -115.00585    809.20395   -4007.7785 
34796000    85.159945   -5196.9647   -5026.6343   -5196.9647            0    7645.9358     17.84157    22.590068    19.167138    7725.1669    7736.5819    8410.5555    6790.6698    293.50606    851.16548    386.21261   -4165.2154 
34797000    94.101926   -5203.6274   -5015.4119   -5203.6274            0    8910.3015    17.672578    22.723274    19.154808    7692.1656    10587.211    8633.6134    7510.0799   -695.30905    450.16374    60.752081   -4015.8334 
34798000    90.371342   -5206.2753   -5025.5215   -5206.2753            0    7894.5134    17.781612     22.70325     19.11813    7717.9964    8071.7098    8520.4272     7091.403   -251.53391    889.25596    655.86962   -4136.9225 
34799000    94.304026   -5203.2412   -5014.6215   -5203.2412            0    7651.4942    17.775433    22.634909    19.202259    7725.9388    8002.9534    8281.1336    6670.3957    24.163657   -39.746032    1089.7317   -4152.4902 
34800000    88.747521   -5203.8585   -5026.3525   -5203.8585            0    8501.3867    17.865596    22.596594    19.096306    7709.2093    8234.0126    8882.4154    8387.7321    445.95911    305.41135    287.97635   -4070.5338 
34801000    92.223803   -5178.2479   -4993.7889   -5178.2479            0    9194.2219    17.721658    22.789637    19.068576    7701.2284    9673.9965    8743.8903     9164.779   -552.46784    282.46338   -454.54242   -3961.1443 
34802000    86.306073   -5197.1607   -5024.5379   -5197.1607            0    7834.8942    17.872588    22.738796    19.006397    7724.2212    6680.4154    7758.4433    9065.8238   -232.83793   -123.50915    515.47946   -4141.9383 
34803000    86.535757   -5205.0686   -5031.9864   -5205.0686            0     8036.053    17.819341    22.743513    19.043266    7717.7481     6966.877    8110.8165    9030.4654    320.48992    766.51666     98.86318   -4127.4849 
34804000    92.396309   -5190.2825   -5005.4785   -5190.2825            0    8635.7113     17.72088    22.830478    19.070097    7715.3069    8889.3731     8155.207    8862.5537   -54.087715    317.90666    620.54254   -4033.7896 
34805000     90.40058   -5195.3936   -5014.5812   -5195.3936            0    8031.3272    17.833925    22.727437    19.032553    7714.2629    7678.5061    8568.5825    7846.8931   -319.69128   -193.35841   -163.52343   -4111.0199 
34806000    96.306944   -5197.2574   -5004.6316   -5197.2574            0    7548.5627    17.866193    22.634477    19.136249    7738.5445     8073.892    7690.6982    6881.0979    300.71098    18.563842    147.46398   -4152.7104 
34807000    85.847237   -5198.3473   -5026.6422   -5198.3473            0    8755.1358    17.724312    22.712965    19.097185    7687.9855     8518.971    8613.1151    9133.3212    122.77944    121.75845    176.00261   -4045.0043 
34808000    89.712731   -5198.7344   -5019.2979   -5198.7344            0    7843.1549    17.844417    22.755263    19.016417       7721.7    6698.3702     7918.387    8912.7073   -340.76212   -67.744395    1186.6698   -4136.0561 
34809000    86.796138   -5188.7644   -5015.1614   -5188.7644            0    8511.0447    17.816214    22.618277    19.088419    7692.0999     8297.939    8993.8341    8241.3611    872.90233   -447.00117    398.19496   -4060.3806 
34810000    92.303127   -5205.1574   -5020.5397   -5205.1574            0    7502.0894    17.867841    22.675825    19.078142    7729.8532    7281.0519    7577.1318    7648.0845    1527.2734   -54.451046    1024.3287   -4174.8143 
34811000    90.758486   -5194.5803   -5013.0521   -5194.5803            0    7800.8555    17.857886    22.600229    19.132045    7721.5465    7721.4265    7953.8952    7727.2447   -490.85627   -158.91847    289.61839   -4134.5913 
34812000    97.722816   -5197.6498   -5002.1921   -5197.6498            0    6907.5338    17.751579    22.824462    19.083837     7732.203    6427.0394    6594.2325    7701.3296    301.78247    84.213113    1258.0156   -4223.2554 
34813000    94.648198   -5193.4799   -5004.1718   -5193.4799            0    8578.1058    17.778847     22.69744    19.063193    7692.6528    8924.4774    9021.4409    7788.3992    168.30854    645.52421     250.5864   -4041.7988 
34814000    88.411902   -5199.2729   -5022.4382   -5199.2729            0    8440.6142    17.905163    22.511949    19.146742    7717.6711     8453.192    8837.3209    8031.3296   -704.03867    486.94942    467.59439   -4072.4106 
34815000    88.146894   -5204.5412   -5028.2365   -5204.5412            0    7430.5124    17.806469     22.73284    19.087749    7726.5604    7999.3619    7239.0292    7053.1461    226.50261   -146.88082    555.58385   -4190.9369 
34816000    93.050825   -5189.6213   -5003.5081   -5189.6213            0    8027.9397    17.789423    22.500951    19.263947    7710.9524     7948.182    8356.0787    7779.5584    432.10766      222.211   -842.32617   -4100.7155 
34817000    91.309449    -5201.226   -5018.5958    -5201.226            0    8841.7323    17.727299    22.768913    19.021853    7677.8157    9535.3136    8280.3005    8709.5828    238.89418   -397.60196   -61.855813     -4028.56 
34818000    94.358925   -5207.0734   -5018.3439   -5207.0734            0    7380.9567    17.863993    22.574798    19.149425    7722.5038    6382.9691    7862.0766    7897.8245    304.84786    118.48537   -268.07612   -4187.0651 
34819000    88.550237   -5209.9868   -5032.8754   -5209.9868            0    7727.4398    17.895956    22.641267    19.084459    7732.7773    7460.4469    7496.6185    8225.2541    755.21361     -738.439    553.28484   -4161.4163 
34820000    90.471982   -5191.9099   -5010.9548   -5191.9099            0    8530.6718    17.784529    22.771877    19.006214    7697.2718    8391.9219     8990.461    8209.6326   -766.33723    109.29445   -111.59118   -4053.3288 
34821000    92.099008   -5205.1534    -5020.944   -5205.1534            0    7115.4817     17.81178    22.573299    19.270199    7747.9814    6387.7228    7979.3813    6979.3409    1008.0998     1289.144    165.67231   -4216.9205 
34822000    94.539591   -5187.9809     -4998.89   -5187.9809            0    8349.7309    17.754851    22.822502    19.002581    7700.0382    8843.3738    7529.8839    8675.9349    278.76394   -379.17411    270.94562    -4061.239 
34823000    87.655984    -5211.307   -5035.9842    -5211.307            0    7467.1863    17.834729    22.672273    19.104627    7725.0293     7511.298    7495.4489     7394.812    193.64523   -358.36927   -58.473402   -4194.7188 
34824000    87.498005   -5206.7876   -5031.7808   -5206.7876            0    8185.2873    17.879221     22.49574    19.164999    7708.2836    7845.7875    8475.6268    8234.4476    668.20659    218.30232   -392.90777    -4111.612 
34825000    89.600153   -5204.1785   -5024.9671   -5204.1785            0    7434.1463    17.844846    22.860924    18.949487    7730.4371    7365.9522    6727.9701    8208.5166    -434.0545   -555.39558   -988.34959   -4186.8378 
34826000     91.58847   -5194.7763   -5011.5881   -5194.7763            0    9013.9932    17.860576     22.62235    19.054733    7699.0307    8180.3011    9085.5888    9776.0898      45.4662    295.95923   -586.84781   -3999.4747 
34827000    84.855263   -5203.8268   -5034.1058   -5203.8268            0    8823.5704    17.758842    22.706037    19.101412    7702.3182    9038.1437    8613.0465    8819.5209   -262.87647   -259.66242    1372.3917   -4042.9505 
34828000    96.232598   -5192.7626   -5000.2855   -5192.7626            0    8668.9666    17.789427    22.761756    19.010947     7697.886    7476.6751     9395.788    9134.4367   -359.87427    597.28119   -119.91864   -4027.0573 
34829000    92.422656   -5209.7217    -5024.865   -5209.7217            0    8591.9064    17.880893    22.481429    19.174328    7707.8504    8977.5773    8976.7682    7821.3737    468.46607    -485.9641   -748.65958   -4059.0394 
34830000    93.822265    -5196.739   -5009.0829    -5196.739            0    8003.0605    17.866033    22.602454    19.122928    7722.1481     7860.753    8141.0416     8007.387   -209.47904   -532.70941    276.47074   -4107.7813 
34831000    88.368341   -5193.0573   -5016.3097   -5193.0573            0    8502.9649    17.806106    22.776126     19.00694    7708.3426    7943.8024    8803.1276    8761.9647     526.0995    393.72129   -40.844258   -4060.4211 
34832000    90.413227   -5208.0341   -5027.1964   -5208.0341            0    9395.7059    17.699464    22.860955    18.985694    7682.1175    9080.4288    9212.0684    9894.6204   -674.75165    65.304169    103.41452    -3974.541 
34833000    89.378661   -5191.0669   -5012.2985   -5191.0669            0    8671.8287    17.883837    22.535616    19.128776    7709.3424    7947.3347    9250.8074    8817.3441    380.84644    71.642979    678.72377   -4037.3001 
34834000    91.751241   -5189.0447   -5005.5309   -5189.0447            0    7233.2926    17.773397    22.684496    19.174158    7730.6476    8539.7438    6244.4066    6915.7274    480.17891   -843.00993    491.87857   -4190.0237 
34835000     88.59296   -5201.1852   -5023.9883   -5201.1852            0    8691.3452    17.780453    22.793458    18.983893    7693.7545    7719.5859    8540.5631    9813.8865    218.25903    336.85232    527.86769   -4048.7714 
34836000    90.544982   -5207.8295   -5026.7284   -5207.8295            0     7911.629    17.829028     22.63862    19.155635    7731.6856    9291.6955    7602.7132    6840.4783   -319.31672   -243.88114   -39.955457   -4134.6233 
34837000    88.209652   -5199.2398   -5022.8096   -5199.2398            0    8228.8086    17.821352    22.555826    19.182926    7711.0627    8570.2734    8828.1948    7287.9576   -641.91127    589.50178   -450.35683   -4097.4148 
34838000    93.953878   -5210.8637   -5022.9443   -5210.8637            0    7144.0449    17.847261    22.720747    19.095535    7743.2984    6930.5544    7050.6283    7450.9519     0.422918    629.13194   -864.91022   -4216.1812 
34839000    86.515989   -5212.9605   -5039.9178   -5212.9605            0    7066.5015     17.80678    22.703427     19.11989    7729.6921    7719.5593    6674.9181    6805.0271    275.07233   -148.63842    58.437024   -4243.3137 
34840000    87.019762   -5195.2457   -5021.1954   -5195.2457            0    8279.8321    17.766228    22.786399    19.062573    7717.0704    7898.7777    8317.6527    8623.0657   -599.35038    1342.0163    428.10061   -4089.3371 
34841000    88.236793   -5206.3589   -5029.8745   -5206.3589            0    6291.6518    17.843416    22.719631    19.153131    7764.5998    5109.1153    6874.5753    6891.2647   -2.9058041    684.87032    230.73038   -4317.4158 
34842000    90.138306   -5202.1548   -5021.8671   -5202.1548            0    8048.5994    17.901011    22.519542    19.128746    7711.2291    7659.6149    8858.7051    7627.4781   -729.50843   -242.69915   -1057.3065   -4116.7186 
34843000    88.501893   -5189.5321   -5012.5173   -5189.5321            0     7762.451    17.837078    22.627479    19.137748      7724.15    8105.0315    7954.6675     7227.654   -557.99761   -347.57571   -610.09125   -4138.0865 
34844000     84.79309   -5190.7204   -5021.1237   -5190.7204            0    8138.1365    17.786926    22.742437    19.106791    7729.0418    8274.8137    8599.6569    7539.9388    463.86294    397.82159    526.67188   -4103.7918 
34845000    85.811147   -5204.8774   -5033.2445   -5204.8774            0    8034.0386    17.749825    22.878932    19.000773    7716.1577    8504.1125      7151.59    8446.4133   -280.25673   -47.160871   -1530.1006   -4129.1561 
34846000    93.918938   -5206.2424   -5018.3929   -5206.2424            0    6610.8876    17.860911    22.672653    19.108751      7738.17    7292.3123    6387.1072    6153.2433    155.46627   -448.15947   -400.84673   -4272.3326 
34847000    92.642241   -5202.0916   -5016.7957   -5202.0916            0    8692.7519    17.861233    22.485102    19.143676    7688.3232    8726.3025    9406.1724    7945.7808   -640.60312    51.827506   -547.32092   -4042.1095 
34848000    88.669365   -5193.3125   -5015.9628   -5193.3125            0     8852.668    17.718724    22.775635    19.049454     7687.506    9508.9027    8575.4531    8473.6482    429.89221    329.77644    247.23348   -4023.4513 
34849000    89.797891   -5197.9724   -5018.3655   -5197.9724            0    8889.7379    17.723454    22.871664    18.971574    7690.4101    8620.7334    8760.1666    9288.3137    187.94594    881.23849    31.186654   -4021.3215 
34850000    90.432879   -5203.6798   -5022.8029   -5203.6798            0    8780.3131    17.975265    22.504156    19.079738    7718.1005    7414.9109    8780.7557    10145.273   -335.52542   -331.58076   -1637.0708   -4034.4857 
34851000    86.182322   -5208.1639   -5035.7886   -5208.1639            0    7682.2997     17.85608    22.513699    19.182197    7711.3658    7759.3736    8273.2272    7014.2983    582.87744   -170.05573    370.18498   -4171.8191 
34852000    91.892434   -5202.5643   -5018.7681   -5202.5643            0    7277.9209    17.708322    22.964873    18.985082    7720.6515    7307.9649    6768.8633    7756.9343    506.96673    62.771888    581.79838   -4199.2903 
34853000    91.420999   -5198.9051   -5016.0518   -5198.9051            0    7857.3292    17.872746    22.660013    19.073264    7724.6083    7817.9865    8182.6751    7571.3259   -276.38424    209.71262   -799.78511   -4130.8805 
34854000    89.674228   -5186.9803   -5007.6207   -5186.9803            0    9932.3685    17.757033    22.597605    19.114547    7670.0257    9977.3743    10154.732    9664.9989    655.10061   -462.29695    658.03963   -3896.5914 
34855000    95.824958   -5193.7957    -5002.134   -5193.7957            0    8780.2813    17.864341    22.523739    19.147218    7704.2995    9275.8295    8603.8687    8461.1456   -194.43063   -909.05675   -115.07049   -4015.5877 
34856000     84.82495   -5195.4629   -5025.8025   -5195.4629            0    8353.8337    17.686518    22.724874    19.119799     7684.704    8721.1248    9248.7761    7091.6002     -354.092    173.16061   -93.379379   -4089.5589 
34857000    93.292127   -5205.5118    -5018.916   -5205.5118            0    7471.8153    17.782856    22.785074     19.08663    7733.5912    7280.3449    7842.8221    7292.2789     871.3177    497.69553   -342.89302   -4176.1961 
34858000    94.536937   -5202.6672   -5013.5816   -5202.6672            0    7876.4293     17.84531    22.572222    19.150118    7713.8266     7411.142    8496.3913    7721.7547   -659.49513   -260.79749   -920.80459   -4127.4971 
34859000    91.281884   -5202.6156   -5020.0405   -5202.6156            0    9332.2647    17.764396    22.624135    19.142425     7693.419    10024.456    9193.7057    8778.6328   -234.84518   -137.61941   -159.50285   -3972.9546 
34860000    94.977781   -5197.5505   -5007.5832   -5197.5505            0    9463.8641    17.709203    22.785719     19.01624    7673.3747    9415.4604    9418.3953    9557.7367    667.20098    905.39552   -500.67728   -3948.4983 
34861000     91.99885    -5186.652    -5002.643    -5186.652            0    8220.7728    17.892914    22.667448     19.01084    7710.5437    8297.9101     7814.694    8549.7142    -145.9428    -354.3868   -453.64603    -4078.214 
34862000    85.352177   -5187.0185   -5016.3036   -5187.0185            0    7737.9798    17.823299    22.488904    19.282249    7728.8354    7648.1843     8250.394    7315.3612    244.15544   -899.82955     893.4498   -4144.1007 
34863000    89.212725   -5198.9601   -5020.5237   -5198.9601            0    9065.1776     17.78092    22.747423      19.0127    7690.0689    9639.3709    8588.8731    8967.2889    28.837684    173.91384   -326.78303    -4003.848 
34864000    92.547048   -5198.7298   -5013.6242   -5198.7298            0    8402.4594    17.832848    22.701895    19.044508    7709.9679    7372.5242    9110.7516    8724.1023    490.52923    792.96245    674.06289   -4068.8351 
34865000    88.611038   -5193.8702   -5016.6372   -5193.8702            0    8950.4004    17.780293    22.670289    19.091201     7695.365     10264.02    8436.5201    8150.6616    29.705459   -381.67928   -294.92439   -4012.1427 
34866000    86.530311   -5203.3478   -5030.2765   -5203.3478            0    8434.4668     17.82351    22.654965    19.099652    7712.2679    6846.1414     8944.888     9512.371    1219.5323    1343.7643     1175.816   -4081.6055 
34867000    88.403178   -5210.6871   -5033.8698   -5210.6871            0    7362.9274    17.782298    22.809982    19.073198    7736.3541    7081.6412     6594.464     8412.677   -49.840432   -161.01338    1065.2507   -4203.1343 
34868000    87.483185   -5202.6391    -5027.662   -5202.6391            0    7836.3667    17.799392    22.721931    19.133284    7738.1997    8183.0058    7031.7358    8294.3585    557.89633     8.447207   -800.57871   -4143.2989 
34869000    88.348619   -5199.1039   -5022.3958   -5199.1039            0    8931.5464    17.684936    22.649296    19.154922    7672.5296    10079.641    8946.1178      7768.88    396.07708   -259.63503    1575.7908   -4022.9917 
34870000    91.150164   -5199.3917   -5017.0802   -5199.3917            0    9026.5261    17.750543    22.727361    19.057342    7688.1701    8811.7558    8917.5655     9350.257    141.65639   -837.78362   -26.269037   -4004.9893 
34871000    89.018896   -5202.6138    -5024.565   -5202.6138            0     9037.282    17.837222    22.593976    19.061713    7682.1331    9032.1351     8971.788    9107.9228    675.22283    261.09186   -326.48967   -4012.0638 
34872000    90.615978   -5186.7859   -5005.5427   -5186.7859            0    9748.9059    17.719854    22.695178    19.087103    7675.9788    9849.8371    9885.2425     9511.638   -215.57341   -878.75851   -518.53803    -3914.189 
34873000    90.487696   -5201.1091   -5020.1225   -5201.1091            0    7948.8796    17.835445    22.727172    19.050927    7722.2783    8625.6051    7378.9183    7842.1154     -634.959   -75.536899   -427.16802   -4124.9077 
34874000    91.641295   -5196.0873   -5012.7934   -5196.0873            0    8382.9568    17.808748    22.693269    19.049581    7698.6732    8301.3472    7988.4107    8859.1125    -249.8841   -1005.3592   -511.75212   -4071.5781 
34875000    93.460025    -5198.609   -5011.6774    -5198.609            0    8370.7554    17.819751    22.764703    19.023831    7717.2326    7980.5239    8656.2276    8475.5147    675.22276    525.42273   -891.09301   -4069.5663 
34876000    92.404986   -5210.4442   -5025.6228   -5210.4442            0    8573.0869    17.915115    22.547155    19.091557     7711.746    7336.0993    8688.0241    9695.1374    298.25099   -59.021091   -14.278687   -4061.4257 
34877000    86.856608   -5199.4216   -5025.6977   -5199.4216            0     7943.198    17.795731    22.749968    19.050175    7712.5076    7451.0193    7428.2924    8950.2822   -347.93616    56.515496   -318.63506   -4132.2546 
34878000    89.170557   -5201.9453   -5023.5932   -5201.9453            0    8094.4154    17.774697    22.799573    19.005972    7702.2746    9268.8106    7637.2532    7377.1824    831.95811    139.02069     1110.329   -4114.3493 
34879000    95.505712   -5199.2398   -5008.2166   -5199.2398            0    6559.5871    17.792953    22.632505    19.269031    7759.6212    7832.9501     6403.423    5442.3882    95.615344   -280.80443   -76.255286   -4265.8936 
34880000    85.576336   -5204.2085   -5033.0453   -5204.2085            0    8045.0732    17.943218     22.54528    19.091598    7723.2176    6847.0226    9105.4186    8182.7783   -1050.4967    762.05922   -279.32832   -4126.8868 
34881000    87.195571   -5205.8006   -5031.3987   -5205.8006            0      7351.31    17.761534    22.916017    18.957781    7716.2646    7792.6427    7005.0565    7256.2309   -514.29548    8.4820135    31.285031   -4204.1278 
34882000    94.719597   -5196.1107   -5006.6598   -5196.1107            0    8641.7023    17.800154    22.591354     19.14213     7697.617    8903.9998    8727.2455    8293.8616    1233.5136    -448.5584   -645.39111   -4036.5264 
34883000    86.686015   -5185.4012   -5012.0184   -5185.4012            0    8603.1663    17.924511    22.454559    19.169803    7715.5961    8811.1058    8977.2228    8021.1702    2.8824261    507.03689    659.74735   -4043.9553 
34884000    84.479014   -5198.3488   -5029.3803   -5198.3488            0    7993.8132    17.710202    22.844785    19.063244     7712.717    9049.4155    7306.3621    7625.6619   -846.39988   -438.72329   -1357.3881   -4130.2197 
34885000     85.57736   -5195.6196   -5024.4544   -5195.6196            0     8637.126    17.845916    22.668589     19.05695    7709.3317    8537.7325    8805.8189    8567.8267    254.73388    573.51561   -746.96166    -4053.359 
34886000    90.846559   -5194.6923   -5012.9879   -5194.6923            0    7927.2755     17.79472     22.66973    19.144185    7722.7931    7554.8881    8093.0439    8133.8946     566.5618    297.34811    345.88592   -4120.1467 
34887000    91.888035   -5206.1623   -5022.3749   -5206.1623            0    8358.6691    17.685945    22.780414    19.126557    7705.9586     9170.733     8327.795    7577.4793    26.707911    943.98378    426.89377   -4082.9984 
34888000    89.741932   -5199.3515   -5019.8566   -5199.3515            0    7762.0328    17.940837    22.507699    19.119364    7720.5325    6862.9067    8056.2841    8366.9075    420.21384    284.45242   -390.58589   -4145.8824 
34889000    86.615018   -5202.2413   -5029.0005   -5202.2413            0    8512.8712    17.780975    22.604034    19.137319    7691.7049    8365.6237     8804.755    8368.2348    138.17971   -515.95241    1423.4507   -4074.0639 
34890000    90.166592   -5190.2416   -5009.8973   -5190.2416            0    9391.6051    17.745714    22.746037    19.031553    7681.9847    9090.1614     9310.698    9773.9558   -681.47632    57.238826   -555.64554   -3957.7194 
34891000    88.713462   -5202.3246   -5024.8867   -5202.3246            0    8013.9946    17.897956    22.746226    18.959968    7718.8109     7336.354    7519.7539    9185.8759    909.53011     324.9495    417.98885   -4122.7438 
34892000    90.104829   -5199.2323   -5019.0115   -5199.2323            0    7392.0863     17.80934    22.623489    19.163009    7720.9571    7777.2849    7738.1104    6660.8636     -101.612   -9.3725607    877.71833    -4186.646 
34893000    88.158446   -5201.9908   -5025.6631   -5201.9908            0    8038.1965    17.799932    22.673423    19.103015    7709.6975    8754.0055    7726.0639      7634.52    748.64395   -85.560675    664.28802   -4121.8641 
34894000    93.112024    -5205.673   -5019.4374    -5205.673            0    7566.8877    17.748964    22.811117    19.079255    7724.6883    7182.6289    7911.0882    7606.9461    827.14519    90.921803   -790.87501   -4166.9771 
34895000    86.785702   -5197.4942   -5023.9121   -5197.4942            0    7811.6945    17.810927    22.755291    19.070839    7729.2739    6820.1249     7672.469    8942.4895    98.440776    157.39144    241.98258   -4143.3503 
34896000    92.633105   -5211.0621   -5025.7844   -5211.0621            0    8122.1002    17.855195    22.515088    19.214588    7724.4815    9047.5449    7701.1787    7617.5769   -950.68593    302.32918   -1174.4634   -4110.8003 
34897000    86.391187   -5200.1905   -5027.3975   -5200.1905            0    9331.7884    17.694004    22.775208      19.0849    7690.9213    9733.8922    8883.2667    9378.2063   -359.64338   -183.46542   -679.63156   -3980.7049 
34898000    89.093308   -5201.3299   -5023.1323   -5201.3299            0    8748.8164    17.737971    22.757471    19.095536    7708.3209    9232.1828    8558.7983    8455.4681    513.73226    742.28035   -745.71078   -4039.6082 
34899000    91.441795    -5194.522   -5011.6271    -5194.522            0    8368.9734    17.888486    22.661809    19.039728    7718.4288    8327.0265    8225.6373    8554.2565    130.18769    -419.1364    773.19464   -4069.5706 
34900000    90.096841   -5209.3064   -5029.1016   -5209.3064            0    7218.7137    17.881152    22.616253    19.163029    7749.6181     8127.892    6545.5851    6982.6641   -515.66394    115.76563   -285.10692   -4213.2409 
34901000    91.705431   -5186.6768   -5003.2546   -5186.6768            0    9151.0252    17.763729    22.689495    19.134705    7712.2438    9586.5187    8948.3448     8918.212    245.69095   -228.66281   -141.43422   -3973.9915 
34902000    90.855124   -5198.7693   -5017.0479   -5198.7693            0    8508.5331    17.712024    22.872494    19.037887    7712.5937    7598.8256    8499.1271    9427.6466    332.65016    1061.5114    69.952143   -4060.0058 
34903000    93.493225   -5198.5817   -5011.5837   -5198.5817            0    8528.6741     17.82241    22.668753    19.076004    7706.9307    8400.0916    8543.9785    8641.9522    2114.5866    774.27147   -337.43005   -4052.9805 
34904000    87.320476   -5197.7514   -5023.0997   -5197.7514            0    7786.3972    17.823824    22.706274    19.111335    7734.5986    8115.6754    7570.9991    7672.5172    127.09561   -305.68199     639.4216   -4144.7849 
34905000    88.907083   -5200.1989   -5022.3738   -5200.1989            0    8520.4823     17.80636    22.586872    19.152432    7702.9162     8541.581    9322.2671    7697.5989   -1327.9727    292.44715   -1499.6855   -4065.1902 
34906000    90.257054   -5209.5335   -5029.0083   -5209.5335            0    8825.1313    17.743744    22.806495    19.017929    7696.0347    9063.8645     8321.915    9089.6144    708.95793    149.41732     303.6404   -4038.4864 
34907000    90.420138   -5201.6956   -5020.8442   -5201.6956            0    8134.4488    17.801552    22.595287    19.190999    7719.2183     8678.163    8195.4168    7529.7665    290.18999    70.336438    1267.5579   -4105.0933 
34908000    90.200432   -5208.6822   -5028.2702   -5208.6822            0    8653.1001    17.820313    22.613464    19.088815     7692.392    7917.8798    9250.9043    8790.5164   -970.24383    423.22381   -1040.9176   -4057.5166 
34909000    90.320238   -5207.9948   -5027.3431   -5207.9948            0    8199.0803    17.683241    22.725766    19.192864    7712.9439    8544.8281    8369.4649    7682.9478    184.58863    463.94584    178.08677   -4105.0665 
34910000    93.669236   -5206.0553   -5018.7053   -5206.0553            0     7982.623    17.806344    22.766222    19.045271    7720.6325    7632.8627    7624.2374    8690.7688   -510.78371   -4.2539535    534.90937   -4119.8818 
34911000    89.228667    -5206.917   -5028.4487    -5206.917            0    7899.6164    17.886637    22.627224    19.079481    7721.9419    7405.9791    8768.4428    7524.4273   -712.44569   -110.24292    694.02541   -4138.8207 
34912000    86.210615   -5186.4776   -5014.0457   -5186.4776            0    9557.0908    17.767899    22.692732    19.028868     7672.481    9633.7151    9541.7109    9495.8464    863.46573    375.19074    53.274403   -3944.6525 
34913000    87.262454   -5193.4324   -5018.8967   -5193.4324            0    9564.2211     17.69742    22.650069    19.152182      7677.11    10152.132    9632.8611    8907.6704    268.17217    325.86159   -180.80732     -3948.06 
34914000     89.48155   -5202.7422    -5023.768   -5202.7422            0    8030.9353    17.802195    22.633701    19.107438    7698.9513    7457.8429    8499.4051    8135.5579   -432.50236   -364.36303    1924.7986   -4122.0441 
34915000     87.58969   -5197.7502     -5022.56   -5197.7502            0     8348.541    17.737547    22.690534    19.167907     7714.592    8736.9719    8218.7237    8089.9273    253.99788    90.951861     710.2352   -4083.2706 
34916000    94.442472   -5196.5111   -5007.6145   -5196.5111            0    8216.5979    17.844748    22.593081    19.165104    7726.7537    7515.1561    8594.0021    8540.6355    134.27828    117.13153    -1098.176   -4081.7125 
34917000    89.609023   -5199.2629   -5020.0338   -5199.2629            0    9086.2028    17.753371    22.683201     19.09408    7689.2485    10036.114    8619.1847    8603.3102   -592.42193   -820.67305   -1061.8214   -4001.1088 
34918000    93.264567    -5200.971   -5014.4303    -5200.971            0    7676.1401    17.797929    22.769962    19.074982     7730.292    7234.9077     8023.384    7770.1284    120.71226   -284.83395    -85.46947   -4149.0347 
34919000    91.709151   -5187.5789   -5004.1493   -5187.5789            0    8947.9735    17.796749    22.614311    19.135976    7701.4881    8858.3487    9542.4478    8443.1241   -264.91321    31.688172   -729.83393   -3999.1281 
34920000    90.983033   -5199.3947   -5017.4174   -5199.3947            0    8612.0507    17.861298    22.505977    19.166503     7704.665    8977.7454     8446.915    8411.4916   -178.75032    219.47647    660.79791   -4049.7275 
34921000    95.586665   -5206.6713   -5015.4862   -5206.6713            0    7922.7887    17.761677    22.719984    19.094019    7705.2961    8313.3289    7774.7938    7680.2433    1541.9062    -1219.666    267.32218    -4125.172 
34922000    91.601791   -5211.4786   -5028.2637   -5211.4786            0    7802.2415    17.722501    22.796325    19.103207    7717.8463    7768.4161    7502.0785      8136.23    260.45221   -604.95415   -268.03091   -4150.0678 
34923000    86.572108   -5200.0566   -5026.9016   -5200.0566            0    9532.8872    17.825652    22.531674    19.113445    7676.7578    10096.384    9147.3089    9354.9683    34.408524   -10.261124    -13.65224   -3959.6221 
34924000    88.422481   -5202.0657   -5025.2098   -5202.0657            0    7693.8114    17.719129    22.851131    19.061833    7718.1771     6913.665     7707.829    8459.9401   -451.99693   -189.19144     303.3493   -4159.1814 
34925000    91.376878   -5211.4304   -5028.6653   -5211.4304            0    6621.8247    17.778155    22.729009    19.156918    7740.9246    6365.0173    6643.6546    6856.8021    1166.4755    22.380111   -189.33756   -4281.1047 
34926000    89.486567   -5201.5776   -5022.5934   -5201.5776            0     7882.179     17.78896    22.699469    19.119789    7720.5697    7392.3473      8095.92    8158.2695   -495.43944    213.87044   -416.73785   -4135.0869 
34927000    96.002469   -5201.9966   -5009.9798   -5201.9966            0    8341.6452    17.865002    22.645919    19.047256     7705.937    7736.6755    8814.6182     8473.642   -519.41574   -190.93214   -661.52679   -4072.5192 
34928000    91.716935   -5196.7575   -5013.3123   -5196.7575            0    9168.3293    17.781795    22.640179    19.102286    7690.2559    9578.4275    9194.1221    8732.4384    234.73951    123.00936    583.42576   -3985.0429 
34929000    89.264983   -5191.2002   -5012.6592   -5191.2002            0    8732.3481    17.736153    22.697976    19.153986    7710.9118     8489.617    8744.9119    8962.5152   -765.05691    -430.9538    443.56503   -4030.6565 
34930000    89.016643   -5196.4132    -5018.369   -5196.4132            0    8219.4714    17.816663    22.658519    19.128208    7722.0426    8540.0221    7872.8755    8245.5165    280.65543     605.6695    433.22705    -4092.708 
34931000    88.805137   -5201.4077   -5023.7865   -5201.4077            0    8248.5315    17.715356    22.671568    19.162318    7696.2557    9353.1322    7767.7048    7624.7575   -254.38109   -301.49548    53.731871   -4097.9549 
34932000    94.094861   -5206.4911   -5018.2898   -5206.4911            0    7422.8973    17.921117    22.587996    19.091282    7728.1913    7113.6372    8133.6418    7021.4129    611.89152     45.25451     1391.076   -4181.6718 
34933000    86.258684   -5201.7574   -5029.2294   -5201.7574            0    8138.0085       17.856     22.85496    18.916438    7719.7632    6879.8832    8191.5277    9342.6146   -121.34098    517.95695    529.79712   -4113.0131 
34934000    87.790235   -5205.8412   -5030.2499   -5205.8412            0    8092.9457    17.680515    22.763026    19.154768    7709.0668     8059.575    7956.2158    8263.0464   -341.84487    -164.3273    29.591849   -4120.3695 
34935000    92.379736    -5196.537   -5011.7662    -5196.537            0    7955.7792    17.710231    22.826629    19.111301    7726.0277    8453.7992    7347.9029    8065.6353   -2.6102301     90.08042   -479.45139   -4115.3393 
34936000    90.714697   -5197.5462   -5016.1056   -5197.5462            0    8299.0112    17.901337    22.510383     19.15533    7718.9455    9135.0672    8614.3695    7147.5968    -1485.811   -375.21143   -209.45606   -4081.8619 
34937000    91.202063   -5210.8969   -5028.4815   -5210.8969            0    7796.8581    17.765054    22.683248    19.175906    7727.2982    7271.6579    8191.9024    7927.0139    157.26086    264.95267   -90.796865   -4149.8167 
34938000    88.622299   -5186.5086    -5009.253   -5186.5086            0     8947.139    17.579978    22.853705     19.13778    7688.9407    11228.738    7111.4336     8501.245    111.17214   -698.87222    91.127363   -4005.9628 
34939000    82.653033   -5194.8768   -5029.5605   -5194.8768            0     8355.107    17.775003    22.660296    19.130185    7705.3868    8817.7498    8378.9169    7868.6541   -20.298501   -31.154454    83.182365    -4090.654 
34940000    93.703897   -5190.9535   -5003.5342   -5190.9535            0    8469.8864    17.845948    22.605381    19.136052    7719.7599    7438.1919    8343.9158    9627.5516   -314.21769   -21.325536    1762.5524   -4049.9539 
34941000    93.107425   -5200.5926   -5014.3662   -5200.5926            0    8383.0044    17.747832    22.684139    19.139365    7705.3986    8203.1384     7923.942     9021.933    260.36687    118.91911    -113.7361   -4072.3233 
34942000    91.826262   -5198.2006   -5014.5367   -5198.2006            0    8318.8474    17.724371    22.770988     19.08889    7704.3035     8757.587    7877.3655    8321.5896   -215.48649    214.75481   -647.53893   -4079.8363 
34943000    92.329191   -5208.1013   -5023.4315   -5208.1013            0    8127.6991    17.781238    22.658083    19.161024    7719.7609    7987.4693    7989.7332    8405.8946   -774.44069   -513.34146    1236.6182   -4108.3762 
34944000    93.379813   -5201.3599   -5014.5888   -5201.3599            0    8075.2262    17.872466    22.582413    19.102964     7710.021    7914.3025    8337.2063    7974.1699   -468.61739    74.831583   -237.79099   -4106.5881 
34945000    88.711499   -5193.4204   -5015.9864   -5193.4204            0    7707.9294    17.761386    22.657387    19.138345    7701.7792    7983.6886    7711.2445    7428.8553    919.95379    271.50056   -1030.8987   -4150.2121 
34946000    88.337483   -5200.3507   -5023.6649   -5200.3507            0    7660.7237    17.779368    22.691488    19.136751     7720.537     7668.524    7248.7505    8064.8964    1092.4707   -210.79188   -269.36025   -4161.0972 
34947000    93.013398   -5205.5424   -5019.5041   -5205.5424            0    8067.7369    17.852401    22.593496    19.149573    7723.9449    8122.2456     8510.657     7570.308   -859.19914    262.26883   -101.22713   -4110.7074 
34948000    91.027861   -5202.5061   -5020.4391   -5202.5061            0    8085.0307    17.735672     22.76693    19.092211     7709.183    7750.7735    7669.3673    8834.9513    200.53642    247.46355    1014.2417   -4111.4349 
34949000    93.672454    -5201.457   -5014.1005    -5201.457            0    8239.5468    17.948077    22.586579    19.060729    7726.9464    7399.0137    8534.0412    8785.5856   -275.26511   -26.855974   -1192.5046   -4085.5893 
34950000    90.140736   -5198.6826     -5018.39   -5198.6826            0    9129.1772    17.786615    22.680219    19.079497    7696.7513    8567.9627    9378.6811    9440.8877   -47.000574    99.701097    26.298385    -3993.647 
34951000    86.816796   -5186.7907   -5013.1464   -5186.7907            0    9667.4756    17.746967    22.716919    19.029311    7671.7887    9323.1267    9091.0218    10588.278     164.2245    530.06579    1.7478269   -3931.4992 
34952000    89.934407   -5201.6227   -5021.7428   -5201.6227            0    8094.5816    17.854921    22.665354    19.058931    7712.9227    8361.7259    7853.6871    8068.3317    281.43834   -475.46516   -911.96599   -4111.2233 
34953000    88.266197   -5205.5525   -5029.0092   -5205.5525            0    8634.2269    17.726028    22.665524    19.157523    7696.9124    8027.6427    8810.8175    9064.2206   -499.64718    138.99316   -268.50571   -4059.8037 
34954000      87.6884   -5208.5395   -5033.1519   -5208.5395            0    7996.6786    17.777806    22.637073     19.16097    7711.0926    8114.0143    8195.6171    7680.4045   -1408.7163    360.23659    508.68309   -4133.8584 
34955000    84.296824    -5194.353    -5025.749    -5194.353            0    9157.5044    17.853178    22.584635    19.055875    7683.4719     8377.989     9313.506    9781.0182   -237.94522    832.44179   -1763.8966   -3999.5997 
34956000     92.73093   -5206.5986   -5021.1253   -5206.5986            0    9100.3115    17.761321    22.729671    19.016046    7676.9485    9327.7107    8645.0518     9328.172    581.10198   -319.46386    1335.3553   -4002.2506 
34957000    91.983959   -5205.0454   -5021.0661   -5205.0454            0     8470.163    17.849755    22.743946     18.98392    7706.9754    7539.1875     8740.089    9131.2124   -170.02732    413.01087    345.32334    -4069.034 
34958000    93.601868   -5198.8104   -5011.5951   -5198.8104            0      8851.48    17.818288    22.634079    19.079712    7694.8583    8484.2631    9086.2127    8983.9643   -568.83617   -1196.2809   -350.09257   -4018.2677 
34959000     91.62181    -5202.104   -5018.8491    -5202.104            0    8630.0696    17.740547    22.740698    19.096545    7704.1655    8014.6213    8778.0958    9097.4917   -375.04287    735.73739   -1650.4121   -4049.1973 
34960000    92.017782   -5200.6903   -5016.6434   -5200.6903            0    8678.7531    17.836747    22.624912    19.096577    7706.5157    9150.7516    8276.5242    8608.9834   -84.754184   -299.38468    127.82326   -4041.2242 
34961000    95.252929   -5209.6315   -5019.1139   -5209.6315            0    8147.1211    17.795592    22.712749    19.079191    7711.5574    8599.1499    8184.9713    7657.2422    1334.0111   -222.87499    738.30413   -4102.8466 
34962000    89.416822   -5196.6904   -5017.8457   -5196.6904            0    8578.7424    17.779766    22.711746     19.07493    7702.6383    6457.1152      9259.42    10019.692   -507.33871     430.7334   -811.78505    -4054.152 
34963000    88.177121   -5193.6709   -5017.3057   -5193.6709            0    8609.1188    17.880315    22.481613    19.130935    7690.2211    8083.5529    9253.5069    8490.2964    -160.2145     193.0842    -1132.533   -4051.7587 
34964000    92.530383   -5208.5892    -5023.517   -5208.5892            0    7950.9967    17.938692    22.578329     19.06169    7720.4743    6465.3188     7965.005    9422.6664    168.04369   -558.27897    850.11039    -4128.273 
34965000    87.750944   -5213.6311   -5038.1183   -5213.6311            0    8077.6633    17.737476    22.848396    19.057562     7723.513    9340.0343    7026.2375    7866.7182   -273.37315   -602.46496   -1170.9616   -4128.2543 
34966000    87.910534   -5196.0099   -5020.1779   -5196.0099            0    8546.3796    17.726015    22.770827    19.103856    7711.0045    8168.6742      9092.19    8378.2745   -866.23131    304.04779    -72.47635   -4059.0769 
34967000     88.21211   -5207.4995   -5031.0644   -5207.4995            0    9326.1831    17.887616     22.52433    19.079688    7687.3317     8093.244    10164.978    9720.3276   -246.37315    137.52015    599.32351   -3985.4887 
34968000    94.473472    -5199.653   -5010.6944    -5199.653            0    8315.1314    17.670293    22.710324    19.176925    7695.6627    9863.8819    7994.6333    7086.8788   -712.26765   -391.53357   -47.034605   -4077.4594 
34969000    88.720646   -5200.7471   -5023.2948   -5200.7471            0    7450.2773     17.80304    22.722859    19.121638    7735.3906    6304.4556    8116.0324     7930.344   -154.32841    688.65184    29.455195   -4182.8086 
34970000     90.45545   -5212.2399   -5031.3179   -5212.2399            0    7943.4501    17.842895    22.677881    19.033865    7701.8454    8595.3399    7556.9588    7678.0515   -310.81887   -1096.9016   -443.52487   -4139.0816 
34971000    87.350438   -5195.4962   -5020.7845   -5195.4962            0    8840.5769    17.866683    22.471905    19.142285    7685.5968    8964.4162    9127.4903     8429.824      373.732   -169.52634    -371.7295   -4029.8748 
34972000    87.220152   -5211.0855   -5036.6344   -5211.0855            0    7565.7408     17.80449    22.765294    19.065723    7727.8039     7638.257    7414.1231    7644.8423   -653.45937    414.02346    -1530.374   -4183.9596 
34973000    89.866484   -5210.2477   -5030.5037   -5210.2477            0     8963.112    17.728213    22.739847    19.091876    7696.6389    8745.8854    8873.6783    9269.7722    58.995686    44.824334   -517.39995    -4024.416 
34974000    92.274327   -5204.7258   -5020.1658   -5204.7258            0    8019.6962    17.836349    22.562119    19.168408    7713.8621     7716.884    8797.1468    7545.0577   -433.11328   -589.67177   -241.08901   -4117.9599 
34975000    89.833143   -5204.1401   -5024.4627   -5204.1401            0    8510.5002    17.892923    22.594778    19.032225    7694.4741    8656.1939    8124.5979    8750.7087    700.87107    63.536633    382.39386   -4069.4483 
34976000    90.737268   -5203.2699   -5021.7841   -5203.2699            0    7767.5926    17.764182    22.795866    19.063346    7719.7001    7624.3513     7256.303    8422.1234   -184.18724   -507.85948    56.777401   -4147.2782 
34977000    93.139625   -5187.5989   -5001.3081   -5187.5989            0    7262.3402    17.897805     22.65458    19.108049    7747.6881    6904.5099    7993.4068    6889.1039    42.828507    588.73345   -843.03332   -4180.7212 
34978000    96.158305   -5204.6812   -5012.3527   -5204.6812            0    7614.9327    17.890002    22.629154    19.082945    7725.4555    6921.6428    7297.5915    8625.5637   -288.33175   -461.69542   -151.51901   -4154.3947 
34979000    91.901104   -5195.5814   -5011.7678   -5195.5814            0    9229.6663    17.764467    22.727489    19.070628    7699.6084    9964.4269    8022.7422      9701.83    412.75467   -433.18229   -957.37522   -3975.3604 
34980000    94.888074   -5198.8171   -5009.0293   -5198.8171            0    7684.3769    17.839189    22.758346    19.031114    7726.4499    7541.4892    7703.2469    7808.3945   -214.52589    366.09562    805.79379   -4143.1356 
34981000    94.952253   -5200.9569   -5011.0406   -5200.9569            0    8551.5265     17.85353    22.625929    19.095789    7713.7956    8095.2709      9218.91    8340.3986    200.61042    447.91313   -672.24423   -4049.0127 
34982000    94.646728   -5209.4703   -5020.1651   -5209.4703            0    7733.5549     17.88637    22.729041    19.026599    7735.0743    7159.9541    8153.6767    7887.0339    6.0000918    901.09905   -515.94876   -4147.7573 
34983000     86.43406   -5200.6776   -5027.7988   -5200.6776            0    8174.0523    17.748605    22.656979    19.190372      7717.02    8656.6165    8203.9746    7661.5657   -32.438815    104.49642    -314.8326   -4107.8515 
34984000    96.822877   -5208.3689   -5014.7112   -5208.3689            0     8445.851    17.727106    22.628294    19.215032    7707.8063    10324.237    7313.8681    7699.4485    870.97688   -969.06045   -345.66929   -4065.3093 
34985000    88.877754   -5201.8919   -5024.1254   -5201.8919            0     9623.992    17.810711    22.729058    18.966288    7677.9457      9316.08    9725.3332    9830.5627    -977.8996    364.38797   -336.35128   -3946.4792 
34986000    86.838958   -5199.9728   -5026.2841   -5199.9728            0    7825.4203    17.738711      22.7356    19.136168    7717.6212    7956.4646    7763.1687    7756.6278    293.14868   -395.19388    263.35585    -4145.505 
34987000    91.838781   -5202.7957   -5019.1068   -5202.7957            0    9020.0072    17.814809    22.518731     19.14599    7680.7374    9537.9424    9374.4395    8147.6395   -628.98576     141.8467    709.18337   -4008.7246 
34988000    91.617709   -5192.1271   -5008.8804   -5192.1271            0    9445.1609    17.855997    22.604303    19.038606    7684.4075    9762.4662    9393.0969    9179.9197    -183.0228    -303.2694   -863.31118   -3950.3687 
34989000     94.29302   -5205.8477     -5017.25   -5205.8477            0    8048.0122    17.742794    22.812718    19.037963     7705.832    8597.5117    6878.4979    8668.0269    1320.4026    -618.3285    720.56425    -4112.801 
34990000    93.936452   -5200.9285    -5013.044   -5200.9285            0    8458.3937    17.699673    22.749373    19.156912    7713.6546    10916.805    6916.8095    7541.5665   -657.36246   -1013.0211    324.53697   -4061.5108 
34991000    87.441314   -5198.3531   -5023.4597   -5198.3531            0    9293.2313    17.952541    22.429995    19.081597    7683.6898    7842.9689    10027.602    10009.123   -402.28481    446.32537    113.13627    -3982.072 
34992000    88.798948   -5200.3188   -5022.7099   -5200.3188            0    8664.4047    17.843232    22.512853    19.186655    7707.3187    8850.6682    9596.1974    7546.3486    689.15116    727.69835   -562.17852   -4048.8019 
34993000    91.416517   -5192.1729   -5009.3286   -5192.1729            0    8265.2414     17.75085    22.943293    18.934558    7711.3442    9277.0706    7213.7794    8304.8742     630.1665    246.59862   -67.196635   -4079.8027 
34994000    95.943369   -5201.6181   -5009.7195   -5201.6181            0    8828.3536    17.877081    22.536619    19.108486    7698.5982    8386.4015    9096.4407    9002.2184    87.566296    386.66703    -385.2146   -4018.5059 
34995000    93.777014   -5191.1618   -5003.5962   -5191.1618            0    9656.0916    17.777536    22.506705    19.181853    7674.9231    10148.396    9763.4825    9056.3966    132.99991   -465.53301    534.31236   -3922.7813 
34996000    92.666227   -5205.5214   -5020.1775   -5205.5214            0    7896.9591    17.698102    22.879455    19.024988     7703.654    9113.9387    7021.5532    7555.3852   -225.67169    102.61162    1208.7419    -4132.955 
34997000    92.604701    -5211.039   -5025.8182    -5211.039            0    6942.3258     17.87967    22.509075     19.24689    7746.0037    7625.7227    7005.1137    6196.1409   -96.286447   -781.86557    1642.6609   -4241.5609 
34998000    91.259036   -5193.3388   -5010.8094   -5193.3388            0    7714.0484    17.808457    22.568928    19.216071    7723.2811    9166.7776    8074.0301    5901.3377   -780.73253   -775.99499   -1375.4308   -4141.9288 
34999000     88.87729   -5203.3553   -5025.5898   -5203.3553            0    7688.1409      17.7514    22.840386    19.048643    7723.2498    7391.2466    7863.6403    7809.5357    227.59363   -116.56749    365.67886   -4159.6308 
35000000    91.897255   -5190.5054   -5006.6995   -5190.5054            0    8290.1931    17.820081    22.709078    19.049284    7708.8185    8726.7602    7958.2166    8185.6026   -614.16912    439.30656   -955.70483   -4074.6728 
Loop time of 694.484 on 64 procs for 250000 steps with 1008 atoms

Performance: 62.204 ns/day, 0.386 hours/ns, 359.980 timesteps/s
365.2% CPU use with 16 MPI tasks x 4 OpenMP threads

MPI task timing breakdown:
Section |  min time  |  avg time  |  max time  |%varavg| %total
---------------------------------------------------------------
Pair    | 42.155     | 46.47      | 54.092     |  51.7 |  6.69
Bond    | 1.5953     | 2.0036     | 2.544      |  19.4 |  0.29
Kspace  | 334.09     | 345.81     | 359.07     |  34.8 | 49.79
Neigh   | 1.1406     | 1.3225     | 1.4033     |   6.1 |  0.19
Comm    | 96.128     | 106.3      | 116.31     |  61.2 | 15.31
Output  | 0.5102     | 0.51087    | 0.51211    |   0.1 |  0.07
Modify  | 130.44     | 142.82     | 156.28     |  61.5 | 20.57
Other   |            | 49.24      |            |       |  7.09

Nlocal:        63.0000 ave          69 max          58 min
Histogram: 1 1 2 4 1 3 2 1 0 1
Nghost:        3483.75 ave        3510 max        3465 min
Histogram: 1 2 2 3 3 2 1 0 1 1
Neighs:        21676.9 ave       23809 max       19853 min
Histogram: 1 0 3 4 1 3 2 1 0 1

Total # of neighbors = 346830
Ave neighs/atom = 344.07738
Ave special neighs/atom = 2.0000000
Neighbor list builds = 2302
Dangerous builds = 0

unfix		3
unfix		2
unfix		1

write_data	data.final.${pid}
write_data	data.final.1
System init for write_data ...
PPPM initialization ...
  extracting TIP4P info from pair style
  using 12-bit tables for long-range coulomb (../kspace.cpp:340)
  G vector (1/distance) = 0.37945632
  grid = 24 27 32
  stencil order = 5
  estimated absolute RMS force accuracy = 0.0024585455
  estimated relative force accuracy = 7.4038369e-06
  using double precision FFTW3
  3d grid and FFT values/proc = 7875 1344
Last active /omp style is kspace_style pppm/tip4p/omp
WARNING: Not all mixed pair coeffs generated from mixing. Use write_data with 'pair ij' option to store all pair coeffs. (../write_data.cpp:312)

write_restart   restart.lmp.${pid}
write_restart   restart.lmp.1
System init for write_restart ...
PPPM initialization ...
  extracting TIP4P info from pair style
  using 12-bit tables for long-range coulomb (../kspace.cpp:340)
  G vector (1/distance) = 0.37945632
  grid = 24 27 32
  stencil order = 5
  estimated absolute RMS force accuracy = 0.0024585455
  estimated relative force accuracy = 7.4038369e-06
  using double precision FFTW3
  3d grid and FFT values/proc = 7875 1344
Last active /omp style is kspace_style pppm/tip4p/omp
Total wall time: 0:11:34
