LAMMPS (30 Jul 2021)
  using 1 OpenMP thread(s) per MPI task
package omp 0
using multi-threaded neighbor list subroutines
echo both

include		in.partitions
variable        pid world 0
include		in.temp
variable        temperature equal 275.62
variable	tempDamp equal 100.0
include		in.pressure
variable        pressure equal 10125.0
variable        pressureDamp equal 1000.0 # This is 1 ps
include		in.seed
variable        seed world 745823

units		real
atom_style	full
read_restart	restart.lmp.${pid}
read_restart	restart.lmp.0
Reading restart file ...
  restart file = 30 Jul 2021, LAMMPS = 30 Jul 2021
  restoring atom style full from restart
  orthogonal box = (0.66926376 1.8798356 0.81650023) to (17.538309 21.749342 21.396696)
  4 by 4 by 4 MPI processor grid
  restoring pair style lj/cut/tip4p/long/omp from restart
  restoring bond style harmonic/omp from restart
  restoring angle style harmonic/omp from restart
  864 atoms
  576 bonds
  288 angles
Finding 1-2 1-3 1-4 neighbors ...
  special bond factors lj:    0        0        0       
  special bond factors coul:  0        0        0       
     2 = max # of 1-2 neighbors
     1 = max # of 1-3 neighbors
     1 = max # of 1-4 neighbors
     2 = max # of special neighbors
  special bonds CPU = 0.541 seconds
  read_restart CPU = 0.871 seconds
include 	in.setup
variable	out_freq equal 1000
variable	out_freq2 equal 10000
variable	out_freq3 equal 1000

timestep	2.0

neigh_modify    delay 7 every 1

include		in.tip4p
# This is TIP4P/Ice

# create groups ###
group ox type 2
288 atoms in group ox
group hy type 1
576 atoms in group hy

# set charges - beside manually ###
set group ox charge -1.1794
Setting atom values ...
  288 settings made for charge
set group hy charge 0.5897
Setting atom values ...
  576 settings made for charge

# ### TIP3P Potential Parameters ###
pair_style lj/cut/tip4p/long/omp 2 1 1 1 0.1577 8.5
pair_coeff 1 1*2 0.000 0.000
pair_coeff 2 2 0.21084 3.1668
bond_style  harmonic
bond_coeff  1 450 0.9572
angle_style harmonic
angle_coeff 1 55 104.52
kspace_style pppm/tip4p/omp 1.0e-5
pair_modify tail yes

thermo          ${out_freq}
thermo          1000
thermo_style    custom step temp pe etotal epair emol press lx ly lz vol pxx pyy pzz pxy pxz pyz enthalpy

restart 	${out_freq3} restart.lmp.${pid} restart2.lmp.${pid}
restart 	1000 restart.lmp.${pid} restart2.lmp.${pid}
restart 	1000 restart.lmp.0 restart2.lmp.${pid}
restart 	1000 restart.lmp.0 restart2.lmp.0


include         in.dump
dump            myDump all atom ${out_freq2} dump.water.${pid}
dump            myDump all atom 10000 dump.water.${pid}
dump            myDump all atom 10000 dump.water.0
dump            myDump2 all dcd ${out_freq2} dump.dcd
dump            myDump2 all dcd 10000 dump.dcd
dump_modify     myDump append yes
dump_modify     myDump2 append yes


variable natoms 	equal  "count(all)"                        # NUMBER ATOMS
variable H      	equal  "enthalpy/v_natoms"                 # ENTHALPY-per-atom
variable Vol      	equal  "vol/v_natoms"                 # volume-per-atom
fix AVG all 		ave/time ${out_freq} 1 ${out_freq} v_Vol v_H file vol_enthalpy.dat
fix AVG all 		ave/time 1000 1 ${out_freq} v_Vol v_H file vol_enthalpy.dat
fix AVG all 		ave/time 1000 1 1000 v_Vol v_H file vol_enthalpy.dat


timer           timeout 23:50:00 every 1000
New timer settings: style=normal  mode=nosync  timeout=23:50:00

fix 		1 all shake 1e-6 200 0 b 1 a 1
       0 = # of size 2 clusters
       0 = # of size 3 clusters
       0 = # of size 4 clusters
     288 = # of frozen angles
  find clusters CPU = 0.296 seconds
fix             2 all nph iso ${pressure} ${pressure} ${pressureDamp}
fix             2 all nph iso 10125 ${pressure} ${pressureDamp}
fix             2 all nph iso 10125 10125 ${pressureDamp}
fix             2 all nph iso 10125 10125 1000
fix             3 all temp/csvr ${temperature} ${temperature} ${tempDamp} ${seed}
fix             3 all temp/csvr 275.62 ${temperature} ${tempDamp} ${seed}
fix             3 all temp/csvr 275.62 275.62 ${tempDamp} ${seed}
fix             3 all temp/csvr 275.62 275.62 100 ${seed}
fix             3 all temp/csvr 275.62 275.62 100 745823

run             250000
PPPM initialization ...
  extracting TIP4P info from pair style
  using 12-bit tables for long-range coulomb (../kspace.cpp:340)
  G vector (1/distance) = 0.37477728
  grid = 24 24 24
  stencil order = 5
  estimated absolute RMS force accuracy = 0.0031026624
  estimated relative force accuracy = 9.3435756e-06
  using double precision FFTW3
  3d grid and FFT values/proc = 2535 216
Last active /omp style is kspace_style pppm/tip4p/omp
Neighbor list info ...
  update every 1 steps, delay 7 steps, check yes
  max neighbors/atom: 2000, page size: 100000
  master list distance cutoff = 10.8154
  ghost atom cutoff = 10.8154
  binsize = 5.4077, bins = 4 4 4
  1 neighbor lists, perpetual/occasional/extra = 1 0 0
  (1) pair lj/cut/tip4p/long/omp, perpetual
      attributes: half, newton on, omp
      pair build: half/bin/newton/omp
      stencil: half/bin/3d
      bin: standard
Per MPI rank memory allocation (min/avg/max) = 9.238 | 9.240 | 9.243 Mbytes
Step Temp PotEng TotEng E_pair E_mol Press Lx Ly Lz Volume Pxx Pyy Pzz Pxy Pxz Pyz Enthalpy 
  500000    281.26585   -3773.6145   -3291.5345   -3773.6145            0    10559.658    16.869045    19.869507    20.580195    6898.0616    11161.255    8985.3998     11532.32   -349.01757   -1799.9069   -154.17881   -2229.2206 
  501000    274.27448   -3797.6962   -3327.5991   -3797.6962            0    8685.7769    16.964091    19.981458    20.696151    7015.3175    9339.8565    9290.9321    7426.5422   -85.941768    741.19301   -369.15587   -2438.9468 
  502000    285.32262   -3831.5761   -3342.5429   -3831.5761            0    9645.4196    16.920682    19.930329    20.643193    6961.6021    11795.577     7593.945    9546.7365    426.93961   -70.640336   -1366.3185   -2363.2645 
  503000    272.64654    -3807.488   -3340.1811    -3807.488            0    9774.2879    16.890047    19.894244    20.605818    6923.8578    8386.3709    13199.121    7737.3719    1258.3333   -737.14829   -59.241962   -2353.1993 
  504000     256.9724   -3820.9803   -3380.5384   -3820.9803            0    12174.252    16.833142    19.827218    20.536394    6854.1113    13490.192    10711.655    12320.909   -861.46171   -119.96779    -178.9775    -2163.598 
  505000    281.21764   -3830.9411   -3348.9437   -3830.9411            0    9166.8553    16.918218    19.927426    20.640187    6958.5612    11497.078    8398.2618    7605.2261   -1448.0287   -1175.3214    271.10973   -2418.6593 
  506000    277.26307   -3770.8048   -3295.5854   -3770.8048            0    8513.9901    16.903439    19.910019    20.622156    6940.3413    7451.6706    10468.765    7621.5344   -1188.7649   -2217.7995    280.56787   -2433.8184 
  507000     271.9238   -3782.0043   -3315.9362   -3782.0043            0    11178.599     16.90398    19.910655    20.622816    6941.0071    13531.303    10060.106    9944.3886    1272.4669    558.11809    1473.2237    -2184.355 
  508000     292.3069   -3793.5944   -3292.5904   -3793.5944            0    11594.943    16.908751    19.916276    20.628637    6946.8864    11747.424    12865.868    10171.536    1623.3918   -379.64362    554.36281   -2117.8695 
  509000     293.6003   -3810.5184   -3307.2975   -3810.5184            0     10535.24    16.938761    19.951623    20.665249    6983.9405    10745.683     8751.993    12108.045   -929.28575   -377.77256     829.6222   -2234.2453 
  510000    265.25222    -3772.323   -3317.6898    -3772.323            0    9247.7886    16.939351    19.952318    20.665969    6984.6705    6220.1523    11059.491    10463.722    134.86896    1083.4198   -161.26411   -2375.6707 
  511000    273.84908      -3805.8    -3336.432      -3805.8            0    8607.4444    16.940541    19.953719     20.66742    6986.1416    8125.8002    10698.588     6997.945      458.191    638.42069    605.76899   -2459.4564 
  512000    292.41078    -3803.703    -3302.521    -3803.703            0    9590.2677    16.930996    19.942477    20.655775    6974.3397    10492.965    9487.9447    8789.8931    1048.7608    1878.9411   -185.33815   -2327.0604 
  513000    290.08705   -3805.6883    -3308.489   -3805.6883            0    9860.3667    16.915269    19.923952    20.636588    6954.9224    8773.9858    10961.729    9845.3854    1276.8185    670.40319    374.09412    -2308.348 
  514000    263.53392   -3828.2684   -3376.5802   -3828.2684            0    9601.5767    16.905856    19.912866    20.625105     6943.319    10219.557    7547.4058    11037.768    1233.3404   -14.215452    102.71055   -2404.3132 
  515000     269.7611   -3827.5097   -3365.1484   -3827.5097            0    9244.9816    16.992066    20.014409    20.730281    7050.0817    8276.5484    9573.6362    9884.7602     230.1463   -517.37047    -565.4047   -2414.5959 
  516000    279.08476   -3805.1567    -3326.815   -3805.1567            0    9837.1038    16.922879    19.932916    20.645873    6964.3141    8885.7607    9884.6856    10740.865    1406.0062    1372.0459   -1104.7443   -2327.6862 
  517000    284.26838   -3825.8281   -3338.6018   -3825.8281            0    13122.373    16.839175    19.834324    20.543755    6861.4838    14003.377    14552.448    10811.294    544.82064   -709.98855   -846.98379   -2025.4761 
  518000    269.46045   -3853.4965   -3391.6505   -3853.4965            0    9734.5998    16.865375    19.865184    20.575718    6893.5604    9820.0191    9147.7296    10236.051    -326.4938   -1233.2869    593.84608   -2412.9776 
  519000    273.29417   -3812.5661   -3344.1493   -3812.5661            0    9194.4884    16.846578    19.843044    20.552786    6870.5375    8943.3585    7960.9175    10679.189    323.38644    -1615.414    665.77135   -2422.8639 
  520000    267.57855   -3814.3858   -3355.7653   -3814.3858            0    8092.1346    16.957897    19.974162    20.688594    7007.6363    7531.0649    9165.2947    7580.0442    899.68345    1364.9125    95.700515   -2528.7557 
  521000    268.34851   -3776.4275   -3316.4873   -3776.4275            0     11604.28     16.83428    19.828558    20.537782    6855.5013     11220.06    14223.983    9368.7968   -351.60028     758.6737   -697.04996   -2156.2861 
  522000    273.66689   -3756.5545   -3287.4988   -3756.5545            0     9077.678    16.967585    19.985574    20.700414    7019.6535    9375.5349    10082.426    7775.0736    15.045953    -336.9838   -667.77612   -2358.1765 
  523000     254.9608   -3800.3244   -3363.3303   -3800.3244            0     11058.75    16.910462    19.918291    20.630725    6948.9956    10597.703    9587.0462      12991.5   -1423.1564    1697.4458    755.74271   -2242.5926 
  524000    283.94639   -3758.1597   -3271.4853   -3758.1597            0    9252.4946    16.939305    19.952264    20.665913    6984.6135    8717.7387    9804.8357    9234.9094   -1105.6449   -264.85409    26.067442   -2328.9945 
  525000    289.37818   -3859.3389   -3363.3546   -3859.3389            0    10583.479    16.891226    19.895633    20.607256    6925.3084    10640.867    9555.1572    11554.412     151.9829   -566.71033    1917.0809   -2294.4389 
  526000    290.52635   -3804.7799   -3306.8277   -3804.7799            0    10003.256    16.963066    19.980251    20.694901    7014.0468    11074.447    10201.099    8734.2217     1604.221   -162.88253    1197.6694   -2283.5678 
  527000    272.52467   -3815.9954   -3348.8974   -3815.9954            0    8212.2914    16.998741    20.022272    20.738424    7058.3936    7143.9231    8843.3945    8649.5567     -676.747    710.64094   -306.29635   -2503.5288 
  528000    269.43368   -3857.0343   -3395.2342   -3857.0343            0    10530.233    16.926095    19.936704    20.649796    6968.2849     9870.878    9652.3251    12067.495    1464.9319   -1142.4897    1253.4272   -2325.0962 
  529000    271.17069   -3845.0802   -3380.3029   -3845.0802            0    10810.462    16.865635     19.86549    20.576035    6893.8795    11145.065    10126.719      11159.6   -693.60733    760.83242     424.7878   -2293.4174 
  530000    283.68888   -3812.2764   -3326.0433   -3812.2764            0    7998.6928    16.961251    19.978113    20.692686    7011.7952    9434.1622    6851.8392     7710.077    1030.8849   -1017.2639    308.98562   -2508.0983 
  531000    279.75278   -3771.7554   -3292.2687   -3771.7554            0    10140.377     16.94824    19.962788    20.676813    6995.6711    9660.9563    11344.744    9415.4314    1007.9048   -355.90153    2175.7059   -2257.6999 
  532000    259.32928   -3780.7326   -3336.2511   -3780.7326            0    11524.963    16.905017    19.911877    20.624081    6942.2849    9910.5252    13778.254     10886.11    827.95735   -1495.0284    79.639386   -2169.3935 
  533000     283.5961   -3830.9362   -3344.8622   -3830.9362            0    10321.843    16.931786    19.943407    20.656739    6975.3161    8743.5864    9701.2188    12520.724   -252.59357    230.70887   -2516.5986   -2294.8435 
  534000    260.55594   -3815.0184   -3368.4344   -3815.0184            0    9887.9023    16.876835    19.878682    20.589699    6907.6223    11183.904    9870.8933    8608.9099   -75.644371   -589.54645   -323.26505   -2372.3213 
  535000    260.96293   -3855.3178   -3408.0363   -3855.3178            0    11013.679    16.933394    19.945302    20.658701     6977.304    10262.536    11869.725    10908.775    149.87535    1593.7592    3226.7805   -2287.3193 
  536000    280.56422   -3844.6231   -3363.7456   -3844.6231            0     9916.315    16.864281    19.863895    20.574383    6892.2189    9137.0004    10478.074     10133.87   -147.04628    -647.6218    -193.4311   -2366.9979 
  537000     283.0438   -3829.3395   -3344.2121   -3829.3395            0    9030.7229    16.918457    19.927707    20.640478    6958.8557    11459.827    7321.8186    8310.5237   -2076.8635    1336.2149    632.68217   -2427.7042 
  538000      280.385   -3829.7687   -3349.1984   -3829.7687            0    8555.4783    16.936831     19.94935    20.662894     6981.553    10871.636    5333.6238    9461.1754   -292.00119   -1547.5137    252.11385     -2478.09 
  539000    288.93371   -3840.4015    -3345.179   -3840.4015            0    8636.0946    16.967209    19.985131    20.699956    7019.1874    8405.2917    8442.2985    9060.6935     -1096.54    536.26144   -262.88222   -2461.1223 
  540000    261.74978   -3796.5813   -3347.9512   -3796.5813            0    8862.5379    16.944426    19.958295     20.67216    6990.9494    9712.7989    9127.3222    7747.4926    -418.9279   -1333.8523   -1530.2481   -2444.3638 
  541000    280.49402    -3815.682   -3334.9248    -3815.682            0    8552.3857    16.941851    19.955262    20.669018    6987.7628    7493.3255     9809.592    8354.2395   -1018.1234    1215.9455    373.61167   -2463.3567 
  542000    275.81948   -3785.3306   -3312.5855   -3785.3306            0    12841.628    16.766379    19.748579    20.454943    6772.8802    11981.353    12496.591     14046.94    1255.7733   -1838.0129    1319.0717   -2044.1471 
  543000     273.9576   -3785.4458   -3315.8918   -3785.4458            0    10053.465    16.929843    19.941119    20.654369    6972.9149    11063.067    11514.203    7583.1245   -254.46917   -519.68946    1520.8523   -2293.5267 
  544000    280.54501   -3805.2641   -3324.4195   -3805.2641            0    8672.8383    16.886614    19.890201     20.60163    6919.6374    9499.3028    7366.8129    9152.3991    208.95571    352.01427    1373.5499    -2449.193 
  545000    262.48986   -3847.7709   -3397.8723   -3847.7709            0    9478.7992    16.819253    19.810858    20.519449    6837.1589    8222.9314    9477.1084    10736.358    -1064.322      737.549    78.426624   -2452.7133 
  546000    286.06466   -3810.2606   -3319.9555   -3810.2606            0    9750.3234     16.92431    19.934602    20.647619    6966.0811    10790.717    5506.6245    12953.629    1164.7311   -893.07444   -689.75828   -2329.3895 
  547000    271.27902    -3811.627   -3346.6641    -3811.627            0    10957.501    16.882672    19.885557     20.59682    6914.7921    10197.129    12786.882    9888.4915    1407.2745    524.83807    2215.2026   -2241.6533 
  548000     287.2154   -3825.0853   -3332.8079   -3825.0853            0     9967.314     16.86335    19.862798    20.573247    6891.0773    10145.173    11202.522    8554.2466    511.32966    1030.0862   -3.9487887   -2331.0999 
  549000    280.11437   -3806.3232   -3326.2168   -3806.3232            0    12506.101    16.806676    19.796044    20.504105    6821.8323    10847.648    13023.796     13646.86   -10.941638    100.69511   -1088.8941   -2081.9919 
  550000    276.12689   -3855.9243   -3382.6523   -3855.9243            0    8855.7294    16.887305    19.891014    20.602472    6920.4863    8997.8965    8358.9636     9210.328    539.87554   -1053.3032    688.43039   -2488.8595 
  551000    279.81089   -3797.6263     -3318.04   -3797.6263            0    11201.824    16.903655    19.910273    20.622419    6940.6067    11972.789    12435.182    9197.5018    556.68692    -280.1613    1774.1935   -2184.1731 
  552000    280.54149   -3846.1778   -3365.3393   -3846.1778            0    10337.699    16.838322    19.833319    20.542713    6860.4404     9220.614    10452.823    11339.662    288.00809     79.34038    114.22599   -2331.0267 
  553000    262.86188   -3824.5473    -3374.011   -3824.5473            0    12291.829    16.848824    19.845689    20.555525    6873.2848    12255.248     13100.38    11519.858    1936.2902    1878.0667   -42.011353   -2141.8804 
  554000    279.81661   -3801.5961        -3322   -3801.5961            0    11676.754    16.930635    19.942052    20.655335    6973.8937    11569.456    13936.822    9523.9822    391.27124   -173.98067     -596.606   -2134.3914 
  555000    276.92336   -3802.3216   -3327.6845   -3802.3216            0    8553.1572    16.974809    19.994082    20.709227    7028.6231    8405.1162    8864.9648    8389.3904    409.03862   -273.13928   -89.157054   -2450.9409 
  556000    275.12625   -3767.7166   -3296.1597   -3767.7166            0    10887.137    16.923787    19.933986    20.646981    6965.4356    9143.5057    11719.227     11798.68   -707.52899     116.9401   -1295.0542   -2190.2036 
  557000    290.41349   -3802.4334   -3304.6746   -3802.4334            0    9326.9188    16.915704    19.924464    20.637119    6955.4588    9766.7416    9349.1876    8864.8273    37.443629    -1230.668   -925.30202   -2358.5684 
  558000    280.38364   -3802.5164   -3321.9484   -3802.5164            0    8265.7194    16.934478    19.946579    20.660024    6978.6443     8147.927    7526.5241    9122.7071   -327.18895    866.35559     390.3707   -2480.6935 
  559000    281.77976   -3804.7728   -3321.8119   -3804.7728            0    9531.7625    16.871774    19.872722    20.583525    6901.4107    10326.538    8628.0081    9640.7412   -901.84485    1359.0797   -453.58287   -2362.4401 
  560000    262.89519   -3832.0551   -3381.4618   -3832.0551            0    11182.827    16.856607    19.854856    20.565021    6882.8146    9525.9656    13471.984    10550.532   -273.58822    920.37631    489.24747   -2258.9431 
  561000    263.33812   -3795.8144   -3344.4619   -3795.8144            0    8379.5962    16.900834     19.90695    20.618978    6937.1325    9494.8364    6900.4577    8743.4945   -1231.9259   -1407.2146    622.41852   -2496.6901 
  562000    272.25747   -3790.0951   -3323.4552   -3790.0951            0    9292.0719    16.958796    19.975222    20.689692    7008.7516    9594.7884    8156.6299    10124.797    446.04277    825.76331   -1141.3281   -2373.6618 
  563000    286.34817   -3812.9457   -3322.1548   -3812.9457            0    8966.5038    16.922634    19.932627    20.645574    6964.0112    8744.1955    10406.692    7748.6238    2232.2461    817.44711   -633.74974   -2411.4901 
  564000    271.48919   -3807.9637   -3342.6405   -3807.9637            0    9833.5828    16.868557    19.868932      20.5796    6897.4633    9658.0473    9852.4792     9990.222    1901.2553   -191.78784   -749.82582   -2353.4565 
  565000     262.7107   -3816.9895   -3366.7123   -3816.9895            0    11609.842    16.783984    19.769316    20.476421    6794.2381    12554.273    10402.614    11872.641     1910.933   -313.32536   -93.053154    -2216.328 
  566000    281.15691   -3799.4505   -3317.5572   -3799.4505            0    9065.3016     16.94334    19.957016    20.670835     6989.605    9822.8259     8866.932    8506.1469     1289.875    798.00643   -1323.9571   -2393.4746 
  567000    272.73889   -3836.5351   -3369.0699   -3836.5351            0    8886.6912    16.831327     19.82508     20.53418    6851.8945    9004.7191    7373.2624    10282.092   -405.79889   -1930.2544   -1726.5011    -2481.042 
  568000    273.69637   -3818.0629   -3348.9567   -3818.0629            0    9440.1852    16.973802    19.992896    20.707998    7027.3722     9671.329    8612.1696    10037.057   -707.92398    630.53764   -1513.7273   -2381.4603 
  569000    275.88116   -3868.9913   -3396.1404   -3868.9913            0     10770.69    16.815392    19.806311    20.514739    6832.4518    9167.6419    10702.913    12441.515    -1115.274    277.60231    769.14662   -2322.9026 
  570000    283.37509   -3858.3671   -3372.6719   -3858.3671            0    8009.8769    16.934583    19.946701    20.660151    6978.7731    8147.2048    7705.7086    8176.7173    58.301098    435.90896    709.61632   -2557.4407 
  571000    264.27775   -3823.8674   -3370.9044   -3823.8674            0    10624.589    16.857657    19.856093    20.566302    6884.1005    10115.112    10367.984    11390.671   -98.162188    1768.7659    256.45961   -2304.2218 
  572000    295.55406    -3787.111   -3280.5414    -3787.111            0      10280.2    16.862979    19.862362    20.572795     6890.623    9819.5458    9573.4089    11447.644   -148.45743    1163.9922   -58.982271   -2247.4567 
  573000    270.84906   -3852.8716   -3388.6456   -3852.8716            0    10610.685    16.901541    19.907783     20.61984     6938.003    9519.0475    11274.006    11039.001    -457.3884    291.35013   -797.95805   -2315.0177 
  574000    280.28639   -3812.5943    -3332.193   -3812.5943            0    12329.337    16.821245    19.813205     20.52188    6839.5891    13121.722    12233.458     11632.83   -72.601809    1367.6328   -539.30576   -2102.3615 
  575000    280.25341   -3814.1882   -3333.8435   -3814.1882            0    13212.644    16.871161    19.871999    20.582777    6900.6579    12868.704    13276.369    13492.859    719.46822     2647.711   -882.43981   -2004.1359 
  576000    280.35348   -3824.2894   -3343.7731   -3824.2894            0    9441.6883    17.029868    20.058934    20.776399    7097.2385    7681.0237    10796.695    9847.3458    848.59376   -1063.4237    160.50273   -2366.5023 
  577000    275.91465   -3793.1753    -3320.267   -3793.1753            0    12004.302    16.854218    19.852042    20.562107    6879.8886    12349.972    10131.449    13531.484    1354.0726    80.904933    865.43731    -2115.802 
  578000    284.65062   -3771.4111   -3283.5297   -3771.4111            0    10169.612     16.96053    19.977265    20.691808    7010.9018    10963.983    9258.0585    10286.793    637.36577    2676.4122    21.423378   -2243.7193 
  579000    280.25631    -3835.912   -3355.5623    -3835.912            0    9803.7215    16.910916    19.918826    20.631278    6949.5552    9764.6968    9932.5469    9713.9207   -1128.5674    1725.6091   -478.11938   -2361.9342 
  580000    277.31447    -3774.567   -3299.2595    -3774.567            0    11408.233    16.902309    19.908688    20.620778    6938.9495    12226.704    10544.468    11453.528    93.099115    469.64871    1181.3298   -2144.7753 
  581000    266.76804   -3806.5552   -3349.3239   -3806.5552            0    9533.7742      16.9199    19.929407    20.642239    6960.6368    7952.3788    8554.5373    12094.407    72.594381   -647.58085    1510.1579   -2381.5147 
  582000    265.24175   -3834.4797   -3379.8645   -3834.4797            0    9034.2355    16.972729    19.991632    20.706689    7026.0395    10926.042    8246.0682    7930.5957    816.78763    327.69117    1995.8666   -2454.1482 
  583000    260.29126   -3790.3031   -3344.1728   -3790.3031            0    12793.523    16.902088    19.908427    20.620508    6938.6767    13894.842    12709.977    11775.751   -639.42919   -1109.0493    610.20537   -2049.5516 
  584000    294.05428   -3789.3163   -3285.3173   -3789.3163            0    11733.026     16.89716    19.902622    20.614495    6932.6089    11513.753    12541.487    11143.838    312.70328   -1219.2075    342.29402   -2099.0498 
  585000    270.41554   -3767.1173   -3303.6343   -3767.1173            0     11892.75    16.865556    19.865398    20.575939    6893.7829    11357.868     12616.16    11704.221   -1010.2608    1087.8947   -806.44079   -2107.9521 
  586000    282.27595   -3795.0881   -3311.2768   -3795.0881            0    10111.287    16.885288    19.888639    20.600012    6918.0072    8260.4107    10665.359    11408.092    733.32586    982.91453   -703.57823   -2291.1284 
  587000    269.34811   -3807.5774    -3345.924   -3807.5774            0    10215.112    16.876039    19.877745    20.588728    6906.6456    8947.3606    11286.031    10411.945   -670.53509   -324.55383   -1147.6098   -2316.9931 
  588000    287.38996   -3770.1059   -3277.5293   -3770.1059            0    11815.633    16.852342    19.849832    20.559817    6877.5911     11146.36    9862.1284    14438.412   -153.38761    1065.5809   -1089.3591   -2092.3904 
  589000    261.37255   -3809.4248   -3361.4412   -3809.4248            0    11290.121    16.846045    19.842416    20.552136    6869.8853      9899.98    11181.263    12789.119    544.63527    -624.5888    553.59327   -2230.2815 
  590000     264.9597   -3818.7835   -3364.6516   -3818.7835            0    11507.562    16.842138    19.837814    20.547369    6865.1061     10827.28    13249.196     10446.21   -579.96787   -204.89694    578.55834   -2212.5084 
  591000    274.57926   -3844.1643   -3373.5448   -3844.1643            0    11485.907    16.771649    19.754787    20.461372    6779.2691    10874.226    10667.324    12916.172    -567.7414    990.88008    1847.3234   -2237.9482 
  592000    285.98026    -3834.552   -3344.3916    -3834.552            0    10170.819     16.83998    19.835272    20.544736    6862.4674    10400.323    9786.6298    10325.503   -1152.0048   -1926.6446    470.87458   -2326.4752 
  593000    271.69224   -3852.8731   -3387.2019   -3852.8731            0      10356.2    16.857944    19.856432    20.566653     6884.453     11654.68    9459.3202    9954.5988   -2108.7404    716.34223   -1487.4739   -2347.4116 
  594000    279.39918   -3837.2206   -3358.3399   -3837.2206            0    9309.2113    16.848776    19.845632    20.555467    6873.2263     10288.38    9680.5571     7958.697   -1276.2704   -704.68378   -1055.9876   -2425.1943 
  595000    276.01738   -3839.3188   -3366.2344   -3839.3188            0     10191.86    16.899681    19.905592    20.617571    6935.7131     11412.91    11915.974    7246.6955    -402.6006    981.88214    878.41235   -2335.3251 
  596000    285.76747   -3816.0556     -3326.26   -3816.0556            0    9603.1638    16.912911    19.921175    20.633712    6952.0148    7076.0036    12158.741    9574.7469   -1275.2968   -887.49928   -952.61789   -2352.6143 
  597000    274.68642   -3808.1993   -3337.3962   -3808.1993            0    9402.0836    16.930434    19.941815     20.65509    6973.6459    9056.0801    9544.1113    9606.0594     233.3329   -331.74558    1027.3043   -2381.1716 
  598000    268.10308   -3846.6539   -3387.1344   -3846.6539            0    7115.2941    16.999771    20.023485    20.739681    7059.6766    6143.6483    7557.3073    7644.9267   -946.04295   -1659.9142     388.5618   -2654.5569 
  599000     277.5136   -3836.6012   -3360.9524   -3836.6012            0    8999.0881    16.957439    19.973624    20.688036    7007.0691    10097.674    8113.8731    8785.7168    980.34876    29.869927    607.80759   -2441.3274 
  600000    267.22883    -3802.008   -3343.9869    -3802.008            0     9753.359     16.86988    19.870491    20.581215    6899.0865    11471.853    9509.0159    8279.2078    846.33047   -254.12093   -341.93378   -2362.6419 
  601000    267.42942   -3824.2249   -3365.8601   -3824.2249            0    10558.287    16.864052    19.863626    20.574104    6891.9383    9241.8023    11637.409     10795.65    753.03386   -413.05042   -2083.4542   -2304.6271 
  602000    290.68269   -3832.0182    -3333.798   -3832.0182            0    9990.5827    16.934872    19.947042    20.660504     6979.131    10070.861    11041.499    8859.3877    1480.4728    790.63048    1021.6318   -2316.9218 
  603000     271.0057   -3780.7669   -3316.2724   -3780.7669            0    9133.9755    16.857436    19.855833    20.566032    6883.8299      10525.9    6742.9513    10133.076    64.873249   -236.79152    462.45446   -2399.2797 
  604000     283.8414   -3840.1572   -3353.6627   -3840.1572            0    8134.6545     16.92553    19.936038    20.649107    6967.5869    8937.2999    6567.1315     8899.532    379.88514   -960.71336     -952.477   -2527.0589 
  605000    288.81675   -3825.2334   -3330.2114   -3825.2334            0    8668.5115    16.904237    19.910959     20.62313    6941.3244    6433.1601    9284.8228    10287.551    1540.0754    1020.4629   -2156.0116   -2452.6798 
  606000    269.17163   -3820.2113   -3358.8603   -3820.2113            0     10230.12    16.862242    19.861494    20.571896    6889.7199    10003.723    11986.161    8700.4746   -672.28021   -1369.9815    1548.7093   -2330.9431 
  607000     273.3193    -3819.509   -3351.0491    -3819.509            0    8697.9274    16.940075    19.953171    20.666852     6985.566    7644.5442    9518.7992    8930.4388   -1029.4803    405.89411   -298.76201   -2464.9276 
  608000    265.88415   -3793.7509   -3338.0346   -3793.7509            0      8486.66    16.995708    20.018699    20.734724    7054.6162     7177.225    10337.595    7945.1605   -699.58711    661.86508   -2775.6682   -2464.8901 
  609000    280.01617   -3827.7544   -3347.8163   -3827.7544            0    10227.545     16.90165    19.907911    20.619973    6938.1371    11108.002    7731.2849    11843.347   -32.962621   -399.42988    718.95761   -2312.9359 
  610000      269.967   -3806.3389   -3343.6247   -3806.3389            0    11657.684    16.856585    19.854831    20.564995     6882.788    9832.6122      11417.3    13723.138   -740.86434   -107.41943   -548.07309    -2173.445 
  611000    277.09716   -3815.7901    -3340.855   -3815.7901            0    9582.7291    16.889098    19.893126     20.60466     6922.691    10444.897    8307.0953    9996.1955   -598.61813    1083.8915    290.62197   -2373.3794 
  612000    286.93066   -3828.2625   -3336.4732   -3828.2625            0    9120.7477    16.954073    19.969659     20.68393    7002.8976    9981.5084    8222.2945    9158.4401    1594.7024   -121.47268   -1044.4581   -2404.9705 
  613000    280.04972   -3853.8327   -3373.8371   -3853.8327            0    9792.1582     16.89395    19.898842     20.61058    6928.6594    10369.595    10068.407    8938.4728    1163.5432    1700.3122    1054.2384   -2384.3651 
  614000    286.92167   -3806.6978   -3314.9239   -3806.6978            0    9209.2695    16.944109    19.957922    20.671773    6990.5574    9634.4592    10059.222    7934.1272    484.10777   -1098.8688   -189.76828   -2376.0379 
  615000    281.08647   -3799.4365   -3317.6639   -3799.4365            0    10547.621      16.8824    19.885238    20.596489    6914.4586    11818.747    9867.1108     9957.004   -2287.0642    1466.8265    936.92709   -2254.0388 
  616000    269.91233   -3830.9841   -3368.3636   -3830.9841            0    10404.366    16.908362    19.915817    20.628162    6946.4069     10569.87    11537.691    9105.5368   -2222.3826    28.894603    26.901885   -2314.3366 
  617000    266.48871   -3835.3261   -3378.5736   -3835.3261            0    9606.5194    16.932646     19.94442    20.657788    6976.3786    9041.7474    9577.7824    10200.028   -129.63693    96.154026    496.64587   -2401.1743 
  618000    279.24309   -3842.6425   -3364.0294   -3842.6425            0    9800.1784    16.877638    19.879628    20.590679    6908.6087    10106.814    8399.4615    10894.259    1006.2461    554.35826    -1216.859   -2376.6127 
  619000    279.10149   -3795.3485   -3316.9781   -3795.3485            0    9426.0422    16.900376    19.906411    20.618419    6936.5689    7883.1562    8845.2046    11549.766    1247.4903    1691.1479   -984.62135   -2363.4139 
  620000    266.52161    -3812.221    -3355.412    -3812.221            0    8038.4286    16.946045    19.960202    20.674135    6992.9536    8771.1004    7294.5829    8049.6023    163.59379    232.34559   -6.4187957   -2535.6125 
  621000    265.00422    -3801.262   -3347.0538    -3801.262            0    12171.348    16.847269    19.843858    20.553629    6871.3829    10349.055    12284.108    13880.881   -626.66669   -1827.4027   -849.69852   -2127.3378 
  622000    282.98195   -3788.7534    -3303.732   -3788.7534            0    8109.4407    16.912764    19.921001    20.633532    6951.8329    6892.8916    7873.4499    9561.9806   -2495.4883    -1501.824   -588.26072   -2481.5535 
  623000    269.38154   -3833.5378   -3371.8271   -3833.5378            0    9951.1689    16.917854    19.926998    20.639743    6958.1123    9069.9602    10810.729    9972.8177   -61.158297   -1004.0462   -1590.7028    -2362.013 
  624000    291.81436   -3797.2107   -3297.0509   -3797.2107            0    10701.316    16.880177    19.882619    20.593777    6911.7271     11191.71    9060.3752    11851.863    999.65417    -491.7062    525.76246   -2218.3534 
  625000    289.11408   -3774.8447   -3279.3131   -3774.8447            0    11054.221     16.86179    19.860962    20.571345    6889.1659     9852.451    9713.6229     13596.59    183.18138   -350.19995    394.12194   -2168.6797 
  626000    288.44945   -3829.2642   -3334.8717   -3829.2642            0    12076.177    16.833302    19.827406    20.536589     6854.307    11719.948    11141.595    13366.988   -318.28614    758.05099    -750.9322   -2127.7004 
  627000    275.36203   -3802.8723   -3330.9112   -3802.8723            0    10056.585    16.881212    19.883837    20.595039    6912.9979    10201.355    9440.4339    10527.965    525.59695   -922.53505   -152.64977   -2317.0165 
  628000    283.12047   -3843.4269   -3358.1681   -3843.4269            0    10643.352    16.839877    19.835151    20.544611    6862.3416    10747.044    11250.607    9932.4048   -845.61304    125.30303    1026.4019   -2292.9792 
  629000    280.42469   -3808.4042   -3327.7658   -3808.4042            0    10224.985     16.83856    19.833599    20.543004    6860.7315    11446.955    10557.765    8670.2357     636.1903    314.48466    78.495112   -2304.6872 
  630000    270.46191   -3856.6877   -3393.1252   -3856.6877            0    11018.008    16.795816    19.783253    20.490857    6808.6174    10373.056    11658.056    11022.912    1285.3729   -1648.9436    226.60215   -2299.0734 
  631000    261.05782   -3786.2631   -3338.8189   -3786.2631            0      12181.1    16.786945    19.772803    20.480033    6797.8342     13395.53    11908.993    11238.777   -326.91286   -1035.8766    -369.3817   -2131.1915 
  632000    280.24102   -3798.4324   -3318.1089   -3798.4324            0    11370.801    16.848853    19.845723    20.555561    6873.3206    12089.597    11373.425    10649.382    392.76623    1837.8243   -1281.0417    -2178.296 
  633000    262.36632   -3817.5301   -3367.8432   -3817.5301            0    9706.2573    16.899129    19.904941    20.616898     6935.033    8091.7809    11777.423    9249.5677    1052.0101   -662.20692   -3610.9344    -2386.149 
  634000    272.61527   -3845.5895   -3378.3363   -3845.5895            0    10638.994    16.847239    19.843823    20.553593    6871.3463    10483.841    9875.1602     11557.98    919.38361   -815.40672   -1633.6623   -2312.1864 
  635000    250.59908   -3822.9956   -3393.4773   -3822.9956            0    10516.336    16.870175    19.870838    20.581574    6899.4483    9762.7959    13182.014    8604.1972     63.59335    52.229358   -673.66665   -2335.3092 
  636000    274.92168   -3796.6481   -3325.4417   -3796.6481            0    11452.275    16.869004    19.869458    20.580145    6898.0115     12427.42    11993.975    9935.4293     308.8989   -693.24779     1065.447    -2173.338 
  637000    271.17292   -3800.5239   -3335.7428   -3800.5239            0    9975.5626    16.900096    19.906081    20.618078    6936.2238    9963.2532    9067.5897    10895.845     1135.414    2135.2039    338.51404   -2326.6377 
  638000    276.71925   -3793.8254   -3319.5381   -3793.8254            0    9944.4664    16.894366    19.899331    20.611087    6929.1709    8692.8142     10548.61    10591.975   -1099.0085    324.06821    514.75485   -2314.6015 
  639000    258.87179   -3848.6749   -3404.9775   -3848.6749            0    10691.364     16.87367    19.874954    20.585838    6903.7369    9449.3859    11970.045    10654.661   -2016.5573     597.8539    512.74846    -2328.529 
  640000    274.26345   -3797.2105   -3327.1324   -3797.2105            0    10101.633    16.831003    19.824699    20.533785     6851.499    8931.0119    10429.126    10944.763    2091.3479    340.05546   -270.07377   -2317.7561 
  641000    279.39295   -3824.8588   -3345.9889   -3824.8588            0    10756.692     16.81121    19.801385    20.509637    6827.3553     10701.81    9700.3911    11867.873    412.14167   -1482.5515   -406.51739   -2274.9454 
  642000    261.60983   -3815.0581   -3366.6678   -3815.0581            0    10892.532    16.897272    19.902755    20.614632    6932.7475    10729.006    10751.573    11197.018    534.24644    671.48773   -1130.0903   -2265.3564 
  643000    256.24915   -3790.7913    -3351.589   -3790.7913            0     12316.94    16.824514    19.817055    20.525868    6843.5774    14291.679    9905.4903     12753.65     137.3484    1285.9804    120.55198   -2122.2777 
  644000    277.67963   -3839.0974    -3363.164   -3839.0974            0    9168.9643    16.932275    19.943983    20.657336    6975.9204    8148.7164    9392.4628    9965.7138    998.00457   -1546.7598   -154.90412   -2430.3444 
  645000    276.62517     -3789.54   -3315.4139     -3789.54            0    12021.571    16.852581    19.850115     20.56011    6877.8847    11614.729    13135.806    11314.178   -549.25685   -2450.1149   -263.97341   -2109.5675 
  646000    275.28379   -3835.3961   -3363.5691   -3835.3961            0    10094.676    16.898642    19.904368    20.616304    6934.4337    10790.417    8355.6776    11137.932   -384.85175   -1563.6517    -341.6489   -2342.6784 
  647000    261.65487   -3813.6451   -3365.1776   -3813.6451            0    10024.517    16.909332    19.916959    20.629345    6947.6018    10194.015    9840.0111    10039.523   -607.93648   -1179.5608   -756.01073    -2349.457 
  648000    262.25365   -3821.5673   -3372.0735   -3821.5673            0    9035.5735    16.853243    19.850894    20.560917    6878.6947    9967.4259    8650.4416     8488.853   -312.77642   -943.77053    629.83428   -2465.6365 
  649000    283.16474   -3784.8831   -3299.5484   -3784.8831            0    11030.447     16.82167    19.813705    20.522398    6840.1071    12041.698    10725.711    10323.931   -788.50327    538.24521   -572.33542   -2199.1957 
  650000    253.98636    -3798.162   -3362.8381    -3798.162            0    8892.2005    16.889746     19.89389     20.60545    6923.4877     7815.386    9510.5816    9350.6339    813.36797    404.59624    -197.4915   -2464.9751 
  651000    265.63658   -3772.4465   -3317.1545   -3772.4465            0     8364.718    16.986609    20.007981    20.723623    7043.2909    8554.9911    8671.0484    7868.1144   -377.48163    290.19979    171.09874   -2457.9376 
  652000    260.95905   -3819.7658    -3372.491   -3819.7658            0     10646.28    16.886605     19.89019    20.601619    6919.6263    12630.926    8923.1626    10384.753   -328.59598    1166.1937   -254.72233   -2298.1146 
  653000     279.8362   -3821.9691   -3342.3394   -3821.9691            0    9129.8342    16.953767    19.969298    20.683556     7002.518    9657.6828    8562.8775    9168.9423   -919.76138   -1010.8108   -1203.8876   -2409.9593 
  654000    277.55134    -3829.948   -3354.2345    -3829.948            0    9767.5006    16.871937    19.872913    20.583723    6901.6098     11339.56    9337.5385    8625.4037    458.19627   -65.310495   -1124.1115   -2371.1072 
  655000     282.8161   -3858.1731    -3373.436   -3858.1731            0    8091.4879    16.970016    19.988437    20.703379    7022.6708    7741.6546    9101.2348    7431.5744   -1593.2783   -977.87749    250.65838   -2544.7183 
  656000    244.10314   -3834.6967   -3416.3123   -3834.6967            0    10352.656    16.942938    19.956544    20.670345    6989.1086    8501.5466    11508.226    11048.196    1188.3617     59.33835    844.74251   -2361.0766 
  657000    272.63373   -3852.8929    -3385.608   -3852.8929            0     9157.165    16.942852    19.956442     20.67024     6989.002    7460.0792    11005.175    9006.2407   -636.61537   -111.56733   -162.07046   -2452.2417 
  658000    286.37205   -3863.9304   -3373.0985   -3863.9304            0    10769.084    16.884734    19.887986    20.599336    6917.3263    10940.673    12516.998    8849.5814   -342.21002   -1446.6204    387.62978   -2286.6906 
  659000    278.54612   -3848.8131   -3371.3946   -3848.8131            0    11730.968    16.942888    19.956484    20.670283    6989.0456    9642.6393    12991.501    12558.762   -949.64698   -299.21737    2876.9644   -2175.6798 
  660000    288.76269    -3812.225   -3317.2957    -3812.225            0    12867.362    16.908267    19.915706    20.628047    6946.2901    11325.661    15142.897    12133.528   -1727.5689    705.26472    -1537.001   -2013.7738 
  661000    274.49801   -3874.4512    -3403.971   -3874.4512            0     10083.89    16.988756    20.010511    20.726243    7045.9628    9227.4165    7697.2493    13327.004   -510.81306   -1656.6858    958.67317   -2367.7692 
  662000    262.15099     -3818.16   -3368.8422     -3818.16            0    10358.161    16.895756    19.900969    20.612783    6930.8821    9513.2537    10765.086    10796.145   -1593.3257   -1816.0291    679.93219   -2321.8412 
  663000    277.19516   -3832.8452   -3357.7422   -3832.8452            0    10214.427    16.904616    19.911405    20.623592    6941.7906    10819.295    9124.3449    10699.642    2835.7879    1305.8717    1365.4604   -2323.6449 
  664000    271.82791    -3859.507   -3393.6032    -3859.507            0    8723.6413      16.9029    19.909384    20.621499    6939.6773    11664.179    7870.0934    6636.6514    275.57834   -94.790991   -182.81169   -2510.7003 
  665000    265.54143   -3825.0555   -3369.9265   -3825.0555            0    10046.829    16.862001     19.86121    20.571602    6889.4244    9220.2307    10130.721    10789.534    -707.0409    707.66818    1772.1998   -2360.4695 
  666000    273.58596   -3842.2079    -3373.291   -3842.2079            0    10314.182    16.958495    19.974867    20.689324     7008.378    11687.803    10672.633    8582.1103   -1242.0638   -536.67217    250.98596   -2319.0784 
  667000    266.14624    -3850.337   -3394.1714    -3850.337            0    9551.1871    16.830636    19.824266    20.533337    6851.0508    11113.729    8447.3923    9092.4401    854.29688    -215.5997   -259.21986   -2439.8593 
  668000    291.51354   -3827.8089   -3328.1646   -3827.8089            0    8790.8198    16.877023    19.878903    20.589928    6907.8531    7647.0577    11264.722    7460.6798    53.856279    465.98796   -224.55122   -2442.5427 
  669000      275.381   -3805.5757    -3333.582   -3805.5757            0    9419.2423      16.8957    19.900902    20.612714    6930.8122     7080.213    10675.477    10502.037    1237.0909    154.93989    870.69835   -2381.4965 
  670000    270.64195    -3790.572   -3326.7009    -3790.572            0    9863.5516    16.805424    19.794569    20.502578    6820.3081    7781.1748    11713.358    10096.121   -1580.6763   -985.37555    1078.4742   -2345.6011 
  671000    267.35876   -3786.5169   -3328.2731   -3786.5169            0    7278.6274    16.905464    19.912403    20.624626    6942.8354    6499.7089    7865.4606    7470.7128    186.91029   -63.818438    298.55195    -2591.282 
  672000    283.34662   -3799.5156   -3313.8692   -3799.5156            0    11842.005    16.836064    19.830659    20.539959    6857.6811    11676.661     12348.95    11500.404    1654.4215    248.73038    317.75319   -2129.5237 
  673000    273.06085   -3808.1441   -3340.1272   -3808.1441            0     9451.557    16.906295    19.913382     20.62564    6943.8594     7875.952    10504.157    9974.5618    674.87471   -169.21727    534.00136   -2382.9768 
  674000    267.30387   -3799.3585   -3341.2088   -3799.3585            0    8170.1703    16.896726    19.902111    20.613966    6932.0749     10865.93    7374.8235    6269.7571   -630.02013   -961.07723    386.23881   -2515.2274 
  675000    285.57868   -3792.0898   -3302.6177   -3792.0898            0    12483.917    16.810436    19.800473    20.508692    6826.4121      10692.4    12313.252      14446.1    -653.4702    1968.5673   -974.51707   -2059.7661 
  676000     271.9677   -3806.6739   -3340.5305   -3806.6739            0    12578.392    16.776691    19.760726    20.467523    6785.3847    11204.003    14884.961    11646.212    1969.2382   -375.08778   -586.76482   -2095.7996 
  677000    288.97897   -3799.4359   -3304.1358   -3799.4359            0    11918.764    16.814634    19.805418    20.513814    6831.5277    11228.805    12917.663    11609.823   -182.93976    1241.8123   -415.86073   -2116.6596 
  678000    284.64564   -3837.7285   -3349.8557   -3837.7285            0    8138.8361    16.967153    19.985065    20.699887    7019.1179    7372.6421    10345.964    6697.9021    113.62742   -448.96981    1692.6883   -2516.7104 
  679000     265.2358    -3804.604   -3349.9989    -3804.604            0    10056.592    16.874937    19.876446    20.587383    6905.2919    11946.844    10292.472    7930.4597     92.36451    802.65453    575.98207   -2337.2338 
  680000    271.02044   -3826.2737    -3361.754   -3826.2737            0     8929.566      16.9163    19.925167    20.637846    6956.1946     12111.52    6055.3027    8621.8749    855.01119   -415.39171   -107.50247   -2455.8588 
  681000    286.24249   -3823.7026   -3333.0928   -3823.7026            0    12676.025    16.770791    19.753776    20.460325    6778.2285    14075.286    12651.586    11301.203     242.1641    993.77581   -699.61801   -2080.0232 
  682000    281.33355    -3792.527   -3310.3309    -3792.527            0    11755.796    16.831823    19.825664    20.534784    6852.4997    11896.624    12003.785    11366.978   -569.16092   -16.515389   -22.355807   -2135.4957 
  683000    279.59403   -3848.8289   -3369.6143   -3848.8289            0    12186.375    16.872389    19.873446    20.584276    6902.1653    11725.173    12857.091     11976.86    2041.7697   -360.90756   -1751.7394   -2142.9216 
  684000    276.19371   -3832.3924   -3359.0058   -3832.3924            0    10087.836    16.894136    19.899061    20.610806     6928.888    9062.8784    8907.9615    12292.669    1411.7822    461.75806     380.3435   -2339.6227 
  685000    288.23612   -3804.5867   -3310.5599   -3804.5867            0    11799.784    16.890775    19.895102    20.606706    6924.7536    12487.958    11837.601    11073.793    61.336609    96.766308    328.53828   -2118.8947 
  686000    285.63356    -3798.016   -3308.4499    -3798.016            0    8991.5821    16.939429     19.95241    20.666064     6984.767    7714.2719     11787.01    7473.4646   -779.42221    1112.3153     368.2976   -2392.5164 
  687000    256.50443   -3782.8986   -3343.2588   -3782.8986            0    8615.5742    16.889587    19.893702    20.605256    6923.2921    8691.4372    8094.2381    9061.0475    371.48159    414.56684    1575.9011   -2473.3519 
  688000    281.78046   -3778.0657   -3295.1036   -3778.0657            0    11542.845    16.819847    19.811558    20.520174     6837.884    9301.1305    16371.941    8955.4643    382.96526   -1815.9022    1272.2396   -2144.0104 
  689000    269.14466   -3817.8897   -3356.5849   -3817.8897            0    11192.139    16.812456    19.802852    20.511157    6828.8734    11632.742    11262.453    10681.221    34.782735     494.3077     506.8696   -2241.9362 
  690000    298.62617   -3803.4564   -3291.6214   -3803.4564            0    10520.609    16.884713    19.887961     20.59931    6917.3002    10126.813    11740.216    9694.7994   -2069.8785   -1072.3341    18.951595   -2230.2841 
  691000    271.67926   -3793.8256   -3328.1767   -3793.8256            0    10616.733    16.856656    19.854915    20.565082    6882.8752    10244.295    9974.6466    11631.256    731.08556   -189.27286   -762.24872   -2262.4725 
  692000    271.13021   -3806.7596   -3342.0517   -3806.7596            0    11954.148    16.906247    19.913326    20.625582    6943.8005    12936.366    12334.691    10591.385    1877.6775    -934.5466   -870.12623   -2131.4766 
  693000    270.92053   -3787.1726    -3322.824   -3787.1726            0    10782.697    16.909893     19.91762     20.63003    6948.2935    12195.624     9959.235    10193.232    -883.5501   -664.35016    718.03982   -2230.1731 
  694000    288.65925   -3780.3325   -3285.5804   -3780.3325            0    10829.164    16.833573    19.827725     20.53692    6854.6378    8511.7966    12237.172    11738.525   -284.47698   -62.355196    1726.7543    -2203.012 
  695000    288.68119    -3840.951   -3346.1613    -3840.951            0    8657.7767    16.926874    19.937622    20.650747    6969.2478    8327.1675     8783.306    8862.8567   -1150.6413    711.00876   -294.00794   -2466.1907 
  696000    269.46172    -3818.697   -3356.8488    -3818.697            0    7917.2394    16.974016    19.993148    20.708259    7027.6379    8557.6433    7442.6421    7751.4327   -402.95327    146.29816     1224.779   -2545.4039 
  697000    271.29494   -3797.5232   -3332.5329   -3797.5232            0    8882.0921      16.9521    19.967335    20.681523    7000.4527    9599.9512    7894.3675    9151.9577    827.74291   -46.811741    79.412001   -2425.7208 
  698000    279.71471    -3788.325   -3308.9035    -3788.325            0    10042.439    16.848769    19.845624    20.555459     6873.218    11541.556     10190.95    8394.8111   -285.69952    375.93242   -1026.7384   -2302.2611 
  699000    274.61324    -3793.012   -3322.3343    -3793.012            0     12842.19    16.849291    19.846239    20.556096    6873.8567    10725.277    13877.371    13923.921    664.00789    1745.4175   -851.20492   -2034.9286 
  700000    263.66912   -3809.7304   -3357.8106   -3809.7304            0    10379.914    16.862112    19.861341    20.571737    6889.5602    9470.6715    11069.425    10599.647    313.68371    1341.2396     228.3852   -2314.8662 
  701000    269.57582   -3839.9808    -3377.937   -3839.9808            0    9568.8789     16.92404    19.934284     20.64729    6965.7478    10557.141    8568.5167    9580.9785    5.6089779   -105.09083   -438.97965    -2405.851 
  702000    268.67271   -3819.5077   -3359.0119   -3819.5077            0    8240.7958    16.939294     19.95225    20.665899    6984.5989    6618.0011    7975.5849    10128.801    177.65313   -22.071702   -727.18418    -2519.578 
  703000    255.05389   -3829.1595   -3392.0059   -3829.1595            0    9275.7951    16.887086    19.890757    20.602206    6920.2176    8461.0401    9277.8389    10088.506    712.95074   -2040.2223   -841.51343    -2455.853 
  704000    260.62916   -3821.5305    -3374.821   -3821.5305            0    10345.573    16.879265    19.881545    20.592664    6910.6067    12445.438    9775.0904    8816.1907    23.969522    117.18325    107.71732   -2332.1516 
  705000    276.27298     -3854.19   -3380.6676     -3854.19            0     10072.42    16.949296    19.964031    20.678101    6996.9788    11708.934    9325.4247    9182.9012    248.47328    494.90296    269.21728     -2352.84 
  706000     266.2486   -3831.7866   -3375.4456   -3831.7866            0    9958.3385    16.952235    19.967494    20.681688    7000.6202    11107.697    9307.6873     9459.631    381.41697    1653.4302   -474.23141   -2358.7304 
  707000    272.00034    -3848.778   -3382.5788    -3848.778            0    9586.8547    16.921961    19.931834    20.644752      6963.18    8266.7707    12111.177    8382.6165   -20.627611   -294.08469    1842.0916   -2409.0256 
  708000    286.00906   -3827.3643   -3337.1545   -3827.3643            0    11336.233    16.893674    19.898517    20.610243    6928.3202    12005.698    11114.764    10888.238   -34.898917   -562.88022   -2039.8114   -2191.7138 
  709000    282.03082   -3851.4647   -3368.0736   -3851.4647            0    10282.949    16.933765    19.945739    20.659154    6977.7627    10005.233    10486.555    10357.058    -1983.585    1240.4428    338.79282   -2321.6446 
  710000    274.35978   -3799.9213   -3329.6781   -3799.9213            0    9566.3064    16.915596    19.924338    20.636988    6955.3261    7571.3551    12735.982    8391.5819    385.56259   -970.18086   -1180.8712   -2359.3074 
  711000    286.02103   -3831.9525   -3341.7222   -3831.9525            0      9911.62      16.8824    19.885237    20.596488    6914.4577    12205.244    9758.2428     7771.373   -1971.5209   -1326.9652   -867.57085   -2342.2317 
  712000    276.91676   -3826.7642   -3352.1384   -3826.7642            0    9306.0424    16.936794    19.949306    20.662849     6981.507    8368.0937    9652.0433    9897.9902    464.69433   -662.60472     1532.861   -2404.6146 
  713000    272.33967   -3785.7629   -3318.9821   -3785.7629            0    10471.842    16.852911    19.850504    20.560513    6878.2888    10040.828    10071.014    11303.683    -831.4641   -1202.0739    -1221.819   -2268.5224 
  714000    279.69907   -3829.1373   -3349.7427   -3829.1373            0    9820.2328    16.895028    19.900111    20.611894    6929.9851    8814.4231    10670.085    9976.1901   -1080.7275    513.00896    -570.7347   -2357.2439 
  715000    260.98837   -3868.1697   -3420.8445   -3868.1697            0     9458.369    16.956476    19.972489    20.686861    7005.8753    9059.2791    11766.048      7549.78   -570.81028   -767.26673   -855.28363   -2454.4498 
  716000    268.33749   -3837.1033    -3377.182   -3837.1033            0    8785.0665    16.924606    19.934951     20.64798    6966.4465    7865.1389    9965.6806    8524.3799    787.46626   -694.72057    102.67374   -2484.6327 
  717000    264.73087   -3844.2959   -3390.5563   -3844.2959            0     10829.61    16.915104    19.923758    20.636387    6954.7194    10468.256    10391.401    11629.172   -1551.9703    1251.2253    1597.1187   -2292.1366 
  718000    275.21424   -3834.3249   -3362.6171   -3834.3249            0    9934.1985    16.904108    19.910806    20.622972    6941.1647    9911.6743    10659.597    9231.3239    1664.8513   -1253.1684    1303.2561   -2356.9805 
  719000    280.31043   -3825.9418   -3345.4993   -3825.9418            0    10887.374    16.858616    19.857223    20.567472     6885.276    11349.874    10937.022    10375.226    1382.1167   -222.57026    321.75019    -2252.247 
  720000    264.72261   -3842.1456   -3388.4202   -3842.1456            0    11975.336    16.882495    19.885349    20.596604    6914.5743    12635.673    11702.468    11587.867    1180.1019    261.08361   -1027.4362   -2180.8036 
  721000    272.82123   -3822.6195   -3355.0133   -3822.6195            0    10087.144    16.922377    19.932325     20.64526    6963.6938    9799.4963    10926.853    9535.0819    2462.5707   -1486.1322    343.33053   -2330.5798 
  722000    270.28141   -3834.7862   -3371.5331   -3834.7862            0    10662.391    16.854042    19.851835    20.561892    6879.6733    9596.1247    12413.942    9977.1073   -33.184651    687.99582   -575.54595   -2301.7436 
  723000    277.09565    -3852.327   -3377.3945    -3852.327            0    9837.5187    16.849061    19.845968    20.555814    6873.5747    9708.7839    10575.858    9227.9147    979.92423    751.00186   -1221.6616   -2391.2419 
  724000    263.51744   -3829.7441   -3378.0842   -3829.7441            0    9854.8853    16.920981     19.93068    20.643557    6961.9707    9883.0198    8828.5675    10853.068   -1638.6118    962.55462   -515.21564   -2377.4862 
  725000     272.2318   -3843.6189   -3377.0229   -3843.6189            0    11192.033    16.867054    19.867162    20.577766    6895.6196    12270.078     9668.119    11637.901   -890.26067    926.50135   -223.28273   -2251.4901 
  726000    280.02634   -3837.6197   -3357.6642   -3837.6197            0    9999.7419    16.927424     19.93827    20.651418    6969.9267    9341.1442    11153.851     9504.231   -762.64776   -116.15234    1079.1685   -2341.1981 
  727000    278.63406   -3790.0973   -3312.5281   -3790.0973            0    8460.0366    16.990754    20.012864    20.728681    7048.4493    7818.7739    7465.5005    10095.835   -413.13923   -377.87231    -310.2528   -2442.8837 
  728000    283.91111   -3812.2617   -3325.6478   -3812.2617            0    10520.649    16.862281     19.86154    20.571944    6889.7677    9733.8737    10693.638    11134.435   -278.99468    807.28982   -917.57178   -2268.5309 
  729000    284.59954   -3835.3585   -3347.5647   -3835.3585            0    9224.6228     16.93047    19.941857    20.655134      6973.69    10510.341    9477.4139    7686.1132    512.74681   -93.843342   -212.59998   -2409.3826 
  730000    282.61242   -3829.2162   -3344.8281   -3829.2162            0    8491.9015    16.958056     19.97435    20.688788    7007.8332      4327.01    13259.363    7889.3318    93.569098    713.64336   -2732.3404   -2476.9383 
  731000    281.16704   -3814.1923   -3332.2817   -3814.1923            0    9964.1892    16.896648     19.90202    20.613871    6931.9795    10742.225    9208.4663    9941.8766   -1336.9883   -408.13049    341.85249   -2324.9439 
  732000    261.59911   -3796.8576   -3348.4857   -3796.8576            0    8464.0862    16.936659    19.949147    20.662684      6981.34    9183.0751    8953.6911    7255.4924   -781.97009    347.25493   -88.933718   -2486.7089 
  733000    271.38513   -3830.9356   -3365.7908   -3830.9356            0     12387.39    16.839878    19.835152    20.544612    6862.3432    14473.002    12810.023    9879.1453    1485.4575    1466.0242   -106.81459   -2126.0578 
  734000    267.85553   -3799.5746   -3340.4794   -3799.5746            0    8744.8887    16.971976    19.990746    20.705771    7025.1053    10665.984    6138.7169     9429.965   -1313.1513    1015.8523   -132.13871    -2444.531 
  735000    259.29829   -3815.8449   -3371.4165   -3815.8449            0     9462.971    16.859057    19.857742     20.56801    6885.8156     10126.77    7383.4061    10878.737     111.8322    -496.9656   -808.08161   -2421.1208 
  736000    269.96587   -3810.8058   -3348.0936   -3810.8058            0    8516.0118    16.901683     19.90795    20.620014    6938.1786    7576.4084    9066.2302    8905.3967    1760.3787    129.38329    474.57821   -2486.3905 
  737000    275.13691   -3813.4882    -3341.913   -3813.4882            0     11349.63    16.866504    19.866514    20.577096    6894.9452    10760.786    11203.772     12084.33     268.8289   -1918.0723    213.30945    -2200.643 
  738000    278.23135   -3804.6945   -3327.8155   -3804.6945            0    9421.3376    16.875221    19.876781     20.58773    6905.6409    7950.6399    10641.005     9672.368    1398.4165   -750.42515   -1480.5039   -2378.9767 
  739000    279.68636   -3802.6868    -3323.314   -3802.6868            0    12602.449     16.75619    19.736579    20.442513    6760.5409    13604.856    14639.638    9562.8538    943.51205   -975.83912    192.25867   -2080.7685 
  740000    272.15943   -3790.5504   -3324.0784   -3790.5504            0    11078.008    16.869752     19.87034    20.581058    6898.9295    13700.004    7248.8186    12285.202    740.00353    592.98293   -1757.9809   -2209.4778 
  741000    262.14588   -3796.2972   -3346.9881   -3796.2972            0    10591.158    16.928974    19.940095    20.653309    6971.8416    11307.931    9809.3102    10656.232   -1677.6061   -16.702378   -1003.9075   -2270.1093 
  742000    295.06536   -3832.9057   -3327.1738   -3832.9057            0    8538.0004    16.959494    19.976043    20.690543    7009.6162    8755.8766    9766.6572    7091.4675    1494.8117    1289.0052    488.47962   -2454.3505 
  743000    280.78641    -3777.967   -3296.7087    -3777.967            0    9599.8352     16.94525    19.959266    20.673165    6991.9694    9642.2343     11879.13    7278.1409    117.22453     907.0262   -1163.7373   -2317.8068 
  744000    284.12073   -3795.6192    -3308.646   -3795.6192            0    12322.063    16.819713      19.8114     20.52001      6837.72    11271.866     15236.01    10458.312   -1201.1295    471.91766    953.89447   -2079.8759 
  745000    289.86902   -3789.3582   -3292.5326   -3789.3582            0    8722.9522     16.91265    19.920867    20.633393    6951.6923    8293.3427    8995.1438    8880.3701    -2631.133    1928.3439    267.47978   -2408.1709 
  746000     267.4283    -3819.084   -3360.7211    -3819.084            0    9006.5921    16.890715    19.895032    20.606633    6924.6802    8906.3206    10293.277     7820.179   -794.73189   -1141.0448   -1051.6371   -2451.1511 
  747000    280.03564    -3842.572   -3362.6005    -3842.572            0    9833.0362    16.866449    19.866449    20.577029    6894.8778    9226.0568    10361.459    9911.5926   -14.060347     -229.233    218.44359   -2373.8423 
  748000     288.5172   -3810.8889   -3316.3802   -3810.8889            0      11011.9    16.824376    19.816893      20.5257     6843.409     11134.35    11286.087    10615.261   -1738.5761     1047.198   -605.32284   -2217.3475 
  749000    272.76771   -3853.9315    -3386.417   -3853.9315            0    9589.5252    16.897358    19.902856    20.614738    6932.8538    9354.3881    9999.8854     9414.302    605.67239   -345.81675    214.70626   -2416.8339 
  750000    279.31753   -3788.3776   -3309.6369   -3788.3776            0    11814.174    16.791036    19.777623    20.485025    6802.8059    13769.859    10280.158    11392.505   -254.66171    286.66212   -641.61533   -2137.5297 
Loop time of 445.225 on 64 procs for 250000 steps with 864 atoms

Performance: 97.030 ns/day, 0.247 hours/ns, 561.514 timesteps/s
99.0% CPU use with 64 MPI tasks x 1 OpenMP threads

MPI task timing breakdown:
Section |  min time  |  avg time  |  max time  |%varavg| %total
---------------------------------------------------------------
Pair    | 21.686     | 27.26      | 32.067     |  48.6 |  6.12
Bond    | 0.27501    | 0.28333    | 0.29599    |   1.0 |  0.06
Kspace  | 182.98     | 193.3      | 207.11     |  39.6 | 43.42
Neigh   | 5.6072     | 6.8539     | 8.6742     |  29.1 |  1.54
Comm    | 89.3       | 104.64     | 115.78     |  55.5 | 23.50
Output  | 1.5447     | 1.5459     | 1.5585     |   0.2 |  0.35
Modify  | 104.77     | 106.94     | 109.24     |  12.7 | 24.02
Other   |            | 4.407      |            |       |  0.99

Nlocal:        13.5000 ave          20 max           9 min
Histogram: 8 8 11 3 9 12 5 4 3 1
Nghost:        2306.75 ave        2357 max        2268 min
Histogram: 2 4 8 15 13 9 9 2 1 1
Neighs:        4529.42 ave        7347 max        2922 min
Histogram: 5 11 13 13 7 5 4 4 0 2

Total # of neighbors = 289883
Ave neighs/atom = 335.51273
Ave special neighs/atom = 2.0000000
Neighbor list builds = 15448
Dangerous builds = 3

unfix		3
unfix		2
unfix		1

write_data	data.final.${pid}
write_data	data.final.0
System init for write_data ...
PPPM initialization ...
  extracting TIP4P info from pair style
  using 12-bit tables for long-range coulomb (../kspace.cpp:340)
  G vector (1/distance) = 0.37515822
  grid = 24 24 24
  stencil order = 5
  estimated absolute RMS force accuracy = 0.0030601966
  estimated relative force accuracy = 9.215691e-06
  using double precision FFTW3
  3d grid and FFT values/proc = 2535 216
Last active /omp style is kspace_style pppm/tip4p/omp
WARNING: Not all mixed pair coeffs generated from mixing. Use write_data with 'pair ij' option to store all pair coeffs. (../write_data.cpp:312)

write_restart   restart.lmp.${pid}
write_restart   restart.lmp.0
System init for write_restart ...
PPPM initialization ...
  extracting TIP4P info from pair style
  using 12-bit tables for long-range coulomb (../kspace.cpp:340)
  G vector (1/distance) = 0.37515822
  grid = 24 24 24
  stencil order = 5
  estimated absolute RMS force accuracy = 0.0030601966
  estimated relative force accuracy = 9.215691e-06
  using double precision FFTW3
  3d grid and FFT values/proc = 2535 216
Last active /omp style is kspace_style pppm/tip4p/omp
Total wall time: 0:07:28
