LAMMPS (30 Jul 2021)
  using 1 OpenMP thread(s) per MPI task
package omp 0
using multi-threaded neighbor list subroutines
echo both

include		in.partitions
variable        pid world 0
include		in.temp
variable        temperature equal 282.16
variable	tempDamp equal 100.0
include		in.pressure
variable        pressure equal 11250.0
variable        pressureDamp equal 1000.0 # This is 1 ps
include		in.seed
variable        seed world 745823

units		real
atom_style	full
read_restart	restart.lmp.${pid}
read_restart	restart.lmp.0
Reading restart file ...
  restart file = 30 Jul 2021, LAMMPS = 30 Jul 2021
  restoring atom style full from restart
  orthogonal box = (-0.10201124 -0.15643359 -0.021758172) to (24.832012 24.886435 22.831758)
  4 by 4 by 4 MPI processor grid
  restoring pair style lj/cut/tip4p/long/omp from restart
  restoring bond style harmonic/omp from restart
  restoring angle style harmonic/omp from restart
  1920 atoms
  1280 bonds
  640 angles
Finding 1-2 1-3 1-4 neighbors ...
  special bond factors lj:    0        0        0       
  special bond factors coul:  0        0        0       
     2 = max # of 1-2 neighbors
     1 = max # of 1-3 neighbors
     1 = max # of 1-4 neighbors
     2 = max # of special neighbors
  special bonds CPU = 1.497 seconds
  read_restart CPU = 1.909 seconds
include 	in.setup
variable	out_freq equal 1000
variable	out_freq2 equal 10000
variable	out_freq3 equal 1000

timestep	2.0

neigh_modify    delay 7 every 1

include		in.tip4p
# This is TIP4P/Ice

# create groups ###
group ox type 2
640 atoms in group ox
group hy type 1
1280 atoms in group hy

# set charges - beside manually ###
set group ox charge -1.1794
Setting atom values ...
  640 settings made for charge
set group hy charge 0.5897
Setting atom values ...
  1280 settings made for charge

# ### TIP3P Potential Parameters ###
pair_style lj/cut/tip4p/long/omp 2 1 1 1 0.1577 8.5
pair_coeff 1 1*2 0.000 0.000
pair_coeff 2 2 0.21084 3.1668
bond_style  harmonic
bond_coeff  1 450 0.9572
angle_style harmonic
angle_coeff 1 55 104.52
kspace_style pppm/tip4p/omp 1.0e-5
pair_modify tail yes

thermo          ${out_freq}
thermo          1000
thermo_style    custom step temp pe etotal epair emol press lx ly lz vol pxx pyy pzz pxy pxz pyz enthalpy

restart 	${out_freq3} restart.lmp.${pid} restart2.lmp.${pid}
restart 	1000 restart.lmp.${pid} restart2.lmp.${pid}
restart 	1000 restart.lmp.0 restart2.lmp.${pid}
restart 	1000 restart.lmp.0 restart2.lmp.0


include         in.dump
dump            myDump all atom ${out_freq2} dump.water.${pid}
dump            myDump all atom 10000 dump.water.${pid}
dump            myDump all atom 10000 dump.water.0
dump            myDump2 all dcd ${out_freq2} dump.dcd
dump            myDump2 all dcd 10000 dump.dcd
dump_modify     myDump append yes
dump_modify     myDump2 append yes


variable natoms 	equal  "count(all)"                        # NUMBER ATOMS
variable H      	equal  "enthalpy/v_natoms"                 # ENTHALPY-per-atom
variable Vol      	equal  "vol/v_natoms"                 # volume-per-atom
fix AVG all 		ave/time ${out_freq} 1 ${out_freq} v_Vol v_H file vol_enthalpy.dat
fix AVG all 		ave/time 1000 1 ${out_freq} v_Vol v_H file vol_enthalpy.dat
fix AVG all 		ave/time 1000 1 1000 v_Vol v_H file vol_enthalpy.dat




fix 		1 all shake 1e-6 200 0 b 1 a 1
       0 = # of size 2 clusters
       0 = # of size 3 clusters
       0 = # of size 4 clusters
     640 = # of frozen angles
  find clusters CPU = 0.766 seconds
fix             2 all nph aniso ${pressure} ${pressure} ${pressureDamp}
fix             2 all nph aniso 11250 ${pressure} ${pressureDamp}
fix             2 all nph aniso 11250 11250 ${pressureDamp}
fix             2 all nph aniso 11250 11250 1000
fix             3 all temp/csvr ${temperature} ${temperature} ${tempDamp} ${seed}
fix             3 all temp/csvr 282.16 ${temperature} ${tempDamp} ${seed}
fix             3 all temp/csvr 282.16 282.16 ${tempDamp} ${seed}
fix             3 all temp/csvr 282.16 282.16 100 ${seed}
fix             3 all temp/csvr 282.16 282.16 100 745823


run             250000
PPPM initialization ...
  extracting TIP4P info from pair style
  using 12-bit tables for long-range coulomb (../kspace.cpp:340)
  G vector (1/distance) = 0.37441916
  grid = 30 30 30
  stencil order = 5
  estimated absolute RMS force accuracy = 0.0032796358
  estimated relative force accuracy = 9.876526e-06
  using double precision FFTW3
  3d grid and FFT values/proc = 3600 512
Last active /omp style is kspace_style pppm/tip4p/omp
Neighbor list info ...
  update every 1 steps, delay 7 steps, check yes
  max neighbors/atom: 2000, page size: 100000
  master list distance cutoff = 10.8154
  ghost atom cutoff = 10.8154
  binsize = 5.4077, bins = 5 5 5
  1 neighbor lists, perpetual/occasional/extra = 1 0 0
  (1) pair lj/cut/tip4p/long/omp, perpetual
      attributes: half, newton on, omp
      pair build: half/bin/newton/omp
      stencil: half/bin/3d
      bin: standard
Per MPI rank memory allocation (min/avg/max) = 9.331 | 9.338 | 9.344 Mbytes
Step Temp PotEng TotEng E_pair E_mol Press Lx Ly Lz Volume Pxx Pyy Pzz Pxy Pxz Pyz Enthalpy 
 5250000     284.4387   -8993.7626   -7909.3525   -8993.7626            0    10582.893    24.934023    25.042868    22.853516     14270.18    9859.7554    11792.932    10095.992    25.489873   -250.81008    895.52115   -5706.8837 
 5251000     285.0791   -9044.7458   -7957.8942   -9044.7458            0    11115.138    24.935853    24.886859    22.987907    14265.721    10693.117     11377.22    11275.079   -175.00859   -1470.2503    699.14233   -5645.3795 
 5252000    280.48243     -9009.35   -7940.0231     -9009.35            0    10045.507    24.896005    25.005038    22.977266    14303.935    10189.793    9352.1862    10594.542     21.78275    1765.8936    530.31234   -5844.4478 
 5253000    279.70579   -9001.3159   -7934.9499   -9001.3159            0    12419.483    24.938487    24.887907     22.85908     14187.87    12765.037    12510.633    11982.778   -804.73679   -931.22692   -833.46679   -5365.1659 
 5254000    281.40483   -9039.6117   -7966.7682   -9039.6117            0    11935.848    24.865807    25.006659    22.874833    14223.817    10869.939    12716.468    12221.137   -702.79743    150.46573    729.93692   -5490.7985 
 5255000    276.98174    -8974.564   -7918.5832    -8974.564            0    11464.381     24.73394    24.974422    23.099767    14269.092    11316.144    11591.806    11485.191    1276.0246   -195.57304    908.72325   -5532.8447 
 5256000     290.0805   -9008.6722   -7902.7531   -9008.6722            0    10809.783    24.890597    25.083171    22.851378    14266.918    10739.072    9787.6428    11902.634   -148.39875   -80.954982    588.94854   -5653.5793 
 5257000    285.01616   -9052.3154   -7965.7039   -9052.3154            0    10457.565    24.829686    25.073214    22.917455    14267.492    11030.655    9672.4184    10669.622    389.45591    644.35419    336.39208   -5789.7278 
 5258000    274.81358   -9011.8801   -7964.1654   -9011.8801            0    10657.023    24.868928    25.005655    22.981365     14291.28    10555.355    11699.763    9715.9517    163.49379    69.120535   -35.581951   -5742.9896 
 5259000    293.37952   -9002.7024   -7884.2059   -9002.7024            0     11890.09    24.841304    25.055103    22.910064    14259.257    11308.933    11468.666     12892.67   -41.568518   -786.88154   -224.84862   -5411.5829 
 5260000     286.8136   -9015.2331   -7921.7689   -9015.2331            0    11180.258    24.868144    24.974244    22.946002    14250.914    11789.328    9866.7418    11884.703   -98.488871   -1784.3712    355.78795   -5598.1203 
 5261000    273.88783   -8997.6261   -7953.4408   -8997.6261            0    10314.917    25.006905    24.950847    22.931181     14307.76    9395.4135    10617.362    10931.975   -499.80857   -1427.1718   -821.38565   -5801.0889 
 5262000     292.9288   -9004.0029   -7887.2247   -9004.0029            0    9899.7035    25.007777    24.917239    22.997628    14330.392    9621.7158    10154.288    9923.1064    625.40965   -531.21865    404.62812   -5818.2455 
 5263000    286.23794   -9008.7237   -7917.4541   -9008.7237            0    9578.3883     25.03336    24.959818    22.948825    14339.071    8509.4744    10218.197    10007.493    20.854934    -89.51497    -87.35957   -5914.4155 
 5264000    281.55836   -9067.8635   -7994.4346   -9067.8635            0    10239.986    24.952303    24.953357    22.907098    14262.961    9945.4685    11307.681    9466.8075   -138.91862   -152.32016     572.2855   -5864.4085 
 5265000    275.42331   -9006.1128   -7956.0735   -9006.1128            0    10966.697    24.870292    24.906182    23.064405    14286.646    11958.105     11619.72    9322.2639    421.67891    1161.1606    -1081.098   -5671.0956 
 5266000    282.78882   -9012.6002   -7934.4803   -9012.6002            0    9547.3549    25.043278    25.057894    22.843446    14334.989     8571.358    9175.5839    10895.123   -231.79366   -95.609731    166.59666   -5938.4996 
 5267000    284.03019   -9015.0445   -7932.1919   -9015.0445            0    10602.468    24.955151    24.912796    23.002842    14300.927    10206.733    10609.536    10991.134   -1222.5505   -891.29027    295.28366   -5720.8951 
 5268000    275.06896   -9024.6842   -7975.9959   -9024.6842            0    10144.643    25.100959    24.889044    22.871901    14288.966    8755.7843    11509.281    10168.862   -175.61602    776.81094   -166.17625   -5861.9547 
 5269000    279.93389   -9015.4616   -7948.2259   -9015.4616            0    11824.844    25.046882    24.770579    22.916941    14218.261    9201.1193    12386.063     13887.35     491.5674   -808.98859    437.69629   -5496.2409 
 5270000    274.73931   -9014.2765    -7966.845   -9014.2765            0    10934.718     25.00662    24.828405    22.954049    14251.583    10055.502     11403.93    11344.722    286.78877   -848.87904   -566.02572   -5694.1215 
 5271000    284.19083   -9038.8919   -7955.4269   -9038.8919            0    11033.529    25.073399     24.79914    22.891498    14233.905    10503.874    11884.211    10712.502   -415.90664   -441.20079   -238.88448   -5665.0107 
 5272000     290.9696   -9018.9472   -7909.6384   -9018.9472            0    11630.371    24.951604    24.859638    22.992706    14262.096    10945.931    12239.404    11705.779   -949.10536   -789.57118    -486.0214   -5490.5439 
 5273000    277.30496    -9046.041   -7988.8281    -9046.041            0    11183.056    24.969867    24.928079     22.82883    14209.824    10208.547    11533.173    11807.447    453.82445   -1442.6719   -150.69352   -5671.2996 
 5274000    288.38179   -8964.2383   -7864.7954   -8964.2383            0    10811.205    24.924554    24.854815    23.081789    14299.057    9256.9453    12970.982    10205.688    128.84901   -315.38532    -987.6504   -5610.2582 
 5275000     276.7622   -8989.7156   -7934.5719   -8989.7156            0    10992.118    24.904418    25.021998    22.880527     14258.19    10989.335    10694.447    11292.571   -644.74888   -785.62418    130.60347   -5648.8592 
 5276000    279.37453   -8979.0738   -7913.9707   -8979.0738            0    10874.018    24.786447    25.084643    23.054291    14334.217    13210.746    9303.7453    10107.563    247.40601    -177.5338    634.50805   -5640.7589 
 5277000    276.55183   -8996.3788   -7942.0371   -8996.3788            0    10266.938    24.921764    25.043959    22.903312    14294.865     11088.66     9528.014    10184.141    926.66887    94.921153   -475.48035   -5801.6274 
 5278000    284.09769   -9041.5585   -7958.4485   -9041.5585            0    10832.389    24.729653     25.15951    22.911999    14255.524    13124.896    9503.2219     9869.049   -562.79116    64.069178   -1275.8175    -5706.371 
 5279000     275.3411   -9020.3522   -7970.6264   -9020.3522            0    10681.404    24.872642    24.972086    23.017761    14296.832    11158.456    10769.991    10115.766    1061.2177    -1233.138    24.235161   -5743.5042 
 5280000     294.1355   -9039.2089   -7917.8303   -9039.2089            0    9225.4999    24.968757    25.018085    22.952584    14337.802    8896.1069    9261.0486    9519.3441    859.95881    1181.0737   -245.98806   -5988.7586 
 5281000    281.88775   -8971.3648   -7896.6801   -8971.3648            0    10293.588    24.968787    25.007898     22.97844    14348.126    9700.6781    10830.231    10349.854   -261.75392   -473.05262   -488.09741   -5742.7192 
 5282000    289.81693   -9016.2103    -7911.296   -9016.2103            0     9187.791    24.938731    25.073112    22.981115    14369.898    9624.5603    8685.0135    9253.7993    30.966747   -418.61882    324.87402   -5985.8085 
 5283000    283.91159   -9010.5259   -7928.1255   -9010.5259            0    10888.956    24.909783    24.875596    23.034558    14273.265    10806.825    12035.331    9824.7123    323.70639    64.482657   -155.11307   -5661.4703 
 5284000    280.10582   -9060.4604   -7992.5692   -9060.4604            0    9280.7882    25.054074    24.954776    22.855814    14289.885    8567.2412     9148.522    10126.601    200.15594   -635.60192    2.8427639   -6058.4222 
 5285000    266.80407   -9022.7305   -8005.5517   -9022.7305            0    11579.396    24.939653    24.914688     22.88415     14219.38    12779.495    10964.753    10993.939   -417.71565   -373.87912   -29.881005   -5604.2737 
 5286000    284.87746   -9035.7727   -7949.6899   -9035.7727            0    10885.681    24.935946    24.720449     23.08845    14232.362    10813.123    12383.737    9460.1838   -43.510881   -383.55849   -92.088922     -5690.21 
 5287000    287.43856   -9027.9738   -7932.1269   -9027.9738            0    11620.195    24.945832    24.829359    22.934509    14205.383    11707.497    12401.225    10751.864    153.97734   -74.009747   -19.444283   -5524.7602 
 5288000    288.61053   -9006.1478   -7905.8328   -9006.1478            0    12273.574     25.01045    24.831716    22.859058    14196.673    10310.572    13109.053    13401.098   -64.884083   -1354.9548    20.966073    -5364.664 
 5289000    285.35603    -9065.838   -7977.9306    -9065.838            0    9585.7527    25.039243    24.923931    22.921714      14304.9    9515.8655    9493.9548    9747.4377   -494.06654   -737.99712    1173.7393    -5978.129 
 5290000    277.30694   -9018.6955    -7961.475   -9018.6955            0    9882.2349    24.971235    24.905689     22.99909    14303.728    8036.3867    11547.642    10062.676   -78.947437    36.282213    897.02695   -5899.9894 
 5291000    278.15507   -9058.4935   -7998.0395   -9058.4935            0    10554.607    25.011635    24.830204      22.9389    14246.066    10291.752    10504.944    10867.126    12.795686   -872.95747   -190.13341   -5805.1693 
 5292000     275.3202   -9001.6361   -7951.9899   -9001.6361            0    10996.066    24.957983    24.932172    22.932503    14269.904    10670.176    11103.303    11214.719   -33.413486   -9.1626581     -533.279   -5663.5775 
 5293000     288.4976   -9032.0645     -7932.18   -9032.0645            0    10577.569     24.94982    24.895915    22.993894    14282.625    10540.729    11018.159    10173.819   -261.06138    752.19702   -245.22552   -5728.8995 
 5294000    285.27237   -9040.2957   -7952.7073   -9040.2957            0    10125.284     25.00693    24.989649    22.851656     14280.33    10898.145    10239.157    9238.5506    342.59799   -84.771025    426.93586   -5843.9755 
 5295000    273.60988   -9061.8241   -8018.6985   -9061.8241            0    11805.282    24.897056     24.92356     22.89185    14204.926    11362.359    11697.415    12356.071   -1519.6356   -1476.0714   -697.01215   -5573.0659 
 5296000    287.08821    -8970.879   -7876.3678    -8970.879            0     12841.71    24.820221    24.841353    23.043921    14208.142    13112.243    13869.449    11543.438    608.68552    827.00074    360.64166    -5215.422 
 5297000    287.92701   -9044.8843   -7947.1752   -9044.8843            0    12282.306    24.952011    24.899122    22.790721    14159.492    11852.691    11956.872    13037.354    929.61388   -806.13094     -108.349   -5410.8587 
 5298000    278.59697   -9019.4385   -7957.2999   -9019.4385            0    11198.937    24.992862    24.852864    22.942774    14250.771    9466.7624    12721.599    11408.449   -138.64834    609.64855   -419.53753   -5629.7926 
 5299000    291.81502   -9020.1344   -7907.6025   -9020.1344            0    10623.382    24.843314    24.908766    23.051683    14264.757     9508.033    12373.471    9988.6429   -500.41929    468.83416    725.74683   -5697.5475 
 5300000    291.52219   -9009.6792   -7898.2637   -9009.6792            0    11477.096    24.920658    24.957153    22.931003    14261.907    10863.345    10871.618    12696.324   -395.72532   -549.37108    317.37569   -5511.0819 
 5301000    277.78228   -8989.3922   -7930.3595   -8989.3922            0    10761.449    24.802931     25.02215    23.015071    14283.675    12973.474    10607.435    8703.4384    943.34937   -914.80892   -549.59942   -5688.6125 
 5302000    284.27737   -9030.3181   -7946.5231   -9030.3181            0    10284.395    24.885717    25.015441    22.947304    14285.321    10711.808    10189.177    9952.1994    -208.9127    624.80394    667.96204   -5803.9057 
 5303000    282.49847   -9031.1051   -7954.0921   -9031.1051            0    10759.488    24.718439    25.033892     23.03058    14251.294    11714.829    10206.684    10356.952   -10.864564    216.79729   -1333.6054   -5717.8347 
 5304000    282.60819   -9001.9342   -7924.5029   -9001.9342            0    10600.132    24.910602    25.016682    22.962597    14309.846    10618.812    9418.4447     11763.14   -154.03251   -1013.9129    106.64692   -5712.3144 
 5305000    284.65531    -9001.395   -7916.1591    -9001.395            0    11398.274    24.911614    24.967248    22.891531    14237.947    10686.687    11355.229    12152.905    271.90238     466.9182   -534.71974   -5549.3547 
 5306000    280.57051   -8971.0712   -7901.4085   -8971.0712            0     12535.37    24.743916    24.911453    23.061895    14215.512    14381.376    12436.093     10788.64    775.67246    37.433457    17.880762   -5302.5925 
 5307000    287.31788   -9029.6656   -7934.2789   -9029.6656            0    12403.505    24.797609    24.950985    22.930294    14187.541    12721.247    11764.666    12724.602   -380.44278    1335.4635   -348.40768   -5367.8606 
 5308000    281.52877   -9027.7184   -7954.4024   -9027.7184            0    12166.469    24.962774    24.898653    22.828157      14188.6    12880.564    11416.418    12202.426    1028.1413    1061.4526   -595.05854   -5436.8414 
 5309000    287.28871   -9031.5605    -7936.285   -9031.5605            0    11929.397    24.815774    24.822799    23.085478    14220.585    12075.951    11497.816    12214.425   -138.93549    610.45982    124.04847   -5462.2158 
 5310000    277.13665   -9043.8135   -7987.2422   -9043.8135            0    11579.639    24.936704    24.980382    22.802991    14204.631    11468.407    11073.933    12196.578   -921.12643     656.8646   -724.11065   -5588.4044 
 5311000    284.28503   -9044.2771   -7960.4529   -9044.2771            0    11830.884    24.967668    24.798417    22.945786    14207.082    12029.573    12061.426    11401.652    225.45699    67.787646    1469.1757   -5509.1445 
 5312000    283.82119   -9020.7739   -7938.7181   -9020.7739            0    11381.389    24.916752    24.943578    22.910524    14239.187    9988.4823    11804.867    12350.819      107.098    533.99922   -536.50795    -5575.214 
 5313000    292.47319    -8989.713   -7874.6718    -8989.713            0    12162.218    24.996195    24.880396    22.875552    14226.654    11435.706    13194.996    11855.953   -1015.0664   -193.26715    -743.3823   -5351.2407 
 5314000    285.42141   -9015.2855    -7927.129   -9015.2855            0    11812.297    24.954853    24.784762    22.992285     14220.73    10368.874    13828.665    11239.351   -526.15918      101.581    646.52799   -5477.3204 
 5315000    263.59819   -9014.0713   -8009.1148   -9014.0713            0    9388.6628    24.975262    24.958507    23.026065    14353.189    8918.4169    9626.5222    9621.0495   -304.69989    298.71889    198.23215   -6043.8185 
 5316000    298.24854   -9007.0316   -7869.9721   -9007.0316            0    10700.932    24.954017    24.963143     22.93227    14285.215    10255.354    10223.943    11623.499    69.644741      776.113   -128.05308   -5640.5912 
 5317000    281.18711   -9053.1808   -7981.1673   -9053.1808            0    11375.897    24.772945    25.060118    22.924865    14232.053    12716.721    9984.5232    11426.446   -17.091395    797.61945    17.330223   -5619.9874 
 5318000    285.15115   -9053.8036   -7966.6774   -9053.8036            0    11488.617    24.723904    25.067408    22.918426    14204.019    12488.028    10210.092    11767.729   -737.39296   -994.31857    -118.8562   -5586.7984 
 5319000    280.81497   -9056.7755   -7986.1808   -9056.7755            0    10914.967    24.889577     25.00297    22.861579    14227.066    10921.005    10712.934    11110.962   -92.128032   -22.644097    536.55341   -5721.4652 
 5320000    284.95237   -9050.6471   -7964.2787   -9050.6471            0    11274.715    24.745492    24.973631    23.034041    14234.687     12444.13    11368.003    10012.012      547.734    -182.2269    -39.95427   -5623.6669 
 5321000     284.7273   -9023.9485   -7938.4382   -9023.9485            0    10289.235    24.965751    25.015752    22.875401    14286.535    10316.044    10132.694    10418.966    772.67838    88.530824   -307.76115   -5794.6301 
 5322000    292.63039   -9016.1347   -7900.4942   -9016.1347            0    10977.122    24.937719    24.891916    22.958324    14251.324    10343.442    10946.202    11641.722   -352.31682    98.499079   -883.18639   -5618.9987 
 5323000    280.86945   -9090.8889   -8020.0865   -9090.8889            0    10551.045     24.96904    24.882299    22.968638    14270.119    10419.429    10577.436     10656.27   -533.90801   -245.26572     -73.4775   -5824.2552 
 5324000    293.09474   -9035.8897   -7918.4789   -9035.8897            0    11095.063    25.002531    24.903854    22.891088    14253.351    10500.338    11756.404    11028.448   -277.59127   -322.61248     315.0581   -5612.1425 
 5325000    289.89306   -8994.5125   -7889.3079   -8994.5125            0    11958.566    24.912314    24.856393    22.962536    14219.097    13114.399    11046.484    11714.815   -287.96645    524.77821   -23.837525   -5409.4488 
 5326000    285.81484   -9029.1826   -7939.5261   -9029.1826            0      12358.1    24.987399    24.805695    22.903447    14196.239    11285.258     13536.17    12252.871   -366.55725    395.39759   -935.54607   -5380.9349 
 5327000    278.11703   -9050.2933   -7989.9843   -9050.2933            0    11698.679    24.907738    24.940029    22.894717    14222.191    12675.366    10299.118    12121.553   -227.13564    167.39269   -265.63529   -5563.4902 
 5328000    277.80664   -8965.6008   -7906.4752   -8965.6008            0    10325.192    25.023011    24.790954    23.080214    14317.679    10635.893    11499.412    8840.2713     375.2709   -228.75312   -701.99653   -5750.4856 
 5329000    285.19079   -9049.3206   -7962.0432   -9049.3206            0      10188.8    25.000575     24.92049    22.900486    14267.612    10042.743    8716.2969    11807.359    642.39098   -919.78983   -18.130144   -5841.9733 
 5330000    270.30359   -8987.8868   -7957.3663   -8987.8868            0    9974.7253    25.053421    24.872903    22.991033    14326.892    9123.2509    10584.918    10216.007   -29.237453    574.12865   -99.506217   -5873.2169 
 5331000    287.67501   -9003.2539   -7906.5056   -9003.2539            0    10552.538    24.946731    24.978912    22.958565    14306.451    11659.013     9869.287    10129.316    -332.6368    1060.9583   -434.67835   -5704.7722 
 5332000    281.51346   -9034.7533   -7961.4956   -9034.7533            0    10087.967    24.989669    24.921798    22.954809    14295.968    9910.5266    10789.558    9563.8149     -557.103    738.62433   -1138.2964    -5858.235 
 5333000    273.09117   -9047.3889   -8006.2408   -9047.3889            0    11015.841    24.879892    24.849796    23.052594    14252.502    10761.615    11521.706      10764.2    409.80066    294.09351    586.05024   -5716.5089 
 5334000    282.59819   -8974.3477   -7896.9545   -8974.3477            0    11189.871    24.987253    24.979488    22.872975    14276.597    10448.783    11003.911    12116.919    87.447252   -600.45305    1070.6379   -5567.1168 
 5335000    275.50274     -9006.28   -7955.9379     -9006.28            0    11698.362    24.784946    25.043882    22.900427    14214.553    11896.694    10744.825    12453.567   -1310.1653    111.08408    188.02824   -5530.8128 
 5336000    282.75998   -9009.5116   -7931.5016   -9009.5116            0    11292.029    24.827586    25.044978    22.895603    14236.632    13187.511    9944.7508    10743.825    732.65185    901.67734    456.15427   -5586.9752 
 5337000    286.38606   -9030.8493    -7939.015   -9030.8493            0    12516.535    24.738953    24.986868    22.950146    14186.609    13922.705    11407.542    12219.358     819.8894   -72.807066    668.70972   -5349.3798 
 5338000    293.93715   -9010.9715   -7890.3491   -9010.9715            0    11259.469    24.926036    24.955718    22.899402    14244.507    11521.443    11876.365    10380.598    183.27192   -810.83745    1006.1233   -5551.2898 
 5339000    271.44629    -9033.147     -7998.27    -9033.147            0    12717.292    25.028503    24.762894    22.872181    14175.678    11783.501    13843.733    12524.642   -669.03173   -118.11441   -429.48085   -5369.1259 
 5340000    277.54041   -8990.1092   -7931.9985   -8990.1092            0    12409.556    24.977179    24.774607    22.945166    14198.464    11359.379    13575.098     12294.19    462.14454   -1634.0073    1250.9287   -5362.3514 
 5341000    275.11373   -9016.4819   -7967.6229   -9016.4819            0    11787.004    25.037997    24.742908    22.915372    14196.368    11072.342    13083.082    11205.586   -275.84318      284.117    216.68846    -5527.248 
 5342000    275.69674   -8992.5313   -7941.4496   -8992.5313            0    11720.042    24.920783    24.894014    22.960954    14244.478    12397.233     12479.82    10283.074   -98.665602   -324.10291    1100.4256   -5506.7151 
 5343000    279.60122   -8992.8884   -7926.9211   -8992.8884            0    11217.037    24.939952    25.027039    22.856946    14266.692    10419.865    11696.438    11534.808    644.21647   -816.24285    954.97548   -5593.0475 
 5344000    285.26524   -9043.4037   -7955.8425   -9043.4037            0    10741.544    24.825905    24.994052    22.994478    14268.072    12800.125    8797.9741    10626.532   -450.53826    722.78732   -151.00796   -5720.6862 
 5345000    278.99243   -9079.3745   -8015.7281   -9079.3745            0    11379.506    24.945442    24.912315    22.849808    14199.984    11490.899    11237.847    11409.773    -334.9254     1316.824   -143.38788   -5659.1212 
 5346000    279.08894    -9011.763   -7947.7487    -9011.763            0    10443.787    24.889587    24.973632    22.981185    14284.723    9878.7437    10224.174    11228.445    350.37347    542.81734   -1149.5585    -5772.015 
 5347000    287.93125   -9029.0797   -7931.3545   -9029.0797            0    10682.892    24.896407    25.086401    22.830801    14259.234    11074.732    9649.3795    11324.565    295.05257   -2118.5342   -202.33349   -5709.7797 
 5348000     271.8699   -9055.8873   -8019.3953   -9055.8873            0    10701.565    24.821641    24.994482    22.968269    14249.607    11484.415    10031.754    10588.528   -193.38358    -854.9453    234.25512   -5795.4397 
 5349000     273.7219   -8973.0934   -7929.5407   -8973.0934            0    9727.7721    24.902913    25.115477    22.947364    14352.395    10898.411    7748.1209    10536.785   -406.48817   -128.78725   -475.64999   -5893.3724 
 5350000    283.20351   -9064.4121   -7984.7112   -9064.4121            0    9832.5328    24.892836    24.976196    22.993628     14295.79     10616.97    9570.8047    9309.8236    213.07816   -99.630086    842.01725    -5934.732 
 5351000    280.64743   -9040.9525   -7970.9965   -9040.9525            0    11742.992    24.887313    24.903181    22.953101    14225.718    10315.026    12821.639    12092.312    540.81895   -733.53416   -480.95787   -5534.7071 
 5352000     287.0816   -9014.5365   -7920.0506   -9014.5365            0    11260.238    25.031031    24.972651    22.779421    14239.216    10300.847    11418.272    12061.595   -247.49331    1172.3603   -124.83699   -5581.7005 
 5353000    276.74148   -8983.5025   -7928.4377   -8983.5025            0     11814.51    24.955093    24.808052    22.987845    14231.481    11775.622    12498.852    11169.055    828.76129    225.78069   -63.515265   -5476.3179 
 5354000    275.26474   -9006.6334   -7957.1987   -9006.6334            0    10842.567    24.951695    24.945125     22.94034    14278.599    10244.091    11053.555    11230.055   -985.43254   -95.016124   -989.13719   -5699.3565 
 5355000    284.16367   -9008.4078   -7925.0462   -9008.4078            0     10305.22    24.878094    25.106123    22.864448    14280.963    10213.218    9700.5496    11001.893   -861.47648    50.571687     590.8319   -5778.7451 
 5356000    280.32951   -9047.5198   -7978.7758   -9047.5198            0    11239.676    24.807179    25.033274      22.9238    14235.792    11441.196     9996.698    12281.136   -355.06205    17.307747    607.52918   -5645.2569 
 5357000    286.48355   -9028.4073   -7936.2013   -9028.4073            0    10552.626    24.738991    24.979319    23.084296    14265.245    11672.077    9555.6425    10430.158    27.669342   -39.921624    796.69805   -5740.7913 
 5358000    278.74093     -9004.33   -7941.6425     -9004.33            0    11362.703    24.900812    25.028471    22.860721     14247.47    11143.255    11780.187    11164.666   -366.42013   -821.49331    66.778007   -5580.6462 
 5359000    281.05081   -9047.6604   -7976.1665   -9047.6604            0    8817.3015      24.9614    25.087793    22.932962    14361.227    9310.3031    7484.7502    9656.8512   -410.07346   -963.08575   -139.05463   -6129.4376 
 5360000    280.65359   -9038.0025    -7968.023   -9038.0025            0    11252.212    24.872069    24.977573    22.919691    14238.719    11951.767    10306.176    11498.694   -7.2581612   -176.17099   -303.47837   -5631.4211 
 5361000    279.05782    -8992.812   -7928.9164    -8992.812            0    11938.122     24.90181    24.776312    23.049155    14220.753     11042.54    13044.402    11727.423    1533.6874   -1019.6456    -751.5627   -5453.0084 
 5362000    282.46057   -8995.8677   -7918.9992   -8995.8677            0    12737.657    24.968051    24.979807    22.729233    14176.156    12182.449    11806.356    14224.165     250.0661    -1120.129    518.83168   -5285.5561 
 5363000    283.54978   -9028.2855   -7947.2644   -9028.2855            0    11368.665    24.926977     24.98015    22.860195    14234.577    11855.459    10489.862    11760.675    134.21858   -114.24445    1141.8433    -5587.167 
 5364000    287.69595   -8970.2206   -7873.3924   -8970.2206            0     11705.58    24.694485    25.027803     23.01582    14224.898    14110.919    10531.727    10474.095   -316.64152   -576.22461   -6.2250478   -5445.0049 
 5365000    286.00596   -8971.2641   -7880.8789   -8971.2641            0    12496.056    24.821015    24.969959    22.916918    14203.441    13468.218    11209.833    12810.117    123.27789    621.38818    414.21686   -5292.4131 
 5366000    280.14674    -9031.524   -7963.4768    -9031.524            0    12535.836    24.873937    24.949244    22.814456    14158.331     11359.96    13105.796    13141.752    728.61533   -277.16937   -59.819596   -5375.0181 
 5367000    276.81722   -9069.4436   -8014.0901   -9069.4436            0    10884.505     24.80738    24.915835    22.988468    14209.094     11162.02    10777.984    10713.511    424.70241    1997.4077    251.06574   -5758.5478 
 5368000    276.03383   -9059.8758   -8007.5089   -9059.8758            0    11949.484    24.896348    24.937261    22.861402    14193.427     10020.63     11765.06    14062.764    318.31827   -312.93806     475.7929   -5534.0067 
 5369000    280.38108   -9011.4153   -7942.4747   -9011.4153            0    11907.276    24.794555    24.805714     23.10253    14209.133    12259.101    13220.836    10241.892    -944.3975    551.12098   -334.01214   -5474.9819 
 5370000    283.87361   -9032.1339   -7949.8782   -9032.1339            0    11628.728    24.953567    24.989548    22.799394    14217.209    11699.878     10206.92    12979.386   -62.208146    826.57698    -86.95122   -5538.7381 
 5371000    286.65482   -9060.1759    -7967.317   -9060.1759            0    9981.5388    24.817015    24.957419    23.063594    14284.867    10977.639    9119.1304    9847.8467   -337.29239    -562.6637    1187.0586   -5887.8617 
 5372000    281.53588   -8994.6752    -7921.332   -8994.6752            0    10586.499    24.949901    25.001533    22.940525    14309.973    11604.694    9429.7514    10725.052   -654.46996   -1147.0251    353.73526   -5711.9692 
 5373000    282.67307   -9062.9617   -7985.2831   -9062.9617            0    9914.3077    24.876174     24.99345    23.030449    14318.984     10431.05     9325.641    9986.2325   -377.67868   -740.38808    117.39695   -5914.9011 
 5374000    279.85751   -8975.0217   -7908.0773   -8975.0217            0    12011.814     24.87237    24.996845    22.879427    14224.844    11472.006    12009.119    12554.317    542.79807   -455.46559    658.16749   -5416.1692 
 5375000    285.67726   -8977.5084   -7888.3764   -8977.5084            0    12618.793    24.828903    25.023427    22.891014    14222.284    12454.682    12197.629    13204.068    541.42552    206.85898    27.600767   -5271.0189 
 5376000    278.16338   -9010.2902   -7949.8045   -9010.2902            0    11840.624    24.752462    25.015944    22.926823    14196.431    12068.826    11910.881    11542.167   -273.49492   -324.54476    797.06486   -5498.3171 
 5377000    287.49287   -9016.5845   -7920.5306   -9016.5845            0    12490.368    24.772834    25.033104    22.871976    14183.849    11769.534    12319.962    13381.607   -95.318556   -139.49409    1741.1735    -5336.812 
 5378000    277.90139   -9003.9219   -7944.4351   -9003.9219            0     12114.76    24.813251    25.007254    22.862686    14186.555    12300.114    12117.982    11926.183    -17.12323   -884.79138   -314.55049   -5437.9356 
 5379000    284.49365   -9000.4355   -7915.8159   -9000.4355            0    11834.601    24.850012    24.929696    22.976901    14234.265    11976.857    10807.842    12719.104   -1028.8728   -1450.3742   -276.05247   -5459.0457 
 5380000    281.04559   -9050.4218   -7978.9479   -9050.4218            0    12140.294    24.917932    25.068247    22.708553    14184.872    11579.034    11311.371    13530.477    131.62073    14.669708    906.47006   -5467.4633 
 5381000    278.35535   -9044.7719   -7983.5543   -9044.7719            0    11548.713    24.755004    24.950633    23.017182    14216.632    12129.645    10631.427    11885.067   -6.8956277   -72.742855     318.0381   -5589.1019 
 5382000    279.52738   -9017.1412   -7951.4554   -9017.1412            0    9808.0356    24.778061    25.037017      23.0811    14318.793    10510.154    9279.3678    9634.5854   -639.32467   -1704.7152    594.85647   -5903.2932 
 5383000    280.21879   -9025.7053   -7957.3835   -9025.7053            0    10303.508    25.029283    25.035366    22.807085    14291.313    9002.8373    10586.255    11321.433    60.754331   -942.14363   -366.85914   -5809.8837 
 5384000     276.2445   -9050.9721   -7997.8021   -9050.9721            0    10100.033    24.966147    24.861016    23.018822    14287.409    10005.995    10803.738    9490.3654   -549.00453    -298.1673   -72.908737   -5893.2865 
 5385000    275.77034   -9061.3538   -8009.9915   -9061.3538            0     10917.96    25.159144    24.765164    22.808501      14211.3    8216.1241    12934.069    11603.688    200.00173    76.708764   -620.28407   -5747.1651 
 5386000    277.75962   -9001.7802   -7942.8339   -9001.7802            0    11278.081    24.944333    24.887989    22.992522    14274.085    12068.341    10756.077    11009.825    363.67364    125.99755   -167.01224   -5595.0432 
 5387000    280.89473   -9059.6167   -7988.7179   -9059.6167            0    11003.355     24.98605    24.943507    22.903608    14274.438    8953.5028    11921.425    12135.136   -93.865954    866.68205    60.827518   -5698.0611 
 5388000    276.29295   -9004.2129   -7950.8581   -9004.2129            0     11106.31     24.92044    24.982325    22.880628    14244.805    11388.104    10801.037     11129.79   -559.93464   -757.82863   -104.38499   -5643.5681 
 5389000    274.64554   -9048.3221    -8001.248   -9048.3221            0     10715.75    24.867353    24.787066    23.108687    14243.934    11028.173    10650.623    10468.455   -754.02399   -894.04319   -161.58549   -5775.2312 
 5390000    285.81733   -9039.2918   -7949.6258   -9039.2918            0    11117.753    24.923456    24.999215    22.888355    14260.975    10907.315    10977.045    11468.898   -403.09122   -307.23059    486.39823   -5637.3368 
 5391000    282.15479   -9071.4299   -7995.7272   -9071.4299            0    9565.8748    24.891659    24.953232    23.040318    14310.971    10174.765    9791.2563    8731.6034   -146.91022   -451.29539   -584.20268   -5999.2255 
 5392000    275.98535   -9039.5749   -7987.3929   -9039.5749            0    10772.859    24.803025     25.00271    22.979038    14250.286    11181.918     9930.652    11206.007   -198.99344   -39.225185    1137.2571   -5748.5149 
 5393000    280.29255   -9006.7813   -7938.1783   -9006.7813            0     11746.25    24.909746    24.941887    22.861867    14203.988    11391.292    12020.008     11827.45   -866.46403   -783.73089    38.392171   -5504.9357 
 5394000    282.08741   -9029.5786   -7954.1327   -9029.5786            0     11048.64    24.912513    24.873825    22.987145    14244.432    9670.9185    13230.301    10244.701    222.16816   -1480.4355   -255.55737   -5658.8834 
 5395000    302.96737   -9016.4603   -7861.4105   -9016.4603            0    13450.723    24.951285    24.928536    22.732853    14139.812    13243.161    11349.451    15759.556   -773.06848    913.20049    334.62829   -5087.6744 
 5396000    276.49257   -9017.4365   -7963.3207   -9017.4365            0     11434.74    24.928816    24.947435    22.898652    14240.901    11260.272    10770.517    12273.431     253.0532    586.48562    469.10125   -5588.4517 
 5397000    281.88046   -9027.8249    -7953.168   -9027.8249            0    11813.165    24.808272    24.821894    23.128474    14242.244     11463.59    12974.283    11001.621   -808.77757   -202.96468    421.20102   -5499.4731 
 5398000    279.44607   -9049.8222   -7984.4463   -9049.8222            0    12333.312    25.006984    24.942487    22.737337    14182.104    11941.176    12273.372    12785.389    519.15828    601.82915    218.52165   -5433.5295 
 5399000    288.56512   -9032.5928    -7932.451   -9032.5928            0    11312.869    24.924295    24.862876    23.009886    14258.988    10753.277    12148.859     11036.47    452.94891    385.77365    600.27169   -5579.9092 
 5400000    268.87491     -9010.52   -7985.4462     -9010.52            0    10495.763    24.880367    24.874086    23.089708    14289.675    10100.318    10886.289     10500.68    23.411973    -196.1063     495.1648   -5798.1265 
 5401000    282.42731   -9020.3227   -7943.5809   -9020.3227            0    10845.613    25.012822    25.063397     22.78266    14282.593    11085.954    9926.4081    11524.476   -393.38255    644.15939    155.81375   -5684.4726 
 5402000    276.29259    -9028.834   -7975.4806    -9028.834            0    11168.547    24.907319    24.938297     22.95423    14257.931    10318.971     11567.66    11619.009   -666.93115   -650.24595   -1318.7736   -5653.1232 
 5403000    285.38872   -9033.8558   -7945.8238   -9033.8558            0    9438.3278    24.893298    24.970583    23.071533    14341.268    10004.018    8992.8373    9318.1285   -134.19132   -169.01778   -613.67673   -5971.7722 
 5404000    268.42994   -9025.2729   -8001.8955   -9025.2729            0     10001.79    24.895004    24.975539    22.994748    14297.355    10127.474     10828.59    9049.3064   -1322.6292   -658.92592    604.50684   -5916.3997 
 5405000    286.68035   -9046.1367   -7953.1805   -9046.1367            0    10874.985    24.865577    24.890612    22.995352     14232.27    11094.841    12102.832    9427.2817    232.77202    859.93815    1086.5975   -5695.9355 
 5406000    266.61068    -9068.849   -8052.4075    -9068.849            0    11016.348     24.98467    25.108627    22.666112    14219.149    9586.4153    10005.309     13457.32   -735.64302    585.19162   -146.75052   -5767.9286 
 5407000    275.94556   -9024.9531   -7972.9227   -9024.9531            0     10810.32     24.86853    24.929654    23.032344     14279.22    10999.619     11101.41    10329.933    76.915514   -1551.2384    -598.2926   -5721.6975 
 5408000    281.05688   -9029.9694   -7958.4524   -9029.9694            0    9402.7933    25.038381    25.007404    22.869952    14319.904    9117.4391    9034.3595    10056.581   -171.61586   -118.07194    361.86384   -5994.7626 
 5409000    300.13846    -9065.177   -7920.9123    -9065.177            0    9984.7263    24.944635    24.875244    23.012544    14279.373    10681.903      10031.4    9240.8755   -650.93937   -40.381319   -766.29594    -5841.593 
 5410000    278.30877   -9006.9863   -7945.9463   -9006.9863            0    11681.624    24.918639    24.924366    22.862259    14199.321    11168.363    11562.523    12313.987   -86.968791    441.85778   -123.71703    -5526.886 
 5411000    271.38444   -9027.8723   -7993.2311   -9027.8723            0    12351.189    24.880212     25.00275    22.802437    14184.797     12041.28     12161.24    12851.048    142.40407    1070.7892   -335.51094   -5438.1318 
 5412000    281.56518   -9024.5785   -7951.1236   -9024.5785            0    11142.913    24.907758    24.942234    22.960207    14264.147    11093.014    11259.951    11075.774     27.30051    531.71138    1992.7411   -5633.0863 
 5413000    282.61696   -9006.2354   -7928.7707   -9006.2354            0    11076.843    24.914561    25.041658    22.888238    14280.015    10431.817      10038.6    12760.111     246.7115   -304.35933   -632.02539   -5621.9144 
 5414000    275.18713   -9019.7316   -7970.5928   -9019.7316            0    11218.333    24.867757    24.934379     23.00271    14263.108    9868.4796     11969.67    11816.851   -556.41662    213.30386    539.17383   -5637.0358 
 5415000    282.05062   -9032.0779   -7956.7723   -9032.0779            0    11095.151    24.934741    24.823154      23.0044    14238.779    11390.169    11280.265     10615.02   -118.89988   -186.34857    383.55616   -5652.7755 
 5416000     282.8385   -8997.0675   -7918.7582   -8997.0675            0    11559.208    25.118229    24.916282    22.758373    14243.393    10452.355    12563.587    11661.682   -89.883795    112.08987    774.79452   -5517.6184 
 5417000    269.41398   -9053.7443   -8026.6153   -9053.7443            0    9520.6694    24.920284    24.975909    22.999118    14314.806    10456.486    8474.8278    9630.6948   -160.69558    214.40751     564.7363   -6039.0159 
 5418000    285.24712    -8998.452   -7910.9599    -8998.452            0    9006.6096    24.918721    25.080612    22.980939    14362.553    9414.0566    8301.5189    9304.2533    352.15629    337.97928    286.62398   -6024.4075 
 5419000    290.07613   -9057.0574   -7951.1549   -9057.0574            0    10395.291    24.930721    24.966736    22.936478    14276.552    11332.118    8475.3644     11378.39   -415.57543    694.46124   -296.59744   -5786.7631 
 5420000    278.20763   -9000.4456   -7939.7912   -9000.4456            0    12912.811    24.977301    24.773856    22.853163    14141.173    12698.591    13037.147    13002.694   -253.77627   -242.71927    10.912503   -5276.7241 
 5421000    283.31685   -9045.3697   -7965.2367   -9045.3697            0    11291.251    24.993771    24.853045    22.949824    14255.773    10176.824    11583.622    12113.306   -170.61702   -423.68164   -948.62579   -5617.7199 
 5422000    279.91237   -9022.9412   -7955.7876   -9022.9412            0    9841.4864    25.044582     24.82938     22.99058    14296.495    9113.3324    10428.189    9982.9383    31.298964   -584.61456    1112.4411   -5903.8404 
 5423000    279.13704   -9000.8247   -7936.6271   -9000.8247            0    12102.294    24.938969    24.948512     22.81035    14192.376     12554.07    11686.879    12065.932   -435.80852    175.40761    145.16181   -5431.6792 
 5424000     283.5659   -9047.2567   -7966.1742   -9047.2567            0    11661.838    24.767582    24.904631    23.042731     14213.39    13629.969    11278.944    10076.602   -268.14247    760.56661    91.749003   -5548.8185 
 5425000    273.50026   -8998.6044   -7955.8967   -8998.6044            0     11963.36    24.940412    24.939976    22.858874    14218.523    10950.879    12329.029    12610.172    175.97169    162.54615    1201.4496   -5475.1435 
 5426000    278.28867   -9033.9561   -7972.9928   -9033.9561            0    12689.064    24.753756    24.882098    23.003923      14168.7    12659.279    12499.504     12908.41    132.09718    -670.5862    50.348367   -5350.9759 
 5427000    278.98139   -9002.4761   -7938.8718   -9002.4761            0    10875.975    24.780377     25.00117    23.025106    14264.938    11365.088    10808.883    10453.955    970.57592   -349.89973     -783.901   -5676.2396 
 5428000    277.83503   -9022.9685   -7963.7347   -9022.9685            0    10359.994    24.925543    25.109929     22.84109     14295.75     9836.318     10208.65    11035.014    770.47464    79.941685   -291.61061   -5803.7915 
 5429000    289.20082   -9052.6518   -7950.0864   -9052.6518            0    9988.9933    24.815881    25.008209    23.058325    14310.013    10146.716    9209.6394    10610.624    207.70974    727.79604   -906.49764   -5865.4148 
 5430000    285.25721    -9075.543   -7988.0125    -9075.543            0    9529.4578    24.861593    24.993828    23.010194    14298.221    10090.433    9650.6621    8847.2785    618.86157   -322.70724   -329.52221   -6000.8833 
 5431000    284.29264   -9038.5287   -7954.6755   -9038.5287            0    10356.398    24.990348    24.880737    22.940628    14263.984    9636.0872    11521.682    9911.4249   -305.76195    645.37664   -450.31033   -5800.2798 
 5432000    287.16481   -9001.8559   -7907.0527   -9001.8559            0    10886.257    24.988725    24.928362    22.883785    14254.951    10931.706    10081.635    11645.429   -1081.5177   -903.05956      -1324.5   -5643.8671 
 5433000    285.54276   -9049.1798   -7960.5606   -9049.1798            0    10528.671    24.906014    24.814798    23.100612    14277.049    9939.8639    11334.003    10312.146    274.39614   -380.90974    494.41603   -5768.3216 
 5434000     284.4276   -9025.8947    -7941.527   -9025.8947            0    11323.896    24.894727    25.006161    22.876339    14241.014    11857.198    11011.562     11102.93   -322.23827   -1406.4981   -345.90302   -5589.6603 
 5435000    299.98582   -9016.1678    -7872.485   -9016.1678            0    11996.308    24.896061    24.933285     22.83743     14176.12    12929.587     10818.33    12241.008    358.67186    978.69666    639.17251   -5392.3183 
 5436000    295.67001   -9031.4966   -7904.2677   -9031.4966            0    10652.226    24.891324    24.833231    23.097921    14277.564    11066.647    11275.739     9614.291    102.96535     503.7902   -668.43126   -5686.2226 
 5437000    281.95835    -9081.958   -8007.0042    -9081.958            0    10408.649    25.032742    24.905809    22.857494    14250.749    11773.784    9138.4327    10313.732    39.486875   -292.02275    36.273898    -5843.748 
 5438000    284.63347   -8998.8696    -7913.717   -8998.8696            0    11025.401    24.990563    24.903513    22.906219     14255.75    10997.096    11460.856    10618.251   -66.350831    214.08405    306.35047   -5621.4757 
 5439000    276.08607   -9062.8174   -8010.2513   -9062.8174            0    11685.029    24.917992    24.927802    22.885313     14215.23    11434.382    12177.287    11443.416   -856.13886   -959.46168    541.14407   -5587.7749 
 5440000    287.18749   -9001.2485   -7906.3589   -9001.2485            0    10859.587    24.967132    25.049098    22.863822    14299.129     10985.39    9412.1822    12181.188   -572.77068    -876.9909    108.08762   -5641.7211 
 5441000    280.87139   -9013.6733   -7942.8635   -9013.6733            0    10510.472    24.825932    24.923308     23.08855    14285.909    11516.971    10557.302    9457.1436   -181.79063   -412.37824   -658.80694   -5753.0556 
 5442000    278.22453   -8984.3213   -7923.6025   -8984.3213            0    11899.745    24.974468    24.953962     22.81401    14217.963    11688.315    12077.428    11933.493    245.16175    468.60559   -788.91212   -5456.1378 
 5443000    278.32464   -9013.3363   -7952.2358   -9013.3363            0    11579.963    24.849352    24.931677     23.01322    14257.518      11928.4    11074.661    11736.827   -535.07291    -170.8577   -411.64357   -5544.3993 
 5444000    279.62563   -9038.3201   -7972.2597   -9038.3201            0    10016.049    24.898395     24.89447    23.081997    14306.969    10477.661    10318.468    9252.0189    944.17109    947.22922    -246.6434   -5882.3863 
 5445000    284.43913   -9031.9856   -7947.5739   -9031.9856            0    10447.645    25.060003    24.993701    22.803494    14282.791    9952.6998    10072.816    11317.418    543.19213    951.41539    1048.7002    -5771.331 
 5446000    285.90413   -9018.9913   -7928.9944   -9018.9913            0    11971.383    24.950607    24.929601    22.881969    14232.784    10750.215    12501.809    12662.125   -1373.2139   -220.66611   -304.94911   -5444.0878 
 5447000    274.83267   -8996.6351   -7948.8477   -8996.6351            0      10868.4    24.873594    24.943956    22.966225    14249.299    11472.687     10302.34    10830.172   -566.97866    438.40299   -740.81764   -5690.2703 
 5448000    279.50306    -8983.987   -7918.3939    -8983.987            0    12178.025    24.885188    25.087601    22.779629    14221.543    12879.952    10419.895    13234.228    251.54854    579.27668    266.50391    -5392.591 
 5449000    290.11007   -9023.4952   -7917.4633   -9023.4952            0    11567.668    24.924196    24.967856    22.853003    14221.509    11167.781    11708.359    11826.862    936.55507     986.6662   -380.76551   -5518.2582 
 5450000     284.4695   -9027.6377   -7943.1102   -9027.6377            0    12850.143    24.766697    24.810615    23.067019    14174.152    12769.079    12963.398    12817.953    603.00755   -735.42989    514.54152   -5286.7868 
 5451000    293.01454   -9006.9516   -7889.8465   -9006.9516            0     12738.06    24.926611    24.846126    22.868896    14163.387    11135.806    13132.807    13945.568    -386.7249   -2122.0738    1230.8171   -5258.6923 
 5452000    285.00096   -9026.2458   -7939.6922   -9026.2458            0     12482.38    24.816026    24.884009    22.922551    14155.184    12936.195    11674.445    12836.501   -125.62223    84.014308   -807.53482   -5362.8439 
 5453000    281.16849   -9078.9766   -8007.0341   -9078.9766            0    11569.754    24.824602    25.024782    22.886974    14218.081    12133.786    11158.386    11417.091    500.72081   -624.63591    442.02006   -5607.9747 
 5454000    281.68927   -9008.1251   -7934.1971   -9008.1251            0     9903.007    24.841818     25.04955    22.983829    14302.294    11299.266    8892.8249    9516.9304   -12.421672   -80.529973   -232.16946   -5868.5855 
 5455000    273.29387   -9030.1097   -7988.1888   -9030.1097            0    10793.784    24.920856    25.014011    22.896316     14272.89    11051.495    10178.602    11151.255   -1096.9343   -797.06367    1023.2457   -5741.4039 
 5456000     271.5685   -9083.3454   -8048.0024   -9083.3454            0     9690.951    24.897455    24.948992    23.000842    14287.351    9060.7693     10246.63    9765.4541   -61.377574    175.67685    745.55841   -6028.7342 
 5457000    278.22425   -9003.7774   -7943.0596   -9003.7774            0    10653.853    24.922843    25.056212    22.844856    14265.974    9911.3406    10300.178    11750.039    13.110777    -1080.251   -633.79918   -5726.4766 
 5458000    285.64695   -9047.2907   -7958.2743   -9047.2907            0    10476.686    24.830096    24.968258     23.05586    14293.809     10113.86    11623.622    9692.5762    -580.7471    -1012.512   -1427.5862   -5774.2986 
 5459000    279.61537   -8977.7171   -7911.6958   -8977.7171            0    11032.843      24.8756    25.069793    22.885896    14272.243    11000.103    10632.705    11465.721    104.61267   -738.94204   -201.20345   -5615.2534 
 5460000    284.71547   -9015.8589   -7930.3937   -9015.8589            0    10807.383    24.922921    24.974125    22.903953    14256.065    10630.427    10016.998    11774.726   -390.31251     265.3973    181.91805   -5683.4297 
 5461000    287.79494   -9014.3946   -7917.1891   -9014.3946            0    10634.307    25.040685    24.851046    22.944143    14277.847    10141.232    11194.543    10567.147    304.57322   -221.14668    1031.4113   -5702.8312 
 5462000    282.22115   -9046.8769   -7970.9212   -9046.8769            0    10277.361    25.104253    24.813872    22.915721    14274.976    8990.1497    12115.511    9726.4231   -84.517988    214.04178    1894.8356   -5831.3197 
 5463000    275.21371   -9028.4038   -7979.1636   -9028.4038            0    10242.113    25.000025    24.891801    22.982362    14301.824    9411.3884     10943.75      10371.2   -816.32943   -917.20349    73.682475     -5842.89 
 5464000    285.39017   -9017.3038   -7929.2663   -9017.3038            0    11726.137    25.057212    24.892634    22.782741    14210.507     10003.07    12605.305    12570.035   -50.876484   -764.27396    853.09258   -5499.0752 
 5465000    274.35955   -9017.4542   -7971.4704   -9017.4542            0    11688.708    24.869718    24.934674    22.962352    14239.375     12242.29    12076.038    10747.796    258.36528    57.772576   -355.18091   -5544.1154 
 5466000    274.73534   -9046.6297   -7999.2133   -9046.6297            0    10378.834    24.814003    25.039309     22.98742     14282.67    10542.962    10429.901    10163.639     860.9201   -204.98224     633.3736    -5837.322 
 5467000    282.94589   -9002.4477    -7923.729   -9002.4477            0     10829.29    24.910452    24.996906    22.917144    14270.144    10834.645    11082.835     10570.39    -523.6842   -1015.0684    751.61565   -5669.9868 
 5468000    280.90491   -9015.0125   -7944.0748   -9015.0125            0     11790.57    24.929249    24.892774    22.935381    14232.738    12118.006     11353.31    11900.393   -259.44424   -896.79035    253.49888   -5496.7076 
 5469000    276.18913   -9041.4408   -7988.4819   -9041.4408            0    12192.621    24.958968    24.905464    22.844699      14200.6     10828.28    13022.566    12727.017   -905.53438   -55.643852    766.34424   -5463.3755 
 5470000    280.15599   -9041.5057   -7973.4233   -9041.5057            0    9855.1371    24.951733    24.885259    23.048662    14311.613    9030.8872    11945.993    8588.5306   -388.71054   -985.56256   -742.19495   -5916.4571 
 5471000    280.80198   -9030.9659   -7960.4207   -9030.9659            0    12198.181    24.965389    24.919298    22.840845    14209.745    11171.738    13305.342    12117.464   -888.24968    955.80045    1099.3297   -5432.5359 
 5472000    285.62244   -9068.9187   -7979.9957   -9068.9187            0    12542.199    24.809666    24.821741    22.974361    14148.051    13029.219    12883.441    11713.937    -338.5781    503.07792   -35.633643   -5392.1035 
 5473000    280.80917   -9013.2013   -7942.6287   -9013.2013            0    12077.766    25.030552    24.946024    22.761838    14212.782    11027.855    11887.221    13318.223    1332.8312    989.67862   -208.73199   -5439.1633 
 5474000    284.96842   -8950.0944   -7863.6648   -8950.0944            0    12169.903     24.90412    24.865944    22.974871    14227.521     12190.75    13084.749     11234.21   -398.93564   -212.45861   -1134.4575   -5338.4854 
 5475000    278.12574      -9022.4   -7962.0579      -9022.4            0    11666.877    24.976813    24.821348     22.95159    14229.026    12650.624    11951.097     10398.91   -743.71493   -460.24937      329.318   -5540.9972 
 5476000      284.244   -9020.7007    -7937.033   -9020.7007            0    11737.057    25.061592    24.969179    22.720356    14217.658    10885.948    11060.302    13264.921     360.9323    1178.1654    795.35822   -5503.3547 
 5477000    282.17718   -9004.6971    -7928.909   -9004.6971            0    10143.293    24.893711    24.946477     23.03781    14306.719    9769.4556     10368.16    10292.265   -709.20682   -140.46982   -227.52199   -5812.5227 
 5478000    271.28854    -8954.504   -7920.2284    -8954.504            0    10012.264    24.899174    25.239814    22.836394    14351.544    11079.441    7916.8739    11040.478   -193.86873   -305.28247    252.43137    -5824.636 
 5479000    281.66705   -9043.0885   -7969.2453   -9043.0885            0    10487.197     24.80362    24.964723    23.049107    14272.365    10351.093    10328.794    10781.704    275.42373   -1096.8285   -512.21414   -5786.3584 
 5480000    283.31966   -9014.9969   -7934.8531   -9014.9969            0    11546.131    24.888965     24.96194    22.935942    14249.569    12495.726    9575.5292    12567.137    431.90779   -142.50033    297.19755   -5535.3899 
 5481000    291.42176   -9013.3996    -7902.367   -9013.3996            0    11466.503    24.928866    25.145956    22.718294    14241.194    10484.574     11367.32    12547.614    116.44652    1381.3459    784.05224   -5520.8523 
 5482000    275.26032   -8977.8745   -7928.4566   -8977.8745            0    11600.197    24.848899    24.864498    23.071928    14255.115    11614.699    13125.302     10060.59   -54.970674    358.05486    705.93943   -5516.8193 
 5483000    286.96404   -9008.4891   -7914.4513   -9008.4891            0    11738.442    24.955833    25.014132    22.772329    14215.593    10330.936    12450.866    12433.525    444.53856   -593.60378   -818.65953   -5480.8394 
 5484000    280.23056   -8998.6175   -7930.2508   -8998.6175            0    11753.912    24.895217     24.91654    22.938862    14229.038    11885.134    11412.354    11964.247   -126.06078   -1158.3196   -346.09385    -5491.127 
 5485000    279.02742    -9040.149   -7976.3692    -9040.149            0    11859.171    24.768246    25.044791    22.926387    14221.594    12370.166    11568.021    11639.325   -273.85947    -93.77557    952.17912   -5516.6898 
 5486000    287.75805   -9013.5127   -7916.4478   -9013.5127            0    13338.493    24.829215    24.958258    22.844608    14156.665    14095.939    13138.254    12781.286    280.23859   -507.76081    839.66201   -5162.5766 
 5487000    280.85276   -9039.6869   -7968.9481   -9039.6869            0    10997.148    24.923243    24.883828    22.966761    14243.656    12036.715    10436.296    10518.434    860.55232    132.43014    511.31446   -5684.5202 
 5488000    288.93635   -8986.3199   -7884.7628   -8986.3199            0    10695.632     25.00245     24.94225    22.908874    14286.371    11168.873    11168.273    9749.7503    1093.8633   -606.80664    154.20383   -5656.3057 
 5489000    272.78394   -8983.9119   -7943.9351   -8983.9119            0    10782.917    24.943883    24.926152    22.968841    14280.992     11540.12    10553.049    10255.582     151.1416   -160.44677    457.34196   -5698.1379 
 5490000    283.74032   -8989.2488   -7907.5013   -8989.2488            0    11558.458    24.874043    25.096542    22.862286    14271.839    11924.225      10171.6     12579.55   -265.62273   -361.20414    -219.1304   -5501.7224 
 5491000    283.94105   -9019.4581   -7936.9454   -9019.4581            0    10755.662    24.834892      24.9887    23.036399    14296.197    10046.797    11094.381    11125.807   -352.96006   -275.95875    761.84388   -5694.4397 
 5492000     277.5144   -8963.8255   -7905.8141   -8963.8255            0    11812.457    24.828684    25.035322    22.924498    14249.733    11889.654    12041.655    11506.064   -412.62773   -122.73678    72.984185   -5450.9758 
 5493000    280.14302   -9009.9821   -7941.9491   -9009.9821            0     11887.78    24.765317    25.019434    22.950561    14220.494    12796.309     11383.77    11483.262   -415.30133    283.05042    1150.6597   -5476.5267 
 5494000    279.73621   -9051.7493   -7985.2672   -9051.7493            0    10475.461    24.827765    24.939884    23.047204    14270.865    10399.292    11055.473    9971.6176   -118.10019    333.85504   -652.80771   -5805.0523 
 5495000    288.28369   -9037.4057   -7938.3368   -9037.4057            0    9941.5298    25.007759    24.867139    22.952979    14273.802    9007.6641    11372.999    9443.9261   -391.27225    487.53472   -347.06711   -5868.8209 
 5496000    280.88467   -9029.7264    -7958.866   -9029.7264            0    10696.806    24.963182    24.936671    22.907382    14259.815    10128.658    10426.959      11534.8   -2.6803507    238.40629     927.6568   -5734.3072 
 5497000    287.93296   -8968.1773   -7870.4456   -8968.1773            0    12871.372    24.863167    24.889024    22.923198    14185.333    13123.405    13214.514    12276.198    262.93345    25.323612    185.74017    -5207.635 
 5498000    271.17397   -9014.8718   -7981.0329   -9014.8718            0    12108.791    24.730659    24.971729    22.976838    14189.745    13469.099    11298.538    11558.736   -272.29383   -200.64255    277.78099    -5475.205 
 5499000    274.18062   -9065.4148   -8020.1132   -9065.4148            0    11145.237     24.78775    25.030769    22.907275    14212.967    12077.201    10091.518    11266.991    418.03747    1507.8527    69.847333   -5709.9114 
 5500000    279.86459   -8981.7136   -7914.7422   -8981.7136            0    11403.787    24.859864    24.970969    23.003807    14280.186     12485.04    10883.546    10842.776    365.55306   -181.77516   -707.20207   -5539.7681 
Loop time of 588.372 on 64 procs for 250000 steps with 1920 atoms

Performance: 73.423 ns/day, 0.327 hours/ns, 424.901 timesteps/s
99.1% CPU use with 64 MPI tasks x 1 OpenMP threads

MPI task timing breakdown:
Section |  min time  |  avg time  |  max time  |%varavg| %total
---------------------------------------------------------------
Pair    | 63.809     | 66.071     | 68.781     |  13.9 | 11.23
Bond    | 0.2771     | 0.28545    | 0.30078    |   0.9 |  0.05
Kspace  | 256        | 263.82     | 274.35     |  28.9 | 44.84
Neigh   | 7.402      | 8.4707     | 9.4974     |  20.0 |  1.44
Comm    | 104.77     | 115.61     | 125.41     |  47.6 | 19.65
Output  | 1.0536     | 1.0561     | 1.0586     |   0.1 |  0.18
Modify  | 118.11     | 124.71     | 129        |  26.2 | 21.20
Other   |            | 8.354      |            |       |  1.42

Nlocal:        30.0000 ave          34 max          26 min
Histogram: 1 1 7 13 0 21 12 6 2 1
Nghost:        2819.47 ave        2876 max        2791 min
Histogram: 14 16 8 4 5 1 7 5 0 4
Neighs:        10641.1 ave       12109 max        9091 min
Histogram: 1 1 4 11 15 13 9 7 1 2

Total # of neighbors = 681031
Ave neighs/atom = 354.70365
Ave special neighs/atom = 2.0000000
Neighbor list builds = 13555
Dangerous builds = 2

unfix		3
unfix		2
unfix		1

write_data	data.final.${pid}
write_data	data.final.0
System init for write_data ...
PPPM initialization ...
  extracting TIP4P info from pair style
  using 12-bit tables for long-range coulomb (../kspace.cpp:340)
  G vector (1/distance) = 0.37448325
  grid = 30 30 30
  stencil order = 5
  estimated absolute RMS force accuracy = 0.0032670838
  estimated relative force accuracy = 9.8387257e-06
  using double precision FFTW3
  3d grid and FFT values/proc = 3600 512
Last active /omp style is kspace_style pppm/tip4p/omp
WARNING: Not all mixed pair coeffs generated from mixing. Use write_data with 'pair ij' option to store all pair coeffs. (../write_data.cpp:312)

write_restart   restart.lmp.${pid}
write_restart   restart.lmp.0
System init for write_restart ...
PPPM initialization ...
  extracting TIP4P info from pair style
  using 12-bit tables for long-range coulomb (../kspace.cpp:340)
  G vector (1/distance) = 0.37448325
  grid = 30 30 30
  stencil order = 5
  estimated absolute RMS force accuracy = 0.0032670838
  estimated relative force accuracy = 9.8387257e-06
  using double precision FFTW3
  3d grid and FFT values/proc = 3600 512
Last active /omp style is kspace_style pppm/tip4p/omp
Total wall time: 0:09:52
