LAMMPS (30 Jul 2021)
  using 1 OpenMP thread(s) per MPI task
package omp 0
using multi-threaded neighbor list subroutines
echo both

include		in.partitions
variable        pid world 0
include		in.temp
variable        temperature equal 257.32
variable	tempDamp equal 100.0
include		in.pressure
variable        pressure equal 6750.0
variable        pressureDamp equal 1000.0 # This is 1 ps
include		in.seed
variable        seed world 745823

units		real
atom_style	full
read_restart	restart.lmp.${pid}
read_restart	restart.lmp.0
Reading restart file ...
  restart file = 30 Jul 2021, LAMMPS = 30 Jul 2021
  restoring atom style full from restart
  orthogonal box = (0.50931970 1.6914426 0.62136884) to (17.698253 21.937735 21.591827)
  4 by 4 by 4 MPI processor grid
  restoring pair style lj/cut/tip4p/long/omp from restart
  restoring bond style harmonic/omp from restart
  restoring angle style harmonic/omp from restart
  864 atoms
  576 bonds
  288 angles
Finding 1-2 1-3 1-4 neighbors ...
  special bond factors lj:    0        0        0       
  special bond factors coul:  0        0        0       
     2 = max # of 1-2 neighbors
     1 = max # of 1-3 neighbors
     1 = max # of 1-4 neighbors
     2 = max # of special neighbors
  special bonds CPU = 0.044 seconds
  read_restart CPU = 0.197 seconds
include 	in.setup
variable	out_freq equal 1000
variable	out_freq2 equal 10000
variable	out_freq3 equal 1000

timestep	2.0

neigh_modify    delay 7 every 1

include		in.tip4p
# This is TIP4P/Ice

# create groups ###
group ox type 2
288 atoms in group ox
group hy type 1
576 atoms in group hy

# set charges - beside manually ###
set group ox charge -1.1794
Setting atom values ...
  288 settings made for charge
set group hy charge 0.5897
Setting atom values ...
  576 settings made for charge

# ### TIP3P Potential Parameters ###
pair_style lj/cut/tip4p/long/omp 2 1 1 1 0.1577 8.5
pair_coeff 1 1*2 0.000 0.000
pair_coeff 2 2 0.21084 3.1668
bond_style  harmonic
bond_coeff  1 450 0.9572
angle_style harmonic
angle_coeff 1 55 104.52
kspace_style pppm/tip4p/omp 1.0e-5
pair_modify tail yes

thermo          ${out_freq}
thermo          1000
thermo_style    custom step temp pe etotal epair emol press lx ly lz vol pxx pyy pzz pxy pxz pyz enthalpy

restart 	${out_freq3} restart.lmp.${pid} restart2.lmp.${pid}
restart 	1000 restart.lmp.${pid} restart2.lmp.${pid}
restart 	1000 restart.lmp.0 restart2.lmp.${pid}
restart 	1000 restart.lmp.0 restart2.lmp.0


include         in.dump
dump            myDump all atom ${out_freq2} dump.water.${pid}
dump            myDump all atom 10000 dump.water.${pid}
dump            myDump all atom 10000 dump.water.0
dump            myDump2 all dcd ${out_freq2} dump.dcd
dump            myDump2 all dcd 10000 dump.dcd
dump_modify     myDump append yes
dump_modify     myDump2 append yes


variable natoms 	equal  "count(all)"                        # NUMBER ATOMS
variable H      	equal  "enthalpy/v_natoms"                 # ENTHALPY-per-atom
variable Vol      	equal  "vol/v_natoms"                 # volume-per-atom
fix AVG all 		ave/time ${out_freq} 1 ${out_freq} v_Vol v_H file vol_enthalpy.dat
fix AVG all 		ave/time 1000 1 ${out_freq} v_Vol v_H file vol_enthalpy.dat
fix AVG all 		ave/time 1000 1 1000 v_Vol v_H file vol_enthalpy.dat


timer           timeout 23:50:00 every 1000
New timer settings: style=normal  mode=nosync  timeout=23:50:00

fix 		1 all shake 1e-6 200 0 b 1 a 1
       0 = # of size 2 clusters
       0 = # of size 3 clusters
       0 = # of size 4 clusters
     288 = # of frozen angles
  find clusters CPU = 0.007 seconds
fix             2 all nph iso ${pressure} ${pressure} ${pressureDamp}
fix             2 all nph iso 6750 ${pressure} ${pressureDamp}
fix             2 all nph iso 6750 6750 ${pressureDamp}
fix             2 all nph iso 6750 6750 1000
fix             3 all temp/csvr ${temperature} ${temperature} ${tempDamp} ${seed}
fix             3 all temp/csvr 257.32 ${temperature} ${tempDamp} ${seed}
fix             3 all temp/csvr 257.32 257.32 ${tempDamp} ${seed}
fix             3 all temp/csvr 257.32 257.32 100 ${seed}
fix             3 all temp/csvr 257.32 257.32 100 745823

run             250000
PPPM initialization ...
  extracting TIP4P info from pair style
  using 12-bit tables for long-range coulomb (../kspace.cpp:340)
  G vector (1/distance) = 0.37478876
  grid = 24 24 25
  stencil order = 5
  estimated absolute RMS force accuracy = 0.0030139269
  estimated relative force accuracy = 9.0763514e-06
  using double precision FFTW3
  3d grid and FFT values/proc = 2730 288
Last active /omp style is kspace_style pppm/tip4p/omp
Neighbor list info ...
  update every 1 steps, delay 7 steps, check yes
  max neighbors/atom: 2000, page size: 100000
  master list distance cutoff = 10.8154
  ghost atom cutoff = 10.8154
  binsize = 5.4077, bins = 4 4 4
  1 neighbor lists, perpetual/occasional/extra = 1 0 0
  (1) pair lj/cut/tip4p/long/omp, perpetual
      attributes: half, newton on, omp
      pair build: half/bin/newton/omp
      stencil: half/bin/3d
      bin: standard
Per MPI rank memory allocation (min/avg/max) = 9.241 | 9.245 | 9.250 Mbytes
Step Temp PotEng TotEng E_pair E_mol Press Lx Ly Lz Volume Pxx Pyy Pzz Pxy Pxz Pyz Enthalpy 
11000000    257.69536   -3851.8877   -3410.2067   -3851.8877            0    5286.3457    17.188933    20.246293    20.970458    7297.9746    4254.8147    4446.2069    7158.0156   -1757.4086     507.3712   -1094.1938   -2847.5625 
11001000    256.88906    -3859.097   -3418.7979    -3859.097            0    4777.7686     17.12642    20.172661    20.894193    7218.6398    7134.4264    2468.7125    4730.1669   -792.09087    361.99984   -220.84613   -2915.8113 
11002000    253.33175   -3869.7997   -3435.5978   -3869.7997            0    7158.7444    17.104871    20.147278    20.867902    7191.4255    7419.7356    6953.9417    7102.5559    1199.1581   -369.78525   -361.87829   -2684.7918 
11003000    250.07789   -3880.9713   -3452.3464   -3880.9713            0    8531.8473    17.102792     20.14483    20.865367    7188.8041     6624.761     8588.794    10381.987    1092.7632   -1615.2611    319.59539   -2557.8561 
11004000     234.9475   -3897.4395   -3494.7476   -3897.4395            0    7156.7229    17.058973    20.093217    20.811907    7133.6899    8910.0875    5537.2249    7022.8562   -2498.6608   -486.49757   -434.08188   -2750.1796 
11005000    256.86603   -3906.6667   -3466.4071   -3906.6667            0    5321.3743    17.131871    20.179082    20.900843    7225.5349    5207.3184    5236.4073    5520.3972   -575.44025    856.17261   -162.27296   -2905.6566 
11006000    252.82562   -3887.8008   -3454.4663   -3887.8008            0    5163.2511    17.076124    20.113418    20.832831    7155.2278    5922.2732    4878.8403    4688.6399   -850.66537    615.57492    197.84615   -2915.6725 
11007000    264.68725   -3924.3316   -3470.6667   -3924.3316            0     6521.919    17.081291    20.119504    20.839135    7161.7251    8709.5383     6113.551    4742.6678   -672.33065    408.08385   -396.79291   -2789.4756 
11008000    259.11591   -3915.8036   -3471.6878   -3915.8036            0    6398.7382    17.105463    20.147976    20.868625    7192.1724    8844.3299    4549.5025    5802.3821    323.83886   -977.95216    198.21187   -2800.5212 
11009000    265.10754   -3907.3181   -3452.9329   -3907.3181            0    5380.8834    17.122144    20.167624    20.888975    7213.2337    5949.8243    4723.7255    5469.1004   -737.89373    686.57657   -412.26113   -2886.8768 
11010000    260.08392   -3910.7427   -3464.9678   -3910.7427            0    5975.1545    17.094752    20.135359    20.855557    7178.6697    7564.4751    3926.7897    6434.1988   -1052.9107    880.46905    112.30692   -2839.4078 
11011000    264.54982   -3914.2088   -3460.7794   -3914.2088            0     7356.374    17.069469     20.10558    20.824713    7146.8662    6787.5486    8432.9776    6848.5958    1108.7099   -496.41429    377.16066   -2694.0267 
11012000    264.91928   -3851.4438   -3397.3812   -3851.4438            0     6155.592    17.098209    20.139432    20.859775    7183.0265    8167.5601    4671.0369    5628.1789   -1300.4194    943.01837    1155.8959   -2752.5394 
11013000    277.18592   -3893.6368   -3418.5496   -3893.6368            0    5679.1995    17.109555    20.152796    20.873617    7197.3354      7578.02    4654.9559    4804.6227    -389.2831   -495.26997    135.43172   -2822.4282 
11014000    248.41221   -3878.7044   -3452.9344   -3878.7044            0    6498.6626     17.06277     20.09769     20.81654     7138.455    5483.5169    7717.2211    6295.2497   -651.43124   -62.182337   -751.23061   -2776.3778 
11015000    252.28766   -3846.1454   -3413.7329   -3846.1454            0    8467.6826     16.98628    20.007595    20.723222    7042.8826     7967.264    7979.8855    9455.8983   -338.07002     41.39465    742.32373     -2543.99 
11016000    263.68858   -3860.6177   -3408.6645   -3860.6177            0    7136.3949    17.101395    20.143184    20.863661    7187.0418    7071.1102     5736.907    8601.1676    371.17947    1908.4721   -238.68066   -2660.6587 
11017000    256.28773   -3904.4388   -3465.1704   -3904.4388            0    6947.9449    17.182656    20.238899      20.9628    7289.9826    7134.7707    5272.8019    8436.2621    542.22021   -397.20556    26.368241   -2726.4863 
11018000    250.48598   -3908.1469   -3478.8225   -3908.1469            0    6693.9096    17.136105    20.184069    20.906008    7230.8933    6705.8213    7195.1205     6180.787    1781.7738   -58.454289   -82.095135   -2772.9151 
11019000    265.05714   -3884.1957   -3429.8968   -3884.1957            0    5899.0657    17.147885    20.197943    20.920379    7245.8152    5154.2835    5108.1668     7434.747   -1097.7588    1558.5191   -698.43613   -2806.5261 
11020000    248.59774   -3900.8752   -3474.7872   -3900.8752            0    5688.5576    17.179676    20.235389    20.959165    7286.1905    7022.3791    5221.9194    4821.3743    113.97753    843.84887   -669.13199   -2870.3119 
11021000    264.23187   -3907.5465   -3454.6621   -3907.5465            0    5459.1104    17.159729    20.211894    20.934829    7260.8401    5120.0386    6162.7271    5094.5655    1637.6389   -72.252079    394.11321   -2876.5865 
11022000    250.84652   -3835.2256   -3405.2833   -3835.2256            0    6792.6795    17.181641    20.237703    20.961562    7288.6904    7703.0757    6774.2878    5900.6748    580.32606    652.52247    865.21447   -2683.2345 
11023000    253.13743   -3882.5206   -3448.6517   -3882.5206            0    7063.0525     17.05593    20.089633    20.808195    7129.8733    8457.2959    7453.8934     5277.968    1112.0312    880.20174   -481.11461   -2714.2221 
11024000    272.29585   -3826.5933   -3359.8875   -3826.5933            0    6663.5891    17.173137    20.227687    20.951187    7277.8734    7888.7141     5705.378    6396.6753    272.77795    887.15084   -1353.6377   -2652.6121 
11025000    252.89778   -3841.3429   -3407.8847   -3841.3429            0    8775.3423    17.077415     20.11494    20.834407    7156.8517    9156.6341    7903.2885    9266.1043    2091.8259   -2276.0743    973.58363   -2491.9554 
11026000    261.37924   -3849.4561    -3401.461   -3849.4561            0      5563.62     17.16454     20.21756    20.940698    7266.9481    5496.2232    4374.1716    6820.4651    598.59399   -263.58168   -103.90328   -2811.8231 
11027000    257.32337   -3870.2376   -3429.1941   -3870.2376            0    7472.7756    17.115346    20.159616    20.880682    7204.6455    7930.9299    6632.5807    7854.8162   -835.01505   -745.27451   -419.43702   -2644.0119 
11028000    255.09557   -3885.0765   -3447.8515   -3885.0765            0    9070.8406    17.098248    20.139478    20.859823    7183.0759    8169.0076    7904.8202    11138.694   -555.18894   -1403.2233   -402.57696   -2497.6102 
11029000    254.80631   -3910.9942   -3474.2649   -3910.9942            0    6352.0145    17.171574    20.225846     20.94928    7275.8862    5698.7931    7489.3229    5867.9274    243.80145   -402.20893    45.769735   -2800.2441 
11030000    261.96574   -3860.2372   -3411.2369   -3860.2372            0    4981.7054    17.156354    20.207919    20.930712    7256.5565    5319.1965    5924.9471    3700.9726    1317.0908   -914.35052   -441.50478   -2884.0258 
11031000    260.66021   -3833.7446    -3386.982   -3833.7446            0    6718.6964    17.110768    20.154225    20.875098    7198.8667    7245.9648    7638.2665    5271.8579    527.35173    463.42462     -125.309   -2681.5989 
11032000    250.61132   -3832.8943    -3403.355   -3832.8943            0    7680.7674    17.048318    20.080666    20.798908     7120.331    8133.2577    9724.7395    5184.3051   -608.53266   -668.07675   -526.52615   -2605.7632 
11033000    252.32619   -3856.6735    -3424.195   -3856.6735            0     5481.805    17.127528    20.173965    20.895544    7220.0404     4775.402    5194.3365    6475.6765   -489.86928   -244.40316    560.00907    -2846.978 
11034000    240.58034   -3861.7456   -3449.3992   -3861.7456            0    6951.5917    17.094624    20.135209    20.855401     7178.509    6831.2243    7258.7973    6764.7534    1006.9188    2195.9439   -2847.7105   -2721.6288 
11035000    251.51472   -3887.1433   -3456.0557   -3887.1433            0    7418.6883    17.059286    20.093586    20.812289    7134.0827    8047.5206    7723.8791    6484.6651    72.797447    691.07738    19.778793   -2684.1911 
11036000    251.07147   -3858.1266   -3427.7987   -3858.1266            0    8650.3034    17.038622    20.069246    20.787079    7108.1893    10945.481    7560.5942    7444.8355   -204.44603     579.4511    2223.1765   -2531.0594 
11037000    255.85261   -3838.1426   -3399.6199   -3838.1426            0    7289.4072    17.070467    20.106756     20.82593    7148.1198    8567.6731    4990.6524    8309.8961   -96.350457    1788.8935    1004.0323   -2639.7139 
11038000     258.7543     -3868.76    -3425.264     -3868.76            0    6573.2245    17.078457    20.116166    20.835677    7158.1609    6914.6532    5952.8585    6852.1618    570.43477    900.48905    1530.6563   -2739.0559 
11039000    248.01589   -3848.1895   -3423.0987   -3848.1895            0    6590.6482    17.130757    20.177769    20.899484    7224.1252    5970.3415    7753.7118    6047.8914   -258.19391    639.45317    1146.4494   -2728.7314 
11040000    247.61336   -3876.1623   -3451.7615   -3876.1623            0    4973.2214    17.188594    20.245894    20.970045    7297.5432    5900.2607    6797.2961    2222.1072    394.64512     653.3577   -856.55845   -2922.4756 
11041000    256.37374   -3890.3184   -3450.9026   -3890.3184            0    5970.3198     17.11983    20.164899    20.886153    7210.3104    4731.2107    8268.6318     4911.117    -823.8031    998.15054   -965.18596   -2823.0937 
11042000     250.9803   -3868.0777   -3437.9061   -3868.0777            0    5960.9923    17.085061    20.123945    20.843734    7166.4682    6833.0641    4247.8271    6802.0856    159.39096     195.1259   -321.41906   -2814.8894 
11043000     268.9278   -3896.1194   -3435.1863   -3896.1194            0    5607.6185    17.147677    20.197698    20.920126    7245.5516    4785.6511    5407.8816    6629.3228    904.71636   -104.49198   -351.97489   -2842.6352 
11044000    278.45155   -3909.8111   -3432.5547   -3909.8111            0    8020.7951    17.101427    20.143223    20.863702    7187.0833    7458.8967    7039.6398    9563.8487    895.44094   -278.86551   -536.11257   -2591.8452 
11045000    251.47462   -3931.2309   -3500.2121   -3931.2309            0    5961.5246    17.142257    20.191315    20.913514    7238.6842    3509.0081    6646.7168     7728.849    504.02065    942.56617   -290.11511   -2870.8612 
11046000    263.52183   -3889.4167   -3437.7493   -3889.4167            0    5984.9175    17.152846    20.203787    20.926432    7252.1058    4714.4316    6083.8066    7156.5144    958.34743    643.61975    1291.3715   -2804.7573 
11047000    259.99105   -3904.6079   -3458.9921   -3904.6079            0    5470.4208    17.106672      20.1494      20.8701    7193.6975    6157.3088    5493.6139    4760.3396    93.677776    542.03569   -637.88823   -2885.0755 
11048000    259.38758   -3883.4716   -3438.8901   -3883.4716            0    5660.5739    17.169434    20.223325    20.946669    7273.1665     7805.646    5245.5015    3930.5744   -1495.4557   -1541.9273    -485.5674   -2838.4636 
11049000    258.82706    -3862.248   -3418.6273    -3862.248            0    6856.5557    17.154982    20.206303    20.929038    7254.8157    7712.7341     5723.263    7133.6701   -413.62894    441.28587   -1559.6457    -2693.176 
11050000     254.9768   -3881.8619   -3444.8403   -3881.8619            0    4607.3736    17.161158    20.213577    20.936572    7262.6537     5229.037    6192.3103    2400.7735      68.5741    209.58805   -1698.3358   -2956.8349 
11051000    263.30336   -3846.9323   -3395.6394   -3846.9323            0    5937.5379    17.097707     20.13884    20.859162     7182.393    5883.9539    6026.6055    5902.0541    464.28741    333.36785    1206.6523   -2773.6951 
11052000     255.8413   -3880.3146   -3441.8114   -3880.3146            0    5752.1156    17.056831    20.090694    20.809294    7131.0033    3920.5408    5515.6342    7820.1719   -1014.1302    2617.5254   -183.26096   -2843.6008 
11053000    249.37815   -3867.8725   -3440.4469   -3867.8725            0    8783.7577    17.064996    20.100311    20.819255    7141.2488    7083.5233    10497.714    8770.0358    661.59526    305.58141    43.926181    -2525.638 
11054000    256.38791   -3860.0729   -3420.6328   -3860.0729            0    6985.4604    17.116172     20.16059     20.88169    7205.6896    6103.7316    7007.6119    7845.0377   -53.173502    256.49463    -1525.881   -2686.5476 
11055000    258.63768   -3873.5739   -3430.2777   -3873.5739            0    7632.4462    17.060391    20.094887    20.813637     7135.469    7950.4953    8048.2763    6898.5669    479.53793   -1639.6518    237.33889   -2636.0187 
11056000    259.08651   -3842.2705   -3398.2051   -3842.2705            0    5756.2646    17.099514    20.140969    20.861368    7184.6716    6060.1583    5721.6114     5487.024    1720.8335    1194.3383    671.63774   -2795.0576 
11057000    267.86408   -3909.4272   -3450.3173   -3909.4272            0     8526.803    17.044155    20.075763    20.793829    7115.1163    8451.2601    9371.1249    7758.0241    432.82515   -1197.1487    97.365006   -2565.5193 
11058000    254.84451   -3874.9714   -3438.1766   -3874.9714            0    7749.7024    17.105478    20.147994    20.868643    7192.1915    7446.6821    8406.6634    7395.7617   -267.60376     1542.983    667.81135   -2625.3046 
11059000     263.0259   -3875.9756   -3425.1582   -3875.9756            0    6795.2208    17.104407    20.146732    20.867337    7190.8406    8639.4459    5660.9044    6085.3119    287.53933    157.10059   -657.14462   -2712.5364 
11060000     242.9742   -3919.6905   -3503.2411   -3919.6905            0    4557.4347    17.204065    20.264116    20.988919    7317.2659    5392.6171      2653.85    5625.8368    227.16383    -698.7133   -229.21663   -3016.8953 
11061000    241.17503   -3859.1173   -3445.7516   -3859.1173            0    6821.4374    17.186545     20.24348    20.967545    7294.9333    7711.2066    6545.1117    6207.9939    162.41541   -578.42937    1097.8918   -2720.0249 
11062000    265.14751   -3883.9623   -3429.5085   -3883.9623            0    5834.9243    17.214337    20.276215    21.001451    7330.3797    5249.3379    5538.7309    6716.7042     607.9804    -1928.297   -1789.0893   -2805.7197 
11063000    264.73618   -3864.3275   -3410.5787   -3864.3275            0    9447.6911    17.117921     20.16265    20.883824    7207.8983    9401.3702    10762.794    8178.9096   -1215.9335   -1238.0244    1108.1044   -2417.4393 
11064000    256.98764   -3877.3104   -3436.8424   -3877.3104            0    6345.7826    17.156541    20.208139    20.930939    7256.7933    5433.0286    6944.7556    6659.5636   -1954.0348   -1807.1411   -2097.2867   -2765.2499 
11065000    246.68901   -3917.3217   -3494.5052   -3917.3217            0    6037.6836    17.123797    20.169571    20.890993    7215.3239    5765.4856    5767.4141    6580.1512    480.09062    84.718589   -229.52675   -2859.1712 
11066000    269.09827   -3894.8139   -3433.5887   -3894.8139            0    7517.1208    17.108882    20.152003    20.872796    7196.4861    6153.3922    7548.7549    8849.2154    -9.311512   -642.70633    1058.7746   -2644.6415 
11067000    253.99248   -3916.3589   -3481.0245   -3916.3589            0    7246.0845    17.001738    20.025801     20.74208    7062.1269    5910.8398    6999.1437    8828.2699     526.9139    18.003726    144.91315   -2734.7222 
11068000    253.81801   -3888.2523   -3453.2169   -3888.2523            0    6013.5087    17.066657    20.102267    20.821281     7143.334    4744.2647    7433.6765    5862.5848   -448.72821    1236.3152   -1323.1427   -2826.7404 
11069000    239.88798   -3901.7828   -3490.6231   -3901.7828            0    5857.2124    17.051964    20.084961    20.803356    7124.9005    5949.5056    6867.0053    4755.1263    277.28587    433.74916    1011.4132   -2882.0038 
11070000    247.28892   -3873.5477   -3449.7029   -3873.5477            0    7126.4078    17.056833    20.090696    20.809296    7131.0052    6281.5822    7129.2759    7968.3653    521.51072   -1234.1476   -726.35042    -2708.568 
11071000     259.1634   -3906.4698   -3462.2726   -3906.4698            0     6472.384    17.088437    20.127922    20.847853    7170.7178    5080.7097    6603.7227    7732.7196   -729.12971   -214.91961    474.71885   -2785.4065 
11072000    271.10104   -3862.7143   -3398.0564   -3862.7143            0    6948.2901    17.129521    20.176313    20.897976    7222.5618    6145.0468    8421.4333    6278.3901   -95.544193    449.74243    -2141.761   -2666.1676 
11073000     249.1736   -3896.4659   -3469.3909   -3896.4659            0    6312.0168    17.072304    20.108919    20.828171    7150.4277    7006.5684    7134.0196    4795.4626   -834.21953   -1571.3307     589.4228   -2811.1633 
11074000    257.33003   -3879.8316   -3438.7767   -3879.8316            0    9443.3095    17.086145    20.125222    20.845057    7167.8323    8610.7103    10070.852    9648.3659   -1251.6257   -511.41466    438.11822   -2451.6158 
11075000     263.8737   -3902.8318   -3450.5613   -3902.8318            0      7136.66     17.14709    20.197007    20.919409    7244.8074    7620.1892    7315.3236    6474.4671    301.89398   -1018.4597   -632.91703   -2696.5154 
11076000     246.2335   -3857.0065   -3434.9707   -3857.0065            0    8684.6619    17.042963    20.074359    20.792375    7113.6239    9870.6294    6898.1299    9285.2263    179.07871    540.32183   -736.82416   -2533.9813 
11077000    252.44204   -3902.7342   -3470.0571   -3902.7342            0    6041.5062    17.083529    20.122141    20.841866    7164.5409    5799.1243    4357.0793    7968.3149    928.47953    832.29217   -359.03228   -2838.7954 
11078000    276.60346   -3885.8312   -3411.7423   -3885.8312            0    5778.9428     17.06243    20.097288    20.816124    7138.0273     5766.056    6406.6932    5164.0793     895.5531    1146.2805   -1831.1514   -2810.1497 
11079000     260.2521   -3883.4957   -3437.4325   -3883.4957            0    8058.4301    17.002824    20.027081    20.743406    7063.4813    7734.1912    8017.1693    8423.9297    279.69934   -558.00444   -1329.5454   -2607.3044 
11080000    267.33743   -3856.7201   -3398.5129   -3856.7201            0    6580.0388    17.116069    20.160469    20.881564    7205.5592    6256.1308    5672.5199    7811.4657    970.27223    1113.9409    -372.4067    -2707.045 
11081000    257.29984   -3854.3043   -3413.3012   -3854.3043            0    7357.9515    17.032028    20.061479    20.779035    7099.9401    6449.7781    7821.0242    7803.0522   -1094.7821    1641.8406    1519.5399   -2651.4196 
11082000    258.27134   -3897.6999   -3455.0316   -3897.6999            0    7460.0407    17.053405    20.086658    20.805114    7126.7068    9340.4663    7016.0957    6023.5599   -748.53044   -1491.1126    1044.6001    -2679.667 
11083000    245.03544   -3869.8069   -3449.8245   -3869.8069            0    5781.3283     17.16245    20.215099    20.938148    7264.2939    6937.1445    6513.3346    3893.5058    849.32997   -15.494171    1518.9851   -2837.3375 
11084000    283.80207   -3881.4917   -3395.0647   -3881.4917            0    5965.5845    17.142104    20.191135    20.913327    7238.4901    5020.4532    5539.7921    7336.5082   -319.90883   -1504.4828   -665.82964   -2765.3021 
11085000    259.91683   -3905.3403   -3459.8517   -3905.3403            0    6010.2482    17.089815    20.129545    20.849535    7172.4525    6105.5941    5194.7912    6730.3593    1351.8217    461.97808    107.66074   -2831.1625 
11086000    245.80991   -3875.0124   -3453.7026   -3875.0124            0    5658.1791    17.087266    20.126543    20.846425    7169.2439    5650.3489    4028.2473    7295.9412   -789.26762    14.009267    248.51851   -2862.1056 
11087000    246.68093   -3898.5896    -3475.787   -3898.5896            0    8636.4818    17.057893    20.091945     20.81059    7132.3355    8331.4665    7598.3408     9979.638   -1060.8944    -72.04078   -1160.1514   -2577.4392 
11088000     272.1181   -3898.7901    -3432.389   -3898.7901            0    6153.9538    17.124592    20.170508    20.891963    7216.3289    5939.4422    5936.3961     6586.023   -892.74838   -1058.6663   -1525.2741     -2784.73 
11089000    252.59517   -3932.5908   -3499.6514   -3932.5908            0    5680.2807    17.149466    20.199806    20.922309      7247.82    5313.7942    6199.1875    5527.8604    1122.9176   -602.14499    138.20322   -2899.2342 
11090000    253.86817   -3877.4919   -3442.3706   -3877.4919            0    6226.9059    17.165689    20.218915    20.942101    7268.4086    5669.6848    7399.0907    5611.9422    1176.7018    1042.5723    812.57832   -2782.3043 
11091000    246.95209   -3901.8335    -3478.566   -3901.8335            0    5280.7125    17.178671    20.234205    20.957938    7284.9113    3934.4822    6241.6155    5666.0399   -810.96217    1371.0214    667.22723   -2917.5275 
11092000    264.79268     -3894.64   -3440.7944     -3894.64            0    7430.9889    17.138079    20.186394    20.908417    7233.3924    5883.3832    8459.9443    7949.6392   -204.43141    1007.4452   -117.79459   -2656.8874 
11093000    241.92574   -3917.7141   -3503.0616   -3917.7141            0    5702.1265    17.209294    20.270275    20.995298     7323.939    5272.7945    6823.0492    5010.5356    569.43298    256.97053    444.62122   -2894.0053 
11094000    268.12394    -3925.816   -3466.2607    -3925.816            0     6409.153    17.118658    20.163518    20.884723    7208.8297    7574.8877    7152.1497    4500.4215     985.5956    612.04488    422.02218   -2792.4447 
11095000    248.13097   -3901.2764   -3475.9884   -3901.2764            0    6765.8514    17.106904    20.149673    20.870383      7193.99    7716.4011    7046.5224    5534.6307   -409.87239    205.82544   -1619.2092   -2766.1358 
11096000    251.35974   -3878.5197   -3447.6977   -3878.5197            0    7791.4969    17.164945    20.218038    20.941193    7267.4631    5298.3522    7850.5111    10225.627   -44.857497   -529.77483    352.14034   -2621.8887 
11097000     266.9882   -3915.6208   -3458.0122   -3915.6208            0    5454.4645    17.163684    20.216553    20.939655    7265.8619    5539.2135    4415.0693    6409.1108    -53.11595    1296.7907   -99.535723   -2880.0291 
11098000    257.18775   -3929.8681   -3489.0571   -3929.8681            0    4813.1356    17.138731    20.187161    20.909211    7234.2171     5579.794    5227.9272    3631.6856    717.84566    445.06347   -787.18457   -2981.2538 
11099000    255.40364    -3890.062   -3452.3089    -3890.062            0    9585.7714    17.076793    20.114206    20.833647    7156.0687    9191.4101    11455.678    8110.2262   -1903.9017   -1320.1896   -640.67973   -2451.9002 
11100000    244.32322   -3898.5584   -3479.7968   -3898.5584            0    7752.6997    17.085091     20.12398    20.843771    7166.5061    7554.0313     7764.936    7939.1317    460.34791    862.12609    389.67736   -2669.5146 
11101000    251.99516   -3929.9888   -3498.0777   -3929.9888            0    6486.5021    17.124797    20.170748    20.892212     7216.587    5003.9036    5886.8334    8568.7692   -1896.2471    170.02684    1196.6333    -2815.396 
11102000    258.84993   -3873.3578   -3429.6979   -3873.3578            0    5431.4859    17.159509    20.211635    20.934561    7260.5604    3782.2527    6296.2813    6215.9238   -359.08589    926.79769    469.14018   -2854.5696 
11103000     250.6756   -3856.7849   -3427.1355   -3856.7849            0    5189.0091     17.15438    20.205594    20.928303    7254.0519    4570.3762    3428.6298    7568.0212    572.47753    2231.5775   -1253.3662   -2878.1751 
11104000    251.40641   -3866.1693   -3435.2674   -3866.1693            0    6400.5463    17.086668    20.125838    20.845695    7168.4905    7124.1965    6138.4169    5939.0255   -869.66521    869.97432    399.94064   -2766.1217 
11105000    255.95313   -3862.1584   -3423.4635   -3862.1584            0    6934.9098    17.147162    20.197092    20.919498    7244.8992    7197.6711    8059.0383    5548.0201   -215.02596    2583.4918    1282.3096   -2690.7249 
11106000    240.45502    -3870.561   -3458.4294    -3870.561            0    8569.1289     17.00977    20.035263     20.75188    7072.1416    7453.4418    9457.7399     8796.205    534.02646   -73.584994   -1712.3184     -2574.61 
11107000    248.39785   -3906.7936   -3481.0482   -3906.7936            0     5768.183    17.140241     20.18894    20.911054    7236.1301    5139.3807    7408.7637    4756.4046   -1727.5214    141.98121    704.17075    -2872.323 
11108000    256.21671   -3890.8916    -3451.745   -3890.8916            0     8081.907    17.110421    20.153815    20.874673    7198.4278    8333.1354    7848.0935    8064.4922   -1214.4759    997.28243    23.212706   -2603.2927 
11109000    255.20459   -3903.4709   -3466.0589   -3903.4709            0    7741.6127    17.152633    20.203536    20.926172    7251.8356    6572.6721    7889.3064    8762.8595   -315.34093   -759.92446    934.91295   -2647.3014 
11110000    247.87229   -3877.6394   -3452.7948   -3877.6394            0    6537.2207    17.141347    20.190242    20.912403    7237.5303    6641.4504    7246.4908    5723.7208    -26.59421    1191.7761   -284.52057   -2762.7784 
11111000     259.8562   -3856.9831   -3411.5985   -3856.9831            0     5886.025    17.119894    20.164973     20.88623    7210.3905     4297.514    5144.0423    8216.5188    149.78127    44.776776    814.40479   -2792.6468 
11112000    245.20871    -3861.775   -3441.4957    -3861.775            0    5644.7457    17.183065    20.239381    20.963299    7290.5031    5026.3685    4671.8948    7235.9737    1068.4356    86.654481   -172.72021   -2841.3209 
11113000    265.10875   -3899.7795   -3445.3922   -3899.7795            0     6821.222    17.133135    20.180569    20.902384    7227.1333    6529.3885    7568.0489    6366.2286   -313.12712    308.29016     742.4837   -2726.4331 
11114000    269.54645   -3880.1569   -3418.1636   -3880.1569            0    5760.5247    17.242051    20.308859    21.035262    7365.8419    4554.9849    5617.4372    7109.1522    680.63986     -2145.33   -5.2238987   -2799.3493 
11115000    268.42592   -3897.3067   -3437.2339   -3897.3067            0    5741.9533    17.153909    20.205039    20.927729    7253.4545     5092.951    7382.9961    4749.9127    1450.9154   -745.70663   -645.38689    -2829.826 
11116000     258.7317   -3926.5332   -3483.0759   -3926.5332            0    5632.0572    17.129121    20.175842    20.897488    7222.0559    5757.9842    6267.2852    4870.9023    1594.3394   -1906.9221   -1125.3498   -2889.8723 
11117000    254.52056   -3912.4002   -3476.1607   -3912.4002            0    6684.2341    17.116606    20.161101    20.882219    7206.2369    8020.7984    4904.6782    7127.2258    1608.2349    83.673529   -437.04407   -2773.6773 
11118000    264.33326   -3917.4907   -3464.4325   -3917.4907            0    9141.8144    17.030725    20.059945    20.777445    7098.3107    8656.5228    7668.3429    11100.578    166.61562   -114.85534    1225.3804   -2518.0574 
11119000    274.65334    -3893.512   -3422.7656    -3893.512            0    9202.3001    17.119245     20.16421    20.885439    7209.5712    8080.3076    9702.5319    9824.0606    86.335227   -1170.1484    1834.7629   -2455.1971 
11120000    259.37959   -3898.2567    -3453.689   -3898.2567            0    6288.9405    17.124757    20.170702    20.892164    7216.5374    7702.1524    6041.2993      5123.37    100.23205   -859.01949    731.38472   -2791.8044 
11121000    261.71451   -3899.8658   -3451.2961   -3899.8658            0    4017.1128    17.146015    20.195741    20.918099    7243.4459    2538.3572     6247.963    3265.0183    101.08948    333.71885    471.60984   -3026.9354 
11122000     268.1172   -3870.5458   -3411.0021   -3870.5458            0    5039.5212    17.126476    20.172726     20.89426      7218.71    4546.8922     5427.357    5144.3143     207.9023    1070.6916    1758.3623    -2880.454 
11123000    258.52897   -3914.5366   -3471.4268   -3914.5366            0    5328.4619     17.06963     20.10577    20.824909    7147.0683    5254.9546    6509.4641    4220.9672    426.72172   -539.90337    767.10525    -2916.027 
11124000    238.68603   -3839.2584   -3430.1587   -3839.2584            0    6209.2123    17.113102    20.156974    20.877945    7201.8129    7293.3104     4172.152    7162.1746    1288.5115   -1989.8957    1059.1699   -2777.9986 
11125000    265.53761   -3861.6933   -3406.5709   -3861.6933            0    5210.5587    17.109061    20.152214    20.873015    7196.7121    5825.6664    5122.5081    4683.5017     716.2745   -663.20427    -1193.526    -2859.688 
11126000    255.77799   -3871.7359   -3433.3412   -3871.7359            0    7516.9877    16.986863    20.008281    20.723933    7043.6075    7270.5436    7353.9182    7926.5014    1138.6513   -903.21806   -1276.4074   -2661.1677 
11127000    271.49818   -3906.0826    -3440.744   -3906.0826            0    6902.6004    17.053664    20.086964    20.805431    7127.0323    7425.2302    7234.0587    6048.5122     1101.414    404.06475   -335.04497   -2723.2845 
11128000    259.82684   -3884.4611   -3439.1268   -3884.4611            0    6479.5724    17.054284    20.087694    20.806186    7127.8089    6575.4986    6257.9581    6605.2606    664.16138    783.23725   -1172.4726   -2765.5637 
11129000    259.55055   -3859.5242   -3414.6635   -3859.5242            0     4368.973    17.164039    20.216971    20.940088    7266.3125    4309.0036    4276.8495    4521.0659    766.15919   -314.44516   -510.17236   -2951.6759 
11130000    253.98004   -3908.2671    -3472.954   -3908.2671            0    5756.1871    17.080366    20.118415    20.838006    7160.5617    5118.6513    5866.6201    6283.2899   -1210.0548    431.74993     -88.3524   -2871.8386 
11131000    254.54131   -3920.3912   -3484.1161   -3920.3912            0    8553.7861    17.054206    20.087602    20.806092    7127.7118    7138.4702    10329.165    8193.7226    1115.7681   -313.25553   -985.51182   -2594.9469 
11132000     264.4194   -3877.0857   -3423.8799   -3877.0857            0    7076.6384    17.040582    20.071555    20.789471    7110.6433    6195.9032    6840.9562     8193.056   -1120.1234    526.45189     502.6969   -2690.0224 
11133000    252.49223   -3899.9692   -3467.2062   -3899.9692            0    7754.1098    17.076855    20.114279    20.833723    7156.1468    7006.1109    9425.1774    6831.0412   -914.99943   -674.87063    1010.7578    -2657.948 
11134000    255.29415   -3914.4671   -3476.9017   -3914.4671            0    7950.9551    17.043396     20.07487    20.792904    7114.1665    8583.1514    7342.7094    7927.0045   -1777.7937   -1780.5242   -658.03642   -2651.9676 
11135000    245.46656   -3912.6058   -3491.8845   -3912.6058            0    6971.7614     17.05044    20.083166    20.801497    7122.9905     8605.577    6617.5415    5692.1657    -2083.187   -470.13569    364.76269   -2767.6474 
11136000    256.94147   -3894.7299    -3454.341   -3894.7299            0    6984.1828    17.099426    20.140865     20.86126    7184.5605    6714.7921    6281.0538    7956.7026    422.40105   -261.34013    1034.4723   -2722.5422 
11137000    246.97927   -3874.4226   -3451.1086   -3874.4226            0    6231.8893    17.034456    20.064339    20.781997     7102.977    6078.6617    4548.8703    8068.1359   -1811.5223    29.790616   -73.591106   -2805.5494 
11138000    262.87237   -3870.2647   -3419.7105   -3870.2647            0    4769.1388    17.144929    20.194461    20.916773    7242.0685    6943.1148    3505.3593    3858.9422   -1892.7368    520.29321   -1002.2252   -2916.0029 
11139000    247.15481   -3873.4808   -3449.8659   -3873.4808            0     9371.491    16.949242    19.963969    20.678036    6996.9127    10116.156    7619.5172    10378.799   -484.41415   -61.887178   -205.49597   -2493.5728 
11140000    250.60509     -3860.74   -3431.2114     -3860.74            0    5331.4147    17.077127    20.114599    20.834055    7156.4886    4275.1817    5481.6726    6237.3898    467.68984    250.76153   -817.42148   -2874.7714 
11141000    251.29666   -3900.2215   -3469.5076   -3900.2215            0     6185.562    17.094494    20.135056    20.855242    7178.3448    6210.0074    6762.1802    5584.4985   -503.74805    218.45491   -535.36629   -2821.9486 
11142000      257.061   -3916.6567   -3476.0629   -3916.6567            0    5864.8433     17.10958    20.152825    20.873648    7197.3667    7249.3788    5078.7474    5266.4037   -429.32044    393.90206    455.05226   -2860.4526 
11143000    257.30157   -3922.1371    -3481.131   -3922.1371            0    6965.3131    17.134706    20.182421    20.904302    7229.1224    8838.9738     5851.996    6204.9695    354.61627   -599.75692    137.44475   -2746.7827 
11144000    253.32935   -3894.5076   -3460.3098   -3894.5076            0    6529.7826    17.101887    20.143764    20.864262    7187.6628    6716.6592    5495.4475    7377.2412    499.54512   -323.44116    531.23266   -2775.8273 
11145000    268.44805   -3866.6883   -3406.5776   -3866.6883            0    6315.1396    17.105507    20.148028    20.868678    7192.2278    6961.7787    5537.5019    6446.1383      1150.46    292.71289   -237.01337   -2744.1746 
11146000    258.09361   -3879.9938   -3437.6302   -3879.9938            0    7473.7156    17.051805    20.084774    20.803163    7124.7018    9485.8942    5958.1039    6977.1488     1177.945   -253.33284    1253.6428   -2661.0628 
11147000    242.64673   -3885.7957   -3469.9075   -3885.7957            0    6446.7943    17.061456    20.096142    20.814937     7136.806    8505.1918    6369.3884    4465.8029    544.48552   -284.37805    1040.5467   -2798.9058 
11148000    259.74024   -3932.2141   -3487.0283   -3932.2141            0    4617.6061    17.136684     20.18475    20.906715     7231.626    5262.7226    4816.7233    3773.3725   -589.50654    1161.6595    606.27279   -3000.0285 
11149000     267.2029   -3852.4899   -3394.5133   -3852.4899            0    7488.7048    17.055573    20.089212    20.807759    7129.4255     6594.438    8582.8785    7288.7979   -328.90307    3.5176403    1283.5129   -2615.8725 
11150000     253.8198   -3889.4733   -3454.4349   -3889.4733            0    6347.7767    17.113092    20.156962    20.877933    7201.8001    6262.9472    5619.6076    7160.7754    2404.2103    711.01828    276.86592   -2787.7224 
11151000    274.05707     -3890.31   -3420.5855     -3890.31            0    6085.8707    17.099699    20.141187    20.861593    7184.9041    6030.5062    6679.6934    5547.4125    1178.7498    701.41477   -1713.0219   -2782.8809 
11152000    241.07925   -3880.2574   -3467.0558   -3880.2574            0    5501.0653    17.137867    20.186143    20.908157    7233.1234    5101.1154    5744.9714     5657.109    1601.0347    560.19554   -765.09262   -2886.7612 
11153000    256.88236    -3866.082   -3425.7944    -3866.082            0    8186.1259    17.067428    20.103176    20.822222    7144.3025    8919.7604    7517.2143    8121.4031    818.28955   -204.06823    270.55752   -2572.8629 
11154000    248.63777    -3873.982   -3447.8254    -3873.982            0    5561.0675    17.147983    20.198058    20.920499    7245.9393    5254.3063    6817.3133     4611.583    493.04744    1014.0074   -61.469172   -2860.1618 
11155000    263.13999    -3916.729    -3465.716    -3916.729            0    6618.6673    17.051304    20.084184    20.802551    7124.0731    6291.6028    9263.3999    4300.9993   -807.59921    892.32511    366.06893   -2778.0544 
11156000    247.07579   -3918.8177   -3495.3383   -3918.8177            0    6343.1568    17.094777    20.135389    20.855588    7178.7014    6324.7596    6205.2933    6499.4174     1255.312    718.49647   -595.38918   -2831.2479 
11157000    251.81911   -3892.6686   -3461.0592   -3892.6686            0    6503.4548    17.122433    20.167965    20.889329    7213.5999    5719.6836    5720.5744    8070.1064    984.94845   -819.05169    1511.2238   -2776.8766 
11158000    259.43535   -3908.2374   -3463.5741   -3908.2374            0    5640.2043    17.062881     20.09782    20.816675    7138.5944    5040.5285    7300.4263    4579.6581     1023.983    1473.3074   -98.103346   -2876.3776 
11159000    256.93698   -3909.1136   -3468.7324   -3909.1136            0    5096.4931    17.155022    20.206351    20.929087    7254.8672     4359.474    6257.9331    4672.0721    58.282009    227.39386    522.70647    -2929.499 
11160000    267.03569   -3887.8587   -3430.1687   -3887.8587            0    5492.4767    17.159343     20.21144    20.934359    7260.3503    3840.2003    5893.7312    6743.4985    705.94137    1377.2735    316.62373   -2848.5991 
11161000    258.22777   -3905.8077   -3463.2141   -3905.8077            0    7804.2441    17.071741    20.108256    20.827484    7149.7196    9569.0526    6717.2062    7126.4735     205.1568   -778.61418    74.197279   -2649.4552 
11162000    247.56135   -3895.0509   -3470.7392   -3895.0509            0    5507.5328    17.177198     20.23247    20.956141    7283.0372    5044.2379    7151.0035    4327.3571   -1232.3028    536.18151    645.52298   -2885.7532 
11163000    255.31994   -3874.1543   -3436.5447   -3874.1543            0    5127.7577    17.095477    20.136214    20.856442    7179.5836    3696.4955    6197.8322    5488.9454   -186.82555     2030.755    782.11057   -2899.6333 
11164000    268.53091   -3911.0043   -3450.7515   -3911.0043            0    7195.4705    17.103141    20.145241    20.865792    7189.2436    6410.8753    8218.9366    6956.5996    26.587327    907.68786   -464.34513   -2696.3227 
11165000    246.37644   -3885.5477   -3463.2669   -3885.5477            0    6649.0186    17.151867    20.202634    20.925238    7250.8652    7895.1889    6234.5044    5817.3625    529.14142   -201.51324   -389.51293   -2760.1569 
11166000    255.32961   -3873.5758   -3435.9496   -3873.5758            0    6749.8833    17.060791    20.095358    20.814125    7135.9707    5497.8905    7306.3234    7445.4359   -399.45476   -760.36962     871.0662   -2733.4838 
11167000    243.21731   -3920.2509   -3503.3848   -3920.2509            0    6340.8143    17.068158    20.104036    20.823113    7145.2195    6971.8319    5332.7886    6717.8224   -1456.5525    381.86542    404.95226   -2842.6358 
11168000    257.62468   -3867.7083   -3426.1485   -3867.7083            0    7041.9872    17.165522    20.218717    20.941896    7268.1957    7488.0042    6849.6575    6788.2999   -637.69251    1034.0217   -56.874772   -2679.7036 
11169000    260.71131    -3864.242   -3417.3917    -3864.242            0    7085.5847    17.139011    20.187491    20.909553    7234.5723    7179.1933    7269.5905    6807.9703    -786.8475   -1357.1023     -562.057   -2669.8001 
11170000    256.74538   -3881.3192   -3441.2664   -3881.3192            0    6621.6461    17.133779    20.181329    20.903171    7227.9492    6841.6364    6318.6675    6704.6344    -1172.591   -740.33628    47.739166   -2743.2639 
11171000    245.00791   -3883.9676   -3464.0325   -3883.9676            0    7226.9643    17.145244    20.194833    20.917158    7242.4685    6821.5758    7229.4513    7629.8659    286.43455     1938.569   -12.252343   -2700.6918 
11172000      257.791   -3885.6598   -3443.8149   -3885.6598            0    5414.7184     17.15821    20.210105    20.932976    7258.9116    5270.4043    6649.3695    4324.3813   -14.217147    1844.3416    1369.6112   -2870.5923 
11173000    249.39924   -3879.8477    -3452.386   -3879.8477            0    7272.9406    17.045489    20.077334    20.795456    7116.7867    6029.9616    7723.4606    8065.3996    -1396.634   -768.91253    497.37544   -2697.5199 
11174000    248.04721   -3880.6792   -3455.5348   -3880.6792            0    5970.7467    17.139359    20.187901    20.909978    7235.0129    6267.1242    4111.6788    7533.4372   -1286.6087   -451.41663    856.32473     -2825.53 
11175000    271.56644   -3876.9171   -3411.4615   -3876.9171            0    7306.7599    17.060387    20.094882    20.813632    7135.4635    6710.3552    6594.9431    8614.9813    34.692041   -176.65104   -843.90972   -2651.0951 
11176000    261.10123   -3905.3393   -3457.8207   -3905.3393            0    6898.6093    17.066378    20.101939    20.820941    7142.9838    8326.4527    7038.3786    5330.9965    1175.0453   -722.14665   -501.08546   -2739.1713 
11177000    269.37887   -3867.8809   -3406.1748   -3867.8809            0    6189.9424    17.050934    20.083748      20.8021    7123.6101    7134.1861    5183.2215    6252.4196   -789.53133    1150.7654     23.54444   -2763.0983 
11178000    255.10596   -3874.1779    -3436.935   -3874.1779            0    6563.6584    17.102088    20.144001    20.864508    7187.9163    7374.2475    6298.7883    6017.9394    1956.3892    -1066.394   -312.48203   -2748.8772 
11179000    251.84627   -3900.4864   -3468.8305   -3900.4864            0    6546.8147    17.140087    20.188759    20.910866    7235.9352    5882.7441    7204.8619    6552.8382   -43.065485    639.11479   -2108.9583   -2777.9537 
11180000    258.11281   -3903.4883   -3461.0918   -3903.4883            0    7991.4953    17.058337    20.092468    20.811131    7132.8923    8571.9928    6320.8012    9081.6918    1421.4175   -853.15584   -936.86913   -2629.7691 
11181000    255.75154   -3856.3857   -3418.0363   -3856.3857            0    8024.1635    17.058744    20.092947    20.811628    7133.4027    6249.9247    8083.2882    9739.2777   -358.93411   -1075.7682    657.72544   -2583.2556 
11182000      262.974   -3859.4782   -3408.7497   -3859.4782            0    6640.6623     17.09065    20.130528    20.850552    7173.5032    7280.1808    6269.9126    6371.8935   -1330.2078   -1095.6125    621.09151   -2714.0157 
11183000    261.21166   -3911.2105   -3463.5027   -3911.2105            0    7727.0622     17.09032    20.130139     20.85015    7173.0879    6726.8517    9049.4364    7404.8986   -751.96573   -544.12793    1323.7203   -2655.1582 
11184000    268.96815   -3930.8518   -3469.8496   -3930.8518            0    6817.6129    17.078599    20.116334    20.835851    7158.3398       7734.2    5744.7997    6973.8389   -1230.4026   -681.20204   -1092.9348    -2758.111 
11185000    271.98466    -3896.541   -3430.3686    -3896.541            0    6327.7375    17.113546    20.157497    20.878487    7202.3736    5414.4641    7164.0695    6404.6789    714.90865    814.78117    1128.5115    -2765.708 
11186000    263.69467   -3874.0883   -3422.1246   -3874.0883            0    7463.3966    17.121983    20.167435     20.88878    7213.0311    5250.3966    8927.9396    8211.8536   -1785.2375    178.42322   -1678.1512   -2637.0152 
11187000    252.21632   -3915.3855   -3483.0954   -3915.3855            0    6276.2153     17.12246    20.167996    20.889361     7213.633    7839.5192    6114.7151    4874.4116    721.36426    496.10286     802.2934    -2822.816 
11188000    271.19189   -3902.0195   -3437.2059   -3902.0195            0    6608.0963    17.184354    20.240899    20.964871    7292.1433    8485.7919    4487.8079     6850.689   -815.13956    653.21783    515.18418   -2734.4452 
11189000    262.98595    -3953.899   -3503.1501    -3953.899            0    7202.1017      17.1572    20.208915    20.931744    7257.6299    5681.1816    5834.3671    10090.756    301.08361    1441.8313   -785.62967    -2740.843 
11190000    255.46227   -3829.0122   -3391.1586   -3829.0122            0    7403.7969    17.172029    20.226382    20.949835    7276.4648    6399.6527    7270.9106    8540.8274    1519.2725   -250.45827   -1079.4641   -2605.4693 
11191000    259.20054   -3876.1491   -3431.8882   -3876.1491            0    6341.7148    17.159201    20.211272    20.934185    7260.1693    7155.4867     5898.372    5971.2857   -296.47862   -731.38251   -399.22012    -2760.414 
11192000    267.63632   -3893.8852   -3435.1657   -3893.8852            0    6987.7964    17.095976    20.136802    20.857051    7180.2126    9600.1352    6036.2229    5327.0311    9.1545201   -296.98544    1319.5874   -2703.4314 
11193000       267.78   -3891.3929   -3432.4271   -3891.3929            0    6631.1911    17.077164    20.114644    20.834101    7156.5362    6575.8511    6118.0016    7199.7205    916.98303   -443.30918   -899.40341   -2740.3248 
11194000     271.7454   -3894.8918   -3429.1294   -3894.8918            0    9192.5744     17.04961    20.082189    20.800485    7121.9505    9528.6712    8987.2118    9061.8401     528.8599    248.32135    2062.9742   -2474.3304 
11195000    261.53085   -3920.1677   -3471.9128   -3920.1677            0    5382.9487    17.174059    20.228773    20.952312    7279.0461    4938.7427     6294.632    4915.4715    1525.9179    953.25749    181.06505   -2900.4728 
11196000    251.45156   -3882.7893   -3451.8099   -3882.7893            0    5986.6473    17.141603    20.190544    20.912715    7237.8547    4845.4977     5542.642    7571.8022    346.29853    1495.8812    445.33235   -2819.8793 
11197000    252.64592   -3856.6371   -3423.6106   -3856.6371            0    7731.0205    17.045201    20.076996    20.795106    7116.4268    8626.6891    7024.2791    7542.0935     988.6609   -454.34997   -781.77491   -2621.2406 
11198000    262.70842   -3886.1229   -3435.8497   -3886.1229            0     6882.025    17.103792    20.146008    20.866586    7190.0651    7251.7939    5675.1508    7719.1303   -545.95437   -853.17737   -752.32959   -2714.2024 
11199000    258.32733   -3863.5655   -3420.8013   -3863.5655            0    8607.3664    17.025061    20.053273    20.770535    7091.2308    9622.2284    7127.6411    9072.2297   -1300.5126   -1705.4683    686.09215   -2530.6419 
11200000    256.32496   -3908.2332    -3468.901   -3908.2332            0    6529.7022    17.107814    20.150745    20.871493    7195.1386    5214.4322    8133.2577    6241.4167    1490.5486   -744.16968   -548.98489   -2783.7151 
11201000    256.61238   -3893.2689    -3453.444   -3893.2689            0    6380.0674     17.12219    20.167679    20.889032    7213.2927    8186.8482    4660.3448    6293.0091     240.5186   -526.02769    -1685.842   -2782.2707 
11202000    267.68279   -3918.8413   -3460.0422   -3918.8413            0    5774.4125    17.133575    20.181088    20.902921    7227.6902    5162.7114    8885.0653    3275.4608    1254.3169   -1085.7434   -340.68315   -2851.3703 
11203000    249.53808   -3915.6871   -3487.9874   -3915.6871            0    6705.9503    17.067975    20.103821     20.82289    7144.9899    7087.3088    5424.1916    7606.3504    1250.2924    -959.0952   -121.31967   -2789.2116 
11204000    246.96267   -3910.2717   -3486.9861   -3910.2717            0    6614.0844     17.02524    20.053484    20.770753    7091.4541    8013.8542    5154.0843    6674.3147    1843.5074    1147.7848   -69.923863   -2802.9471 
11205000    259.68492   -3958.3627   -3513.2716   -3958.3627            0    5289.5317    17.116073    20.160473    20.881569     7205.564    4529.6026    7326.9207    4012.0717     452.8125     354.7109    566.84836   -2957.4172 
11206000    249.62508   -3903.2321   -3475.3832   -3903.2321            0      5244.95    17.091568    20.131609    20.851673    7174.6598    5015.6673    4617.5635    6101.6194     214.9563   -717.76368    1478.4615   -2926.5776 
11207000    251.32349     -3885.79   -3455.0302     -3885.79            0    5471.9486     17.01078    20.036452    20.753112    7073.4015    5287.4689    6310.3599    4818.0168   -1447.6727    462.98809   -40.378733   -2890.5532 
11208000    260.56206   -3885.6693   -3439.0748   -3885.6693            0    4288.4457    17.101193    20.142946    20.863415    7186.7871    3013.5996    4830.8807    5020.8567   -426.83264   -385.25837      977.896   -2989.5946 
11209000    254.01301   -3890.2116    -3454.842   -3890.2116            0    6099.7165    17.050222    20.082909    20.801231    7122.7173    6649.2229    5981.4126    5668.5139   -1513.7828   -33.502559   -298.96175   -2821.2186 
11210000    252.61115   -3860.9727   -3428.0058   -3860.9727            0    8031.2215    17.054145     20.08753    20.806017    7127.6349    8228.3676    9303.9408    6561.3561    1486.5534     892.4333   -1477.2565   -2593.1664 
11211000    253.37693   -3923.3946   -3489.1152   -3923.3946            0    6455.5613    17.082279    20.120668     20.84034     7162.968     5997.904     7162.766    6206.0139    70.637304    470.09948    357.88919    -2814.738 
11212000    252.82711   -3894.5711    -3461.234   -3894.5711            0    6199.2642    17.124047    20.169865    20.891297     7215.639    6522.3768    4095.2032    7980.2126    259.85314   -147.87799     -999.292   -2808.8688 
11213000    272.64873   -3914.5413   -3447.2307   -3914.5413            0    7465.8855    17.150112    20.200566    20.923096    7248.6385    7116.9764    8563.4999    6717.1801    431.53384    -356.6607   -147.17989   -2657.9824 
11214000    254.13969   -3876.0173   -3440.4305   -3876.0173            0    7631.6473    17.123978    20.169784    20.891213    7215.5522       8539.6    8055.2691    6300.0729    1027.5075   -235.88488   -899.35409   -2637.3414 
11215000    242.65228   -3893.0714   -3477.1737   -3893.0714            0    9370.9825    17.034987    20.064965    20.782644    7103.6411    9514.5238    8232.3149    10366.109    329.00765    1286.6445    1135.7251   -2506.3462 
11216000    244.14732   -3868.5939   -3450.1338   -3868.5939            0    6178.0525    17.160331    20.212603    20.935564    7261.6041     5309.847    7879.6144     5344.696    1734.3989    495.51407   -1.1157793   -2795.8592 
11217000    248.30803   -3903.7382   -3478.1467   -3903.7382            0     6357.863    17.193547    20.251727    20.976087    7303.8533     6788.586    6444.1038    5840.8993   -559.73894    677.85459    707.09058   -2800.9122 
11218000    257.93642     -3850.76   -3408.6658     -3850.76            0     8047.815    17.095604    20.136364    20.856597    7179.7441     7534.891    7815.1713    8793.3827   -1568.1195   -1169.5256    -232.9783   -2565.9856 
11219000    260.93741   -3878.8288   -3431.5911   -3878.8288            0    6158.0838    17.173505    20.228121    20.951636    7278.3415    5545.5578    6647.4184    6281.2753   -508.36725   -812.57968   -624.57166    -2777.928 
11220000    259.29305   -3908.4377   -3464.0183   -3908.4377            0    6635.4078    17.112865    20.156695    20.877656    7201.5136    6244.5802    8193.1377    5468.5055   -53.412571   -1489.2605    1039.8366   -2767.1234 
11221000     251.4468   -3886.8248   -3455.8536   -3886.8248            0    6524.5068     17.19672    20.255465    20.979958    7307.8974    6691.2496    5234.3955    7647.8752    336.45557    867.07539   -1315.0175   -2760.4835 
11222000    242.77668   -3901.0837   -3484.9727   -3901.0837            0    6529.8568    17.141148    20.190008     20.91216    7237.2786    5472.8746    6018.3219    8098.3739    209.32065    762.96364    -970.2369   -2795.7575 
11223000     245.5177   -3901.2218   -3480.4128   -3901.2218            0    7703.0995    17.065738    20.101185    20.820161    7142.1804    7462.8877    8986.9879    6659.4229    746.83252    901.85247   -148.23594   -2678.0474 
11224000    250.23285   -3870.0323   -3441.1418   -3870.0323            0    9012.2178    17.062133    20.096939    20.815763    7137.6554    8673.7984    9667.8048    8695.0501   -720.91555    1946.2233    -409.4242   -2503.0115 
11225000    256.23053   -3906.9193   -3467.7489   -3906.9193            0    6027.4629    17.116162    20.160578    20.881678    7205.6768    5766.3658    4981.0445    7334.9784   -1193.5639     999.6495   -1236.4486   -2834.3385 
11226000    244.49456   -3858.2514   -3439.1961   -3858.2514            0    7426.6405    17.123172    20.168835     20.89023    7214.5332    7867.9543    7745.9083     6666.059    233.89284   -1129.1534    643.21215   -2657.7905 
11227000    275.05215   -3843.5885   -3372.1586   -3843.5885            0    10618.462     17.04174    20.072918    20.790883    7112.0922    12183.895    9847.3753    9824.1144     474.0934    1625.6843   -1374.6066   -2270.7844 
11228000    260.32829   -3867.3735   -3421.1798   -3867.3735            0    6104.8258     17.13979    20.188409    20.910504    7235.5589    6864.3524     5049.867     6400.258     645.4815    119.06586   -946.28949    -2776.979 
11229000    250.87766   -3874.5773   -3444.5815   -3874.5773            0    5465.9471    17.128383    20.174973    20.896587    7221.1222    4994.1447    5972.7161    5430.9805   -1407.1663   -454.47205    663.93488   -2868.9481 
11230000    257.48615   -3866.8362   -3425.5137   -3866.8362            0    5779.4978    17.161248    20.213683    20.936682     7262.768    5839.8904     6191.186     5307.417    404.19815    554.37828   -1649.5789   -2813.3492 
11231000    270.05771   -3904.1514   -3441.2817   -3904.1514            0    7899.6227    17.122612    20.168175    20.889547    7213.8256     9254.762    8329.6108    6114.4954    881.22179   -676.40007    -1683.612    -2610.192 
11232000    266.37149   -3915.7636    -3459.212   -3915.7636            0    7185.1005     17.09104    20.130988    20.851029    7173.9951    8559.5411    8975.7112    4020.0493   -2116.6824    755.41586    511.10724   -2707.4682 
11233000    249.03209   -3900.6885    -3473.856   -3900.6885            0    8779.6788    17.072361    20.108986    20.828241     7150.499    8579.8264    8941.6558    8817.5542   -2118.5736   -735.86255   -1701.9545   -2558.2874 
11234000    255.23259   -3862.1101   -3424.6502   -3862.1101            0    7059.6124    17.080976    20.119134    20.838751    7161.3293     7678.687    5860.0873     7640.063    801.34694    -467.8287     951.7643   -2687.3397 
11235000    247.85053   -3905.8875   -3481.0802   -3905.8875            0    5348.5978    17.190729    20.248408    20.972649     7300.262    7030.4514    4805.5472    4209.7949    560.72456    1355.0823     791.6762   -2911.6319 
11236000    248.29726   -3893.1833   -3467.6103   -3893.1833            0    6803.2079    17.099107    20.140489     20.86087    7184.1578    6769.8335    6885.6124    6754.1777    1112.6932   -1559.3791    1634.6802   -2754.8139 
11237000    256.90496    -3914.595   -3474.2687    -3914.595            0    7390.6248    17.060304    20.094785    20.813531    7135.3603    8083.4379    8016.6338    6071.8029   -384.23381   -747.09459    1211.2046   -2705.1861 
11238000    257.70395   -3887.1831   -3445.4873   -3887.1831            0    8865.8694    17.033354    20.063041    20.780652    7101.5985    7474.0364    9109.9271    10013.645    410.62446    1345.3169   -335.35284   -2527.2534 
11239000    255.09274   -3890.6244   -3453.4042   -3890.6244            0    6330.2331    17.062485    20.097354    20.816192    7138.0971    6039.1006    7293.2231    5658.3756    916.66591    1004.6873   -124.29903   -2794.4154 
11240000    252.91131   -3896.8061   -3463.3247   -3896.8061            0    7170.3858    17.043537    20.075035    20.793075    7114.3419    7990.8607    7856.0633    5664.2334    549.55841   -219.46493   -601.39221   -2719.3586 
11241000    244.75469    -3908.911   -3489.4098    -3908.911            0    5259.0017    17.099559    20.141021    20.861422    7184.7273    5278.3883     5318.812    5179.8048     581.0242   -660.29435    168.22847   -2938.3617 
11242000    246.69882   -3880.6459   -3457.8126   -3880.6459            0    6936.5394    17.062602    20.097491    20.816335    7138.2438    8099.7908    5729.9983    6979.8293   -529.03957   -140.00761    732.79792   -2735.6913 
11243000    267.40144   -3893.2838   -3434.9669   -3893.2838            0    5752.6881    17.050511     20.08325    20.801584    7123.0797    5430.5632    6708.9275    5118.5736    715.95061   -795.66069    523.03302   -2837.3615 
11244000    252.70067   -3875.0519   -3441.9316   -3875.0519            0    7223.0115    17.028523     20.05735    20.774758    7095.5571    6987.5643    7020.2569    7661.2132    431.16881   -1677.5925    707.28268   -2694.4841 
11245000    257.81643   -3852.9367   -3411.0482   -3852.9367            0    7951.0611    17.030678    20.059889    20.777387    7098.2519    7713.1822    6516.0803    9623.9207    533.14906    928.24004   -176.53764   -2587.9486 
11246000    257.16668   -3906.7476   -3465.9727   -3906.7476            0    3003.7476     17.16592    20.219187    20.942383     7268.702    2881.5473    2491.6335    3638.0619   -1027.6622    747.21699    2097.3743   -3147.5557 
11247000    260.92042   -3910.6985   -3463.4898   -3910.6985            0    5857.3553    17.029284    20.058248    20.775687    7096.5093    4443.9647    6852.4557    6275.6454   -791.20086   -623.10701    459.63422    -2857.281 
11248000     263.4177   -3862.1004   -3410.6115   -3862.1004            0    7242.9306    16.996451    20.019574    20.735631    7055.5412    7380.8482    6240.8209    8107.1226     1996.001   -2223.4939   -807.43837   -2665.3296 
11249000     240.7983   -3888.5056   -3475.7855   -3888.5056            0    5464.1554    17.044633    20.076326    20.794412    7115.7151    5345.3288    4096.8727    6950.2647    -318.4607    278.99384   -507.36168   -2908.7406 
11250000    270.62259    -3875.745   -3411.9071    -3875.745            0    7701.5846    17.065936    20.101418    20.820402    7142.4286    7081.9861    6952.7201    9070.0476    334.51474    1903.4952   -1176.7597   -2609.6716 
Loop time of 420.831 on 64 procs for 250000 steps with 864 atoms

Performance: 102.654 ns/day, 0.234 hours/ns, 594.062 timesteps/s
99.1% CPU use with 64 MPI tasks x 1 OpenMP threads

MPI task timing breakdown:
Section |  min time  |  avg time  |  max time  |%varavg| %total
---------------------------------------------------------------
Pair    | 21.201     | 26.435     | 31.507     |  47.1 |  6.28
Bond    | 0.27444    | 0.28235    | 0.29133    |   0.7 |  0.07
Kspace  | 178.5      | 187.38     | 196.73     |  28.2 | 44.53
Neigh   | 4.8801     | 5.5563     | 6.1644     |  15.4 |  1.32
Comm    | 90.295     | 96.762     | 103.16     |  30.0 | 22.99
Output  | 0.83005    | 0.83063    | 0.83641    |   0.1 |  0.20
Modify  | 94.915     | 97.664     | 101.64     |  15.5 | 23.21
Other   |            | 5.924      |            |       |  1.41

Nlocal:        13.5000 ave          20 max           9 min
Histogram: 8 4 7 14 8 13 5 3 0 2
Nghost:        2221.69 ave        2265 max        2164 min
Histogram: 3 1 7 5 7 12 7 9 8 5
Neighs:        4317.30 ave        6274 max        2718 min
Histogram: 1 9 8 9 6 18 7 3 1 2

Total # of neighbors = 276307
Ave neighs/atom = 319.79977
Ave special neighs/atom = 2.0000000
Neighbor list builds = 13588
Dangerous builds = 0

unfix		3
unfix		2
unfix		1

write_data	data.final.${pid}
write_data	data.final.0
System init for write_data ...
PPPM initialization ...
  extracting TIP4P info from pair style
  using 12-bit tables for long-range coulomb (../kspace.cpp:340)
  G vector (1/distance) = 0.37382041
  grid = 24 24 24
  stencil order = 5
  estimated absolute RMS force accuracy = 0.0032117083
  estimated relative force accuracy = 9.6719642e-06
  using double precision FFTW3
  3d grid and FFT values/proc = 2535 216
Last active /omp style is kspace_style pppm/tip4p/omp
WARNING: Not all mixed pair coeffs generated from mixing. Use write_data with 'pair ij' option to store all pair coeffs. (../write_data.cpp:312)

write_restart   restart.lmp.${pid}
write_restart   restart.lmp.0
System init for write_restart ...
PPPM initialization ...
  extracting TIP4P info from pair style
  using 12-bit tables for long-range coulomb (../kspace.cpp:340)
  G vector (1/distance) = 0.37382041
  grid = 24 24 24
  stencil order = 5
  estimated absolute RMS force accuracy = 0.0032117083
  estimated relative force accuracy = 9.6719642e-06
  using double precision FFTW3
  3d grid and FFT values/proc = 2535 216
Last active /omp style is kspace_style pppm/tip4p/omp
Total wall time: 0:07:01
