#include		in.partitions
include		in.temp
variable        temperature equal 107.72
variable	tempDamp equal 100.0
include		in.pressure
variable        pressure equal 2019.1
variable        pressureDamp equal 1000.0 # This is 1 ps
include		in.seed
variable        seed equal 745823

units		real
atom_style	full

read_restart	restart.lmp.${pid}
read_restart	restart.lmp.1
Reading restart file ...
  restart file = 30 Jul 2021, LAMMPS = 30 Jul 2021
  restoring atom style full from restart
  orthogonal box = (0.045991955 -0.029895097 -0.050963673) to (19.954009 20.029896 20.750962)
  2 by 4 by 4 MPI processor grid
  restoring pair style lj/cut/tip4p/long/omp from restart
  restoring bond style harmonic/omp from restart
  restoring angle style harmonic/omp from restart
  972 atoms
  648 bonds
  324 angles
Finding 1-2 1-3 1-4 neighbors ...
  special bond factors lj:    0        0        0       
  special bond factors coul:  0        0        0       
     2 = max # of 1-2 neighbors
     1 = max # of 1-3 neighbors
     1 = max # of 1-4 neighbors
     2 = max # of special neighbors
  special bonds CPU = 0.002 seconds
  read_restart CPU = 0.008 seconds
include 	in.setup
variable	out_freq equal 1000
variable	out_freq2 equal 10000
variable	out_freq3 equal 1000

timestep	2.0

neigh_modify    delay 7 every 1

include		in.tip4p
# This is TIP4P/Ice

# create groups ###
group ox type 2
324 atoms in group ox
group hy type 1
648 atoms in group hy

# set charges - beside manually ###
set group ox charge -1.1794
Setting atom values ...
  324 settings made for charge
set group hy charge 0.5897
Setting atom values ...
  648 settings made for charge

# ### TIP3P Potential Parameters ###
pair_style lj/cut/tip4p/long/omp 2 1 1 1 0.1577 8.5
pair_coeff 1 1*2 0.000 0.000
pair_coeff 2 2 0.21084 3.1668
bond_style  harmonic
bond_coeff  1 450 0.9572
angle_style harmonic
angle_coeff 1 55 104.52
kspace_style pppm/tip4p/omp 1.0e-5
pair_modify tail yes

thermo          ${out_freq}
thermo          1000
thermo_style    custom step temp pe etotal epair emol press lx ly lz vol pxx pyy pzz pxy pxz pyz enthalpy

restart 	${out_freq3} restart.lmp.${pid} restart2.lmp.${pid}
restart 	1000 restart.lmp.${pid} restart2.lmp.${pid}
restart 	1000 restart.lmp.1 restart2.lmp.${pid}
restart 	1000 restart.lmp.1 restart2.lmp.1


include         in.dump
dump            myDump all atom ${out_freq2} dump.water.${pid}
dump            myDump all atom 10000 dump.water.${pid}
dump            myDump all atom 10000 dump.water.1
dump            myDump2 all dcd ${out_freq2} dump.dcd
dump            myDump2 all dcd 10000 dump.dcd
dump_modify     myDump append yes
dump_modify     myDump2 append yes


variable natoms 	equal  "count(all)"                        # NUMBER ATOMS
variable H      	equal  "enthalpy/v_natoms"                 # ENTHALPY-per-atom
variable Vol      	equal  "vol/v_natoms"                 # volume-per-atom
fix AVG all 		ave/time ${out_freq} 1 ${out_freq} v_Vol v_H file vol_enthalpy.dat
fix AVG all 		ave/time 1000 1 ${out_freq} v_Vol v_H file vol_enthalpy.dat
fix AVG all 		ave/time 1000 1 1000 v_Vol v_H file vol_enthalpy.dat


timer           timeout 02:55:00 every 1000
New timer settings: style=normal  mode=nosync  timeout=02:55:00

fix 		1 all shake 1e-6 200 0 b 1 a 1
       0 = # of size 2 clusters
       0 = # of size 3 clusters
       0 = # of size 4 clusters
     324 = # of frozen angles
  find clusters CPU = 0.000 seconds
fix             2 all nph aniso ${pressure} ${pressure} ${pressureDamp}
fix             2 all nph aniso 2019.1 ${pressure} ${pressureDamp}
fix             2 all nph aniso 2019.1 2019.1 ${pressureDamp}
fix             2 all nph aniso 2019.1 2019.1 1000
fix             3 all temp/csvr ${temperature} ${temperature} ${tempDamp} ${seed}
fix             3 all temp/csvr 107.72 ${temperature} ${tempDamp} ${seed}
fix             3 all temp/csvr 107.72 107.72 ${tempDamp} ${seed}
fix             3 all temp/csvr 107.72 107.72 100 ${seed}
fix             3 all temp/csvr 107.72 107.72 100 745823


run             250000
PPPM initialization ...
  extracting TIP4P info from pair style
  using 12-bit tables for long-range coulomb (../kspace.cpp:340)
  G vector (1/distance) = 0.37243467
  grid = 24 24 25
  stencil order = 5
  estimated absolute RMS force accuracy = 0.0034044864
  estimated relative force accuracy = 1.025251e-05
  using double precision FFTW3
  3d grid and FFT values/proc = 3458 576
Last active /omp style is kspace_style pppm/tip4p/omp
Neighbor list info ...
  update every 1 steps, delay 7 steps, check yes
  max neighbors/atom: 2000, page size: 100000
  master list distance cutoff = 10.8154
  ghost atom cutoff = 10.8154
  binsize = 5.4077, bins = 4 4 4
  1 neighbor lists, perpetual/occasional/extra = 1 0 0
  (1) pair lj/cut/tip4p/long/omp, perpetual
      attributes: half, newton on, omp
      pair build: half/bin/newton/omp
      stencil: half/bin/3d
      bin: standard
Per MPI rank memory allocation (min/avg/max) = 10.19 | 10.20 | 10.21 Mbytes
Step Temp PotEng TotEng E_pair E_mol Press Lx Ly Lz Volume Pxx Pyy Pzz Pxy Pxz Pyz Enthalpy 
29000000    113.36658   -5020.1324   -4801.4954   -5020.1324            0    2087.0814    19.908017    20.059791    20.801925    8307.2627    2000.2277    2021.9424    2239.0743   -388.52419    797.53602   -635.10098   -4548.6394 
29001000    109.74143   -5041.9278   -4830.2822   -5041.9278            0     1080.663    20.044944    19.909156    20.922586    8349.7419    1455.6468    1055.2853    731.05683   -42.952099    606.20552   -536.84938   -4698.6872 
29002000    105.00916   -5031.5383   -4829.0193   -5031.5383            0    2155.2005    19.969824    19.951434    20.913446    8332.4737    2807.4639    1831.7579    1826.3797   -161.89866   -842.33164    144.95538   -4567.1181 
29003000    106.35327   -5036.9475   -4831.8363   -5036.9475            0    2498.9398    19.886512    19.956252    20.866208     8280.968     3571.736    1606.3108    2318.7726   -71.979519    238.25812    688.29524   -4530.0408 
29004000    104.62592   -5047.7187   -4845.9388   -5047.7187            0    1938.0902    19.979611    19.953103    20.794501     8289.837    1267.6209    2770.6417     1776.008    254.36785    305.83252    930.75903   -4611.6261 
29005000     108.0301   -5035.3298   -4826.9847   -5035.3298            0    2022.6227    20.051369    19.970201    20.733676     8302.383    233.80337     2990.176    2843.8887   -365.33853    186.10572   -810.36907    -4582.082 
29006000    107.56392   -5029.2896   -4821.8435   -5029.2896            0     1793.547    20.028119    20.076358    20.728811     8334.883     2205.321    1128.5524    2046.7677    249.46056    843.79645    60.148147   -4603.8276 
29007000    107.05579   -5033.9105   -4827.4444   -5033.9105            0    830.38651    20.107016    20.028336    20.606197    8298.3229    664.44551    172.91437    1653.7997    268.78831    280.67287    670.19633   -4726.9489 
29008000    102.52745   -5023.3455   -4825.6127   -5023.3455            0    2485.7271    20.001238    19.932721    20.743243     8269.897    1867.1746    3585.4657    2004.5409    -72.11795    87.697101    873.09419   -4525.8142 
29009000    113.28108   -5033.6564   -4815.1843   -5033.6564            0    1679.9963    19.989216    20.030438    20.786878    8322.9155    2569.5036    1027.7916    1442.6937    18.672958    -50.52412   -285.46455   -4611.2643 
29010000    111.41362   -5035.6605   -4820.7899   -5035.6605            0    2398.4588    19.910907    19.951159    20.821719    8271.3375    2917.9265    1732.8488    2544.6011   -294.47715    166.54268    229.87886   -4531.4663 
29011000    107.67598   -5038.7516   -4831.0894   -5038.7516            0    2009.5904    19.970058    20.006438    20.764258    8295.9382    3099.6071    1309.0725    1620.0916   -115.55711   -227.87018   -809.35196   -4587.9536 
29012000    113.13956   -5027.5196   -4809.3204   -5027.5196            0    1745.9725    20.040781    19.853282    20.875506    8305.8479    2819.7403    738.42191    1679.7552    286.33497    538.44979   -289.55647   -4597.8268 
29013000    112.57535   -5029.2342   -4812.1232   -5029.2342            0    2338.9019    19.907283    19.917503    20.922038     8295.659    2119.1788    3081.4319    1816.0949    350.25063    506.81017    298.65467   -4529.1543 
29014000    105.40765   -5035.0108   -4831.7232   -5035.0108            0    1978.6505     19.83778    19.994155    20.887389    8284.7666    1076.2403    2555.3999    2304.3115   -603.47287    411.80098   -986.41019   -4592.6531 
29015000    103.45927   -5030.2142   -4830.6843   -5030.2142            0    2147.5917    19.943542    19.972429    20.758289    8268.4616    1197.9118    2656.5022    2588.3611   -94.796673    369.48776    983.32422   -4571.7126 
29016000     103.9927   -5025.4544   -4824.8958   -5025.4544            0    2371.2505    19.951566    19.962915    20.844181    8302.0584    2183.3216    2961.7317    1968.6982   -415.71133   -217.53885    -325.5354   -4537.7919 
29017000      111.315   -5045.7106   -4831.0302   -5045.7106            0    2184.9151    19.940189    19.956205    20.835762    8291.1851    2364.0975    2784.1482    1406.4996   -324.00914    454.29577    -743.6058   -4566.8337 
29018000    105.83587   -5044.3721   -4840.2587   -5044.3721            0    1215.9997    19.892891    20.081293    20.749748    8289.0048    838.19271    1831.8792    977.92715     179.6545    274.03288   -526.83981   -4693.2606 
29019000    107.45721   -5035.5445   -4828.3043   -5035.5445            0    2136.6601    19.945137    19.903979    20.774775    8247.3276    2213.3356    1535.6401    2661.0044     44.19545   -307.59756   -266.12441   -4571.3093 
29020000    106.50349   -5038.2119    -4832.811   -5038.2119            0    1198.2564    19.972594    20.038099    20.804687    8326.3024    639.78321    1480.3213    1474.6648   -514.86799    507.20108    342.84931    -4687.306 
29021000    109.95381    -5053.019   -4840.9638    -5053.019            0    1239.9693    20.005822    19.985761    20.774441    8306.2772    2590.8723   -284.39745    1413.4331   -533.25233    149.80998    1362.9382   -4690.7558 
29022000    104.72461   -5025.6766   -4823.7064   -5025.6766            0    3086.9086     19.89149    19.977444    20.802258    8266.4247    2799.0118    2884.0676    3577.6465   -169.78622   -51.143055    312.60116   -4451.5569 
29023000     104.7764    -5039.926   -4837.8559    -5039.926            0    2114.5355    20.053294    19.975686    20.715159    8298.0435     1643.807    2281.1319    2418.6677   -369.19056   -27.558164   -213.26474   -4581.9581 
29024000    111.52758   -5021.5127   -4806.4224   -5021.5127            0    2116.9445    19.915746      19.9709    20.816678    8279.5289    2408.0654     1612.338      2330.43    286.03275    -380.7299    803.78226   -4550.8046 
29025000    105.36066   -5019.6803   -4816.4834   -5019.6803            0    1417.6592    20.000361    19.912507    20.826339    8294.2422    1487.2404    1055.9348    1709.8022   -251.99891     -424.617   -760.58248   -4644.9991 
29026000    109.79322   -5024.7884   -4813.0429   -5024.7884            0     2252.294    20.023565    19.843046    20.839099    8279.9688    2567.6197    2299.0932    1890.1692   -340.54758     383.1267   -64.666859   -4541.0675 
29027000    109.91575   -5027.6927    -4815.711   -5027.6927            0    2814.3193    19.967609    19.938298    20.860491    8304.9816    2068.3899    3893.9721    2480.5958    267.37332    270.81323   -938.53821   -4474.8417 
29028000    106.65255   -5037.8119   -4832.1235   -5037.8119            0     2322.411    19.902803    19.930964    20.851353    8271.3575     3144.364    1345.8922    2476.9768   -364.17883    409.57974    297.51639   -4551.9727 
29029000    107.10979   -5029.3597   -4822.7895   -5029.3597            0      989.159    19.993623    19.919726    20.806937    8286.7263    1293.1524    789.81479    884.50978    386.42536     219.0841    -840.5034   -4703.2463 
29030000    106.64866   -5023.5127   -4817.8318   -5023.5127            0    1863.4322    19.943552    19.970165    20.785422    8278.3352    878.63469     3477.596    1234.0659    22.000714   -358.33267    68.054221   -4592.8577 
29031000    105.85794   -5017.9957   -4813.8398   -5017.9957            0    3009.7597    19.925748    19.967715    20.708369    8239.2731    3213.4157    2719.3846    3096.4788   -698.71322   -353.77881    368.62362    -4452.183 
29032000    107.73398   -5029.7212   -4821.9471   -5029.7212            0    2618.9806    19.989874    20.003259    20.656481    8259.7548    2008.3804    3261.9182    2586.6432    169.48983    914.48512   -139.32194   -4506.4646 
29033000     108.0268   -5033.3508    -4825.012   -5033.3508            0    2603.5433    19.982163    19.940926    20.666886    8234.9861     3703.131    1739.0427    2368.4562   -127.12035    414.58598    609.27736   -4512.3295 
29034000    106.64542   -5040.2731   -4834.5985   -5040.2731            0    1700.9909    19.914106    20.181442    20.601185    8279.5206    2869.8389    218.62668    2014.5071   -67.887575    576.20574   -100.49869   -4629.2067 
29035000    105.16125   -5045.5512   -4842.7389   -5045.5512            0    3658.0724    19.931854    19.907933    20.732605    8226.7393    3134.0904    3788.8711    4051.2556    97.674305    654.72936    -59.65092   -4403.8486 
29036000    105.15592   -5042.3334   -4839.5314   -5042.3334            0    1069.4618    20.010648    19.905237    20.847553    8303.9283    383.47751    1422.1719    1402.7361   -101.77389    292.38148   -351.87887    -4710.015 
29037000    105.02845   -5031.7314   -4829.1752   -5031.7314            0    1799.3745    19.936836    19.950907    20.949593    8332.8676    2804.0353    17.180892    2576.9072   -192.53748    443.14756    34.705922   -4610.5038 
29038000    108.05901     -5026.27   -4817.8691     -5026.27            0    2013.9025    20.053511    19.848914    20.812899     8284.375    2252.2617    2433.8632    1355.5826   -21.020178    624.43444   -1290.8329   -4574.5512 
29039000    102.86776   -5033.8602    -4835.471   -5033.8602            0    2519.3775    19.956337    19.881823    20.899145    8292.1198    2226.1925    3261.6778    2070.2624   -222.43659   -968.32843    495.80034   -4530.7975 
29040000     108.0245   -5039.1501   -4830.8157   -5039.1501            0    1271.8255    20.103396    19.891686    20.910768    8362.0163    1446.8004    1264.8193    1103.8568    134.71846    111.02428    2.0259353   -4675.7148 
29041000    103.84137   -5028.1694   -4827.9026   -5028.1694            0    1897.0241     19.98878    19.984995    20.820634    8317.3369    1599.4595      1917.43     2174.183   -41.621732   -406.00902    106.56838   -4597.7939 
29042000    107.13399   -5037.3915   -4830.7745   -5037.3915            0    1758.3333    20.056623    20.034505     20.69173    8314.4444    1921.5217    624.21986    2729.2582    199.25628    421.72946    86.980209   -4617.5632 
29043000    111.21181   -5034.7918   -4820.3105   -5034.7918            0    1720.8123    20.069908     19.88261    20.679915     8252.158    993.34778    2848.9991    1320.0899   -287.08456    708.16391    511.54535    -4613.212 
29044000    106.15637   -5042.4848   -4837.7533   -5042.4848            0    2446.9471    19.987617    19.962837    20.677942    8250.6959    2782.7587     1688.471    2869.6118   -235.29017    469.83929   -394.62091   -4543.3172 
29045000    105.00251   -5044.0162   -4841.5101   -5044.0162            0    1230.0269    19.930952    20.001453    20.769885     8279.873    1014.5684    1217.6457    1457.8665    180.72526   -159.15973    -21.60652   -4692.9801 
29046000    102.48986   -5031.1609   -4833.5006   -5031.1609            0    2137.2442    19.896276    19.840003    20.907224    8252.9629    2568.3747    1827.7889    2015.5691   -606.00909    216.54621    275.40072   -4576.2597 
29047000    112.26586   -5047.9044   -4831.3902   -5047.9044            0    2325.5777    19.917285    19.886681    20.917962    8285.3684      2586.66    2857.7635    1532.3097   -565.64148    708.91008   -183.57877   -4550.3823 
29048000    105.80384   -5041.6253   -4837.5737   -5041.6253            0    2429.2063    19.934445    19.811586    20.867315    8241.1902    1626.1121    3762.7966    1898.7103   -92.811523   -237.78725    165.67592    -4545.609 
29049000     110.6719   -5036.8938   -4823.4537   -5036.8938            0    1992.0184    20.057214     19.93502    20.709828    8280.6376    167.84853    3724.7309    2083.4758    -155.8505     -94.5647    75.545181   -4582.8884 
29050000    106.29119   -5045.2168   -4840.2253   -5045.2168            0    2629.4122    19.913146    19.962608    20.809919     8272.324    3882.8167    1186.5878     2818.832    128.91529   -37.694863   -422.41564   -4523.0042 
29051000    118.77059   -5028.3277   -4799.2687   -5028.3277            0    2243.1846    19.940234    19.899543    20.828114    8264.6276      3448.45     1527.233    1753.8709   -89.991097   -125.19396   -170.71608   -4528.8951 
29052000     105.4241   -5040.7412   -4837.4219   -5040.7412            0    1138.3119    19.931443    19.949685    20.913234    8315.6461    1755.4369    1148.2526    511.24603    182.75199   -277.54942    527.78517    -4699.373 
29053000    100.58693   -5037.3139   -4843.3235   -5037.3139            0    2733.3513    19.903281    19.848955    20.957589    8279.4912    2723.7658    3260.4396    2215.8485    51.596592     356.5931   -929.93022   -4513.2771 
29054000    110.15749   -5027.7217   -4815.2737   -5027.7217            0    2071.9864    19.966224    19.997819    20.888329    8340.3117    2886.5108    963.85862    2365.5899    -282.5093   -207.35827    898.50777   -4563.2478 
29055000    108.45431   -5035.2257   -4826.0625   -5035.2257            0    2078.8967    19.967155    19.877347    20.955483     8317.107    1610.1118    2693.8597    1932.7187   -435.28031   -257.75264   -248.84109   -4573.8996 
29056000    113.84438   -5029.2269   -4809.6684   -5029.2269            0     1315.087    20.008006    19.967856    20.748198    8289.2573    577.83553    1829.5198    1537.9055   -57.769127    1187.3683   -844.87228   -4650.6871 
29057000    103.08516   -5039.0177   -4840.2092   -5039.0177            0    1527.8916    20.006638    19.954183    20.756281    8286.2419    1182.3339      2547.52    853.82071    78.516462   -659.98915   -568.76137   -4655.5691 
29058000    109.32899    -5041.438   -4830.5878    -5041.438            0    1292.9798    19.946827    20.091724     20.75199    8316.6946    1849.5735    311.53929    1717.8265   -224.35434    933.42952    291.59889   -4673.7617 
29059000    106.24771    -5033.526   -4828.6184    -5033.526            0    2964.4294    19.945881     19.98849    20.560072    8197.0553    3381.4509    1655.8448    3855.9924   -33.145608    34.405053   -501.60106   -4474.2337 
29060000    106.04012   -5034.3956   -4829.8884   -5034.3956            0    1291.1048    19.995022    20.046881    20.773761    8326.9088    946.27897    1233.2939    1693.7416   -11.585396    621.82936    183.98395   -4673.0973 
29061000    106.46093   -5026.5266   -4821.2078   -5026.5266            0    3792.6732     19.95357    19.901331    20.662961    8205.3152    3014.1975    4310.5505    4053.2717   -105.27985    157.58961   -624.41409   -4367.3533 
29062000    115.57466   -5031.7499   -4808.8545   -5031.7499            0    2934.1248    19.930744     20.08305     20.68663    8280.2398    2208.8206     3421.813     3171.741   -127.92587    1046.9607   -258.57173   -4454.5331 
29063000    106.75655   -5021.3558   -4815.4669   -5021.3558            0    1940.6135       20.096    19.959839    20.620293    8271.0658    1835.9879    1955.4522    2030.4004    -433.5207    399.75901    334.45914   -4581.3803 
29064000    106.07211   -5034.7752   -4830.2062   -5034.7752            0     1832.053      20.0947    19.885517    20.784727    8305.4419    723.69008    3107.5034    1664.9656    153.70679      539.225   -153.55718   -4608.2963 
29065000    109.50002   -5044.9079   -4833.7279   -5044.9079            0    2220.6768     19.95387    20.007103     20.86712    8330.5534    2119.2159    2359.9152    2182.8994   -53.485774   -255.96044   -1012.5783   -4563.9322 
29066000    114.79193   -5032.7166   -4811.3308   -5032.7166            0    2069.4319    19.983573    19.924979    20.792981    8279.1885    540.93023    3426.0834     2241.282   -233.62894    128.70128   -395.51894   -4561.4604 
29067000    103.12368    -5031.386   -4832.5033    -5031.386            0    2286.0238    19.994372    19.966828    20.611977    8228.7998    1932.6186    3134.0068    1791.4461   -336.31736   -139.24735   -1060.1595   -4558.1608 
29068000    107.16702   -5032.3455   -4825.6649   -5032.3455            0    2300.2063    20.012034     19.93725    20.685639    8253.2577    1773.1565    2984.8408    2142.6216     -19.1048    248.83555    91.330794   -4548.7999 
29069000     102.2111   -5040.8605   -4843.7378   -5040.8605            0    1611.7279    19.984701    20.077396    20.674781    8295.5647    1395.9218    509.44493    2929.8169    519.73771    677.86293    259.08552   -4648.7472 
29070000    109.83382   -5034.8564   -4823.0327   -5034.8564            0    717.80473    19.994334    20.047194    20.778904    8328.8139    1155.6409    272.64654    725.12673   -538.38842    335.80885    932.93868   -4735.8429 
29071000    109.68011    -5038.681   -4827.1537    -5038.681            0    2230.4518     19.98512    19.847711    20.881064    8282.6594    2021.3433    2904.2261    1765.7862   -27.609911    987.15403   -435.60891   -4557.7283 
29072000    116.20213   -5028.0706    -4803.965   -5028.0706            0    2103.8303    19.944962    20.031223    20.754931    8292.0513    2558.4885     1134.086    2618.9166    -423.5722   -632.48637    106.67422   -4549.5466 
29073000    101.81252   -5038.1825   -4841.8285   -5038.1825            0    2090.6416    20.055271     20.00835    20.708385    8309.7133    694.30445     2199.792    3377.8285   -236.35151    -179.2284     635.2261   -4588.4665 
29074000    106.11304   -5044.0028   -4839.3549   -5044.0028            0    1851.5842    19.876965    20.028415    20.710875     8245.084    1956.9302    1983.1836     1614.639    26.605882    189.95496    687.73302   -4616.7091 
29075000    109.64725   -5043.2594   -4831.7955   -5043.2594            0    2085.5934    19.917418    19.979981    20.807068    8280.1653    3796.1397    693.97468    1766.6657   -282.67437    189.69448   -79.907988    -4579.944 
29076000    104.28038    -5031.646   -4830.5326    -5031.646            0    1911.9398    19.854222    20.009421     20.94556    8321.0741    1843.2611    2347.2943    1545.2638   -583.23461   -86.285125   -682.00906   -4598.5104 
29077000    102.69686   -5044.3616   -4846.3021   -5044.3616            0    1710.1467    19.985119    19.886954    20.764251    8252.6093     2219.888    1443.2116    1467.3407   -156.57427    -863.7838    -1688.676   -4640.4759 
29078000    111.36225   -5023.9933   -4809.2219   -5023.9933            0      3205.89    19.817969    20.148656    20.642074     8242.492    4816.9089    1802.7218    2998.0391     482.6627   -144.57861   -244.48629   -4423.8473 
29079000    104.92355   -5040.0936   -4837.7397   -5040.0936            0    2285.7328    20.123551    19.926295    20.603525    8261.7629    2366.4036    2043.8875    2446.9072   -322.03278    650.00335   -176.26529   -4562.3333 
29080000    109.15927   -5028.6082   -4818.0853   -5028.6082            0    1512.0143    19.967413    19.998786    20.818639    8313.3827    1383.1118    1630.0238    1522.9073    126.88033   -30.272103   -247.14138   -4634.7655 
29081000    113.32871    -5041.805    -4823.241    -5041.805            0    2450.2938    19.939909    20.048736    20.684441    8269.0181    3309.2302    1845.0332    2196.6179   -229.53327   -92.115457    1156.1397   -4527.7475 
29082000    101.45939   -5037.1212   -4841.4483   -5037.1212            0    1703.2493    19.981598    20.028027    20.717871     8291.126    1190.3783    2013.2273    1906.1422   -704.95179    512.98231    414.96405   -4635.4955 
29083000    108.81661   -5033.9258   -4824.0638   -5033.9258            0    1627.6248    20.027927    20.001077    20.772987    8321.2454    725.53065    2231.7099     1925.634   -145.77794    198.52522    230.64681   -4626.5405 
29084000    107.61431   -5020.9111   -4813.3679   -5020.9111            0    1363.0909     19.97764    19.946608    20.879615    8320.2375    1796.6822    1548.6672    743.92321    564.33801    252.51218    1016.9947   -4647.9675 
29085000     108.2665    -5046.286   -4837.4849    -5046.286            0    2205.6667    19.903282    20.064318     20.73026    8278.5419    4038.0536    714.33238     1864.614   -305.32096   -110.38612   -1083.7635   -4571.1859 
29086000    107.79319   -5043.0489   -4835.1606   -5043.0489            0    1375.0129    20.004059    19.980232    20.698957     8273.078    713.63669    1450.9316    1960.4704    113.08068    586.83251   -490.77046   -4669.2593 
29087000    104.33881   -5035.2415   -4834.0153   -5035.2415            0    1977.0275    19.925312    20.140326    20.678413    8298.2944     1725.756    1577.5737    2627.7529    130.22784    290.30425    331.75409   -4594.7512 
29088000    108.56824   -5038.1952   -4828.8123   -5038.1952            0    1320.3566     20.06826    19.990493    20.658125    8287.5111   -614.54167    3282.3846    1293.2268   -105.06264    245.54398    491.66093   -4669.2276 
29089000    99.086201   -5038.0788   -4846.9827   -5038.0788            0    1367.1826    19.996065    20.029847    20.718656    8298.1971    1244.3411     1669.086    1188.1209   -214.63572   -132.36882    157.27412   -4681.5253 
29090000    107.12043   -5038.4461   -4831.8553   -5038.4461            0     1873.209    20.065533    19.988387    20.625684    8272.5005    2522.9408    1365.8403    1730.8461   -294.20333   -58.243953     505.5539   -4605.8603 
29091000    102.24134   -5027.1983   -4830.0173   -5027.1983            0    3565.2968    19.838727    19.959454    20.734017    8210.0521    4876.2444    2324.9188    3494.7273   -114.49988    832.89446   -415.93973   -4403.1258 
29092000    107.66113   -5041.3951   -4833.7616   -5041.3951            0    1257.5499    20.065558    19.990553    20.703763    8304.7266     2618.635   -430.29961    1584.3144    25.666821   -590.80965   -732.06048   -4681.4523 
29093000    106.64086   -5023.5828   -4817.9169   -5023.5828            0    1857.9428     20.08069    19.855326    20.840762    8309.3917    860.14748    2565.3341     2148.347    274.71499   -342.66937   -39.077368    -4592.764 
29094000    108.62523    -5040.737   -4831.2441    -5040.737            0    1774.8128    19.994143    19.978131    20.747836    8287.6319    853.61075    2415.7561    2055.0716    49.739199    714.19545    650.05848   -4616.7285 
29095000    102.27166    -5039.006   -4841.7665    -5039.006            0    1423.6235    19.884698    19.989409    20.830212    8279.6624    1733.7657    1243.4943    1293.6105   -126.73506   -476.42978    519.85571   -4669.8634 
29096000     109.6726   -5032.4546   -4820.9418   -5032.4546            0    2068.4052    19.839796    19.963441    20.934431    8291.5127    3145.3649     1696.711    1363.1396     130.1814    53.064101    734.31479   -4570.8236 
29097000    110.57118   -5041.8815   -4828.6357   -5041.8815            0    1131.7949    19.980166    19.886499    20.934236    8317.9164    714.09268    1884.6709    796.62123   -235.31019    158.39382    93.953521   -4691.3396 
29098000     109.9438   -5046.1865   -4834.1507   -5046.1865            0     1719.941    19.981909    20.024734    20.878805    8354.2867    2706.2917    935.66141    1517.8698     107.3683   -500.81334   -717.23085   -4624.5953 
29099000    109.84948   -5040.1861   -4828.3321   -5040.1861            0    2372.2478    19.823786    19.968844    20.709989    8198.2164    3168.5729    2418.5139    1529.6565   -26.581095    96.162931    -225.7283   -4544.7001 
29100000    109.25515   -5042.8246   -4832.1168   -5042.8246            0    2317.9224     20.07447    19.896795    20.773466    8297.2885    2653.3186    2122.9661    2177.4825    240.88885   -312.63836   -853.92676    -4551.631 
29101000    103.49246   -5047.6094   -4848.0155   -5047.6094            0    593.76723    19.977888    20.102232    20.690979       8309.5    1453.1545    -470.0777    798.22485   -249.01844   -351.78199   -194.31774   -4776.0595 
29102000    108.84821   -5039.2971   -4829.3742   -5039.2971            0    2205.0426    19.878146    19.913775    20.824587    8243.3907    2973.3957    2071.4504    1570.2819   -406.68088   -66.645421    224.21679   -4564.2809 
29103000    109.28372   -5030.4979    -4819.735   -5030.4979            0    659.47608    19.989786    20.033253     20.92138     8378.185    1179.9409    551.96206    246.52526    55.077742   -628.91271    292.30738   -4739.1555 
29104000    107.90106   -5029.8605   -4821.7642   -5029.8605            0    1527.3672    19.968516     19.90977    20.938883    8324.6416    1599.2743    1765.4652    1217.3621    76.726402    -127.2277    394.86919   -4636.3321 
29105000    113.83205   -5031.3269   -4811.7922   -5031.3269            0    1830.7914      19.9899    19.926625    20.915085    8331.1318    1736.7553    2510.9197    1244.6991   -24.531183   -656.16666    98.074511   -4589.3492 
29106000    104.45477   -5042.2698     -4840.82   -5042.2698            0     2123.351    19.928753    19.839765    20.961383     8287.749    1707.5944    3335.0299    1327.4288   -227.04322    4.0793846    233.18907   -4584.1741 
29107000    110.97671   -5044.8502   -4830.8223   -5044.8502            0    677.93855    19.942516    20.028749    20.875758    8338.2714    1370.1121    -402.5149    1066.2184    9.6711911    573.16734    -186.0154   -4748.3815 
29108000    113.21763   -5039.0351   -4820.6854   -5039.0351            0     1199.948    20.021909    19.853214    20.930655    8319.9195     1074.794    957.37879    1567.6712    120.46013    1076.1768    18.473307   -4675.0867 
29109000    108.05511   -5038.4991   -4830.1058   -5038.4991            0    1312.9952    19.976929    19.910883    20.910893    8317.4811     1113.623    1931.4698    893.89275   -457.60634    1504.5518    758.48603   -4670.8369 
29110000    115.25158   -5041.1377   -4818.8653   -5041.1377            0    2553.7815    20.085905    19.815361    20.814406    8284.3303    1739.9127    3958.8316    1962.6002   -195.67752    49.854925    558.28872   -4510.3214 
29111000    107.36135   -5023.6467   -4816.5913   -5023.6467            0    2222.0506    20.002351    20.165076    20.560472     8293.044    3236.0776     342.6305    3087.4437   -243.59205    380.35442   -800.27106   -4547.8442 
29112000    106.77045   -5028.8564   -4822.9406   -5028.8564            0    1904.5479    20.168851     19.89461    20.674743      8295.77    1706.2682    2046.6626    1960.7129    163.47089   -686.63668    12.356041   -4592.5183 
29113000    100.55712   -5028.5705   -4834.6377   -5028.5705            0     2453.456    20.061344    19.915802    20.652471    8251.4417    2680.3872    2089.5347     2590.446   -543.85951    831.72342    91.448309   -4539.3917 
29114000    110.07757    -5033.252   -4820.9582    -5033.252            0    2511.8598    20.058952    19.896932    20.753668      8283.03    2177.6971    2312.1604     3045.722    81.940175    599.93537    891.25937   -4517.5268 
29115000    104.38899    -5025.109    -4823.786    -5025.109            0     2294.039    19.950234    19.963196    20.700081    8244.2302    1450.4862     2377.353    3054.2778    -251.1161   -214.71368    564.83414   -4547.9654 
29116000    104.19109   -5040.2241   -4839.2829   -5040.2241            0    2077.2952    20.120784    19.875478    20.660517    8262.3515   -146.63105    4164.9356     2213.581    58.969989    1059.7163    428.96665   -4588.9731 
29117000    101.46755   -5035.5335   -4839.8448   -5035.5335            0    2693.4514    20.015426    19.973701    20.590567    8231.7405    2577.3179    1303.8089    4199.2274    681.08039    14.592607   -21.853363   -4516.4919 
29118000    106.08203   -5038.4556   -4833.8675   -5038.4556            0    1515.1212    19.974864    19.976661    20.711004    8264.3345    724.27636    1686.4831    2134.6042    529.64427     373.7233    203.69998   -4651.2547 
29119000    105.42059   -5041.1664   -4837.8539   -5041.1664            0     2103.535    20.092317    19.940022    20.632789    8266.3464    1418.9262    2222.6471    2669.0318   -28.408514    27.401988    228.15197   -4584.2598 
29120000     108.6725   -5034.2734   -4824.6893   -5034.2734            0     2392.586    20.059994    19.982221    20.593156     8254.627    2556.9507    1636.6595    2984.1478    19.346935    1165.3717    481.32876   -4536.6572 
29121000    105.50918   -5045.7081   -4842.2248   -5045.7081            0    2199.1152    20.065037    19.917451    20.630709    8244.9475    1946.2414    2334.2763    2316.8278   -324.83831    236.44242   -629.67888   -4577.7941 
29122000    109.94548   -5026.6406   -4814.6015   -5026.6406            0    2137.6025    20.043614    20.029607       20.603    8271.3979    2718.5439    1579.1781    2115.0855   -189.82316    1112.0662    84.199399   -4556.7429 
29123000    102.44815   -5020.2489   -4822.6691   -5020.2489            0    3853.0288    20.030027    19.914239    20.516033    8183.4917    2699.6041    4584.9528    4274.5294    584.26745    703.75592   -928.29471   -4362.8184 
29124000    103.41785   -5024.5168   -4825.0668   -5024.5168            0    1706.8388    20.018274    19.816057    20.928825    8302.1143    714.62141    2275.5164    2130.3788    4.9990861    119.00279   -739.62709   -4618.4064 
29125000    113.49476   -5036.8537   -4817.9696   -5036.8537            0    1494.7506     19.99895    19.831791    20.930241    8301.2475    1337.1554    1594.3893    1552.7071   -403.07351   -637.95377    218.62838   -4637.0073 
29126000    101.08914   -5037.9554   -4842.9965   -5037.9554            0    1302.5961    20.017999    19.954683     20.81549    8314.8064    1840.4932    730.12951    1337.1656   -105.17611   -115.96475   -577.06713   -4685.0399 
29127000    108.29856   -5043.3755   -4834.5126   -5043.3755            0    920.53168    20.109799    19.887574    20.788078    8313.8828    181.37058    1374.4928    1205.7317   -475.67591    861.19531    751.03495   -4722.8987 
29128000    106.16598   -5038.3592   -4833.6092   -5038.3592            0    2860.2435    19.826328    19.939558    20.854406    8244.3351    4019.0119    2987.6882    1574.0303    68.464417   -26.262116    224.35826   -4489.7073 
29129000    110.30834   -5022.1625   -4809.4236   -5022.1625            0    1452.1262     20.15101    19.813646    20.746466    8283.3375    519.78422    2291.2013    1545.3932   -33.237061    861.41092    610.54273    -4634.001 
29130000    102.23887   -5043.9726   -4846.7963   -5043.9726            0    1156.6421    19.976953    20.079408    20.663662    8288.7193    1292.1537    974.44418    1203.3285   -204.98132    204.70505   -461.02813   -4706.9786 
29131000    103.77885   -5043.9985   -4843.8522   -5043.9985            0    1478.9978    19.994599    19.966658    20.774709    8293.7898    2806.2489    284.11934    1346.6252   -762.44598    1075.8255    90.510123    -4664.958 
29132000     106.1001   -5021.6241   -4817.0011   -5021.6241            0    983.06833    20.015955    20.120831     20.77252    8365.8758     630.7035    894.05627    1424.4452   -402.83581    386.56384   -278.64967   -4697.0592 
29133000    110.24316   -5026.7387   -4814.1255   -5026.7387            0     1748.361     19.84918    20.147292    20.709705    8281.9602    3519.0205   -144.73724    1870.7997    23.060488   -891.76387   -326.70493   -4602.9516 
29134000    104.90571   -5039.1895     -4836.87   -5039.1895            0    2233.0836    20.036339    19.921864    20.803497    8303.9497    1672.9739     2998.984    2027.2928   -143.16223   -3.5853956    527.84876   -4566.4334 
29135000    112.76342   -5049.7831   -4832.3093   -5049.7831            0    2392.6633    19.916598    20.031273    20.766874    8285.0442    4090.6697     1078.453    2008.8672   -177.26517     1208.894    513.58068   -4543.2065 
29136000    114.03563   -5047.7741   -4827.8469   -5047.7741            0    1958.8196    20.113551    19.921118     20.72988    8306.1405    1566.7889    1724.3388    2585.3313   -514.88356    155.51399    235.73265   -4590.5622 
29137000    104.54042   -5039.0683   -4837.4533   -5039.0683            0    2140.3552    19.800697    20.124598    20.778596    8279.8769    2794.8152     1778.209    1848.0413   -333.18286    651.60886    607.17171   -4578.9979 
29138000    106.82325   -5041.4558   -4835.4382   -5041.4558            0    2335.1601     19.96868    19.897511    20.754766    8246.4295    2452.1138    2419.5024    2133.8641    41.860282   -356.41885    409.86791   -4554.5985 
29139000    100.12333   -5040.1464   -4847.0501   -5040.1464            0    883.11825    19.898531    19.934834    20.975825    8320.5627    1958.1012    31.958883    659.29462    94.332788    147.93788   -160.15848   -4739.8865 
29140000    113.48509   -5043.5132   -4824.6477   -5043.5132            0    1732.5601     20.03036    19.972147    20.690503    8277.2213    1572.6786    1998.0322    1626.9695    105.52224   -191.33719    393.15713   -4615.5021 
29141000    109.83169    -5044.184   -4832.3644    -5044.184            0    1853.8718    19.934072    20.017395    20.736614    8274.4937    1895.3767    1242.3534    2423.8853    423.63025    218.57173   -768.49109   -4608.6484 
29142000     110.1139   -5045.6353   -4833.2713   -5045.6353            0    1666.4591    19.941117     20.04831    20.827818    8326.6636    2581.8743    1768.4016    649.10153    470.14686   -189.65415    301.26458   -4630.9035 
29143000    107.12415   -5038.7816   -4832.1836   -5038.7816            0    2127.4864    19.815463    20.022328     20.84292    8269.4637    3769.6013    1040.7889    1572.0689    33.374572    213.89057    122.11013   -4575.6053 
29144000    110.46149   -5044.4874   -4831.4531   -5044.4874            0    2044.8256    19.924657    19.948472    20.923342     8316.327     2285.229    1362.3932    2486.8547   -578.85973    846.09244    720.45902   -4583.4462 
29145000    106.22844   -5033.9811   -4829.1106   -5033.9811            0    2103.9436    19.949754    19.984679    20.736688    8267.4984    2201.3916    1403.5607    2706.8785    -441.4826    265.12262   -82.085317   -4575.4319 
29146000    102.93976   -5037.6227   -4839.0947   -5037.6227            0    1784.8235    20.045158    19.995144    20.693192    8293.9518    1745.7069    1279.4563    2329.3072   -202.67434    828.27136   -181.04184   -4623.2046 
29147000    101.64222   -5037.3944   -4841.3688   -5037.3944            0    1941.8946    19.810719    20.061044    20.838214    8281.6002    1923.2443    1879.3446    2023.0951    180.08365    124.35923    38.238518   -4606.8294 
29148000    102.51179   -5036.8811   -4839.1785   -5036.8811            0    896.21428    19.908556    19.983549    20.880524    8307.1827    2182.9931    37.178908    468.47084    139.68211    491.66837    -163.8262   -4730.6006 
29149000    110.46652   -5032.0789    -4819.035   -5032.0789            0    3214.9887    19.964956    19.856165    20.713535    8211.4143     1545.856    4947.4177    3151.6922   -31.689407   -198.24075     133.4189   -4434.0238 
29150000    101.34852   -5029.2855   -4833.8263   -5029.2855            0    992.79884    19.921357    20.022593    20.804513    8298.4465    1690.4637   -101.64721      1389.58    -571.9068    230.92355    440.67981   -4713.6735 
29151000    112.28702   -5029.5908   -4813.0359   -5029.5908            0    1681.0961    19.985946    20.027655    20.693812    8283.1457    2118.3676    1423.1071    1501.8136   -181.70933    638.23014    151.82799   -4609.9575 
29152000    111.42419    -5037.558   -4822.6671    -5037.558            0    1940.0016    20.010314    19.978954    20.689255     8271.257    2748.0397    1576.7559    1495.2091   -37.143387    435.03237    108.19197    -4588.649 
29153000    106.23261   -5036.3269   -4831.4484   -5036.3269            0    3462.4262    19.985613    19.881019    20.744385    8242.4566    1638.5274    5198.9363    3549.8149   -3.1763058   -337.83503    -132.9219   -4415.2378 
29154000    104.85285   -5030.1507   -4827.9331   -5030.1507            0    2545.2453    19.920717    19.858569    20.962706    8292.7824    2925.9037    2660.8766    2048.9555    -370.6391    181.58093    208.60735   -4520.1068 
29155000    106.34992   -5039.4902   -4834.3855   -5039.4902            0    1308.9521    20.013334    19.831263    20.925927    8305.2847    1383.4476    1443.2924    1100.1164    173.65238    463.00749    418.16147   -4675.8399 
29156000    101.79631   -5037.6293   -4841.3065   -5037.6293            0    2193.4541    19.975634    19.881445    20.851521    8281.0662    716.78389    4522.9347    1340.6437   -305.09752    1082.5375    166.88951   -4576.4012 
29157000     109.5608   -5034.4031   -4823.1059   -5034.4031            0    2053.9816    19.753181    19.831885    21.092089    8262.6741    3091.3283    2589.6552     480.9613   -738.56822   -222.65392    372.42307   -4575.5957 
29158000    102.37931   -5041.3214   -4843.8743   -5041.3214            0    1590.2065    20.016969    19.912297    20.829339    8302.2378     1586.847    1759.2154    1424.5572   -25.591655    669.06135    148.66361   -4651.3327 
29159000    104.85311   -5037.9477   -4835.7297   -5037.9477            0    3622.5327    19.998976    19.836701    20.825746    8261.8589     2659.583    4394.7233    3813.2917   -327.94703    41.832718    193.31864    -4399.248 
29160000    106.02211    -5033.155   -4828.6825    -5033.155            0    2516.4704    20.038852    19.980578    20.636881    8262.7561    2645.2973    1811.0005    3093.1134     139.6538    425.68981   -953.19832   -4525.4382 
29161000    103.73991   -5037.9796   -4837.9084   -5037.9796            0    1237.4911    20.093404    20.052054     20.57439    8289.7102    787.30787    517.82682    2407.3387    200.14551   -597.89011    273.79417   -4688.2996 
29162000    108.63847   -5035.2307   -4825.7123   -5035.2307            0    3078.5504    20.041189    19.943975    20.604007    8235.4414     2203.267    2473.2682    4559.1161   -70.559655    -969.9103   -1035.4982   -4455.9615 
29163000    109.20569   -5038.8035   -4828.1911   -5038.8035            0    1871.1165    19.968148    20.053975    20.701217    8289.6102    1056.1647    2154.8979    2402.2868   -123.22553   -15.075081    -11.53743   -4601.9816 
29164000    108.46188   -5044.0034   -4834.8255   -5044.0034            0    2709.2107     20.03398     19.90249    20.733001    8266.7885    1451.7954     3393.301    3282.5358   -420.62064    206.56122   -904.30125    -4508.196 
29165000    106.25162   -5037.7506   -4832.8354   -5037.7506            0    1317.7524    19.949427    20.013019    20.784475    8298.1657    1539.7708    1680.6504    732.83577     159.5544    198.77309   -859.95298   -4673.3607 
29166000    110.02069   -5032.4567   -4820.2725   -5032.4567            0    1277.0638    20.031249     19.92508    20.795139    8299.8436    474.40953    2015.8998     1340.882    284.36845    331.33632     57.67561   -4665.6907 
29167000    110.21993   -5040.4535   -4827.8851   -5040.4535            0    1190.9412     19.97151    20.142414    20.749936    8347.1683    2285.2383   -460.03542    1747.6208    76.593311    282.86828    51.053614    -4682.906 
29168000    113.88314   -5032.4302    -4812.797   -5032.4302            0    2054.7959    20.023995    19.964818    20.729688    8287.2193    425.58794    3586.1954    2152.6043   -425.89481    975.98652   -1112.8853   -4564.4531 
29169000    117.11232   -5040.9442   -4815.0832   -5040.9442            0    2131.0367    19.921369    20.108485    20.689045    8287.7944     2248.596    1531.3653    2613.1489    195.53564   -119.88579    988.81824    -4557.507 
29170000    110.22178   -5041.5214   -4828.9494   -5041.5214            0    2577.4676    19.864944    19.973629     20.79787    8252.0751    1943.0733    3532.4637    2256.8657   -290.49169    910.68731   -461.38565   -4518.7562 
29171000    109.61406   -5031.6955   -4820.2956   -5031.6955            0    1535.1253    20.028639    19.993895    20.783916    8322.9294    1530.9965    1739.0808    1335.2984    63.644216    205.80981   -640.50269   -4633.9599 
29172000    106.71364   -5043.0873   -4837.2811   -5043.0873            0    1460.2813    19.916532    20.104621     20.68932    8284.3005    1646.0196    827.00861    1907.8158     295.7662    265.50434    -287.0953   -4660.8528 
29173000     102.0095   -5034.5462   -4837.8123   -5034.5462            0    3000.5028    19.879716    19.964433    20.704258     8217.256    1683.0986    3927.9925    3390.4173   -26.732506    675.50569    878.17463   -4478.2313 
29174000    105.18221    -5034.685   -4831.8322    -5034.685            0    1769.5581    19.953503    20.092278    20.702642    8299.9238     2297.927    1298.9772    1711.7702   -65.188549    8.2556657   -751.07277   -4617.6345 
29175000    106.02116   -5033.9245   -4829.4538   -5033.9245            0    2791.7036    19.990591    19.938624    20.694661    8248.5793    2117.7129    4215.5842    2041.8137   -450.46298    382.83039   -29.656262     -4493.62 
29176000    103.26831   -5040.6361   -4841.4745   -5040.6361            0    3088.0649    19.891605    19.950231     20.80762      8257.34    2095.5808    3559.3842    3609.2295   -112.24646    46.826295    1043.4819   -4469.5948 
29177000    104.94577   -5029.6923   -4827.2955   -5029.6923            0    2601.1603    19.881524    19.952896    20.763453    8236.7369    3426.6062    2025.7292    2351.1454   -355.34938   -485.15036    982.05796   -4514.8328 
29178000    107.16892   -5032.9113   -4826.2271   -5032.9113            0    3309.4249    19.923077    19.973361    20.754565     8258.881    3476.2581    2633.4283    3818.5882   -112.54293     -71.9677    575.02985   -4427.6157 
29179000    108.29293   -5023.0023   -4814.1503   -5023.0023            0    3214.5795    19.940483    19.975919    20.697776    8244.5343    3709.7792     2604.249    3329.7104   -130.74459    673.74206    226.04531   -4427.6354 
29180000    110.86961   -5032.2748   -4818.4535   -5032.2748            0    2519.6918     20.12795    19.811275    20.828247     8305.479     2292.261    2787.3644    2479.4499    251.04674   -290.27405   -693.35485    -4513.251 
29181000    104.45714   -5032.0111   -4830.5567   -5032.0111            0    2914.0573    19.875701    19.921424    20.873768    8265.0157    2856.2817    2708.4935    3177.3966   -292.58847    798.40013    -678.5993   -4479.3056 
29182000    105.63025   -5032.3321   -4828.6152   -5032.3321            0    2511.9212    20.007961    19.749902    20.908222    8261.9944    2335.0886    3204.2092    1996.4659   -521.99542    911.81885    359.37711    -4525.947 
29183000    100.41638    -5036.156   -4842.4946    -5036.156            0    2572.2243    20.012296     19.89611    20.775278    8272.0271    2679.5453    2448.9286    2588.1989    162.85231    195.52927   -52.321487    -4532.184 
29184000    98.064833   -5030.5137   -4841.3875   -5030.5137            0    1135.0388    20.100471      19.9928    20.704697    8320.4871    1578.9156    825.19559    1001.0052    637.35108    351.58528   -955.04214   -4703.6553 
29185000    111.77743   -5034.1515   -4818.5794   -5034.1515            0    2678.3141    20.021909    19.985135    20.692627    8279.9594    1793.6373     3107.858     3133.447    312.23015    514.10886   -460.91717   -4495.1603 
29186000    109.53048   -5030.0879   -4818.8492   -5030.0879            0    1953.2462    19.985916    20.015283    20.697718     8279.579    1344.6458    1872.2982    2642.7946    133.44053    874.87547    871.85381   -4582.9963 
29187000    104.42112   -5036.0882   -4834.7033   -5036.0882            0    2096.5025    19.998249    19.982043    20.792581    8308.8371    1731.8763    2758.2799    1799.3515   -836.44967    586.90757    1505.7022   -4580.6578 
29188000    108.51204   -5030.6335   -4821.3589   -5030.6335            0    2710.6017    19.911329     20.00618    20.641739    8222.6291    3964.2705    1230.7013    2936.8333   -21.083136    171.85328    559.53101   -4496.3073 
29189000    100.94384   -5035.8511   -4841.1724   -5035.8511            0      2180.43    20.005257     19.99649    20.749637    8300.5797     3010.385    1084.9095    2445.9955    194.24424   -818.87309   -865.60495   -4577.2195 
29190000    110.04234      -5027.3   -4815.0741      -5027.3            0    1714.9214    19.994292    19.867054    20.869857    8290.0851    1945.0019    1596.7117    1603.0506    234.44728    811.53266   -449.58626    -4607.736 
29191000    110.84929   -5042.4894   -4828.7072   -5042.4894            0    915.50843    19.984803    19.949685    20.880173    8324.7271     1110.728    1372.7909     263.0064    -105.9458   -476.43287   -522.98655   -4717.5575 
29192000    109.58984   -5035.0495   -4823.6963   -5035.0495            0    3324.5661    19.971099    19.918862     20.82007    8282.2564    3096.2173    3506.4669     3371.014    118.51471   -511.24802   -462.26976   -4422.1279 
29193000    110.63643   -5041.1578   -4827.7862   -5041.1578            0     1610.936    19.979209    19.940058    20.943019    8343.4178    2394.6141    1244.7283    1193.4656    100.38721    543.70188    677.59495   -4631.7672 
29194000    106.70462   -5026.4892   -4820.7003   -5026.4892            0    1953.2844     20.00004    19.961203    20.801084    8304.3099    2803.9698    1922.9316    1132.9517   -283.82226    675.28984    1113.9968   -4584.1384 
29195000    107.61524   -5037.1442   -4829.5992   -5037.1442            0    1124.4498    19.970115    20.055282     20.79136    8327.0705    1979.8571    647.38988    746.10252   -32.553741   -341.09439    258.64838    -4693.044 
29196000    105.73032   -5033.4843   -4829.5744   -5033.4843            0    1570.2076    20.078897    19.873438    20.846521    8318.5274     12.82173    3762.1756    935.62554   -320.82019    307.84305   -469.05496   -4639.0813 
29197000    104.28997   -5031.6611   -4830.5291   -5031.6611            0    1939.1203    19.882344    19.988842    20.848763    8285.8202    2907.6759    1954.5031    955.18194   -119.53821    1084.0793   -908.91868   -4596.2054 
29198000    108.91725   -5038.6999   -4828.6438   -5038.6999            0    2318.7388    19.975893    19.824548    20.941943    8293.2829    1968.9849    3345.5902    1641.6413   -311.96323   -263.11437     -965.819   -4548.1946 
29199000    109.33553   -5030.5478    -4819.685   -5030.5478            0    2555.9607    19.895634     19.98866    20.790544      8268.13    2884.6243    2735.3149    2047.9428   -346.81032   -146.36365    308.06202   -4511.4817 
29200000    104.08963   -5029.8382   -4829.0926   -5029.8382            0    2994.4682      20.1644    19.845033    20.642702    8260.4495    1018.0555    4191.0502     3774.299    263.85338     930.7862    187.96471   -4468.3484 
29201000    103.84485   -5032.9243   -4832.6507   -5032.9243            0    2135.8603    19.949447    19.999968    20.626433    8229.7056    3098.0079    483.64925    2825.9238    -399.7321    1305.8576   -778.83208   -4576.3009 
29202000    109.17221   -5042.8111   -4832.2634   -5042.8111            0    1920.9779    19.919753    20.038172    20.751177    8282.9451    1529.1672    1687.5337    2546.2328   -749.52575    1078.4872   -1020.9129   -4600.2126 
29203000    103.53003   -5038.5608   -4838.8945   -5038.5608            0    2169.5458    20.029964    19.976151    20.658434    8265.8853    2284.0376    1974.2944    2250.3054   -11.447209    10.449605   -172.98229   -4577.3569 
29204000    104.00957    -5042.616   -4842.0248    -5042.616            0    1596.0372    19.998888    19.973664    20.808204    8311.8592    1199.1061    2251.0106    1337.9948   -431.83466    494.09585    393.56573   -4648.5533 
29205000    102.07605   -5041.1854   -4844.3232   -5041.1854            0    1316.1415    19.972518    20.139172    20.702471    8327.1547    854.96062    1751.5149    1341.9491   -41.285496    973.16609    791.93593    -4684.487 
29206000    103.44595   -5040.4371   -4840.9329   -5040.4371            0    1364.7289    19.982861    20.024114     20.81388    8328.4469    2804.5243    58.587249    1231.0751   -461.39552    -504.0961   -99.176444   -4675.1704 
29207000    108.41862   -5039.5626   -4830.4682   -5039.5626            0    626.54254    19.938167    20.039846      20.8772    8341.6481    251.68485     595.8544    1032.0884    42.349976    1031.4665   -649.32048   -4754.2465 
29208000      107.541   -5029.6714   -4822.2696   -5029.6714            0    1746.8509    19.948959    19.787945    20.987767    8284.8977      2358.16    1569.8818    1312.5109   -178.91938    1214.8868    232.27059   -4611.2033 
29209000    105.24693   -5033.2328   -4830.2552   -5033.2328            0    2401.5368    19.997879    19.957138     20.79354    8298.7108    2175.4148    2769.0492    2260.1463    203.70206     724.4401   -97.598497   -4539.6016 
29210000    112.91095   -5033.8351   -4816.0768   -5033.8351            0    2524.5859    20.057473    19.957272    20.621994    8254.8283    1892.9257    2461.1195    3219.7126   -187.01505    333.04355   -323.24546   -4512.1464 
29211000    106.96435   -5035.4602   -4829.1705   -5035.4602            0    1961.8016     19.94335    20.028661    20.682165    8261.2553    2631.0094    700.22594    2554.1696   -55.011303    1365.7444    309.80121   -4592.8088 
29212000    109.26497   -5038.1648   -4827.4381   -5038.1648            0    2485.4462    20.000701    20.029687    20.644505    8270.3492      2265.75    2127.2034    3063.3852   -414.70985   -115.79868   -219.51473   -4527.6571 
29213000    107.50528   -5025.2384   -4817.9055   -5025.2384            0    1793.3369    19.917236    20.047189    20.772999    8294.3383    2233.5489    1745.9865    1400.4753     -48.3343   -250.14814    33.774417   -4600.9755 
29214000    107.17941   -5033.6087   -4826.9042   -5033.6087            0    2408.5593    20.022343    20.027172    20.655477    8282.6585    2108.6834    2257.0855    2859.9091   -489.88229     930.5669   -368.42436   -4535.9645 
29215000    107.70772   -5058.7885   -4851.0651   -5058.7885            0    1936.5366    20.036309    19.965489    20.701451     8281.299    2233.9036    1746.1255    1829.5808     -60.5976   -697.26719   -572.12881   -4617.1813 
29216000    104.72836   -5038.0348   -4836.0574   -5038.0348            0    2467.5472    19.854207    20.002959    20.784166    8254.2841    3095.4853    2151.8182    2155.3381    108.86545    1082.1554   -558.97477   -4539.0134 
29217000    103.14565   -5042.7873   -4843.8623   -5042.7873            0    2260.8697    20.028639    19.804379    20.861531    8274.8255    2311.7318     2325.277    2145.6004   -403.97714    96.354741    260.72455   -4571.0209 
29218000     109.5028   -5034.4083   -4823.2229   -5034.4083            0    1185.9978    19.989733    19.992335    20.736628    8287.2161    1314.3713    1472.4587    771.16324   -23.588936    414.22141    53.002044   -4679.8826 
29219000    109.14067   -5036.7646   -4826.2777   -5036.7646            0    2286.3015    19.918094    20.097305    20.697878    8285.3605    1398.4441    3274.0214    2186.4391   -171.13104    58.778162   -176.44368   -4550.0159 
29220000    104.79796   -5043.3208   -4841.2091   -5043.3208            0    1908.0357    20.047832    19.928765    20.701138    8270.6952    1938.1445    1842.8704    1943.0922     171.7875   -227.95994   -68.237404   -4611.0626 
29221000    105.81241   -5036.4336   -4832.3654   -5036.4336            0    2736.8994    19.880597    20.000548    20.789272    8266.2893    2176.3209    2474.5379    3559.8392    17.994896     -575.979   -289.25189   -4502.4176 
29222000     102.9822   -5036.8713   -4838.2615   -5036.8713            0    3101.2824    20.029619    19.776735    20.844361     8256.878    2992.2511    3750.3185    2561.2777     189.9176   -414.14736   -577.23641    -4464.811 
29223000    106.34179   -5042.0533   -4836.9642   -5042.0533            0    935.42599    20.069454    19.923735    20.832739    8330.1473    116.10526    1661.1692    1029.0035   -663.26649    712.25892    415.00505   -4723.3224 
29224000    105.26912   -5032.8322   -4829.8119   -5032.8322            0    978.95976    19.981553    19.921205    20.951468    8339.8705     2063.224    1066.9319   -193.27661    90.984069    210.46327   -525.38082   -4710.7425 
29225000    104.66348   -5041.0535   -4839.2011   -5041.0535            0    1695.4699     19.98437    19.944002    20.767527    8277.2785    2206.0363    1114.0766    1766.2966    213.52702   -374.23238    181.44623   -4634.5315 
29226000    110.83958   -5045.2821   -4831.5186   -5045.2821            0    1297.7686    20.070815    19.943613    20.753973    8307.4951   -144.13795     1968.637    2068.8066   -265.87357   -462.34727   -939.43919   -4674.2858 
29227000    112.00934   -5020.4099   -4804.3905   -5020.4099            0    758.52748     20.12404    19.891395    20.721879    8294.8694    982.93082    350.04617    942.60546    78.590325    752.66281     117.0632   -4712.6298 
29228000    112.98919   -5037.1741   -4819.2649   -5037.1741            0     2572.523    20.012856    19.929342    20.728059     8267.242    2055.9077    3317.0635    2344.5977   -281.23587    1115.7926    515.40234   -4509.0978 
29229000    109.72935   -5031.4778   -4819.8555   -5031.4778            0    2399.4196    20.016521    19.986482    20.595039    8239.2478    2374.2225    1741.5592     3082.477    258.94141     264.9463   -305.03034   -4531.5389 
29230000    112.95605   -5028.9377   -4811.0925   -5028.9377            0     1621.756    20.062288    19.962784    20.741783    8307.0657    1378.5797    2065.7947    1420.8937     33.47944   -784.29056    588.90559   -4614.6167 
29231000    113.66053   -5041.2362   -4822.0324   -5041.2362            0    1227.9723    19.959875    19.932775    20.821574    8283.9817    941.35675    1621.0454    1121.5147   -193.09658   -492.32582    133.76204   -4673.6769 
29232000    111.19105   -5042.7557   -4828.3145   -5042.7557            0    3439.4477    20.055332    19.822109    20.717074    8235.8444    2518.5519    4515.4128    3284.3784    48.471101   -160.04591    832.60094   -4415.1978 
29233000    109.59824   -5046.2128   -4834.8434   -5046.2128            0    1889.6058    20.070304    19.902141     20.72375    8277.9367     921.0055    2284.2566    2463.5552   -71.371441    969.88819   -385.71224   -4606.7203 
29234000    111.55518   -5038.2324   -4823.0888   -5038.2324            0    2395.7279    20.015268    19.929598    20.830535    8309.2222    3344.4174    1755.8785    2086.8879   -268.94207   -43.492832   -1122.3189    -4532.771 
29235000     103.9808   -5039.1503   -4838.6146   -5039.1503            0     1600.254    19.988913    19.896766    20.882433    8305.2509    1841.3487    1663.9525     1295.461   -321.46253    197.03203   -5.5038141   -4644.7861 
29236000    101.09224   -5030.1511   -4835.1862   -5030.1511            0    2965.4887    19.907137    19.918866    20.822386    8256.6509    2681.4059    3961.7374    2253.3229     287.5933    135.42173    918.80099   -4478.0976 
29237000    108.23067    -5039.981    -4831.249    -5039.981            0    1634.1521    19.985679    19.863822    20.992591    8333.8898    1373.1089    2586.6259    942.72136   -459.92849   -397.91946   -533.41925   -4632.6322 
29238000    114.84499   -5046.2554   -4824.7672   -5046.2554            0    2422.5769    19.987376    19.936754    20.816116    8294.8764     1012.826    3717.1218    2537.7828   -167.95918   -482.94318    597.30498   -4531.7026 
29239000    106.62739   -5034.6294   -4828.9895   -5034.6294            0    1031.2255     19.86845    19.914194     21.04536    8326.8945    2340.1112    1230.5307   -476.96551   -364.11844   -161.43707    967.49689   -4703.7583 
29240000    109.77113   -5036.5977   -4824.8948   -5036.5977            0    1682.1064    19.901056    19.993223    20.920438    8323.9547    2408.2924    1356.2834    1281.7434   -94.050391    344.50304   -1230.8777   -4620.6932 
29241000    101.84237   -5032.7817   -4836.3701   -5032.7817            0    2657.0846    19.907733    19.865321    20.805845    8228.1601    3114.6537    2765.7549    2090.8452   -208.36587     212.6661    18.112279   -4517.5219 
29242000    110.43913   -5044.4207   -4831.4295   -5044.4207            0    1924.8058    19.879467    20.014013     20.85496    8297.5196    2612.0105    1278.4861    1883.9207    42.461218   -172.06036   -465.02028   -4598.5072 
29243000    106.83272   -5028.5707   -4822.5348   -5028.5707            0    1603.3642    19.917668    19.962022    20.886208     8304.292    1566.7239    2336.8039    906.56463    570.58385    933.83537    580.74855   -4628.3521 
29244000    109.44173   -5032.5733   -4821.5057   -5032.5733            0    2945.8879    19.942655     19.87864    20.943297    8302.6115    2985.4706    3109.5655    2742.6276   -56.109943    127.02137   -494.62909   -4464.8027 
29245000    114.19857   -5032.6084   -4812.3669   -5032.6084            0    1207.4541      19.9508     20.01084    20.747976    8283.2616     2757.994    -69.44871    933.81709   -200.37684    271.25769   -333.65564   -4666.5029 
29246000    109.95194   -5031.5229   -4819.4713   -5031.5229            0    2579.9953     19.98114    19.877071    20.752814    8242.3232     1791.932    3837.1881    2110.8658   -297.74791   -163.34152   -352.50101   -4509.3409 
29247000    102.07327   -5029.5812   -4832.7243   -5029.5812            0    1875.8926    19.908178    19.994646    20.821535    8288.1574    2240.7092    1307.4018    2079.5669   -248.60149   -449.00822    253.58384   -4605.9771 
29248000    110.10595   -5032.8371   -4820.4886   -5032.8371            0    2444.4552     19.86664    19.960318    20.904186    8289.4388    2107.5222    3383.7503     1842.093   -162.16494    969.89881    -325.4452   -4524.9711 
29249000    106.40433    -5044.599   -4839.3893    -5044.599            0    2822.3039    19.998029     19.88184     20.72867    8241.6701    3269.7987     2521.017     2676.096   -209.18745     722.6329    230.42744   -4500.1588 
29250000    113.44494    -5026.291   -4807.5029    -5026.291            0     3543.335    19.853252     20.00441    20.712944     8226.199    3660.5231    3414.5201    3554.9619   -433.45436   -80.274086    284.40765   -4382.4066 
Loop time of 386.674 on 64 procs for 250000 steps with 972 atoms

Performance: 111.722 ns/day, 0.215 hours/ns, 646.540 timesteps/s
195.4% CPU use with 32 MPI tasks x 2 OpenMP threads

MPI task timing breakdown:
Section |  min time  |  avg time  |  max time  |%varavg| %total
---------------------------------------------------------------
Pair    | 28.62      | 35.873     | 48.787     |  76.0 |  9.28
Bond    | 1.096      | 1.3219     | 1.9691     |  21.6 |  0.34
Kspace  | 165.54     | 181.48     | 190.83     |  41.8 | 46.93
Neigh   | 0.67342    | 0.72211    | 0.78123    |   5.1 |  0.19
Comm    | 70.576     | 74.454     | 77.862     |  26.5 | 19.25
Output  | 0.59286    | 0.59325    | 0.59509    |   0.1 |  0.15
Modify  | 74.414     | 77.362     | 81.088     |  20.3 | 20.01
Other   |            | 14.86      |            |       |  3.84

Nlocal:        30.3750 ave          37 max          25 min
Histogram: 3 3 3 2 6 9 2 2 0 2
Nghost:        2655.88 ave        2686 max        2626 min
Histogram: 1 2 4 4 4 5 5 3 2 2
Neighs:        9576.22 ave       12236 max        7531 min
Histogram: 3 3 3 6 7 0 5 3 0 2

Total # of neighbors = 306439
Ave neighs/atom = 315.26646
Ave special neighs/atom = 2.0000000
Neighbor list builds = 2117
Dangerous builds = 0

unfix		3
unfix		2
unfix		1

write_data	data.final.${pid}
write_data	data.final.1
System init for write_data ...
PPPM initialization ...
  extracting TIP4P info from pair style
  using 12-bit tables for long-range coulomb (../kspace.cpp:340)
  G vector (1/distance) = 0.37270224
  grid = 24 24 25
  stencil order = 5
  estimated absolute RMS force accuracy = 0.0033721934
  estimated relative force accuracy = 1.015526e-05
  using double precision FFTW3
  3d grid and FFT values/proc = 3458 576
Last active /omp style is kspace_style pppm/tip4p/omp
WARNING: Not all mixed pair coeffs generated from mixing. Use write_data with 'pair ij' option to store all pair coeffs. (../write_data.cpp:312)

write_restart   restart.lmp.${pid}
write_restart   restart.lmp.1
System init for write_restart ...
PPPM initialization ...
  extracting TIP4P info from pair style
  using 12-bit tables for long-range coulomb (../kspace.cpp:340)
  G vector (1/distance) = 0.37270224
  grid = 24 24 25
  stencil order = 5
  estimated absolute RMS force accuracy = 0.0033721934
  estimated relative force accuracy = 1.015526e-05
  using double precision FFTW3
  3d grid and FFT values/proc = 3458 576
Last active /omp style is kspace_style pppm/tip4p/omp
Total wall time: 0:06:26
