LAMMPS (30 Jul 2021)
  using 1 OpenMP thread(s) per MPI task
package omp 0
using multi-threaded neighbor list subroutines
echo both

include		in.partitions
variable        pid world 0
include		in.temp
variable        temperature equal 244.00
variable	tempDamp equal 100.0
include		in.pressure
variable        pressure equal 4375.0
variable        pressureDamp equal 1000.0 # This is 1 ps
include		in.seed
variable        seed world 745823

units		real
atom_style	full
read_restart    restart.lmp.${pid}
read_restart    restart.lmp.0
Reading restart file ...
  restart file = 30 Jul 2021, LAMMPS = 30 Jul 2021
  restoring atom style full from restart
  triclinic box = (-3.2605215 -0.053412760 -0.20237459) to (14.870520 22.633412 19.432373) with tilt (-0.12828359 -6.6851974 0.23422590)
  4 by 4 by 4 MPI processor grid
  restoring pair style lj/cut/tip4p/long/omp from restart
  restoring bond style harmonic/omp from restart
  restoring angle style harmonic/omp from restart
  1008 atoms
  672 bonds
  336 angles
Finding 1-2 1-3 1-4 neighbors ...
  special bond factors lj:    0        0        0       
  special bond factors coul:  0        0        0       
     2 = max # of 1-2 neighbors
     1 = max # of 1-3 neighbors
     1 = max # of 1-4 neighbors
     2 = max # of special neighbors
  special bonds CPU = 0.520 seconds
  read_restart CPU = 0.709 seconds

include 	in.setup
variable	out_freq equal 1000
variable	out_freq2 equal 10000
variable	out_freq3 equal 1000

timestep	2.0

neigh_modify    delay 7 every 1

include		in.tip4p
# This is TIP4P/Ice

# create groups ###
group ox type 2
336 atoms in group ox
group hy type 1
672 atoms in group hy

# set charges - beside manually ###
set group ox charge -1.1794
Setting atom values ...
  336 settings made for charge
set group hy charge 0.5897
Setting atom values ...
  672 settings made for charge

# ### TIP3P Potential Parameters ###
pair_style lj/cut/tip4p/long/omp 2 1 1 1 0.1577 8.5
pair_coeff 1 1*2 0.000 0.000
pair_coeff 2 2 0.21084 3.1668
bond_style  harmonic
bond_coeff  1 450 0.9572
angle_style harmonic
angle_coeff 1 55 104.52
kspace_style pppm/tip4p/omp 1.0e-5
pair_modify tail yes

thermo          ${out_freq}
thermo          1000
thermo_style    custom step temp pe etotal epair emol press lx ly lz vol pxx pyy pzz pxy pxz pyz enthalpy

restart 	${out_freq3} restart.lmp.${pid} restart2.lmp.${pid}
restart 	1000 restart.lmp.${pid} restart2.lmp.${pid}
restart 	1000 restart.lmp.0 restart2.lmp.${pid}
restart 	1000 restart.lmp.0 restart2.lmp.0


include         in.dump
dump            myDump all atom ${out_freq2} dump.water.${pid}
dump            myDump all atom 10000 dump.water.${pid}
dump            myDump all atom 10000 dump.water.0
dump            myDump2 all dcd ${out_freq2} dump.dcd
dump            myDump2 all dcd 10000 dump.dcd
dump_modify     myDump append yes
dump_modify     myDump2 append yes


variable natoms 	equal  "count(all)"                        # NUMBER ATOMS
variable H      	equal  "enthalpy/v_natoms"                 # ENTHALPY-per-atom
variable Vol      	equal  "vol/v_natoms"                 # volume-per-atom
fix AVG all 		ave/time ${out_freq} 1 ${out_freq} v_Vol v_H file vol_enthalpy.dat
fix AVG all 		ave/time 1000 1 ${out_freq} v_Vol v_H file vol_enthalpy.dat
fix AVG all 		ave/time 1000 1 1000 v_Vol v_H file vol_enthalpy.dat



fix 		1 all shake 1e-6 200 0 b 1 a 1
       0 = # of size 2 clusters
       0 = # of size 3 clusters
       0 = # of size 4 clusters
     336 = # of frozen angles
  find clusters CPU = 0.138 seconds
fix             2 all nph tri ${pressure} ${pressure} ${pressureDamp}
fix             2 all nph tri 4375 ${pressure} ${pressureDamp}
fix             2 all nph tri 4375 4375 ${pressureDamp}
fix             2 all nph tri 4375 4375 1000
fix             3 all temp/csvr ${temperature} ${temperature} ${tempDamp} ${seed}
fix             3 all temp/csvr 244 ${temperature} ${tempDamp} ${seed}
fix             3 all temp/csvr 244 244 ${tempDamp} ${seed}
fix             3 all temp/csvr 244 244 100 ${seed}
fix             3 all temp/csvr 244 244 100 745823


run             250000
PPPM initialization ...
  extracting TIP4P info from pair style
  using 12-bit tables for long-range coulomb (../kspace.cpp:340)
  G vector (1/distance) = 0.37915755
  grid = 24 27 36
  stencil order = 5
  estimated absolute RMS force accuracy = 0.0024415734
  estimated relative force accuracy = 7.3527259e-06
  using double precision FFTW3
  3d grid and FFT values/proc = 4050 480
Last active /omp style is kspace_style pppm/tip4p/omp
Neighbor list info ...
  update every 1 steps, delay 7 steps, check yes
  max neighbors/atom: 2000, page size: 100000
  master list distance cutoff = 10.8154
  ghost atom cutoff = 10.8154
  binsize = 5.4077, bins = 5 5 4
  1 neighbor lists, perpetual/occasional/extra = 1 0 0
  (1) pair lj/cut/tip4p/long/omp, perpetual
      attributes: half, newton on, omp
      pair build: half/bin/newton/tri/omp
      stencil: half/bin/3d/tri
      bin: standard
Per MPI rank memory allocation (min/avg/max) = 9.328 | 9.338 | 9.355 Mbytes
Step Temp PotEng TotEng E_pair E_mol Press Lx Ly Lz Volume Pxx Pyy Pzz Pxy Pxz Pyz Enthalpy 
 1750000    255.72135   -4850.2691   -4338.7948   -4850.2691            0    4032.1717    18.131042    22.686825    19.634747    8076.4738    3485.1814    5062.1334    3549.2003   -93.556709    304.85356   -485.88444    -3863.857 
 1751000    248.75677   -4870.8985   -4373.3542   -4870.8985            0    3647.0689    18.386469     22.72786    19.345759    8084.3044    2287.0383     4421.381    4232.7873    725.76027    245.72181    1013.2433   -3943.3601 
 1752000    238.32663   -4836.5695   -4359.8868   -4836.5695            0    3750.4104    18.011554     22.92628    19.601724    8094.2953    4752.4958     4612.681    1886.0545   -199.51313    19.489036   -1117.1456   -3917.1621 
 1753000    233.12995   -4846.0407    -4379.752   -4846.0407            0    4222.9006    18.259082    22.976042    19.352544    8118.8071    2694.9195    4409.7445    5564.0377    321.47868   -267.20597    76.742965   -3879.7417 
 1754000      229.375   -4869.9751   -4411.1967   -4869.9751            0    4999.2422    18.051778    22.873064    19.503229    8052.8727    6103.3024    4982.5208    3911.9033   -439.75502    829.64674    638.19709   -3824.0713 
 1755000    232.67006   -4827.9121   -4362.5433   -4827.9121            0     3436.151    17.991064    23.080255    19.554159    8119.6366    4212.9133    3455.0013    2640.5383    2011.0273    224.81498   -215.91748   -3955.6461 
 1756000    247.92669   -4837.4743   -4341.5903   -4837.4743            0    4867.9224    18.094769    23.022441     19.32434    8050.2447    4846.7576    4082.0303    5674.9793    1223.0515    884.74252   -245.35368    -3770.074 
 1757000    240.99816   -4852.5331    -4370.507   -4852.5331            0    4149.2235    18.132291    23.018863    19.426616    8108.3726    4077.8547    4773.7763    3596.0396   -114.37843    907.22737    592.85376   -3879.8518 
 1758000    238.84193   -4837.5961   -4359.8827   -4837.5961            0    4598.7765    18.109023    22.993664    19.360021     8061.373    4767.9382     4062.598    4965.7932    1666.8808    1053.8917   -450.11505    -3819.219 
 1759000    248.93796   -4822.2203   -4324.3137   -4822.2203            0    4088.7395    17.873966    23.481654    19.276568    8090.5736    4269.0117     3076.346    4920.8608    1633.5396   -127.10356   -1240.8166   -3841.8722 
 1760000    250.99857   -4847.8954   -4345.8672   -4847.8954            0    5488.3491    17.898889    23.277155     19.27961    8032.5644    6024.1511    4781.1976    5659.6987    -918.4783   -383.63135   -390.65043   -3702.9252 
 1761000    241.74887   -4857.6337   -4374.1061   -4857.6337            0    5305.7532    18.026062    23.089347    19.284687    8026.4796    4792.0454    4568.3037    6556.9105     194.3636   -633.49792    -974.0219   -3753.0254 
 1762000    255.65607   -4830.8608   -4319.5171   -4830.8608            0     4209.165    18.140982    23.280254    19.187352    8103.3303    4349.0751    3681.7018    4596.7182     1202.035   -154.49469   -1635.9055   -3822.0832 
 1763000    259.62304   -4847.9769   -4328.6988   -4847.9769            0     3630.882    18.045422    22.953643    19.574763    8108.0268    2806.0051    3972.8386    4113.8022    549.64223     138.7222   -96.500903    -3899.357 
 1764000    248.04744   -4870.5046   -4374.3791   -4870.5046            0    4332.6064     18.24696    22.884285    19.364617    8086.0567    5699.5307    3809.9796    3488.3091   -1647.5375   -316.58174    515.86781   -3863.4485 
 1765000    247.86591   -4861.4293   -4365.6668   -4861.4293            0    5568.3781    18.055821    22.784127    19.589588    8058.8848    5734.5613    6596.9961    4373.5769    157.43491    977.38458    441.32498   -3711.2122 
 1766000    243.72261   -4847.9803    -4360.505   -4847.9803            0    4397.7695    18.159145    22.725221    19.580684    8080.3724    5214.7956    4706.7217    3271.7911   -180.20383   -511.18631   -263.18113   -3842.2545 
 1767000    251.97656   -4860.0227   -4356.0384   -4860.0227            0    5385.1993    18.245006    22.727528    19.467831    8072.6067    5531.7489    5818.0909    4805.7581    795.21426   -175.87227    3198.9219   -3722.0352 
 1768000     239.5627   -4872.5802   -4393.4252   -4872.5802            0    2496.0165    18.260707    22.779179    19.559923    8136.2221    1749.9401    3431.6914     2306.418   -907.02008   -320.16038   -554.43174   -4097.2517 
 1769000    234.68669   -4829.0925   -4359.6901   -4829.0925            0    5913.9748    18.203457    22.748415    19.455892    8056.6807    4735.7051    6677.0894    6329.1299    60.937611    1076.4072   -713.06227   -3664.8074 
 1770000    249.82578   -4874.0559   -4374.3734   -4874.0559            0    3225.3367    18.184709    22.710867    19.591264    8091.0063    3196.3892    4013.4428    2466.1782   -1740.6344   -369.05204    103.26489   -3993.7868 
 1771000    236.70338   -4862.5189   -4389.0829   -4862.5189            0    2327.1682    18.262644    22.844851    19.481345    8127.7606    2002.6081    3160.2538    1818.6426   -1521.2055    426.15236    -321.2492   -4113.2319 
 1772000    245.56744   -4852.2307   -4361.0654   -4852.2307            0    5216.3636      18.1537    22.774591    19.559431    8086.7115    6296.2198    5962.9642    3389.9067    30.319462    460.44031    283.46593   -3745.8663 
 1773000    238.65135   -4871.3988   -4394.0666   -4871.3988            0    4503.8945     18.19726    22.723979    19.571207    8092.9711    4598.1767    5296.3776    3617.1293   -1651.3463   -571.61024    247.45337   -3862.4824 
 1774000    258.85953   -4833.6904   -4315.9393   -4833.6904            0    5016.5381    18.384459    22.654152     19.38751    8074.5944     2631.102    6549.3915     5869.121   -255.56122    499.70043     7.266422   -3725.1934 
 1775000    255.07028   -4847.5929   -4337.4208   -4847.5929            0    5107.1041    17.995866    22.830027    19.581224    8044.8697    6002.7374    5112.4345    4206.1404    692.64963    733.08575   -118.08992   -3738.2238 
 1776000    254.25881   -4852.7478   -4344.1988   -4852.7478            0    5425.6643    18.288544     23.02914    19.165748    8072.0274    4352.4454    3902.0476    8022.4998   -369.83473   -197.04712   -1169.3349   -3705.4774 
 1777000     247.1554    -4833.892   -4339.5506    -4833.892            0    4778.0753    18.102135    23.244865    19.268594    8107.8713      5237.61    3840.8733    5255.7427   -141.62803   -419.78304    1614.5499   -3774.5672 
 1778000    242.42177    -4862.724   -4377.8505    -4862.724            0    3969.5545    18.032656    23.087306    19.352057    8056.7539    3470.7924    3228.4097    5209.4613   -441.54355    -347.8295   -512.61983   -3911.4299 
 1779000    244.76152   -4851.7855   -4362.2322   -4851.7855            0    3642.8029    18.092796     23.02848     19.45953    8107.8053     4701.462    2354.9722    3871.9746    582.91163    -1565.961    821.27121   -3931.4925 
 1780000    254.28853   -4844.9967   -4336.3882   -4844.9967            0    6088.2045     18.14013    22.826432     19.42578    8043.7189    6948.7446    5715.4665    5600.4024   -1366.3075    251.97836    -806.6294   -3622.1847 
 1781000    251.88987   -4843.0333   -4339.2224   -4843.0333            0    3629.1026    18.143817    22.935945    19.542619    8132.5746     3492.187    3336.2354    4058.8855    716.38055    827.60602    -862.0416   -3908.7917 
 1782000    250.47149   -4847.6087   -4346.6348   -4847.6087            0    5102.6286    18.176079    22.943867    19.338505    8064.7281    4930.1344    5315.3405    5062.4111   -1860.1481     933.3544   -1625.9152   -3746.4851 
 1783000    243.65646   -4851.3101    -4363.967   -4851.3101            0    3950.9569    18.075452    22.952498    19.524922    8100.4367    2823.8247    4321.9829    4707.0631    345.06561    281.54764    625.65857   -3897.2146 
 1784000    236.89668   -4867.5775   -4393.7549   -4867.5775            0    3857.5077    18.212225     23.03092    19.278858    8086.4071    3896.1065    2662.0879    5014.3288   -22.154452   -804.98984   -1167.6305   -3938.8314 
 1785000    239.23667   -4870.1582   -4391.6553   -4870.1582            0     4379.867    17.964401    23.036903    19.539415    8086.2729    5132.9644     3711.291    4295.3457    1442.2779   -364.75041   -781.64221   -3875.1376 
 1786000    239.50227   -4869.4659   -4390.4318   -4869.4659            0    6730.5872    18.147203    22.834904    19.270075    7985.3193     5588.371    7622.7744    6980.6162     1598.735    -193.9895   -1506.0737   -3606.6031 
 1787000    246.05754   -4846.9722   -4354.8267   -4846.9722            0    6764.9023    18.039011    22.889185    19.432879     8023.802    5304.2563    7657.0895    7333.3612    -171.6741    776.89428    249.67135   -3563.2051 
 1788000    240.66438   -4847.0631   -4365.7046   -4847.0631            0    4316.0384    18.074176    22.913231    19.513794     8081.399    6437.9715    4179.0915    2331.0521    692.72554   -1426.6222    532.12964    -3857.021 
 1789000    242.11371   -4859.3884   -4375.1311   -4859.3884            0    2538.1202    18.200536    23.050232    19.383357    8131.8335    2010.1376    2455.5299    3148.6931   -380.21222   -1255.0853   -1278.5959   -4074.1241 
 1790000    243.06765   -4838.1357   -4351.9704   -4838.1357            0    5558.4074    17.993795    22.932624    19.538202    8062.3398    6604.1595    5246.7039    4824.3586    995.42837   -1649.9981    1951.8929   -3698.4075 
 1791000    236.89889   -4837.9837   -4364.1566   -4837.9837            0    4135.5803    18.211653    23.036122    19.333103    8110.7362    1994.0452     4787.492    5625.2037    58.016611   -123.34388   -2245.7842   -3874.9722 
 1792000    250.38499    -4862.389   -4361.5881    -4862.389            0    6889.0827    18.106183     22.72012    19.415841    7987.1849    6424.7186    7095.9666    7146.5628    599.12653    169.77624    310.60023    -3559.114 
 1793000     257.7294   -4865.6749   -4350.1843   -4865.6749            0    1760.0133    18.333731    22.888371    19.495857    8181.0318    569.11232    2354.2337    2356.6939    648.98338     1150.325   -1087.4666   -4140.1937 
 1794000     243.8163   -4872.7592   -4385.0965   -4872.7592            0    5425.1429      18.0015    22.885561    19.451206    8013.3997     6274.068    5277.1117     4724.249   -316.23077   -1030.1762   -1214.4578   -3751.0751 
 1795000     241.6465   -4884.2222   -4400.8993   -4884.2222            0    2764.7467    18.128938    22.944146    19.472115    8099.4848    3325.0218    2369.1556    2600.0628    -688.5249    73.909035    99.467086     -4074.32 
 1796000    245.09964   -4871.9971   -4381.7675   -4871.9971            0    3936.2322    18.148495    22.846908    19.449704     8064.567    4843.0459    4319.6777     2645.973    319.38552   -153.85495    656.11386   -3918.8137 
 1797000    244.30735   -4853.1691   -4364.5243   -4853.1691            0    2721.6741    18.213552    22.839415    19.600484     8153.544    2555.7196    3779.3887    1829.9141   -1150.1696   -262.82372   -572.64593   -4040.8871 
 1798000    238.77448   -4861.1826   -4383.6041   -4861.1826            0    3891.1179    18.324357    22.808508    19.277146    8056.9072    2904.4812    4408.6749    4360.1976    39.188575    204.56483    794.48201    -3926.391 
 1799000    257.86025    -4860.718   -4344.9656    -4860.718            0     4938.286    17.979602    22.743867     19.70244    8056.8336    6570.3657    4721.5888    3522.9034   -2837.2496   -749.16826   -1785.0288   -3764.7138 
 1800000    234.44397   -4855.5464   -4386.6295   -4855.5464            0     3673.231    18.254257    22.911205    19.351556    8093.3436    2575.5951    3279.4415    5164.6564    551.18417    164.44403     30.30501   -3953.0666 
 1801000      262.285   -4830.6963   -4306.0939   -4830.6963            0    4527.5765    18.139171     22.84198    19.606921    8123.8256    4794.3889    5152.5613    3635.7792   -147.44632    455.82163   -468.42959   -3769.6772 
 1802000    246.38151   -4876.3697   -4383.5762   -4876.3697            0    4362.3814    18.169656    22.734392    19.486296    8049.3228    6029.4399    3396.2786    3661.4257    10.298128    321.20494    683.98722   -3871.4714 
 1803000    235.78942   -4873.1855   -4401.5775   -4873.1855            0     5003.575    18.285252    22.712426    19.363666    8041.7775    5457.8799    4651.3245    4901.5205    773.12406    264.98159   -1026.0165   -3814.7529 
 1804000    248.86474   -4820.0472    -4322.287   -4820.0472            0    5013.1031    17.991495    22.706283    19.643676    8024.8343    5995.3182    5834.7705    3209.2207   -503.77272    781.17928    307.77162   -3735.5836 
 1805000    252.94692   -4853.9962   -4348.0711   -4853.9962            0    4796.2472    18.166654    22.942991    19.335071     8058.807    5102.0651    5140.1319    4146.5445   -678.70407   -104.93444   -356.32244   -3784.3709 
 1806000    258.40854   -4834.8032   -4317.9542   -4834.8032            0    4346.8005    17.930728    23.167485    19.440883    8075.9348    4611.5425    3174.4967    5254.3623   -254.02817   -723.54127    727.26056   -3805.9914 
 1807000    231.68309   -4865.0089   -4401.6141   -4865.0089            0    4740.9901    18.035765    23.204645    19.299164    8076.9607    5065.4719    3611.0741    5546.4244   -628.82725    407.94261   -11.799301    -3843.153 
 1808000    239.85158   -4841.9435   -4362.2107   -4841.9435            0    4102.0311    18.037257    23.156594    19.337836    8077.0552    3293.1185    4669.2546    4343.7201   -552.65676    235.13669    637.54125   -3879.0096 
 1809000    239.21432   -4853.4436   -4374.9854   -4853.4436            0    3857.6404    18.080635     23.21637    19.304367    8103.3307    2676.8968    3875.7501    5020.2743   -51.594777    271.12613    1282.3274   -3919.0942 
 1810000    243.67299   -4851.7106   -4364.3345   -4851.7106            0    5661.1735    17.899195     23.16756    19.345816    8022.3358    6055.2127     5131.861    5796.4468   -1009.0739    407.49546    -1424.388   -3701.9912 
 1811000    251.49795   -4852.2576   -4349.2306   -4852.2576            0    2526.3379    18.202591    22.976937    19.434924    8128.4585    1630.8439    3403.9013    2544.2684   -217.14932    218.18893    1210.7876   -4049.7453 
 1812000    256.96151    -4825.896   -4311.9412    -4825.896            0    4547.6118    18.120484    22.693409    19.646169    8078.8101    4003.3817    6358.8733    3280.5802   -1099.6994    129.55071   -812.64957   -3776.1363 
 1813000    250.62695   -4839.3336   -4338.0487   -4839.3336            0    3652.1612    18.387971    22.823441    19.408015    8145.0934    2221.5873    3815.2852    4919.6111   -755.63509     -101.015    402.18074   -3904.2164 
 1814000    241.47091   -4850.9872   -4368.0155   -4850.9872            0    6111.4309     18.12233    22.655528    19.612458    8052.3055    6139.8891    7052.1693    5142.2343   -1352.1539    1424.3394    -518.7616    -3650.322 
 1815000    235.33245   -4860.0151   -4389.3211   -4860.0151            0    2489.1362    18.248121    22.988556    19.410857    8142.8147    1828.1377    832.88065    4806.3901     759.1525   -975.20884    240.10589   -4093.7247 
 1816000    247.45861    -4829.408   -4334.4603    -4829.408            0    4819.7954    18.147785    22.985644    19.385863    8086.5905    4865.1693    4511.6788     5082.538    287.67934   -973.54118    499.10996   -3766.0395 
 1817000    247.20509   -4873.2856   -4378.8449   -4873.2856            0    3450.2911    18.011355    23.042093    19.516419    8099.6909    6630.6273    2091.2097    1629.0363   -184.05376   -518.50261    10.585576   -3971.2769 
 1818000    243.64563    -4843.902   -4356.5807    -4843.902            0    5782.8888    18.025569    23.021157    19.398584      8049.82    6145.6353    5441.3068    5761.7244   -435.68685   -291.58341    2004.7394    -3677.679 
 1819000    234.01983   -4870.3211   -4402.2525   -4870.3211            0    4595.8737    18.191486    22.819493    19.433629    8067.2975    3871.3359    6430.8979    3485.3871    397.62423    639.45088    1231.9497    -3861.533 
 1820000    246.28105   -4846.5007   -4353.9082   -4846.5007            0    4427.5269    18.275914    22.769346    19.452003    8094.5735    3184.7834    4916.1225     5181.675   -1326.6954    367.83295   -526.23993   -3831.2339 
 1821000    245.77475   -4853.1452   -4361.5653   -4853.1452            0    4671.4391    18.167996    22.721417    19.589566    8086.6236    4412.9704    5643.1191    3958.2279    51.313546    1035.9793    239.84742   -3810.6386 
 1822000    269.37464   -4845.3272   -4306.5446   -4845.3272            0    3337.5351    18.279159    22.681799    19.591554    8122.7413    2333.4663    4382.5447    3296.5944   -1758.0462    316.76625    611.07366    -3911.174 
 1823000    234.29755   -4867.9181   -4399.2941   -4867.9181            0     4473.085    18.233658     22.80956    19.424022     8078.484    4252.2526     3620.014    5546.9884   -334.62819    4.8426367   -73.370455   -3872.2913 
 1824000    234.04314   -4869.4202    -4401.305   -4869.4202            0    4555.5284    18.104606    22.833228     19.55698    8084.5934    6078.4207    4386.3264     3201.838    20.355206   -540.55071    542.76807   -3864.1831 
 1825000    236.46845    -4843.359   -4370.3929    -4843.359            0    4936.9366    17.902751     23.30939    19.318257    8061.5513    6405.8205    3720.3601    4684.6291   -552.62629    1346.8204    -239.0309   -3789.9599 
 1826000     256.0105   -4871.2911   -4359.2385   -4871.2911            0     3433.115    18.088549    23.062452    19.412605    8098.2844    4402.6459    1797.7193    4098.9799    294.69613    -358.0823   -942.13805   -3953.7698 
 1827000    234.82293   -4886.0804   -4416.4055   -4886.0804            0    3197.7131    18.023386    23.242036    19.348417    8105.0554    2736.2869    2132.4579    4724.3946    1494.4317    53.139599    76.748195   -4038.4233 
 1828000    255.85974   -4828.3422   -4316.5911   -4828.3422            0    6250.4813    17.870719     23.26046    19.321387    8031.5362    7021.8218    5300.4874    6429.1348    854.33376   -223.35865    1038.5921   -3584.4615 
 1829000    240.79264   -4867.9666   -4386.3516   -4867.9666            0    3870.0845    18.165904    23.026222    19.460231    8140.0615    5561.8365    2996.1839    3052.2329   -1280.1743   -510.81454    -1236.487   -3926.9166 
 1830000    263.36709   -4865.3004   -4338.5337   -4865.3004            0    5282.1445    18.129038    22.780113    19.524035    8063.0658    3804.5433    6591.3905    5450.4998    663.10562   -313.89454    2768.0261   -3717.3982 
 1831000    244.02828   -4851.0279   -4362.9412   -4851.0279            0     4418.456       18.487    22.448672    19.538813    8108.7753    2202.8885    6382.1876     4670.292   -1114.9571     716.4375     1729.307   -3840.4227 
 1832000    237.15519   -4875.5268   -4401.1871   -4875.5268            0    5225.5515    18.030716    22.818662    19.593077    8061.3131    6004.7842    4843.3247    4828.5455    62.884505     519.0645    840.89805     -3786.84 
 1833000    256.00535     -4850.68   -4338.6377     -4850.68            0    7923.9941    18.137509    22.973893    19.274919    8031.6501     7535.114    8414.5074    7822.3609   -623.93269    432.61611   -105.17036   -3410.4735 
 1834000    250.36412   -4836.8578   -4336.0986   -4836.8578            0    3215.1697    18.039558    23.052028     19.55858    8133.4041    3297.4425    3902.6107    2445.4558    172.10877    538.89774    217.20802   -3954.7237 
 1835000    240.50305   -4849.8825   -4368.8467   -4849.8825            0    7613.0248    17.962719     23.11432    19.224716    7982.0261    5422.9689    8944.9452    8471.1602   -135.94518   -1037.6473     394.8483   -3482.6171 
 1836000    235.91926   -4849.4355   -4377.5679   -4849.4355            0     2804.782    18.089727    23.226228    19.388419    8146.1632    2629.6277    1798.4533    3986.2649   -461.30186   -782.63852   -884.47506   -4044.3501 
 1837000    235.74441   -4856.1737   -4384.6557   -4856.1737            0    2567.8425     18.10854    23.048457    19.439135    8113.3879    2590.1885    2468.7015    2644.6377   -684.00989     232.3291    886.90855   -4080.8146 
 1838000    248.37583   -4863.1172   -4366.3349   -4863.1172            0    2917.9627    18.249789    22.969432    19.384466    8125.7217    3409.5906    2005.9287    3338.3688   -1050.8127   -335.82198    2205.3306   -4020.5408 
 1839000    240.71156   -4895.7017   -4414.2488   -4895.7017            0    4786.6488    18.229168    22.464211     19.65399    8048.3849    4016.5081    5666.0279    4677.4105    457.84347   -253.54085     1649.765   -3852.4042 
 1840000    242.21138    -4859.199   -4374.7463    -4859.199            0    5795.3658    18.196872     22.62647    19.498262    8028.0385    5850.7425    6699.8536    4835.5011    931.48463   -26.367526    1232.0906   -3696.2208 
 1841000     239.9055   -4862.2228   -4382.3821   -4862.2228            0    3825.6911    18.197093    22.759985    19.571814    8105.9716     3796.632    3271.5636    4408.8777    36.736809    899.77609    1024.3739   -3930.1193 
 1842000    253.72023   -4878.6893   -4371.2175   -4878.6893            0    4542.6534    18.113655    22.756615    19.583925     8072.601    5638.6695    5385.4312    2603.8594    712.23892    507.44501    254.39963   -3836.4081 
 1843000    257.58547   -4864.7829   -4349.5801   -4864.7829            0     3778.649    18.173496    23.143177      19.3177    8124.8784    4174.3289    3097.8869    4063.7313   -1188.9417    1116.3798   -991.50189   -3901.8366 
 1844000    242.85814   -4852.4342   -4366.6879   -4852.4342            0    5170.2654    18.025128     23.10919    19.346004    8058.5026    6410.4853    3967.0077    5133.3033    25.168944    299.27832    169.24174   -3759.0525 
 1845000    234.65057   -4876.9127   -4407.5826   -4876.9127            0    4706.7061    17.945664    23.152313    19.364669    8045.7032    4540.0683    4828.6142    4751.4358   -27.773795   -516.12947     50.84617   -3855.3056 
 1846000    249.36913   -4851.4384   -4352.6693   -4851.4384            0    4724.4836    17.869744    23.421071    19.286821    8072.0849    6094.2448    4396.4279    3682.7781   -625.17265    816.83272    562.63308   -3796.4886 
 1847000    242.05702    -4862.229    -4378.085    -4862.229            0    4619.0702    18.012429    23.256434     19.24244    8060.7518    3712.1316    4958.2137    5186.8654   -427.93103    563.00343    2076.6245   -3835.0773 
 1848000    247.20786   -4866.4271   -4371.9808   -4866.4271            0    3544.7475    18.038949    23.174293    19.409316    8113.8681    3452.7876    3095.1246    4086.3303    965.59972    868.17999    1677.7425   -3952.5222 
 1849000    236.28236   -4850.1149    -4377.521   -4850.1149            0    4384.5531    18.118059    22.766622     19.55097     8064.521    2724.4418    5888.2084     4541.009    -472.2785     644.7087    1505.3957   -3861.8416 
 1850000    251.28791   -4871.8173   -4369.2104   -4871.8173            0    3818.4327    18.108642    22.928631    19.511239    8101.1903    807.39516    4643.6937    6004.2093    534.11851    265.45197    457.39535   -3918.0719 
 1851000    234.92906    -4885.673   -4415.7859    -4885.673            0    3626.9587    18.045087    23.040906    19.533652    8121.6073    4241.6577    3572.6831    3066.5354   -332.97616   -642.36335    3.6603139   -3986.1896 
 1852000    242.43697   -4848.9044   -4364.0005   -4848.9044            0    3425.1343    18.163332    23.052403    19.370283    8110.5015    2919.3444    2996.4274    4359.6311    -461.0177    214.31777   -212.83577   -3958.8642 
 1853000    243.87076   -4841.6698   -4353.8982   -4841.6698            0    2490.9749    18.281442    22.963399    19.460224    8169.4807    2454.5291     2668.517    2349.8787    706.71272   -806.81355    1867.3686   -4057.1147 
 1854000    249.59515   -4846.1735   -4346.9524   -4846.1735            0    6129.0115    17.992785    22.810445     19.50196    8004.0616    6317.4356    6602.4999     5467.099    704.91689    429.47047   -360.63393   -3631.5066 
 1855000    259.66089   -4840.0014   -4320.6476   -4840.0014            0    3889.1111    18.258119    23.013106    19.290774    8105.5207    2043.1123    3795.4072    5828.8138   -1172.4289   -501.43894   -26.112936    -3860.913 
 1856000    231.33603   -4854.0081   -4391.3075   -4854.0081            0    3136.7999    18.050711    23.188154    19.442124    8137.7472    5723.0024    2180.6029    1506.7945   -284.90249    976.56187   -169.87935   -4019.0299 
 1857000    251.86242   -4861.3941   -4357.6382   -4861.3941            0    4880.4203    18.080029    23.158753    19.256022    8062.7071     3690.692      4855.36    6095.2088   -256.32171    904.31953    1293.0845   -3783.7676 
 1858000    247.72052   -4840.3271   -4344.8554   -4840.3271            0    3099.9838     18.08669    23.241991    19.352261    8135.1233    2593.4867    2695.0878    4011.3768   -135.41204    665.46755   -88.967099   -3977.0658 
 1859000     241.3226   -4855.1668   -4372.4918   -4855.1668            0    6244.8696    17.917483    23.254498     19.15409    7980.7827    6635.9281     5103.166    6995.5148   -1050.2615   -546.67855    954.94978   -3645.6419 
 1860000    251.89371   -4846.8198   -4343.0013   -4846.8198            0    1982.7602    18.084694    23.269484     19.36972    8151.1947    1794.4833    2185.6132     1968.184    375.18297   -551.34701    1653.3581   -4107.2971 
 1861000    251.11565   -4831.1625   -4328.9002   -4831.1625            0    5352.6226    17.978843    23.093323    19.428685    8066.6195    6400.3341    5029.0644    4628.4692   -61.225413   -639.80119   -671.75316   -3699.1996 
 1862000    245.45682   -4850.3171   -4359.3731   -4850.3171            0    3483.0719    18.252361    23.096094     19.19852    8093.2941    4309.9269    3085.7547    3053.5341   -1909.5305    171.40583   -327.74991   -3948.2578 
 1863000    247.84992   -4882.3123   -4386.5819   -4882.3123            0      4286.21    17.992485    23.035154     19.42536     8051.028    2690.4707    5753.0007    4415.1587   -1960.5977    1125.2197    215.81862   -3883.3123 
 1864000    239.73862   -4836.6066   -4357.0997   -4836.6066            0    3590.6606    18.106465    23.060623    19.461232    8125.9665     3009.934    3235.8869    4526.1608   -451.14178    113.64258    1081.9753   -3931.5745 
 1865000     239.5855   -4845.4044   -4366.2038   -4845.4044            0    4340.7159    18.221117    22.915018    19.349513    8079.1416    4105.2265    4205.5492    4711.3719   -807.59388   -393.82866    371.74817   -3854.7546 
 1866000    230.08603   -4847.5075    -4387.307   -4847.5075            0    4464.8951    17.936064    23.031002    19.527503     8066.529    6324.3184    4191.3191    2879.0477   -1687.5519    105.45349     793.0175   -3862.0476 
 1867000    236.35052   -4876.0822    -4403.352   -4876.0822            0    3973.0178    18.191899     22.95223    19.312796    8063.9544    4710.5393    3748.7711    3459.7431    119.72085   -575.67156    576.06023   -3936.1072 
 1868000    234.67993   -4857.0987   -4387.7098   -4857.0987            0    6162.1539    18.127197    22.971666    19.328779    8048.7336    6046.3238    5739.6737    6700.4643    592.31216    -97.44886    230.06967   -3664.3806 
 1869000    231.14563   -4853.1301   -4390.8103   -4853.1301            0    1862.1476    18.264634     22.92519    19.517218    8172.2534    2274.7356    806.22092    2505.4862   -509.68568    216.96197    123.47606   -4168.8722 
 1870000    243.00538   -4852.6562   -4366.6154   -4852.6562            0    6267.1921    18.198203    22.658825    19.438233    8015.3537    6533.9711     6266.546    6001.0592    1237.4598   -402.52619   -793.30406   -3634.0075 
 1871000    236.68947   -4854.2964   -4380.8882   -4854.2964            0    5964.3961    18.062568    22.772762    19.580729    8054.2304    6221.7812    6593.5119    5077.8951    592.29498    448.07434   -938.61668   -3680.2942 
 1872000    247.38778   -4837.9718   -4343.1656   -4837.9718            0    4262.1922    18.329011    22.692103    19.508857    8114.1981    2603.0486    5061.0049    5122.5231     1275.334    -541.8227    1271.4233   -3838.7895 
 1873000    256.09722   -4886.4632   -4374.2371   -4886.4632            0    4250.9958    18.174432    22.778137    19.478244    8063.5974    3879.2654    4997.9345    3875.7876   -1076.0035    422.53183   -1404.3189    -3874.323 
 1874000    248.29836   -4859.1779   -4362.5505   -4859.1779            0    4992.9355    18.158641    22.925022    19.404316    8077.7691    5083.9838    5423.0469     4471.776   -216.43821    258.25091    132.43548   -3774.3529 
 1875000    254.98452   -4848.4848   -4338.4843   -4848.4848            0    4003.4903    18.106975    22.972702     19.57679    8143.2816    5013.4688    3676.2271    3320.7749   -1793.9794    176.45192   -430.45419   -3863.0242 
 1876000    241.89009   -4868.7289   -4384.9189   -4868.7289            0    3696.0242    18.165559    22.940258    19.480477    8117.9549    4084.4343    3698.1816    3305.4568   -866.35778   -440.94263    2407.8914    -3947.339 
 1877000    237.23412   -4850.7638   -4376.2662   -4850.7638            0    4659.1475    18.052041    23.013969    19.450523    8080.7024    4662.6952    5034.5193    4280.2279   -1211.5399    426.59658    1109.5202   -3827.1915 
 1878000    239.26426     -4862.53   -4383.9719     -4862.53            0    3563.4207    18.143823    23.010239    19.437816    8115.1659    3426.5058    2895.1482    4368.6081   -117.97562   -57.792101    3025.8652   -3962.2362 
 1879000    254.52522   -4832.2067   -4323.1248   -4832.2067            0    3236.2982     18.09682    23.209309    19.289258    8101.7712     3214.658    3191.4546     3302.782   -1756.0243   -366.80937   -2016.6928   -3940.7367 
 1880000    225.17813   -4857.8974   -4407.5134   -4857.8974            0    2661.5792    18.104478    23.182935    19.302668    8101.6183    2879.4271    1916.5896    3188.7208   -47.591597    184.27823    1373.7568   -4093.0377 
 1881000    226.73825    -4854.506   -4401.0015    -4854.506            0    4373.8732    17.993869    23.123186    19.376798    8062.2126    5666.1333    3921.9135    3533.5729   -977.45309    448.90151     -752.509   -3886.7254 
 1882000    243.75746   -4828.8049   -4341.2599   -4828.8049            0    4233.9031    18.085057    23.422049     19.17225     8121.156    4559.6336    3144.8841    4997.1916    693.25917    590.45612    923.96291   -3839.8018 
 1883000    250.59978   -4845.6056   -4344.3751   -4845.6056            0    3834.6427    18.013933    23.220525    19.425939    8125.7339    4467.1656    3855.1321    3181.6304   -33.910396    557.19422   -1131.0958   -3889.9488 
 1884000    240.58205   -4874.6587   -4393.4648   -4874.6587            0    4265.6906     17.96928    23.060211    19.412745     8044.164     6252.784    3420.6535    3123.6345    -1526.384   -350.37714   -2543.1594   -3893.0316 
 1885000    238.06774   -4854.1715   -4378.0066   -4854.1715            0    6073.1083    18.142873    22.875145    19.364754    8036.7766    6161.1315    6511.3481    5546.8453   -293.58803    1383.3366    529.55525   -3666.1889 
 1886000    242.80147   -4836.4334   -4350.8004   -4836.4334            0     4605.833    18.109234    22.862673    19.545824    8092.4695    5666.3332    4553.0464    3598.1192    531.00621    -824.2826   -268.63787   -3807.2183 
 1887000    249.36313   -4873.5776   -4374.8205   -4873.5776            0    5453.2069    18.063051    22.770262     19.57159    8049.8029    6668.1994    5424.0195    4267.4018     681.9558    12.356882    889.07958   -3734.6243 
 1888000    242.73717   -4859.7171   -4374.2127   -4859.7171            0    5090.0542    18.159143    22.881064    19.441474    8077.9424    5975.9014    4773.4468    4520.8143    1361.2313   -787.94997    2044.0961   -3774.5611 
 1889000    230.60775   -4861.3466   -4400.1026   -4861.3466            0    5535.3504     18.11553     22.76943    19.494046    8040.9095    5626.1742    5697.0722    5282.8047    335.19034    80.677399    203.37572   -3750.9809 
 1890000    250.40557   -4854.3974   -4353.5553   -4854.3974            0    5430.1391    18.265418    22.788224    19.386857    8069.5164    5364.5755     4871.701     6054.141    137.13678    486.87693    1051.2982   -3714.5061 
 1891000    246.13546   -4868.0961   -4375.7948   -4868.0961            0    2848.2011    18.157041    22.824333    19.585506    8116.6716    2206.8105    3252.6549    3085.1379   -22.119932    882.71345    644.51018   -4038.6437 
 1892000    231.18857   -4831.2904   -4368.8847   -4831.2904            0     3246.687    18.303421    22.748076    19.511238    8123.8477    1661.4571    4138.0182    3940.5858   -644.34605     766.9372     1630.706   -3984.2237 
 1893000    234.84023   -4861.2554    -4391.546   -4861.2554            0    3234.5078    18.399904    22.545567    19.567751    8117.4126    1543.6017    4332.4851    3827.4366    219.20077    549.74814   -1352.1213   -4008.6316 
 1894000    239.09657   -4841.1557    -4362.933   -4841.1557            0    5195.6161    18.103469      22.7892    19.540511     8061.703    5319.4205    6385.0056    3882.4223   -325.95734   -876.37705   -354.07886   -3752.0757 
 1895000    237.98951   -4849.8074    -4373.799   -4849.8074            0    3021.9487    18.127497    23.015884    19.449943    8114.9123    1951.4085    3463.3094    3651.1284      129.363    915.18324   -1208.5472   -4016.1584 
 1896000    232.14132   -4842.9727   -4378.6614   -4842.9727            0    5324.5474    17.966038    23.039274     19.42542    8040.6568    6699.2511    4229.1746    5045.2164   -483.42846   -2139.2004   -2436.8578   -3754.2798 
 1897000    237.15438   -4878.6254   -4404.2873   -4878.6254            0    3720.8707    18.138602    22.981892     19.34815    8065.4583    3496.2186    3422.1814    4244.2121   -261.30325   -200.53942    222.01835   -3966.6146 
 1898000    245.24165   -4870.2568   -4379.7432   -4870.2568            0    4629.2798    17.988128    23.064378    19.461783    8074.4015     3844.862    5055.7096    4987.2678   -42.197551   -374.26474    88.702654   -3834.6137 
 1899000    257.38045   -4854.6995   -4339.9068   -4854.6995            0    4508.2973    18.129664    23.137327    19.255718    8077.2339    4464.2154    4160.9329    4899.7437   -1370.8855    1157.4184   -2050.7007   -3808.8376 
 1900000    240.21232   -4858.0824   -4377.6281   -4858.0824            0    3337.9455    17.706595    23.152656    19.642358    8052.4768    4172.8764    3578.6704    2262.2898    3.8356641   -153.98582    2907.6945   -3985.6294 
 1901000    247.74682   -4822.2662   -4326.7419   -4822.2662            0    4800.5678    18.136528    22.969982    19.358391    8064.6226    5734.9265     3789.837    4876.9397    324.00897   -206.18264    1030.9569   -3762.1267 
 1902000    241.72721   -4842.3724   -4358.8881   -4842.3724            0     5414.777    18.095409    22.836304    19.498519    8057.4167    5023.9819     5387.058     5833.291    448.37977   -448.01111    -689.3262   -3722.6023 
 1903000    258.95445   -4877.4528   -4359.5119   -4877.4528            0    3177.8734    18.293729     22.82612    19.466346    8128.6563    1465.5118    3855.4563    4212.6522   -196.37389    863.31597   -723.49123    -3982.781 
 1904000    244.39387   -4857.5483   -4368.7304   -4857.5483            0    6517.6909      18.3098    22.605518    19.306553    7991.0308    6154.0261     8269.291    5129.7558   -228.89443    1502.8838   -69.745249   -3609.1523 
 1905000     232.9585   -4847.9668    -4382.021   -4847.9668            0    5610.7786    18.109869    22.767542    19.590827    8077.6349    4932.6941    7091.4832    4808.1585   -422.11353    1195.7121   -818.23225   -3721.0487 
 1906000    238.34707   -4870.8124   -4394.0888   -4870.8124            0    3167.2591    18.159154    23.008125    19.440465    8122.3833     2471.269    3672.5273    3357.9809    168.35447    691.59098    303.03978    -4018.906 
 1907000    242.74948   -4860.3884   -4374.8594   -4860.3884            0    4254.2822    18.042762    23.039658    19.396261    8063.0074    6876.8078    3367.0185    2519.0203   -294.55209   -804.39331   -343.17983   -3874.5954 
 1908000    236.01543   -4868.3575   -4396.2974   -4868.3575            0    4860.6947    17.930081    23.044305    19.462954    8041.8256    7654.4078    2391.4806    4536.1957    1206.8675   -2072.8167   -180.95982   -3826.2265 
 1909000     239.3815   -4863.2314   -4384.4388   -4863.2314            0    4139.4213    18.328245    22.893473    19.276282    8088.2735    3038.8037    5036.1052    4343.3551   -493.92816    430.80917   -2332.6973   -3896.1561 
 1910000    251.22677   -4864.2343   -4361.7498   -4864.2343            0    4035.2035    18.173094     23.03945    19.405323    8124.9713    5160.1088    3290.0122    3655.4894   -392.84064    371.47763    471.20108   -3883.6008 
 1911000     236.9261   -4864.1189   -4390.2374   -4864.1189            0    4834.4134    18.033101    22.927675    19.490234    8058.3754     5476.999     4469.055    4557.1863    1157.8008   -183.82299   -612.99801    -3822.082 
 1912000    244.80199   -4855.3293   -4365.6951   -4855.3293            0    2454.1067    18.134232    23.057222    19.436371    8126.8331    3192.3687    2126.6406    2043.3108     1534.243   -1253.8739    2788.1059   -4074.8306 
 1913000    239.37943   -4856.2426   -4377.4542   -4856.2426            0    5388.4077    18.103888    22.833483    19.521682    8069.7716    6780.6799    5140.8131    4243.7299    886.54148   -551.36297   -1427.0674   -3743.2961 
 1914000    257.57017   -4894.1418   -4378.9697   -4894.1418            0     5218.656    18.197447    22.799554    19.409725     8052.972    4939.6699    4681.1028    6035.1953    138.35495   -75.263077   -987.01027   -3766.0681 
 1915000    243.62191   -4867.9931   -4380.7191   -4867.9931            0    5737.9397    18.233324    22.566373    19.546849    8042.7461    6037.8447    6191.4167    4984.5579    656.93146   -765.10298    269.09721   -3707.6863 
 1916000    262.93377   -4849.3902   -4323.4902   -4849.3902            0    4430.5447    18.211474    22.823416    19.491442    8101.5802    3781.5599    4709.2717    4800.8026    773.79271    340.06653    349.43567    -3800.007 
 1917000    242.38216   -4857.7699   -4372.9757   -4857.7699            0     5256.395      17.9584    22.904421     19.47281    8009.6878    7023.9335    5612.6945    3132.5569    120.86161    -637.9145   -809.04471     -3758.96 
 1918000    245.75655   -4841.2106   -4349.6671   -4841.2106            0    3031.3361    18.010346    23.361321    19.347588    8140.4101    2482.2581    2653.6819    3958.0684    469.98874   -105.36137   -295.30865   -3989.7883 
 1919000    249.93896    -4831.474   -4331.5652    -4831.474            0    4794.1607    18.020579    23.270003    19.280754    8085.1703    4636.3615    4395.8613    5350.2595    1638.7653   -387.38181    -1032.038   -3766.2669 
 1920000    244.57392   -4846.8863   -4357.7082   -4846.8863            0     4208.408    18.033352    23.131513     19.38778    8087.3937    3944.6426    4053.6951    4626.8863    1276.2051    256.14793    2362.5713   -3861.3419 
 1921000    250.11129   -4849.2838   -4349.0304   -4849.2838            0    4374.5201    18.036622    23.141756    19.358596    8080.2609    6148.6634    4277.0901    2697.8069     952.3188   -235.26231   -11.231407   -3833.5268 
 1922000    241.63587   -4863.0752   -4379.7736   -4863.0752            0    5114.9319    18.022739    22.929964    19.512798    8063.8738    6449.6837    3718.1212    5176.9909   -668.50915   -936.90888    144.63635   -3778.2406 
 1923000    242.45704   -4880.4542   -4395.5102   -4880.4542            0    3874.3378    18.233036    22.749162    19.496938    8087.0626    2869.3829    4477.7005      4275.93    473.00436    520.83679    864.53278    -3938.565 
 1924000    244.84209   -4870.7268   -4381.0124   -4870.7268            0    4632.1876    18.306654    22.548346    19.558352    8073.3895    4994.0805    4741.8203    4160.6621    726.00837   -233.62221    1279.1874   -3835.6089 
 1925000    244.32003   -4863.1182   -4374.4479   -4863.1182            0    2829.0748    18.128309    22.689304    19.660837    8086.8705    3445.4846    3285.8517    1755.8879    1205.2344   -835.02104    2222.9451   -4040.7905 
 1926000    251.77617    -4880.673   -4377.0895    -4880.673            0    3626.8693     18.02257    23.106789     19.34825    8057.4571     2441.894     3671.714    4766.9999    1433.4982    212.43629    1248.7338    -3950.897 
 1927000    256.31313   -4857.4132   -4344.7553   -4857.4132            0    4025.7033    18.056384    23.223133    19.280603    8084.8547     2955.878    4051.0144    5070.2176    55.386086    315.37158    473.32807   -3870.0873 
 1928000    242.59397   -4839.4602   -4354.2423   -4839.4602            0    5764.5402    17.932289    23.141306    19.448776    8070.7866    5477.4359    6111.9354    5704.2494    -134.0197    955.49009   -956.57009    -3675.732 
 1929000    242.50504   -4837.7039   -4352.6639   -4837.7039            0    4104.1845    18.129168    23.285943     19.21906    8113.4177    4893.2005    3458.1886    3961.1643    1029.4225    389.10593   -661.88156   -3867.0327 
 1930000     238.9798   -4834.0883   -4356.0992   -4834.0883            0    6738.2819    18.027419    22.883863    19.451443    8024.4395    7453.4715    6614.8114    6146.5628     -1946.84    130.82203   -1369.4147   -3567.5301 
 1931000    241.31235   -4874.7735    -4392.119   -4874.7735            0      3116.87    18.169359    22.912377     19.54103    8134.9932    2284.2217    3381.5774     3684.811   -45.961199    107.61585    -426.0411   -4022.3318 
 1932000    247.26423   -4858.2821    -4363.723   -4858.2821            0    4201.9224    18.285212    22.767056    19.471535    8106.0091    3257.2937    4963.4789    4384.9947    546.43424   -732.17229    452.95141   -3866.9809 
 1933000      241.009   -4870.1088    -4388.061   -4870.1088            0    2835.6661    18.288405     22.69701      19.5875    8130.6169    2764.7369    2938.9523     2803.309   -339.03946    72.594601   -1382.2216    -4051.817 
 1934000    233.99111   -4859.8596   -4391.8484   -4859.8596            0    4507.8124    18.336012    22.720661       19.434    8096.3273    5324.4331    4190.7646    4008.2395   -57.662911    888.44558   -32.491892   -3859.5811 
 1935000    246.72602   -4841.3647   -4347.8822   -4841.3647            0    6509.0145    18.129549    22.700223    19.526473    8036.0184    7160.5508    5782.3242    6584.1685   -381.86119    271.77026   -1165.0978   -3585.0447 
 1936000    247.61587   -4842.2018   -4346.9395   -4842.2018            0    3131.8743    18.097198    22.879852     19.56031    8099.1654    2221.2882    3882.6525    3291.6821    1285.0541     446.5147    1876.0964   -3977.0087 
 1937000    242.33965   -4874.6226   -4389.9134   -4874.6226            0    3043.9035    18.215027    22.898528    19.409427    8095.6196    2909.9913    3319.2299    2902.4892   -154.31738    301.03136    947.07319   -4030.5309 
 1938000    244.04859   -4831.5757   -4343.4484   -4831.5757            0    4796.9366    18.042766    22.752452    19.640298    8062.6794    7444.6887    3455.2951     3490.826    80.744238   -1680.0964    3206.8738   -3779.3962 
 1939000     236.4388   -4881.3027   -4408.3959   -4881.3027            0    4033.1435    18.237357    22.821562    19.389165    8069.8669    3283.3864    4072.2974    4743.7466   -1290.0743    115.36583   -73.546384   -3933.7323 
 1940000    248.52204   -4814.1968    -4317.122   -4814.1968            0    4960.4353    18.191479    22.878506    19.438706    8090.2701    3062.9469    6997.3206    4821.0385   -1820.4394    726.04512    721.03298   -3731.8487 
 1941000    252.89555   -4860.4384   -4354.6161   -4860.4384            0    3184.6857    18.087955    23.033616    19.465982    8110.1314    2955.6325    3091.7917     3506.633    -779.0519   -402.46382   -923.28532    -3977.938 
 1942000    245.67984   -4847.3403   -4355.9502   -4847.3403            0    4013.9198    18.103672    23.090248    19.381131    8101.6668     4737.708    2776.8799    4527.1715   -243.71062   -1575.9043    467.96769   -3881.6876 
 1943000     240.3059   -4845.7672   -4365.1257   -4845.7672            0    5611.6731    18.090384    23.095785    19.188921    8017.3544    5759.2613     5294.948    5780.8098    830.45122   -242.39707    471.56496   -3708.9815 
 1944000    243.49404   -4842.9675   -4355.9494   -4842.9675            0    5014.7491    17.903352    23.199203    19.468312    8086.0363      4823.06    4738.5529    5482.6345   -2260.5163    1894.6614   -688.41508   -3764.5773 
 1945000      242.933   -4855.2947   -4369.3987   -4855.2947            0    4422.1468    18.235789    23.019776    19.217315    8067.1169    3355.8335    4082.3827    5828.2243    259.69965    178.74906    902.25337   -3849.1304 
 1946000     235.1361   -4846.7412   -4376.4399   -4846.7412            0    5087.7203      17.9838    23.042499    19.461038    8064.4924    5583.7708     5059.398     4619.992    270.66759   -660.97105    649.79964   -3778.0612 
 1947000    248.05128   -4861.3526   -4365.2194   -4861.3526            0    3973.5242    18.007534    23.052337    19.421191    8062.0422    4323.3549    3845.6012    3751.6165   -336.73101     273.0773   -690.60088   -3898.0259 
 1948000    243.58421   -4856.0831   -4368.8846   -4856.0831            0    2056.4718    18.175365    23.036369    19.506258    8167.1617     973.4894    2009.9481    3185.9779      888.192   -845.10701     1648.414   -4123.9389 
 1949000     240.0893   -4827.7541   -4347.5459   -4827.7541            0    5736.4827     18.04816    23.065053    19.373837    8064.9751    6434.7937    5230.7115     5543.943   -1167.5482    1207.7332   -592.95654   -3672.8243 
 1950000    241.48404   -4852.8477   -4369.8498   -4852.8477            0    4123.3515     18.04584    23.085268    19.364986    8067.3188    5319.3822     3462.778    3587.8943   -593.85672     1375.854    426.39687   -3884.7228 
 1951000    231.57407   -4832.1741   -4368.9973   -4832.1741            0    3266.9412     18.01459    23.202549    19.413073    8114.3617    3868.9224    2683.7112    3248.1901   -589.73139    72.688295    689.39542   -3982.3887 
 1952000    248.94819   -4859.6594   -4361.7323   -4859.6594            0    4904.0227    17.976035    23.158551    19.305784     8036.977    5147.3283    4448.5938    5116.1459    750.31095   -331.73683    1078.7001   -3786.9266 
 1953000    236.06314   -4875.3086   -4403.1532   -4875.3086            0     3194.374    18.086459    22.945631    19.440397    8067.8663    3875.9222    3479.2748    2227.9249   -836.90184   -1401.6758   -594.02918   -4027.2982 
 1954000    229.49735    -4855.122   -4396.0989    -4855.122            0    4916.6159    18.115274    22.810902    19.469013    8045.0975    5362.3341    5091.6147     4295.899   -988.50416    328.08315    275.94802   -3819.2349 
 1955000    233.78649   -4869.2183   -4401.6165   -4869.2183            0    2338.5346    18.281446    22.697707    19.644612     8151.471    2891.4877    2217.1661      1906.95     1263.389    -287.1072   -270.39217   -4123.6095 
 1956000    241.53035   -4870.0557   -4386.9652   -4870.0557            0    4064.6684    18.420618    22.592992    19.375495    8063.6328    3690.8715      4786.03    3717.1038   -436.35585   -47.378617   -1865.7809   -3908.9609 
 1957000    248.32923   -4866.6154   -4369.9263   -4866.6154            0     4813.419     18.24414    22.641722    19.586297     8090.683    3651.4244    5736.0055     5052.827    65.074351   -67.052906     -848.903   -3801.9702 
 1958000    259.82182   -4866.0881   -4346.4124   -4866.0881            0    4698.3555    18.194098    22.632023    19.529692    8041.7266    3987.4047     5667.807    4439.8549    308.16207   -184.19448   -929.44916   -3795.3877 
 1959000    245.51864   -4860.5968   -4369.5292   -4860.5968            0    2823.6723    18.214282    22.882651    19.591521    8165.5709    4131.5791    3133.2587     1206.179   -85.698254   -1113.9112   -1030.8187    -4033.268 
 1960000    243.58336   -4847.2262   -4360.0294   -4847.2262            0    3276.7641    18.213664    22.822573    19.546764    8125.2508    3179.8328    3279.5517    3370.9078    51.896002    535.47674   -1243.1449   -3971.7379 
 1961000    240.73187   -4847.5443   -4366.0509   -4847.5443            0    4448.2049    18.344078    22.728267    19.407146    8091.4038    4363.6266     4878.876    4102.1121    1734.3125   -129.70651    481.12465   -3841.1412 
 1962000    240.29463    -4846.062    -4365.443    -4846.062            0    5559.4253    18.047028    22.948683    19.394493    8032.3366    6448.5223    6233.9463    3995.8072    757.51852    1072.3731    1188.9464   -3714.1931 
 1963000    233.57275   -4839.1585   -4371.9841   -4839.1585            0    4802.9453    17.981684    22.996591    19.646649    8124.2319    4895.2193    4981.5356    4532.0811   -996.23857    78.665251    506.61881   -3802.9139 
 1964000    246.77347   -4863.8488   -4370.2713   -4863.8488            0    5528.5955     18.17894    23.112046    19.132588     8038.605    3758.4205    5868.2428    6959.1231   -480.02688   -167.55156   -2028.5865   -3722.1275 
 1965000     243.9077   -4895.9848   -4408.1393   -4895.9848            0    5967.3986    17.844103    22.965186    19.563276    8016.8965    7430.6158    4983.3166    5488.2633   -1341.9874    193.85215    -2229.472   -3710.4417 
 1966000    235.05195   -4849.3974   -4379.2645   -4849.3974            0    6075.9657    18.178386    22.916053    19.310993     8044.513    5176.3232    5188.2221    7863.3517   -591.40088   -176.23335   -1165.6695   -3666.4263 
 1967000    245.43316     -4893.63   -4402.7334     -4893.63            0    4300.7458    18.039974    22.841111    19.493715    8032.4446    3482.9735    4931.1283    4488.1356    172.98252    600.86715   -368.34372   -3898.9227 
 1968000    238.09144   -4825.9615   -4349.7492   -4825.9615            0    3143.5162    18.196354    22.834989    19.550282    8123.4065    4272.2234    2532.7905    2625.5347    1416.2158   -981.41894   -263.43612   -3977.3319 
 1969000    240.67636   -4858.2633   -4376.8809   -4858.2633            0    4624.4588     18.11582     22.92019    19.490868    8092.9601    4818.5616    4814.0284    4240.7865   -997.92587    279.36336   -1359.1909   -3831.0675 
 1970000    244.88166   -4888.4585   -4398.6649   -4888.4585            0    6521.7174    18.151494    22.772914    19.336406    7992.9431     4792.351     7402.611    7370.1903    869.69699   -192.85009     1056.447   -3638.4356 
 1971000    235.66722   -4855.0247   -4383.6612   -4855.0247            0    3509.6165    18.104809    22.964166    19.560246    8132.4038    2741.4267    4194.0139    3593.4088   -710.78219    309.20051   -1836.7581   -3967.4109 
 1972000    228.55259   -4865.3191   -4408.1857   -4865.3191            0    4267.3344    18.147572    23.004996    19.348535    8077.7198    5374.4926    4073.8561    3353.6546    1625.9125    -624.9213    1082.9378   -3905.4713 
 1973000    239.56113   -4883.8064   -4404.6545   -4883.8064            0    4874.9778     17.93849     23.09021    19.444432     8053.952    4028.8818    5291.9663    5304.0852   -983.38382    4.8642961   -1759.4477   -3832.0463 
 1974000     239.3947    -4838.684    -4359.865    -4838.684            0    4340.6795    18.141362    22.904565    19.444496    8079.5776    4022.6349    3407.2496    5592.1539    846.43844   -1515.3615    1230.4795   -3848.3925 
 1975000    241.74552   -4871.1468   -4387.6259   -4871.1468            0    6708.6514    18.105634    22.793772    19.355832    7988.0688    6147.3357    7094.6029    6884.0156    2139.7429    313.76764   -769.53336   -3606.0829 
 1976000    244.22648   -4868.2228   -4379.7397   -4868.2228            0    2682.7447     18.11056    23.058072    19.428803    8113.3627    3142.1436    2191.9273    2714.1633    798.65328   -21.434907    911.94699   -4062.3037 
 1977000    257.72626   -4836.2451   -4320.7608   -4836.2451            0    5073.1294    18.154047     22.96375     19.40751    8090.6993    5469.5709    4460.2558    5289.5616    985.34044    1099.2783   -50.511077   -3722.1591 
 1978000    232.88749   -4812.5958   -4346.7921   -4812.5958            0    4516.0536    18.255767     23.15414     19.21533    8122.2544    5206.7437    3185.6966    5155.7205     913.7006    555.08354     1.136042   -3811.8441 
 1979000    247.49765   -4849.6901   -4354.6642   -4849.6901            0    4287.9461    18.068504    23.066105    19.500292    8127.1365    4289.2911    3517.8212     5056.726   -599.13703    193.54234   -853.50173   -3846.4313 
 1980000    256.07777   -4836.4192    -4324.232   -4836.4192            0    4799.2995      18.1253    22.923408    19.467236    8088.5124    6187.1671    4017.7674    4192.9641    1032.8859   -862.33375   -977.18195   -3758.0939 
 1981000    257.46513   -4857.4637   -4342.5016   -4857.4637            0     4762.818    18.053066    22.978918    19.508409    8092.8668    5917.5238    4713.1245    3657.8058   -663.03124    250.23778   -246.37783   -3780.3645 
 1982000    244.27846   -4859.0748   -4370.4877   -4859.0748            0    3543.7931    18.269898    22.914994     19.38517    8115.6908    3514.3121    3775.8182     3341.249   -622.49346    74.252509    733.17757   -3951.0478 
 1983000    235.87939   -4854.3975   -4382.6096   -4854.3975            0    5938.2207     18.04996    23.071297    19.362274    8063.1477    5608.1016    6199.5195     6007.041   -1286.1761    888.88389   -2445.4199    -3684.318 
 1984000    251.76829   -4849.8764   -4346.3087   -4849.8764            0    4751.1002    17.981943    23.118002    19.402387       8065.7    7124.5482    3704.8606    3423.8917   -627.73869    64.853678    340.52892   -3787.4369 
 1985000    240.18226   -4871.2326   -4390.8384   -4871.2326            0    4160.2933    18.137643    23.047159    19.319209    8075.8377    2881.8655    4966.2744      4632.74    -702.3081    1256.6962    945.47292   -3900.8481 
 1986000    237.30219   -4849.8378   -4375.2041   -4849.8378            0    3720.8184    18.018181    23.023427    19.482001    8081.9187    3037.4704    4013.6048    4111.3801    301.48273   -723.16041    1112.6766   -3936.6443 
 1987000    233.41927   -4856.1155   -4389.2481   -4856.1155            0    2958.5967    18.316781    22.890911    19.385914    8128.2772     2992.238    2903.7589    2979.7932   -85.433445    805.75148   -235.13168   -4038.5284 
 1988000     254.3717   -4860.5262   -4351.7514   -4860.5262            0    3031.1894    18.091806    22.833853    19.582552    8089.6623    3426.6349    3678.9488    1987.9844    1068.1071    425.62901    1215.9559   -3994.1334 
 1989000    237.34413   -4845.1397   -4370.4221   -4845.1397            0    3369.7171    18.269569    22.775046    19.439498    8088.5859    4387.3425    3561.3747     2160.434   -1628.7159   -97.208827   -1752.7013   -3972.9177 
 1990000    255.44547   -4869.3662   -4358.4437   -4869.3662            0    5158.5836    18.251212    22.803153    19.383028    8066.9289    3782.4895    6520.3357    5172.9255   -43.335196    1111.9734    858.08573   -3751.5473 
 1991000    237.87483   -4868.9569   -4393.1779   -4868.9569            0     4049.461    18.104387    22.960569    19.479165    8097.2365    4105.1047     4190.665    3852.6133    -782.1835    171.09921    573.81003   -3914.9775 
 1992000    242.93214   -4866.7402   -4380.8459   -4866.7402            0    3758.0312    18.163729    22.983636    19.345965    8076.3317    3786.0114    2974.0796    4514.0026     576.0483   -639.76325     188.8141   -3938.2061 
 1993000    249.06899   -4837.3858   -4339.2171   -4837.3858            0    3773.9468    18.009136    23.244781    19.367681    8107.6682    3498.7958    3531.6989    4291.3457   -243.40915    332.62951   -69.672269    -3892.978 
 1994000    244.43945   -4838.3847   -4349.4756   -4838.3847            0    3640.8939    17.999878    23.233328     19.39773    8112.0736    3572.3019    3256.6302    4093.7494    733.92067     978.7244    592.92893    -3918.735 
 1995000    257.94944   -4848.9532   -4333.0225   -4848.9532            0    6190.4129    18.087391    23.137998    19.148929    8013.9419    8114.8334    3957.8041    6498.6013   -463.41161   -170.78036   -1419.5927   -3609.5172 
 1996000    245.71793   -4864.3053   -4372.8391   -4864.3053            0    3808.1319    18.013893    23.129843    19.449316    8103.7231    2682.8411    4821.1914    3920.3631   -1249.7313    871.15154   -1478.7972   -3922.7769 
 1997000    242.67878   -4858.8552   -4373.4676   -4858.8552            0     3660.017    18.009709    23.069044    19.423928    8069.9968    3420.4545    4579.2084     2980.388   -779.88593    40.650541   -96.664348   -3942.7106 
 1998000    252.30479   -4846.0002   -4341.3594   -4846.0002            0    6091.5989    18.135218    23.070329    19.254047    8055.6133    6639.6403    5416.5215    6218.6351    331.48027    -42.76176   -301.65815    -3625.701 
 1999000    246.50487   -4876.3698   -4383.3296   -4876.3698            0    3507.1201    17.933182     23.01252    19.580814    8080.7611    5797.3159     2933.654    1790.3903    1063.7796    60.492709   -228.82502   -3970.0169 
 2000000    253.43797   -4835.4373     -4328.53   -4835.4373            0    5302.7859     18.24478    22.797241    19.349873    8048.2053    5214.2169    5884.1601    4809.9806    763.51684    -404.5265   -333.70066   -3706.1165 
Loop time of 514.29 on 64 procs for 250000 steps with 1008 atoms

Performance: 83.999 ns/day, 0.286 hours/ns, 486.107 timesteps/s
99.2% CPU use with 64 MPI tasks x 1 OpenMP threads

MPI task timing breakdown:
Section |  min time  |  avg time  |  max time  |%varavg| %total
---------------------------------------------------------------
Pair    | 27.463     | 31.836     | 35.633     |  33.1 |  6.19
Bond    | 0.27313    | 0.28218    | 0.29455    |   0.9 |  0.05
Kspace  | 230.73     | 242.25     | 254.6      |  32.4 | 47.10
Neigh   | 3.6834     | 4.329      | 5.3003     |  20.9 |  0.84
Comm    | 97.908     | 110.7      | 120.79     |  50.6 | 21.52
Output  | 1.0725     | 1.0741     | 1.0865     |   0.3 |  0.21
Modify  | 110.67     | 114.82     | 119.99     |  22.4 | 22.33
Other   |            | 8.997      |            |       |  1.75

Nlocal:        15.7500 ave          20 max          11 min
Histogram: 1 0 5 12 6 18 16 2 2 2
Nghost:        2482.69 ave        2516 max        2461 min
Histogram: 2 5 12 16 16 2 7 3 0 1
Neighs:        5201.17 ave        6620 max        3611 min
Histogram: 1 0 5 12 6 18 16 1 3 2

Total # of neighbors = 332875
Ave neighs/atom = 330.23313
Ave special neighs/atom = 2.0000000
Neighbor list builds = 8578
Dangerous builds = 0

unfix		3
unfix		2
unfix		1

write_data	data.final.${pid}
write_data	data.final.0
System init for write_data ...
PPPM initialization ...
  extracting TIP4P info from pair style
  using 12-bit tables for long-range coulomb (../kspace.cpp:340)
  G vector (1/distance) = 0.37887
  grid = 24 27 32
  stencil order = 5
  estimated absolute RMS force accuracy = 0.0024846693
  estimated relative force accuracy = 7.4825079e-06
  using double precision FFTW3
  3d grid and FFT values/proc = 3825 384
Last active /omp style is kspace_style pppm/tip4p/omp
WARNING: Not all mixed pair coeffs generated from mixing. Use write_data with 'pair ij' option to store all pair coeffs. (../write_data.cpp:312)

write_restart   restart.lmp.${pid}
write_restart   restart.lmp.0
System init for write_restart ...
PPPM initialization ...
  extracting TIP4P info from pair style
  using 12-bit tables for long-range coulomb (../kspace.cpp:340)
  G vector (1/distance) = 0.37887
  grid = 24 27 32
  stencil order = 5
  estimated absolute RMS force accuracy = 0.0024846693
  estimated relative force accuracy = 7.4825079e-06
  using double precision FFTW3
  3d grid and FFT values/proc = 3825 384
Last active /omp style is kspace_style pppm/tip4p/omp
Total wall time: 0:08:35
