LAMMPS (30 Jul 2021)
Processor partition = 0
  using 2 OpenMP thread(s) per MPI task
using multi-threaded neighbor list subroutines
variable        pid world 0 1
variable        phase world IceVI Liquid

shell cd ${phase}
shell cd IceVI
include Restart.lmp
echo both
log log.lammps
#include		in.partitions
include		in.temp
variable        temperature equal 280.99
variable	tempDamp equal 100.0
include		in.pressure
variable        pressure equal 11000.0
variable        pressureDamp equal 1000.0 # This is 1 ps
include		in.seed
variable        seed equal 745823

units		real
atom_style	full
read_restart	restart.lmp.${pid}
read_restart	restart.lmp.0
Reading restart file ...
  restart file = 30 Jul 2021, LAMMPS = 30 Jul 2021
  restoring atom style full from restart
  orthogonal box = (-0.066769041 -0.11709928 -0.13693805) to (24.796770 24.847100 22.946938)
  4 by 4 by 2 MPI processor grid
  restoring pair style lj/cut/tip4p/long/omp from restart
  restoring bond style harmonic/omp from restart
  restoring angle style harmonic/omp from restart
  1920 atoms
  1280 bonds
  640 angles
Finding 1-2 1-3 1-4 neighbors ...
  special bond factors lj:    0        0        0       
  special bond factors coul:  0        0        0       
     2 = max # of 1-2 neighbors
     1 = max # of 1-3 neighbors
     1 = max # of 1-4 neighbors
     2 = max # of special neighbors
  special bonds CPU = 0.002 seconds
  read_restart CPU = 0.010 seconds
include 	in.setup
variable	out_freq equal 1000
variable	out_freq2 equal 10000
variable	out_freq3 equal 1000

timestep	2.0

neigh_modify    delay 7 every 1

include		in.tip4p
# This is TIP4P/Ice

# create groups ###
group ox type 2
640 atoms in group ox
group hy type 1
1280 atoms in group hy

# set charges - beside manually ###
set group ox charge -1.1794
Setting atom values ...
  640 settings made for charge
set group hy charge 0.5897
Setting atom values ...
  1280 settings made for charge

# ### TIP3P Potential Parameters ###
pair_style lj/cut/tip4p/long/omp 2 1 1 1 0.1577 8.5
pair_coeff 1 1*2 0.000 0.000
pair_coeff 2 2 0.21084 3.1668
bond_style  harmonic
bond_coeff  1 450 0.9572
angle_style harmonic
angle_coeff 1 55 104.52
kspace_style pppm/tip4p/omp 1.0e-5
pair_modify tail yes

thermo          ${out_freq}
thermo          1000
thermo_style    custom step temp pe etotal epair emol press lx ly lz vol pxx pyy pzz pxy pxz pyz enthalpy

restart 	${out_freq3} restart.lmp.${pid} restart2.lmp.${pid}
restart 	1000 restart.lmp.${pid} restart2.lmp.${pid}
restart 	1000 restart.lmp.0 restart2.lmp.${pid}
restart 	1000 restart.lmp.0 restart2.lmp.0


include         in.dump
dump            myDump all atom ${out_freq2} dump.water.${pid}
dump            myDump all atom 10000 dump.water.${pid}
dump            myDump all atom 10000 dump.water.0
dump            myDump2 all dcd ${out_freq2} dump.dcd
dump            myDump2 all dcd 10000 dump.dcd
dump_modify     myDump append yes
dump_modify     myDump2 append yes


variable natoms 	equal  "count(all)"                        # NUMBER ATOMS
variable H      	equal  "enthalpy/v_natoms"                 # ENTHALPY-per-atom
variable Vol      	equal  "vol/v_natoms"                 # volume-per-atom
fix AVG all 		ave/time ${out_freq} 1 ${out_freq} v_Vol v_H file vol_enthalpy.dat
fix AVG all 		ave/time 1000 1 ${out_freq} v_Vol v_H file vol_enthalpy.dat
fix AVG all 		ave/time 1000 1 1000 v_Vol v_H file vol_enthalpy.dat




fix 		1 all shake 1e-6 200 0 b 1 a 1
Finding SHAKE clusters ...
       0 = # of size 2 clusters
       0 = # of size 3 clusters
       0 = # of size 4 clusters
     640 = # of frozen angles
  find clusters CPU = 0.001 seconds
fix             2 all nph aniso ${pressure} ${pressure} ${pressureDamp}
fix             2 all nph aniso 11000 ${pressure} ${pressureDamp}
fix             2 all nph aniso 11000 11000 ${pressureDamp}
fix             2 all nph aniso 11000 11000 1000
fix             3 all temp/csvr ${temperature} ${temperature} ${tempDamp} ${seed}
fix             3 all temp/csvr 280.99 ${temperature} ${tempDamp} ${seed}
fix             3 all temp/csvr 280.99 280.99 ${tempDamp} ${seed}
fix             3 all temp/csvr 280.99 280.99 100 ${seed}
fix             3 all temp/csvr 280.99 280.99 100 745823


run             250000
PPPM initialization ...
  extracting TIP4P info from pair style
  using 12-bit tables for long-range coulomb (../kspace.cpp:340)
  G vector (1/distance) = 0.37442072
  grid = 30 30 30
  stencil order = 5
  estimated absolute RMS force accuracy = 0.0032726909
  estimated relative force accuracy = 9.8556113e-06
  using double precision FFTW3
  3d grid and FFT values/proc = 5400 960
Last active /omp style is kspace_style pppm/tip4p/omp
Neighbor list info ...
  update every 1 steps, delay 7 steps, check yes
  max neighbors/atom: 2000, page size: 100000
  master list distance cutoff = 10.8154
  ghost atom cutoff = 10.8154
  binsize = 5.4077, bins = 5 5 5
  1 neighbor lists, perpetual/occasional/extra = 1 0 0
  (1) pair lj/cut/tip4p/long/omp, perpetual
      attributes: half, newton on, omp
      pair build: half/bin/newton/omp
      stencil: half/bin/3d
      bin: standard
Setting up Verlet run ...
  Unit style    : real
  Current step  : 4250000
  Time step     : 2
Per MPI rank memory allocation (min/avg/max) = 10.54 | 10.55 | 10.55 Mbytes
Step Temp PotEng TotEng E_pair E_mol Press Lx Ly Lz Volume Pxx Pyy Pzz Pxy Pxz Pyz Enthalpy 
 4250000     290.7515   -9021.3162   -7912.8389   -9021.3162            0    9657.3065    24.863539      24.9642    23.083876    14328.124    9760.9825    10291.426    8919.5107   -222.76269   -100.01438    1053.7843   -5894.8385 
 4251000    274.33647   -9004.1994   -7958.3037   -9004.1994            0    11175.732    24.971836    25.027763    22.785308    14240.571    10951.355    11099.705    11476.137   -1246.6677   -265.55673   -386.23103   -5637.2816 
 4252000    278.14953   -9012.3766   -7951.9437   -9012.3766            0    9621.4256    24.921626    24.926821    23.077622    14336.209     9947.019    10726.446    8190.8117    -250.7046    -284.2986    709.14998   -5940.3067 
 4253000    282.52842   -9020.8278   -7943.7006   -9020.8278            0     10613.93    24.883157    25.052047    22.919871    14287.652    11592.131    9097.4108    11152.247   -302.33294    460.66612     535.8534   -5732.0682 
 4254000    285.94095   -9077.6587   -7987.5214   -9077.6587            0    9765.7827     24.85213    25.036876    22.938262    14272.638    10382.631    8933.8047    9980.9122   -505.67988    139.78207   -122.32147   -5954.7562 
 4255000    274.56775   -8993.6142   -7946.8367   -8993.6142            0    8659.4635    24.900729    25.137446    22.989256    14389.911    10373.555    7582.2316     8022.604   -610.44204    212.44101   -69.135026   -6129.5435 
 4256000    292.54188   -9034.6031   -7919.3001   -9034.6031            0    9354.5074    24.862471    24.998132    23.032591    14315.109    9084.8481    9311.7102    9666.9639    195.10861   -414.72323    496.27427   -5966.3486 
 4257000    274.67275   -9018.2598    -7971.082   -9018.2598            0    10926.606    24.963706    24.870361    22.968822     14260.34    11536.208     11708.77    9534.8389   -105.73161    170.42956   -1267.3683   -5698.6493 
 4258000    282.68811   -9062.0659   -7984.3299   -9062.0659            0    9981.6574    24.985226    24.860745     23.01532    14295.997    8689.5419    11778.187    9477.2431    -1614.073   -546.85518    585.37876   -5903.2297 
 4259000    291.68597    -9024.166    -7912.126    -9024.166            0    10476.307    24.849929    24.949997    23.036066    14282.491    11236.726    10232.782    9959.4118   -53.254934    323.51606   -82.937575   -5729.9586 
 4260000    289.82294   -9025.1652   -7920.2279   -9025.1652            0    10824.725    24.858266    25.083814    22.852659    14249.549    11699.598    9358.5938    11415.983    629.92432   -1303.2001    855.78263   -5670.6871 
 4261000     280.7323   -9035.7169   -7965.4374   -9035.7169            0    10543.326    24.846591    24.946767    23.056352    14291.298    10874.053    10027.124      10728.8   -525.21517   -470.99282   -146.79248   -5767.9561 
 4262000    282.31669   -8996.0256   -7919.7057   -8996.0256            0     9242.794    24.912957    25.210908    22.877991    14369.169    8777.5292    7931.1572    11019.696    615.89705    102.90324    1415.4746   -5982.7895 
 4263000    283.87089   -9009.3536   -7927.1083   -9009.3536            0    10472.385    24.933635    24.950143    22.976405     14293.57     10461.51    10101.246      10854.4    559.40933   -474.44506    537.83375   -5744.0657 
 4264000    280.80784    -9080.548   -8009.9805    -9080.548            0    9561.9064    24.936284    24.827212    23.116714    14311.521     10322.19    9601.5051    8762.0239     1032.426   -456.29689   -483.11889   -6014.2304 
 4265000     275.8912   -9013.3481    -7961.525   -9013.3481            0    10536.868    25.070353    24.951266    22.844511    14290.088    9442.6123    10198.696    11969.296    655.85981    -591.7875   -1745.2487   -5765.5755 
 4266000    286.71859   -9038.1215   -7945.0194   -9038.1215            0    10427.752    24.967726    24.798191    23.065166      14280.9    9800.9109    11358.318    10124.029    697.70548    274.22135   -839.67897   -5773.2077 
 4267000    287.19452   -9031.0252   -7936.1087   -9031.0252            0    11172.891    24.936333    24.944137     22.89772    14242.732    11320.122    10593.061    11605.489   -606.07889    203.56735    356.41788   -5615.3246 
 4268000    281.98308   -9056.7257   -7981.6776   -9056.7257            0    10033.134    24.930999    25.005037    22.957658    14311.817    10390.692    9755.8207     9952.888   -290.92639    509.36922   -15.795056   -5887.5302 
 4269000    282.16171   -9046.8123   -7971.0831   -9046.8123            0    10681.997    24.918567    24.925942    22.990294    14279.702     10704.14    10352.245    10989.607   -1100.8878   -688.50306   -130.33645   -5746.5058 
 4270000    277.78722   -9048.0664   -7989.0148   -9048.0664            0     9866.268    24.987971    25.040639    22.819346    14278.402    10653.882    8924.3505    10020.571   -683.86871   -81.750033   -706.17305   -5934.5042 
 4271000    279.78322   -9040.9545   -7974.2933   -9040.9545            0    10644.745    24.818067    24.903892    23.049126    14245.891    11030.569     10010.17    10893.497   -125.24009    1446.4717    218.38342   -5762.7228 
 4272000    280.78524   -8986.5346   -7916.0532   -8986.5346            0    11118.893    24.873614    25.041754    22.872651    14246.892    12022.601    9088.0081     12246.07    88.840684   -984.77073   -522.47181   -5605.8106 
 4273000    269.98572   -9028.2828   -7998.9741   -9028.2828            0    11191.033    24.817976    25.002735    22.947278    14239.183    12128.462    10939.208    10505.428   -93.262815   -820.79921    1046.4706   -5675.0009 
 4274000    292.62752   -8990.4611   -7874.8316   -8990.4611            0    10943.102    24.759376     25.16296     22.91982    14279.487    12568.979    8898.1536    11362.172    133.77186   -270.88875   -407.98857   -5595.9123 
 4275000    284.53764   -9028.7262    -7943.939   -9028.7262            0    10793.259    24.804453    25.094603    22.925127    14269.927    12549.668    8522.8513    11307.256    528.97903   -294.22474    420.32618   -5697.7297 
 4276000    288.95927   -9015.0967   -7913.4522   -9015.0967            0    11421.481    24.824579    24.980616    22.989418    14256.503    12378.248    11130.801    10755.393    460.43009     70.51206    639.47975   -5538.7383 
 4277000    280.94093   -9013.2836   -7942.2086   -9013.2836            0    9476.0522    25.091387    25.062074    22.802097    14338.921    7764.7598    9465.2958    11198.101   -409.65557   -381.87247    921.04394   -5960.5912 
 4278000    279.12841   -9038.3905   -7974.2257   -9038.3905            0    10318.697     24.92612    24.983177      22.9813    14311.229    10191.554     9559.733    11204.805   -656.11462   -171.82641   0.56205228    -5820.563 
 4279000    273.51074   -9029.2544   -7986.5067   -9029.2544            0    9744.8366    24.916741    24.914914    23.076935    14326.126    10142.546    9925.4465    9166.5178    261.22202   -879.09817    1173.8172   -5950.4999 
 4280000    284.31519   -9007.2541   -7923.3149   -9007.2541            0    10407.202     25.04133    25.038195    22.782343    14284.294    9535.6115    11133.371    10552.624      1106.16   -439.92064   -436.52755   -5755.2681 
 4281000    279.85291   -8967.0462   -7900.1192   -8967.0462            0    10592.317    24.891264    24.972779    23.038199    14320.637    11903.368    10425.064    9448.5198   -1428.1285   -1353.3361      832.201   -5687.8946 
 4282000    285.82215    -9026.804   -7937.1196    -9026.804            0    9186.8858    25.009829    24.906724    23.024595    14342.317    8702.5747    9556.3971    9301.6858    641.98028     -231.655    160.98112   -6015.5172 
 4283000    283.29999   -9030.7247   -7950.6559   -9030.7247            0    10633.174    25.004571    24.942217    22.914762    14291.237    10939.464    10135.753    10824.304   -827.33037    558.80442   -878.37317   -5734.4577 
 4284000    271.09565   -9049.0131   -8015.4729   -9049.0131            0    9640.2513    24.838008    24.875024    23.156444    14307.117    9031.0375    10405.946    9483.7698   -152.94131   -750.98041   -640.09068   -6003.9899 
 4285000    275.94757   -9067.5718   -8015.5338   -9067.5718            0    11445.264    24.832659    24.912775    22.990873    14223.314    12346.194    11420.625    10568.973    925.17882    262.25784    185.41446   -5641.4147 
 4286000    279.85352   -9024.6619   -7957.7327   -9024.6619            0     11523.22    25.055723    24.969157     22.74523    14229.878    11241.527    10369.273     12958.86    -822.9694   -1125.8402    -352.2121   -5566.3399 
 4287000    273.46978   -8986.7845    -7944.193   -8986.7845            0    12620.779      24.7889    24.891161    22.975721    14176.583     14053.13    12593.625    11215.582   -1098.8046   -422.16235    2464.9551   -5334.8353 
 4288000     283.4282   -8998.1757   -7917.6182   -8998.1757            0     12631.05     24.98976    24.791397    22.884764    14177.823    12236.808    13413.002    12243.341   -414.77025   -15.235826    748.08488   -5305.9085 
 4289000    275.89134   -9032.5798   -7980.7562   -9032.5798            0    10532.048    24.994766    24.922302    22.913947    14273.719    10274.868     10612.22    10709.055    -107.7717   -321.65793   -151.55765   -5788.3257 
 4290000    277.57136   -9024.7063   -7966.4777   -9024.7063            0    11569.052    24.775672    24.962731    23.060228    14262.024    11570.518    11453.587     11683.05   -103.81165   -541.12705   -367.68304   -5560.1498 
 4291000    277.60521   -9064.4826   -8006.1249   -9064.4826            0     11210.34    24.873283    24.920455    22.927829    14211.896    12250.936     11029.21    10350.874   -45.807077    77.017046    1514.7661   -5682.6035 
 4292000    279.23291   -9032.9756   -7968.4124   -9032.9756            0    9405.4784    24.899274    24.973532    23.029846    14320.483    9900.4339    9456.5109    8859.4903    414.80596    903.20793    530.18349   -6004.0824 
 4293000    283.43471   -9016.4952   -7935.9128   -9016.4952            0    10277.876     25.09585    24.921532    22.905879    14325.956    10513.298    10382.421    9937.9089   -356.87876    960.78191    1198.8884   -5788.5626 
 4294000    273.76701   -8998.6511   -7954.9264   -8998.6511            0    10821.667    24.951937    24.891325     22.98207    14273.859    9701.1267    12049.407    10714.468   -289.82407    1032.4701    443.03687   -5702.1843 
 4295000    274.27678   -9066.3675   -8020.6993   -9066.3675            0    11364.728    24.943789    24.820862    22.959738    14214.978    10529.304    11489.106    12075.773   -532.30181   -1614.0995    188.44268   -5664.6677 
 4296000    292.23879   -9010.4579   -7896.3103   -9010.4579            0    11326.346    25.019509    24.879371    22.874072    14238.416    11991.719    10001.667    11985.653    400.19634    712.32217    1092.9892   -5544.3642 
 4297000    280.46192    -9030.601   -7961.3522    -9030.601            0    12276.355    24.895251    24.819054    22.938407    14173.105    12238.889     12180.16    12410.017    557.69976   -1714.1078    1094.5143   -5423.8272 
 4298000     271.2742   -9003.6511   -7969.4301   -9003.6511            0    11720.883    24.895186    24.970645    22.910988     14242.59    12119.636    11305.621    11737.392   -555.65897    -786.1612    582.49151   -5534.8438 
 4299000     272.9972    -8970.819   -7930.0292    -8970.819            0    10948.333    24.878874    24.997964     22.92002    14254.446      10338.6    10954.208    11552.193    517.43835    664.15075    1355.7612   -5654.0188 
 4300000    301.73404    -9053.819   -7903.4712    -9053.819            0      11706.6    24.704612    25.060657    22.903422    14179.825    13571.957    10292.602    11255.242   -869.10847    69.899142   -1276.4425   -5482.5674 
 4301000    275.64715   -8989.2991   -7938.4065   -8989.2991            0    12059.483    24.854286    24.907004    22.975898    14223.133    10972.365    11665.507    13540.578   -542.81264   -291.88088   -903.14414   -5436.9102 
 4302000     277.1296   -9013.3614   -7956.8169   -9013.3614            0     11918.36    25.018814    24.897678    22.810675    14209.007    10708.425    12517.443    12529.213   -1476.4257     1125.071    -851.8711   -5487.0491 
 4303000    281.71692   -9030.1606   -7956.1272   -9030.1606            0    12114.969    24.887287    24.812674    23.046616     14231.75    11166.231    13951.738    11226.939     928.6639   -1140.8411   -522.96646    -5441.599 
 4304000    280.38804   -9001.7687   -7932.8017   -9001.7687            0    10317.633    25.093156    25.091686    22.730091    14311.538    9238.4186    9168.3421    12546.139   -107.99552     324.5997    870.96402   -5779.3146 
 4305000     287.8819   -9013.0888   -7915.5517   -9013.0888            0    11084.608    24.812339    24.845042     23.13917    14264.456    11510.854    11186.597    10556.372    655.67516    194.55147   -381.48552   -5609.5934 
 4306000    285.29165    -8989.158   -7901.4961    -8989.158            0    12004.713    24.921758    25.027314     22.78662    14212.577    12004.244     10906.15    13103.746   -105.88421    759.11731    1810.3552   -5413.2089 
 4307000    280.82869   -9013.8688   -7943.2218   -9013.8688            0    10488.178    24.814714    24.959941    23.062972      14284.6    11521.112    9740.1102    10203.312    64.303778   -536.60944    -512.6619    -5758.259 
 4308000    274.81331   -9002.1671   -7954.4534   -9002.1671            0    10854.539     24.96957    24.903624    22.935874    14262.278    10993.605    11330.573     10239.44    -867.0282   -109.55493    564.37004   -5696.7016 
 4309000    289.36185   -9046.0996   -7942.9202   -9046.0996            0      11506.7    24.896871    24.951892    22.887599    14218.327    10801.005    12706.382    11012.712   -483.45625     714.4956    1137.8312   -5556.8943 
 4310000    279.50004   -9064.3943   -7998.8127   -9064.3943            0    11095.384     24.82916    24.809413    23.116599    14239.753    11542.433    11995.854    9747.8648    297.25001   -101.71706   -386.21437     -5694.61 
 4311000    280.74853   -9051.7951   -7981.4537   -9051.7951            0    10108.916    24.995137    25.000547    22.827697    14264.847    11470.699    8787.8597     10068.19    224.87129    169.34462   -742.54293   -5878.4133 
 4312000    274.56715   -8994.7536   -7947.9784   -8994.7536            0    10042.651    24.984183    25.016338    22.855554    14285.013    9708.6398    9596.3573    10822.955    -442.2946    186.14494     501.9225   -5855.7702 
 4313000    287.18839   -8994.0533   -7899.1602   -8994.0533            0    10279.842    24.877809    25.001927    22.992982    14301.478    10303.613    9820.9642    10714.949    358.24283   -344.87576    1423.2216   -5755.0689 
 4314000    279.88747   -9018.1874   -7951.1288   -9018.1874            0    9768.5876    24.861254    25.048524    23.013577    14331.422     9726.831    10826.804    8752.1283     -369.121   -913.38909   -45.131408   -5909.4051 
 4315000    271.44017   -9048.4703   -8013.6166   -9048.4703            0     10335.98    24.940492    24.990017    22.914893    14282.012    9823.9013    10599.814    10584.224    998.75846    278.27013    271.91617   -5860.7509 
 4316000     296.8902   -9012.4571   -7880.5762   -9012.4571            0    10193.095    24.916603    24.960374    22.999199     14303.84     10586.88    10622.525    9369.8798     137.0795    761.39078   -162.40191   -5754.2269 
 4317000    272.67368   -9043.7375   -8004.1811   -9043.7375            0    11093.688    25.004746    24.814926    22.969964    14252.654    10242.968    11808.544    11229.551   -376.53006   -1250.6936   -203.67981   -5698.2434 
 4318000    274.47297   -9034.1739   -7987.7578   -9034.1739            0    10861.771    25.027335    24.889806    22.867363    14244.664    10591.715    11217.858    10775.739    45.317188   -386.35377    627.82558   -5731.2922 
 4319000    271.04643   -9031.8107    -7998.458   -9031.8107            0    11996.173    24.895392    24.819761    23.008741    14217.048    11385.406    12695.753    11907.359   -187.70823   -628.52238    681.11529   -5511.1589 
 4320000    278.25243   -9048.0735   -7987.2484   -9048.0735            0    9827.5895    24.975605    25.063707    22.805748    14275.971     10456.91    9364.4058    9661.4529    773.03897    471.99344    756.37323   -5941.1404 
 4321000     278.7087   -9018.6251   -7956.0604   -9018.6251            0    10615.178    24.850354    25.002853    23.006216    14294.446    11227.351    10264.125    10354.057     312.6247   -66.185076    75.975742   -5743.1161 
 4322000     288.4607   -9021.2901   -7921.5463   -9021.2901            0    10160.451    24.845844    24.993525    23.028968    14300.648    9859.8148    10781.453    9840.0844   -206.88712    266.54222   -1293.1409   -5802.4798 
 4323000    269.98048   -9070.6412   -8041.3525   -9070.6412            0    11017.619    25.015666    24.927882    22.816889    14228.329     10985.42    10421.956     11645.48   -535.81167    155.97778   -427.36349   -5755.1352 
 4324000    283.41677   -8996.0892   -7915.5752   -8996.0892            0    13509.197    24.848597    24.724504    23.008789    14135.892    13713.798    14716.119    12097.674   -513.21054   -206.43357   -952.06201   -5130.5532 
 4325000    285.79495   -8992.9967    -7903.416   -8992.9967            0    12593.938    24.826104    24.964561    22.842122    14156.926    14173.474    11874.126    11734.214   -437.67572    743.53889    241.46929   -5303.2182 
 4326000    290.68858   -9052.4566   -7944.2191   -9052.4566            0    12175.234    24.804561    24.934581    22.940088    14188.245    13647.896    11807.978    11069.828    92.512976    428.30317    1590.1228   -5424.9075 
 4327000    283.73833   -9071.5129    -7989.773   -9071.5129            0    11493.992    24.871729    24.927114     22.84973    14166.386    11555.903    11848.821    11077.253    304.79928   -145.58993   -702.20189   -5615.0888 
 4328000    285.99674   -8988.3102   -7897.9602   -8988.3102            0    10341.121    24.888214    24.868515    23.091391    14292.022    11209.973    11192.579    8620.8096   -192.20534   -559.51204    555.19398   -5742.5141 
 4329000    275.71781   -9029.6508   -7978.4887   -9029.6508            0    10201.246    25.027763    24.969195    22.853094    14281.426    9701.4879    10772.219    10130.032    272.47119    936.92895   -868.71535   -5853.7736 
 4330000     264.1221   -8971.1257   -7964.1718   -8971.1257            0    10532.693    24.926851    24.947731    23.010451    14309.472    11045.234    8997.1096    11555.735    69.449038   -663.67217   -244.65573    -5766.115 
 4331000    289.18816   -9031.6825   -7929.1654   -9031.6825            0     10410.73    24.918366     24.95893    22.967967      14284.6    10539.319    10106.807    10586.065    628.84025   -147.56988    176.45661   -5760.3371 
 4332000    276.49007   -9023.1876   -7969.0814   -9023.1876            0    11055.076    25.073839    24.854589     22.88686    14263.091    10861.624    10762.146    11541.459   -994.13093    137.89414   -588.89627   -5669.4867 
 4333000    263.95216   -9008.2747   -8001.9687   -9008.2747            0    11880.128    24.882105    24.838354    22.993558    14210.721    10871.557    13178.286     11590.54   -378.14065   -924.79119    1069.4724   -5539.8267 
 4334000    291.61533   -8999.1333   -7887.3627   -8999.1333            0    11173.526    24.980659    24.933012    22.877049    14248.812    10445.231    11958.198    11117.149    432.44447    55.188882   -63.361763   -5565.4559 
 4335000     277.2472   -9024.4131   -7967.4203   -9024.4131            0    10800.107    24.902239     24.90756    22.966211    14244.885    11662.034    10363.102    10375.185    139.16235   -155.79275   -464.06853   -5723.7301 
 4336000    285.95906    -9038.603   -7948.3967    -9038.603            0     10642.52    24.998089    24.955048    22.903734    14288.002     10722.75    10052.866    11151.944    1287.4959   -863.93629    325.28446   -5730.7524 
 4337000    287.84025   -9055.0687   -7957.6904   -9055.0687            0    11074.216    24.863315    24.852937    23.043845    14239.399    11579.479    11382.656    10260.512   -273.92779    153.70236    233.47136   -5657.9408 
 4338000    291.01864   -9004.2111   -7894.7153   -9004.2111            0    11572.571    24.963702    25.025559    22.820529    14256.683    11702.508    11341.209    11673.996    297.41324   -207.66291    1225.7956   -5488.5568 
 4339000    278.21757   -9066.6192   -8005.9269   -9066.6192            0     12212.52    24.820502    24.805657    23.037703    14184.057    13080.142    12037.382    11520.036   -31.905134   -1147.8482    388.89249   -5479.6459 
 4340000    285.66929    -9024.296   -7935.1944    -9024.296            0    11213.956     24.90666    24.830426    23.002126    14225.504    10199.873    12655.233    10786.761   -1201.1598    366.03778    845.79188    -5608.698 
 4341000    275.75153   -9035.8712   -7984.5806   -9035.8712            0    12239.666    24.851078     24.96277    22.859097     14180.68    11595.539    13050.192    12073.269   -101.51844    1193.9102    547.11854   -5453.2869 
 4342000    285.67111   -9032.1688   -7943.0603   -9032.1688            0    12037.093    24.823206    24.891218    22.965717    14190.053    12812.973    11331.264    11967.041    593.76053   -496.45479   -433.44698   -5452.0155 
 4343000    282.53892   -9004.8178   -7927.6505   -9004.8178            0    11592.359    24.889755    24.990061    22.863445    14220.983    11249.154    11143.731    12384.193   -53.133181    270.11073    658.49534   -5523.4132 
 4344000     279.7912   -9019.9598   -7953.2682   -9019.9598            0    12649.338     24.88055    24.738754    23.041362    14182.276    13008.303     13211.39     11728.32    288.90789    615.75357   -515.18668   -5336.9557 
 4345000    260.90194   -9015.3966   -8020.7194   -9015.3966            0    11973.531    24.993741    24.853843    22.861232     14201.18    10865.785    12680.839    12373.969    1233.0666    -5.582261     686.6299   -5540.8856 
 4346000    287.16335   -9030.3794   -7935.5817   -9030.3794            0    12158.365    24.982361    24.762226    22.963353    14205.563    11028.116    13550.593    11896.385    672.20401    134.37643    163.18694   -5416.6899 
 4347000    284.22041   -9016.8394   -7933.2616   -9016.8394            0    11684.033    24.884027    24.915928    22.959974    14235.382    11782.367    11126.611     12143.12   -486.99528   -649.14897   -163.78959   -5507.5577 
 4348000    264.74579    -9019.649   -8010.3173    -9019.649            0    10928.441    24.800437    24.974632    22.985675    14236.909    12381.428    9832.9676    10570.928   -1164.8124      26.3298   -615.97708   -5741.2374 
 4349000    283.08389   -9007.3329    -7928.088   -9007.3329            0    10882.741    24.847256    25.081695    22.941006    14297.094    11613.622     8788.507    12246.092    200.44222   -675.81156    470.16225   -5658.9446 
 4350000    286.08468   -9091.9794   -8001.2941   -9091.9794            0    9502.4506    24.830253    25.027592    22.971525    14275.458    11460.649    7476.2301    9570.4728    -468.0565   -139.54549    830.13085   -6022.9513 
 4351000    284.56501   -9045.7531   -7960.8615   -9045.7531            0    11806.842     24.81814    24.937186    22.981327    14223.018    12708.075    11995.809    10716.642    608.62441   -678.93651   -684.97773   -5511.7903 
 4352000    294.43149   -9040.2076   -7917.7005   -9040.2076            0    10632.908    24.942598    24.986313     22.91373    14280.376    11364.245    11080.208    9454.2724    657.56227   -107.47872    16.820105   -5703.2416 
 4353000    280.70545   -9021.0034   -7950.8262   -9021.0034            0    10431.318    25.122033    24.804722    22.988611    14325.239    8520.6449    11478.028    11295.282   -241.58308   -1500.4839    1810.0522   -5771.5266 
 4354000    275.08567   -9009.4452   -7960.6932   -9009.4452            0    11350.251    24.968562    24.922804    22.898653    14249.524    9910.6579    11704.159    12435.937    672.65682   -985.77864    198.94228   -5601.9442 
 4355000    282.99028   -9009.5588   -7930.6708   -9009.5588            0    11403.529    24.806146    24.836222    23.131141    14250.887    12126.411     12475.71    9608.4671    395.51803    982.76712    78.823245   -5560.6233 
 4356000    280.67601   -9049.0211   -7978.9561   -9049.0211            0    11122.016    24.856551    25.000426    22.901084    14231.291    11343.822    9994.7384    12027.486     249.3509   -1570.1994   -106.74624   -5670.5953 
 4357000    281.45764   -9025.8243   -7952.7794   -9025.8243            0    11241.283    24.760848    24.952384     23.06692    14251.716    13287.606    10443.166     9993.076    162.50955    550.75707    335.42764   -5616.3164 
 4358000    281.66476   -9026.1019   -7952.2674   -9026.1019            0    11553.432    24.840974    25.031465    22.884483    14229.708    12217.535    9691.7799     12750.98   -152.40547    878.80781   -1098.2671   -5554.6335 
 4359000    272.68001   -9007.6705   -7968.0899   -9007.6705            0    9806.0674    24.802147    24.999656     23.08639    14314.604    12288.447    8535.9862    8593.7692    512.20849   -725.00719    267.35178   -5920.9379 
 4360000    280.91468   -9049.3952   -7978.4203   -9049.3952            0    9142.3268    24.933841    25.022281    22.964691    14327.708    9738.8076    8500.4784    9187.6944   -271.74001   -31.311438    1235.0639   -6068.0862 
 4361000    273.60352   -8993.9829   -7950.8816   -8993.9829            0    9947.2999    24.881337    25.080879     22.98857     14345.92    10575.434    9421.9328    9844.5328   -63.393344    802.14136    253.70621   -5869.7022 
 4362000     282.2704   -9024.9935   -7948.8501   -9024.9935            0    10016.808    24.857469    25.060754    22.953981    14299.111    11360.359    8751.0485    9939.0165    936.76712       723.74   -879.86026   -5859.9662 
 4363000     276.7893    -9007.366   -7952.1189    -9007.366            0    11520.033    24.860575    24.994997    22.963412    14269.234    12112.296    10887.448    11560.356    247.75573   -579.58491   -499.08424   -5554.7753 
 4364000    292.40931   -8999.5379   -7884.7402   -8999.5379            0    10316.109     24.89618    25.077522    22.927039    14314.142    11594.633    9006.8849     10346.81    96.035505   -388.01641    151.87335   -5731.1794 
 4365000    293.13696   -9010.9856   -7893.4139   -9010.9856            0    10277.986    24.846631    24.935311    23.059811    14286.901    10861.225    10330.382    9642.3512   -210.49461   -1287.9818   -166.87138   -5751.8948 
 4366000    280.94261   -9039.8745   -7968.7931   -9039.8745            0    11828.147    24.907321    24.923491    22.877067    14201.565    11389.431    11297.017    12797.993    354.98915    782.85417    11.206509   -5519.0033 
 4367000    276.04377   -9058.9959   -8006.5911   -9058.9959            0    12379.434    24.959608     24.74821    22.936022     14167.71     12324.77    12742.097    12071.435    -292.2325    679.29279   -910.16179   -5448.7338 
 4368000    266.99324   -9022.0024   -8004.1024   -9022.0024            0    11625.277    24.916948    24.814101    22.981203    14209.086    11063.677     12000.32    11811.833   -113.59097    703.36022     867.5052   -5595.0551 
 4369000    270.85291   -8979.1615   -7946.5467   -8979.1615            0    13106.377    25.059614    24.875375    22.712255    14158.077      10250.5    14538.414    14530.217   -597.36909   -380.80993    117.63006   -5240.3284 
 4370000    273.78211   -9005.6381   -7961.8558   -9005.6381            0    11307.169    24.945006    24.853401    22.969234    14240.196    11486.151    12140.569    10294.787   -738.49809   -587.68731    142.66542   -5613.5982 
 4371000    275.70914   -9023.7417   -7972.6127   -9023.7417            0    11246.632    24.992156    24.821579    22.974234    14251.946    10659.126     12231.48    10849.289     609.0793   -237.54803   -285.71407   -5635.0001 
 4372000     277.2345    -8982.764   -7925.8196    -8982.764            0    11414.968    24.910366    24.998408    22.955839    14295.049    12289.023    10725.047    11230.834   -193.57744   -113.77989     382.8033   -5546.0428 
 4373000     281.7077   -9072.8426   -7998.8443   -9072.8426            0    9516.9011    24.713593    25.017253    23.138147    14305.534    11406.681    8950.5956    8193.4263    114.79548   -358.92699    -342.0377   -6013.3186 
 4374000    286.89919   -9004.3935    -7910.603   -9004.3935            0    12225.938    24.828187    25.023803    22.916891    14238.165    12508.544    11728.289     12440.98    85.491692   -743.70151   -626.45152   -5371.8989 
 4375000    289.52618   -8990.8587   -7887.0529   -8990.8587            0    12777.359     24.86493    24.864179    22.927609    14174.904    11600.276    12885.404    13846.396    303.93697   -151.18535   -100.55604    -5245.635 
 4376000    288.15966    -9049.335    -7950.739    -9049.335            0    12518.018    24.930876    24.831645    22.881296    14165.231    11509.664    13000.089    13044.301   -935.38064    1259.2158    -329.9727   -5364.6997 
 4377000    278.21156   -8990.0606   -7929.3913   -8990.0606            0    13174.423    24.877226    24.882599    22.875723    14160.302    12297.312    13792.921    13433.037    36.836407   -622.01007    1065.1132   -5208.6951 
 4378000    279.23485   -9010.9576    -7946.387   -9010.9576            0    13524.112    24.898433    24.838696    22.851733    14132.531    12875.325    14196.507    13500.503     113.7845    339.14162    286.83928    -5158.953 
 4379000    280.47621    -8995.771   -7926.4677    -8995.771            0    12354.414    24.919042    24.859815    22.965972    14227.024    12751.237    12669.675    11642.331    -141.3364    571.18061    761.27017   -5363.0929 
 4380000    283.88058   -9070.1583   -7987.8761   -9070.1583            0    12834.368    24.844614    24.869966    22.911633    14156.747    12430.811     13419.17    12653.124    323.15241   -887.71291   -137.70141   -5338.0714 
 4381000      283.293   -9067.7829   -7987.7408   -9067.7829            0    12262.403     24.72018    24.948906    22.967792    14165.189    12777.405    12916.744     11093.06    203.10764    396.62052    758.87285   -5454.5152 
 4382000    273.37528   -8990.0603   -7947.8291   -8990.0603            0    10734.181    24.835607    25.136417     22.87848    14282.536    12955.808    9398.3638    9848.3701    278.15728   -502.51229   -426.01295   -5711.9407 
 4383000    274.34158    -9015.377   -7969.4618    -9015.377            0    9627.6297    24.942852    24.971888    22.958815     14300.36     9618.693    9823.6206    9440.5755   -708.68547    253.84623    386.89021   -5961.5611 
 4384000    273.75931   -9060.2104   -8016.5151   -9060.2104            0     8508.825    24.967671    25.020298    22.942696    14332.269    9018.7894    8456.3387    8051.3469   -518.84234   -697.90894   -451.94216   -6237.9882 
 4385000    267.71141   -9043.5935   -8022.9555   -9043.5935            0    10749.769    24.971409    24.805143      22.9688     14227.32    10015.321    11353.174    10880.814      785.411    355.33918     1442.967   -5792.4765 
 4386000    281.76654   -9033.6654   -7959.4429   -9033.6654            0    10212.824     24.99464    24.960282    22.916492    14296.986    10206.509    9692.6715    10739.291   -122.87346    706.58589    1036.3561   -5829.9988 
 4387000     276.2205   -9047.1501   -7994.0716   -9047.1501            0    10733.337    24.850994    25.010757    22.934018    14254.459    11037.658    10065.898    11096.455    485.16542   -994.06481    1193.7904    -5762.754 
 4388000    284.26627   -9046.0226   -7962.2699   -9046.0226            0    10400.367    24.893459    24.925352     22.96968    14252.187    10761.219    9133.2044    11306.677    -727.8461    723.69438   -475.86845   -5800.5171 
 4389000    278.23982   -9052.5948   -7991.8177   -9052.5948            0    11959.145    24.940105    24.835116    22.906649    14188.159    12726.962     11760.31    11390.162    -1307.127    257.94081    1028.8079   -5517.2346 
 4390000     280.8171   -9015.4533   -7944.8504   -9015.4533            0    10572.676    25.054383    24.801495     23.01501    14301.208    9562.1858    12110.541    10045.303   -313.53343    233.96618     436.1541   -5739.7237 
 4391000    274.40848   -9050.8303     -8004.66   -9050.8303            0     10293.78    24.867499    24.921004    23.032247    14273.614    11121.833    9647.6691    10111.837    21.259688   -434.65437    963.98494   -5861.8448 
 4392000    274.18687   -9034.0741   -7988.7487   -9034.0741            0    11654.172    24.992611    25.097103    22.663834    14215.712    10812.159    10330.923    13819.435   -122.64358    1075.6207    399.94764   -5572.5874 
 4393000    278.42221   -9013.4238   -7951.9513   -9013.4238            0    11169.343    24.826098     24.93088     23.01937    14247.528    11552.024    12268.228    9687.7758    795.58406   -995.66029   -482.71919    -5631.123 
 4394000     285.8998   -9054.1551   -7964.1747   -9054.1551            0     10304.02    24.976949    24.843051    23.022933    14285.813    8361.9917    11603.691    10946.378   -964.10737     174.6012    7.6416241   -5817.3946 
 4395000    295.53072   -9017.9924   -7891.2945   -9017.9924            0    10464.738    25.059205     24.87617     22.92759    14292.533    8433.4679    11692.062    11268.684    699.68014    16.513005    372.43448   -5710.0042 
 4396000    275.02986    -9018.614   -7970.0748    -9018.614            0    9804.5682    24.936245    24.859756    23.084568    14310.331    10900.701    8864.1961    9648.8078    140.13165    335.87791   -354.37243   -5923.8467 
 4397000    276.88744   -9016.0878   -7960.4665   -9016.0878            0    11573.813    24.972163    24.997418    22.796053    14230.199    11097.168    11154.652     12469.62   -250.68962    135.06319   -654.89164   -5558.5201 
 4398000    276.00071   -9048.4142   -7996.1736   -9048.4142            0    11896.966    24.734804    24.870778    23.107536    14215.151    12873.766    11684.864    11132.266    147.30545    33.373087   -485.00926   -5529.7732 
 4399000    282.76196   -9024.8293   -7946.8117   -9024.8293            0    10841.611    24.916334    24.905001    22.959197     14247.13    11250.559    10801.068    10473.206    464.61972   -219.88381    68.605427   -5694.1442 
 4400000    270.74165   -9004.3625   -7972.1718   -9004.3625            0    10524.206    25.010684    25.033168    22.807636    14279.785     9773.198    10307.182    11492.238   -101.83354    170.21292    -364.8916   -5780.4426 
 4401000     274.7811   -8994.3971   -7946.8063   -8994.3971            0    11212.861    24.902556    24.868566    23.048264    14273.579    11385.574    11250.108    11002.903     124.1664    239.82118    347.42629   -5612.6752 
 4402000    277.37031   -9047.8113   -7990.3492   -9047.8113            0    9971.7669    25.043831    24.882852    22.952357    14303.035    9801.8431    10064.675    10048.783     56.42217    59.906888   -365.66934   -5910.2875 
 4403000    290.44317   -9060.0129   -7952.7111   -9060.0129            0    9937.8122    24.832879    25.001662    23.041926    14305.885    10673.215     9793.278    9346.9435    729.76527    179.08153    1359.3511   -5879.3192 
 4404000    273.52981   -9040.5505   -7997.7301   -9040.5505            0    11053.738    24.790221    25.047357    22.937905    14242.823    11800.959    9375.7285    11984.526   -188.90345    -863.0784    457.08562   -5701.6813 
 4405000    283.46906   -9035.7816   -7955.0683   -9035.7816            0    12363.719    24.920686    24.900432    22.841235    14173.805    12231.714    12563.583     12295.86   -248.04311    390.98856   -350.08079   -5399.3589 
 4406000    262.27129   -9050.2131   -8050.3153   -9050.2131            0    12250.785    24.782809    24.838849    23.017862    14169.253    14302.981    12204.307    10245.067   -514.85844    123.33757   -238.67473   -5518.7638 
 4407000    277.64853   -9034.5396   -7976.0168   -9034.5396            0    9806.4391    24.903125    25.000201    22.964217    14297.134    9961.6525    9161.9385    10295.726    199.45877    366.40165   -173.87938   -5931.2857 
 4408000    277.77538   -9025.8162   -7966.8098   -9025.8162            0    9744.7636    24.933758    25.126802    22.868713    14327.377    9438.1971    7918.5254    11877.569   -173.19458   -324.18666   -12.364322   -5930.6405 
 4409000    288.46419   -9026.0127   -7926.2557   -9026.0127            0    10894.517     24.82138    24.960159    23.023074    14263.844    10857.677    11343.829    10482.046    969.28661   -1264.7668    1218.4961   -5659.9396 
 4410000     279.5981   -9031.2215    -7965.266   -9031.2215            0    11936.539    24.965976    25.031545    22.745798    14214.689    10973.222    10757.826    14078.568    91.534005   -684.84239    1041.2611    -5490.742 
 4411000    279.77519   -9072.9018   -8006.2712   -9072.9018            0    12186.876    24.929974    24.812703    22.924672    14180.744     11065.36    13096.777    12398.491    436.44496   -590.07627    -239.8158   -5485.8837 
 4412000    280.79882   -9042.2751    -7971.742   -9042.2751            0    11233.767     24.94136    24.835851    23.029146    14265.172    9878.3942    12961.221    10861.687     784.5797   -116.89223    834.60092   -5634.6365 
 4413000    284.83805   -9029.5305    -7943.598   -9029.5305            0    11185.288    25.016522     24.93248    22.856944    14256.424    10909.344    10753.892    11892.627   -681.34459   -1128.0614    675.12175   -5618.0054 
 4414000    283.01526   -9067.8836   -7988.9003   -9067.8836            0    11015.242    24.872727    24.870404    23.000502     14227.99    10362.232    12308.804    10374.691   -137.65236    955.67261    452.53596   -5703.2305 
 4415000    279.47737   -9018.2191   -7952.7239   -9018.2191            0    11584.489    24.873123    24.970301    22.933524    14243.768    11640.878    12893.101    10219.488    509.32363    171.54904    646.93268   -5546.2693 
 4416000    285.52272   -9010.6173   -7922.0744   -9010.6173            0    10376.301    24.973431    25.037934    22.872974    14302.085     9588.875    9972.5422    11567.485    270.42488    -779.6651    603.59176   -5757.7728 
 4417000    272.34236   -9068.0229   -8029.7296   -9068.0229            0    9091.2767    24.848996    24.939645    23.104458    14318.414    9102.5559    9963.3975    8207.8767   -73.814155   -748.94536    850.28177   -6131.2948 
 4418000    279.96036   -8967.6676   -7900.3311   -8967.6676            0    10925.516    24.857575    25.042577    23.019863    14329.812    12209.246    9302.8258    11264.476   -67.122753   -234.99712    463.25585   -5617.0554 
 4419000    272.05065   -9001.4134   -7964.2322   -9001.4134            0    10090.005    24.910909    25.019661    22.963099    14312.038    9771.1923    11014.462    9484.3618    408.68021   -793.22195   -494.76597   -5858.1817 
 4420000    291.36512   -9059.8885   -7949.0718   -9059.8885            0    12803.475    24.934737    24.740703    22.940039    14151.777     12709.59    13819.572    11881.263   -82.875605   -819.51608    842.92012   -5306.5736 
 4421000    276.73612   -9012.2756   -7957.2313   -9012.2756            0    12242.007    24.893844    24.880801    22.914372    14192.676    12758.008    11838.143    12129.871   -152.97136   -1389.5994   -1470.0197   -5423.3119 
 4422000    273.72557   -9006.7408   -7963.1741   -9006.7408            0    11671.817    25.005688    24.932845    22.788945    14208.063    11717.099     11650.59    11647.763   -398.15886    249.32569   -51.254119   -5544.6566 
 4423000    273.21856   -8996.3042   -7954.6704   -8996.3042            0     12466.97    24.912958    24.764357    23.006904    14194.187    13268.674    12426.735    11705.503    788.90063   -1762.7402   -765.38366    -5373.912 
 4424000     285.7567   -9062.9731   -7973.5383   -9062.9731            0    11221.807    25.024893    24.821707    22.844353    14190.011    9987.2266    11065.975     12612.22   -1109.4573   -311.79709    92.824983   -5651.2217 
 4425000    279.54103   -9033.1644   -7967.4265   -9033.1644            0    11280.457    25.000625    24.853922    22.918005    14240.414    9633.6276    13108.645    11099.098   -15.163048    556.87479    410.67533   -5624.6805 
 4426000    270.37328   -8999.4686   -7968.6824   -8999.4686            0    13079.749    24.949075    24.690334    22.980913    14156.265     12311.15    13604.741    13323.355   -50.673049    429.13959    598.02545    -5268.308 
 4427000    280.47063   -9019.8453   -7950.5634   -9019.8453            0    11279.468    24.871381    24.938806    22.980751    14254.099    12701.654    10827.342    10309.408   -408.78478   -330.10801    77.355438   -5605.7716 
 4428000    279.52348   -9039.9064   -7974.2354   -9039.9064            0    10123.532    24.826186    25.117727    22.938212     14303.75    10424.926    8822.5251    11123.146    250.11695    379.44605    44.516426   -5862.4106 
 4429000      281.892   -9052.8262   -7978.1253   -9052.8262            0    10324.865    24.804171    25.147283    22.889922    14277.761    11669.488    8194.7283    11110.378    1472.2751    663.16623    463.86281   -5828.2149 
 4430000    280.43626   -9056.1556   -7987.0046   -9056.1556            0    11590.063    24.798048     24.98581    22.979195    14237.894    11402.239    10663.342    12704.607    133.02166   -1600.0185    794.34584   -5580.3852 
 4431000    280.13863   -9020.2608   -7952.2446   -9020.2608            0    12254.627    24.806582    25.042972    22.859746    14201.172    13565.529    10640.115    12558.238   -1157.4673    -1303.183    940.60374   -5414.1945 
 4432000    283.23459   -8988.2822   -7908.4627   -8988.2822            0    12018.941    24.768499    24.897537    23.081918    14234.034    12387.288    12506.755    11162.781   -146.84091   -848.04032   -673.48146   -5413.4654 
 4433000    282.22211   -9028.0348   -7952.0754   -9028.0348            0    11835.332    24.999534    24.912574    22.801527    14200.854    10988.023    11942.632    12575.341    -101.2098    273.49575   -215.19982   -5500.9203 
 4434000    285.57606   -9031.0861   -7942.3399   -9031.0861            0    11434.911     24.94159    24.800745    23.000511    14227.427    11773.685    11659.194    10871.853    94.874809   -946.22553    247.90624   -5569.6825 
 4435000    288.91439   -8984.8496   -7883.3762   -8984.8496            0    12464.035      24.8445    24.907055    22.933874    14191.558    12772.375    11490.631    13129.099   -569.85099   -329.17094     154.3228   -5303.7034 
 4436000    291.14726   -9026.8779   -7916.8917   -9026.8779            0    10005.589    24.982032    25.037068    22.851642    14293.173    10741.867    8131.1297    11143.769   -287.38778   -657.75225    502.92958   -5831.2141 
 4437000    276.18661   -9074.6814   -8021.7321   -9074.6814            0    10511.413    24.809265    24.983326    22.995449    14252.992    11276.665    10046.098    10211.475    146.89643   -313.07166   -616.67069   -5836.7744 
 4438000    277.60236    -8970.055   -7911.7082    -8970.055            0    10956.311    24.729023    25.180031    22.931246    14278.772    10353.371    10924.806    11590.755    1143.4612    1232.9834   -628.69496   -5630.1524 
 4439000    269.50389   -9050.0342   -8022.5624   -9050.0342            0    11382.726     24.89679    24.954802    22.854752    14199.531    10959.604    11272.767    11915.807   -166.12781    774.15106    658.82763   -5665.3639 
 4440000    292.99607    -9028.989   -7911.9544    -9028.989            0     9837.462    24.935507    24.913811    23.070066    14332.013     9703.279    11135.651    8673.4558    1511.6062    102.54221   -156.35242   -5855.7505 
 4441000    277.96003   -9009.1783   -7949.4679   -9009.1783            0    10167.309     25.03612    25.008626    22.794098    14271.817    9435.9321    9944.8319    11121.164    587.68509   -291.88216    205.72802    -5833.246 
 4442000    282.90264   -9011.2329    -7932.679   -9011.2329            0      10404.4    24.969007    24.858896    23.015125    14285.533    11122.463    10191.211    9899.5245   -709.01847    127.43231    166.61499    -5765.028 
 4443000    287.37439   -9064.7899   -7969.1876   -9064.7899            0    10727.857    24.893351    24.908813    23.010754    14268.136    10148.235    11333.751    10701.586   -916.54621   -184.57941    202.86523   -5736.8693 
 4444000    276.10803   -9024.3067   -7971.6569   -9024.3067            0    11223.753    24.977579    25.083351    22.735852    14244.497    10348.434    10105.896     13216.93    -477.3504    94.382053    1494.4838   -5640.0189 
 4445000    285.26407   -9045.6372   -7958.0805   -9045.6372            0     10805.29    24.845643     24.87989    23.078484    14266.124    10805.102    11852.505    9758.2615    193.53484    23.264701   -600.60482   -5709.9667 
 4446000    292.01429   -9044.6715   -7931.3799   -9044.6715            0    10830.504    25.044595    24.871218     22.88737    14256.305    10175.863    11199.227    11116.422    437.88336   -553.50805   -613.25795    -5679.571 
 4447000    285.86391   -9057.5373   -7967.6937   -9057.5373            0    9908.7153    24.976896     24.90973    22.960198    14285.094    8802.9116    10950.125    9973.1094    -69.43826    18.866007   -652.08984   -5903.3769 
 4448000    280.61897   -9020.0663   -7950.2188   -9020.0663            0    9537.3183    24.980428     24.83936    23.070983    14315.495    9256.4465     9845.378    9510.1304   -82.523183    806.33161    417.35784   -5959.0478 
 4449000    280.64604   -8991.3022   -7921.3515   -8991.3022            0    11129.933    25.044611    24.926391    22.865377    14274.209    11910.211    10804.803    10674.786   -1272.4714    412.03351   -958.11732    -5604.381 
 4450000    278.56564   -9019.4534   -7957.4342   -9019.4534            0    13101.114    24.724775    24.784281    23.123155     14169.54    14885.315    13120.918    11297.111   -591.09531   -303.73533    716.93026   -5250.1123 
 4451000    290.92616   -9019.9524   -7910.8092   -9019.9524            0    11557.421    24.852205    24.966013    22.897889    14207.235    11804.583    10751.236    12116.444    517.63818   -689.27619    -1092.782   -5516.1353 
 4452000    282.67761   -9031.0787   -7953.3827   -9031.0787            0    11908.632    24.835512      25.0021    22.835547    14179.503    11571.238    12200.098     11954.56   -120.53725    375.86999    721.74201   -5490.7549 
 4453000    274.61761   -9061.5233   -8014.5557   -9061.5233            0    11596.969    24.835645    24.838582    23.028039    14205.587      12160.1     11926.59    10704.218    236.48706    -751.5622   -236.03978   -5611.9661 
 4454000    284.10016   -9013.9764    -7930.857   -9013.9764            0    11209.018    25.061747     24.97451    22.755141    14242.553    9176.4223    12253.114    12197.516   -425.13963   -2211.4375   -84.231891    -5602.598 
 4455000    272.72073   -9033.7401   -7994.0043   -9033.7401            0    11354.469     24.91058    24.843608    23.042339    14260.182      11602.3    11136.847    11324.259    638.65828   -977.50681    181.22622    -5632.614 
 4456000    263.97419   -9067.3547   -8060.9647   -9067.3547            0    10143.971    24.992384     24.99406    22.850424    14273.772    8094.0989    10781.868    11555.947   -317.49965   -529.13821    1098.6076   -5949.3112 
 4457000    284.40886   -9043.9387   -7959.6424   -9043.9387            0    11573.874    24.783738    24.929719    22.971148    14192.761    11900.452    12263.844    10557.327     703.0238   -1215.0429   -420.14107   -5564.0025 
 4458000    281.74241   -9038.0035    -7963.873   -9038.0035            0    10670.959    24.880916    24.932359     23.01045    14274.301    10346.552    11453.284     10213.04    112.13422    654.05523    287.44362    -5742.435 
 4459000    283.89101   -9014.5097   -7932.1877   -9014.5097            0    9551.9377    25.006687    25.075966    22.863597    14337.003    9359.1644     8659.458    10637.191    1539.9391    431.25562   -722.86119   -5934.9685 
 4460000     290.2925   -9048.8984    -7942.171   -9048.8984            0    11034.191    24.887271    24.813495    23.093616    14261.236    10027.246    12042.887     11032.44   -9.8626555   -167.60582   -5.9202788   -5647.2193 
 4461000    285.67885   -9029.3029   -7940.1648   -9029.3029            0    10933.425    24.990923    24.942718    22.946106    14303.261    9984.8286    10774.107     12041.34    221.81641    143.45924    -882.3646   -5659.4698 
 4462000    266.93417   -9005.7246   -7988.0498   -9005.7246            0    10574.237    24.979379    24.915099    22.951523    14284.195    9287.4289    11783.692    10651.591   -321.89283   -696.59799    412.47827   -5785.2212 
 4463000    275.20602   -9034.6452   -7985.4344   -9034.6452            0    10125.568    24.861264    24.984715    23.002659    14288.138    10473.574    9719.1948    10183.935    65.997204    984.22268   -1295.5593   -5875.4905 
 4464000    285.40177    -9031.851   -7943.7693    -9031.851            0    11147.543    24.990775    24.887545    22.920545     14255.64    11030.856    11943.562    10468.212   -501.00561   -341.16602    745.04932   -5626.1517 
 4465000    279.86873   -9057.2383    -7990.251   -9057.2383            0    10861.915    25.058476    24.867013    22.846802    14236.515    9351.8861    10958.614    12275.245    203.11168   -1142.9549    729.73487   -5735.0463 
 4466000    272.34442   -9046.6416   -8008.3405   -9046.6416            0    10805.207    24.944105    24.856788    23.020929    14273.674    10400.593    10891.669    11123.359    236.08031    629.82099    1132.4939   -5759.0541 
 4467000    285.67358   -9011.2697   -7922.1517   -9011.2697            0    12500.381    24.925311    24.823504    22.961354     14206.96    12705.827    12768.278    12027.039    47.245868    682.56348    1040.3103   -5332.1485 
 4468000    280.23978   -9007.7984   -7939.3965   -9007.7984            0    12193.636    24.934074    24.908861    22.909077    14228.356    11184.105    12508.126    12888.678   -180.16625   -320.47544   -484.22958   -5409.1442 
 4469000     277.1645   -9045.3581   -7988.6806   -9045.3581            0    11167.809    24.898872    24.773137    23.071541    14231.062    11091.067     13016.21    9396.1498    20.356513   -1069.4004    521.86336   -5670.8528 
 4470000    282.86297   -9047.8969   -7969.4942   -9047.8969            0    10265.449     25.06067    24.979107    22.800237    14272.792    10587.115    9217.1065    10992.126    638.94716   -1094.5235   -426.07897   -5832.6995 
 4471000    273.42931   -9008.8296   -7966.3924   -9008.8296            0    11882.659    24.879935    24.828606    23.027819    14225.069    11158.673    12892.297    11597.007   -411.95132   -512.37805   -295.76844   -5501.2392 
 4472000    279.73449   -9047.8638   -7981.3884   -9047.8638            0    10876.862    24.867553    24.912295    22.961508    14224.834     9873.428    12093.731    10663.427    921.15472   -1143.6905    1415.8062   -5724.9332 
 4473000    278.28267   -9017.2363   -7956.2959   -9017.2363            0    10790.771    24.826107    25.122082    22.845238    14248.198     10879.15    10398.992    11094.173    160.63976   -1117.5441   -450.32231   -5714.0238 
 4474000    298.92782   -9018.8398   -7879.1907   -9018.8398            0    12197.679    24.734946    25.028511    22.961727     14215.12    11512.968    11666.685    13413.385    18.831587   -1175.5686   -291.02386   -5350.4538 
 4475000    269.85401    -9011.744   -7982.9374    -9011.744            0    10679.646    24.908766    24.979885    22.938962    14273.038    11657.804    9950.0659    10431.069   -1447.5902   -3.4091806    -681.7933   -5759.8877 
 4476000    286.57488   -9047.7468   -7955.1926   -9047.7468            0    11873.177    24.677161    24.971381    23.073303    14218.295    12526.114    11903.928    11189.489   -13.010055    813.35825    831.63246   -5493.1796 
 4477000    289.59689   -9039.1608   -7935.0854   -9039.1608            0    10679.431    24.899695     25.02783    22.907301    14275.495    11405.015    10436.315    10196.961   -540.77429   -423.26592    313.76503   -5711.6979 
 4478000    285.32729   -9012.9497    -7925.152   -9012.9497            0    10818.577    24.893806    25.114534    22.798567     14253.58    11032.875    10113.565    11309.292   -784.24141    445.94177    511.61652   -5676.2527 
 4479000    282.74403   -9052.9319   -7974.9827   -9052.9319            0    11127.616    24.883254    24.868889    23.016942    14243.319    10477.449    12023.301    10882.099   -438.58762   -523.05339   -230.57289   -5663.5076 
 4480000    277.89317   -8991.9572   -7932.5017   -8991.9572            0    10969.373    24.975169    24.973483     22.88863    14276.026    10780.169    10825.111    11302.838   -597.65065   -836.14635     864.2707   -5648.6651 
 4481000    284.50009   -8992.9513   -7908.3073   -8992.9513            0     11404.57    25.012707    24.901815     22.91953      14275.7    11452.879    10596.892    12163.939    16.696778   -45.885752     495.3866   -5533.9164 
 4482000    272.54743    -8974.286   -7935.2109    -8974.286            0    12236.286    24.983709    24.785986    22.990085    14236.515    11397.745    13570.656    11740.458    129.25152   -646.62835   -1.9433266   -5394.6523 
 4483000    284.49344   -9001.8509   -7917.2322   -9001.8509            0    11998.873    25.085305    24.844112    22.822827    14223.691     11410.25      12774.2     11812.17    1103.2297   -162.17222    682.90971   -5428.2106 
 4484000    286.06003    -9023.304   -7932.7127    -9023.304            0     10862.03    24.839059     25.01933    22.935447    14253.385    11026.382     9676.818    11882.889    1011.3685   -810.35318   -467.29786   -5674.8117 
 4485000     272.5743   -9037.5912   -7998.4136   -9037.5912            0    11319.813    24.719779    25.073981    23.033663      14276.8    12670.614    10768.651    10520.174     330.9924    1051.1408   -70.780306   -5641.4872 
 4486000    282.40146   -9011.2618   -7934.6186   -9011.2618            0    11493.554    24.884802    24.895299    22.963143    14226.002    12973.143     10881.56    10625.958     114.3199    -540.1035    -129.2279   -5550.0321 
 4487000    284.74473   -9043.8699   -7958.2931   -9043.8699            0    12634.031    24.828419    24.916549    22.842172    14131.048    12010.596    12197.857    13693.641    623.82621    583.99135    -513.4358   -5354.5855 
 4488000    282.27589   -8964.2383   -7888.0739   -8964.2383            0    10872.998    24.886733    24.825494    23.164941     14311.89    11243.034    11213.901    10162.058    743.51245   -1144.1116    1165.9477   -5618.6158 
 4489000    282.14772   -9035.2406   -7959.5648   -9035.2406            0    10038.946     25.01778    24.948391    22.954648    14327.221    9233.1311    9567.8986     11315.81   -967.32382    526.87593   -614.03134   -5861.9489 
 4490000    282.97265    -8989.918   -7911.0972    -8989.918            0    10264.994    24.996486    24.899707    22.978389    14301.868     9851.252    10951.119    9992.6107    427.62453   -190.41049    961.41893   -5770.0446 
 4491000    286.27814   -9036.4913   -7945.0685   -9036.4913            0    10394.424    24.982657    24.740866    23.103188    14279.908    9804.2998    12635.313    8743.6585    316.58215   -281.38373    1841.6032   -5780.3485 
 4492000    288.03166   -9016.7857   -7918.6776   -9016.7857            0    10710.845    24.992353    24.867286     22.97398    14278.144    10328.537    11158.078    10645.921    56.796529   -500.64414    837.15434    -5688.336 
 4493000      279.382   -9016.4939   -7951.3623   -9016.4939            0    11809.336    24.963635    24.840255    22.934564    14221.794    11865.854    12267.247    11294.907     -157.985   -787.43657     -902.533   -5501.9847 
 4494000    271.92492   -9031.5071   -7994.8053   -9031.5071            0    10714.604    24.935978    24.944852    22.981362    14294.965    10634.133    10809.165    10700.515   -668.80213    388.35528    33.938626   -5761.0524 
 4495000    283.16885   -9035.9918    -7956.423   -9035.9918            0    10386.366    24.900325    25.058255     22.93659    14311.485    10545.749    10920.759    9692.5884    152.48108    1076.2042    -1102.594   -5788.5981 
 4496000    278.71076   -9029.1188   -7966.5463   -9029.1188            0    11611.856     24.70214    24.985386    23.041978    14221.336    12287.566    11851.655    10696.348   -1313.2606   -23.919697    722.96918   -5558.2055 
 4497000    286.04086   -8985.6572    -7895.139   -8985.6572            0    11862.332    24.851278    24.980355    22.952374     14248.69    11700.623    11826.359    12060.014   -859.28166   -618.84518    1216.3694   -5430.1163 
 4498000    268.81771    -9033.651   -8008.7953    -9033.651            0    10868.181    25.075102    24.969025    22.759725    14249.883    10484.946    9791.5671     12328.03    171.72536   -623.75518    681.03594   -5750.1706 
 4499000    278.10118   -9078.2437   -8017.9952   -9078.2437            0    11660.465    24.813695     24.79313    23.089192    14204.682    11892.758    12011.887    11076.751   -336.07242   -530.08206   -251.94793   -5602.4048 
 4500000    288.97899   -9010.6926   -7908.9729   -9010.6926            0    11676.655    24.960986    24.945908     22.86734    14238.909     10948.89     12266.45    11814.625   -989.11945   -373.01915    450.14165   -5484.2002 
Loop time of 493.781 on 64 procs for 250000 steps with 1920 atoms

Performance: 87.488 ns/day, 0.274 hours/ns, 506.297 timesteps/s
193.7% CPU use with 32 MPI tasks x 2 OpenMP threads

MPI task timing breakdown:
Section |  min time  |  avg time  |  max time  |%varavg| %total
---------------------------------------------------------------
Pair    | 70.891     | 73.289     | 79.773     |  20.7 | 14.84
Bond    | 0.89887    | 1.1189     | 1.576      |  13.2 |  0.23
Kspace  | 218.89     | 227.16     | 231.63     |  19.1 | 46.00
Neigh   | 5.7189     | 6.2532     | 6.8881     |  12.6 |  1.27
Comm    | 79.203     | 84.377     | 88.952     |  27.7 | 17.09
Output  | 0.61847    | 0.61874    | 0.6206     |   0.0 |  0.13
Modify  | 81.22      | 86.984     | 91.318     |  29.2 | 17.62
Other   |            | 13.98      |            |       |  2.83

Nlocal:        60.0000 ave          65 max          56 min
Histogram: 1 3 2 9 5 6 1 3 1 1
Nghost:        3397.66 ave        3426 max        3367 min
Histogram: 1 3 2 3 6 3 7 3 2 2
Neighs:        21332.5 ave       23027 max       19967 min
Histogram: 3 3 3 8 1 6 2 4 0 2

Total # of neighbors = 682639
Ave neighs/atom = 355.54115
Ave special neighs/atom = 2.0000000
Neighbor list builds = 13441
Dangerous builds = 0

unfix		3
unfix		2
unfix		1

write_data	data.final.${pid}
write_data	data.final.0
System init for write_data ...
PPPM initialization ...
  extracting TIP4P info from pair style
  using 12-bit tables for long-range coulomb (../kspace.cpp:340)
  G vector (1/distance) = 0.3744986
  grid = 30 30 30
  stencil order = 5
  estimated absolute RMS force accuracy = 0.0032691082
  estimated relative force accuracy = 9.8448221e-06
  using double precision FFTW3
  3d grid and FFT values/proc = 5400 960
Last active /omp style is kspace_style pppm/tip4p/omp
WARNING: Not all mixed pair coeffs generated from mixing. Use write_data with 'pair ij' option to store all pair coeffs. (../write_data.cpp:312)

write_restart   restart.lmp.${pid}
write_restart   restart.lmp.0
System init for write_restart ...
PPPM initialization ...
  extracting TIP4P info from pair style
  using 12-bit tables for long-range coulomb (../kspace.cpp:340)
  G vector (1/distance) = 0.3744986
  grid = 30 30 30
  stencil order = 5
  estimated absolute RMS force accuracy = 0.0032691082
  estimated relative force accuracy = 9.8448221e-06
  using double precision FFTW3
  3d grid and FFT values/proc = 5400 960
Last active /omp style is kspace_style pppm/tip4p/omp
Total wall time: 0:08:13
