#include		in.partitions
include		in.temp
variable        temperature equal 135.92
variable	tempDamp equal 100.0
include		in.pressure
variable        pressure equal 8668.8
variable        pressureDamp equal 1000.0 # This is 1 ps
include		in.seed
variable        seed equal 745823

units		real
atom_style	full
box tilt large
read_restart	restart.lmp.${pid}
read_restart	restart.lmp.0
Reading restart file ...
  restart file = 30 Jul 2021, LAMMPS = 30 Jul 2021
  restoring atom style full from restart
  triclinic box = (-10.639617 -9.1539068 0.27522490) to (12.619617 12.143905 21.584774) with tilt (-8.9109956 2.0750532 2.7588555)
  4 by 4 by 4 MPI processor grid
  restoring pair style lj/cut/tip4p/long/omp from restart
  restoring bond style harmonic/omp from restart
  restoring angle style harmonic/omp from restart
  1296 atoms
  864 bonds
  432 angles
Finding 1-2 1-3 1-4 neighbors ...
  special bond factors lj:    0        0        0       
  special bond factors coul:  0        0        0       
     2 = max # of 1-2 neighbors
     1 = max # of 1-3 neighbors
     1 = max # of 1-4 neighbors
     2 = max # of special neighbors
  special bonds CPU = 0.009 seconds
  read_restart CPU = 0.020 seconds
include 	in.setup
variable	out_freq equal 1000
variable	out_freq2 equal 10000
variable	out_freq3 equal 1000

timestep	2.0

neigh_modify    delay 7 every 1

include		in.tip4p
# This is TIP4P/Ice

# create groups ###
group ox type 2
432 atoms in group ox
group hy type 1
864 atoms in group hy

# set charges - beside manually ###
set group ox charge -1.1794
Setting atom values ...
  432 settings made for charge
set group hy charge 0.5897
Setting atom values ...
  864 settings made for charge

# ### TIP3P Potential Parameters ###
pair_style lj/cut/tip4p/long/omp 2 1 1 1 0.1577 8.5
pair_coeff 1 1*2 0.000 0.000
pair_coeff 2 2 0.21084 3.1668
bond_style  harmonic
bond_coeff  1 450 0.9572
angle_style harmonic
angle_coeff 1 55 104.52
kspace_style pppm/tip4p/omp 1.0e-5
pair_modify tail yes

thermo          ${out_freq}
thermo          1000
thermo_style    custom step temp pe etotal epair emol press lx ly lz vol pxx pyy pzz pxy pxz pyz enthalpy

restart 	${out_freq3} restart.lmp.${pid} restart2.lmp.${pid}
restart 	1000 restart.lmp.${pid} restart2.lmp.${pid}
restart 	1000 restart.lmp.0 restart2.lmp.${pid}
restart 	1000 restart.lmp.0 restart2.lmp.0


include         in.dump
dump            myDump all atom ${out_freq2} dump.water.${pid}
dump            myDump all atom 10000 dump.water.${pid}
dump            myDump all atom 10000 dump.water.0
dump            myDump2 all dcd ${out_freq2} dump.dcd
dump            myDump2 all dcd 10000 dump.dcd
dump_modify     myDump append yes
dump_modify     myDump2 append yes


variable natoms 	equal  "count(all)"                        # NUMBER ATOMS
variable H      	equal  "enthalpy/v_natoms"                 # ENTHALPY-per-atom
variable Vol      	equal  "vol/v_natoms"                 # volume-per-atom
fix AVG all 		ave/time ${out_freq} 1 ${out_freq} v_Vol v_H file vol_enthalpy.dat
fix AVG all 		ave/time 1000 1 ${out_freq} v_Vol v_H file vol_enthalpy.dat
fix AVG all 		ave/time 1000 1 1000 v_Vol v_H file vol_enthalpy.dat


timer           timeout 10:00:00 every 1000
New timer settings: style=normal  mode=nosync  timeout=10:00:00

fix 		1 all shake 1e-6 200 0 b 1 a 1
       0 = # of size 2 clusters
       0 = # of size 3 clusters
       0 = # of size 4 clusters
     432 = # of frozen angles
  find clusters CPU = 0.001 seconds
fix             2 all nph tri ${pressure} ${pressure} ${pressureDamp}
fix             2 all nph tri 8668.8 ${pressure} ${pressureDamp}
fix             2 all nph tri 8668.8 8668.8 ${pressureDamp}
fix             2 all nph tri 8668.8 8668.8 1000
fix             3 all temp/csvr ${temperature} ${temperature} ${tempDamp} ${seed}
fix             3 all temp/csvr 135.92 ${temperature} ${tempDamp} ${seed}
fix             3 all temp/csvr 135.92 135.92 ${tempDamp} ${seed}
fix             3 all temp/csvr 135.92 135.92 100 ${seed}
fix             3 all temp/csvr 135.92 135.92 100 745823


run             250000
PPPM initialization ...
  extracting TIP4P info from pair style
  using 12-bit tables for long-range coulomb (../kspace.cpp:340)
  G vector (1/distance) = 0.36876637
  grid = 30 40 32
  stencil order = 5
  estimated absolute RMS force accuracy = 0.0042452771
  estimated relative force accuracy = 1.2784526e-05
  using double precision FFTW3
  3d grid and FFT values/proc = 5168 640
Last active /omp style is kspace_style pppm/tip4p/omp
Neighbor list info ...
  update every 1 steps, delay 7 steps, check yes
  max neighbors/atom: 2000, page size: 100000
  master list distance cutoff = 10.8154
  ghost atom cutoff = 10.8154
  binsize = 5.4077, bins = 7 5 4
  1 neighbor lists, perpetual/occasional/extra = 1 0 0
  (1) pair lj/cut/tip4p/long/omp, perpetual
      attributes: half, newton on, omp
      pair build: half/bin/newton/tri/omp
      stencil: half/bin/3d/tri
      bin: standard
Per MPI rank memory allocation (min/avg/max) = 9.444 | 9.450 | 9.455 Mbytes
Step Temp PotEng TotEng E_pair E_mol Press Lx Ly Lz Volume Pxx Pyy Pzz Pxy Pxz Pyz Enthalpy 
26500000    145.61086   -6657.9548   -6283.3798   -6657.9548            0    7598.3508    23.259234    21.297812    21.309549    10556.128     6423.006    7412.1931    8959.8533   -1006.6182   -75.701943    124.75954   -5113.6114 
26501000    137.95585   -6659.9607   -6305.0777   -6659.9607            0    9479.9411    23.109899    21.107908    21.491765    10483.718    10269.614     9545.706    8624.5033   -849.89694    -631.0123   -638.09447   -4855.6489 
26502000    133.07091   -6646.9346   -6304.6178   -6646.9346            0    9209.9062    23.097528    21.236295    21.401672    10497.647     10324.19    8828.2144    8477.3141   -967.90655    -531.3868   -159.49623    -4894.605 
26503000    135.84327   -6660.9577   -6311.5092   -6660.9577            0    9017.8959    23.049447    21.327764    21.376611    10508.596    8307.3205     9296.937    9449.4302   -315.01969    931.01293   -695.63457   -4929.4527 
26504000    132.43191   -6667.3421   -6326.6691   -6667.3421            0    8667.0441    22.914517    21.311158    21.525935    10511.865    9288.7046    9176.9322    7535.4954    277.62112    344.57554    473.11461   -4997.9699 
26505000    135.22403   -6656.2312   -6308.3756   -6656.2312            0     8754.171    23.097361    21.227889    21.428993    10506.812    9358.9218    8350.7652    8552.8261   -410.90193   -545.47609    28.634023   -4966.9647 
26506000    140.09384   -6661.4695   -6301.0866   -6661.4695            0    8364.9099    23.247935    21.204018    21.373852    10536.232    7453.7638    8661.5082    8979.4576     427.5664    287.70061   -41.122547   -5015.7334 
26507000    138.06033   -6671.7235   -6316.5717   -6671.7235            0    7887.8268    23.238845     21.04073    21.575269    10549.492     8267.457    8844.8746    6551.1487    185.81986   -515.05477   -75.935665   -5103.0018 
26508000    136.18965   -6649.2992   -6298.9596   -6649.2992            0    9955.0462    23.129525    21.193366    21.387555    10484.019    10187.543    9884.1907    9793.4052    -625.0413   -525.13538   -307.14206   -4776.8463 
26509000    141.62849   -6646.9706   -6282.6399   -6646.9706            0     9238.902    23.100136    21.195185    21.454929    10504.583    9488.9855    9617.8728    8609.8478   -340.67764    -589.3353    65.536216   -4867.2533 
26510000    137.35345   -6644.7486   -6291.4152   -6644.7486            0    10392.241    23.007597    21.306289    21.321789     10452.08    9441.5054    10197.174    11538.044    207.02141    714.50658    541.86839   -4707.2961 
26511000    136.90586   -6662.9774   -6310.7954   -6662.9774            0     8082.506    23.033778    21.319439    21.437943    10527.471     7480.981    7897.9592    8868.5777    498.09391    772.18503    387.10462   -5069.8691 
26512000    135.86935   -6632.7828   -6283.2672   -6632.7828            0    9550.8721     23.12821    21.189974    21.443574    10509.199    10117.893    10744.258    7790.4656   -80.055739   -367.06177   -107.07559   -4819.4443 
26513000    137.59143   -6658.2704   -6304.3248   -6658.2704            0    7393.8814    23.321531    21.135339    21.483019    10589.162    5864.3787    8238.4422    8078.8232    398.25992    274.35955    56.796729   -5162.4724 
26514000    131.11435    -6664.423   -6327.1393    -6664.423            0    8895.9935    23.236829    21.109853    21.482711    10537.829    8773.4942    9451.9603     8462.526   -139.93621   -193.70387   -118.86804   -4959.9725 
26515000    136.46499   -6650.0483   -6299.0004   -6650.0483            0    9801.6875    23.093632    21.154859    21.446636    10477.594    9334.2864    10448.312    9622.4643    269.60801    1349.1811    128.06957    -4801.254 
26516000    141.29503   -6677.1336   -6313.6608   -6677.1336            0     6611.635    23.149621    21.417272    21.311494    10566.276      6791.58    6259.7732    6783.5516   -164.46507    472.90331   -1106.7728   -5294.8191 
26517000    138.56406   -6666.3095   -6309.8619   -6666.3095            0    8171.5988     23.00155    21.330557    21.508914    10553.045    9453.3304    7139.8815    7921.5845   -363.60935    171.35901    530.16401   -5052.2092 
26518000     136.2654   -6675.3542   -6324.8198   -6675.3542            0    8595.2124    23.074533    21.235044     21.43665    10503.717    7987.7191    9318.5774    8479.3408    596.00529   -380.38526    40.649992   -5008.1541 
26519000    134.90919   -6660.2111   -6313.1655   -6660.2111            0    9105.4965    23.223996    21.121486    21.392963     10493.79    8062.7905    9694.1855    9559.5135   -479.85894     1014.718   -345.07871   -4919.6497 
26520000    138.16639    -6671.709   -6316.2844    -6671.709            0    9245.3482     23.12818    21.125991    21.501443    10505.728    9717.4523     9252.123    8766.4694   -712.97462   -812.69289   -341.71851   -4899.7559 
26521000    134.95652    -6676.864   -6329.6966    -6676.864            0    8450.1222    23.174674    21.192485    21.458502    10538.891    8008.0468     9861.227    7481.0929      304.743   -275.85674   -674.33126   -5030.9219 
26522000     135.6415   -6647.9147   -6298.9852   -6647.9147            0    9839.3978     22.92924    21.342053    21.382087    10463.475    10588.785    9682.2139    9247.1941    929.68723    -904.2483    449.56939   -4797.5025 
26523000    136.09372   -6669.1817   -6319.0889   -6669.1817            0    7539.5056    23.090876     21.33203    21.402962     10542.57    7928.8393    7656.4577    7033.2199    792.20971   -147.52846    -380.7905   -5159.8706 
26524000    144.16992   -6645.9126   -6275.0443   -6645.9126            0    8598.4456      23.0214     21.33682    21.469053    10545.674    10065.386    7646.2722    8083.6788   -751.65438   -312.19652   -955.85459    -4952.622 
26525000    139.10271   -6643.7374   -6285.9041   -6643.7374            0    8886.4744     23.18662    21.230274    21.387541    10528.194    8539.3087    9321.4942    8798.6204   -346.66443    555.47509   -182.98417   -4921.4489 
26526000    133.83132   -6635.3301   -6291.0571   -6635.3301            0    8844.6018    23.287732    21.041344    21.518744    10544.296    8894.2255    8991.8502    8647.7297   -623.40546   -99.132383   -1012.8176   -4930.9542 
26527000    137.77396   -6648.5182   -6294.1031   -6648.5182            0    8506.0216    23.184035    21.156591    21.474968    10533.368    7541.7879    8394.5962    9581.6808   -616.24326    867.25592    1251.0683    -4987.422 
26528000    131.72108   -6661.3481   -6322.5036   -6661.3481            0    9077.9542    23.104763    21.287936    21.320783    10486.685    8710.1733     8736.933    9786.7562    260.11841     1101.487    548.28604   -4934.1436 
26529000    132.52572   -6661.9225   -6321.0081   -6661.9225            0    8489.8974     23.03321    21.310679    21.456263    10531.878    9889.1272    7272.8012    8307.7639    827.16217   -263.56695   -203.64506   -5016.9884 
26530000    141.77789   -6649.4764   -6284.7614   -6649.4764            0    9161.1865    23.065358    21.246011    21.458428    10515.635     9246.957    9263.8839    8972.7186   -1436.4076    1382.0102    484.43387   -4879.8041 
26531000    140.42192   -6648.1345   -6286.9076   -6648.1345            0    8873.0351    23.232247    21.197932    21.315682    10497.453    8141.6886    9369.2772    9108.1396    282.64025   -78.612168    306.37885    -4928.494 
26532000     139.9168   -6655.4768   -6295.5494   -6655.4768            0    8764.0043    23.159071      21.1064    21.483569    10501.268    7898.5409    10031.566     8361.906    452.40395   -223.17562   -702.50678   -4953.3402 
26533000      138.312   -6661.6239   -6305.8247   -6661.6239            0    9119.4232    23.104912    21.185725    21.469787    10509.338    9885.4907    9257.7295    8215.0494   -319.92748   -827.79718   -413.12253   -4908.1097 
26534000    137.63722   -6665.4584    -6311.395   -6665.4584            0    8706.6621    23.150992    21.229326    21.338125    10487.261    8170.3605    7857.9229    10091.703   -207.34402    794.58977    635.46666   -4979.7464 
26535000     135.1096   -6668.3254   -6320.7642   -6668.3254            0    9311.4442    23.005034    21.185114    21.537739    10496.725    10023.232    9777.7808    8133.3195    75.732902   -248.77769   -582.54149   -4895.3314 
26536000     129.9275   -6653.8167   -6319.5862   -6653.8167            0    8563.4675    23.054858    21.315933    21.420373    10526.738    8459.4047    8624.3167     8606.681    351.96629    -74.99545     242.4711   -5004.9082 
26537000    138.07046   -6651.7823   -6296.6045   -6651.7823            0    9522.5393    23.048135    21.242221    21.390388    10472.596    9055.8006    9752.1707    9759.6466   -757.93564    1080.0824    71.322004   -4842.2073 
26538000    137.86334   -6666.6477   -6312.0026   -6666.6477            0    8029.4623    23.161464    21.224775    21.418599    10529.316     8680.279    8250.5432    7157.5646    146.20138    24.997102   -325.69207   -5079.0042 
26539000    137.61981   -6660.8366    -6306.818   -6660.8366            0    8410.5771    23.169646    21.238017    21.420488    10540.537    8324.2302    8569.5685    8337.9326    33.954967   -644.19489   -57.076348   -5013.9196 
26540000    131.90334    -6655.416   -6316.1027    -6655.416            0    8925.5105    23.223734    20.996015    21.591501    10528.143    8132.4065    10525.066    8119.0592   -512.95861    106.99313    -253.8263   -4945.6605 
26541000    134.78668   -6666.0423   -6319.3118   -6666.0423            0    8806.3304    23.144038    21.239948     21.39913    10519.345    8554.0073    8738.3381    9126.6457    -276.8321    599.34593    94.802131   -4968.2987 
26542000    133.18486   -6653.4725   -6310.8625   -6653.4725            0    8726.1117    22.961395    21.367856    21.437448    10517.979     9245.925     8893.403    8039.0071    764.52207   -70.926868    17.424007   -4972.3299 
26543000    142.60786   -6667.5239   -6300.6739   -6667.5239            0    8818.2556    23.060952    21.246996    21.446541    10508.289    8901.7472     9658.397    7894.6228    936.20554    393.15074   -364.13772   -4949.2531 
26544000    139.35309   -6656.1342   -6297.6569   -6656.1342            0    9111.7319    23.102497    21.322449    21.282489    10483.793    9188.9732    8443.9681    9702.2545    464.32157   -224.23444    815.00258   -4904.5153 
26545000    126.63285   -6669.8836   -6344.1283   -6669.8836            0    9090.0115    23.098639    21.137899    21.531145    10512.726    9064.2957    9881.0598     8324.679    384.55339    265.28433   -902.10332    -4950.472 
26546000    137.93586   -6660.5639   -6305.7323   -6660.5639            0    8077.7107     23.17241    21.217927    21.451699    10547.168    8161.2962    7688.8057    8383.0301   -278.44193   -827.83361    368.49866   -5063.2219 
26547000     130.2649   -6654.5625    -6319.464   -6654.5625            0    8943.3278    23.246728    21.153939    21.335319    10491.854    7550.2861    9721.0378    9558.6595      395.808    144.36675    760.61719   -4951.0192 
26548000     136.0671   -6647.4551   -6297.4308   -6647.4551            0    8624.1785    22.915968    21.265379    21.595225    10523.715     10226.15      8891.19    6755.1954   -1273.4159   -64.808129   -1202.6053   -4973.8127 
26549000    140.03494   -6658.6776   -6298.4462   -6658.6776            0    8892.2245     23.06497     21.32149    21.364275    10506.513     9505.894    8647.3372    8523.4422    194.39287   -231.81599   -270.77035   -4935.9198 
26550000    141.52001   -6666.6804   -6302.6288   -6666.6804            0    9352.0546    23.165181    21.151562    21.397733    10484.456    9111.0643    9813.3544    9131.7452    252.93351   -546.61971    424.58632   -4872.6525 
26551000    139.61944   -6656.3205    -6297.158   -6656.3205            0    8272.0343    23.127484    21.165561    21.542922    10545.393    8176.9268    9175.6125    7463.5636   -459.53909   -495.70842   -1215.6741   -5024.9709 
26552000    130.90811      -6658.3   -6321.5469      -6658.3            0    8629.8807    23.234933    21.164389    21.367447     10507.51    7550.8968    9005.7108    9333.0346     848.9149    1144.4887    354.63497   -4999.0932 
26553000    131.89904   -6655.1267   -6315.8244   -6655.1267            0    9384.2613    23.036631    21.248987    21.409468    10480.043    8921.0178     9418.709     9813.057    419.25406     228.5897    508.59778   -4881.5276 
26554000    141.44396   -6666.8082   -6302.9523   -6666.8082            0    8054.7927    23.038371    21.301517     21.48464    10543.635    8555.6491    7547.3226    8061.4064    -47.33666   -155.04677   -295.30117    -5064.382 
26555000    136.70397   -6650.5762   -6298.9136   -6650.5762            0    9328.9799    23.112687    21.202576     21.39559    10484.877    8693.7918    10098.804    9194.3443    80.393314    734.90777   -245.03805   -4872.4083 
26556000    143.84266   -6658.8415    -6288.815   -6658.8415            0    8511.2346    23.045319    21.288139    21.412654    10504.876    9396.5505    8449.1672    7687.9861    -128.1985    313.78616   -360.26954   -4984.8697 
26557000    137.04364   -6656.5225   -6303.9861   -6656.5225            0    9394.0064    23.071311    21.207564    21.445846    10493.159    9335.3161    10497.712     8348.991    958.82151   -87.898672   -828.71668   -4866.4029 
26558000    134.79271   -6654.9686   -6308.2226   -6654.9686            0    8785.0173    23.076446    21.225976    21.446839    10505.093    9083.7052    8153.4372    9117.9095   -276.18025    566.19708    1242.1728   -4962.3052 
26559000     139.6889   -6664.6831   -6305.3419   -6664.6831            0    8989.2473    23.115328     21.23555    21.404362    10506.688    9581.8048    8196.7219    9189.2152   -817.70395   -347.67954    63.589361   -4927.9261 
26560000    131.43984   -6669.4927   -6331.3717   -6669.4927            0    8404.6278    23.172098     21.18556    21.433234    10521.872     8745.345    7810.2274    8658.3109   -562.85703    1012.8423   -655.75193   -5041.6757 
26561000    135.53104   -6660.2501   -6311.6048   -6660.2501            0    8621.3014    23.063459    21.282201    21.438995    10523.141    8271.4487    8138.5111    9453.9443    418.90582    -71.09737    725.30354   -4988.5004 
26562000    142.67365    -6674.835   -6307.8158    -6674.835            0    6804.8961    23.182033    21.326913    21.443197    10601.542    6652.8421    6391.9113    7369.9349   -854.65104     247.2104   -1470.7486    -5255.693 
26563000    140.69805   -6639.2778   -6277.3407   -6639.2778            0    9892.5481    23.066565    21.193239    21.432381    10477.331    10423.314    9369.2076    9885.1227   -642.39418   -333.02097    241.34002   -4765.7481 
26564000    135.55732   -6662.9484   -6314.2355   -6662.9484            0    8651.9929    23.181829    21.127865    21.466508    10513.921    8814.3544    8193.6318    8947.9923   -839.44793    108.11311    699.61917   -4987.5843 
26565000    136.91448   -6690.3325   -6338.1283   -6690.3325            0    8257.1393     23.25327    21.131395    21.413217    10521.899    7822.0053    9196.3633    7753.0493   -1718.5273   -155.04689    16.724057   -5071.0612 
26566000    142.67545   -6660.7335   -6293.7096   -6660.7335            0    8134.1357    23.161981    21.195641    21.450785    10530.899    7447.7293    9050.7507    7903.9271    28.534739    1143.8329   -62.332903   -5044.4498 
26567000    132.41883   -6673.0337   -6332.3943   -6673.0337            0    9527.7212    22.967817    21.309507    21.470831     10508.53    10675.008    9636.3435    8271.8121   -186.35452    -152.1049   -1288.2006   -4872.2126 
26568000    132.61447   -6665.0713   -6323.9286   -6665.0713            0    8640.2763    23.056346    21.312751    21.401638     10516.64    8161.3841    8363.4383    9396.0064    327.73987    184.68388   -173.99707   -4998.7313 
26569000    133.99652   -6683.1528   -6338.4549   -6683.1528            0    7868.1255    23.122911    21.213625    21.465352    10529.201    8400.1174    7795.7855    7408.4734   -103.40182    331.09077    120.72529   -5130.2445 
26570000    137.92964   -6671.5175   -6316.7019   -6671.5175            0    8163.3962    23.076428     21.35543    21.402446    10547.276    8038.0402    7875.8664     8576.282   -1321.3657    614.04216   -555.25352   -5060.9985 
26571000    141.08048   -6662.7678   -6299.8469   -6662.7678            0    9276.2513    23.167545    21.107268    21.418718     10473.83    9030.9577    10172.315     8625.481    451.37186   -168.19827   -1.7915976   -4882.8989 
26572000    141.51158   -6638.8402   -6274.8103   -6638.8402            0    9425.3194    23.107977    21.163433    21.469661    10499.612     9817.877    10014.175    8443.9059   -266.20712   -1791.7753   -892.20561   -4831.5482 
26573000    130.19714   -6658.8265   -6323.9023   -6658.8265            0    9560.3685    23.188024    21.154509    21.365861    10480.623    9955.3617    9816.5995    8909.1443    161.56943   -606.78557   -88.958769   -4862.6082 
26574000    140.82362   -6671.3054   -6309.0452   -6671.3054            0    9075.2263    23.099925    21.196847    21.411257    10483.927    9334.3956    9163.4493     8727.834    325.20527   -643.27938   -505.03531   -4921.4674 
26575000    140.42297   -6668.5991   -6307.3696   -6668.5991            0    9639.3957    22.991757    21.331848    21.369487    10480.808    9101.0426    9505.0714    10312.073    700.51238   -514.91642   -711.07059   -4833.9703 
26576000    136.59567   -6665.1641   -6313.7801   -6665.1641            0    8037.2945     23.04861    21.306656    21.432621     10525.32    8091.0404    7726.0169    8294.8261    548.31882   -524.31484    488.05421   -5080.0473 
26577000    136.97672   -6674.7933    -6322.429   -6674.7933            0    8903.2477     23.10879    21.318473    21.346116    10516.039    8121.4093    9777.2067    8811.1271    1071.4564   -384.78263   -411.06767   -4956.9768 
26578000    140.90294   -6651.7187   -6289.2545   -6651.7187            0    9078.4647     23.10346    21.145755    21.563347     10534.56    8800.3004    9178.2643    9256.8295    489.02666   -572.50732    72.272271   -4894.4777 
26579000    134.59273   -6670.8274   -6324.5958   -6670.8274            0    7894.1008    23.278869    21.191529    21.356168    10535.314    6653.5883    8135.3744    8893.3396    270.38937   -282.15176    126.29208   -5111.6928 
26580000    139.42668   -6643.9315   -6285.2649   -6643.9315            0    9047.4041    23.129749    21.248295    21.389106    10512.055     9657.544    7942.8855    9541.7829   -712.64277   -274.08804    684.10848   -4898.2296 
26581000    136.61549   -6671.5985   -6320.1635   -6671.5985            0    7688.9028    22.962775    21.268879    21.561601    10530.523    7416.6585    8866.6593    6783.3907    334.99419    684.54325   -545.89326   -5139.3258 
26582000    135.16769   -6659.1246   -6311.4139   -6659.1246            0    9743.0118    23.039597     21.40894    21.231927    10472.719    9562.0222    9240.1229     10426.89    520.95566   -617.28881    477.06917   -4823.3261 
26583000    137.07918   -6668.0834   -6315.4556   -6668.0834            0    8332.4678    23.097997    21.201542    21.540796    10548.811    8891.4053    8237.2488    7868.7492   -402.24325   -31.110198   -679.18617   -5033.5589 
26584000    137.60734   -6636.5338   -6282.5473   -6636.5338            0    8712.4348    23.208312    21.091074    21.502092     10525.02    8733.6874    9884.3607    7519.2562    177.45106    293.77724   -52.113038    -4945.218 
26585000    131.71879    -6657.207   -6318.3684    -6657.207            0    8121.0674     23.32716    21.171608    21.358523    10548.409    7209.2696    8878.2604     8275.672    28.295325   -336.66043   -112.89104   -5069.0419 
26586000    137.49392   -6675.5041   -6321.8094   -6675.5041            0    7855.9204     22.99404    21.255579     21.55945    10537.216    8414.3256    7768.7673    7384.6682    178.97161   -526.13788    492.42894   -5114.5548 
26587000    130.93059   -6660.0431   -6323.2321   -6660.0431            0    9485.8998    22.991568    21.352188    21.355029    10483.617    10082.285    9112.8417    9262.5728    443.89426   -231.23401   -314.21012   -4872.9064 
26588000     141.1023   -6665.4025   -6302.4255   -6665.4025            0     9660.955    23.089942    21.218225    21.399093    10484.006    10015.642    9280.3741     9686.849   -183.04662    765.73554   -93.530334   -4825.2802 
26589000    130.94897   -6674.8488   -6337.9906   -6674.8488            0    8896.8401    23.074475    21.167693    21.547616    10524.575    8412.9825     9653.354    8624.1838     294.3022     482.4404    479.82659   -4972.4134 
26590000    132.34256   -6661.8254   -6321.3822   -6661.8254            0    7833.5982    23.328038    21.100302    21.438559    10552.673    7953.3847    8684.9643    6862.4456   -38.597216   -174.48486   -538.86966   -5115.7921 
26591000     135.0844   -6677.2895   -6329.7931   -6677.2895            0    8699.2052    23.186481    21.180656    21.396622    10507.985    8316.3072    9344.6256    8436.6829    -571.5339    422.12599    390.86834   -4996.6557 
26592000    140.16888   -6670.8916   -6310.3157   -6670.8916            0    8463.8057    23.045868    21.280759    21.469905    10529.562    8126.5618    7924.7619    9340.0935     260.7363   -230.78757    842.56473   -5010.5894 
26593000    136.12364   -6661.8624   -6311.6926   -6661.8624            0    8638.0355    23.087492    21.368702    21.313158    10514.841     9800.908    7478.0846    8635.1138     716.5438     -1189.95   -696.13706   -4987.0657 
26594000    136.55936   -6653.6263   -6302.3357   -6653.6263            0    9050.7735    23.068056    21.271004    21.417359    10509.085     8695.941    9210.5892    9245.7903   -418.58108    1489.3947   -229.04832   -4915.1759 
26595000    133.39246    -6681.543    -6338.399    -6681.543            0    7455.4691    23.165954    21.315153    21.383816    10559.026    7546.1169       7514.8    7305.4904   -454.49565   -77.827609    -1451.863   -5190.3122 
26596000    148.08714   -6676.9404   -6295.9953   -6676.9404            0    8736.7194    23.177263    21.160523    21.426781    10508.615    8562.8713    7830.0635    9817.2234   -612.77115   -209.44435    198.04043   -4957.0287 
26597000    138.13645   -6668.5192   -6313.1716   -6668.5192            0    8737.0115    23.215133    21.133311    21.428284    10512.987    9598.7288    8184.9538    8427.3518   -265.45146   -738.05452    77.898213   -4973.6032 
26598000    131.85215    -6665.297   -6326.1154    -6665.297            0    9760.7828    23.277746    21.178761    21.215904     10459.31    9488.9551    8808.6892    10984.704   -1075.8869    75.082784   -627.36954   -4837.2221 
26599000    137.61768   -6664.2202   -6310.2071   -6664.2202            0    7822.5128    22.980545    21.282569    21.564478    10546.863    7459.2409     8284.573    7723.7245    -101.1818    62.161428    150.09593   -5106.9859 
26600000    132.29494   -6658.9304   -6318.6097   -6658.9304            0    9995.0992    23.087719    21.281481    21.350753    10490.497    9669.9955    9348.1929    10967.109    466.72603    143.50863    576.31182   -4789.4281 
26601000    133.42843   -6670.3236    -6327.087   -6670.3236            0    8799.4102    23.107309    21.272038    21.358602    10498.598     8260.282    8665.5012    9472.4475   -220.56843    357.79755   -80.150962   -4979.7981 
26602000    134.56291   -6659.1617   -6313.0068   -6659.1617            0     8876.768    23.073689    21.117496    21.588922    10519.387    9054.9824    9695.0527     7880.269    377.98105    -67.40932    -72.50757   -4951.1822 
26603000    138.65803    -6652.813   -6296.1237    -6652.813            0    8577.7899    23.276346    21.229048     21.34793    10548.752    8467.8105    8001.1672    9264.3922    933.19701    73.100035   -54.452189   -4976.4931 
26604000      132.909   -6652.5358   -6310.6355   -6652.5358            0    7755.1985    23.114606    21.282894    21.461371    10557.829    6887.0235    8272.4431     8106.129    1195.5465    261.12447    638.71474    -5116.528 
26605000    134.34137   -6647.8837   -6302.2987   -6647.8837            0      8138.69    23.015726    21.370715    21.465566    10558.107     9035.306    7329.0201     8051.744   -982.89241   -11.440521   -1512.4468     -5049.11 
26606000     128.6656   -6646.4858   -6315.5014   -6646.4858            0    9414.2478    23.060504    21.269452    21.403146    10497.907    9610.5418     8925.022    9707.1795   -184.97254   -212.58114    964.21542   -4874.1688 
26607000    130.80614   -6652.2217   -6315.7309   -6652.2217            0    9344.0665    23.223049    21.136415    21.389588    10499.122    8546.8027    9444.2767     10041.12   -38.238171   -597.16161   -538.47589   -4884.9775 
26608000    136.66909   -6664.1157   -6312.5428   -6664.1157            0    8931.5089    23.049894    21.134643    21.601186    10523.045    9373.1002    9270.8412    8150.5853    1761.3723   -509.85739   -287.63324   -4941.8436 
26609000    130.98278    -6652.563   -6315.6178    -6652.563            0    8221.8729     23.08244    21.284254    21.390517    10509.001    7996.9009    7990.2359     8678.482    337.03924    -145.9075    643.43488   -5055.5088 
26610000    135.47649   -6668.9148   -6320.4098   -6668.9148            0     9001.753    23.145258    21.231978    21.356346    10494.927    9078.0302    9332.5004    8594.7283    963.58597   -1075.5889   -940.95721   -4942.6218 
26611000    139.15254   -6665.1489   -6307.1875   -6665.1489            0    9006.7982    22.985978    21.316383    21.444309    10507.238    9079.4296    8349.3954    9591.5697    241.06708   -27.769084    296.97399   -4927.0102 
26612000     141.2103   -6664.0603   -6300.8054   -6664.0603            0    9416.6678    23.121699     21.22235    21.315235    10459.317    9381.6224    9319.4236    9548.9575   -970.29346    456.37701    188.47516   -4864.4018 
26613000    138.46984   -6668.4646   -6312.2593   -6668.4646            0    8239.8063    23.183084    21.236689    21.416143    10543.851    7822.3863    7967.6143    8929.4181   -457.11669   -834.37566    18.239427    -5045.214 
26614000    140.47557   -6667.4644   -6306.0996   -6667.4644            0      7398.86    23.141535    21.184798    21.548993    10564.367    7626.4533    7447.3188    7122.8079    521.90426    691.96277   -31.315111   -5166.1539 
26615000    136.18455   -6640.4717   -6290.1453   -6640.4717            0     10491.31    23.042277    21.251311      21.2938    10427.118    10620.704    9697.3734    11155.852   -764.35999    1000.0051     230.6232   -4694.7442 
26616000    133.91143   -6676.3134   -6331.8344   -6676.3134            0    8805.1277    23.041343    21.293667    21.377532    10488.558    9544.3496    8298.4583    8572.5751    395.87195   -217.48651    -889.8668   -4984.9593 
26617000    131.28038   -6688.9475   -6351.2367   -6688.9475            0    8748.2518    23.091496    21.174156    21.522408     10523.23    8532.2405    9138.3236    8574.1913     464.7599    268.84147   -336.17337    -5008.638 
26618000    135.46401    -6678.654   -6330.1811    -6678.654            0    7568.7644    23.090078    21.354798    21.364601    10534.542    7228.5551    7362.6425    8115.0956   -568.59945   -247.65124       799.75   -5167.3503 
26619000    133.76219   -6664.5519   -6320.4568   -6664.5519            0    7998.6101    23.196016    21.209367    21.446512    10551.101    7204.8301    9015.5373     7775.463    345.64015   -50.369433   -1736.3466   -5089.6547 
26620000    136.02904   -6670.5712   -6320.6448   -6670.5712            0    7902.2782    23.069646    21.276287     21.50778    10556.802    8483.2709    7817.3144    7406.2492   -190.46001    211.88486     362.3526    -5104.009 
26621000    138.40545   -6668.8173   -6312.7777   -6668.8173            0     8875.879    23.124508    21.199271    21.430321     10505.63    8654.8845    9375.9911    8596.7614    -240.6778    667.20397   -496.04549   -4952.8702 
26622000    138.27255   -6638.1396   -6282.4419   -6638.1396            0    9755.2978    23.071509    21.243936    21.391701    10484.707    9685.4128    9736.6106    9843.8701   -678.66358   -1103.3463    174.52636    -4790.772 
26623000    135.89472   -6671.5664   -6321.9855   -6671.5664            0    7015.1386    23.244529     21.19599    21.436981    10561.803    6651.1435    7243.8862     7150.386    486.84949   -1.0714331   -317.33981   -5241.4222 
26624000    139.30458   -6657.5986    -6299.246   -6657.5986            0    10274.806    23.049517    21.227343     21.39377    10467.544     9842.612    10915.544    10066.261    421.76414   -359.10617    696.08867   -4730.7107 
26625000    133.83949   -6646.5516   -6302.2577   -6646.5516            0    7366.2481    23.070618    21.285321    21.538045    10576.591    7840.8325    7530.7756    6727.1362   -507.95329   -563.47724   -225.77071   -5166.0232 
26626000    137.72921    -6661.281    -6306.981    -6661.281            0    10063.263    23.109166    21.174451    21.392619     10467.92    10028.751    10074.129    10086.908    251.75704   -221.71546   -104.63105   -4770.6844 
26627000     134.7159   -6660.3143   -6313.7658   -6660.3143            0    8989.5241    23.197541    21.214803    21.339236    10501.705    8424.0698    9796.2302    8748.2722   -678.65231    150.57188     250.9167   -4936.9609 
26628000    137.18034   -6663.6441   -6310.7561   -6663.6441            0    8494.0688    23.154516    21.190441    21.426318    10512.917    8532.4102    9130.4003    7819.3958    95.699223   -763.64619   -841.60867   -5008.4445 
26629000    140.04397   -6640.3771   -6280.1225   -6640.3771            0    9525.7072    22.980895     21.22844    21.466703      10472.5    10119.811     8749.601      9707.71    75.321163   -124.65403    843.24575   -4825.2549 
26630000    129.67231   -6666.5196   -6332.9455   -6666.5196            0    8979.3946    23.181786    21.303142    21.222777     10480.76    9275.9821    7317.1074    10345.094   -53.935105   -112.68695    210.98158   -4960.4349 
26631000    130.13172   -6660.8896   -6326.1337   -6660.8896            0    10076.028     22.99034    21.166135      21.5126    10468.389    9411.2084    10541.886    10274.991    206.87909    49.789598   -79.318788   -4787.8192 
26632000    135.91753   -6645.2126    -6295.573   -6645.2126            0    8114.4104    23.179468    21.157463    21.484146    10536.228    8119.8179     7844.012    8379.4013   -356.66781    494.25563    83.343258   -5048.7121 
26633000    138.30657    -6658.718   -6302.9328    -6658.718            0    8674.0486    23.249121    21.183569    21.330464     10505.24    7732.5848    9673.6274    8615.9336   -752.90958   -789.41584   -356.30968   -4973.9978 
26634000    132.34003   -6676.2206    -6335.784   -6676.2206            0    8199.2049    23.065416    21.243835    21.514199    10541.912    8963.6341    7180.0955     8453.885   -406.83849    475.93011    965.57888   -5075.2138 
26635000    130.65116   -6671.5713   -6335.4792   -6671.5713            0     8013.578    23.009311    21.339126    21.490856     10551.98    7629.4217    9134.9328    7276.3796    817.78358   -361.98355   -83.228148   -5102.2712 
26636000    139.66298   -6656.0209   -6296.7464   -6656.0209            0    8152.3218    23.094126    21.378136    21.352092    10541.728     8538.205    7520.2259    8398.5345    742.57725   -405.22339   -473.88297   -5043.4061 
26637000    137.83794   -6666.8087    -6312.229   -6666.8087            0    8261.9982    23.031849    21.290825    21.421371    10504.335    8952.2288    7133.7507    8700.0151   -357.97705   -785.94563    339.28393   -5046.5327 
26638000     130.7076   -6654.4497   -6318.2123   -6654.4497            0     9845.381    23.059256     21.14284    21.439898    10452.768    9735.4832    10934.538    8866.1221    362.85103    58.978725   -639.58741   -4817.3538 
26639000    135.74205     -6669.14   -6319.9518     -6669.14            0    9124.0227    23.203053    21.113965     21.42051    10494.089    7938.0059    10498.335    8935.7277   -68.685531     278.2532   -104.95343    -4923.561 
26640000      134.786   -6659.5163   -6312.7875   -6659.5163            0    8469.7901    23.243525    21.165681    21.389662    10522.966    8450.4711    8494.8602     8464.039   -92.792044   -705.32229   -190.93394   -5012.9571 
26641000     133.4127    -6670.616     -6327.42    -6670.616            0     7815.141    23.059278    21.194623    21.589145    10551.321    7122.6123    8449.6111    7873.1995    1281.4746    8.5497257    89.086623   -5124.8245 
26642000    136.21864   -6660.6688   -6310.2547   -6660.6688            0     8238.533    23.086339    21.361052    21.337719    10522.664    8628.0246    7579.9073    8507.6671   -189.86965   -587.74149   -613.56543   -5045.9508 
26643000    136.09929    -6665.455   -6315.3479    -6665.455            0     8059.939    23.150972    21.319446    21.381984    10553.418     7439.166    8024.2255    8716.4255   -105.51282    494.70629     362.8043   -5074.8364 
26644000     132.3959   -6658.0097   -6317.4294   -6658.0097            0    8094.5537    23.141886    21.187687     21.51548    10549.535    7709.1162     8182.968    8391.5768   -70.171037    92.318843    753.52664   -5072.0487 
26645000    136.01233   -6644.0061   -6294.1227   -6644.0061            0    8836.3003    23.303412     21.13854    21.380664    10532.117    8593.3824    9544.3428    8371.1758   -287.45816   -1255.6975   -785.28786   -4936.8658 
26646000    133.42841   -6663.4879   -6320.2514   -6663.4879            0    8346.6246     23.21416    21.189238    21.410153    10531.447    7616.5093    8930.2895     8493.075   -303.24299    423.90566    620.93295   -5038.2904 
26647000    134.95966   -6680.8654   -6333.6899   -6680.8654            0    6980.9274    23.087855    21.332868    21.482116     10580.59    7487.6494    7161.8501    6293.2828    -604.2755     195.9003   -511.82681   -5256.4835 
26648000    133.22729   -6669.3064   -6326.5873   -6669.3064            0    8405.0824    23.066397    21.286979    21.389817    10502.698    8247.9159    8520.3354    8446.9959    71.567351   -2.3969369    210.79062   -5039.1718 
26649000    137.57302   -6642.7043   -6288.8061   -6642.7043            0    9387.4383    22.937156    21.248087     21.55147    10503.555    9357.2481    10117.493    8687.5736    1101.6187   -427.25082    656.15187   -4850.8047 
26650000    131.24958   -6650.4149   -6312.7833   -6650.4149            0     10182.74    23.183925    21.206481    21.287621    10466.047    10288.266    10159.571    10100.382    632.25986    287.24027    383.62985    -4758.525 
26651000    139.78796   -6664.1223   -6304.5263   -6664.1223            0    7295.6272    23.182187    21.204734    21.477831    10557.903    7600.8172    7364.2046    6921.8597   -1.4533063    358.56763    766.24383   -5181.1735 
26652000    133.99247    -6666.413   -6321.7255    -6666.413            0    9393.0393    22.978656    21.188351    21.548678    10491.617     10314.69     8894.687    8969.7406    109.73488     217.0133    733.34964   -4884.5015 
26653000    137.87248   -6645.9967   -6291.3281   -6645.9967            0    8717.2439    23.143075    21.276145    21.335421    10505.464    9112.3046    8318.9923    8720.4348   -243.58699    425.42715   -146.58207   -4955.7468 
26654000    134.06792    -6653.821   -6308.9394    -6653.821            0    9569.8082    22.911485    21.278103    21.526946    10494.665    10005.638    10251.599    8452.1877   -515.49959    766.62332    691.17796   -4844.2428 
26655000    128.95749   -6661.9811   -6330.2458   -6661.9811            0    7736.3043    23.220218    21.252253    21.367817    10544.632    6878.6553    7365.4931    8964.7646    1090.3483    977.12037    39.469746   -5140.5365 
26656000    128.54433   -6671.7442   -6341.0718   -6671.7442            0    8799.9251    23.100226    21.282559    21.372389    10507.349    9130.6054    8025.7565    9243.4136    294.67225   -1076.7951   -370.86541   -4992.5809 
26657000    138.89578   -6678.8246   -6321.5237   -6678.8246            0    8779.9768    23.103794    21.079369    21.567215    10503.523    9142.9134    9425.0131     7772.004   -18.056388    977.08344   -190.30602   -4976.5795 
26658000    140.29287   -6687.4479   -6326.5531   -6687.4479            0    7708.9733    23.147523    21.279512    21.419269    10550.446    8721.3988    6473.9393    7931.5818   -760.81301    -489.6245    222.07272   -5140.3931 
26659000    134.08997   -6652.9551   -6308.0168   -6652.9551            0    8603.0349    23.112145    21.312791    21.352573    10517.943    8967.6973     8059.826    8781.5815    374.47418    252.29657   -442.84938    -4988.368 
26660000    135.57036   -6661.6496   -6312.9031   -6661.6496            0    9083.0184     23.02691    21.226377    21.449438     10484.01    10089.509    8737.6696    8421.8767   -253.01168   -47.245396   -128.80778   -4924.1229 
26661000    131.28766   -6665.0707   -6327.3411   -6665.0707            0    8814.2616     23.11248    21.269693    21.353887    10497.471    8572.9588    8793.6402    9076.1857   -185.70625    318.70867    112.50399   -4977.9231 
26662000    133.39607   -6653.5552   -6310.4019   -6653.5552            0     8291.473    23.326722    21.028857    21.441951    10518.013     7657.881    8989.3525    8227.1856    215.68908    422.54539   -325.91443   -5038.5362 
26663000    135.13887   -6658.6766   -6311.0401   -6658.6766            0    9419.2824    23.106676    21.096997    21.520999    10491.088    8950.9814    10666.702     8640.164   -380.52311    509.74614   -580.66719   -4869.8733 
26664000    132.86649   -6667.2171   -6325.4261   -6667.2171            0    8572.9514    23.090202      21.2637    21.406505    10510.233    8969.6407    7937.4344     8811.779    -155.6836    956.90795    60.442647   -5011.3559 
26665000    133.59612   -6659.1887   -6315.5208   -6659.1887            0    7768.8741     23.06982    21.346242     21.42416    10550.413    7766.4778    7803.1036    7737.0408    49.688644    561.98813    156.95534   -5120.1479 
26666000    135.49374    -6640.095   -6291.5456    -6640.095            0    9108.1336    22.906158    21.450645    21.353109     10491.89    10280.716    8467.6833    8576.0019    152.81086    477.57406   -286.07589   -4897.8786 
26667000    132.56035    -6659.407   -6318.4036    -6659.407            0    8395.5156     23.02934    21.351912    21.425733    10535.471    8881.9108    7079.8756    9224.7603   -676.05123    364.62119    291.74558   -5028.4407 
26668000    136.69044    -6648.189   -6296.5612    -6648.189            0    8428.0099    23.142011     21.26158    21.396292     10527.74    8291.6655    7966.4048    9025.9594    50.152037   -232.14745   -603.51859   -5002.5558 
26669000    136.95849   -6632.5402   -6280.2228   -6632.5402            0    10249.653    23.237056    20.978149    21.513291    10487.093    10857.795    9921.1591    9970.0041   -708.48757   -1016.7699    -287.6363   -4712.6051 
26670000    132.13534   -6662.8324   -6322.9223   -6662.8324            0    7386.3743    23.256962    21.099324    21.554001    10576.681    7020.6824    7910.8191    7227.6215    66.968364   -581.60095    660.99505   -5183.5737 
26671000    135.09955    -6662.548   -6315.0126    -6662.548            0    8028.9061    23.177683    21.270742    21.376757    10538.881    6620.5508      7553.02    9913.1475     434.2817    187.13713    127.34296   -5080.9797 
26672000    137.66419   -6658.6203   -6304.4876   -6658.6203            0    9858.3921    23.014904    21.238535    21.441414    10480.624    10228.406    9986.3419    9360.4286   -365.89018     565.2688   -628.53204   -4797.6406 
26673000    129.09243   -6653.8663   -6321.7839   -6653.8663            0    8849.7414    22.917493    21.412912    21.411829    10507.433     9893.973    8050.9522     8604.299    167.49322   -277.76858    331.45914   -4965.6485 
26674000     131.5873   -6667.2452   -6328.7449   -6667.2452            0    8487.4733    23.091851    21.320008    21.381085    10526.302    8275.2789    7923.4759    9263.6651    40.034595    67.513563    441.71667   -5025.7877 
26675000    132.27647   -6644.8079   -6304.5348   -6644.8079            0    8820.8235    23.079838    21.230897     21.45584    10513.483    9085.0107      9263.33      8114.13   -616.50133   -581.19049   -945.31263   -4952.0523 
26676000     133.8352   -6672.5518   -6328.2689   -6672.5518            0     8217.103    23.211478    21.047175    21.548773    10527.352     8879.309    8337.4962    7434.5037   -694.23978    241.73378   -31.219856   -5066.6919 
26677000    139.75471   -6649.8676   -6290.3571   -6649.8676            0    8839.4851    23.243912    21.146778    21.405595    10521.574    8714.1557    8758.8341    9045.4654     390.0169   -821.21391   -57.151518   -4933.9702 
26678000    137.46265   -6664.2474   -6310.6331   -6664.2474            0    7676.1637    23.075399    21.333054    21.470521    10569.266    7325.3515    8428.3763    7274.7635    950.97037   -749.60351    67.688401   -5127.4146 
26679000    135.52366   -6649.8121   -6301.1858   -6649.8121            0    10469.518    22.834373    21.331322    21.492833    10468.887    12267.527    9411.8132     9729.215      726.162   -368.58646   -622.09937   -4702.7208 
26680000    133.78812   -6657.1862   -6313.0245   -6657.1862            0    7482.1831    23.031223    21.433743    21.363744    10546.112     8491.358    5411.9852    8543.2062   -209.15938   -1162.2079    634.22425   -5162.2331 
26681000     133.6108   -6657.5756     -6313.87   -6657.5756            0    9437.0034    23.049698    21.264797    21.409949    10494.026    9988.7407    9185.0524     9137.217   -277.78679     185.7532   -893.52101   -4869.5876 
26682000    130.43686   -6636.7096   -6301.1688   -6636.7096            0     8644.151    23.194673     21.16235    21.441847    10524.812    8787.5036    8921.0465     8223.903   -85.465472   -880.79456    170.42051    -4974.347 
26683000    132.68053   -6662.9487   -6321.6361   -6662.9487            0    9580.8757    23.234034    21.143947    21.337635    10482.309    9489.9632     9771.936    9480.7278    39.354886     86.68326   -826.03727   -4856.9719 
26684000    132.83442   -6667.5291   -6325.8206   -6667.5291            0    8573.9009    23.172264    21.161515     21.44361    10515.093    8566.7524    8538.9827    8615.9676   -700.79375    420.76653   -531.98289   -5010.9971 
26685000      137.347   -6654.4983   -6301.1815   -6654.4983            0    9000.1098    22.943986    21.264178    21.565604    10521.535    10047.009    7983.4769    8969.8437   -23.866575    -980.1277    849.47637   -4920.1525 
26686000    142.39044    -6665.632   -6299.3412    -6665.632            0     8332.951    23.131473     21.36912    21.292064    10524.651     8288.535    8683.1414    8027.1766    425.12737    407.90055   -1013.4174   -5020.3063 
26687000    133.34264   -6674.1825   -6331.1667   -6674.1825            0    8988.8863    22.960219    21.269785    21.532418    10515.548    9689.7943    9635.7769    7641.0877   -562.35537    764.74504   -304.83448   -4952.6447 
26688000    140.79083   -6658.7151   -6296.5393   -6658.7151            0     8668.385    23.117424    21.202315    21.471662    10524.183    8110.5217    8959.2622    8935.3712    830.71018   -536.61193    283.11702   -4966.0774 
26689000    130.56247   -6677.4872   -6341.6232   -6677.4872            0    7012.2097      23.3007    21.189093    21.381213    10556.348    6336.4195    7295.3611    7404.8485   -189.44391    277.57265   -46.259363    -5262.069 
26690000    136.86015   -6632.7157   -6280.6514   -6632.7157            0    8986.7781    23.125312    21.198863    21.465376    10522.978    8943.3217    8809.8158    9207.1968   -1240.7565    1067.0962      476.608   -4901.4789 
26691000    138.49561   -6655.3647   -6299.0932   -6655.3647            0    8619.9983    23.093336    21.188761    21.538566    10539.234    9363.3663    8834.0471    7662.5816   -170.95835    966.11466   -712.32343   -4974.1657 
26692000    138.82599   -6665.9577   -6308.8363   -6665.9577            0    7846.6721    23.053283    21.298224    21.501454    10557.084    7602.6273    7684.2131    8253.1759    1157.7094    -320.1057    372.58592   -5100.7293 
26693000    131.44832   -6658.1379   -6319.9951   -6658.1379            0    8868.1914    23.107312    21.249221    21.415435    10515.244    9947.9874    8597.2483    8059.3384   -260.79145    160.92439   -308.37924    -4960.022 
26694000    135.36734   -6660.7231   -6312.4988   -6660.7231            0    7565.4946    23.023788    21.287561    21.513033    10543.974    7648.3358    7629.2092    7418.9387   -1224.4276    431.12424    345.04292   -5149.1297 
26695000    139.79382   -6659.0235   -6299.4124   -6659.0235            0    8933.7687    23.185067    21.248156    21.290782    10488.689     7953.846    9230.9294    9616.5306    207.60897   -124.32468   -220.06902   -4932.8427 
26696000    137.45366   -6673.4412     -6319.85   -6673.4412            0    8446.1877    23.077578    21.169448    21.538373    10522.348    9263.0412    8129.0139    7946.5079    447.26424   -735.21345    560.33443   -5023.7179 
26697000    138.03623   -6665.9241   -6310.8343   -6665.9241            0     7919.911    23.201298    21.174817    21.482701    10554.091     7695.901    8496.2878     7567.544   -653.38117   -182.61295   -602.89118   -5091.7969 
26698000    138.01631   -6647.6763   -6292.6378   -6647.6763            0    9911.0902    23.218912    21.118631    21.355363    10471.637    9345.1213    10061.752    10326.398   -1043.9473    623.48712   -273.38149    -4779.035 
26699000    136.00424   -6650.4468   -6300.5842   -6650.4468            0    8640.8573      23.0982    21.228908    21.415557    10501.109     9211.694    8358.9097    8351.9683     374.3322   -461.04876    376.03531   -4977.2551 
26700000    130.66777   -6653.5015   -6317.3666   -6653.5015            0    9263.2576    22.976283    21.307274    21.449449    10500.834    10440.631    7931.3111     9417.831    1245.3734   -393.54876    852.93395   -4898.7553 
26701000    136.77866   -6661.7602   -6309.9054   -6661.7602            0    8209.4094    22.992243    21.384954    21.421968    10532.926    7610.2895    9690.8063    7327.1326    1044.2326    1603.3615   -750.83624   -5048.8423 
26702000    134.76934   -6657.9056   -6311.2197   -6657.9056            0    9332.2844    23.025257    21.260164    21.427784    10489.345    9040.3742    9107.9954    9848.4837   -153.01349    292.84148    910.23691    -4883.601 
26703000    125.33912   -6659.1392    -6336.712   -6659.1392            0    9677.7617    23.116034    21.120932    21.497792    10495.914    10163.429    9966.3786    8903.4776    246.33331   -893.01066   -469.84161   -4855.3163 
26704000    137.13468   -6671.4926    -6318.722   -6671.4926            0    8146.3517    23.261066    21.153161    21.411643    10535.493    7478.4815    7767.2576     9193.316   -640.89809    272.12499    1169.5154   -5067.0402 
26705000    133.56358   -6665.8049   -6322.2207   -6665.8049            0    8939.4215    23.149248    21.180749    21.415558    10500.443    8964.3353    8627.1142     9226.815   -453.24522    161.12313   -36.349913   -4953.2539 
26706000    137.63396   -6682.3005   -6328.2456   -6682.3005            0    9109.0794    23.037385     21.21649    21.446999    10482.702    9286.9378    9025.4408    9014.8595   -433.12954    545.33183    733.76976   -4935.6545 
26707000    127.37697   -6656.0079   -6328.3384   -6656.0079            0    9038.3285    23.049187    21.388231     21.29644    10498.748    9608.4151    7544.1453    9962.4251     1236.986    501.68322    429.52208   -4944.4486 
26708000    143.01114   -6685.7312   -6317.8438   -6685.7312            0    7463.6295     23.09177    21.322656    21.477424    10575.009    7356.8294    7017.4774    8016.5819    519.65075   -370.13596    1275.5466   -5166.7606 
26709000    137.30397   -6655.1062   -6301.9001   -6655.1062            0     8766.602    23.188639    21.115821    21.495626    10525.272    8182.1259    9799.5427    8318.1374    805.50704    483.50112    576.60778   -4956.2241 
26710000    135.66283   -6661.3395   -6312.3552   -6661.3395            0    9222.4499    23.249493    21.196764     21.33366    10513.526    9056.5117    9651.4033    8959.4348   -418.48601   -92.497069   -461.68494   -4898.2862 
26711000    139.26257    -6662.497   -6304.2525    -6662.497            0    8547.5771    23.068692    21.217365    21.503584    10525.077    8153.0401    9549.4765    7940.2146    392.44779    130.12756     430.0221   -4992.2213 
26712000    128.38093   -6652.7598   -6322.5077   -6652.7598            0    7522.6036     23.12069    21.337935    21.390665    10553.037    7177.0555     7834.838    7555.9171    90.013703    271.93126   -443.33481   -5164.7397 
26713000    136.24674   -6658.5236   -6308.0371   -6658.5236            0    9005.4503    22.976513    21.430468    21.341065    10508.286    10301.914    7333.2284    9381.2085    -1629.595    369.17221    94.211844   -4927.9288 
26714000    135.95743   -6657.5544   -6307.8122   -6657.5544            0    9854.3965    23.102153    21.190349    21.372627    10462.813    8995.5974    11506.129    9061.4629   -134.38839   -86.176299   -888.35433   -4804.1357 
26715000    128.30028   -6660.3579   -6330.3132   -6660.3579            0    9075.3256    23.160657    21.196204    21.359344    10485.686    9540.1318    8135.4333    9550.4116   -71.304337    49.698338    329.49825   -4942.4874 
26716000    132.77148   -6661.9044   -6320.3579   -6661.9044            0    8607.5627    23.211616    21.103026    21.516864     10539.72    8854.0344    8759.9248     8208.729    -1300.634    -98.49956   -1165.8569   -4997.2807 
26717000    128.82791   -6647.8983   -6316.4963   -6647.8983            0    9370.1044    23.164236    21.175392    21.406737    10500.257    8604.5655    9713.9606    9791.7872    1158.4147   -540.68199    366.44477    -4881.601 
26718000     134.3239   -6650.1066   -6304.5665   -6650.1066            0    7840.0149    23.142317    21.290781    21.411074    10549.622    8072.1163    7259.7458    8188.1826    1705.3426   -616.97835    134.48719   -5098.3378 
26719000    133.72188   -6663.5435   -6319.5521   -6663.5435            0     8473.897    22.969359    21.353962    21.480905    10536.101    8999.8802    7762.6335    8659.1772   -1085.4089    1335.3552   -617.79763   -5017.4682 
26720000     131.3213   -6671.2699   -6333.4538   -6671.2699            0    8344.1358    23.036863    21.333584    21.363263    10499.165    9466.7974    6946.0312    8619.5788   -123.19135    54.216474    329.41594   -5055.8035 
26721000    132.78097   -6666.0609     -6324.49   -6666.0609            0    8870.6809    23.121469    21.259613    21.397521    10518.026    9576.1244    8737.1195    8298.7989    571.66766   -339.60685   -100.52952   -4963.7752 
26722000    137.21792   -6680.1529   -6327.1682   -6680.1529            0    7954.2278    23.257235    21.118774    21.423158     10522.29    7207.5651    7582.7785    9072.3399   -531.62497   -560.11733    1049.0603   -5106.5378 
26723000    137.48251   -6672.0137   -6318.3483   -6672.0137            0    9421.2334    23.243852    21.005779    21.487055    10491.167    9803.2144    9762.6134    8697.8726   -2200.0273   -486.00158   -800.69118   -4876.8722 
26724000    139.56973   -6655.2349   -6296.2002   -6655.2349            0    8365.3739    23.219163    21.201005    21.386571    10527.958    7756.3905    8409.4815    8930.2497    290.41238   -196.26098    721.15714   -5011.7851 
26725000    130.72668   -6660.5303   -6324.2439   -6660.5303            0    8316.2292    23.110252    21.276499    21.436883    10540.628    8085.0083    7881.7352     8981.944    459.30597   -154.62546   -746.61725   -5045.8378 
26726000    138.45653    -6669.933    -6313.762    -6669.933            0    8764.7229    23.027084    21.283315    21.482639    10528.484    8849.5455    8326.4521     9118.171   -262.75358    413.48668   -1219.3471   -4967.9638 
26727000    142.13775   -6643.5102   -6277.8694   -6643.5102            0    9475.9051    23.070903     21.28976    21.335057    10479.225    11005.437    8723.9532    8698.3253   -229.65383   -593.52013   -998.26882   -4829.6787 
26728000    144.18523   -6658.3508    -6287.443   -6658.3508            0     9377.879    22.988259      21.2672    21.501786    10512.135    8980.1979    9596.9892      9556.45    73.935136    599.21428    54.795534   -4849.7325 
26729000    137.29239   -6660.2771   -6307.1008   -6660.2771            0    8018.4644    23.104141    21.272806      21.4636    10549.143    8234.7513    7759.1195    8061.5224   -1057.5385    608.04608    208.00138   -5073.4727 
26730000    138.66861   -6647.2762   -6290.5597   -6647.2762            0    9371.2511    23.183836    21.186776     21.35889    10491.289    9362.8151    9465.4319    9285.5065   -777.48583    445.71787   -383.67344   -4856.7143 
26731000    140.97533   -6654.0664    -6291.416   -6654.0664            0    8949.7302    23.056197    21.269452    21.428307    10508.285    10170.169    9087.6176    7591.4043   -12.965603   -1447.0294   -463.70686   -4919.8469 
26732000    139.09885   -6665.2919   -6307.4686   -6665.2919            0     8514.568    23.109534    21.226316    21.445516    10519.675     7639.823    8799.3156    9104.5655    1357.7966     547.0981     867.1549   -5001.1749 
26733000    135.60955   -6669.1306   -6320.2833   -6669.1306            0    8103.1456    23.114226    21.197109    21.480586    10524.515    8540.4071     8635.078    7133.9518    20.104559   -255.03649   -138.33379   -5076.5374 
26734000    139.11291   -6666.6157   -6308.7562   -6666.6157            0    9204.1803     23.08408    21.214179    21.423495    10491.296    8794.5751    10263.379    8554.5869    173.11311   -947.17698   -836.94679   -4900.4726 
26735000    133.66083   -6657.9998   -6314.1654   -6657.9998            0    8575.3287     23.24167    21.102164    21.413992    10502.482    8547.1198    8177.6013    9001.2649    862.67022    514.24643      1029.57      -5000.7 
26736000    130.66401   -6657.8531   -6321.7279   -6657.8531            0    7942.9958    23.122722    21.265863    21.453404    10549.167     7550.475    8621.7977    7656.7148   -548.56856   -165.18319   -605.84446   -5099.7077 
26737000    140.00631   -6678.0496   -6317.8919   -6678.0496            0    9010.9677    23.121934     21.16447     21.41087    10477.697    8834.2992    9506.2843    8692.3196    551.69935    929.10543   -2.6599645   -4940.9577 
26738000      137.394   -6648.5254   -6295.0877   -6648.5254            0    8905.4787    23.000367    21.367331    21.412073    10523.101     8858.067    8059.8086    9798.5604    1077.6646   -28.372154    383.52318   -4928.3761 
26739000     133.8097   -6660.0093    -6315.792   -6660.0093            0    8015.8513    23.034301    21.322343    21.450027    10535.079    7887.1209    7458.8444    8701.5886    929.67216   -192.77953    308.40143     -5084.21 
26740000    136.59501   -6654.3251   -6302.9428   -6654.3251            0    8658.9046    23.118146     21.24051    21.394213     10505.44    9428.9919     8575.495    7972.2268   -616.31106    414.72584    1052.4898   -4976.3028 
26741000    136.05057   -6665.7614   -6315.7796   -6665.7614            0    9994.0874    23.133882    21.152741    21.390478    10467.324    10056.227    10668.607     9257.428   -339.37539   -1050.1944   -1005.4602   -4790.1304 
26742000    134.02715   -6659.7155   -6314.9388   -6659.7155            0    9084.5485    23.245545    21.050865    21.429718    10486.393     8620.168    8576.7617    10056.716   -501.21779    149.84956     879.9147   -4925.6089 
26743000    135.99811   -6653.1329   -6303.2861   -6653.1329            0    9252.4268    23.069154    21.226302    21.423018     10490.27    9745.3893    10178.464    7833.4269    87.981811   -548.93759   -1157.7345   -4887.7589 
26744000    134.17573   -6659.6159    -6314.457   -6659.6159            0    8777.2317    23.100363    21.312014    21.331525    10501.835    8869.0394     8127.218    9335.4378    1650.5813    712.75114   -134.02534   -4970.1494 
26745000    137.39838   -6636.8239   -6283.3749   -6636.8239            0    9621.9635    22.947179    21.301001    21.486058     10502.34    9736.4789    9913.8448    9215.5666   -1033.4281    29.435624    916.37825   -4809.6187 
26746000    137.49135   -6678.8789   -6325.1908   -6678.8789            0    7989.2834    23.180254    21.255331    21.390208    10539.041    7790.8642    7882.9763    8294.0097    311.45778    128.21302   -245.40799   -5097.2292 
26747000    135.67634   -6661.1447   -6312.1255   -6661.1447            0    8102.8162    23.380444    21.090943    21.374335    10540.018    7121.3275    8809.9532    8377.1678    544.47878    36.735111    523.69609   -5066.5983 
26748000    136.61984   -6658.1599   -6306.7137   -6658.1599            0    8210.5473    23.180089    21.152765    21.491042    10537.551    7779.0654    8699.9958    8152.5809   -227.39109    574.60934     130.1672   -5044.9219 
26749000    136.16833   -6662.6796   -6312.3948   -6662.6796            0    9911.2401    23.055355    21.233333    21.394223    10473.371    10121.097    9228.9068    10383.716   -987.84128    578.13771     225.4736   -4798.5186 
26750000    140.52922   -6640.3438   -6278.8409   -6640.3438            0    8328.9606    22.893385    21.418562    21.450012    10517.872    7950.0267    7745.9913    9290.8637    561.87941    397.06353    1159.6912   -5001.2419 
Loop time of 526.203 on 64 procs for 250000 steps with 1296 atoms

Performance: 82.098 ns/day, 0.292 hours/ns, 475.102 timesteps/s
99.1% CPU use with 64 MPI tasks x 1 OpenMP threads

MPI task timing breakdown:
Section |  min time  |  avg time  |  max time  |%varavg| %total
---------------------------------------------------------------
Pair    | 30.417     | 41.544     | 52.698     | 109.2 |  7.90
Bond    | 0.27877    | 0.2877     | 0.29904    |   0.8 |  0.05
Kspace  | 265.84     | 276.73     | 287.66     |  42.5 | 52.59
Neigh   | 1.9371     | 1.9603     | 1.9908     |   1.0 |  0.37
Comm    | 90.538     | 91.911     | 94.065     |  10.7 | 17.47
Output  | 0.54448    | 0.54559    | 0.54819    |   0.1 |  0.10
Modify  | 101.94     | 103.99     | 105.01     |   8.5 | 19.76
Other   |            | 9.236      |            |       |  1.76

Nlocal:        20.2500 ave          27 max          14 min
Histogram: 7 4 9 5 8 3 16 5 3 4
Nghost:        2651.02 ave        2671 max        2626 min
Histogram: 2 1 5 5 11 8 17 6 4 5
Neighs:        6636.48 ave        8870 max        4540 min
Histogram: 4 7 9 4 9 3 13 8 3 4

Total # of neighbors = 424735
Ave neighs/atom = 327.72762
Ave special neighs/atom = 2.0000000
Neighbor list builds = 3523
Dangerous builds = 0

unfix		3
unfix		2
unfix		1

write_data	data.final.${pid}
write_data	data.final.0
System init for write_data ...
PPPM initialization ...
  extracting TIP4P info from pair style
  using 12-bit tables for long-range coulomb (../kspace.cpp:340)
  G vector (1/distance) = 0.37167562
  grid = 30 40 32
  stencil order = 5
  estimated absolute RMS force accuracy = 0.0036397554
  estimated relative force accuracy = 1.0961015e-05
  using double precision FFTW3
  3d grid and FFT values/proc = 5168 640
Last active /omp style is kspace_style pppm/tip4p/omp
WARNING: Not all mixed pair coeffs generated from mixing. Use write_data with 'pair ij' option to store all pair coeffs. (../write_data.cpp:312)

write_restart   restart.lmp.${pid}
write_restart   restart.lmp.0
System init for write_restart ...
PPPM initialization ...
  extracting TIP4P info from pair style
  using 12-bit tables for long-range coulomb (../kspace.cpp:340)
  G vector (1/distance) = 0.37167562
  grid = 30 40 32
  stencil order = 5
  estimated absolute RMS force accuracy = 0.0036397554
  estimated relative force accuracy = 1.0961015e-05
  using double precision FFTW3
  3d grid and FFT values/proc = 5168 640
Last active /omp style is kspace_style pppm/tip4p/omp
Total wall time: 0:08:46
