LAMMPS (30 Jul 2021)
  using 1 OpenMP thread(s) per MPI task
package omp 0
using multi-threaded neighbor list subroutines
echo both

include		in.partitions
variable        pid world 0
include		in.temp
variable        temperature equal 249.92
variable	tempDamp equal 100.0
include		in.pressure
variable        pressure equal 6125.0
variable        pressureDamp equal 1000.0 # This is 1 ps
include		in.seed
variable        seed world 745823

units		real
atom_style	full
read_restart	restart.lmp.${pid}
read_restart	restart.lmp.0
Reading restart file ...
  restart file = 30 Jul 2021, LAMMPS = 30 Jul 2021
  restoring atom style full from restart
  orthogonal box = (0.52675121 1.7119746 0.64263524) to (17.680821 21.917203 21.570561)
  4 by 4 by 4 MPI processor grid
  restoring pair style lj/cut/tip4p/long/omp from restart
  restoring bond style harmonic/omp from restart
  restoring angle style harmonic/omp from restart
  864 atoms
  576 bonds
  288 angles
Finding 1-2 1-3 1-4 neighbors ...
  special bond factors lj:    0        0        0       
  special bond factors coul:  0        0        0       
     2 = max # of 1-2 neighbors
     1 = max # of 1-3 neighbors
     1 = max # of 1-4 neighbors
     2 = max # of special neighbors
  special bonds CPU = 0.011 seconds
  read_restart CPU = 0.084 seconds
include 	in.setup
variable	out_freq equal 1000
variable	out_freq2 equal 10000
variable	out_freq3 equal 1000

timestep	2.0

neigh_modify    delay 7 every 1

include		in.tip4p
# This is TIP4P/Ice

# create groups ###
group ox type 2
288 atoms in group ox
group hy type 1
576 atoms in group hy

# set charges - beside manually ###
set group ox charge -1.1794
Setting atom values ...
  288 settings made for charge
set group hy charge 0.5897
Setting atom values ...
  576 settings made for charge

# ### TIP3P Potential Parameters ###
pair_style lj/cut/tip4p/long/omp 2 1 1 1 0.1577 8.5
pair_coeff 1 1*2 0.000 0.000
pair_coeff 2 2 0.21084 3.1668
bond_style  harmonic
bond_coeff  1 450 0.9572
angle_style harmonic
angle_coeff 1 55 104.52
kspace_style pppm/tip4p/omp 1.0e-5
pair_modify tail yes

thermo          ${out_freq}
thermo          1000
thermo_style    custom step temp pe etotal epair emol press lx ly lz vol pxx pyy pzz pxy pxz pyz enthalpy

restart 	${out_freq3} restart.lmp.${pid} restart2.lmp.${pid}
restart 	1000 restart.lmp.${pid} restart2.lmp.${pid}
restart 	1000 restart.lmp.0 restart2.lmp.${pid}
restart 	1000 restart.lmp.0 restart2.lmp.0


include         in.dump
dump            myDump all atom ${out_freq2} dump.water.${pid}
dump            myDump all atom 10000 dump.water.${pid}
dump            myDump all atom 10000 dump.water.0
dump            myDump2 all dcd ${out_freq2} dump.dcd
dump            myDump2 all dcd 10000 dump.dcd
dump_modify     myDump append yes
dump_modify     myDump2 append yes


variable natoms 	equal  "count(all)"                        # NUMBER ATOMS
variable H      	equal  "enthalpy/v_natoms"                 # ENTHALPY-per-atom
variable Vol      	equal  "vol/v_natoms"                 # volume-per-atom
fix AVG all 		ave/time ${out_freq} 1 ${out_freq} v_Vol v_H file vol_enthalpy.dat
fix AVG all 		ave/time 1000 1 ${out_freq} v_Vol v_H file vol_enthalpy.dat
fix AVG all 		ave/time 1000 1 1000 v_Vol v_H file vol_enthalpy.dat


timer           timeout 23:50:00 every 1000
New timer settings: style=normal  mode=nosync  timeout=23:50:00

fix 		1 all shake 1e-6 200 0 b 1 a 1
       0 = # of size 2 clusters
       0 = # of size 3 clusters
       0 = # of size 4 clusters
     288 = # of frozen angles
  find clusters CPU = 0.001 seconds
fix             2 all nph iso ${pressure} ${pressure} ${pressureDamp}
fix             2 all nph iso 6125 ${pressure} ${pressureDamp}
fix             2 all nph iso 6125 6125 ${pressureDamp}
fix             2 all nph iso 6125 6125 1000
fix             3 all temp/csvr ${temperature} ${temperature} ${tempDamp} ${seed}
fix             3 all temp/csvr 249.92 ${temperature} ${tempDamp} ${seed}
fix             3 all temp/csvr 249.92 249.92 ${tempDamp} ${seed}
fix             3 all temp/csvr 249.92 249.92 100 ${seed}
fix             3 all temp/csvr 249.92 249.92 100 745823

run             250000
PPPM initialization ...
  extracting TIP4P info from pair style
  using 12-bit tables for long-range coulomb (../kspace.cpp:340)
  G vector (1/distance) = 0.37339425
  grid = 24 24 24
  stencil order = 5
  estimated absolute RMS force accuracy = 0.0032613902
  estimated relative force accuracy = 9.8215798e-06
  using double precision FFTW3
  3d grid and FFT values/proc = 2535 216
Last active /omp style is kspace_style pppm/tip4p/omp
Neighbor list info ...
  update every 1 steps, delay 7 steps, check yes
  max neighbors/atom: 2000, page size: 100000
  master list distance cutoff = 10.8154
  ghost atom cutoff = 10.8154
  binsize = 5.4077, bins = 4 4 4
  1 neighbor lists, perpetual/occasional/extra = 1 0 0
  (1) pair lj/cut/tip4p/long/omp, perpetual
      attributes: half, newton on, omp
      pair build: half/bin/newton/omp
      stencil: half/bin/3d
      bin: standard
Per MPI rank memory allocation (min/avg/max) = 9.235 | 9.237 | 9.240 Mbytes
Step Temp PotEng TotEng E_pair E_mol Press Lx Ly Lz Volume Pxx Pyy Pzz Pxy Pxz Pyz Enthalpy 
20750000    262.52361   -3893.5078   -3443.5513   -3893.5078            0     5689.729     17.15407    20.205229    20.927925    7253.6588    4632.1465    6030.8937    6406.1467   -731.72103    -413.1034   -84.277201    -2841.651 
20751000    259.50917   -3918.2684   -3473.4786   -3918.2684            0    6624.7616    17.126446    20.172691    20.894224    7218.6726     7691.927    6199.5785    5982.7794     -907.619   -50.044153   -89.947258    -2776.044 
20752000    253.47954   -3916.3867   -3481.9314   -3916.3867            0     8464.403    17.071521    20.107997    20.827216    7149.4433    7414.0258    8455.9621    9523.2212   -632.17673    393.46004    1126.3456    -2599.371 
20753000    256.12082   -3924.5656   -3485.5832   -3924.5656            0    5350.2866    17.144013    20.193382    20.915655     7240.908    5443.8881    5649.6766    4957.2953   -1267.1941   -98.307101    746.48898   -2920.5865 
20754000    240.19225    -3937.224   -3525.5427    -3937.224            0    3058.3412    17.138314     20.18667    20.908703    7233.6894    2096.5507    2799.4759    4278.9968   -403.48794     952.2964     1882.293   -3202.9001 
20755000    252.10075   -3904.9275   -3472.8355   -3904.9275            0     5579.777    17.097691    20.138821    20.859143    7182.3729    4561.2113    5442.5897      6735.53    836.74218    927.18562    345.96609   -2888.3675 
20756000    245.75498   -3894.8338   -3473.6181   -3894.8338            0    4679.4112    17.178804    20.234361      20.9581    7285.0801    5067.6251    4016.2026    4954.4057   -755.82199     353.3783    560.05624   -2976.4521 
20757000     255.3298   -3920.9781   -3483.3515   -3920.9781            0    5545.8713    17.105169     20.14763    20.868267     7191.802    6851.0586    5056.8022     4729.753   -736.11912   -924.38811    1418.0535   -2901.6725 
20758000    253.25239   -3901.1348   -3467.0689   -3901.1348            0    7526.9682    17.029281    20.058243    20.775683     7096.505    6415.5193    8587.1414    7578.2441    727.60104   -13.889003    669.86619   -2688.0634 
20759000    259.46456   -3895.5207   -3450.8073   -3895.5207            0    7074.5361    17.099286    20.140701    20.861089    7184.3841    6734.5873    6385.8989    8103.1222   -676.31306   -247.84482   -617.26472   -2709.5595 
20760000    260.10267   -3931.4664   -3485.6593   -3931.4664            0    4987.5147    17.155351    20.206737    20.929488    7255.2835    6726.5715    4449.5079    3786.4646   -958.48955    541.86452    487.24094    -2957.926 
20761000    262.96349    -3940.515   -3489.8046    -3940.515            0    6235.5699    17.089806    20.129534    20.849524    7172.4413    7070.0697    5341.1662    6295.4739   -1234.8263   -2337.2757    1123.3364   -2837.5471 
20762000    261.30293   -3897.2994   -3449.4351   -3897.2994            0    6795.9568    17.150768    20.201339    20.923896    7249.4703    6341.2559    6432.4193    7614.1952   -242.32234    1168.4129   -284.57237   -2730.9252 
20763000    259.31536    -3884.834   -3440.3763    -3884.834            0     5933.908    17.167785    20.221383    20.944658    7271.0713    6094.1258    5646.0483    6061.5499    335.81131    -1129.691    -2012.511   -2811.1381 
20764000     243.8823    -3923.132   -3505.1261    -3923.132            0    5556.4904     17.23932    20.305642    21.031931    7362.3425    4938.4611    7540.3024    4190.7076    170.80403   -1118.1421    -1847.111   -2908.5134 
20765000    255.75698   -3929.4078   -3491.0491   -3929.4078            0    6483.7354    17.228043    20.292359    21.018172    7347.9029     5850.617    7035.5212    6565.0679    1112.7423    336.88863    1302.3472   -2796.2415 
20766000    256.42952   -3901.1867   -3461.6752   -3901.1867            0    5572.5012    17.153042    20.204018    20.926672    7252.3554    5061.6959    5112.2105     6543.597    480.31753    940.91618   -581.08255    -2872.282 
20767000    250.28145   -3900.5774   -3471.6036   -3900.5774            0    6285.4901    17.139353    20.187893     20.90997    7235.0049     7359.017    6326.2177    5171.2354    2688.7998    -753.6217    694.02004   -2808.3893 
20768000    243.78522   -3919.5639   -3501.7244   -3919.5639            0    4837.1818    17.163263    20.216056     20.93914    7265.3265    3838.9812    5923.5576    4749.0066   -691.12165    18.231222    614.12465   -2989.1895 
20769000    244.44098   -3871.3995    -3452.436   -3871.3995            0    5490.0153    17.197065    20.255871    20.980379    7308.3372    6859.4195    4607.4004     5003.226    549.69451   -74.456069     721.4524   -2867.2849 
20770000    237.92255   -3904.0961    -3496.305   -3904.0961            0    4833.3232    17.208246    20.269041     20.99402    7322.6016    4209.4593     5141.545    5148.9652     -196.332    1368.8359    639.15662   -2980.1417 
20771000    235.63456   -3899.9443   -3496.0747   -3899.9443            0    4435.3103    17.227376    20.291574    21.017359    7347.0504    5729.8455    5683.4522     1892.633   -1529.4959   -367.15742   -752.02105   -3020.8348 
20772000    260.94431   -3916.0955   -3468.8459   -3916.0955            0    4987.0738    17.195131    20.253593    20.978019    7305.8715    4882.5029    4577.7216    5500.9969    564.82791    4.4534957   -994.13122   -2937.4799 
20773000    240.72905   -3914.4511   -3501.8497   -3914.4511            0    5705.9692    17.144624    20.194102    20.916401    7241.6821    4548.0023    5591.3322    6978.5733    409.02841   -887.13201    599.20925    -2899.228 
20774000     259.5308   -3893.8909    -3449.064   -3893.8909            0    5719.1833    17.225853    20.289779      21.0155    7345.1011    5937.8116    5468.0578    5751.6805   -297.12373   -376.39229   -1521.0765   -2836.4207 
20775000     244.0836   -3901.7355   -3483.3845   -3901.7355            0    6139.8159    17.129059     20.17577    20.897413    7221.9777    5883.7104    8191.9391    4343.7982    110.28138    -1463.343   -324.07478   -2836.7076 
20776000    260.47898   -3905.7225   -3459.2705   -3905.7225            0    6637.7475    17.103817    20.146037    20.866617    7190.0963    7066.0002    7846.0023      5001.24   -1292.8131    803.21323     -180.424   -2763.2351 
20777000    249.09414   -3855.0527   -3428.1138   -3855.0527            0    6781.9172    17.096857     20.13784    20.858126    7181.3229    7247.9827    5853.8736    7243.8954    926.05626    139.54494     236.6654   -2717.8285 
20778000    260.96403   -3948.4057   -3501.1223   -3948.4057            0    6027.6548    17.137285    20.185458    20.907448    7232.3867    6768.6043    4078.0756    7236.2844    1026.2872    463.00937    1203.7761   -2865.3437 
20779000    251.20455    -3954.063    -3523.507    -3954.063            0    7166.4781    17.049208    20.081714    20.799993    7121.4459     9124.643    6548.8732     5825.918    -335.2718   -221.61242    677.05092   -2779.2039 
20780000    261.40562   -3925.6743    -3477.634   -3925.6743            0    5986.5958     17.17328    20.227855    20.951361    7278.0551    4867.1341    6266.5777    6826.0756   -608.88337    594.11792    444.24692   -2842.1989 
20781000    259.59124   -3921.1296   -3476.1991   -3921.1296            0    5834.6707    17.121221    20.166537    20.887849    7212.0674     5757.909    5468.2612    6277.8418   -1764.1911    1236.2922    -726.7844   -2862.5049 
20782000    249.98041   -3924.3216   -3495.8637   -3924.3216            0    7020.5096    17.107776      20.1507    20.871447    7195.0904    7187.4949    8070.1707    5803.8632    61.324649    1174.7749   -772.92337   -2759.1805 
20783000    247.71077    -3937.668   -3513.1002    -3937.668            0    5696.7028     17.19204    20.249953    20.974249    7301.9332    5021.4711     5325.511    6743.1264    8.8655282   -202.62223    157.39533   -2906.4515 
20784000    241.96662   -3948.6067   -3533.8842   -3948.6067            0    8966.6635    17.148934    20.199179    20.921659    7247.1451    8140.3659    9923.9373    8835.6874    558.95453    793.51923   -238.76355    -2586.178 
20785000    238.04665   -3920.4641   -3512.4603   -3920.4641            0    6775.6624    17.173371    20.227962    20.951472    7278.1704    7479.5263    6986.2385    5861.2225   -920.99972    -1269.828     364.1742     -2793.26 
20786000    249.94264   -3933.1176   -3504.7244   -3933.1176            0     5309.568    17.107827    20.150761    20.871509    7195.1551    5899.8184    3285.9533    6742.9323    253.38572    1540.2373   -428.86424   -2947.5705 
20787000    258.27873   -3910.9223   -3468.2414   -3910.9223            0    6427.1762    17.165256    20.218404    20.941572    7267.8578    6051.8622    6076.9618    7152.7046    745.24672   -374.02851   -674.10511   -2786.9976 
20788000    252.61535   -3898.3224   -3465.3483   -3898.3224            0    8046.9163    17.129502    20.176291    20.897952    7222.5374    8075.9487    6961.6851     9103.115   -1181.0512    1060.2759    499.30696     -2617.74 
20789000     249.7139   -3905.9051    -3477.904   -3905.9051            0    4914.3008    17.178778    20.234331    20.958069    7285.0475    4114.5632    5278.0947    5350.2445    70.079617    837.14157   -317.09707   -2955.7844 
20790000    243.15747   -3889.8857   -3473.1221   -3889.8857            0    5337.4602     17.10698    20.149763    20.870475    7194.0859    5418.4504    4693.1074    5900.8227    684.87927    -761.2884   -298.76244   -2913.1245 
20791000    248.27709   -3881.1361   -3455.5977   -3881.1361            0    4960.7976    17.195867     20.25446    20.978917    7306.8097    3463.9451    7002.0692    4416.3784   -2440.4442   -33.356102    854.65216   -2926.9636 
20792000    257.25106   -3901.5002   -3460.5807   -3901.5002            0    6949.5351    17.096334    20.137223    20.857487    7180.6632    7216.5178    5991.0589    7641.0285    671.86278   -638.04526    1304.1229   -2732.8073 
20793000    250.45235   -3883.5258    -3454.259   -3883.5258            0    5650.5484    17.117576    20.162243    20.883402    7207.4619    6973.1205    4498.4053    5480.1195   -190.46007   -881.28987    1363.1719   -2860.3105 
20794000    258.52247   -3913.0529   -3469.9543   -3913.0529            0     7212.173    17.074006    20.110924    20.830247    7152.5658    7164.0701    5411.0715    9061.3775   -1129.3086   -237.24524    647.22756    -2717.632 
20795000    239.52731   -3924.7682   -3514.2265   -3924.7682            0    7381.3841    17.038106    20.068638    20.786449    7107.5433    8200.5977    7476.1885    6467.3661    -445.9157   -26.787761    806.62538   -2749.1001 
20796000    265.72689   -3915.1195   -3459.6727   -3915.1195            0    5489.7479    17.097138     20.13817    20.858468    7181.6759    5594.9586    5722.1896    5152.0953   -853.31796    776.65801    773.67897   -2884.6909 
20797000    251.56144   -3928.4236   -3497.2559   -3928.4236            0    6387.4075    17.083254    20.121816     20.84153    7164.1943    6259.7637    6287.1051    6615.3538   -1390.3806   -1178.6641   -1005.4034   -2829.8841 
20798000    251.42241   -3923.8264   -3492.8969   -3923.8264            0    7300.0646    17.085684    20.124679    20.844495     7167.253    8675.3725    6824.2893    6400.5319   -1138.1185    123.96893    -768.1584   -2729.8429 
20799000    254.75265   -3916.7073   -3480.0699   -3916.7073            0    5353.0401    17.158111    20.209989    20.932856    7258.7868    6031.1821    5892.5883    4135.3498    762.04304    -1321.824   -1258.3165   -2913.3866 
20800000    251.96016   -3939.3814   -3507.5303   -3939.3814            0    5602.1007     17.13802    20.186324    20.908345    7233.3179    5930.5363    5796.2506    5079.5152   -203.82464    457.57358    259.24083   -2916.5618 
20801000    260.15479   -3906.3988   -3460.5024   -3906.3988            0    4815.8885    17.143829    20.193166    20.915431    7240.6751    3912.4737    5899.3896    4635.8021   -419.72955    501.52668    570.22548   -2951.9551 
20802000     253.0662    -3923.865   -3490.1182    -3923.865            0    6982.4811    17.092772    20.133028    20.853142    7176.1763    8895.3061    5582.2899    6469.8473    1365.1906    915.26768    1515.0916   -2759.3515 
20803000    252.11466   -3934.3977   -3502.2818   -3934.3977            0    6177.2641    17.142551    20.191661    20.913873    7239.0564    6990.7934    5578.3601    5962.6389   -81.742435    837.72395   -751.28137    -2850.122 
20804000    253.51391    -3890.338   -3455.8239    -3890.338            0    5974.0361    17.100696    20.142361    20.862809    7186.1613    5227.0773    6591.4256    6103.6055   -2151.2602    287.45766    361.35079   -2829.7282 
20805000    243.45586   -3901.8744   -3484.5994   -3901.8744            0    7755.9482    17.092041    20.132166     20.85225    7175.2551    6435.6488    10309.903    6522.2925   -331.18023    728.40921    402.98119    -2672.988 
20806000    256.66987   -3907.4464    -3467.523   -3907.4464            0    5620.3812    17.137533    20.185751    20.907751    7232.7014    5488.4805    4988.8465    6383.8165   -90.533989   -1281.0545    1001.6706   -2874.6766 
20807000    248.63454     -3901.57   -3475.4189     -3901.57            0    5137.1685    17.138413    20.186786    20.908824    7233.8147     5153.335    6350.0021    3908.1682   -271.27373   -1143.7738    513.87377   -2933.4591 
20808000    241.26242   -3897.3817   -3483.8661   -3897.3817            0    5688.0131    17.106895    20.149663    20.870372    7193.9794    6974.4478    3938.5296     6151.062   -341.64914    -380.8179   -314.63871    -2887.098 
20809000     253.8711   -3909.3582   -3474.2318   -3909.3582            0    6327.8762     17.12176    20.167171    20.888507    7212.7484    7299.5261     6296.865    5387.2375   -2500.5413    215.01149    428.71241   -2808.5991 
20810000    231.69904   -3910.1121   -3512.9879   -3910.1121            0    6419.8301    17.111549    20.155145     20.87605     7199.852    7073.4866    7166.7326    5019.2711     149.4465    -77.36167     1306.348     -2838.89 
20811000    253.10198   -3919.1759   -3485.3678   -3919.1759            0    7052.9515    17.196113     20.25475    20.979218     7307.124    7601.2735    7200.0251    6357.5558   -44.721676   -690.61255    96.498701   -2733.7566 
20812000    243.02542   -3880.2229   -3463.6857   -3880.2229            0    5563.6441    17.211543    20.272924    20.998042     7326.811    6723.6972    5073.7673    4893.4677    84.490046   -577.01948    922.14875   -2869.1879 
20813000    251.59716   -3886.7816   -3455.5527   -3886.7816            0    4901.0495    17.160218    20.212471    20.935426    7261.4613    4331.7817    4302.1015    6069.2654    459.27192    1196.7053    468.07743   -2936.5268 
20814000    243.93037    -3898.436   -3480.3477    -3898.436            0    7986.1464    17.170377    20.224436    20.947819    7274.3644    8129.5321    8567.1863    7261.7209    1212.6671    881.15936   -245.33637   -2633.1043 
20815000    242.88158   -3932.5445   -3516.2537   -3932.5445            0    6113.2957    17.105233    20.147705    20.868344    7191.8824    5626.2318    8007.5837    4706.0716   -2263.8775    1443.3907    203.30127   -2875.0532 
20816000    248.47281   -3902.7061   -3476.8322   -3902.7061            0    4970.3699    17.201489    20.261082    20.985777    7313.9794    4631.6733    4825.9321    5453.5042   -942.15193    29.919144    975.16498   -2946.6583 
20817000    238.98808   -3944.0689   -3534.4515   -3944.0689            0    4825.7579    17.168746    20.222515     20.94583    7272.2918    6205.7706    3674.8014    4596.7017   -331.69849    498.30168    37.481687   -3022.6369 
20818000    255.88079   -3927.5005   -3488.9295   -3927.5005            0    6322.5407     17.10119    20.142943    20.863412    7186.7843    7738.7997    6116.2709    5112.5514   -828.32211    1176.2696    1062.9729   -2826.2522 
20819000    242.79101   -3940.0936   -3523.9581   -3940.0936            0    5806.0759    17.143583    20.192877    20.915132    7240.3639    5310.9359    7027.3442    5079.9475   -976.27934   -706.57143   -23.674506   -2910.8755 
20820000    248.97599   -3904.4274    -3477.691   -3904.4274            0    6569.4561    17.107467    20.150336    20.871069    7194.7001    6345.4175    5606.1984    7756.7523   -565.69714   -306.24613     -932.844   -2788.3756 
20821000    243.67808   -3896.4514   -3478.7955   -3896.4514            0     7884.301    17.176916    20.232138    20.955797    7282.6783    8320.4362    7511.5286    7820.9384   -756.18646    2051.4012     334.3814   -2641.4008 
20822000    272.51362   -3867.3564   -3400.2774   -3867.3564            0    7097.0123    17.153961    20.205101    20.927793    7253.5211    7990.7121    5264.3555    8035.9693   -622.07596    547.40283   -341.24403   -2649.5188 
20823000    238.91024   -3892.3014   -3482.8175   -3892.3014            0    6547.8024    17.132698    20.180055    20.901852    7226.5811    6944.5271    6237.9244    6460.9558   -994.97966   -1079.7954    -225.2034   -2792.7297 
20824000    254.32651   -3910.7794   -3474.8725   -3910.7794            0    7170.6609    17.167852    20.221461    20.944739    7271.1556    7156.2042    8958.7243    5397.0541   -1400.3436    1501.1227    -643.8221   -2714.4788 
20825000    244.11425   -3892.3693   -3473.9659   -3892.3693            0    5947.2987     17.16403     20.21696    20.940077     7266.301    6502.4709    4846.6085    6492.8167    2066.9595   -662.55029   -313.40488   -2843.7214 
20826000    240.00624   -3905.3419   -3493.9794   -3905.3419            0    4080.9274    17.289574    20.364835     21.09324    7426.9154    2440.9666    3243.8777    6557.9379    710.25084    138.54913   -478.70948   -3051.9581 
20827000    234.46313   -3913.1619   -3511.3002   -3913.1619            0      6568.56     17.16914    20.222979     20.94631    7272.7926    7743.1218    4770.6039    7191.9542    778.69446    1223.0689    -468.6377   -2814.5978 
20828000    265.10315   -3894.5846   -3440.2068   -3894.5846            0    4460.7088    17.209071    20.270012    20.995026    7323.6543    4344.9847    4916.7342    4120.4075    1058.5601    1034.9982   -217.60321   -2963.7675 
20829000    251.63077   -3910.5638   -3479.2773   -3910.5638            0    7377.2624    17.103167    20.145272    20.865824    7189.2766    6077.6093    8425.9515    7628.2265    197.62145    121.69376   -1523.7894   -2705.7844 
20830000     270.1874   -3903.0238   -3439.9319   -3903.0238            0     4980.382    17.170233    20.224267    20.947644     7274.182    6018.4006    3246.5696    5676.1758    1376.3482   -587.54159     364.9185   -2911.5807 
20831000    249.72996   -3904.8384   -3476.8098   -3904.8384            0    4168.6624    17.200991    20.260495    20.985169     7313.344     2220.369    4347.9523     5937.666    274.85392   -465.34373   -751.33644   -3032.1902 
20832000    248.05898   -3923.3819   -3498.2172   -3923.3819            0    5872.2352    17.090485    20.130334    20.850351    7173.2957    6534.6924    5555.2666    5526.7466   -202.51716   -1716.9699   -707.91093   -2883.8924 
20833000    242.10866   -3930.0414   -3515.0754   -3930.0414            0    6529.5462    17.120578    20.165779    20.887065    7211.2548    4489.9865    7047.8457    8050.8064    1396.6343   -436.18634   -1073.4972   -2828.3712 
20834000    271.44058   -3913.9847   -3448.7449   -3913.9847            0     7569.659     17.07681    20.114227    20.833669    7156.0912    6158.7324    8459.4611    8090.7834   -952.12989   -470.75113    128.43285   -2658.7431 
20835000    249.30733   -3933.7461   -3506.4419   -3933.7461            0    6049.4379    17.159717     20.21188    20.934815     7260.825    5849.8942    5617.8318    6680.5876    454.08294    416.83286   -600.07735   -2865.8567 
20836000    257.21762   -3926.3935   -3485.5313   -3926.3935            0    6945.2758    17.091267    20.131256    20.851306    7174.2813    5941.6138    6687.2277    8206.9858   -511.27106    -328.8102    77.400407   -2758.8503 
20837000    244.12456   -3935.2381    -3516.817   -3935.2381            0    6303.4396     17.16089    20.213261    20.936245    7262.3133    6566.7207    5333.9657    7009.6325    400.98677    557.81694    793.17025   -2849.1983 
20838000     257.6613   -3895.3855   -3453.7629   -3895.3855            0    6328.6815    17.178341    20.233817    20.957536    7284.4917    8044.8353    5968.4308    4972.7783    351.94389    483.80875   -96.776799   -2781.4237 
20839000    253.11642   -3957.9815   -3524.1486   -3957.9815            0    6312.3392    17.140045    20.188709    20.910814    7235.8813     7120.512    5543.0568    6273.4488   -1523.8676    786.05104     -736.025   -2858.0207 
20840000     249.8323    -3917.414     -3489.21    -3917.414            0    5687.4766    17.151497    20.202198    20.924787    7250.3955    4752.9909    3815.7417    8493.6972    1135.6784    1127.5361    610.10604   -2887.8186 
20841000     236.5644   -3922.7463    -3517.283   -3922.7463            0     6701.506    17.105156    20.147615    20.868251    7191.7857    5267.2047    7685.2186    7152.0948   -486.69659    502.94249   -965.65573   -2814.3968 
20842000    255.07536   -3917.2228   -3480.0324   -3917.2228            0    7850.2696    17.044676    20.076376    20.794464    7115.7685     7964.663    7512.5463    8073.5996   -640.45783    1485.2052    409.32303   -2665.3613 
20843000    239.05099   -3931.5017   -3521.7765   -3931.5017            0    5935.0757    17.142785    20.191936    20.914158    7239.3526    5783.3795    4824.5982    7197.2494   -1788.9778   -742.96847    50.691825   -2895.1599 
20844000    240.59709   -3922.2267   -3509.8515   -3922.2267            0    5763.9712     17.13437    20.182024    20.903891    7228.6963    4580.0234    5926.7454     6785.145   -910.97982    508.71051    189.14087   -2902.1957 
20845000     242.1207   -3947.8286    -3532.842   -3947.8286            0     7989.058    17.088035    20.127448    20.847363    7170.2114    6495.5716    7799.7839    9671.8187    798.37371   -378.19678    1233.8046   -2697.4248 
20846000    254.83688   -3940.0551   -3503.2734   -3940.0551            0     5294.755    17.157931    20.209776    20.932636    7258.5577    5614.3199     4949.011     5320.934    1108.9755     1395.679   -342.81329    -2942.778 
20847000    264.15152   -3973.6294   -3520.8827   -3973.6294            0    6190.7224     17.12601    20.172177    20.893692     7218.121    6771.2623    5986.2475    5814.6572    1155.1934    613.16256    241.47016   -2869.1923 
20848000    229.48577    -3947.322   -3553.9913    -3947.322            0    4700.5662    17.153007    20.203977    20.926629    7252.3106    3257.9461    6655.2731    4188.4795    1129.3545   -346.55121    32.537718   -3056.8241 
20849000    247.87155   -3931.9286   -3507.0852   -3931.9286            0    7000.6931    17.135899    20.183826    20.905757    7230.6325    7296.9782    8330.4098    5374.6912    -285.6381   -170.29648   -142.20915   -2768.8526 
20850000    244.46333   -3947.8119   -3528.8101   -3947.8119            0    5388.6943    17.148553    20.198731    20.921195    7246.6629    5059.9492    6193.1403    4912.9935   -168.96637   -418.39746   -551.99533   -2959.3052 
20851000     233.8109   -3933.3463   -3532.6024   -3933.3463            0    6643.4638    17.094053    20.134536    20.854705    7177.7895    8221.1464    7118.8612    4590.3838    517.04502     170.4828   -214.07729     -2837.16 
20852000    254.57557   -3918.5771   -3482.2433   -3918.5771            0    6124.6759    17.121376     20.16672    20.888039    7212.2637     4862.704    7662.9003    5848.4235    758.86483   -1591.4153   -624.19291   -2838.0287 
20853000    249.47373   -3924.4292   -3496.8398   -3924.4292            0    5442.2896     17.14035    20.189068    20.911187    7236.2679    6023.1717    4409.5387    5894.1582    668.48719    -558.4248   -164.37465   -2922.4956 
20854000    241.00366   -3927.2755   -3514.2035   -3927.2755            0    4694.2262    17.171568    20.225839    20.949273    7275.8789    3346.1784    4700.3159    6036.1843   -43.275268    138.02223    338.23455   -3016.0934 
20855000    246.43228   -3911.6388   -3489.2623   -3911.6388            0    6044.0111    17.104188    20.146474    20.867069    7190.5637    6872.4483    5761.3222    5498.2627   -44.475671    891.95898    935.53947    -2855.445 
20856000    242.71841   -3946.9069   -3530.8959   -3946.9069            0    7046.9622    17.087202    20.126467    20.846346    7169.1628    7855.4592    6851.7432    6433.6842     1027.072    47.673775    952.56795   -2794.1015 
20857000    244.03825   -3944.7675   -3526.4943   -3944.7675            0    7580.2591    17.114868    20.159054    20.880099    7204.0423     8423.886    5070.4014    9246.4901    616.10681    -156.7601   -68.723315   -2730.0852 
20858000    242.13893   -3927.0613   -3512.0434   -3927.0613            0    6494.2833    17.136337    20.184341    20.906291    7231.1866    7622.7918    6241.5109    5618.5472   -2239.4042   -1388.7334    634.71817   -2827.1599 
20859000    251.01151   -3946.1227   -3515.8976   -3946.1227            0    5384.4663    17.199908     20.25922    20.983848    7311.9626    5998.7086    6213.2752     3941.415    130.28428   -228.09674    337.67975   -2941.7117 
20860000    253.67949   -3949.3862   -3514.5883   -3949.3862            0     6979.798    17.178969    20.234556    20.958302    7285.2903    5990.4312    5510.8981    9438.0647   -535.52923   -209.87461    774.95236   -2772.9953 
20861000     255.1873   -3918.0592   -3480.6769   -3918.0592            0    6536.9827    17.167462    20.221003    20.944263    7270.6606    5659.9978    7758.2582    6192.6922   -332.37331    66.334397     388.1802   -2787.5271 
20862000     249.6716   -3921.0466    -3493.118   -3921.0466            0    6420.6637    17.089758    20.129478    20.849465    7172.3807    7576.0717    5953.6052    5732.3143   -263.48981   -1476.2248   -2602.7606   -2821.5049 
20863000    240.63578    -3922.851   -3510.4095    -3922.851            0    6354.6853    17.079764    20.117706    20.837272    7159.8048    8579.2539    4708.4998    5776.3021    37.140289    361.53872    1686.3858   -2846.8634 
20864000    268.18127   -3907.5413   -3447.8877   -3907.5413            0    4706.5718     17.18529    20.242001    20.966013    7293.3352    5495.0221    3068.1721    5556.5212      382.428    741.17746   -1242.1013   -2947.2694 
20865000    254.35591   -3904.6621   -3468.7048   -3904.6621            0    5047.9692    17.185244    20.241947    20.965958    7293.2769    5165.9208    4659.6289    5318.3578    757.64586    154.22299   -2465.4698   -2931.7777 
20866000    241.15992    -3921.979   -3508.6392    -3921.979            0    6627.8708    17.084526    20.123316    20.843082    7165.7958    7069.5884    7027.1381    5786.8858     1697.754    1760.1016   -107.79509   -2815.9884 
20867000    245.29853   -3953.6366   -3533.2034   -3953.6366            0    6313.2278    17.135995    20.183938    20.905874    7230.7535    6681.9103    5676.3599    6581.4133    891.22878    497.84559    965.45084   -2867.4538 
20868000    250.14412   -3957.6174    -3528.879   -3957.6174            0    4607.8303    17.188139    20.245357    20.969489    7296.9633    5052.9904    4921.1564    3849.3439    514.09501     394.0866    460.97648   -3038.5195 
20869000    256.41605   -3918.6849   -3479.1965   -3918.6849            0    6302.1971    17.111874    20.155527    20.876446    7200.2616    7543.6803    5268.1898    6094.7212   -163.17944    -154.5574     457.4246   -2817.4127 
20870000     249.7957   -3937.5491   -3509.4078   -3937.5491            0    7620.6605    17.114422    20.158529    20.879555    7203.4793    6760.2789    8368.1914    7733.5111    702.90407    645.43308   -399.81218   -2708.8166 
20871000    236.71029   -3929.9443    -3524.231   -3929.9443            0    6100.6409    17.172545    20.226989    20.950464    7277.1201    6885.6095    7257.0954    4159.2178    1664.7184   -102.66455   -23.851047    -2876.774 
20872000    267.60773   -3946.7187   -3488.0483   -3946.7187            0    7076.0804    17.158959    20.210987     20.93389    7259.8627    7126.2218    7647.8476    6454.1719   -144.47745     1692.265    -726.2219   -2738.8495 
20873000    248.96418   -3969.6272   -3542.9112   -3969.6272            0    7817.7398    17.134717    20.182433    20.904315    7229.1361    7575.6426    6501.6754    9375.9015    1143.7704   -645.76613   -349.75059   -2718.6905 
20874000    252.10611   -3904.9964   -3472.8952   -3904.9964            0    7376.0013    17.131501    20.178646    20.900392    7225.0668    7588.3759    7876.5988    6663.0291    506.92198   -1019.0184    180.31195   -2695.6845 
20875000    257.84719   -3905.7043    -3463.763   -3905.7043            0    7151.0784    17.197292    20.256139    20.980657    7308.6273    7891.6999    7134.0206    6427.5146   -1957.1581    192.72398    1864.0891   -2701.5379 
20876000    254.82489   -3925.7454   -3488.9843   -3925.7454            0    6074.5927    17.188401    20.245666    20.969809    7297.2968    7151.4502     6535.833     4536.495    174.35637   -384.20278    1233.8813   -2842.5043 
20877000    250.36314   -3938.7324   -3509.6186   -3938.7324            0    7385.1103    17.174876    20.229735    20.953309    7280.0847    9113.1505    5181.1106    7861.0697    1230.2043    2181.5897    1388.9959   -2725.5224 
20878000    246.05986   -3935.6894   -3513.9513   -3935.6894            0    5715.1199     17.15027    20.200753    20.923289    7248.8394    5713.2486    5575.7922     5856.319    2156.4827     1301.798     1294.281   -2909.7666 
20879000    251.81253   -3918.9431   -3487.3451   -3918.9431            0    6548.8211    17.175399    20.230351    20.953947    7280.7495    7454.4115    6253.0394    5939.0124   -208.37538     -583.827   -1201.1483   -2791.9764 
20880000    248.37297   -3968.3409   -3542.6381   -3968.3409            0    3225.6045    17.258029    20.327678    21.054755    7386.3377    2306.2105    2079.4505    5291.1524   -412.30434   -416.54079   -933.32256   -3195.1691 
20881000    239.89208   -3926.5946   -3515.4278   -3926.5946            0    6819.0143    17.159227    20.211303    20.934217    7260.2026    6526.7803    6573.6359    7356.6268    1230.4286    514.35867   -814.54602   -2793.4128 
20882000    256.38225   -3926.3889   -3486.9585   -3926.3889            0    5504.7821    17.262672    20.333148     21.06042    7392.3016    5355.2644    6035.3767    5123.7052    697.19985    507.44321    1682.6803   -2893.4927 
20883000    251.63022   -3949.1414   -3517.8558   -3949.1414            0    5141.2067    17.183036    20.239347    20.963264    7290.4661    4059.1235    6065.3687    5299.1279   -194.24024    141.19518   -2356.1063   -2971.2223 
20884000    238.24578   -3939.4228   -3531.0777   -3939.4228            0    6558.7319    17.125965    20.172125    20.893638    7218.0649    6063.4711    7824.3461    5788.3785   -348.95154   -434.67017   -1962.9864   -2840.6526 
20885000    232.37935   -3923.9788   -3525.6885   -3923.9788            0    6935.5764    17.094819    20.135439    20.855639    7178.7548    6780.5605    6137.5434    7888.6253    198.25642    1475.0171    1676.4575   -2799.5699 
20886000    239.11174   -3922.8691   -3513.0398   -3922.8691            0    4592.5522    17.212036    20.273505    20.998644    7327.4409    2987.4242    5660.3915    5129.8408    705.21071   -802.87569    178.13955   -3022.2649 
20887000    244.72308   -3941.1308   -3521.6838   -3941.1308            0    6105.1633    17.112202    20.155913    20.876846    7200.6758    5271.5821    5887.0803    7156.8273    1728.3061    948.78936     950.7246   -2880.5533 
20888000    245.59875   -3908.9527   -3488.0048   -3908.9527            0    8565.7926    17.074995    20.112088    20.831454    7153.8088    9490.3556    7473.8084    8733.2138   -613.05032    1512.8504   -730.38669   -2594.3274 
20889000    233.86125   -3947.6832    -3546.853   -3947.6832            0    4783.4901    17.155988    20.207487    20.930265    7256.0918    4389.0187    4390.3577    5571.0939   -526.91616   -282.05555    -431.3132   -3040.6514 
20890000    247.13329   -3897.6801   -3474.1021   -3897.6801            0    5598.0507    17.124709    20.170646    20.892106    7216.4769    4804.3687    6403.2154    5586.5681    -483.6978    728.33256    615.30976   -2884.9357 
20891000     252.5077      -3946.1   -3513.3105      -3946.1            0    5887.6494    17.085278    20.124201       20.844    7166.7421    5619.3917    5455.6583    6587.8983   -208.62328    181.51476    97.082014   -2897.9358 
20892000    251.14904   -3944.7652   -3514.3043   -3944.7652            0    5412.9009    17.113567    20.157521    20.878511    7202.3991    5052.9129    6306.6736    4879.1162    479.47309    169.56766   -250.22929   -2945.7354 
20893000    244.09339   -3947.2364   -3528.8687   -3947.2364            0    4806.3688    17.155385    20.206778     20.92953    7255.3274    5072.8036    4433.2442    4913.0586    386.23206   -573.19521    144.38258   -3020.2996 
20894000    248.76051   -3913.8534   -3487.4864   -3913.8534            0    6380.5119    17.095894    20.136705    20.856951    7180.1094    4424.5185    7791.1485    6925.8686   -15.904184    1233.7791   -384.74958   -2819.3541 
20895000    264.56895   -3925.9949   -3472.5328   -3925.9949            0    5521.7964    17.123207    20.168876    20.890272    7214.5775    5746.1179    5890.3425    4928.9286   -1589.2019    1339.2859   -115.81645   -2891.5448 
20896000     254.8527   -3962.9958    -3526.187   -3962.9958            0     4630.228    17.184629    20.241224    20.965208    7292.4944    2673.2243     5567.054    5650.4058   -948.68649    -114.3186     176.8824   -3033.7458 
20897000     239.8635   -3940.7302   -3529.6124   -3940.7302            0    6826.7677    17.095512    20.136255    20.856485    7179.6278    8857.9067    6017.3531    5605.0434   -268.78204   -1293.6365   -424.76644   -2814.7985 
20898000     244.9932   -3951.3428   -3531.4328   -3951.3428            0    5851.1759    17.156591    20.208198    20.931001    7256.8571     6502.363    3910.8868    7140.2781   -210.04198    369.77519   -1514.3118   -2912.1805 
20899000    257.11969   -3898.9887   -3458.2944   -3898.9887            0    4962.0735    17.186779    20.243755     20.96783     7295.231    2416.9243    5932.5725    6536.7239    410.05387    475.95255    1146.9981   -2930.3622 
20900000    244.09561   -3913.0891   -3494.7176   -3913.0891            0    8026.0445     17.10556     20.14809    20.868743    7192.2942    8330.7427     9595.692    6151.6988   -112.94249   -342.77995   -798.46036   -2652.8478 
20901000    255.75803   -3928.0492   -3489.6887   -3928.0492            0    4670.5138    17.156597    20.208205    20.931009    7256.8652     3191.643    5403.6053    5416.2931    1374.1031     778.2958   -778.08826   -2995.3898 
20902000    227.90176   -3910.7467   -3520.1309   -3910.7467            0    4928.2908    17.125267    20.171302    20.892785    7217.1814    5159.5374    4687.1891    4938.1459   -12.668664   -613.03138   -655.57192   -3001.4027 
20903000    245.35989    -3926.447   -3505.9086    -3926.447            0    5311.3585    17.254589    20.323626    21.050558    7381.9214    4306.0455    5417.7926    6210.2375    623.32661    1137.8225    102.54278   -2934.0997 
20904000     234.9157   -3907.7988   -3505.1613   -3907.7988            0     5511.513    17.172843    20.227341    20.950829    7277.5001    7065.7886    4760.3194     4708.431   -357.97822   -224.76397    469.13835   -2920.1976 
20905000    242.95039   -3909.7989   -3493.3902   -3909.7989            0    5261.2153    17.182041    20.238174    20.962049     7289.199    6476.3413    4511.6038    4795.7006   -436.45527   -674.57662   -811.75658   -2934.0942 
20906000    234.48162   -3944.0143   -3542.1208   -3944.0143            0    5767.4369    17.166188    20.219502    20.942709    7269.0416    6405.4259    6064.4016    4832.4833    541.79434    -401.0198   -1230.2109   -2930.7061 
20907000    246.81735   -3955.4802   -3532.4437   -3955.4802            0    5601.4747    17.125437    20.171503    20.892994    7217.3971    4962.7398    5573.1693    6268.5151    49.146759    613.47934   -883.28608   -2942.8418 
20908000    244.23313    -3926.744   -3508.1368    -3926.744            0    7115.2105    17.088963    20.128542    20.848495    7171.3802    6398.2335    8836.4233    6110.9748    259.75944   -1215.1943   -1096.3915   -2763.9766 
20909000    250.05904   -3921.0019   -3492.4093   -3921.0019            0    6136.3175      17.0901     20.12988    20.849882    7172.8109    4917.4847     6455.699    7035.7687   -412.04933    79.504415   -69.168448   -2850.5008 
20910000    266.15273   -3908.6717   -3452.4951   -3908.6717            0    8745.0689    17.073911    20.110812    20.830132    7152.4473    7301.7305    9889.7779    9043.6982    1563.5381   -101.76834   -1301.2159   -2540.2873 
20911000    241.38621   -3938.8681   -3525.1404   -3938.8681            0    5560.8926    17.100237     20.14182    20.862249    7185.5823    6491.6274    4767.4784    5423.5719   -1312.4199    195.76299   -571.64224   -2942.3903 
20912000    251.28654   -3950.7064   -3520.0098   -3950.7064            0    6308.0008     17.14546    20.195087    20.917421    7242.7421    6961.5482      6549.84    5412.6143    793.85811    408.94238    1137.4573   -2853.7086 
20913000    256.49407   -3939.3156   -3499.6935   -3939.3156            0    6961.4983    17.181859     20.23796    20.961828     7288.968    7329.4285    6428.3519    7126.7144   -294.02364   -1359.6773    16.018567   -2759.6715 
20914000    244.02807   -3921.7425   -3503.4868   -3921.7425            0    7185.7791    17.100491    20.142119    20.862559    7185.9022     7109.585    7076.9786    7370.7738   -139.61447    504.06287   -855.54067   -2750.4242 
20915000    245.78855   -3920.0906   -3498.8175   -3920.0906            0    8589.7602    17.113252     20.15715    20.878127    7202.0017    8138.8582    7839.0676    9791.3547    24.167357    1148.1904    609.19002   -2596.6023 
20916000    250.19185   -3900.3849   -3471.5646   -3900.3849            0    5558.3189     17.15238    20.203238    20.925864    7251.5152    6361.2811    3506.2832    6807.3924   -321.04848   -1458.7894    1994.6584   -2883.7395 
20917000    233.70611   -3932.1971   -3531.6328   -3932.1971            0    4714.8849    17.162464    20.215115    20.938166    7264.3119    5302.7709    5214.3165    3627.5672   -571.30649    501.73572     252.5446    -3032.126 
20918000    261.06172   -3915.9276   -3468.4767   -3915.9276            0    5580.8093    17.106841    20.149599    20.870306    7193.9105    3903.2358    6670.4528    6168.7393    119.54816   -1356.6288   -991.63803   -2882.9616 
20919000    244.84823   -3886.5348   -3466.8733   -3886.5348            0    6307.3166    17.122202    20.167692    20.889047    7213.3076    3957.5683    6815.7077    8148.6737   -431.65771    -702.6357   -249.81296   -2803.3519 
20920000    258.06328   -3904.0813   -3461.7697   -3904.0813            0     6986.096    17.040642    20.071626    20.789544    7110.7183    4684.8768    7568.9631    8704.4482    411.58534   -1453.9204   -74.080514   -2737.2938 
20921000     246.6933   -3928.0784   -3505.2545   -3928.0784            0    5993.5426    17.139945    20.188592    20.910693    7235.7557    6782.8901     4819.564    6378.1738    -1485.067   -1123.4218    1222.6416   -2872.7795 
20922000    245.09605   -3898.2036   -3478.1174   -3898.2036            0    6287.4439    17.127683    20.174149    20.895734    7220.2374     6994.112    3835.6691    8032.5506   -444.98259    222.47047    119.80416   -2816.0511 
20923000    247.89643   -3931.5927   -3506.7067   -3931.5927            0    4617.8198    17.173304    20.227884    20.951391    7278.0863    3559.0591    3785.1107    6509.2894    1357.2115    1260.9876   -724.75563   -3016.5555 
20924000    246.60365   -3936.9961   -3514.3259   -3936.9961            0    6064.1532    17.119931    20.165018    20.886276    7210.4382    4851.9332    5711.3797    7629.1465    965.23645    1526.8687    99.279397   -2876.6387 
20925000    245.84551   -3897.2395   -3475.8687   -3897.2395            0     5144.479    17.178846    20.234412    20.958152    7285.1345    5928.8886    4300.2464    5204.3021   -930.10673    112.22494    305.78049   -2929.2872 
20926000    255.89383   -3953.1026   -3514.5093   -3953.1026            0     5212.816    17.209172    20.270132     20.99515    7323.7843    5789.8141    3653.9046    6194.7292    1056.2451    1490.9981   -1105.4201   -2957.7291 
20927000    255.86874   -3902.0732   -3463.5229   -3902.0732            0    6973.1945    17.163762    20.216645     20.93975    7265.9607    7969.7572    5984.3875    6965.4389   -438.16156    549.52796    333.14346   -2724.5973 
20928000    253.68393   -3917.7105   -3482.9049   -3917.7105            0    5438.9005     17.15977    20.211943     20.93488    7260.8924    6927.3994    5204.4971     4184.805    98.173771    928.13833    1150.3005   -2906.9652 
20929000    253.63443   -3941.4737   -3506.7529   -3941.4737            0    5657.3472    17.157367    20.209112    20.931948    7257.8422    6181.4445    5146.8886    5643.7085   -329.15511    1350.1862   -776.89633    -2907.933 
20930000    251.24361    -3932.884   -3502.2611    -3932.884            0    8254.2448    17.098223    20.139449    20.859793    7183.0445    9917.1782    6734.8594    8110.6969    1062.6552    427.02191    -235.5801   -2637.5684 
20931000    246.13653   -3909.4177   -3487.5481   -3909.4177            0    4923.1745     17.18922     20.24663    20.970808    7298.3397    5649.9608    6187.2695    2932.2932    426.15009   -177.97315   -624.94228   -2963.5313 
20932000    259.75157   -3889.6248   -3444.4195   -3889.6248            0    7523.7872    17.173609    20.228243    20.951763    7278.4733    8327.6867    6850.7398    7392.9351    452.51204    758.20676   -748.38371   -2645.7765 
20933000    243.49887   -3942.2059   -3524.8572   -3942.2059            0    5226.8865    17.222242    20.285526    21.011095    7340.4834    5934.0981    6798.7966    2947.7649     506.9203   -1128.9956    65.262595   -2965.3011 
20934000     249.5268   -3949.7603   -3522.0799   -3949.7603            0    8171.5623    17.180078    20.235862    20.959655    7286.7012    5722.7014    8211.9377    10580.048    1542.7919    73.969181    896.93035   -2653.6957 
20935000    264.94613   -3942.8724   -3488.7638   -3942.8724            0    7462.4976     17.22749    20.291708    21.017498     7347.196    7058.8665     9310.581    6018.0452   -464.50986   -899.61383    218.49599   -2689.1473 
20936000    244.36078   -3905.4528   -3486.6268   -3905.4528            0    4465.3417    17.270964    20.342914    21.070535    7402.9582    5225.8007    4822.6525    3347.5719   -330.08546   -1221.2055     403.1064   -3004.5282 
20937000     236.5153   -3920.9597   -3515.5806   -3920.9597            0    8558.9182    17.173263    20.227836    20.951341    7278.0339    8870.7632    9430.0691    7375.9223    -632.4756   -1442.2304   -1289.4951   -2607.1143 
20938000    258.36232   -3908.5957   -3465.7715   -3908.5957            0    5069.4576    17.251222    20.319661    21.046451    7377.6019    4711.7493    3756.7477    6739.8759    516.55309    375.03487    302.65697   -2920.3244 
20939000    240.86141   -3941.5928   -3528.7646   -3941.5928            0    7495.4127    17.190288    20.247889    20.972111    7299.7007    7623.2785    8296.5829    6566.3766   -857.34146    909.30696   -1339.0564   -2730.8131 
20940000    266.11264   -3901.4452   -3445.3373   -3901.4452            0    6670.5644    17.125281    20.171319    20.892803    7217.1993    7422.3065    6231.3841    6358.0025   -787.25049   -898.74989   -1350.0914    -2743.224 
20941000    244.12952   -3899.1119   -3480.6823   -3899.1119            0    5250.1795    17.175423     20.23038    20.953976    7280.7803     5482.497     5349.415    4918.6265   -1319.5053   -307.94594    39.378406    -2923.204 
20942000     247.4214   -3898.5486   -3474.4768   -3898.5486            0    5752.6703    17.113215    20.157107    20.878082     7201.955    7088.4734      5063.04    5106.4976   -27.561471     324.7925   -138.16962   -2870.2559 
20943000    248.09124   -3894.6744   -3469.4545   -3894.6744            0    5444.1485    17.127975    20.174492    20.896089    7220.6057    2692.3265    6666.8104    6973.3086   -1151.2426     999.5817    1112.2588   -2896.1578 
20944000    256.08523   -3908.7939   -3469.8726   -3908.7939            0    5395.0602    17.206284     20.26673    20.991627    7320.0978    7452.0267    6159.6348    2573.5192   -1040.6429    425.29785    1829.8166   -2893.9169 
20945000    248.71086   -3920.6882   -3494.4063   -3920.6882            0    6009.1791    17.243948    20.311093    21.037576    7368.2726    4334.9998    5345.8859    8346.6517   -183.33335     44.54899    1222.5055   -2848.6677 
20946000    251.35581   -3894.9084   -3464.0931   -3894.9084            0    6277.7737     17.17887     20.23444    20.958181    7285.1647    7117.9841    5916.4481    5798.8888       231.42    651.86019     465.1994   -2797.1007 
20947000    249.83269   -3908.5522   -3480.3475   -3908.5522            0    5342.3803    17.191466    20.249276    20.973548    7301.2011     5446.771    4899.4811    5680.8888   -231.18464     381.5628    -557.8025    -2911.488 
20948000    253.63192    -3907.129   -3472.4125    -3907.129            0    6806.1271    17.225237    20.289054    21.014749    7344.3133    6750.6703    6614.0385    7053.6726    325.90329    69.100833   -388.84003   -2743.4132 
20949000    260.01425   -3907.5823   -3461.9268   -3907.5823            0    6435.6499    17.268367    20.339855    21.067367    7399.6196    7624.9618    4336.1003    7345.8876   -350.56724    2261.8283   -132.30797   -2767.4181 
20950000    253.22448   -3924.1726   -3490.1545   -3924.1726            0    5606.7856    17.248106    20.315991    21.042649    7373.6045    5745.0797    5596.0193    5479.2577   -106.32034    998.94916   -1156.5581   -2887.2206 
20951000    239.12132   -3889.2836   -3479.4379   -3889.2836            0    6185.0717    17.240548    20.307088    21.033428     7363.915    6929.0984     5989.936    5636.1807   -214.14434   -792.85282    493.68776   -2815.1912 
20952000    256.86903   -3896.5999   -3456.3351   -3896.5999            0    6864.5962    17.146324    20.196105    20.918476    7243.8373    6884.8684    7369.9307    6338.9893    69.309216   -436.86779    1139.9161   -2731.1322 
20953000    244.41916   -3907.0768   -3488.1508   -3907.0768            0    8840.1499    17.111535    20.155128    20.876033    7199.8344    8470.3819    8607.6218     9442.446   -504.83105   -176.59222     1116.544   -2559.9156 
20954000    237.53523   -3919.2087   -3512.0814   -3919.2087            0    6420.1022    17.122756    20.168345    20.889722    7214.0074    6477.4012    5413.8144    7369.0908    536.74199    869.86973    806.50161   -2836.6295 
20955000    233.14505   -3904.8779   -3505.2752   -3904.8779            0    5585.1893    17.052326    20.085388    20.803798    7125.3545    6055.6302     5136.669    5563.2688   -806.93667    1661.2683    -744.2061   -2924.8848 
20956000    243.65946   -3913.5404   -3495.9164   -3913.5404            0    3834.6684    17.184007     20.24049    20.964448    7291.7017    4054.4753    4375.4347    3074.0952    886.84565   -1002.6119   -887.27451   -3088.1301 
20957000    242.73981   -3918.8436   -3502.7959   -3918.8436            0    4662.3772    17.187762    20.244913    20.969029    7296.4828    4282.1415    4597.3499    5107.6403   -268.25741    601.29828   -235.43722   -3006.6643 
20958000    247.18129   -3893.6444   -3469.9841   -3893.6444            0    7104.9379    17.042041    20.073274    20.791251    7112.4699    7319.6349    8080.4163    5914.7625   -873.78063   -427.24508    813.90917   -2733.0025 
20959000    247.83165   -3907.7173   -3482.9423   -3907.7173            0    6344.2094    17.082443    20.120862    20.840541     7163.175    6498.2762    4952.0211    7582.3309   -515.96112    44.831785   -464.08335   -2820.1782 
20960000    251.90412   -3873.3142   -3441.5591   -3873.3142            0    6639.4022    17.060111    20.094557    20.813296     7135.118     6404.124    6076.2584    7437.8243   -1206.9097   -2488.8558    214.00123   -2750.6737 
20961000    247.51485   -3910.7312   -3486.4992   -3910.7312            0    8132.4572    17.126355    20.172584    20.894113    7218.5575    7872.2973    7638.6717    8886.4024    476.60493   -1327.5798    98.529801   -2630.3527 
20962000    258.61942   -3927.5044   -3484.2396   -3927.5044            0    6909.4566    17.128451    20.175053    20.896671    7221.2084    6225.8711    7210.3665     7292.132    1039.0551   -916.22502   -610.47482   -2756.5776 
20963000    260.73436   -3919.6332   -3472.7434   -3919.6332            0    6381.7886    17.078004    20.115633    20.835125    7157.5921    6732.7189    3884.9871    8527.6597   -518.61757   -178.50178   -1337.6677   -2806.5732 
20964000     258.1068   -3937.1567   -3494.7704   -3937.1567            0    4671.9774    17.128591    20.175217    20.896841    7221.3846    4121.1703     3321.533    6573.2288    585.92507    1016.2482    1370.8445   -3002.7342 
20965000    230.94039   -3955.9025   -3560.0786   -3955.9025            0     7070.764    17.095703     20.13648    20.856718    7179.8688    6572.7446    5816.3224    8823.2248   -349.98775    1497.0645    331.51774   -2819.6917 
20966000    246.44834   -3929.0933   -3506.6893   -3929.0933            0    9056.5839    17.050124    20.082794    20.801112    7122.5948    8072.7716    11182.499     7914.481    918.10203    109.64841     842.2379     -2565.93 
20967000    249.80442   -3952.6339   -3524.4777   -3952.6339            0    6532.2311    17.179668     20.23538    20.959155    7286.1803    7125.0106    6734.6361    5737.0466   -314.93977   -194.92326     1416.044   -2830.3533 
20968000    253.90908   -3926.4717   -3491.2802   -3926.4717            0    5205.4042    17.138234    20.186576    20.908606    7233.5887    3896.0288    5263.0997    6457.0842   -1269.9039    1113.2004   -242.97757   -2942.1388 
20969000    253.09497   -3901.3645   -3467.5684   -3901.3645            0    5580.7812    17.170307    20.224354    20.947735    7274.2763    5463.0743    4432.5121    6846.7571   -861.80011   -45.378573    813.76851   -2875.5152 
20970000    240.47538    -3918.156   -3505.9894    -3918.156            0    6562.6812     17.12938    20.176146    20.897803    7222.3825    7409.4661    5096.0797    7182.4978    117.44603    302.28282   -555.70112   -2814.7354 
20971000    250.33394    -3913.119   -3484.0552    -3913.119            0     5048.295    17.149199    20.199492    20.921983     7247.482    4930.8921    6859.5545    3354.4384   -773.91423   -836.33481    213.45155   -2950.4651 
20972000    247.93861   -3928.4962   -3503.5379   -3928.4962            0    6730.9117    17.127235     20.17362    20.895187    7219.6702    7439.8815    5894.3882    6858.4654    1195.3902    879.87162   -1990.9143   -2794.8302 
20973000    238.25475   -3891.5605      -3483.2   -3891.5605            0    7330.0347    17.137263    20.185432     20.90742    7232.3585    8332.3622    7373.4265    6284.3155      598.516    1317.8447    3.5370775   -2710.0533 
20974000    246.10001   -3874.3055   -3452.4985   -3874.3055            0    7594.5953    17.072328    20.108947      20.8282    7150.4569    9603.8909    5074.4608    8105.4343    983.07298   -1136.8499   -106.37678   -2660.5183 
20975000    246.91527   -3890.3769   -3467.1726   -3890.3769            0    7360.6512    17.191303    20.249084     20.97335     7300.994    6805.9145     7107.089      8168.95    662.53537    -64.94916    988.21116   -2683.4288 
20976000    254.44748   -3905.0746   -3468.9604   -3905.0746            0    5460.1473    17.184853    20.241487    20.965481    7292.7796    7450.8135    4579.6138    4350.0145    1554.5956   -613.07307     925.3534   -2888.2316 
20977000    252.35068   -3853.9225   -3421.4021   -3853.9225            0    6174.5194    17.229799    20.294428    21.020315    7350.1509    7461.8793    5832.4892    5229.1895   -786.51678    1363.2193    1749.0135   -2759.5281 
20978000    259.69402   -3903.6958   -3458.5891   -3903.6958            0     5899.491    17.134742    20.182463    20.904345    7229.1675      5714.15     5366.804    6617.5189    308.54033   -204.37126   -863.01737   -2836.6058 
20979000    254.00449   -3917.2443   -3481.8893   -3917.2443            0    5760.8969    17.134404    20.182065    20.903933    7228.7402    4468.2852    6875.1109    5939.2945    689.10478    40.398642   -621.92731   -2874.5538 
20980000    256.73831   -3917.2109   -3477.1702   -3917.2109            0    7683.9481    17.071806    20.108333    20.827564    7149.8018    7609.3129      8744.42    6698.1114   -951.99199    648.10374    505.88077   -2675.9455 
20981000    264.91135   -3947.0664   -3493.0174   -3947.0664            0    3873.4409    17.242648    20.309562    21.035991    7366.6071    4486.5889    5127.6552    2006.0786   -6.9427996   -1147.3951    309.46306   -3076.8766 
20982000    253.68175   -3930.2708    -3495.469   -3930.2708            0     5318.013    17.142545    20.191653    20.913865    7239.0482    4099.1962    7386.6195    4468.2234     2119.443     495.4604    738.61306   -2934.0246 
20983000    240.84091    -3898.791   -3485.9979    -3898.791            0    6394.1066    17.172558    20.227005     20.95048    7277.1371     4495.274     5502.832    9184.2138   -195.69341    433.98927    142.13034   -2807.3941 
20984000    254.84967   -3867.1222   -3430.3186   -3867.1222            0    8630.0548    17.079017    20.116826    20.836361    7158.8657    8332.4327    9139.8819    8417.8498   -934.11313    291.92893    58.793967   -2529.3002 
20985000    244.25828   -3910.9133   -3492.2629   -3910.9133            0    6012.2723    17.151092     20.20172    20.924292    7249.8812    5755.5327    6113.3762    6167.9079    -202.1282    1006.0578    351.95505   -2856.5729 
20986000    249.03497   -3909.9792   -3483.1418   -3909.9792            0    3721.6486    17.223226    20.286685    21.012295    7341.7413    4587.1817     5315.885     1261.879   -544.69962   -610.51347    479.07289   -3084.6583 
20987000    243.43037   -3886.9697   -3469.7384   -3886.9697            0     4026.542    17.164852    20.217928    20.941079    7267.3451    4454.0324    3777.2341    3848.3595   -263.52981    1049.2786   -876.06236   -3042.9782 
20988000    263.64473   -3888.9371    -3437.059   -3888.9371            0    8320.0114    17.072496    20.109146    20.828406    7150.6691    7034.3069    9634.8656    8290.8617   -694.92813    925.76476   -375.34154   -2569.4052 
20989000    241.37626   -3871.9697    -3458.259   -3871.9697            0    5666.7004    17.221977    20.285213    21.010771    7340.1438    5293.5635    4215.1697    7491.3681    1067.7828   -1260.6678     119.8795   -2851.6474 
20990000    259.25351   -3905.6002   -3461.2485   -3905.6002            0     6797.394     17.07289     20.10961    20.828886    7151.1642    7174.6057    8061.9832    5155.5931   -367.69525   -318.47467   -220.00106    -2752.332 
20991000    240.61809   -3912.5651   -3500.1539   -3912.5651            0    5755.8865    17.143576    20.192869    20.915123    7240.3553    4137.2355    7080.1858    6050.2381    384.85364    400.70724    869.07109   -2892.3717 
20992000    246.73816   -3893.8916   -3470.9908   -3893.8916            0    5930.1318    17.188433    20.245703    20.969848    7297.3373    4776.6942    7553.7357    5459.9654     -974.305    1158.2466   -1324.9012   -2839.8814 
20993000    258.36412   -3896.7746   -3453.9474   -3896.7746            0    6942.3258    17.131643    20.178812    20.900564    7225.2456    7273.5667    7048.2428    6505.1681   -423.87996   -882.85431   -603.41507   -2722.4151 
20994000     246.7671   -3890.2122   -3467.2619   -3890.2122            0    5503.3948    17.174899    20.229763    20.953337    7280.1139    5391.6479    6483.8441    4634.6923    187.56959   -414.68625   -273.24086     -2882.95 
20995000    255.87906   -3908.5115   -3469.9435   -3908.5115            0    5316.6262    17.192352     20.25032    20.974629      7302.33    5019.7437     5717.336     5212.799   -1030.3876    608.88254   -16.176718   -2903.7388 
20996000    259.25946   -3930.7871   -3486.4252   -3930.7871            0    5761.5111    17.179521    20.235207    20.958976     7285.993    5531.8217    5462.6124    6290.0993    -2818.332    815.49033    32.342498   -2874.2144 
20997000    247.25458   -3925.0923   -3501.3064   -3925.0923            0    6478.2435    17.135394    20.183231    20.905141    7229.9932    7102.1962    5783.0212    6549.5132   -1237.7454     230.5563   -1607.9024   -2818.2272 
20998000    257.67168   -3901.2815   -3459.6411   -3901.2815            0    6497.6873    17.129523    20.176316    20.897978    7222.5643    7978.1057    5136.3897    6378.5664   -592.31306   -2409.0687   -1148.8217   -2775.2157 
20999000    244.53674   -3926.4208   -3507.2932   -3926.4208            0    6771.4633      17.0919    20.132001    20.852078    7175.0783     7058.808    6806.7658    6448.8162   -908.49143     519.7845   -551.21973   -2798.7194 
21000000    251.64013   -3875.5333   -3444.2307   -3875.5333            0    6721.2379    17.100332    20.141932    20.862365    7185.7023    6373.1629    6195.9717    7594.5793   -6.9301947   -2214.5142    216.32032   -2739.8712 
Loop time of 423.511 on 64 procs for 250000 steps with 864 atoms

Performance: 102.004 ns/day, 0.235 hours/ns, 590.304 timesteps/s
99.1% CPU use with 64 MPI tasks x 1 OpenMP threads

MPI task timing breakdown:
Section |  min time  |  avg time  |  max time  |%varavg| %total
---------------------------------------------------------------
Pair    | 20.104     | 25.929     | 31.122     |  51.3 |  6.12
Bond    | 0.27246    | 0.28155    | 0.29753    |   1.0 |  0.07
Kspace  | 184.93     | 192.49     | 201.51     |  27.7 | 45.45
Neigh   | 4.7642     | 5.5327     | 6.1081     |  14.6 |  1.31
Comm    | 85.116     | 92.759     | 102        |  37.3 | 21.90
Output  | 1.7777     | 1.7786     | 1.7804     |   0.0 |  0.42
Modify  | 97.351     | 100.11     | 103.38     |  17.5 | 23.64
Other   |            | 4.637      |            |       |  1.09

Nlocal:        13.5000 ave          19 max           9 min
Histogram: 1 5 6 8 13 10 8 9 3 1
Nghost:        2207.72 ave        2264 max        2169 min
Histogram: 3 6 14 11 9 7 6 6 0 2
Neighs:        4294.06 ave        6403 max        2820 min
Histogram: 7 4 9 11 10 11 5 3 3 1

Total # of neighbors = 274820
Ave neighs/atom = 318.07870
Ave special neighs/atom = 2.0000000
Neighbor list builds = 12783
Dangerous builds = 1

unfix		3
unfix		2
unfix		1

write_data	data.final.${pid}
write_data	data.final.0
System init for write_data ...
PPPM initialization ...
  extracting TIP4P info from pair style
  using 12-bit tables for long-range coulomb (../kspace.cpp:340)
  G vector (1/distance) = 0.37365393
  grid = 24 24 24
  stencil order = 5
  estimated absolute RMS force accuracy = 0.0032310336
  estimated relative force accuracy = 9.7301616e-06
  using double precision FFTW3
  3d grid and FFT values/proc = 2535 216
Last active /omp style is kspace_style pppm/tip4p/omp
WARNING: Not all mixed pair coeffs generated from mixing. Use write_data with 'pair ij' option to store all pair coeffs. (../write_data.cpp:312)

write_restart   restart.lmp.${pid}
write_restart   restart.lmp.0
System init for write_restart ...
PPPM initialization ...
  extracting TIP4P info from pair style
  using 12-bit tables for long-range coulomb (../kspace.cpp:340)
  G vector (1/distance) = 0.37365393
  grid = 24 24 24
  stencil order = 5
  estimated absolute RMS force accuracy = 0.0032310336
  estimated relative force accuracy = 9.7301616e-06
  using double precision FFTW3
  3d grid and FFT values/proc = 2535 216
Last active /omp style is kspace_style pppm/tip4p/omp
Total wall time: 0:07:03
