LAMMPS (30 Jul 2021)
  using 1 OpenMP thread(s) per MPI task
package omp 0
using multi-threaded neighbor list subroutines
echo both

include		in.partitions
variable        pid world 0
include		in.temp
variable        temperature equal 267.22
variable	tempDamp equal 100.0
include		in.pressure
variable        pressure equal 10000.0
variable        pressureDamp equal 1000.0 # This is 1 ps
include		in.seed
variable        seed world 745823

units		real
atom_style	full
read_restart	restart.lmp.${pid}
read_restart	restart.lmp.0
Reading restart file ...
  restart file = 30 Jul 2021, LAMMPS = 30 Jul 2021
  restoring atom style full from restart
  orthogonal box = (0.65764143 1.8661460 0.80232101) to (17.549931 21.763032 21.410875)
  4 by 4 by 4 MPI processor grid
  restoring pair style lj/cut/tip4p/long/omp from restart
  restoring bond style harmonic/omp from restart
  restoring angle style harmonic/omp from restart
  864 atoms
  576 bonds
  288 angles
Finding 1-2 1-3 1-4 neighbors ...
  special bond factors lj:    0        0        0       
  special bond factors coul:  0        0        0       
     2 = max # of 1-2 neighbors
     1 = max # of 1-3 neighbors
     1 = max # of 1-4 neighbors
     2 = max # of special neighbors
  special bonds CPU = 1.322 seconds
  read_restart CPU = 1.528 seconds
include 	in.setup
variable	out_freq equal 1000
variable	out_freq2 equal 10000
variable	out_freq3 equal 1000

timestep	2.0

neigh_modify    delay 7 every 1

include		in.tip4p
# This is TIP4P/Ice

# create groups ###
group ox type 2
288 atoms in group ox
group hy type 1
576 atoms in group hy

# set charges - beside manually ###
set group ox charge -1.1794
Setting atom values ...
  288 settings made for charge
set group hy charge 0.5897
Setting atom values ...
  576 settings made for charge

# ### TIP3P Potential Parameters ###
pair_style lj/cut/tip4p/long/omp 2 1 1 1 0.1577 8.5
pair_coeff 1 1*2 0.000 0.000
pair_coeff 2 2 0.21084 3.1668
bond_style  harmonic
bond_coeff  1 450 0.9572
angle_style harmonic
angle_coeff 1 55 104.52
kspace_style pppm/tip4p/omp 1.0e-5
pair_modify tail yes

thermo          ${out_freq}
thermo          1000
thermo_style    custom step temp pe etotal epair emol press lx ly lz vol pxx pyy pzz pxy pxz pyz enthalpy

restart 	${out_freq3} restart.lmp.${pid} restart2.lmp.${pid}
restart 	1000 restart.lmp.${pid} restart2.lmp.${pid}
restart 	1000 restart.lmp.0 restart2.lmp.${pid}
restart 	1000 restart.lmp.0 restart2.lmp.0


include         in.dump
dump            myDump all atom ${out_freq2} dump.water.${pid}
dump            myDump all atom 10000 dump.water.${pid}
dump            myDump all atom 10000 dump.water.0
dump            myDump2 all dcd ${out_freq2} dump.dcd
dump            myDump2 all dcd 10000 dump.dcd
dump_modify     myDump append yes
dump_modify     myDump2 append yes


variable natoms 	equal  "count(all)"                        # NUMBER ATOMS
variable H      	equal  "enthalpy/v_natoms"                 # ENTHALPY-per-atom
variable Vol      	equal  "vol/v_natoms"                 # volume-per-atom
fix AVG all 		ave/time ${out_freq} 1 ${out_freq} v_Vol v_H file vol_enthalpy.dat
fix AVG all 		ave/time 1000 1 ${out_freq} v_Vol v_H file vol_enthalpy.dat
fix AVG all 		ave/time 1000 1 1000 v_Vol v_H file vol_enthalpy.dat


timer           timeout 23:50:00 every 1000
New timer settings: style=normal  mode=nosync  timeout=23:50:00

fix 		1 all shake 1e-6 200 0 b 1 a 1
       0 = # of size 2 clusters
       0 = # of size 3 clusters
       0 = # of size 4 clusters
     288 = # of frozen angles
  find clusters CPU = 0.249 seconds
fix             2 all nph iso ${pressure} ${pressure} ${pressureDamp}
fix             2 all nph iso 10000 ${pressure} ${pressureDamp}
fix             2 all nph iso 10000 10000 ${pressureDamp}
fix             2 all nph iso 10000 10000 1000
fix             3 all temp/csvr ${temperature} ${temperature} ${tempDamp} ${seed}
fix             3 all temp/csvr 267.22 ${temperature} ${tempDamp} ${seed}
fix             3 all temp/csvr 267.22 267.22 ${tempDamp} ${seed}
fix             3 all temp/csvr 267.22 267.22 100 ${seed}
fix             3 all temp/csvr 267.22 267.22 100 745823

run             250000
PPPM initialization ...
  extracting TIP4P info from pair style
  using 12-bit tables for long-range coulomb (../kspace.cpp:340)
  G vector (1/distance) = 0.37466397
  grid = 24 24 24
  stencil order = 5
  estimated absolute RMS force accuracy = 0.003115397
  estimated relative force accuracy = 9.3819255e-06
  using double precision FFTW3
  3d grid and FFT values/proc = 2535 216
Last active /omp style is kspace_style pppm/tip4p/omp
Neighbor list info ...
  update every 1 steps, delay 7 steps, check yes
  max neighbors/atom: 2000, page size: 100000
  master list distance cutoff = 10.8154
  ghost atom cutoff = 10.8154
  binsize = 5.4077, bins = 4 4 4
  1 neighbor lists, perpetual/occasional/extra = 1 0 0
  (1) pair lj/cut/tip4p/long/omp, perpetual
      attributes: half, newton on, omp
      pair build: half/bin/newton/omp
      stencil: half/bin/3d
      bin: standard
Per MPI rank memory allocation (min/avg/max) = 9.236 | 9.240 | 9.245 Mbytes
Step Temp PotEng TotEng E_pair E_mol Press Lx Ly Lz Volume Pxx Pyy Pzz Pxy Pxz Pyz Enthalpy 
12000000    278.37816   -3827.3692   -3350.2385   -3827.3692            0    10266.881     16.89229    19.896886    20.608554    6926.6164    9740.4364    11593.412    9466.7948   -1958.3126   -452.84239    322.06802   -2313.1029 
12001000     271.8535   -3849.8451   -3383.8976   -3849.8451            0     9939.775    16.882246    19.885055      20.5963    6914.2683    9351.1401    9529.1691    10939.016    375.16296    1092.9248   -749.14317   -2381.5954 
12002000    275.06819   -3879.2606   -3407.8031   -3879.2606            0    10914.665    16.850544    19.847715    20.557624    6875.3901    10428.235    10675.704    11640.057   -681.72027     197.4807   -2586.8724    -2313.384 
12003000    273.02638   -3890.3112   -3422.3533   -3890.3112            0    9603.9723    16.921527    19.931324    20.644224    6962.6452    9154.7383    9730.8133    9926.3654    1583.2313   -1350.7673   -632.33695   -2447.1368 
12004000    253.85048   -3884.2193   -3449.1282   -3884.2193            0    10649.651    16.805595    19.794771    20.502787    6820.5165     11507.65    9139.8189    11301.485   -1157.8428    556.30293    1341.4304   -2389.8049 
12005000    261.39285   -3851.7727   -3403.7543   -3851.7727            0    10182.982    16.851211    19.848501    20.558438    6876.2072    9184.0888    11112.626    10252.232    -1103.114    567.18662   -226.19427   -2382.5801 
12006000    269.35812   -3865.1644   -3403.4938   -3865.1644            0    9125.2611    16.857016    19.855338     20.56552    6883.3153    7331.5657    10161.835    9882.3829   -266.22904    884.03002   -361.76053   -2487.4445 
12007000    266.35558   -3847.7527   -3391.2284   -3847.7527            0    9459.4102    16.856672    19.854933      20.5651    6882.8938    9839.4619    8930.2343    9608.5343    538.41102    687.35439    442.44772   -2441.6933 
12008000    270.00953   -3843.0795   -3380.2924   -3843.0795            0    10072.199    16.828415     19.82165    20.530627    6848.3389    11831.618    8424.5553    9960.4255    59.021391   -307.73203   -349.02433   -2374.3214 
12009000    280.30209   -3827.2185   -3346.7903   -3827.2185            0    12063.364    16.775981    19.759889    20.466657    6784.5235     9969.431    12366.985    13853.676    909.29704   -289.04785   -626.19759    -2153.177 
12010000    257.07179   -3800.6203   -3360.0081   -3800.6203            0    11378.928    16.785313    19.770882    20.478043    6795.8526    12750.423    11506.018    9880.3432    377.96424   -608.19076   -781.94974   -2232.2364 
12011000    271.96021   -3850.4925    -3384.362   -3850.4925            0    10346.367    16.813036    19.803535    20.511864    6829.5798    10306.842    10615.593    10116.666    426.90971   -589.76892     931.5427   -2353.8389 
12012000    273.03747   -3798.8117   -3330.8348   -3798.8117            0     9778.435     16.82345    19.815802     20.52457    6842.2795    11547.199    9133.5193    8654.5871    1099.1697    795.56467    432.77292    -2355.068 
12013000    267.14012   -3817.9911   -3360.1221   -3817.9911            0    7534.6987    16.862923    19.862296    20.572727    6890.5547    6970.2195    7347.4912    8286.3855   -67.716584    853.30213    -1685.564   -2602.9476 
12014000    256.31661   -3832.9073   -3393.5894   -3832.9073            0    9216.5248    16.864536    19.864195    20.574694    6892.5315    9746.4614    9465.8575    8437.2555    979.40176    979.55625    94.976244   -2467.1397 
12015000    272.73777   -3833.3167   -3365.8535   -3833.3167            0    11552.844    16.847969    19.844682    20.554482    6872.2385    13254.773    11879.527    9524.2331   -1185.1896    1023.1665     506.7272   -2207.9749 
12016000    274.47051   -3859.9873   -3389.5543   -3859.9873            0    9530.0131    16.866603     19.86663    20.577216    6895.0663    8962.8063    10548.209    9079.0242    576.99449    170.73386   -44.368613   -2431.2403 
12017000    269.81006   -3836.8237   -3374.3785   -3836.8237            0    9658.7268    16.902549    19.908971    20.621071    6939.2452    9281.2714    8709.9286     10984.98   -1248.3454    943.10813   -326.96107   -2396.8983 
12018000    265.23821   -3867.3723   -3412.7631   -3867.3723            0    9155.3613     16.85536    19.853388      20.5635    6881.2872    9170.3893    10233.206    8062.4887    570.57221   -805.81876   -491.64721   -2493.9629 
12019000    272.55202   -3836.3539   -3369.2091   -3836.3539            0    10914.993    16.859077    19.857766    20.568035    6885.8412    11843.664    11227.272    9674.0428    922.35989   -1484.3803    67.923516   -2273.0935 
12020000    260.13726   -3851.7602   -3405.8938   -3851.7602            0    8826.8499    16.861411    19.860514    20.570881    6888.7004    9224.8001    7970.7796    9284.9702    13.305992  -0.82951824   -72.561613   -2519.1076 
12021000    266.00941   -3865.9593   -3410.0283   -3865.9593            0    10156.216    16.914584    19.923146    20.635753    6954.0782    8449.1745    10211.719    11807.755    783.63846    1978.4559    1364.9633   -2380.0042 
12022000    283.31388   -3845.2871   -3359.6968   -3845.2871            0     10758.71    16.887209    19.890902    20.602356    6920.3689    9881.8173    10805.866    11588.447   -468.64914   -826.55134   -564.61321   -2273.8581 
12023000    260.47219   -3863.8251   -3417.3847   -3863.8251            0    11808.525    16.851344    19.848657      20.5586    6876.3695    12517.404    12676.855    10231.316    890.68061    1451.5823     763.0068   -2233.1692 
12024000    275.65129   -3813.3678    -3340.911   -3813.3678            0    10194.872    16.889572    19.893685    20.605238    6923.2739     10072.38    11357.564    9154.6707   -334.70747    1392.9954    1152.6014   -2311.5465 
12025000    284.08449   -3867.3398   -3380.4287   -3867.3398            0    9186.3986    16.913652    19.922048    20.634616    6952.9289    7940.7347    10257.176     9361.285   -141.29728   -1143.2443    681.49825   -2448.9156 
12026000    282.15474   -3832.7433   -3349.1398   -3832.7433            0    10102.232    16.883901    19.887005     20.59832    6916.3025    10170.408    9513.4617    10622.826    247.57441    2366.8488    2113.5648   -2330.1561 
12027000    272.04949   -3836.7223   -3370.4388   -3836.7223            0    10095.027     16.90463    19.911421    20.623609    6941.8078    9188.3508    10411.353    10685.376   -427.09663     1264.068   -56.520764   -2348.4269 
12028000    267.49813   -3863.3049   -3404.8222   -3863.3049            0    8117.0171    16.953326    19.968779    20.683019    7001.9719    7054.5909    7439.2414     9857.219   -1334.8731   -542.46354    541.04898   -2575.9402 
12029000    250.43732   -3865.7839   -3436.5429   -3865.7839            0    10056.067    16.853979    19.851761    20.561815    6879.5957     10502.98    9292.1859    10373.036   -262.42553   -420.39178   -26.736614   -2427.5991 
12030000     261.3842   -3830.2147   -3382.2111   -3830.2147            0    11079.099    16.918368    19.927603     20.64037    6958.7466    12149.527    10945.374    10142.398    -865.3118    267.19407    1673.4553   -2257.8356 
12031000    269.12124   -3834.1359   -3372.8713   -3834.1359            0    10048.246    16.934102    19.946135    20.659565     6978.179    8625.6553    10511.187    11007.896   -4.8493891    1181.9402   -989.76416   -2350.2655 
12032000    268.78934   -3867.2075   -3406.5117   -3867.2075            0    8976.8034    16.920426    19.930027     20.64288    6961.2861     9425.043     9053.562    8451.8054   -1238.4139    822.48925   -2191.6121   -2495.1578 
12033000    264.70248   -3863.5979   -3409.9069   -3863.5979            0    10008.081    16.855528    19.853585    20.563704    6881.4925    8791.3235    12692.203    8540.7175   -153.36309   -706.88365    1105.1344   -2405.5007 
12034000     263.9818   -3894.2809   -3441.8252   -3894.2809            0    9674.0234    16.869127    19.869604    20.580296     6898.163    8579.9875    11076.682    9365.4004   -30.390637   -394.45118    1406.1479    -2468.593 
12035000    252.51378   -3900.8002   -3468.0002   -3900.8002            0    10227.874    16.895972    19.901223    20.613046    6931.1473    10708.023    10313.654    9661.9447     1032.145   -335.35707    788.89611   -2434.1292 
12036000    264.52763   -3874.9909   -3421.5995   -3874.9909            0    11013.549    16.857456    19.855856    20.566057    6883.8544    11734.172    9669.0831    11637.391   -221.98439    2231.5111   -26.420866   -2315.9058 
12037000    267.59057   -3863.4584   -3404.8173   -3863.4584            0     9007.101    16.936051    19.948431    20.661942    6980.5885    10277.696    9277.8992    7465.7078    632.91828    1.0239304   -29.838812   -2487.8519 
12038000    265.34802   -3874.6613   -3419.8638   -3874.6613            0    9516.5968    16.895733    19.900941    20.612754    6930.8529    8101.5667    10829.789    9618.4343   -1494.8284   -554.09313    -1398.302   -2457.9321 
12039000    273.60287   -3889.8265   -3420.8806   -3889.8265            0    11249.007    16.880447    19.882937    20.594106    6912.0592    10033.786    12274.992    11438.243   -1536.3223    794.92836    759.57459   -2286.9211 
12040000    269.86796   -3868.0916   -3405.5472   -3868.0916            0    10883.654    16.862659    19.861985    20.572404    6890.2306    9807.3705    10225.051    12618.539   -796.01168    1193.0528   -687.23927   -2311.8821 
12041000    260.06714    -3868.943   -3423.1968    -3868.943            0    9212.3477    16.918861    19.928183    20.640971    6959.3541    9755.2146    10123.572    7758.2566    -185.8119   -543.02634    1644.2487   -2488.1892 
12042000    263.21044   -3863.3398   -3412.2061   -3863.3398            0    9745.7165    16.876906    19.878766    20.589786    6907.7102    6787.8198    12029.438    10419.891   -1020.3106    656.48763    605.47373   -2430.4044 
12043000    274.23458   -3842.1427    -3372.114   -3842.1427            0    10244.442    16.796316    19.783842    20.491466    6809.2254    12077.087    10166.493     8489.746    522.55126    1421.5179   -1009.4473   -2354.7838 
12044000    263.68263   -3829.0119   -3377.0689   -3829.0119            0    11886.223    16.775342    19.759137    20.465878    6783.7485    11154.668    10690.387    13813.613   -251.38245    120.77815     2461.768   -2201.1171 
12045000    254.86178   -3854.7939   -3417.9695   -3854.7939            0    10174.633     16.84762    19.844271    20.554057    6871.8118    7915.4333    8999.6042     13608.86   -386.21325    1605.3496   -766.03722   -2398.2849 
12046000    272.16726   -3843.6816   -3377.1962   -3843.6816            0    10019.333    16.870128    19.870783    20.581517    6899.3907    8364.1948    10207.207    11486.598   -240.80024    721.20735    797.42125   -2369.0455 
12047000    262.74765   -3841.3083   -3390.9678   -3841.3083            0    11203.839    16.812976    19.803465    20.511792    6829.5073    11900.372    12318.296     9392.849    244.71714     5.002611    851.70337   -2275.0502 
12048000    278.59486   -3831.4268   -3353.9247   -3831.4268            0    12537.796    16.793498    19.780523    20.488029    6805.7988    13818.661     12297.77    11496.958    323.14624   -1729.3552   -1733.6502   -2109.4783 
12049000    266.79661   -3803.9266   -3346.6463   -3803.9266            0    11082.631      16.8537    19.851433    20.561475    6879.2548    10049.183    10974.687    12224.022    2006.5883   -274.22046    1361.4686   -2234.7607 
12050000    272.08962   -3853.1069   -3386.7546   -3853.1069            0    8871.4219    16.874588    19.876036    20.586958    6904.8644    10014.858    8420.1489    8179.2588    1034.4967    57.603432   -983.08691   -2493.3992 
12051000    260.93341   -3808.9844   -3361.7535   -3808.9844            0    7922.5556    16.971883    19.990636    20.705658    7024.9896    7515.5958    9078.8913    7173.1797    1473.3072   -590.39849    787.76506   -2550.0697 
12052000    265.80592   -3858.4587   -3402.8765   -3858.4587            0    9278.9792     16.90438    19.911127    20.623305    6941.5005    9878.3373    8379.1791    9579.4213    193.86449    563.92844    189.57308   -2463.5221 
12053000    260.61084    -3839.174    -3392.496    -3839.174            0     10193.36    16.881268    19.883903    20.595107    6913.0667    11123.251    10646.434    8810.3965    1343.0717    197.50868    841.32334   -2364.8015 
12054000    274.41252   -3820.8921   -3350.5584   -3820.8921            0    8818.3764    16.878726     19.88091    20.592007    6909.9453    6730.2388    9997.7483     9727.142    631.47967    780.77021   -1227.8414   -2461.8913 
12055000    266.01046   -3838.7959    -3382.863   -3838.7959            0     9575.791    16.872856    19.873995    20.584844    6902.7374    11286.559    7351.6215    10089.193    263.72244   -91.974063   -204.69811   -2418.8744 
12056000    279.07763   -3832.9849   -3354.6554   -3832.9849            0    8038.4001    16.878325    19.880437    20.591517    6909.4522    6254.5661     11172.59    6688.0441    -628.9791    880.53625   -1588.1528   -2544.6477 
12057000    270.07012   -3853.0933   -3390.2023   -3853.0933            0    10393.468     16.88527    19.888617     20.59999    6917.9847    7429.9493    11735.411    12015.042    880.06377    1580.5051   -1620.4657   -2341.5876 
12058000    271.33584   -3829.0171   -3363.9568   -3829.0171            0    12529.437    16.772543     19.75584    20.462463    6780.3533    12939.609    10737.483    13911.219    404.22527   -263.36982    -2095.591   -2124.9896 
12059000     283.5679   -3841.9504   -3355.9247   -3841.9504            0    10849.748    16.843816     19.83979    20.549416    6867.1578    10527.376    9168.8562    12853.012   -91.395083    125.26227    353.25125   -2269.3175 
12060000    258.02859   -3844.8689   -3402.6168   -3844.8689            0    8795.3079     16.89416    19.899089    20.610835    6928.9172    7228.3898    7376.3346    11781.199    1573.7344   -463.42629    -279.7303   -2513.8408 
12061000    272.74047   -3848.6565   -3381.1887   -3848.6565            0    10017.189    16.903998    19.910677    20.622838    6941.0294    7938.1541    11998.426    10114.987    1264.0486   -44.711244    905.07411   -2367.1707 
12062000    279.85376   -3832.2764   -3352.6166   -3832.2764            0    10968.401    16.855408    19.853444    20.563558    6881.3461    12004.211    10880.045    10020.945    633.35676   -169.51473    931.23307   -2251.8567 
12063000    272.28649   -3819.6688   -3352.9791   -3819.6688            0    10555.966    16.896591    19.901952    20.613801    6931.9086     11240.76    9747.5007    10679.636    463.70805    250.64827    1183.0034   -2285.8261 
12064000    258.82192   -3800.2528   -3356.6409   -3800.2528            0    11081.152    16.846984    19.843522    20.553281    6871.0334     9740.747    11191.778    12310.931   -405.82449    20.373176    2121.0439   -2246.2322 
12065000    248.92374   -3849.1457   -3422.4989   -3849.1457            0    8253.8435    16.884757    19.888014    20.599365    6917.3551    8969.8843     8790.135    7001.5112   -529.18237    597.67171   -726.82044   -2589.8303 
12066000    290.92215    -3858.788   -3360.1574    -3858.788            0    10118.243    16.880509     19.88301    20.594182    6912.1351    9904.2824    10753.977    9696.4706    866.43999    482.77745    253.23537   -2340.1737 
12067000    254.46928   -3872.2169   -3436.0652   -3872.2169            0    8815.7767    16.901309    19.907509    20.619557    6937.7172    9639.0614    8581.3137     8226.955   -421.42417   -375.13096    34.472781   -2544.0894 
12068000    280.03195   -3871.1403   -3391.1751   -3871.1403            0    9205.7714    16.862773    19.862119    20.572544    6890.3706    9026.2286    9503.3747    9087.7108    772.59528    176.35369     349.5179   -2466.0965 
12069000    258.03205   -3892.2587   -3450.0006   -3892.2587            0    9223.7225    16.891641    19.896121    20.607762    6925.8181    10352.882    7806.8568    9511.4282    1659.4578    73.109489   -1009.4864   -2518.3497 
12070000    259.15197   -3844.1601   -3399.9825   -3844.1601            0    8110.6226    16.944267    19.958108    20.671966    6990.7525    6742.5356    7786.6735    9802.6586    206.76298     806.8476   -623.60136   -2573.0805 
12071000    264.65615   -3833.0972   -3379.4857   -3833.0972            0    10444.027    16.857567    19.855987    20.566192    6883.9904    11360.684    9684.8093    10286.587   -478.99003    -601.7324    1492.8271   -2330.9478 
12072000     285.0385   -3792.6292    -3304.083   -3792.6292            0    12014.634    16.846972    19.843507    20.553266    6871.0188    12883.946    10121.609    13038.348    932.00651     714.9935    173.82548   -2100.1354 
12073000    254.49536   -3883.0551   -3446.8588   -3883.0551            0    10403.208    16.898599    19.904317    20.616251    6934.3806    10937.593    9734.1821    10537.849   -24.866671   -77.290571   -21.902236   -2394.7738 
12074000     268.6305   -3858.3722   -3397.9488   -3858.3722            0    9973.0294    16.899187     19.90501    20.616969    6935.1047    9354.4813    9484.7419    11079.865   -727.95545   -960.06946   -253.30463   -2389.2627 
12075000    277.65593   -3860.7517   -3384.8589   -3860.7517            0    10744.674    16.895845    19.901073    20.612891    6930.9908    10865.237    12390.347    8978.4379   -292.37677    988.34118     -938.645   -2298.7723 
12076000    269.46917   -3842.9683   -3381.1074   -3842.9683            0    11259.177    16.842116    19.837788    20.547342    6865.0788    13364.064    10328.533    10084.933   -476.82122   -924.16605   -893.70337   -2253.8371 
12077000     263.3021   -3883.3895   -3432.0987   -3883.3895            0    10452.547    16.860968    19.859993    20.570342    6888.1582    10973.632     9003.858    11380.152     665.2447   -772.70517    1134.5595   -2382.0701 
12078000    283.11503   -3842.9173   -3357.6679   -3842.9173            0      10017.6     16.88854     19.89247     20.60398    6922.0054    9147.4353    10123.638    10781.726   -649.22464    -483.4981    102.54753   -2346.3877 
12079000    260.22649   -3858.3627   -3412.3434   -3858.3627            0    12355.995    16.795368    19.782724    20.490309    6808.0718    12296.523    11829.959    12941.504   -1706.4334   -83.106516   -1556.4039   -2185.5322 
12080000    276.91043   -3835.0936   -3360.4786   -3835.0936            0    8560.4234    16.944588    19.958487    20.672358    6991.1504    9716.9659    8705.6754    7258.6288    741.67236    2944.2733   -1298.7461   -2487.6684 
12081000    262.62022   -3850.2799   -3400.1579   -3850.2799            0    10611.237    16.873144    19.874335    20.585197     6903.092    11974.733    9342.9907    10515.988    636.44943    859.35995    1408.3988   -2331.8767 
12082000    268.69908   -3869.8541    -3409.313   -3869.8541            0     10277.74    16.832404    19.826348    20.535493    6853.2094    10210.838    12124.853    8497.5291    193.63802    245.91631   -1133.1452   -2382.0834 
12083000    256.28673   -3856.0765   -3416.8099   -3856.0765            0    10219.897    16.872641    19.873742    20.584583    6902.4741    9015.5264    11337.669    10306.495     -317.995   -421.19663    21.996363   -2388.0188 
12084000    284.14595   -3839.4307   -3352.4143   -3839.4307            0    9902.3684    16.943928     19.95771    20.671553    6990.3338     7771.562    12167.533    9768.0103   -145.46515    12.167145    567.77628    -2342.899 
12085000    278.39319   -3894.9671   -3417.8107   -3894.9671            0    7471.1248     16.86079    19.859783    20.570124    6887.9393    7385.1159    7689.9908    7338.2677    1004.8299    292.57973    810.09019   -2667.3098 
12086000    279.69554   -3885.0625   -3405.6739   -3885.0625            0    9809.4199    16.848504    19.845312    20.555136     6872.894    10784.495    7674.4215    10969.343   -164.73931    635.13948    -114.8413   -2422.4355 
12087000    254.36731    -3858.167   -3422.1901    -3858.167            0    10589.103    16.852375    19.849871    20.559858    6877.6315    11290.352    9048.6985    11428.258    228.32296   -798.52147    1474.2823   -2360.0692 
12088000    273.14156   -3865.0015   -3396.8462   -3865.0015            0     7624.003    16.995653    20.018635    20.734657    7054.5479    7846.9939    7619.8379    7405.1771   -90.395367    -1114.139     1384.594   -2612.4632 
12089000    254.70995   -3880.4067   -3443.8426   -3880.4067            0    11509.681    16.868333    19.868668    20.579327    6897.1882    11960.281    10886.169    11682.593     927.8651   -80.382101   -1390.3888    -2286.102 
12090000    258.04991   -3843.5228   -3401.2341   -3843.5228            0    9758.6804    16.895367    19.900511    20.612308    6930.4029    8755.7924     10267.36    10252.889    9.9383111   -2376.3312    939.74026   -2414.8968 
12091000    260.76524   -3875.5654   -3428.6227   -3875.5654            0      12153.4    16.827174    19.820188    20.529113    6846.8235    12759.842    11592.616    12107.741   -1422.0393   -108.80814   -893.43805   -2215.0584 
12092000    281.86323   -3872.3316   -3389.2276   -3872.3316            0    11654.153    16.878683    19.880859    20.591954     6909.892    11971.333    9837.4107    13153.717    964.68772    251.07717     -951.236   -2214.7956 
12093000    264.94846   -3863.6055   -3409.4929   -3863.6055            0    10459.415    16.866326    19.866305    20.576879    6894.7272    10676.259    8599.0805    12102.906    -1096.636   -473.18627   -2119.5939   -2357.7723 
12094000    262.55272   -3836.6572   -3386.6508   -3836.6572            0    10814.917    16.821394     19.81338    20.522061    6839.7703    11448.084    10927.757    10068.911    285.93798    968.02248    962.50828   -2307.8516 
12095000    265.95662    -3873.235   -3417.3945    -3873.235            0    7499.4074    16.930374    19.941744    20.655016    6973.5707    9207.9013    7118.2036    6172.1172   -444.31464   -754.44276    224.99586   -2654.6869 
12096000    256.87725    -3799.176   -3358.8972    -3799.176            0    10047.978    16.884114    19.887256    20.598579    6916.5639    10843.152    10558.562    8742.2191    490.74749   -794.21445   -1530.6323   -2345.3477 
12097000    265.69732    -3827.669   -3372.2729    -3827.669            0    9103.8382    16.917518    19.926601    20.639332    6957.6971    7712.6869    10612.334    8986.4942   -274.03734   -631.26897   -255.63035   -2448.4985 
12098000     261.2239   -3861.6736   -3413.9448   -3861.6736            0    9737.6728    16.932299    19.944012    20.657365    6975.9504     9157.137    9629.3072    10426.574    338.40612    430.81768    1154.7496   -2423.2624 
12099000    271.57683   -3825.3794    -3359.906   -3825.3794            0    10198.266    16.891969    19.896508    20.608162    6926.2216    9634.5927    11239.279    9720.9254    311.32802    826.81715    1855.4233   -2329.7605 
12100000    267.86249    -3852.995   -3393.8879    -3852.995            0    8309.6108    16.844149    19.840183    20.549823    6867.5658       9167.6    8724.5952     7036.637   -862.80187    21.035714   -720.36054   -2561.6271 
12101000    262.71195   -3848.5806   -3398.3013   -3848.5806            0    12274.243    16.837423     19.83226    20.541617    6859.3421    11361.429    11474.635    13986.666   -25.504047    1437.0254    1894.3174   -2170.4294 
12102000    273.89797    -3829.274   -3359.8222    -3829.274            0    10998.378    16.904474    19.911238    20.623419    6941.6164    9111.1946    13968.404     9915.536    1388.0154    220.18091   -277.84422   -2246.3865 
12103000    270.05346   -3850.8699   -3388.0075   -3850.8699            0    8169.1657    17.003966    20.028426    20.744799    7064.9038    9258.0767    6027.6297    9221.7907    1414.9363    987.18122   -427.87641   -2546.3026 
12104000    279.81291   -3885.4184   -3405.8287   -3885.4184            0    8021.2198    16.984875     20.00594    20.721508    7041.1353    8813.1694    7454.4822    7796.0078    298.77991   -553.86842   -39.200148   -2582.1478 
12105000    282.96702   -3838.6205   -3353.6247   -3838.6205            0    11800.957    16.847467    19.844091     20.55387    6871.6248    12758.795    12060.541    10583.536    435.33854    342.93984    481.71334   -2170.9847 
12106000    272.89169   -3872.0202   -3404.2932   -3872.0202            0    10439.295    16.893904    19.898787    20.610523     6928.602    9268.4069    10917.455    11132.023    2212.5247   -1582.1487    680.53147   -2349.4383 
12107000    261.00549   -3841.5547   -3394.2002   -3841.5547            0    9986.5419    16.881173    19.883792    20.594991    6912.9501     10948.88    10110.931    8899.8146   -310.95403    742.35144   -2119.7073   -2387.3742 
12108000    266.49113   -3824.8855   -3368.1288   -3824.8855            0    10257.049    16.850196    19.847306      20.5572     6874.965    10031.523    10336.276    10403.347   -548.08125    464.69655   -1119.7509   -2339.7129 
12109000    278.37328   -3843.2237   -3366.1014   -3843.2237            0    11575.037    16.826335      19.8192     20.52809       6845.8    11291.353    12201.436    11232.322   -155.98828   -223.18919    645.45577   -2210.4616 
12110000    273.40851    -3865.683   -3397.0702    -3865.683            0    7235.9901    16.982263    20.002863    20.718321    7037.8869    7246.5914     7865.621     6595.758   -1016.1359    1237.9211    -313.3163   -2654.3656 
12111000    252.93725   -3790.5221   -3356.9963   -3790.5221            0    9511.0722    16.882798    19.885707    20.596975    6914.9476    10717.375    8377.6596    9438.1814    -2003.696   -1089.5115   -1245.2119   -2397.8293 
12112000    262.52991    -3826.109   -3376.1417    -3826.109            0    8828.3904    16.921675    19.931498    20.644404    6962.8277    8434.6414    7771.4405    10279.089     600.9049    797.28815    787.13605   -2479.6566 
12113000    277.63327   -3883.1541   -3407.3001   -3883.1541            0    8282.8205    16.893498    19.898309    20.610028    6928.1026    8530.2525    8590.8762    7727.3327    581.08586   -157.34228   -338.84365     -2570.41 
12114000    281.29433   -3846.9495   -3364.8207   -3846.9495            0     10554.52     16.93704    19.949596    20.663149    6981.8114    10606.878    10421.623     10635.06    302.69742   -392.27165    207.76365   -2290.1325 
12115000    266.14458   -3827.2219   -3371.0592   -3827.2219            0    9222.1642    16.920303    19.929882    20.642731    6961.1345    10807.354    8143.0803    8716.0582    1295.1651   -1153.9183    640.54981   -2434.8158 
12116000    256.39268   -3854.8879   -3415.4396   -3854.8879            0    9875.1333    16.996325    20.019425    20.735476    7055.3838    10435.346    10079.626    9110.4285    1160.2826    223.29801   -1862.5472   -2399.3325 
12117000    249.12547   -3852.8091   -3425.8166   -3852.8091            0    11021.963    16.859262    19.857983     20.56826    6886.0671    13345.013    10743.668    8977.2087   -1047.6642   -523.83959   -172.62532   -2318.9224 
12118000    266.49845   -3864.3157   -3407.5465   -3864.3157            0    9998.0064    16.929225    19.940391    20.653615    6972.1517    9914.4906    9819.1311    10260.397   -1722.9606    531.10341    20.438262   -2390.9324 
12119000    271.75025   -3850.0221   -3384.2514   -3850.0221            0    10907.734    16.914744    19.923334    20.635948    6954.2752    11121.576    11429.097    10172.528   -842.27085   -941.31094   -2016.9566   -2277.9785 
12120000    264.28841   -3859.6042   -3406.6229   -3859.6042            0    9849.3105    16.956093    19.972037    20.686393    7005.3999    9870.2957    10269.478    9408.1579    210.70189    125.41914   -1303.6755   -2400.3526 
12121000    263.60705   -3844.6021   -3392.7887   -3844.6021            0    9607.6966    16.939677    19.952702    20.666366    6985.0732    9358.2874    11058.646    8406.1569    597.18889    289.57742   -89.172185   -2414.0514 
12122000    272.80487   -3821.2511   -3353.6728   -3821.2511            0     8498.865    16.956089    19.972034    20.686389    7005.3958    10731.903    8275.2534    6489.4388   -182.54491    334.03547   -735.20515   -2485.3734 
12123000    265.40291   -3837.3557   -3382.4642   -3837.3557            0    11692.766     16.88623    19.889748    20.601161    6919.1646    13014.408    10321.105    11742.785    1497.7756    1050.8838   -1460.1059   -2202.5598 
12124000     274.0533   -3819.5813   -3349.8633   -3819.5813            0    8823.9474    16.972295    19.991121     20.70616    7025.5008    8892.1592    8042.1198    9537.5634    794.79505    485.50297   -1276.6751   -2445.7641 
12125000     283.1856   -3818.0992   -3332.7288   -3818.0992            0    10920.887    16.896909    19.902327    20.614189    6932.3002    11440.744    11492.149    9829.7673    1298.2567   -291.39089   -462.59735   -2228.6218 
12126000    277.30721   -3857.7829   -3382.4878   -3857.7829            0    9438.3054      16.8749    19.876404    20.587339    6905.2475    9477.2534    9937.9373    8899.7254   -587.67501   -402.07788    1031.0251   -2431.9943 
12127000    274.43001   -3830.9611   -3360.5974   -3830.9611            0    13196.043    16.781137    19.765963    20.472948    6790.7817    13197.627    14573.998    11816.505   -1607.5362    418.83535    1314.9461   -2053.7064 
12128000    268.50929   -3837.7255   -3377.5098   -3837.7255            0    9430.6407    16.891395    19.895832    20.607462    6925.5156    10608.956    7816.7274     9866.239      993.831    681.43435   -255.74073   -2425.0006 
12129000    270.29354   -3805.2068   -3341.9329   -3805.2068            0    9111.0126    16.933807    19.945788    20.659206    6977.8148    10642.606     8161.273    8529.1592   -224.35885    1482.6506    848.30121   -2414.7573 
12130000    252.61473   -3840.0803   -3407.1073   -3840.0803            0    9407.4968    16.918903    19.928233    20.641022    6959.4064    9775.3277    10019.143    8428.0201   -860.48531    613.71508     77.31442   -2452.2858 
12131000    270.53134   -3891.3194    -3427.638   -3891.3194            0    7956.1473    16.896621    19.901988    20.613838     6931.946    8609.0786    7209.1161    8050.2472    36.887861    1071.6478    165.43804   -2623.3087 
12132000    284.23546   -3843.9991   -3356.8293   -3843.9991            0     9005.688    16.909466    19.917117    20.629509    6947.7669    9487.5787    8470.0673     9059.418   -1601.6266   -92.550755    62.806893   -2444.3185 
12133000    266.55463   -3840.3946   -3383.5291   -3840.3946            0    11366.842    16.838634    19.833687    20.543095    6860.8227    13070.335    10417.724    10612.466   -14.424234     1168.587     1197.469   -2246.1849 
12134000    252.45691   -3845.0326   -3412.3301   -3845.0326            0    9488.2498     16.89083    19.895167    20.606773    6924.8213    10507.141    7693.8337    10263.775   -1043.9401   -291.81386    1107.9693   -2454.0983 
12135000    247.05957    -3818.659   -3395.2074    -3818.659            0    10097.712    16.834056    19.828294    20.537509    6855.2279    11166.687    9143.9744    9982.4734   -879.19067    1281.3116     -16.4316   -2385.6738 
12136000    257.34887   -3815.8381    -3374.751   -3815.8381            0    10795.899    16.885254    19.888599    20.599971    6917.9659    13160.695    10730.161    8496.8421   -1647.1315   -1533.2394   -594.22496   -2285.5372 
12137000    260.86147   -3851.0134   -3403.9058   -3851.0134            0     9714.819     16.87023    19.870903    20.581641    6899.5158    10474.024    8340.7243    10329.709   -1233.5477    141.15074    204.25835   -2426.3777 
12138000     285.3096    -3895.983   -3406.9721    -3895.983            0    10467.117    16.832874    19.826902    20.536067    6853.7838    12136.213    9498.5378    9766.5995   -38.001158    172.67641   -325.90509   -2360.7272 
12139000    241.77298   -3889.0066    -3474.616   -3889.0066            0    8952.7587    16.919238    19.928627     20.64143    6959.8192    9385.5663     8664.942    8807.7676    546.17586     306.1519    91.167279   -2565.8946 
12140000     275.0503   -3877.7534   -3406.3266   -3877.7534            0    9828.8814    16.851712    19.849091    20.559049    6876.8202    10070.653    9713.3802    9702.6106    335.87652    1172.8542    783.28655   -2420.5746 
12141000    255.17674   -3865.1875   -3427.8233   -3865.1875            0    10278.304    16.860215    19.859106    20.569422    6887.2347    11820.053    9643.4288    9371.4306   -112.13437   -380.16308    1433.9751    -2395.437 
12142000    265.61063   -3886.8379   -3431.5903   -3886.8379            0    9296.9447    16.911703    19.919752    20.632238    6950.5253    10118.872    10364.353    7407.6088   -557.74059    1657.9204   -1603.6127   -2489.1936 
12143000    265.95123   -3855.4285   -3399.5972   -3855.4285            0    12555.643    16.800652    19.788949    20.496756       6814.5    11958.725    10448.446    15259.759   -289.44298   -272.84757   -1029.2448    -2151.786 
12144000    264.79759     -3853.37    -3399.516     -3853.37            0    10968.156    16.822529    19.814717    20.523446    6841.1553    10060.873    12364.237    10479.358   -1061.1219   -1570.5532    974.43192   -2305.2095 
12145000    279.66496   -3836.9267   -3357.5906   -3836.9267            0    10477.281    16.914601    19.923166    20.635774    6954.0992    10381.572    11303.279    9746.9918    116.24947   -515.76265   -283.18232   -2295.0015 
12146000    269.90482   -3880.2934   -3417.6858   -3880.2934            0    9233.3981    16.915977    19.924786    20.637452    6955.7961    9377.1568    9357.7045    8965.3328    350.83532    140.27263   -107.20861   -2481.0208 
12147000    245.49433   -3857.3915   -3436.6226   -3857.3915            0    8362.0991    16.914056    19.922524    20.635109     6953.427    9109.3164    8955.4322    7021.5487      272.779   -392.26855    -65.81159   -2588.6338 
12148000    275.30436    -3921.528   -3449.6657    -3921.528            0    9006.6124    16.833655    19.827822     20.53702    6854.7384     7319.033    11470.308    8230.4964    540.34412    1487.6638   -296.38972   -2549.2807 
12149000    273.00467   -3859.8558   -3391.9351   -3859.8558            0    7689.9477    16.924922    19.935323    20.648365    6966.8366    6903.3467    7318.8526     8847.644    599.57418    1016.1515   -2674.3549   -2610.6044 
12150000    276.76488   -3890.0492   -3415.6837   -3890.0492            0    10121.131     16.85789    19.856368    20.566587    6884.3868    9892.8534     8080.398     12390.14    1014.8953    204.07591    131.85185   -2399.5048 
12151000    271.46725   -3858.7537   -3393.4681   -3858.7537            0    9493.6922    16.914101    19.922577    20.635164     6953.482    9601.0086    10025.129    8854.9393   -210.93995   -1507.0727    451.43103   -2430.7185 
12152000    249.52691   -3866.9881   -3439.3075   -3866.9881            0    7934.7046    16.925118    19.935554    20.648605    6967.0787    8002.7465    6328.8297    9472.5377   -1231.5635    1122.9372    1413.6339   -2633.0804 
12153000    276.11701   -3849.2236   -3375.9685   -3849.2236            0    9999.5297    16.834562    19.828891    20.538126    6855.8462    11052.722    10800.289     8145.578   -1242.3469   -210.56816   -140.14377   -2376.1607 
12154000    266.83295   -3846.7666   -3389.4241   -3846.7666            0    11340.643     16.81731     19.80857    20.517079    6834.7905    11525.417    10428.542    12067.971    515.09689    35.436691   -598.42075   -2259.0068 
12155000    267.07936    -3845.294   -3387.5291    -3845.294            0    9520.2948    16.884595    19.887823    20.599167    6917.1555    7997.8996    9291.6927    11271.292   -241.59515   -263.27392   -90.660931   -2427.1254 
12156000    252.38273   -3869.3155   -3436.7401   -3869.3155            0    9751.1071    16.914007    19.922466    20.635048    6953.3657    8325.3124    10378.939     10549.07    379.55362    1108.7523   -1007.4829   -2447.9027 
12157000      254.743   -3824.7883   -3388.1675   -3824.7883            0    8355.4879    16.859261    19.857983    20.568259    6886.0665    7624.4775    7837.3101     9604.676    655.50195    867.32121    650.78951   -2549.0575 
12158000     269.3689   -3855.5841   -3393.8951   -3855.5841            0    10291.362    16.841518    19.837084    20.546613    6864.3483     10105.41    11690.002    9078.6749   -20.721498   -1091.8378    670.17163   -2363.6321 
12159000    256.75405   -3828.3724   -3388.3047   -3828.3724            0    11084.685    16.856331    19.854532    20.564685     6882.477    10767.424    9220.8951    13265.737   -281.34692   -59.203229    1234.2018    -2275.692 
12160000    280.30025   -3826.7415   -3346.3165   -3826.7415            0    9466.3925    16.859002    19.857678    20.567944    6885.7493    8595.5016    10572.837    9230.8392   -577.40102    555.12904     179.8222   -2395.6863 
12161000     247.8453   -3848.4789   -3423.6806   -3848.4789            0    8571.9126      16.8879    19.891716    20.603199    6921.2182    10346.759    6418.4393    8950.5394   -1850.9412   -568.17581   -1642.6311   -2558.4414 
12162000    262.54687   -3870.4372   -3420.4409   -3870.4372            0    5928.6819    16.977146    19.996836    20.712079    7031.5272    5196.5589    5494.0141    7095.4727   -925.74005   -87.040742    85.544281   -2812.4687 
12163000    268.16416   -3857.5325   -3397.9083   -3857.5325            0    11315.348    16.918587    19.927861    20.640637    6959.0163    12143.999    11556.391    10245.654    23.653172    1891.6707   -142.87242   -2249.5123 
12164000    266.84787   -3845.0017   -3387.6335   -3845.0017            0    11582.633    16.872277    19.873313    20.584138    6902.0272    12785.666    11727.996    10234.236    482.50329    1205.8797   -1022.0523   -2221.7375 
12165000    263.02228   -3833.2669   -3382.4557   -3833.2669            0    10904.251    16.893814    19.898681    20.610414    6928.4919    11236.109    11034.195    10442.447    422.64781    27.465208   -655.72718   -2280.6363 
12166000    259.98919   -3787.2486    -3341.636   -3787.2486            0    11165.921    16.892351    19.896958    20.608629    6926.6923    12635.791    10787.051    10074.922   -840.23985    77.769698   -758.22217   -2213.6691 
12167000    260.62992   -3882.1046   -3435.3938   -3882.1046            0    11673.208    16.914165    19.922653    20.635242    6953.5617    13264.472    11403.193    10351.959     1926.882   -339.52063   -1761.8203   -2251.6072 
12168000    274.23863   -3818.5297   -3348.4941   -3818.5297            0    9516.0205    16.917781    19.926911    20.639653    6958.0217    9989.1105    8590.0004    9968.9506   -22.685113   -768.77921   -791.22707   -2382.8501 
12169000    278.83454   -3816.3028     -3338.39   -3816.3028            0    9584.3017    16.899792    19.905722    20.617706     6935.849    7751.5672    10789.771    10211.567   -1898.0942   -813.51207   -381.13387   -2368.9164 
12170000     273.3907   -3843.5206   -3374.9383   -3843.5206            0    8591.7126    16.894965    19.900037    20.611818    6929.9082    7944.9947    8195.7235    9634.4197   -410.05626    519.40412   -1572.7478   -2506.6117 
12171000    257.53341   -3836.8748   -3395.4713   -3836.8748            0    8410.5137    16.899437    19.905304    20.617274    6935.4124    6939.0457    9836.5074    8455.9879   -363.51839   -266.62649   -398.75533   -2544.7825 
12172000    264.72256   -3824.6561   -3370.9307   -3824.6561            0    12575.387    16.802213    19.790788    20.498661    6816.4002    13515.445    11682.313    12528.404   -728.71731    1306.1676   -1508.0306   -2120.8089 
12173000     256.2321   -3831.8983   -3392.7253   -3831.8983            0    10069.058    16.843603    19.839539    20.549156    6866.8975    9871.7712    11111.737    9223.6643   -445.98281    940.70956     191.6384   -2384.3428 
12174000     254.3235   -3826.4486   -3390.5468   -3826.4486            0    9924.4219    16.867999    19.868275     20.57892    6896.7789    10091.463    10483.625    9198.1777   -879.48887   -1417.3182   -923.11493   -2392.3242 
12175000    283.14206   -3843.9679    -3358.672   -3843.9679            0     10746.58    16.853134    19.850766    20.560785    6878.5618     11769.27    11128.021    9342.4482    700.77378   -802.21655    277.36276   -2280.6099 
12176000    258.34143   -3854.2446   -3411.4562   -3854.2446            0    9370.6421    16.887487    19.891229    20.602694    6920.7099    9237.6377    10476.122    8398.1667    -1825.695    2145.9639   -1918.8945   -2465.6637 
12177000    281.16279   -3841.9868   -3360.0834   -3841.9868            0    9358.8197     16.96827    19.986381     20.70125    7020.5044    8085.4618    10506.989     9484.008   -355.91943   -229.38091     1713.843   -2401.8633 
12178000     272.8408   -3847.1174   -3379.4776   -3847.1174            0    8958.9567    16.938939    19.951833    20.665466    6984.1608    7316.1773    9003.6121    10557.081    1008.3097    351.35502   -326.48989   -2466.9468 
12179000    277.02263   -3864.4157   -3389.6084   -3864.4157            0    10715.245    16.824476    19.817011    20.525822    6843.5312    10447.329    10317.348    11381.057   -228.33827    960.11578    165.82467    -2320.164 
12180000    255.37538   -3857.9197    -3420.215   -3857.9197            0    8252.8542    16.849619    19.846626    20.556496    6874.2583    9011.8153    8032.4827    7714.2647   -1061.9802    1621.5315   -601.26885   -2592.8333 
12181000     273.7113   -3855.5614   -3386.4296   -3855.5614            0    10467.328    16.844735    19.840873    20.550537    6868.2822    8727.6671    12178.261    10496.057   -1177.9115   -475.42488    622.48155   -2337.9503 
12182000    283.47543   -3838.4963   -3352.6291   -3838.4963            0    10632.651    16.791779    19.778497    20.485931    6803.7082    11499.717    10348.885    10049.351   -722.69823     -577.113   -635.17802   -2297.6032 
12183000     260.7046   -3869.4797    -3422.641   -3869.4797            0    9184.2241    16.940507     19.95368    20.667379    6986.1004    9222.7934    9466.3569    8863.5219   -159.08625    1066.4038    338.45529   -2486.9053 
12184000    268.35195   -3861.3709   -3401.4249   -3861.3709            0    10301.319    16.873167    19.874361    20.585224    6903.1192    11641.286    9603.0016    9659.6683    2526.3872    172.20863    1024.6598   -2364.3405 
12185000    268.10618   -3825.8674   -3366.3426   -3825.8674            0    9299.0867    16.943094    19.956727    20.670536    6989.3016    9146.0473    10271.689    8479.5238   -1272.7849   -122.47432   -3059.9855     -2418.47 
12186000    264.46266   -3813.9329    -3360.653   -3813.9329            0    10322.534    16.888025    19.891862    20.603351    6921.3714    9245.5186    9985.3738    11736.709   -437.86651      345.154   -2125.8855    -2318.685 
12187000    258.64528   -3849.8625   -3406.5533   -3849.8625            0    9448.0746    16.897307    19.902796    20.614675    6932.7903    8203.3138    9167.6572    10973.253    1451.7206    54.800916   -187.09831   -2451.2808 
12188000    273.61148   -3832.1331   -3363.1724   -3832.1331            0    9944.9291    16.870421    19.871127    20.581874    6899.7494    9600.4302     9777.025    10457.332    5.3478705   -490.01509   -732.43821   -2362.4562 
12189000    265.83159   -3872.7582   -3417.1319   -3872.7582            0    8708.6284    16.904068    19.910759    20.622923    6941.1152    7517.8827    8013.6585    10594.344   -485.32565   -16.720444    985.70245   -2535.5658 
12190000    284.46886   -3842.9353   -3355.3654   -3842.9353            0    8890.3765    16.959468    19.976013    20.690511    7009.5839    9519.6457    9005.9741    8145.5098   -811.48113   -1098.4094   -1810.9161   -2446.5237 
12191000     259.9539   -3842.9858   -3397.4337   -3842.9858            0    9456.9852    16.898706    19.904444    20.616382    6934.5128    9851.5969    9477.0695    9042.2892    91.958795     1162.038     48.16108   -2441.0227 
12192000    263.83108    -3831.606   -3379.4085    -3831.606            0    11498.915    16.864551    19.864214    20.574713    6892.5507    9529.6842    10399.906    14567.154   -1861.0026    461.56981   -1812.0127   -2223.5287 
12193000    275.55136   -3864.8068   -3392.5212   -3864.8068            0    9928.8996    16.916948     19.92593    20.638637    6956.9941    9206.9863    9368.0833    11211.629   -1565.0778    1921.0462    -864.1966   -2385.1289 
12194000    261.19181   -3808.0249    -3360.351   -3808.0249            0     11783.55    16.826382    19.819255    20.528147    6845.8567    10939.315      12142.1    12269.235    2089.8181     252.0249    -925.9076   -2183.8838 
12195000    269.48351   -3886.0198   -3424.1343   -3886.0198            0    8976.8861    16.944588    19.958486    20.672357    6991.1496    9488.1639    9317.6673    8124.8272    24.154059    660.40818   -98.694799   -2508.8622 
12196000    267.04088   -3855.2935   -3397.5945   -3855.2935            0    10009.613    16.845378     19.84163    20.551322    6869.0686    10753.192    9851.4465    9424.1993    901.91138    200.98621    1049.5731   -2394.8484 
12197000    262.14288   -3829.5282   -3380.2242   -3829.5282            0    11737.833    16.821854    19.813922    20.522623    6840.3319    13862.427    10370.483    10980.589    331.51607   -2226.8209   -1960.4054   -2209.2671 
12198000    265.13146   -3834.4946   -3380.0684   -3834.4946            0    11368.721     16.84783    19.844518    20.554313     6872.069    9850.2929    11095.642    13160.229    882.04763    -953.8757   -495.87576   -2240.6715 
12199000    273.30396   -3844.9059   -3376.4723   -3844.9059            0     9855.823    16.894567    19.899569    20.611333     6929.419    8122.6006    12009.237    9435.6313    1063.7558    515.45416    886.09052   -2380.4579 
12200000    260.82876   -3829.5934   -3382.5418   -3829.5934            0    10093.411    16.920032    19.929562    20.642399    6960.7991    9269.7684    11329.502    9680.9624    1509.7865   0.86592823    217.85995    -2357.898 
12201000    264.50537   -3830.6923   -3377.3391   -3830.6923            0    11524.864    16.907265    19.914525    20.626824    6945.0548    11356.302    12125.674    11092.617    536.27577    -720.4064   -934.31152    -2210.026 
12202000    271.94255   -3837.9735   -3371.8732   -3837.9735            0    9539.4833    16.909175    19.916775    20.629154    6947.4086    8877.8251    8944.4748     10796.15    441.44034    882.35623   -449.94966   -2405.3249 
12203000    268.91973    -3872.166   -3411.2467    -3872.166            0    10822.296    16.791115    19.777715    20.485121    6802.9015     13503.88    9151.4935    9811.5135    336.10232   -333.33525   -57.576402   -2337.5306 
12204000    270.50353    -3895.865   -3432.2312    -3895.865            0     10289.71    16.835508    19.830005    20.539281    6857.0024      10504.7    9749.6061    10614.824    2006.7719   -348.42318    437.24574   -2403.2361 
12205000    261.14292   -3888.9941   -3441.4041   -3888.9941            0    9493.2334     16.82279    19.815025    20.523765     6841.474    10839.212    9292.5403    8347.9478   -116.47935    870.16881   -806.46393   -2494.2084 
12206000    257.06613   -3859.3435    -3418.741   -3859.3435            0     12025.74    16.756509    19.736955    20.442902    6760.9272    11749.222    12412.548     11915.45   -173.84311    731.68647   -708.16808   -2232.9888 
12207000    271.90605   -3876.8857    -3410.848   -3876.8857            0    7865.6429    16.844872    19.841034    20.550704    6868.4494    8724.5009    8273.0241    6599.4037    1005.9492   -1384.8475    981.11158   -2622.9522 
12208000    266.69344    -3858.905   -3401.8016    -3858.905            0    8019.2958    16.933631    19.945581     20.65899    6977.5967    9018.8163    6548.4564    8490.6145   -1482.8834   -1776.0998   -752.17239   -2585.7493 
12209000     267.3343   -3865.9932   -3407.7914   -3865.9932            0    12117.295    16.852668    19.850216    20.560215    6877.9901    10622.259    12186.975     13542.65    2379.2217    843.23764     1012.148   -2192.3246 
12210000    267.96567    -3813.646    -3354.362    -3813.646            0    12182.827    16.879977    19.882383    20.593533    6911.4815    12694.954    11127.807    12725.721   -1195.6285   -105.67785   -889.63114   -2126.3712 
12211000    264.83796   -3847.8399   -3393.9166   -3847.8399            0    10114.156    16.934785     19.94694    20.660398    6979.0235    10334.392     10608.56    9399.5179    376.25533    1365.5892    199.32269   -2364.4786 
12212000    271.34042   -3840.9694   -3375.9012   -3840.9694            0    9916.5916     16.91519    19.923859    20.636492    6954.8254    8320.4824    10748.558    10680.734   -743.34198    1465.0078   -357.33146   -2370.0713 
12213000    269.51547   -3834.6483    -3372.708   -3834.6483            0    7680.5234    17.024255    20.052323    20.769551    7090.2233     7587.401    8168.4665    7285.7027   -246.30714   -37.839571   -1288.2643    -2578.514 
12214000    265.73483   -3875.6462   -3420.1858   -3875.6462            0    9142.6536    16.931061    19.942554    20.655855    6974.4204    8070.5351    9970.3671    9387.0587    1455.1012   -65.180798   -435.51201   -2490.2429 
12215000    253.10245   -3907.9237   -3474.1148   -3907.9237            0    8947.5428    16.930666    19.942088    20.655373    6973.9323    8353.9229     11090.82    7397.8851   -28.211084   -1437.9365   -398.28465   -2564.0812 
12216000    256.24755    -3850.838   -3411.6385    -3850.838            0    11561.946    16.828742    19.822035    20.531026    6848.7375    12576.134     13173.41    8936.2939     367.9038    153.58004   -246.02468   -2256.8103 
12217000     261.6919    -3869.305   -3420.7741    -3869.305            0    9516.1815    16.823596    19.815974    20.524748    6842.4574     8914.158    11190.417    8443.9691   -877.80301    751.02633   -269.98629   -2471.1522 
12218000    275.41879   -3858.1262   -3386.0678   -3858.1262            0    9651.3923    16.814836    19.805655     20.51406    6831.7738    8107.0939    11214.045    9633.0379    176.64757   -651.54052    502.41636    -2424.457 
12219000    263.76532   -3823.1878   -3371.1031   -3823.1878            0    9799.7907    16.912242    19.920387    20.632896      6951.19    10401.352    10422.559    8575.4616    579.30108   -224.48115   -123.39864   -2377.6397 
12220000    255.13691   -3856.1206   -3418.8246   -3856.1206            0    9600.9859    16.811327    19.801522    20.509779    6827.4976    11551.706    8047.0643    9204.1876   -1243.3912    -396.0312    1051.3163   -2462.8348 
12221000    270.76909   -3873.3487   -3409.2597   -3873.3487            0    9624.0915    16.905303    19.912214     20.62443    6942.6372    9634.3546    9196.5689    10041.351    2717.3622    -1541.445   -191.38518   -2434.8085 
12222000    270.59695    -3887.095   -3423.3011    -3887.095            0     11122.07    16.865212    19.864992    20.575519    6893.3608    10782.991    10319.178    12264.041    2709.0615   -670.48441   -1030.3698   -2305.1705 
12223000    267.50837   -3865.0895   -3406.5893   -3865.0895            0    11012.973    16.870106    19.870757     20.58149    6899.3638    11679.144    10270.375      11089.4   -88.044205   -323.49893   -205.68408   -2298.4624 
12224000    265.17627   -3845.5311   -3391.0281   -3845.5311            0    8131.3751    16.908079    19.915484    20.627817    6946.0581    6036.4657    9490.9974    8866.6623    1210.2422    1312.2404    1858.7289   -2567.3106 
12225000    263.52484   -3860.6415   -3408.9689   -3860.6415            0    11409.426    16.809716    19.799625    20.507814    6825.5352    11218.864     11897.93    11111.483   -33.709809    124.50858   -495.02132   -2273.2355 
12226000     268.6893   -3863.1229   -3402.5986   -3863.1229            0     8717.511    16.904345    19.911086    20.623262    6941.4574    8763.6606    8358.7378    9030.1347   -527.75464    23.034777    63.500155   -2520.0898 
12227000    283.54422   -3808.6277   -3322.6426   -3808.6277            0    12222.804    16.844548    19.840652    20.550309    6868.0532    12198.931     11387.76    13081.722    1123.4166   -774.88766    138.17104   -2098.3636 
12228000    269.62709   -3864.6291   -3402.4975   -3864.6291            0    8768.1094    16.930858    19.942314    20.655607    6974.1691    9064.6869    9120.8574    8118.7839    1033.3612   -1492.3123   -1016.1577   -2510.6834 
12229000     278.5815   -3862.5696   -3385.0905   -3862.5696            0    11057.031    16.878105    19.880178    20.591248    6909.1819    9331.0425    10628.664    13211.387    1071.6663   -1622.6878   -516.83763   -2270.9472 
12230000    272.34142   -3846.9676   -3380.1838   -3846.9676            0    6312.7944     16.97717    19.996864    20.712108    7031.5566    7211.3677    7425.9042    4301.1112   -1175.9909    673.01662    260.07988   -2732.8191 
12231000    266.86985   -3842.3881   -3384.9823   -3842.3881            0    10740.794    16.855702     19.85379    20.563917     6881.706    11521.036    10412.663    10288.683     450.4637   -1011.3923   -1582.3257    -2307.008 
12232000    268.15526   -3850.0566   -3390.4476   -3850.0566            0    10251.648    16.879835    19.882216    20.593359    6911.3067    9810.9044    10697.681    10246.358   -356.93907    837.26165     519.3723   -2357.1398 
12233000    251.36562   -3860.3046   -3429.4726   -3860.3046            0    9829.9363    16.882811    19.885722    20.596991    6914.9636    11344.742    9421.6063      8723.46   -468.02789     1522.325   -234.36675   -2438.1466 
12234000    274.25454   -3856.5159    -3386.453   -3856.5159            0    8134.6512     16.90824    19.915673    20.628013    6946.2558    8014.4058    9121.4624    7268.0855    995.83575   -401.98614   -1627.6297   -2562.3801 
12235000    255.39052   -3868.5066    -3430.776   -3868.5066            0    7749.5063    16.897998    19.903609    20.615518    6933.6408    6028.9277    8799.3264    8420.2649    212.24746    768.79066   -79.277404   -2647.1456 
12236000    268.34968   -3874.0664   -3414.1242   -3874.0664            0    10032.492    16.858922    19.857583    20.567846     6885.651    11661.644    10896.246    7539.5864    -347.6287   -317.88108    891.55685   -2406.6598 
12237000    265.08536   -3849.4039   -3395.0566   -3849.4039            0    12510.635    16.824032    19.816488     20.52528    6842.9896    12489.636    11627.894    13414.376     626.1995   -1104.2038    477.23354   -2146.5204 
12238000    264.67078   -3860.5328   -3406.8962   -3860.5328            0    9285.7026    16.945591    19.959668    20.673582     6992.392    8362.0229    9438.7074    10056.377    177.71345    1325.3669    125.92723   -2459.9693 
12239000    275.86203   -3883.8605   -3411.0424   -3883.8605            0    9814.0666    16.864323    19.863945    20.574434    6892.2704    8961.5636    11137.566    9343.0699   -644.10608   -807.78752    1038.6584   -2424.5649 
12240000    265.91316   -3875.2791   -3419.5131   -3875.2791            0    11856.773    16.881035     19.88363    20.594824    6912.7815    12985.402    12246.967    10337.951    1364.0533    2144.2424   -842.32343   -2224.1626 
12241000    260.50714   -3905.2001   -3458.6998   -3905.2001            0    10479.879    16.939812    19.952861    20.666531    6985.2406     9458.824    11392.287    10588.527   -341.96662   -865.22974    1242.2477   -2391.0876 
12242000    271.35739   -3876.8777   -3411.7804   -3876.8777            0    10274.667     16.89117    19.895567    20.607188    6925.2391     10605.74    9759.3322     10458.93   -902.73813    -79.71659    513.75218   -2374.0646 
12243000    286.55255   -3879.9612   -3388.8199   -3879.9612            0     10289.85    16.948472    19.963062    20.677097    6995.9593    10636.612    8899.8875    11333.052   -448.81814   -1085.5283   -501.89888   -2338.9579 
12244000    270.72798   -3853.4382   -3389.4197   -3853.4382            0    11566.771    16.917262      19.9263    20.639021    6957.3819    9975.0928    12541.773    12183.446    2734.8614   -166.56988   -2902.7161   -2215.7825 
12245000    280.65751   -3864.1625   -3383.1252   -3864.1625            0     7059.761    16.952684    19.968022    20.682235    7001.1758    8383.7596    4274.5702    8520.9532   -142.64614    829.27582   -344.21586   -2662.2885 
12246000    272.32732   -3858.2178   -3391.4581   -3858.2178            0     8644.524    16.881496    19.884172    20.595386    6913.3474    8436.9429    8993.5385    8503.0906    668.37641    828.09426   -847.99712   -2519.8819 
12247000    249.47088   -3815.6194   -3388.0348   -3815.6194            0    8390.0352    16.942804    19.956385    20.670181     6988.942    9428.8947    7806.1958     7935.015   -28.735447    839.72727   -613.62891   -2532.8675 
12248000    288.45291   -3838.3201   -3343.9217   -3838.3201            0    9133.8033    16.858656     19.85727    20.567522    6885.3255    10925.312    9477.2454    6998.8522    674.52775     1453.467    2653.7778   -2426.7471 
12249000    253.51481   -3821.4701   -3386.9544   -3821.4701            0    9503.6116    16.885106    19.888425     20.59979    6917.7837    8782.5073    9511.3131    10217.014   -400.74367   -88.300187    288.42512   -2428.1467 
12250000    276.88085   -3826.5526   -3351.9883   -3826.5526            0    6697.3194     16.94184     19.95525    20.669005    6987.7494    6241.4895    6891.1446    6959.3242    393.80831    1128.6613   -1044.1473   -2669.4701 
Loop time of 483.882 on 64 procs for 250000 steps with 864 atoms

Performance: 89.278 ns/day, 0.269 hours/ns, 516.655 timesteps/s
99.1% CPU use with 64 MPI tasks x 1 OpenMP threads

MPI task timing breakdown:
Section |  min time  |  avg time  |  max time  |%varavg| %total
---------------------------------------------------------------
Pair    | 22.134     | 27.364     | 32.413     |  49.2 |  5.66
Bond    | 0.28898    | 0.29652    | 0.30543    |   0.7 |  0.06
Kspace  | 203.72     | 213.03     | 223.03     |  27.0 | 44.03
Neigh   | 5.7377     | 6.2048     | 7.1012     |  16.3 |  1.28
Comm    | 106.46     | 115.32     | 121.85     |  35.0 | 23.83
Output  | 0.95763    | 0.95814    | 0.96559    |   0.1 |  0.20
Modify  | 113        | 115.8      | 118.62     |  14.5 | 23.93
Other   |            | 4.905      |            |       |  1.01

Nlocal:        13.5000 ave          20 max           8 min
Histogram: 3 4 6 10 7 22 6 3 2 1
Nghost:        2269.17 ave        2309 max        2241 min
Histogram: 3 4 14 15 9 9 2 5 1 2
Neighs:        4413.66 ave        6170 max        2519 min
Histogram: 2 5 2 11 10 13 8 6 2 5

Total # of neighbors = 282474
Ave neighs/atom = 326.93750
Ave special neighs/atom = 2.0000000
Neighbor list builds = 14569
Dangerous builds = 0

unfix		3
unfix		2
unfix		1

write_data	data.final.${pid}
write_data	data.final.0
System init for write_data ...
PPPM initialization ...
  extracting TIP4P info from pair style
  using 12-bit tables for long-range coulomb (../kspace.cpp:340)
  G vector (1/distance) = 0.37442273
  grid = 24 24 24
  stencil order = 5
  estimated absolute RMS force accuracy = 0.0031426675
  estimated relative force accuracy = 9.4640497e-06
  using double precision FFTW3
  3d grid and FFT values/proc = 2535 216
Last active /omp style is kspace_style pppm/tip4p/omp
WARNING: Not all mixed pair coeffs generated from mixing. Use write_data with 'pair ij' option to store all pair coeffs. (../write_data.cpp:312)

write_restart   restart.lmp.${pid}
write_restart   restart.lmp.0
System init for write_restart ...
PPPM initialization ...
  extracting TIP4P info from pair style
  using 12-bit tables for long-range coulomb (../kspace.cpp:340)
  G vector (1/distance) = 0.37442273
  grid = 24 24 24
  stencil order = 5
  estimated absolute RMS force accuracy = 0.0031426675
  estimated relative force accuracy = 9.4640497e-06
  using double precision FFTW3
  3d grid and FFT values/proc = 2535 216
Last active /omp style is kspace_style pppm/tip4p/omp
Total wall time: 0:08:06
