LAMMPS (30 Jul 2021)
Processor partition = 1
  using 2 OpenMP thread(s) per MPI task
using multi-threaded neighbor list subroutines
variable        pid world 0 1
variable        phase world IceII IceIh

shell cd ${phase}
shell cd IceIh
include Restart.lmp
echo both
log log.lammps
#include		in.partitions
include		in.temp
variable        temperature equal 235.10
variable	tempDamp equal 100.0
include		in.pressure
variable        pressure equal 2150.1
variable        pressureDamp equal 1000.0 # This is 1 ps
include		in.seed
variable        seed equal 745823

units		real
atom_style	full
#include		in.box
read_restart	restart.lmp.${pid}
read_restart	restart.lmp.1
Reading restart file ...
  restart file = 30 Jul 2021, LAMMPS = 30 Jul 2021
  restoring atom style full from restart
  orthogonal box = (0.11704474 0.12277290 0.027727470) to (18.090528 23.506405 22.185468)
  2 by 4 by 4 MPI processor grid
  restoring pair style lj/cut/tip4p/long/omp from restart
  restoring bond style harmonic/omp from restart
  restoring angle style harmonic/omp from restart
  864 atoms
  576 bonds
  288 angles
Finding 1-2 1-3 1-4 neighbors ...
  special bond factors lj:    0        0        0       
  special bond factors coul:  0        0        0       
     2 = max # of 1-2 neighbors
     1 = max # of 1-3 neighbors
     1 = max # of 1-4 neighbors
     2 = max # of special neighbors
  special bonds CPU = 0.002 seconds
  read_restart CPU = 0.006 seconds
include 	in.setup
variable	out_freq equal 1000
variable	out_freq2 equal 10000
variable	out_freq3 equal 1000

timestep	2.0

neigh_modify    delay 7 every 1

include		in.tip4p
# This is TIP4P/Ice

# create groups ###
group ox type 2
288 atoms in group ox
group hy type 1
576 atoms in group hy

# set charges - beside manually ###
set group ox charge -1.1794
Setting atom values ...
  288 settings made for charge
set group hy charge 0.5897
Setting atom values ...
  576 settings made for charge

# ### TIP3P Potential Parameters ###
pair_style lj/cut/tip4p/long/omp 2 1 1 1 0.1577 8.5
pair_coeff 1 1*2 0.000 0.000
pair_coeff 2 2 0.21084 3.1668
bond_style  harmonic
bond_coeff  1 450 0.9572
angle_style harmonic
angle_coeff 1 55 104.52
kspace_style pppm/tip4p/omp 1.0e-5
pair_modify tail yes

thermo          ${out_freq}
thermo          1000
thermo_style    custom step temp pe etotal epair emol press lx ly lz vol pxx pyy pzz pxy pxz pyz enthalpy

restart 	${out_freq3} restart.lmp.${pid} restart2.lmp.${pid}
restart 	1000 restart.lmp.${pid} restart2.lmp.${pid}
restart 	1000 restart.lmp.1 restart2.lmp.${pid}
restart 	1000 restart.lmp.1 restart2.lmp.1


include         in.dump
dump            myDump all atom ${out_freq2} dump.water.${pid}
dump            myDump all atom 10000 dump.water.${pid}
dump            myDump all atom 10000 dump.water.1
dump            myDump2 all dcd ${out_freq2} dump.dcd
dump            myDump2 all dcd 10000 dump.dcd
dump_modify     myDump append yes
dump_modify     myDump2 append yes


variable natoms 	equal  "count(all)"                        # NUMBER ATOMS
variable H      	equal  "enthalpy/v_natoms"                 # ENTHALPY-per-atom
variable Vol      	equal  "vol/v_natoms"                 # volume-per-atom
fix AVG all 		ave/time ${out_freq} 1 ${out_freq} v_Vol v_H file vol_enthalpy.dat
fix AVG all 		ave/time 1000 1 ${out_freq} v_Vol v_H file vol_enthalpy.dat
fix AVG all 		ave/time 1000 1 1000 v_Vol v_H file vol_enthalpy.dat


timer           timeout 23:50:00 every 1000
New timer settings: style=normal  mode=nosync  timeout=23:50:00

fix 		1 all shake 1e-6 200 0 b 1 a 1
Finding SHAKE clusters ...
       0 = # of size 2 clusters
       0 = # of size 3 clusters
       0 = # of size 4 clusters
     288 = # of frozen angles
  find clusters CPU = 0.000 seconds
fix             2 all nph aniso ${pressure} ${pressure} ${pressureDamp}
fix             2 all nph aniso 2150.1 ${pressure} ${pressureDamp}
fix             2 all nph aniso 2150.1 2150.1 ${pressureDamp}
fix             2 all nph aniso 2150.1 2150.1 1000
fix             3 all temp/csvr ${temperature} ${temperature} ${tempDamp} ${seed}
fix             3 all temp/csvr 235.1 ${temperature} ${tempDamp} ${seed}
fix             3 all temp/csvr 235.1 235.1 ${tempDamp} ${seed}
fix             3 all temp/csvr 235.1 235.1 100 ${seed}
fix             3 all temp/csvr 235.1 235.1 100 745823


run             250000
PPPM initialization ...
  extracting TIP4P info from pair style
  using 12-bit tables for long-range coulomb (../kspace.cpp:340)
  G vector (1/distance) = 0.37149268
  grid = 24 27 25
  stencil order = 5
  estimated absolute RMS force accuracy = 0.0031881343
  estimated relative force accuracy = 9.6009719e-06
  using double precision FFTW3
  3d grid and FFT values/proc = 4410 672
Last active /omp style is kspace_style pppm/tip4p/omp
Neighbor list info ...
  update every 1 steps, delay 7 steps, check yes
  max neighbors/atom: 2000, page size: 100000
  master list distance cutoff = 10.8154
  ghost atom cutoff = 10.8154
  binsize = 5.4077, bins = 4 5 5
  1 neighbor lists, perpetual/occasional/extra = 1 0 0
  (1) pair lj/cut/tip4p/long/omp, perpetual
      attributes: half, newton on, omp
      pair build: half/bin/newton/omp
      stencil: half/bin/3d
      bin: standard
Setting up Verlet run ...
  Unit style    : real
  Current step  : 1250000
  Time step     : 2
  Walltime left : 23:49:59.95
Per MPI rank memory allocation (min/avg/max) = 10.19 | 10.21 | 10.23 Mbytes
Step Temp PotEng TotEng E_pair E_mol Press Lx Ly Lz Volume Pxx Pyy Pzz Pxy Pxz Pyz Enthalpy 
 1250000     251.3594    -4285.046   -3854.2246    -4285.046            0    2359.2933    17.973483    23.383632    22.157741     9312.573    1836.1748    3431.9478    1809.7575     714.7778    335.29003    331.08352   -3533.7987 
 1251000    245.50198   -4304.3468   -3883.5648   -4304.3468            0     3198.649    18.082602    23.303564    22.026635    9281.7831    3724.3064    4458.6055    1413.0351   -316.26477   -841.20934   -584.70884   -3450.5787 
 1252000    229.98803   -4280.7525   -3886.5609   -4280.7525            0    1414.5036    18.279497    23.318207    21.940136    9351.8756    575.22537    1886.3026    1781.9829    955.63828   -444.73265   -503.54226   -3693.6403 
 1253000    235.10935   -4292.6758   -3889.7065   -4292.6758            0    3147.7862    17.967995    23.318442    22.080073    9251.2336    3888.2278    2657.4001    2897.7307    504.68446    328.23223   -112.63783   -3465.0079 
 1254000    219.51469   -4305.1871   -3928.9464   -4305.1871            0    1030.5167    17.976625    23.511798    22.167973    9369.5772    1850.8161    1304.7452   -64.011347   -566.95124    1332.5587    388.44449   -3788.1308 
 1255000     235.1759   -4273.2096   -3870.1262   -4273.2096            0    2218.0187    18.176878    23.196245    21.863357    9218.3636    1252.4877    1659.7831    3741.7852   -159.42363   -523.73172   -330.77895   -3571.9349 
 1256000    232.55085   -4263.0951   -3864.5109   -4263.0951            0    1430.2303    18.186308    23.163225    22.061109    9293.3204    864.61651     2177.049    1249.0254    292.93325    -29.31706    828.53827   -3670.6667 
 1257000    236.59615   -4287.3364   -3881.8187   -4287.3364            0    2787.9916     17.95184    23.430229    22.073504    9284.4633    3268.0811    2575.9267    2519.9668    75.596965   -159.98049    595.31115   -3504.3124 
 1258000    234.83543   -4268.2786   -3865.7787   -4268.2786            0    2303.3818    17.895638    23.695704    21.914025    9292.6366    1648.1476    2511.0336    2750.9642    508.32335    349.95282    631.86198   -3553.6162 
 1259000    247.51645   -4283.6652   -3859.4305   -4283.6652            0     2451.586    18.001151    23.488674    21.997787    9301.1742    1852.7038    3478.8529    2023.2015    109.20516   -142.29947     19.92228   -3526.8775 
 1260000    233.63267   -4275.3302   -3874.8918   -4275.3302            0     3162.853    18.246552    22.958763     22.00985     9220.328    3134.3713    3050.4945    3303.6932    33.324024    180.50941   -105.35088    -3449.586 
 1261000    235.96053   -4295.0015   -3890.5732   -4295.0015            0    1861.6695    18.106263    23.371571    22.020774    9318.5707    1107.2584    2014.2851     2463.465   -1193.2981    257.51181   -617.27748    -3637.569 
 1262000    251.40431   -4272.4461   -3841.5477   -4272.4461            0    2002.9105    17.943275    23.572867    21.968749    9292.2193    2752.2591    486.94032     2769.532    502.34956   -4.0167863   -60.203479   -3570.1183 
 1263000    245.09517   -4281.0556   -3860.9709   -4281.0556            0    2171.2301    18.045431     23.46497     21.93804    9289.3448    3991.3127    1081.8722    1440.5054    269.08524    -187.1844   -257.16338   -3566.8222 
 1264000    227.07345   -4288.4491    -3899.253   -4288.4491            0    2486.5853    17.920981    23.076319    22.370869    9251.4794    3500.6041    2436.0632    1523.0884     1163.418    144.41375   -528.60571   -3563.7546 
 1265000    225.47376   -4272.1363    -3885.682   -4272.1363            0    1527.9664    18.162842    23.476759    21.830382     9308.577     1588.006    1522.6709    1473.2223    128.09313   -665.90475   -549.34921   -3678.2513 
 1266000    247.00986    -4300.425   -3877.0585    -4300.425            0    2229.0983    17.998278     23.21733    22.250858    9298.0093    2683.9992    3537.0314    466.26437   -142.80639   -1162.5611   -330.93021   -3574.7885 
 1267000    234.97078   -4286.3591   -3883.6272   -4286.3591            0    2390.4847    18.046482    23.459324    21.994378    9311.5017    1766.2998    3098.3765    2306.7779   -225.45918   -123.75574    -1.740474   -3559.0025 
 1268000    229.15019   -4304.3505    -3911.595   -4304.3505            0    2816.6907    18.043425    23.430403    21.761696    9200.0772    4101.4876    1982.0906     2366.494    1205.9531   -398.11449   -318.75613   -3533.6692 
 1269000    240.13902   -4301.4948   -3889.9047   -4301.4948            0    1983.3818    17.724939    23.471839    22.350788    9298.7528    3389.6164    1724.4621    836.06699    -152.7285    334.09379    -53.89952   -3620.9328 
 1270000    224.79783   -4286.5212   -3901.2254   -4286.5212            0    2463.6969     17.96188    23.357868    22.035929    9245.2011    2973.6041    2806.9985    1610.4881    235.33031   -239.53088    22.970276   -3569.0408 
 1271000    229.94368   -4295.6733   -3901.5577   -4295.6733            0    1833.8132     18.23951    23.265437    21.853037    9273.3401    1669.7065    1917.2666    1914.4665   -757.11472   -377.70538    89.112479   -3653.5489 
 1272000     248.2677   -4292.3858   -3866.8634   -4292.3858            0    1641.2223     18.03726    23.347459     22.16483    9334.1461     2989.419    1823.8599    110.38784   -157.02574    915.78381   -538.74797   -3643.4455 
 1273000    223.47201   -4287.7771   -3904.7538   -4287.7771            0    3328.4471    17.892409    23.701424    21.687707    9197.2268    3509.9121    3075.2504    3400.1789   -549.03626    370.33927    18.833958   -3458.3021 
 1274000    253.40652   -4275.8753   -3841.5452   -4275.8753            0    2218.3827     18.02834    23.376383    21.979595    9263.0229    3023.0726    1581.2737    2050.8018   -78.633313    45.949312    308.42518   -3541.8601 
 1275000    229.03835   -4266.2256   -3873.6617   -4266.2256            0    2270.0621    18.047985    23.125316    22.147276    9243.5058    3455.0724    1595.6623    1759.4515    -949.2807   -151.95347      1056.38   -3567.6413 
 1276000    248.76673   -4283.4525   -3857.0748   -4283.4525            0    2033.1507    18.117431     23.31319    21.862374    9234.1225     900.6668    1521.9715    3676.8137    44.279063   -5.4153966    235.96716     -3583.27 
 1277000    248.07873   -4286.0771   -3860.8787   -4286.0771            0    1821.6758    17.794467     23.51829    22.170397    9278.2099    3232.6374    1596.9759    635.41419   -1005.8262   -951.39788    568.40186   -3614.3819 
 1278000     232.5249   -4298.6749   -3900.1352   -4298.6749            0    2103.9967    17.967162    23.664907    21.862541    9295.7606    2008.1303     2452.133    1851.7269    193.48517    358.72421    286.44343   -3614.8982 
 1279000    228.89532   -4307.7863   -3915.4675   -4307.7863            0    3164.2333    17.941452     23.29523    21.984756    9188.5343    3386.3057    3244.8228    2861.5713    -491.3447    99.264426    300.90095   -3491.4434 
 1280000    248.03583   -4289.3838   -3864.2589   -4289.3838            0    3116.3057    18.062567    23.212656    22.049899    9245.0847    3790.9366    2495.7845    3062.1959   -523.72252    445.31558   -150.25425   -3444.0872 
 1281000     234.1755    -4255.038   -3853.6693    -4255.038            0    2493.4189     18.12803    23.449377     21.77287    9255.4514    1298.7884    2819.3987    3362.0696   -762.41658    479.79972    132.96835   -3517.1044 
 1282000    224.73776   -4253.7557   -3868.5629   -4253.7557            0    1076.0386    18.057345    23.428136    22.100883    9349.7776   -611.22326    1441.3004    2398.0385    188.03199    341.40956    444.67964   -3721.8376 
 1283000    229.74439   -4267.9539   -3874.1798   -4267.9539            0    2823.5959    18.100148    23.433167    21.776005    9236.1575    1957.1004    2601.5829    3912.1045    454.46092   -567.37278   -716.05706   -3493.8418 
 1284000     231.8171   -4311.9763   -3914.6497   -4311.9763            0    2244.0206    17.913498     23.53186    22.011165    9278.5411    3716.2624    2618.5288    397.27047   -137.02474    294.88485    79.345957   -3610.9933 
 1285000    230.46617   -4319.9298   -3924.9186   -4319.9298            0    1119.0582    17.964375    23.608099    22.088417    9367.8026    486.89363    1699.2943    1170.9866    297.94896   -403.39977    136.75318   -3772.0332 
 1286000    226.27521   -4297.3586   -3909.5306   -4297.3586            0    2928.1419    18.066454    23.351483    21.936734    9254.6362    2789.2367    2378.8293    3616.3595   -254.59191    397.80194   -124.20677   -3514.3212 
 1287000    233.80117   -4274.7199   -3873.9927   -4274.7199            0    1691.5297    18.174635    23.191612    22.097362    9314.0177    592.82852    3410.6271    1071.1336   -810.34269   -230.13361   -48.336566   -3644.2231 
 1288000    231.22297   -4286.0271   -3889.7188   -4286.0271            0    2048.8781    18.019983    23.350308    22.146312    9318.5514     3005.319    884.78483    2256.5304    479.89686   -204.39846   -338.12981   -3611.2732 
 1289000    239.03166   -4294.3448   -3884.6527   -4294.3448            0    1516.8098    17.934673    23.611837    22.020381    9324.9831    1890.1923    2229.7261    430.51109   -473.67622   -450.52804    298.27957   -3678.3736 
 1290000     233.5617   -4293.8922   -3893.5754   -4293.8922            0    1596.2059    18.013925    23.406723    22.047093    9296.0893    2940.6307    1711.2566    136.73036   -414.38419   -565.72067   -248.16683   -3677.1715 
 1291000    239.79483   -4298.6329   -3887.6328   -4298.6329            0    2681.6587    18.303422    23.027299    21.934189    9244.7868    1969.9807    2676.6313    3398.3643   -1102.8393   -148.19552    304.80232   -3526.0762 
 1292000     234.5082   -4296.4443   -3894.5053   -4296.4443            0    1980.0249    18.043739    23.384146     22.07637    9314.8466     592.5914    1793.0525    3554.4309    110.03018    366.30821   -201.24096   -3625.5239 
 1293000    246.10694   -4287.1246   -3865.3057   -4287.1246            0    3094.7237    17.871245     23.58778    21.898721    9231.2524    3273.3532    2549.4859     3461.332    96.452977    623.27151    827.27178   -3448.6682 
 1294000    233.46757   -4280.3754     -3880.22   -4280.3754            0    2043.4984    17.998573    23.561238    22.064063    9356.6775    2963.5232    1204.7853    1962.1868    313.74275    132.27685     57.55848   -3601.3692 
 1295000    223.80757   -4314.3975   -3930.7989   -4314.3975            0     1730.005    18.091588     23.38933    22.105109    9353.7797    691.96887     1754.308    2743.7381   -799.88225    213.79285   -183.84447   -3694.7998 
 1296000    241.18657   -4283.5687   -3870.1832   -4283.5687            0    1208.0902    18.329196    23.374437    21.769868    9326.9656    333.59848    1930.4683    1360.2038   -512.21012    495.49057   -684.90189   -3705.8536 
 1297000     239.3465   -4316.0679   -3905.8362   -4316.0679            0    1987.3364    17.931712       23.485    22.135654    9321.9052    2958.6559    603.08969    2400.2636    -485.7824   -340.31328    583.23789   -3635.6569 
 1298000     243.4027   -4295.7388   -3878.5549   -4295.7388            0    2529.7599    17.803856    23.470577    22.181978    9269.1116    2436.4859    3899.4823    1253.3115   -60.379012   -511.47983   -299.23988   -3536.5808 
 1299000    242.64198   -4286.7045   -3870.8244   -4286.7045            0    1859.5018    18.071965    23.544871    21.837332    9291.8305    1353.7841    1291.1978    2933.5236    154.84734   -870.51614    305.23355     -3618.84 
 1300000    225.81231   -4284.0326   -3896.9981   -4284.0326            0    3327.5013    17.875689    23.268686     22.26735    9261.9662    4078.0658    3253.1918    2651.2462   -877.10018    587.38017   -203.63615   -3447.5316 
 1301000    234.74699   -4264.5033    -3862.155   -4264.5033            0    1609.1781    18.032702     23.51223    22.009145    9331.6363    564.85996    1917.1343      2345.54    276.04293   -107.40938     320.0518   -3643.1582 
 1302000    237.96181   -4296.8415   -3888.9831   -4296.8415            0    2470.6942    18.218592    23.287033    21.807283    9251.8916    2293.0354    2356.7278    2762.3194   -431.82204   -31.054866   -763.06618    -3555.614 
 1303000    226.29627   -4290.2289   -3902.3648   -4290.2289            0    2045.9967    18.072767     23.21473    22.124934    9282.6135    1523.4578     1605.971    3008.5613   -913.07008   -180.53227    84.748692   -3625.3831 
 1304000    238.54818   -4271.1781   -3862.3147   -4271.1781            0    1785.5884     18.00782    23.573639    21.960095    9322.2763    2087.8153     1376.578    1892.3718    57.919965   -615.01575    239.33053   -3619.5535 
 1305000     228.1524   -4269.5599   -3878.5145   -4269.5599            0    2259.4577    17.819933    23.723383    21.834546    9230.5348    3878.6433    649.90128    2249.8286    945.64552    279.55065    565.98474   -3574.3511 
 1306000    251.94329   -4286.3339   -3854.5117   -4286.3339            0    1195.6006    18.021904    23.451511    22.083949    9333.5793    2017.5923    -464.3119    2033.5214   -634.34127    152.42774    343.28153   -3691.7658 
 1307000    236.82248   -4284.8061   -3878.9005   -4284.8061            0    2197.7175    18.201593    23.315002    21.860685    9277.0229    959.82498    2059.3418    3573.9857   -313.19723    233.86181    -109.4198   -3581.5584 
 1308000    234.55744   -4292.8971   -3890.8736   -4292.8971            0    2883.2992    18.111352    23.399215    21.842763    9256.7755     4002.586    3031.8109    1615.5008   -657.04152    604.23786    -69.35711   -3501.6266 
 1309000    247.88901   -4302.4583    -3877.585   -4302.4583            0    1804.3962    17.871246    23.446872    22.263852    9329.1062    1765.7196    975.43625    2672.0328    502.92697   -713.71805    457.72684   -3632.0871 
 1310000    222.93372   -4303.7612   -3921.6604   -4303.7612            0    2428.7958     18.11013    23.547346    21.733992    9268.3632    710.87868    1899.4343    4676.0745   -172.24233    286.64609   -380.43884   -3593.3611 
 1311000    236.05139    -4293.909    -3889.325    -4293.909            0    1306.0135    18.065304    23.395834    22.132539    9354.3807    1563.5184    2383.0348   -28.512697   -979.56221    52.486328    288.06076   -3711.1534 
 1312000    236.51452   -4276.2117   -3870.8339   -4276.2117            0    1613.4771    18.025392    23.308009    22.248311    9347.3163    1904.6246    1000.8462    1934.9606   -369.21576   -707.99422    56.488886   -3650.8831 
 1313000    235.94763    -4249.505   -3845.0988    -4249.505            0    2118.2874    18.245624    23.547864    21.631465    9293.8608    2866.3826    1303.2962    2185.1833    -29.78637    210.47398    555.59808   -3557.9831 
 1314000    237.65271   -4293.5061   -3886.1775   -4293.5061            0    2746.8529     17.96388     23.43117    22.016111    9266.9055    3517.4643    2107.3732    2615.7212     947.7303   -144.95813   -68.105426    -3514.945 
 1315000     231.8555   -4311.7173   -3914.3249   -4311.7173            0    3082.9294    17.917992    23.465408    22.033098    9263.8817    3087.9903    2005.4335    4155.3645    1429.9941   -97.700738     301.9624   -3497.8081 
 1316000    248.45079   -4283.0891   -3857.2529   -4283.0891            0    2976.8869    18.037152    23.633248     21.66938    9237.1472    3639.2088    2370.4859    2920.9661    1335.3264     125.6231   -735.63633   -3456.2236 
 1317000    223.68642   -4310.9324   -3927.5415   -4310.9324            0    2068.6928    17.973604    23.294218    22.227293    9306.1465    1210.4641    2562.7739    2432.8405    442.65624   -159.66133   -369.93905   -3646.7773 
 1318000     230.1019   -4290.1217   -3895.7349   -4290.1217            0    923.58098    18.376915    23.234842    22.001658    9394.3717    -203.3147    1724.8365    1249.2211    140.88438    96.153336    517.06278   -3769.1976 
 1319000    223.50994   -4310.2879   -3927.1995   -4310.2879            0    1554.5662    18.076267    23.396497    22.023394    9314.1631    64.640522    2223.8176    2375.2404   -1166.7758   -175.38696     61.44461   -3716.0311 
 1320000    234.15704   -4280.7981    -3879.461   -4280.7981            0    2576.0579    17.726441    23.314119    22.327021    9227.2298    2025.3546    3671.4698    2031.3494    11.844328    -312.2504     1139.289   -3532.8017 
 1321000    240.63587   -4306.6252   -3894.1835   -4306.6252            0    1847.3854    17.949451    23.641035    21.944801    9312.1357    507.67369    3321.1433    1713.3394     975.7523   -85.080642   -290.85279   -3643.2939 
 1322000    260.32653   -4280.4244   -3834.2336   -4280.4244            0    2238.7073    17.826829    23.553901    22.067363    9265.8952    2781.8918    1985.9516    1948.2786   -528.49552   -413.66177    826.17946   -3531.7091 
 1323000    220.11627   -4291.9667   -3914.6949   -4291.9667            0     1555.344    18.024393    23.412675    22.060975    9309.7146    2676.8966     1096.897    892.23847   -560.14757    -54.48652    264.24758   -3703.5218 
 1324000     236.1188   -4300.0203   -3895.3207   -4300.0203            0    2802.4427    18.129137    23.126818     22.00144    9224.5274    2565.1669    3245.3645    2596.7965   -304.86817    -138.0347    85.707303   -3518.3074 
 1325000    236.40455   -4297.3564   -3892.1671   -4297.3564            0    1384.7929    18.000919    23.463476    22.024118    9302.1976    410.19205    1801.6461    1942.5407    82.730445    -187.6103    806.56735   -3704.3019 
 1326000    233.55863   -4293.1389   -3892.8274   -4293.1389            0      2158.09    17.878572    23.585014    22.097779    9317.8901    4184.6586    524.75626    1764.8553   -968.91317   -155.25752     231.9338   -3599.5605 
 1327000    224.63058   -4292.1952   -3907.1861   -4292.1952            0    2568.0276    18.070723    23.372335    21.971015     9279.568    3398.8846    2307.8325    1997.3655     301.5921   -1206.8435   -377.84538   -3559.6473 
 1328000    247.27308   -4264.4556    -3840.638   -4264.4556            0    1979.3316    18.035863    23.135267    22.195461    9261.3782    3203.2946     2104.515    630.18532    262.24254   -36.464193   -151.91097   -3573.2942 
 1329000    235.37222   -4298.4027   -3894.9827   -4298.4027            0      1294.59    18.157027    23.343031    22.049088    9345.2861    882.29581    1068.5149    1932.9594   -413.23386   -783.45645   -177.67052   -3718.5412 
 1330000    246.92057   -4278.6243   -3855.4109   -4278.6243            0     1304.805    17.941847    23.748488    21.946273    9351.1256    1244.9491    1343.0318     1326.434    -667.3564    278.18882    614.76865    -3677.466 
 1331000    231.00831   -4276.3683    -3880.428   -4276.3683            0      2565.35    17.836567    23.449602    22.123594    9253.4232    3559.6356    1328.9759    2807.4384   -253.96934    385.61359   -126.92025   -3534.2297 
 1332000     226.7529   -4293.9261   -3905.2794   -4293.9261            0    1719.3843    18.160091     23.34256    21.976484    9315.8982    1533.5552    2371.0995    1253.4983    -666.8331   -225.27709   -1007.5943    -3671.679 
 1333000     229.7126   -4302.8249   -3909.1053   -4302.8249            0    1847.8512    18.192613    23.321624    22.019992    9342.6707    1849.5641    1392.9859    2301.0035   -994.19861   -93.026045   -191.60247   -3657.3296 
 1334000    250.63632   -4279.5007   -3849.9186   -4279.5007            0    3018.5823    18.008542    23.560747    21.925423    9302.8406    2895.9683    2335.9306    3823.8479   -881.55196   -18.778846    542.05441   -3440.3804 
 1335000    239.89879   -4297.2688   -3886.0905   -4297.2688            0    1709.7209    17.911763    23.658328    21.901977    9281.2337    505.56351    2208.5559    2415.0431    -161.4273     -513.653   -190.15589   -3654.6673 
 1336000    247.28336   -4310.5437   -3886.7085   -4310.5437            0    1451.7237    17.935528    23.459165    22.183474    9333.7527    1575.3252    1737.8323    1042.0137    48.771352    222.74289   -439.76929   -3689.0952 
 1337000    235.70861   -4306.7127   -3902.7162   -4306.7127            0    2071.6345    18.152802    23.411857     21.86479    9292.3351    1942.8359    2856.7237    1415.3438   -278.73908    544.87746    1066.1581     -3621.97 
 1338000    250.11572   -4281.9522   -3853.2624   -4281.9522            0    2597.9709     18.13851     23.13538    21.964343    9217.1458    1349.1685    1912.4932    4532.2509    376.20315    790.55705   -611.14606   -3504.0363 
 1339000    224.69442    -4309.416   -3924.2975    -4309.416            0    2455.4874    18.086896    23.284292    22.011134    9269.7812    2068.3819    2600.7438    2697.3366   -378.48024    493.49055   -74.407692   -3592.3395 
 1340000    231.82576   -4279.2569   -3881.9155   -4279.2569            0    2275.3919    18.186856    23.419103    21.865802    9313.0793    1266.8883    2570.3276    2988.9598   -613.86937    349.47327     102.6391   -3572.8678 
 1341000    226.57121   -4303.7183    -3915.383   -4303.7183            0    1940.1856    17.937339    23.306342    22.192967    9277.8534    965.53778    3209.1849    1645.8341    -132.7046     51.64368     491.5938   -3652.8604 
 1342000    242.47779   -4286.6454   -3871.0468   -4286.6454            0    1442.3935    18.013309    23.437259    22.111454    9335.0708    1713.0942    1386.3664    1227.7197    511.15876    266.33394    643.29294   -3674.6758 
 1343000    222.89315   -4291.5633   -3909.5321   -4291.5633            0    1966.7813    18.019087     23.45433    21.919701    9263.8267    2175.4683    1877.4043    1847.4711    671.06687    -49.19715   -455.47254   -3643.8132 
 1344000    222.48814   -4272.5549   -3891.2178   -4272.5549            0    2012.4095    17.840396    23.245789    22.310176    9252.3443    2135.0012    3689.3047     212.9226    279.67157    173.42517   -112.69443   -3619.6714 
 1345000    224.53001   -4296.7883   -3911.9516   -4296.7883            0    1525.0489    18.119404    23.381961    21.899948    9278.2898    1454.1458    1449.4046    1671.5964    201.61854    341.42673    233.90839   -3705.5906 
 1346000    233.69416   -4262.9196   -3862.3758   -4262.9196            0    4105.4917    18.145193    23.120543    21.942324    9205.3913    3410.8576    4126.0009    4779.6166    813.79235   -772.56506    1071.6916   -3311.2087 
 1347000    225.42581   -4264.9099   -3878.5377   -4264.9099            0    1924.0653    18.162586    23.230504    22.069969    9311.8943   -54.145048    4694.7082    1131.6327    797.70443    164.66271    346.93593   -3617.2412 
 1348000    224.84588   -4305.1256   -3919.7475   -4305.1256            0    1870.8132    18.080869    23.364242    21.912869    9256.9996    1968.6217    1583.8732    2059.9447   -958.33699    338.83396    45.155935   -3667.1805 
 1349000    229.94783   -4272.4737    -3878.351   -4272.4737            0    2228.5186    17.764736    23.766824    22.059397    9313.7279    2786.1738     2318.792    1580.5899    45.053701   -460.67277   -94.650646   -3575.6487 
 1350000    219.85145   -4282.8278   -3906.0099   -4282.8278            0    2418.8007    17.966944    23.678086    21.895569    9314.8755     2293.752     921.1082    4041.5418    595.00225   -890.51667    103.91303   -3577.4209 
 1351000    236.09583   -4321.0361   -3916.3759   -4321.0361            0    3956.6305    17.995276    23.193798    22.097533    9223.0416    4808.0048    4079.7319    2982.1547    318.06746   -376.60637    482.89996   -3384.1751 
 1352000    251.69813    -4307.838    -3876.436    -4307.838            0    2112.9266    18.091657    23.293628    22.051422    9292.9173    2206.7662    3090.4783    1041.5352   -1597.8033    -227.6614    892.21922    -3590.076 
 1353000    234.55058   -4279.2565   -3877.2448   -4279.2565            0    593.82994    18.124826    23.355178    22.016667    9319.8428   -30.646531    696.25246    1115.8839     93.08335    722.89066    140.92193   -3796.5313 
 1354000    229.00933   -4285.8597   -3893.3455   -4285.8597            0    3267.3322    17.959232    23.337657    22.108206    9266.1327    2705.3102    3938.8751    3157.8113   -620.82964   -536.41984     757.9937   -3451.8079 
 1355000    243.76835   -4285.0938   -3867.2832   -4285.0938            0    1680.8332    17.932827    23.667025    21.893674    9292.0399    2530.0057    647.27116    1865.2227   -1400.5906   -204.29155    254.63772   -3639.5053 
 1356000    223.71698   -4296.9535   -3913.5102   -4296.9535            0    2891.3983    17.911821    23.692695    21.880551    9285.6533    2769.0238    2969.3131     2935.858   -448.15297    48.234472    392.60088   -3521.9521 
 1357000    223.08241   -4287.4874   -3905.1318   -4287.4874            0    2038.6819    17.913316    23.435457    22.064584    9262.8615    1332.9764    2430.1018    2352.9674   -398.87488    194.75269   -147.82841   -3629.7276 
 1358000    234.34127    -4288.691   -3887.0381    -4288.691            0    1446.3451     18.08823    23.435848      21.8729    9272.2073    1276.9665    740.04216    2322.0265   -776.22283   -110.89409   -158.59463   -3691.4552 
 1359000    239.61963   -4301.8285   -3891.1287   -4301.8285            0     3381.464    17.826013    23.315153    22.104921    9187.1635    4017.5617    2619.9861    3506.8441   -384.64161   -372.74716   -12.262237    -3438.062 
 1360000    227.30701    -4282.748   -3893.1515    -4282.748            0    2416.8246    17.941751    23.533738    22.032533     9302.939    3198.0539    2351.3797    1701.0402   -774.89578   -505.32178   -161.95434   -3565.2517 
 1361000    229.28662   -4271.3713   -3878.3819   -4271.3713            0    2876.5049    18.123624    23.535561    21.711369    9260.9771    2787.0409    1930.4861    3911.9876   -439.25438    126.97245    51.248959   -3489.8758 
 1362000    245.56315   -4302.3347   -3881.4479   -4302.3347            0    3377.6846    17.937571    23.205151    22.025481    9167.9756    3649.1437    3759.4923    2724.4177    646.68882   -478.90937   -146.16458   -3429.8328 
 1363000    233.65725   -4295.9268   -3895.4462   -4295.9268            0    2273.7824    18.165837    23.335826     21.85776    9265.8287    1359.9846    2677.6395    2783.7232   -893.24336    386.79747    782.84968   -3588.1841 
 1364000    244.26355   -4271.8074   -3853.1481   -4271.8074            0    1271.8681    18.224759    23.357561    21.953533    9345.3098    446.14243    1816.7239    1552.7378   -1524.2957    8.5461642    854.22528   -3679.8029 
 1365000    258.73462   -4313.6977   -3870.2354   -4313.6977            0    2426.8494    17.925752    23.375389    22.152452    9282.3519    2407.4549    2546.0161    2327.0774   -427.31646   -753.74821    63.733894   -3541.7041 
 1366000     233.6789   -4303.7883   -3903.2707   -4303.7883            0    3349.8538     17.98954    23.425714    21.769859    9174.2065    2931.8726    2170.0084    4947.6804   -1998.5237    562.48958   -82.725166   -3455.0723 
 1367000    207.67852   -4275.1108   -3919.1569   -4275.1108            0    1726.3881    18.103044    23.441964    21.891667    9290.1864    1957.7228   -628.21155    3849.6529    370.91645    8.3484246   -212.58635   -3685.2523 
 1368000    225.93301   -4292.9013   -3905.6599   -4292.9013            0    1464.1603    17.835684    23.454571    22.229941     9299.414    2722.3238    1062.6707    607.48627   -127.21112    163.25924   -331.75232   -3707.0869 
 1369000     249.2052   -4307.8991   -3880.7699   -4307.8991            0     2560.408    18.057417    23.379509    21.973498    9276.6293    1928.3834    2221.3408    3531.4998   -214.44301   -63.413412    771.18768    -3534.372 
 1370000    234.89079   -4298.8828    -3896.288   -4298.8828            0    2193.3305    18.261457    23.359881     21.73086    9270.0693    2210.0948    1136.5142    3233.3825   -269.68598   -239.59686     224.4784   -3599.7619 
 1371000    234.59214    -4301.542   -3899.4591    -4301.542            0    3041.5403     17.93439    23.205159    22.180419    9230.8335    4379.8892    2287.1858     2457.546   -934.81441   0.46683187    594.96168   -3490.0002 
 1372000    250.00424   -4287.0573   -3858.5585   -4287.0573            0    2674.4571    18.148618    23.618203    21.672106    9289.4829       1694.4    2197.1929    4131.7786    -246.2735    656.07206   -680.09248   -3496.2296 
 1373000     221.1451    -4299.537   -3920.5019    -4299.537            0    2861.6255    17.863982    23.449492    22.096607     9256.297    4378.6106    2760.1246    1446.1413    106.99241   -360.39204   -493.64033   -3534.2008 
 1374000     242.0826   -4283.9823    -3869.061   -4283.9823            0     808.1235    18.052288    23.432659    22.127033     9360.025    657.53081    806.67519     960.1645   -942.52655   -26.826206   -155.87794    -3758.747 
 1375000     238.8527   -4257.6344    -3848.249   -4257.6344            0    2363.9068    18.131141    23.461729    21.825807    9284.4343    3801.5753    -18.32131    3308.4664    1235.9987    355.74904   -79.828516   -3528.1667 
 1376000    235.15785   -4290.1946   -3887.1421   -4290.1946            0    830.93266    17.723558    23.518324    22.402547    9338.0173    1925.5301    1722.8885   -1155.6206    -526.3271   -211.39493    423.64615   -3773.9812 
 1377000    238.55589   -4289.8958   -3881.0192   -4289.8958            0    2640.6523    17.999879    23.449049    21.893551    9240.8307    2641.4583    2459.7811    2820.7175   -676.07431   -474.35481    30.832996   -3525.1437 
 1378000    237.55312   -4299.5495   -3892.3916   -4299.5495            0    1946.2549    18.169754    23.364278      21.9534    9319.7275    1108.8845    3425.9294    1303.9509    281.46756   -282.95355    220.55748   -3627.8592 
 1379000    240.62148   -4268.3393   -3855.9223   -4268.3393            0    1093.2655    18.054326    23.327052    22.236159    9364.8517    1724.3523    1218.9576    336.48679    -577.0577    146.17739   -69.094035   -3706.6077 
 1380000    227.72395   -4308.7442   -3918.4332   -4308.7442            0    2712.5526    17.979891    23.574436    21.794647    9238.0053    3903.5692    1270.3157    2963.7729   -411.68052    657.48445   -209.82214   -3552.9795 
 1381000    229.81904   -4314.5392   -3920.6372   -4314.5392            0    2285.8129    17.870258    23.632649    22.087498    9328.0261    2960.7299    1336.4538     2560.255    1225.0016   -577.23475    860.77211    -3609.676 
 1382000     237.9803   -4267.7338   -3859.8437   -4267.7338            0    2127.8093     17.99965    23.386992    22.153406    9325.6462    1169.6724    2868.0691    2345.6864   -637.53771   -1570.6926   -1079.9292    -3570.451 
 1383000    223.87044   -4278.5122   -3894.8059   -4278.5122            0    1319.8895    18.032558      23.4277    22.019496    9302.3863    860.14824   -525.91185    3625.4322   -752.90887   -430.47516   -637.56247   -3715.7421 
 1384000     221.4142   -4300.3967   -3920.9003   -4300.3967            0    1068.4806    18.250645    23.261247    21.946223    9316.8909    1047.8983    1664.8889    492.65467    837.93602    146.81652   -461.61344    -3775.718 
 1385000    228.08589   -4318.9819   -3928.0505   -4318.9819            0    656.03292    18.152419    23.195734    22.049218    9284.0145     1477.336     826.1635   -335.40078    156.13335   -205.78049   -447.92472    -3839.225 
 1386000    235.61052   -4293.5502   -3889.7218   -4293.5502            0    1529.7548    17.972641    23.500141    21.989814    9287.6092    1353.6287    877.16154    2358.4743   -447.57887    638.15105    98.047928   -3682.5161 
 1387000    228.19079   -4296.1572    -3905.046   -4296.1572            0    2298.1923     17.74841    23.740151    22.024674     9280.095    4291.7647    2257.4812    345.33112    155.76854    39.972761    743.16074   -3594.0071 
 1388000    233.20424   -4284.6692   -3884.9652   -4284.6692            0    3677.3077    17.899113     23.39426    22.032495    9225.8097    3689.3938    3676.3632     3666.166   -842.51361   -797.76517    207.11385   -3390.1872 
 1389000     231.3889   -4332.1666    -3935.574   -4332.1666            0    2148.3213    18.353174    23.129673    21.792081    9250.8017    1465.6948    2491.1216    2488.1475    106.67599   -344.01303     340.5841   -3645.7365 
 1390000    231.64281    -4280.141   -3883.1131    -4280.141            0    3296.9515    18.064593    23.184791    21.957896    9196.4901    3719.6291    2953.0232    3218.2022    308.43354   -655.06841    58.410396   -3440.9214 
 1391000    219.79478   -4290.5562   -3913.8354   -4290.5562            0    1455.5573    17.825087    23.455727    22.187383     9276.553    2383.9629    1321.8131    660.89586    410.16524    615.84181   -701.27461   -3716.9145 
 1392000    225.14859   -4294.9757   -3909.0787   -4294.9757            0    1070.3987    17.873377    23.735707    21.903173    9292.1416    2021.7579    619.55631    569.88185   -359.04312   -215.03988    820.66028   -3764.0222 
 1393000    230.27072    -4301.539   -3906.8628    -4301.539            0    2151.4608     17.96334    23.286751    22.130232    9257.2492    2014.6554    2695.4534    1744.2737   -338.20015     195.6892    22.281173   -3616.3995 
 1394000    227.76186   -4293.0778   -3902.7017   -4293.0778            0    2409.3004    18.170625    23.285351    22.000371    9308.5631    2167.2103    4048.9834    1011.7073    615.81679   -201.18282    136.66921   -3575.6251 
 1395000    246.18506   -4290.1539   -3868.2011   -4290.1539            0    2095.1396    18.046658    23.378274    21.934511    9254.1641    1414.1673    2593.4053    2277.8462    113.31903    451.32989   -131.17261   -3585.4359 
 1396000    226.97605   -4300.1021    -3911.073   -4300.1021            0    2657.1735    17.764284     23.66776    22.137329    9307.4365    3274.6338    1747.2376    2949.6491    1053.6606     538.7203   -129.58945   -3550.3898 
 1397000    228.38035   -4313.7845   -3922.3484   -4313.7845            0    2249.9418    17.976787    23.698453    21.912347    9335.1429    2818.9029    1412.7727    2518.1499   -422.70607    360.49464   -64.920866   -3616.0334 
 1398000    223.63966   -4307.3074   -3923.9966   -4307.3074            0    1952.0254    18.060206    23.258922     22.17237     9313.746    3081.5129    2404.1801    370.38313    322.14931   -133.55246   -339.38223   -3658.8502 
 1399000    262.01385   -4300.4033   -3851.3205   -4300.4033            0     3113.421    18.157208    23.134347    22.113793    9289.0129    2810.1104    4939.4434    1590.7093    401.48397    326.38008   -399.09634   -3429.5431 
 1400000    231.61262   -4296.4649   -3899.4888   -4296.4649            0    2356.3556    18.168248    23.494007    21.794464    9302.8572     478.1815    3696.1144    2894.7709    388.47842    581.12204    222.44665   -3579.7959 
 1401000    236.15837   -4269.1238   -3864.3564   -4269.1238            0    2138.8623    17.943604    23.335451    22.133649     9267.848    2154.7297    2868.1904    1393.6668    -84.38518    -61.58396    18.912134   -3575.2634 
 1402000    225.92348   -4307.0066   -3919.7815   -4307.0066            0    80.278349     17.86649    23.599677    22.262929    9387.0172    1319.8843    42.891645   -1121.9409   -681.34133    230.21338   -642.54846   -3908.7914 
 1403000    247.86591   -4304.6866   -3879.8529   -4304.6866            0    1966.6982    18.080546    23.620611    21.763265    9294.5147    1682.2568     1369.299     2848.539    1002.1914   -884.41746    402.33453    -3613.265 
 1404000    217.10304   -4281.7292    -3909.622   -4281.7292            0    716.92944    18.078044    23.420479    22.187432    9394.0801    1040.1675   -242.26887    1352.8897   -1197.7018    750.27742   -355.32112   -3811.4005 
 1405000    240.34527   -4313.3961   -3901.4525   -4313.3961            0    1502.6913    18.232136    23.301819    22.002742    9347.6876    852.02703     1808.628    1847.4189   -158.81197     41.22742   -864.84645    -3696.596 
 1406000    221.16572   -4314.8048   -3935.7344   -4314.8048            0    1656.7456    18.081961    23.467949    21.941719    9310.8924    1596.7365    949.66079    2423.8396   -348.46856    235.57238    718.80318   -3710.7652 
 1407000    227.30098   -4290.5438   -3900.9577   -4290.5438            0    2054.7972    17.780381    23.359651    22.349959    9282.9101    2433.5222    1699.7086    2031.1608   -1625.8626    413.13628    -687.2686   -3622.7757 
 1408000    238.32882   -4314.3943   -3905.9068   -4314.3943            0    2968.1051    18.011372    23.452529    21.911052    9255.4957    2498.7653    3612.6592    2792.8907   -835.50991    69.876889   -304.97919   -3505.2663 
 1409000    241.84826    -4311.393   -3896.8733    -4311.393            0    1092.8579    18.087913    23.170908    22.237897    9320.2003    313.89628    2440.1248    524.55257     630.4487   -225.36831    152.92706    -3748.326 
 1410000     242.3208   -4275.4423   -3860.1128   -4275.4423            0    3414.8341     17.92166    23.273262    22.147156    9237.4791    3157.8058    3623.1536    3463.5429    670.30488     441.1293   -299.09783   -3400.0692 
 1411000    230.92592   -4320.0257   -3924.2266   -4320.0257            0     2650.476    18.004583    23.599643    21.787151    9257.3979    1273.9553    3035.7939    3641.6787   -311.73599    521.51155   -208.83102   -3566.3868 
 1412000    215.61946   -4274.1579   -3904.5935   -4274.1579            0    1848.5856    17.895397    23.381833    22.199747    9288.9775    2641.8301    1899.7648     1004.162    349.64837    1549.2243   -691.11379   -3654.1653 
 1413000    230.26441   -4281.7123    -3887.047   -4281.7123            0    1843.7252    18.130125    23.444464     21.91378    9314.4757    1281.7426    2003.7667    2245.6663   -616.11665     766.3264    189.42475   -3636.5916 
 1414000    237.53402   -4314.9327   -3907.8075   -4314.9327            0    2106.5582    18.083687     23.35181    22.031654    9303.6769    2062.1737    2834.1819     1423.319   -1197.1887    -832.9297   -120.51307   -3621.9801 
 1415000    228.61206   -4286.3592   -3894.5259   -4286.3592            0    1293.8151    18.017089    23.338283    22.300411    9377.0539    2303.0776    1147.7734    430.59428    594.81486   -753.01219    332.33076   -3717.5906 
 1416000    236.35206   -4278.8531   -3873.7538   -4278.8531            0    1589.7501    18.139458    23.626044    21.763852    9327.1954    1994.5354    1567.4311    1207.2838   -264.41728    -1304.233    8.2773263   -3657.5039 
 1417000     219.6813   -4299.7871   -3923.2609   -4299.7871            0    1596.7473    17.844294     23.70888    22.050848    9329.0132     2977.374    26.986117    1785.8819    906.42311   -177.87761    115.93719   -3706.0169 
 1418000    246.15754   -4271.2852   -3849.3796   -4271.2852            0    2359.2858    17.979208    23.417336    21.995787    9260.7798    1782.8841    3243.5363     2051.437    97.062214    123.34153    -65.73541   -3530.7369 
 1419000    252.52213   -4296.0615   -3863.2472   -4296.0615            0    2082.7752    18.171138    23.339582    21.999727    9330.2331    2119.5101    2794.6946     1334.121   -395.99795    526.18164    324.03716     -3579.84 
 1420000    233.68312   -4284.9927   -3884.4678   -4284.9927            0    2678.8793    18.063946    23.204091    22.119035     9271.358    2461.5435    2964.0751    2611.0195   -712.93512   -278.18425    505.02537   -3522.2478 
 1421000    235.51612    -4296.683   -3893.0164    -4296.683            0    3506.0097    17.769728    23.605133    22.005711    9230.4451    3477.7686     2281.312    4758.9485   -612.53789   -427.30636    553.22678   -3421.0494 
 1422000    237.12488   -4305.1837   -3898.7598   -4305.1837            0     154.7173    17.981882    23.617071    22.101193    9385.9206   -910.19244    761.89328    612.45107    164.20704    502.41142    21.984073   -3877.5815 
 1423000    236.98727   -4314.1058   -3907.9178   -4314.1058            0    2730.2325    17.997777    23.435221     21.92843    9249.0144    2849.5292    3921.2948    1419.8734   -842.31915   -451.46324   -99.758272   -3539.6438 
 1424000    228.57856   -4301.3446   -3909.5688   -4301.3446            0    2372.3139    18.046254    23.144542    22.274684    9303.5182    2215.1013    4571.1947    330.64575    413.18248    146.88954    282.69852   -3587.6878 
 1425000    239.63337   -4285.7629   -3875.0395   -4285.7629            0    2630.2199    18.126456    23.255823    21.900203    9231.9354     1836.234    3633.0087    2421.4169   -632.28114    -1322.172    721.66925   -3520.9111 
 1426000    221.78608   -4285.7121   -3905.5784   -4285.7121            0    1822.1265    18.134979    23.237228    22.138614    9329.3592    683.15235    2703.6723    2079.5549   -45.316017   -191.12769   -460.19988   -3657.6614 
 1427000    255.41191   -4302.9345   -3865.1672   -4302.9345            0    1596.8556    17.840848    23.604024    22.066251     9292.447    1235.6459    916.49313    2638.4276   -836.26882   -758.97353    18.848246   -3648.7601 
 1428000     242.9806   -4291.5354   -3875.0749   -4291.5354            0    1076.9198    17.880483    23.634802    22.089727    9335.1557    1539.8949    710.26186     980.6028   -283.26403   -166.85226    212.59685   -3728.4591 
 1429000    219.31282    -4271.849   -3895.9543    -4271.849            0    1601.0508     18.07419    23.341708    22.167795     9352.204    908.82391    2818.0111    1076.3176    697.73577   -923.51389   -15.602121   -3677.5833 
 1430000    242.94283   -4311.4522   -3895.0565   -4311.4522            0    2351.5032    18.240034    23.182611    21.879878    9251.9417    2143.8242    2574.7122    2335.9732    -583.9902     523.4904   -19.466011    -3577.768 
 1431000    243.67647   -4300.5744   -3882.9213   -4300.5744            0    1177.0164    18.017583    23.301586    22.259423    9345.3579    1685.9865    1021.8354    823.22727    397.46358   -44.656588    108.47067   -3722.5028 
 1432000    240.85348   -4274.6576   -3861.8429   -4274.6576            0    1634.6549    18.004584    23.609305    22.050839    9373.2758    1778.4264   -148.84772    3274.3862   -39.583929    9.3726506   -16.788356   -3638.3862 
 1433000     228.7747   -4302.2409   -3910.1289   -4302.2409            0     2760.621    17.947492    23.445535    21.969233    9244.4022     924.5032    3450.7295    3906.6304    587.75715   -816.93666   -766.04535   -3537.9416 
 1434000    249.00305   -4333.0115   -3906.2288   -4333.0115            0    3421.6589    17.712086    23.577921    22.053026    9209.6562    3912.6941    2574.7869    3777.4957   -215.95085      206.249     75.41789   -3446.6542 
 1435000     240.3199   -4282.9449   -3871.0448   -4282.9449            0    3295.8399     18.07462    23.301148    21.985482    9259.3924    2084.5931    4032.9561    3769.9704   -805.87886   -146.40264   -476.81679   -3425.9788 
 1436000    237.59153   -4277.1246   -3869.9008   -4277.1246            0    845.76687    18.358965    23.351785    21.927713    9400.7311   -799.10016    813.90979     2522.491    -181.7567    1022.9997   -511.24964   -3753.9462 
 1437000    228.64352   -4298.9996   -3907.1125   -4298.9996            0    1117.2892    18.043926    23.392147    22.216674    9377.3508    2188.1138    981.91738    181.83653    283.19903    272.56743   -617.82688   -3754.3131 
 1438000    242.42192   -4276.9505   -3861.4476   -4276.9505            0    1862.9596    17.753333    23.741512    22.136903    9330.5048    2449.8927    608.73934    2530.2468    -787.8904    304.30475    192.62256   -3607.9438 
 1439000    217.63055   -4284.5333   -3911.5219   -4284.5333            0    2546.0134     17.92027    23.415858    21.905662    9192.0208    2731.6847    1681.3522    3225.0032   -321.78768   -733.04814   -439.98066   -3570.2131 
 1440000    247.93929   -4271.7071   -3846.7477   -4271.7071            0    1024.7636    18.030636    23.285794    22.246905    9340.5333    2792.2307    864.39922   -582.33922   -424.49462   -175.60965     73.55561   -3707.1522 
 1441000    241.00826   -4299.8088   -3886.7288   -4299.8088            0    1360.1417    18.217759     23.21535    21.966226    9290.2124    1237.0495    1411.0651    1432.3106   -770.40786    694.82965    219.91482   -3702.4457 
 1442000    228.51675   -4272.4242   -3880.7543   -4272.4242            0    2154.1113    18.245152    23.208623    21.971566    9303.7467    236.71277    2984.6235    3240.9977   -70.210902   -801.14845   -24.708789   -3588.4724 
 1443000     233.1731   -4282.1648   -3882.5141   -4282.1648            0    1161.6076    17.988145    23.424679    22.161655    9338.1793    1033.4411    1015.8255     1435.556   -107.50367    577.22941    321.48728   -3724.3173 
 1444000    242.39765   -4277.4496   -3861.9883   -4277.4496            0    386.40388      17.9593     23.90998    21.813081    9366.6792   -219.86533    70.407443    1308.6695    202.92303    523.02073   -161.98918   -3809.2042 
 1445000    230.53028   -4289.8549   -3894.7339   -4289.8549            0    1169.0977    17.892164    23.628107    22.068667    9329.7044    1729.9798    611.81114     1165.502   -705.94875      389.617   -646.44083   -3735.6616 
 1446000    230.54099   -4288.5386   -3893.3993   -4288.5386            0    1177.0301    18.047724    23.283914     22.25753    9353.0959    935.49861    1710.7332     884.8585   -653.67709   -578.44238    50.552409   -3732.8461 
 1447000    228.85531   -4278.4165   -3886.1663   -4278.4165            0    1848.4846    18.125538    23.313693    22.019308    9304.7701   -253.71777    2058.2486    3740.9229   -476.16231   -257.35213    295.19641    -3635.326 
 1448000    244.50378   -4308.4825   -3889.4114   -4308.4825            0    1636.2848    18.100273    23.212442    22.235738    9342.3798    1388.5106    1885.4201    1634.9236     314.5874    72.256518   -104.08894   -3666.4692 
 1449000    242.71502   -4276.9849   -3860.9796   -4276.9849            0    3150.8471    17.950949    23.416618    21.833492    9177.7194    1923.1241    3344.1028    4185.3144    553.20671     442.2888   -762.65114   -3439.2462 
 1450000    231.92897   -4282.2159   -3884.6976   -4282.2159            0    3819.6123    17.859299     23.32827    22.043475    9183.8968    3060.7685    5088.9072     3309.161   -895.80478    -348.5575    770.02357   -3373.1075 
 1451000    234.25114   -4292.8874    -3891.389   -4292.8874            0    2755.9676    18.136351    23.242594    21.963933    9258.5852    1774.7583    3460.9619    3032.1825     1069.834   -190.65229    342.68957    -3519.259 
 1452000    239.03466   -4289.4803   -3879.7831   -4289.4803            0    1630.2219    18.367452    23.115157    21.944981    9317.1049    325.35962    2110.6926    2454.6135    -381.4403   -1820.6728   -554.82295   -3658.2678 
 1453000    227.82938    -4302.533   -3912.0412    -4302.533            0    791.62065     18.09476    23.408293    22.096781    9359.4768    402.68811    2231.3728   -259.19895    13.588042   -65.206651   -1074.3798   -3803.9863 
 1454000    218.19216   -4272.7421   -3898.7682   -4272.7421            0    3393.3958    17.724419    23.694664      21.9061    9199.9957    4434.7091    2196.8875    3548.5906    371.92158   -327.39143   -14.819337   -3443.4679 
 1455000    225.94559   -4307.0251   -3919.7621   -4307.0251            0    1821.0336    17.888757    23.636587    22.062327    9328.5955    1749.6538    1675.2128    2038.2342    465.14368    362.26589    205.81207   -3672.0141 
 1456000     230.9855   -4307.4445   -3911.5433   -4307.4445            0    2382.3761    18.102544     23.29991    22.057916    9303.7566    2650.8339    2467.9549    2028.3397   -710.51068   -1305.6437    514.59041   -3588.2888 
 1457000     220.6051   -4269.5543   -3891.4447   -4269.5543            0    2083.7275    18.267518    23.099156    21.928178    9252.9071    2095.0454    1700.3752    2455.7619    88.852735    100.60678    536.63793   -3610.2579 
 1458000     246.3269   -4294.2261   -3872.0302   -4294.2261            0    2036.5268    18.011262    23.471173    22.037887    9316.4165    1498.1508    2107.7914    2503.6384    793.79208    -307.9544   -452.51074   -3595.3266 
 1459000    229.13542   -4290.3716   -3897.6413   -4290.3716            0    2784.3084    17.765403     23.66955    22.116301    9299.8846    2949.8617    3522.8874    1880.1762    195.96499    481.24292    433.13607   -3520.0076 
 1460000    240.58535   -4278.2858   -3865.9307   -4278.2858            0    2659.1809    18.000218    23.652491     21.91882    9331.9374    3453.7801    1537.6887    2986.0739    74.466407    461.67613   -451.50539   -3504.0249 
 1461000     229.6265    -4297.845    -3904.273    -4297.845            0    1787.7223    18.170739    23.252447    22.037662     9311.224    1430.4243    2420.1394    1512.6032   -88.546173    193.62625    843.33949   -3661.5099 
 1462000    240.68408   -4300.0366   -3887.5123   -4300.0366            0    2137.6592    18.128021      23.1614    22.087889    9274.0491    1560.0413    1319.5687    3533.3677   -134.94575   -751.98524    89.738754   -3598.3886 
 1463000    236.11823   -4273.8695    -3869.171   -4273.8695            0    1320.6152    18.114556    23.451648    22.080623    9380.2064    1026.7885    107.47364    2827.5834    106.87327   -210.09073   -665.26741   -3688.5099 
 1464000    227.80014   -4283.1303   -3892.6887   -4283.1303            0     1981.124    17.830504    23.461159    22.135143    9259.6681    2732.7966     2231.183    979.39255    1185.7935    478.35925   -745.97799   -3625.1522 
 1465000    215.01316   -4313.2484   -3944.7232   -4313.2484            0    2892.5508    17.922034    23.721029    21.864902     9295.406    2276.1774    2146.6318    4254.8433    529.89294    372.82682   -268.92753   -3552.5976 
 1466000    235.47883   -4304.8572   -3901.2545   -4304.8572            0    2913.7602    18.010846    23.317818    21.961643    9223.3107    3593.3288    1994.5222    3153.4295   -789.18738   -286.06401    393.89068   -3509.3173 
 1467000    224.49456   -4299.8864   -3915.1104   -4299.8864            0    1401.9025    18.180693    23.276818    22.109938    9356.6755    330.42367    1974.6885    1900.5953   -997.60764   -304.61789    411.30732   -3723.8103 
 1468000    229.83727   -4268.0313   -3874.0981   -4268.0313            0    2182.0688    18.170233    23.337918    21.875743    9276.5273    1026.9715    1875.1131    3644.1219    901.86685     270.9494    787.17252    -3578.889 
 1469000    246.03015   -4295.0662    -3873.379   -4295.0662            0    4399.2645     17.79866    23.280457    22.168876    9185.9164    4126.0671    4285.1285    4786.5979    161.89341    -99.57445     -337.754    -3284.022 
 1470000    232.33941   -4315.6312   -3917.4094   -4315.6312            0    1960.8872    18.089548    23.588993    21.840222    9319.5332    1561.2687    2504.5663    1816.8266    879.84575   -47.423108   -288.25284   -3650.8938 
 1471000     231.1849    -4284.704    -3888.461    -4284.704            0    3339.4813    17.950974    23.268653    22.131606    9244.2608    5324.3055    2500.3404     2193.798   -699.47997   -1235.9687    127.42652   -3438.2386 
 1472000    232.45801   -4305.9988   -3907.5737   -4305.9988            0    2164.2233    18.085962    23.265702    22.075092    9288.8143     312.8521    2986.2336    3193.5841   -1075.4942    91.010792    60.542937   -3614.3911 
 1473000    225.63999   -4282.3583   -3895.6191   -4282.3583            0    2755.9998    18.096859    23.336633    21.815733    9213.2149    961.75494    3723.5665    3582.6779    -1036.247   -128.79981    731.46107   -3525.3084 
 1474000    237.93625   -4298.6754   -3890.8608   -4298.6754            0     2661.974    17.976624    23.448686    22.052303     9295.668    2866.7935     1315.336    3803.7924    295.36468    107.46864    559.45656   -3529.9829 
 1475000    231.14784     -4308.22   -3912.0405     -4308.22            0    1211.2531    17.961358    23.649077    21.899123    9302.0801    1228.5954    1015.1905    1389.9735   -561.82512   -585.09142    302.76008   -3747.7204 
 1476000    236.79412   -4294.2224   -3888.3653   -4294.2224            0    1798.4014    18.024726    23.486496    22.154058    9378.6473    1869.4061    973.66422     2552.134    -379.3616    486.70338   -168.95465   -3642.3837 
 1477000    256.07637   -4279.4206   -3840.5144   -4279.4206            0    1346.1604    18.121725    23.427753     22.09839    9381.8999    973.07261    579.30691    2486.1015   -90.678748   -377.51794    715.21794   -3656.3255 
 1478000    242.70844   -4283.2237   -3867.2298   -4283.2237            0    1349.1858    18.082992    23.318876     22.12665    9330.2561    1049.3886    1595.2896    1402.8792    -44.46407   -517.11206   -593.05184   -3683.6431 
 1479000    242.06886   -4287.0479   -3872.1501   -4287.0479            0    3761.4929      17.9413    23.314096    21.931801    9173.7475     3328.554    4541.1752    3414.7495   -65.776815   -279.87747   -592.11091   -3368.9011 
 1480000    241.63634   -4272.7078   -3858.5514   -4272.7078            0    1738.8631    17.959669    23.619764    22.030232    9345.2936    2526.3209    1672.2624    1018.0062   -590.12941   -626.57308    937.40166   -3621.5591 
 1481000    235.23678   -4273.9777   -3870.7899   -4273.9777            0    3310.5375    17.993328    23.418177    21.927674    9239.6845     3905.321    2810.4454    3215.8461   -386.23726    190.82259    785.27802   -3424.6905 
 1482000    230.11783   -4282.5287   -3888.1146   -4282.5287            0     1013.706    18.218827    23.412717    21.916277    9348.4366   -178.95541    1898.6842    1321.3892   -531.66901    441.36419    41.625982   -3749.9086 
 1483000    232.67514   -4300.9997   -3902.2025   -4300.9997            0    3709.6413    18.109634    23.045271    22.080283    9215.0165    4631.5795    4814.4291    1682.9155   -15.084078     842.1206    169.16345    -3403.658 
 1484000    242.57645   -4288.9189   -3873.1512   -4288.9189            0    2204.5178    18.005884    23.347591     22.01952    9256.8743    2287.3635    2258.4639    2067.7258    802.76153    514.10781   -273.07816   -3575.5368 
 1485000    220.97086    -4289.709   -3910.9726    -4289.709            0     1154.905     18.13755    23.501933    21.950894    9356.9528    817.67221    1058.6869    1588.3559    -476.8344   -25.073086   -548.04112   -3753.3724 
 1486000     237.8547   -4306.0681   -3898.3933   -4306.0681            0    2216.7864    17.934741    23.566792    21.936935    9271.9591    3134.8204    1117.2641    2398.2747   -494.99505    -104.9219   -322.63999   -3598.6349 
 1487000    243.95281   -4312.0495   -3893.9227   -4312.0495            0    1600.4072    17.967292    23.467688    22.035937    9291.4708    714.74415    2964.4455    1122.0318   -1066.4191    464.41981    306.82119    -3677.057 
 1488000    233.80277   -4274.7243   -3873.9944   -4274.7243            0    2109.0898    18.072841      23.7717    21.684772    9316.2582    1910.2905    821.44286    3595.5359   -581.17289   -278.49311    43.387485   -3587.4364 
 1489000     224.3093   -4274.0971   -3889.6387   -4274.0971            0    1353.5445    18.056608    23.311463    22.264702    9371.7908    1087.7231     2595.046    377.86437   -1302.0923    299.34138   -52.446587    -3704.639 
 1490000    233.34237   -4280.1993   -3880.2585   -4280.1993            0     2484.689    18.208324    23.243989    21.856455    9250.3967    1436.2887    3614.9221    2402.8562   -168.20233    844.86063   -187.94337   -3545.0552 
 1491000    231.78771   -4308.6088   -3911.3326   -4308.6088            0    2257.0507    18.002303    23.255863    22.079391    9243.7378    2665.5981    2122.4212    1983.1327   -354.92366   -491.23309    381.59568   -3607.0587 
 1492000    238.72975   -4293.1677   -3883.9931   -4293.1677            0    1470.9902    17.954429    23.482061    22.153627     9340.124    2465.0167    219.40985    1728.5442     324.7742   -33.197231    145.09955   -3683.6205 
 1493000    238.86688   -4276.9149   -3867.5053   -4276.9149            0    2046.6104    18.132831    23.659554    21.782286    9344.9209    1020.8508     1968.997    3149.9834   -202.55657   -420.04968   -144.55511   -3588.5808 
 1494000    231.91968   -4274.4487   -3876.9463   -4274.4487            0    2607.1027    17.763618    23.367533    22.400157    9298.1246      4591.59      2876.37    353.34794   -173.43929    312.95943    708.57504   -3523.4138 
 1495000    245.76899   -4284.7209   -3863.4812   -4284.7209            0    1358.7543    18.050934    23.490201    21.989473    9323.9778    1586.3602     652.8341    1837.0685   -729.99525   -659.53331    -195.7196    -3678.717 
 1496000    224.99553   -4281.1748   -3895.5401   -4281.1748            0    1036.0264     18.23516    23.480736    21.820863    9343.1475    -187.2955    1476.5483    1818.8263    206.51424   -102.05845    1036.0457    -3754.371 
 1497000    228.87699   -4283.2992   -3891.0118   -4283.2992            0    3142.4169    17.954127    23.229689    22.165866    9244.6908    3967.0341    3660.1996     1800.017   -106.75626   -106.18408   -347.12781   -3467.3376 
 1498000     248.6446   -4291.2764   -3865.1081   -4291.2764            0    1460.3975    18.043553    23.635196    21.867454    9325.6577    1774.5926    1435.7704    1170.8293     77.71247   -132.80617    311.07344   -3666.4865 
 1499000    231.23387   -4310.4088   -3914.0819   -4310.4088            0     1752.855    17.912579    23.551283     22.03049    9293.8757    877.72603    1860.7333    2520.1056   -733.87341   -442.76092    519.68161    -3676.497 
 1500000      241.554   -4267.0013    -3852.986   -4267.0013            0    2278.2529    18.077744    23.163682     22.14242    9272.0746    2865.8547    1994.4686    1974.4352    996.80043    95.288605    96.898316   -3544.9123 
Loop time of 361.888 on 64 procs for 250000 steps with 864 atoms

Performance: 119.374 ns/day, 0.201 hours/ns, 690.822 timesteps/s
193.9% CPU use with 32 MPI tasks x 2 OpenMP threads

MPI task timing breakdown:
Section |  min time  |  avg time  |  max time  |%varavg| %total
---------------------------------------------------------------
Pair    | 17.473     | 25.178     | 33.499     |  96.7 |  6.96
Bond    | 0.81249    | 1.0516     | 1.7508     |  19.4 |  0.29
Kspace  | 179.64     | 189.88     | 198.35     |  37.5 | 52.47
Neigh   | 1.4181     | 1.5161     | 1.6231     |   4.3 |  0.42
Comm    | 55.498     | 58.845     | 62.432     |  20.9 | 16.26
Output  | 0.85946    | 0.85978    | 0.86147    |   0.0 |  0.24
Modify  | 65.212     | 67.508     | 71.037     |  18.0 | 18.65
Other   |            | 17.05      |            |       |  4.71

Nlocal:        27.0000 ave          38 max          18 min
Histogram: 3 7 4 2 1 4 3 0 1 7
Nghost:        2127.22 ave        2228 max        2023 min
Histogram: 7 3 6 0 0 0 1 4 3 8
Neighs:        6556.88 ave        9262 max        4341 min
Histogram: 4 6 5 1 2 4 2 0 4 4

Total # of neighbors = 209820
Ave neighs/atom = 242.84722
Ave special neighs/atom = 2.0000000
Neighbor list builds = 5310
Dangerous builds = 0

unfix		3
unfix		2
unfix		1

write_data	data.final.${pid} nocoeff
write_data	data.final.1 nocoeff
System init for write_data ...
PPPM initialization ...
  extracting TIP4P info from pair style
  using 12-bit tables for long-range coulomb (../kspace.cpp:340)
  G vector (1/distance) = 0.37169043
  grid = 24 27 25
  stencil order = 5
  estimated absolute RMS force accuracy = 0.0031611974
  estimated relative force accuracy = 9.519852e-06
  using double precision FFTW3
  3d grid and FFT values/proc = 4410 672
Last active /omp style is kspace_style pppm/tip4p/omp

write_restart   restart.lmp.${pid}
write_restart   restart.lmp.1
System init for write_restart ...
PPPM initialization ...
  extracting TIP4P info from pair style
  using 12-bit tables for long-range coulomb (../kspace.cpp:340)
  G vector (1/distance) = 0.37169043
  grid = 24 27 25
  stencil order = 5
  estimated absolute RMS force accuracy = 0.0031611974
  estimated relative force accuracy = 9.519852e-06
  using double precision FFTW3
  3d grid and FFT values/proc = 4410 672
Last active /omp style is kspace_style pppm/tip4p/omp
Total wall time: 0:06:01
