#include		in.partitions
include		in.temp
variable        temperature equal 171.47
variable	tempDamp equal 100.0
include		in.pressure
variable        pressure equal 7359.9
variable        pressureDamp equal 1000.0 # This is 1 ps
include		in.seed
variable        seed equal 745823

units		real
atom_style	full
read_restart    restart.lmp.${pid}
read_restart    restart.lmp.0
Reading restart file ...
  restart file = 30 Jul 2021, LAMMPS = 30 Jul 2021
  restoring atom style full from restart
  triclinic box = (-3.1552025 -0.20989952 0.077256498) to (14.765201 22.789899 19.152742) with tilt (-0.16887640 -6.3906015 0.34433974)
  2 by 4 by 4 MPI processor grid
  restoring pair style lj/cut/tip4p/long/omp from restart
  restoring bond style harmonic/omp from restart
  restoring angle style harmonic/omp from restart
  1008 atoms
  672 bonds
  336 angles
Finding 1-2 1-3 1-4 neighbors ...
  special bond factors lj:    0        0        0       
  special bond factors coul:  0        0        0       
     2 = max # of 1-2 neighbors
     1 = max # of 1-3 neighbors
     1 = max # of 1-4 neighbors
     2 = max # of special neighbors
  special bonds CPU = 0.003 seconds
  read_restart CPU = 0.009 seconds

include 	in.setup
variable	out_freq equal 1000
variable	out_freq2 equal 10000
variable	out_freq3 equal 1000

timestep	2.0

neigh_modify    delay 7 every 1

include		in.tip4p
# This is TIP4P/Ice

# create groups ###
group ox type 2
336 atoms in group ox
group hy type 1
672 atoms in group hy

# set charges - beside manually ###
set group ox charge -1.1794
Setting atom values ...
  336 settings made for charge
set group hy charge 0.5897
Setting atom values ...
  672 settings made for charge

# ### TIP3P Potential Parameters ###
pair_style lj/cut/tip4p/long/omp 2 1 1 1 0.1577 8.5
pair_coeff 1 1*2 0.000 0.000
pair_coeff 2 2 0.21084 3.1668
bond_style  harmonic
bond_coeff  1 450 0.9572
angle_style harmonic
angle_coeff 1 55 104.52
kspace_style pppm/tip4p/omp 1.0e-5
pair_modify tail yes

thermo          ${out_freq}
thermo          1000
thermo_style    custom step temp pe etotal epair emol press lx ly lz vol pxx pyy pzz pxy pxz pyz enthalpy

restart 	${out_freq3} restart.lmp.${pid} restart2.lmp.${pid}
restart 	1000 restart.lmp.${pid} restart2.lmp.${pid}
restart 	1000 restart.lmp.0 restart2.lmp.${pid}
restart 	1000 restart.lmp.0 restart2.lmp.0


include         in.dump
dump            myDump all atom ${out_freq2} dump.water.${pid}
dump            myDump all atom 10000 dump.water.${pid}
dump            myDump all atom 10000 dump.water.0
dump            myDump2 all dcd ${out_freq2} dump.dcd
dump            myDump2 all dcd 10000 dump.dcd
dump_modify     myDump append yes
dump_modify     myDump2 append yes


variable natoms 	equal  "count(all)"                        # NUMBER ATOMS
variable H      	equal  "enthalpy/v_natoms"                 # ENTHALPY-per-atom
variable Vol      	equal  "vol/v_natoms"                 # volume-per-atom
fix AVG all 		ave/time ${out_freq} 1 ${out_freq} v_Vol v_H file vol_enthalpy.dat
fix AVG all 		ave/time 1000 1 ${out_freq} v_Vol v_H file vol_enthalpy.dat
fix AVG all 		ave/time 1000 1 1000 v_Vol v_H file vol_enthalpy.dat



fix 		1 all shake 1e-6 200 0 b 1 a 1
       0 = # of size 2 clusters
       0 = # of size 3 clusters
       0 = # of size 4 clusters
     336 = # of frozen angles
  find clusters CPU = 0.001 seconds
fix             2 all nph tri ${pressure} ${pressure} ${pressureDamp}
fix             2 all nph tri 7359.9 ${pressure} ${pressureDamp}
fix             2 all nph tri 7359.9 7359.9 ${pressureDamp}
fix             2 all nph tri 7359.9 7359.9 1000
fix             3 all temp/csvr ${temperature} ${temperature} ${tempDamp} ${seed}
fix             3 all temp/csvr 171.47 ${temperature} ${tempDamp} ${seed}
fix             3 all temp/csvr 171.47 171.47 ${tempDamp} ${seed}
fix             3 all temp/csvr 171.47 171.47 100 ${seed}
fix             3 all temp/csvr 171.47 171.47 100 745823


run             250000
PPPM initialization ...
  extracting TIP4P info from pair style
  using 12-bit tables for long-range coulomb (../kspace.cpp:340)
  G vector (1/distance) = 0.38359015
  grid = 24 30 32
  stencil order = 5
  estimated absolute RMS force accuracy = 0.0019383663
  estimated relative force accuracy = 5.8373324e-06
  using double precision FFTW3
  3d grid and FFT values/proc = 5712 768
Last active /omp style is kspace_style pppm/tip4p/omp
Neighbor list info ...
  update every 1 steps, delay 7 steps, check yes
  max neighbors/atom: 2000, page size: 100000
  master list distance cutoff = 10.8154
  ghost atom cutoff = 10.8154
  binsize = 5.4077, bins = 5 5 4
  1 neighbor lists, perpetual/occasional/extra = 1 0 0
  (1) pair lj/cut/tip4p/long/omp, perpetual
      attributes: half, newton on, omp
      pair build: half/bin/newton/tri/omp
      stencil: half/bin/3d/tri
      bin: standard
Per MPI rank memory allocation (min/avg/max) = 10.35 | 10.35 | 10.36 Mbytes
Step Temp PotEng TotEng E_pair E_mol Press Lx Ly Lz Volume Pxx Pyy Pzz Pxy Pxz Pyz Enthalpy 
18000000    183.80617   -5027.0883   -4659.4532   -5027.0883            0    6838.9352    17.920404    22.999798    19.075485    7862.2601    6507.9472    6492.9361    7515.9224   -606.22323    284.81867   -1025.8521   -3875.2804 
18001000    159.61418   -5013.2268   -4693.9787   -5013.2268            0    6312.9582    17.988948    22.874545    19.182215    7893.2707    6368.1739    5938.1066    6632.5941    240.51327   -741.29832   -239.15742   -3967.2609 
18002000    164.01622   -5006.3262   -4678.2736   -5006.3262            0     8935.166    17.959522    22.571917     19.28815    7819.0463     9418.051    9555.5135    7831.9335    -277.8173    764.85839    989.17472   -3659.3718 
18003000    168.13208   -5027.2479    -4690.963   -5027.2479            0    7196.3274    17.748558    22.734978    19.451713     7849.021    9358.8038    6729.2144    5500.9641   -277.36594     287.6453   -260.45913      -3867.2 
18004000    170.02263   -5054.4229   -4714.3567   -5054.4229            0    5809.1097    17.796438    22.897399    19.322207    7873.6474     7118.044    4820.6348    5488.6504    184.02349    473.56379   -260.03903    -4047.302 
18005000    176.95876   -5040.0979   -4686.1585   -5040.0979            0    6822.1197    17.876443     22.75817      19.3034    7853.3013    7689.4361    6218.5585    6558.3645   -752.26255    490.02791   -1415.5934   -3904.8052 
18006000    178.39585   -5032.9597    -4676.146   -5032.9597            0    6574.0124    18.097749    22.536055    19.293859     7869.036    6596.6825    6553.9531    6571.4015    -599.8115   -188.16024    200.23079   -3921.7004 
18007000    162.33972   -5012.4579   -4687.7584   -5012.4579            0    7619.8671    17.910014    22.876788    19.133082    7839.2751    6721.6228    7738.4357    8399.5427   -522.44092    445.97109    1029.4518   -3816.5958 
18008000    170.33776   -5030.6088   -4689.9122   -5030.6088            0    7032.7804    17.834857    22.951419    19.198087    7858.4543    5381.8272     7313.669    8402.8449    183.73656    717.86918   -403.62321   -3883.9029 
18009000    174.17952   -5012.0118   -4663.6313   -5012.0118            0    8452.2514    17.871848    22.642986    19.290604    7806.3673    8171.2438     8566.998    8618.5123    528.84164   -277.93067    654.98584   -3701.3606 
18010000    174.60095   -5031.7644   -4682.5409   -5031.7644            0    5567.7707    18.040794    22.745894    19.234092    7892.7864    4413.7739    6123.8484    6165.6897    118.53499    19.551366    586.62579   -4041.6449 
18011000    168.78534   -5027.9542   -4690.3627   -5027.9542            0    6988.2145     17.92243    22.924588    19.132617    7860.9101    7285.5926    6787.6088     6891.442   -437.60918   -97.069095    204.10823   -3889.2107 
18012000    183.53392   -5026.3825    -4659.292   -5026.3825            0    6722.2985      17.8786    22.963098    19.190478    7878.6131    6955.3921    6575.5844     6635.919    82.273352    78.916734    2239.7575   -3886.8899 
18013000    186.00779   -5024.0113   -4651.9728   -5024.0113            0    8523.5482    17.889567    22.547777    19.342256    7802.0855    8538.6966    8959.0542    8072.8939    273.80572    402.20607    -132.8186   -3682.1173 
18014000    182.42301   -5049.9197   -4685.0512   -5049.9197            0    7432.8677    17.957921    22.670257    19.197716    7815.5953    7238.9585    7426.6833    7632.9613    369.23087    457.83929    805.79805   -3837.8348 
18015000     168.7827   -5029.2183    -4691.632   -5029.2183            0    6596.3225    17.889941    22.974106    19.160017    7874.8705    6844.0894    6223.7974    6721.0808    363.91315    550.22408   -575.65591   -3934.0648 
18016000    171.80907   -5027.4874    -4683.848   -5027.4874            0    6711.8442    17.891066    22.877553    19.219537    7866.6297     8056.556    6284.8531    5794.1237   -1113.1546   -215.37333   -709.98765   -3913.8201 
18017000    169.80797    -5020.904   -4681.2671    -5020.904            0    9177.7508    17.977327    22.443171    19.344175      7804.76    9655.2668    9438.0184    8439.9672   -493.13667    335.09493   -33.549389   -3636.6149 
18018000    171.03767   -5041.7255    -4699.629   -5041.7255            0     7530.994    17.950647    22.777971    19.157198    7832.9822    7608.8258     8109.778    6874.3781    1710.2645    919.05656   -433.58505   -3839.3183 
18019000    167.38417   -5021.3556   -4686.5666   -5021.3556            0    7663.0987    17.891035    22.828086    19.191059    7837.9754    7340.5875    8255.6089    7393.0995    420.47451    902.26663    1317.3087   -3810.6068 
18020000    165.80728   -5016.0567   -4684.4217   -5016.0567            0    8543.0403    17.998128    22.643526    19.165902    7810.8922    7754.1754    9419.4202    8455.5253    334.94763    1537.0624   -821.24203   -3711.2511 
18021000    167.18054   -5038.5277    -4704.146   -5038.5277            0    8166.1916    18.083346     22.63874    19.159539    7843.6118    7454.7357    7807.7164    9236.1229    88.433654   -273.17165    10.279996   -3770.0069 
18022000    173.85363   -5033.3322   -4685.6035   -5033.3322            0    7227.9416    17.956778    22.761637    19.239745    7863.7776    7729.8528    7267.2549    6686.7171    808.19333   -673.40427    1008.5485    -3856.666 
18023000    168.61565   -5045.7188   -4708.4667   -5045.7188            0    7219.0058     17.88906    22.839337    19.217419    7851.7426    6330.0527    7625.6482    7701.3164   -515.90685    1151.0367    417.11232   -3881.8212 
18024000    174.77358   -5008.9052   -4659.3364   -5008.9052            0    5632.9547    18.029979    22.735163    19.345834    7930.1383     3436.248    7202.8298    6259.7862   -1659.3271    2458.0976    686.96148   -4007.8687 
18025000    187.49255   -5038.2931   -4663.2849   -5038.2931            0    6835.8689    17.889525    22.770098    19.269621    7849.4077     5565.971    7711.8664    7229.7692    540.07007    13.957761   -680.25461    -3880.745 
18026000    175.81171    -5026.324   -4674.6789    -5026.324            0     7554.855    17.881601    22.834867    19.200958    7840.2118    6929.0032    7519.4399     8216.122   -1059.4177   -234.04076   -305.93971   -3810.8458 
18027000    181.25409   -5030.7321   -4668.2015   -5030.7321            0     7066.548    17.969423    22.769252    19.255368    7878.3402    6632.6924     7380.441    7186.5107     63.67705    469.89041   -429.97914   -3856.2727 
18028000    171.69777   -5043.2202   -4699.8034   -5043.2202            0    6324.8539    18.124732    22.622585    19.227731    7883.9136    6811.0006    6465.7457    5697.8154   -923.69798     1304.145   -1286.1761   -3972.5793 
18029000    173.17525   -5032.6339    -4686.262   -5032.6339            0    6382.1939    17.928964    22.803815    19.291152     7887.164    5715.8915    6193.1587    7237.5316   -860.02869    232.75815    -303.9254   -3952.1425 
18030000    174.87156   -5018.1696   -4668.4049   -5018.1696            0    7793.2066    17.845909    22.723104    19.346752    7845.3873    6993.6195    9192.7644    7193.2359    5.3963525     790.5482    -1800.697   -3776.7302 
18031000     177.4993   -5023.1991   -4668.1786   -5023.1991            0    5646.3449    17.880599    22.881125    19.285108     7890.082     6190.365    6012.2092    4736.4604   -1092.2238    1418.7799   -1714.7175   -4018.4607 
18032000    175.12593   -5028.6311   -4678.3576   -5028.6311            0    7315.4717    18.010312    22.819823    19.081974    7842.5411    5649.1136    8133.1765    8164.1249   -313.59283    960.29021    149.72341   -3841.6475 
18033000    170.85266   -5024.3181   -4682.5917   -5024.3181            0    6721.7783    18.043665    22.744127    19.178044     7870.428    7926.1551     5986.306    6252.8738    582.12508    696.41588    282.86032   -3911.0518 
18034000    160.25372   -5025.4895   -4704.9622   -5025.4895            0    7904.2168    17.950936    22.688717    19.231743    7832.7758    8221.2767    7395.9919    8095.3818    155.81199     62.28428   -594.56773   -3802.0398 
18035000    164.63918    -5035.003   -4705.7043    -5035.003            0    8227.3553    17.884364    22.834198    19.156625    7823.0886    6710.1837    8904.0816    9067.8008     470.5182    273.25244    370.06156   -3767.0312 
18036000    167.58379   -5040.8508   -4705.6625   -5040.8508            0    7034.4148    17.922886    22.832025    19.166688    7843.3115    7764.9881    6720.1732    6618.0831     186.1621    164.85685    638.83452   -3901.0193 
18037000    173.72302   -5031.2694   -4683.8019   -5031.2694            0    6912.2982    17.930108    22.763707    19.269268     7864.862    5597.3808    8301.0514    6838.4624    836.76081    1031.6325     1475.658   -3890.9547 
18038000     164.9216   -5019.2767   -4689.4132   -5019.2767            0    7348.1877    17.945932    22.722857    19.212148    7834.3845    6761.1364    7305.7043    7977.7225     441.1051    298.91281   -369.43639   -3849.8352 
18039000    175.25563   -5038.1779    -4687.645   -5038.1779            0    7905.1733    17.966821    22.827204     19.05654    7815.7022    9178.1842    6413.4579    8123.8778    481.16055   -304.12735    -516.0003   -3786.5818 
18040000    172.15493   -5024.0271    -4679.696   -5024.0271            0    7723.4637    17.952981    22.755978    19.182061    7836.5939    8107.3785    6800.1103    8262.9024   -684.53013   -229.45842   -1849.3546   -3796.9915 
18041000    167.89672   -5016.6314   -4680.8172   -5016.6314            0    8159.6239    17.864341    22.596341    19.405501    7833.3946     8600.928    8363.3788    7514.5649    1381.2862    497.66832    707.64778   -3748.6453 
18042000    173.12261   -5033.2825   -4687.0159   -5033.2825            0    6696.3258    17.870628    22.671557    19.424811    7870.0586    5895.9623    8366.0206    5826.9944   -260.26599    1149.5616    807.06874   -3918.4335 
18043000    178.91112   -5031.0391   -4673.1947   -5031.0391            0    7079.8602    17.815199    22.821306    19.270849    7834.8741    8423.1654    7156.1939    5660.2212    656.62694   -377.97601   -1025.4753   -3864.2244 
18044000      169.683   -5042.5665   -4703.1795   -5042.5665            0    7553.9403    17.881753    22.974384    19.067661      7833.42    8012.9405     7039.477    7609.4035    89.214361    31.828273    1167.3648   -3840.1993 
18045000    164.64215   -5035.0827    -4705.778   -5035.0827            0     7766.527    17.973775     22.56214    19.262259    7811.3629    7724.2257     8628.966    6946.3893   -1320.6556    1358.0725   -889.83154   -3821.0097 
18046000    165.16241   -5029.4378   -4699.0926   -5029.4378            0    8083.8393    17.896706    22.668243    19.346659    7848.6857    9201.6645    8197.7063     6852.147   -675.74057    1651.5981   -1575.9171   -3773.7757 
18047000    168.39882   -5019.7836   -4682.9651   -5019.7836            0     8062.773    17.800339    22.786405     19.25858    7811.3904     9469.324    7587.7554    7131.2396    23.812168   -400.11759   -389.29757    -3764.445 
18048000    167.93911   -5040.3201   -4704.4212   -5040.3201            0    7357.9128    17.831864     22.81448    19.315296    7857.9398     6591.254    7897.7734    7584.7109    846.02334   -149.67773    839.86193   -3861.2044 
18049000    169.08057   -5015.6475   -4677.4655   -5015.6475            0    5490.2442    18.114785    22.708185    19.210107    7902.1522    4967.0351    5190.6754    6313.0222    1778.8619   -430.64979    1144.1897   -4044.7435 
18050000    168.02652   -5034.8954   -4698.8216   -5034.8954            0    7726.5359     18.08163    22.596831    19.146504    7823.0228    7006.5694    7927.6003     8245.438    420.57985   -744.55192    2415.8917   -3817.2952 
18051000    183.57159   -5011.6595   -4644.4936   -5011.6595            0    5405.7229    17.860926    23.076383    19.149701    7892.8475    7024.5932    4568.1637    4624.4119   -22.533078    145.40776    742.74747   -4022.2458 
18052000     167.1064   -5036.7808   -4702.5473   -5036.7808            0    6928.7807    17.929182    22.855884    19.201867    7868.6813    6622.0959    6316.2469    7847.9992    279.97474    1274.8471    -1171.303   -3907.4237 
18053000    168.62002   -5045.6018   -4708.3409   -5045.6018            0    6848.0876    18.009472    22.596314    19.255661    7836.0468    6718.1928    7248.4956    6577.5743    1073.0601    410.37669    347.57397   -3925.7367 
18054000    171.08167   -5011.0544   -4668.8699   -5011.0544            0    6336.8994    17.933209    22.694491    19.397356    7894.4339    5389.3953    7309.4023    6311.9007   -95.450366    185.10506   -1386.4074   -3939.2886 
18055000    175.94394   -5023.1604   -4671.2508   -5023.1604            0    9069.1146    17.852163    22.765343    19.191958    7799.8154    9859.8189    9041.0482    8306.4768    752.41571    774.56489   -814.70359    -3639.618 
18056000    180.11821   -5023.0653   -4662.8066   -5023.0653            0    6645.8382    17.906643    23.074233     19.07803    7882.6995    6162.5106    6216.1251    7558.8789    357.95477    818.14044    207.54564   -3898.7938 
18057000    169.55312   -5050.6217   -4711.4945   -5050.6217            0    7122.5427    17.994287    22.686457    19.254871     7860.351    7057.0711    7010.8646    7299.6922   -1005.9226    69.485267    128.91425   -3895.0007 
18058000    171.37386     -5034.69   -4691.9211     -5034.69            0    5895.4797    18.057584    22.676435    19.286335    7897.3998    4648.2073    6318.0783    6720.1536    -659.7446    149.03346    -324.2723   -4012.9064 
18059000    168.23509   -5021.5901   -4685.0991   -5021.5901            0    7432.7545    17.893762     22.86318    19.162687    7839.6141    6491.3198     7230.819    8576.1248   -712.41511   -32.692015   -1629.1845    -3835.292 
18060000    172.81763   -5032.0724   -4686.4158   -5032.0724            0    7894.5556    17.881253    22.859176    19.140314    7823.6166    10893.317    7243.9243    5546.4251    1903.0297    -288.8608    468.96852   -3785.6515 
18061000    174.97968   -5024.1508   -4674.1698   -5024.1508            0    5862.2659     17.97586     22.75362    19.310053    7898.1184    5529.1113    6405.4759    5652.2105   -525.67068   -242.65362    206.63458   -3998.9191 
18062000    181.84787   -5017.0285   -4653.3103   -5017.0285            0    7576.9746     17.85502    22.605088     19.44413    7847.9287    7777.1775    7465.5833    7488.1629    563.38259    341.78534   -1541.8245   -3786.0953 
18063000    172.96249   -5013.0667   -4667.1204   -5013.0667            0    7171.2902    17.893086    22.888932     19.18842    7858.6871    7372.3356    6987.9382    7153.5969    747.47745    766.82761   -1477.0591   -3845.2124 
18064000    165.75319   -5028.8624   -4697.3356   -5028.8624            0    6911.5804    18.035741    22.729234    19.199237    7870.5074    6273.1066    7169.9979    7291.6368   -296.46698    56.172312   -307.33632   -3904.0017 
18065000    171.39279   -5041.8967   -4699.0899   -5041.8967            0    6898.0963    17.987715    22.736352    19.192323    7849.1806    7681.6208    6165.1342    6847.5338   -1256.2055   -216.53176    1599.8448   -3909.4493 
18066000    181.76862   -5025.6644   -4662.1047   -5025.6644            0    7612.3869    17.925786    22.903661    19.141013    7858.6516    8189.8778    7601.8278    7045.4552    -124.9209    1914.0775    -1613.333   -3789.6462 
18067000    174.29326   -5045.6347   -4697.0266   -5045.6347            0    5880.3631    17.956187    22.876813    19.167444    7873.6089    5439.8332    6783.7508    5417.5053    260.06813    1254.4593   -1481.4246   -4021.7933 
18068000    174.32251   -5036.6684   -4688.0019   -5036.6684            0    5807.1206    18.050297    22.824234    19.198439    7909.4537     5409.543    5341.3378     6670.481   -837.12768    81.187333   -1049.5808   -4018.1431 
18069000    170.49148   -5049.0916   -4708.0876   -5049.0916            0    9074.0826    18.073695    22.550288    19.105825    7786.9044    7013.5718    10922.782    9285.8942   -95.626847    629.37955    515.16181   -3677.5983 
18070000    170.26651   -5022.6176   -4682.0636   -5022.6176            0    7519.6719    18.044209    22.768101    19.132792    7860.3702    7381.6474    7947.3648    7230.0035    51.375228    1321.7574    585.88051   -3820.0427 
18071000    171.28577   -5029.0369   -4686.4442   -5029.0369            0    6828.8736    17.941132    22.952147    19.100924    7865.5218    6635.4151    6628.8055    7222.4003   -1395.4095    -34.47821   -187.23634   -3903.1003 
18072000    177.95646   -5008.5502   -4652.6153   -5008.5502            0    7847.3498    17.766183    22.908701     19.32508    7865.3109    7656.9899    7547.2831    8337.7764    977.47787    1545.6728    1097.9797   -3752.4655 
18073000    170.55682   -5052.9366   -4711.8019   -5052.9366            0    7315.2544    17.899824    22.566394    19.370406    7824.3749    7131.8667    8806.0871    6007.8094   -447.73738   -36.181769    1111.8024   -3877.0547 
18074000    158.37397   -5027.5408   -4710.7733   -5027.5408            0    6989.9071    17.998092    22.424555    19.444974    7847.9758    5982.7655    8422.7076    6564.2482    728.11423   -559.71732     1843.696   -3910.7457 
18075000    169.57321   -5025.2344    -4686.067   -5025.2344            0    8289.8663    17.807539    22.923788    19.138156    7812.5064    8602.2656    7429.2091    8838.1243    680.38373   -257.92787    2185.3192   -3741.5413 
18076000    175.64835   -5026.5516   -4675.2333   -5026.5516            0    8125.7398    17.908461    22.821755    19.059894    7789.8265    8585.2152    8244.9697    7547.0345    637.76924   -435.05097   -33.563006   -3752.0953 
18077000    166.19569   -5042.2151   -4709.8032   -5042.2151            0    7540.4449    17.934468     22.59783    19.292807    7818.9894    6782.9906    7788.9165    8049.4276    175.18963   -592.77418   -113.74283   -3849.9517 
18078000    173.75739   -5005.0841   -4657.5479   -5005.0841            0    6896.8654    17.957391    22.856387    19.252277    7901.9253    7067.0233    6477.1342    7146.4386     968.5658    -473.4534     786.0607   -3862.7429 
18079000    180.08947   -5048.8162    -4688.615   -5048.8162            0    8877.4751    17.924635     22.84193    19.018261    7786.7084     9215.169    8139.5426    9277.7137   -1461.3657   -1625.5856   -2153.1628   -3680.4786 
18080000    179.61436   -5021.8831   -4662.6322   -5021.8831            0    8089.4055     17.91463    22.889436    19.082814     7825.018    8943.4937    7207.1229    8117.5998    477.98697   -630.14486    221.98356   -3739.4704 
18081000    168.15855   -5015.7487   -4679.4108   -5015.7487            0    7817.1714    17.772809    22.818772    19.294869    7825.1049    8262.4347    7443.7034    7745.3761    149.59989    30.015055    124.74179   -3787.3064 
18082000    176.13843   -5058.2063   -4705.9077   -5058.2063            0    6958.6794    17.878494    22.716565    19.339184    7854.3769    7294.5572    7002.2897    6579.1912    179.17405   -106.79966    -674.2474   -3908.8047 
18083000    180.36785   -5032.6388   -4671.8809   -5032.6388            0    6948.9811    17.943294    22.606454    19.326327    7839.4198    6630.6787    7428.8401    6787.4244    407.71016   -362.85567    634.51326   -3877.4046 
18084000    174.50787    -5013.284   -4664.2467    -5013.284            0    7035.0227    17.865822    22.938739    19.200392    7868.6935    8312.4316     5883.022    6909.6146    1211.0271   -461.47252    494.49053   -3856.9299 
18085000    171.35116   -5037.8752   -4695.1517   -5037.8752            0    7353.5906    17.799679    22.868608    19.194086    7813.0269    7168.1934    8070.8753    6821.7031   -291.91329   -381.58682     848.8064    -3857.247 
18086000    167.28148   -5031.5969   -4697.0133   -5031.5969            0    5921.2732    18.063121    22.746068    19.185445    7882.6274    4597.0553    6462.4845    6704.2796   -117.90764   -295.29584    1133.1773   -4016.3035 
18087000    170.96053   -5034.3809   -4692.4387   -5034.3809            0    7954.0501    17.932404    22.780867    19.157323    7826.0678    6283.6097    8081.3398    9497.2009    1079.8389   -608.49267   -694.41985   -3784.6018 
18088000    168.70371   -5026.0619   -4688.6336   -5026.0619            0     7165.117    17.842401    22.932746    19.172635    7844.9679    7399.7935    6532.3056    7563.2521   -737.08062    377.59594    320.38586   -3868.8668 
18089000    167.80653   -5042.6963   -4707.0625   -5042.6963            0     9019.273    17.710055    22.985109    19.072373    7763.7437    10563.763     8276.732    8217.3234    983.98455   -810.07179   -375.63649   -3685.8441 
18090000    171.94838   -5036.1103   -4692.1923   -5036.1103            0    7890.0733    17.857242    22.699911     19.25527    7805.2742    7746.6818    8376.3961    7547.1419    459.63037    160.87664   -1738.2849   -3794.0502 
18091000    168.24147   -5033.2403   -4696.7366   -5033.2403            0    8418.3896    18.049584    22.417804     19.33874    7825.0739    6907.9269     9962.204     8385.038   -151.97841   -636.73385   -735.67249   -3736.0243 
18092000    174.47382   -5044.0299   -4695.0607   -5044.0299            0    6682.8008    17.899396    22.915432    19.131717    7847.3026    5845.7386    5872.0035    8330.6602   -153.42821   -1294.4761    142.63214   -3930.2485 
18093000    176.87566   -5019.0692    -4665.296   -5019.0692            0    7528.4513    17.829285    22.974986    19.095919    7822.2148    7475.4632    7012.4585    8097.4323    457.84234   -575.70747    -746.4438    -3806.458 
18094000    174.23109   -5041.5382   -4693.0545   -5041.5382            0    5340.3923    17.944032    22.903456    19.234227    7904.8896    6345.2821    3973.9138    5701.9809    283.99998   -1254.7428    126.46287   -4077.3889 
18095000    163.66993   -5041.3895   -4714.0295   -5041.3895            0    6672.7667     17.87897    22.805728    19.196345    7827.1738    7066.2638    6561.5238    6390.5125    -1053.769   -1774.1943    -831.8559   -3952.3245 
18096000    172.92887   -5028.4285   -4682.5493   -5028.4285            0    7062.5126    17.928153     22.69297    19.298733    7851.5552    6373.5188    7733.8101    7080.2089   -685.51744   -524.21517     476.8853   -3873.8431 
18097000    177.34604   -5039.0297   -4684.3157   -5039.0297            0    6825.5708    17.805286    22.803309    19.294014    7833.7446    7243.8114    6953.5449    6279.3561   -392.49128   -1415.0986    1595.6272   -3904.5139 
18098000    174.74529   -5035.5915   -4686.0793   -5035.5915            0    7860.4025    17.822933    22.892166    19.193416    7831.0201    9436.5414    7213.8126    6930.8536   -597.69322   -328.92606    294.78765   -3788.3632 
18099000    172.15679   -5034.0663   -4689.7314   -5034.0663            0    7915.7389     17.79738    22.868722    19.217884    7821.7429    8505.8061    7084.9922    8156.4185   -1412.0737    510.71961   -1093.0092   -3786.7665 
18100000    175.88001   -5042.0105   -4690.2288   -5042.0105            0    7352.6431    17.835674    22.851213    19.234444    7839.3204    7976.5446    6641.2243    7440.1602    -366.8716   -417.39398    425.39043   -3849.6125 
18101000    169.07579   -5053.9785    -4715.806   -5053.9785            0    6923.3442    17.917567    22.797374    19.204979    7844.7243    6066.5294    6928.9545    7774.5486    483.88336    82.740969    408.14326   -3923.7252 
18102000    170.47256    -5031.757   -4690.7908    -5031.757            0    5361.5503    17.992419     22.83411    19.189794     7883.952    4882.1602    5490.2643    5712.2265   -1349.0312   -189.50276     185.6986   -4074.3232 
18103000    171.20908   -5017.3484   -4674.9091   -5017.3484            0    7150.8754    17.864098    22.763719    19.301562    7849.0439     6737.895    7762.5166    6952.2147    1399.6419    -882.0007    1677.5084   -3856.3466 
18104000    173.00295   -5024.3289   -4678.3017   -5024.3289            0    5669.4102    17.916917    22.855309    19.268822    7890.5186    5040.2675    6149.8808    5818.0822    763.38323   -468.76451   -1524.1216   -4025.8936 
18105000    179.16037   -5013.6455   -4655.3026   -5013.6455            0    5906.5687    17.906797    22.673743    19.380497    7868.7549    5226.2647    7354.4612    5138.9803   -417.94319   -43.813237   -1990.5754   -3977.4783 
18106000    163.54298   -5030.1178   -4703.0116   -5030.1178            0    7346.3688    17.832675    22.769001    19.280875    7828.6558    5957.7546    7748.7843    8332.5674   -642.43102   -245.45306   -1.9744979   -3864.2553 
18107000    174.95763   -5032.6615   -4682.7247   -5032.6615            0    7242.3025     17.70455    22.903578    19.332756    7839.3851    6967.3413    7481.6633    7277.9029    1206.7281     639.3221   -773.73099   -3854.7166 
18108000    168.59207   -5014.0108   -4676.8058   -5014.0108            0    5513.3748    17.628722    23.055854    19.427234    7896.1069    7879.6577    5024.4048    3636.0619    451.87525    207.61523   -338.68586   -4041.9042 
18109000    169.12196   -5029.2921   -4691.0273   -5029.2921            0    7925.2415    17.919381    22.693473    19.257577    7831.1511    7943.8942    8495.5474    7336.2828   -116.12619    633.36316    167.28774    -3785.891 
18110000    179.85224   -5032.6895   -4672.9628   -5032.6895            0    6312.9769    18.014909    22.631999    19.325545    7879.2838    7694.2499    6569.7139     4674.967   -1171.2637    36.784557    424.42995   -3947.5306 
18111000    180.44441   -5029.4243   -4668.5132   -5029.4243            0    7257.6673    17.810125    23.003393    19.213147    7871.4974    7151.6475    7778.5777    6842.7767    580.65831    1149.9223   -152.44955   -3835.3496 
18112000    170.84158   -5029.6615   -4687.9572   -5029.6615            0    7079.6274    17.867105    22.927489    19.176516    7855.6186    6935.2177     7190.563    7113.1015    1196.8486    15.911825    1244.9145   -3876.8716 
18113000    170.05874   -5038.0891   -4697.9506   -5038.0891            0    8214.0019    17.980069    22.527101    19.316047     7823.749    8592.8923    8105.3013    7943.8121    1139.1587   -720.86089    1504.9903   -3760.7219 
18114000    177.26549   -5029.7218    -4675.169   -5029.7218            0    7195.5716    17.975571     22.60447    19.275618    7832.2286    7646.1857     7416.122     6524.407   -813.07103   -393.19715   -994.67649   -3853.2546 
18115000    165.81868   -5020.9204   -4689.2625   -5020.9204            0    6480.3907    17.866687    23.164312    19.053761    7885.7708    6765.9246    5043.4368    7631.8108    216.02265   -17.348929   -165.40482   -3943.9795 
18116000    163.35016   -5032.9997   -4706.2792   -5032.9997            0    7289.8006    18.017075    22.781977    19.150402    7860.5617    6832.3119    7363.7558    7673.3339    1276.6171   -374.81545    1152.8774   -3870.5893 
18117000    164.59414   -5043.5582   -4714.3496   -5043.5582            0    6711.5039    18.021583    22.583746    19.313162    7860.3573    6377.0601    7279.8722    6477.5796    873.81448    35.330362   -651.92834   -3944.9747 
18118000    164.92897   -5034.5257   -4704.6474   -5034.5257            0    7624.2141      17.8754    22.794877    19.249948    7843.7291    8533.9592    7703.6245    6635.0587     514.2955    538.55285    737.82841   -3832.4926 
18119000     177.4037    -5050.441   -4695.6117    -5050.441            0     9198.027    17.747816    22.834804    19.247383    7800.3464    9178.7255    9421.1164    8994.2391   -620.04487    698.86561    -1301.181   -3649.2437 
18120000    169.39232   -5026.4439   -4687.6383   -5026.4439            0     7439.769    17.870718    22.799044    19.237402    7837.9968    7341.6406     7909.764    7067.9025     237.2348    148.27446   -645.13037   -3837.2047 
18121000    170.89097   -5049.7933   -4707.9903   -5049.7933            0    6271.8069     18.06691    22.608259    19.316942    7890.2249    6258.1224    6243.2403     6314.058   -292.66306     65.28982    544.67559   -3986.2882 
18122000    175.29335   -5016.5117   -4665.9033   -5016.5117            0    8303.7211    17.994428    22.629949    19.222146    7827.5079    7926.2224    8794.9837    8189.9573    465.91346    261.06102    -1241.079   -3717.9823 
18123000    166.41683   -5017.6483   -4684.7941   -5017.6483            0    7937.2677    17.838125    22.988679    19.063294    7817.3787    9275.8328    5768.0814     8767.889    225.92015   -1301.3891    915.70377   -3779.8785 
18124000    173.24272   -5023.9007   -4677.3939   -5023.9007            0     8467.094    17.985042    22.716675    19.135446    7817.9845    7868.1005    9205.8748    8327.3067   -174.61232    184.63635    182.26919   -3711.9988 
18125000    176.52097   -5022.1463   -4669.0826   -5022.1463            0    6459.2458    18.064923    22.740754    19.150015    7867.0168    5575.1429    6485.7769    7316.8176    1154.4999   -748.54207    336.56945    -3927.998 
18126000    171.74934   -5044.9938   -4701.4739   -5044.9938            0    6430.9922    17.943438    22.896617    19.099643    7846.9742    6020.0291    6590.9582    6681.9892    308.95553   -535.42639    134.69367   -3965.5107 
18127000    170.68457   -5039.5445   -4698.1543   -5039.5445            0    7430.6981    17.771551    22.911813    19.221463    7826.5659    6362.3305    7838.3595    8091.4042   -219.11389    528.62299    729.95018   -3849.9963 
18128000     168.4993   -5033.5506   -4696.5312   -5033.5506            0    9069.5751    17.747388     22.84367    19.173238    7773.1273    10017.094    8568.6324    8622.9993   -1051.1492     190.8814    -395.7598   -3668.3762 
18129000    179.34709   -5016.4479   -4657.7316   -5016.4479            0    7739.3385     18.01745    22.661903    19.237175    7854.7253      7375.45      7652.69    8189.8754    477.87233   -1055.8646   -952.06866   -3771.1663 
18130000     160.1276   -5033.1615   -4712.8866   -5033.1615            0    7443.3637    18.008545    22.700396    19.168229     7835.993     7878.069    7743.8172    6708.2047   -758.62213    367.03615   -271.15712   -3862.2596 
18131000    167.49673   -5048.1788   -4713.1646   -5048.1788            0    7073.9746    17.937865    22.945106    19.067097    7847.7543    6864.5465    5766.5098    8590.8675   -629.69756   -1509.1226    -1205.714    -3903.538 
18132000    171.15123   -5008.8395   -4666.5159   -5008.8395            0     7787.408    17.990726    22.753046    19.158095    7842.2475    6174.4006    7654.8339    9532.9896    298.72354   -459.30826    655.76374   -3775.8612 
18133000    176.92497   -5030.3418     -4676.47   -5030.3418            0    6739.8939    17.951234    22.732069     19.27867    7867.0216    6270.4585    7392.7371    6556.4861   -429.99356    622.29201   -1126.0223   -3903.1855 
18134000     166.9508     -5041.86   -4707.9378     -5041.86            0    5748.1305     17.96383    22.981375    19.088081    7880.1991    5369.6933    4825.9877    7048.7106   -614.34931    -708.3943    386.03117   -4047.3361 
18135000    169.69557   -5034.3792   -4694.9671   -5034.3792            0    8606.1782    17.856934    22.790558    19.197847    7812.9381     9250.502    9319.2416     7248.791    1224.4931    214.81334    557.20752   -3714.3474 
18136000    179.07094   -5034.8089   -4676.6449   -5034.8089            0    6987.2282    18.001105    22.591388    19.348189    7868.3272    6030.2167    7956.3308    6975.1373   -1442.1932    415.24556    153.77323   -3874.8501 
18137000    174.58983   -5040.9302   -4691.7289   -5040.9302            0    8383.6093    17.886618    22.687738    19.229962    7803.6516    9076.1587    7322.6677    8752.0015   -134.49197   -67.412686   -313.19071    -3737.605 
18138000    173.49147   -5033.7708   -4686.7664   -5033.7708            0    7555.2858    17.818974    22.953196    19.180293    7844.7859    6982.8004    7988.0871    7694.9699   -558.09509    154.69265    520.18915   -3822.3801 
18139000    173.00254   -5050.6785    -4704.652   -5050.6785            0    7877.3944    17.870877     22.62295    19.312724    7807.9793    9722.3232    7089.6552    6820.2048   -1156.3938   -799.31001   -360.84825   -3807.6424 
18140000    170.10829   -5017.0266    -4676.789   -5017.0266            0    6170.2293    17.924091    22.602983    19.491245    7896.6422    7950.1577    6343.5437    4216.9864     715.9866    514.44342    1181.9667   -3966.1981 
18141000    167.66533   -5022.2517   -4686.9003   -5022.2517            0    8743.2539    17.734637    22.938465    19.146456    7788.8811    9833.5676    8258.3907    8137.8033   -658.80416   -745.21724   -855.82876   -3693.7293 
18142000    166.84369   -5019.6718   -4685.9638   -5019.6718            0    8626.0497    17.848156     22.80561    19.219587    7823.1039    8513.7887    8437.1241    8927.2364   -629.15352    269.77055    497.15208    -3701.801 
18143000    167.21274   -5031.8069   -4697.3608   -5031.8069            0    8145.5027    17.800266    22.697413    19.357806    7820.9406    9444.6494    8171.7512    6820.1074    -217.3704    -480.2821   -62.842069   -3768.2815 
18144000    169.67721   -5029.1119   -4689.7366   -5029.1119            0     7466.911    17.858078    22.806319    19.295157    7858.4742    8007.6124    7254.1467     7138.974    406.73685      -116.63    219.91397   -3833.9704 
18145000    170.36029   -5037.7705   -4697.0289   -5037.7705            0    5685.3461    18.010174    22.871486    19.201289    7909.3841    5965.3557    5133.9404    5956.7422    976.00508    506.47254   -456.43571   -4041.2228 
18146000    174.87367   -5048.2186   -4698.4496   -5048.2186            0    7987.9383    17.869198    22.876434    19.157044    7831.0843    6824.3548    8094.3754    9045.0845    -20.08082    127.12046    593.50645   -3786.1605 
18147000    162.53766   -5032.5969   -4707.5015   -5032.5969            0    9665.9079    17.827102    22.679965    19.250554    7783.3463    11058.258    8747.3234    9192.1423    532.62277    55.632836   -1115.5005   -3610.3038 
18148000    171.02899   -5039.8511    -4697.772   -5039.8511            0    6524.8532    17.999665    22.559467    19.341605     7853.907    5678.9737    7045.4373    6850.1486   -1331.8504   -400.27292    283.68442   -3950.4076 
18149000     180.5155   -5029.2021   -4668.1488   -5029.2021            0     8368.478    17.919712    22.740287    19.190796    7820.2378    8613.3311    8363.1703    8128.9326    463.03399   -178.06065    -34.99744   -3713.7226 
18150000    169.95659   -5040.5143   -4700.5801   -5040.5143            0     7030.453    17.843973    23.023406    19.127728    7858.2256    6724.0317    6781.3269    7586.0003    902.53125    70.355117    1347.9985   -3894.8609 
18151000    180.31139   -5015.4842   -4654.8392   -5015.4842            0    7307.4243    17.848816    22.981461    19.161664    7859.9587    8304.8293    6374.1417     7243.302    212.54851    430.72498   -31.483262   -3817.1932 
18152000    172.23462   -5029.4945    -4685.004   -5029.4945            0    7552.5947    18.002934    22.589986     19.33207    7862.0824     7448.989     7746.981    7461.8141   -1577.6204   -590.96963   -1837.3673   -3819.0204 
18153000    165.74301   -5009.9543   -4678.4478   -5009.9543            0    7912.5594    17.866244    22.764903    19.311754    7854.5405     7746.859    7698.2073    8292.6119    302.84842    180.98727    572.89228   -3772.0608 
18154000    165.77077   -5023.8592   -4692.2972   -5023.8592            0    7903.1785    17.879034     22.71227     19.27798    7828.2758    7047.0889    7728.6545    8933.7921     669.3437   -637.93051    3249.7944   -3790.0121 
18155000    167.90548   -5031.6823   -4695.8506   -5031.6823            0    6359.2537    17.943609    22.951494    19.102084    7866.8616    6133.8762     6416.509    6527.3758   -867.42912    232.04894   -247.74533   -3966.2527 
18156000    172.02196    -5052.562   -4708.4968    -5052.562            0    6799.1377    17.938005    22.800095    19.195084    7850.5632    6038.5376    7066.5063     7292.369   -1388.4437   -1111.6774   -1421.4607   -3930.0471 
18157000    170.13065   -5031.8019   -4691.5196   -5031.8019            0    7690.4057    17.917477    22.841585    19.172819    7846.7362    8099.9728    6273.5717    8697.6725   -461.26659   -1216.8543   -233.31449   -3811.4557 
18158000    160.11512    -5030.322    -4710.072    -5030.322            0    7482.7953    17.868069    22.930909     19.13939    7842.0029    7206.1742    7521.5712    7720.6405    1210.6154    85.267186    1163.5487   -3854.2829 
18159000     160.3011   -5024.2831   -4703.6611   -5024.2831            0    7067.7356    17.922932      22.5974    19.427924    7868.5358    8099.2472    7324.1156     5779.844    732.91131   -485.98353    522.87713   -3892.6065 
18160000    174.88088   -5028.2249   -4678.4415   -5028.2249            0    7384.0471    17.920233     22.69385    19.274955    7838.7209    8562.6278    6760.7264     6828.787   -368.46656   -909.19245     984.9396   -3834.2994 
18161000    161.97082   -5030.4037    -4706.442   -5030.4037            0     6651.804    17.873102     22.89025    19.147689     7833.698    6722.4768    6076.2979    7156.6375   -32.030287    83.100227   -442.00954    -3946.497 
18162000    174.44731   -5040.2764   -4691.3603   -5040.2764            0    6713.1252    17.916738    22.947859    19.130631    7865.5739    6518.2808    5882.7611    7738.3338    953.94435     378.9903   -793.56498   -3921.2887 
18163000    169.13127   -5037.2295    -4698.946   -5037.2295            0    7091.4489    17.919574    22.752532    19.293184    7866.1334    7124.0602    7604.6794    6545.6071    107.93688   -443.36817   -1145.5282   -3885.4187 
18164000    174.61201   -5048.5269   -4699.2813   -5048.5269            0    8086.7723    17.977282    22.476993    19.362781    7824.0203    7836.6434    8225.9216    8197.7519    740.03922     50.39218    1503.8196   -3776.5376 
18165000    168.69699   -5035.5659   -4698.1511   -5035.5659            0    6600.9102    17.755857    23.003568    19.246415    7861.1606    7593.4727    5698.4648    6510.7931    359.42138   -12.679287     1300.118   -3941.3768 
18166000    170.84284   -5001.5926   -4659.8858   -5001.5926            0    8542.2593    17.833145    22.938275    19.108444    7816.5307    6552.2406    8903.4205    10171.117    436.01421   -99.014771   -147.39371   -3686.1017 
18167000    168.17499   -5033.5904   -4697.2196   -5033.5904            0    5924.3987    18.010599    22.754301    19.226983    7879.5752    6492.2789    4932.6613    6348.2559   -707.35374   -1220.5846   -1044.3687   -4016.4143 
18168000    177.46312   -5023.0856   -4668.1374   -5023.0856            0    6887.8731    17.846288    22.670069    19.361567    7833.2364    7684.1614    6530.4816    6448.9764    -561.6727   -426.66518   -631.69691   -3881.2687 
18169000    178.92292   -5019.9915   -4662.1235   -5019.9915            0    7606.3707    17.786482    22.879592    19.263853    7839.3758    9283.0221    7091.9056    6444.1844   -33.337107   -615.14598   -1420.7884   -3792.4928 
18170000    170.49858   -5022.4894   -4681.4712   -5022.4894            0    8423.3054     17.73378     22.93416    19.212838    7814.0406    9205.0214    7670.2663    8394.6286   -247.04009    -846.0454   -175.03253   -3721.5533 
18171000    178.22426   -5033.3855   -4676.9149   -5033.3855            0    6232.7616    17.905188    22.600951    19.442498     7867.879    5256.2945    7029.0569    6412.9334    196.74925    355.26122    947.67361    -3961.737 
18172000    171.79988   -5047.9167   -4704.2957   -5047.9167            0    7269.5653    17.916614    22.697535    19.260936    7832.7093    8055.4435    6921.5333    6831.7191    903.33511   -813.86089   -149.70985   -3873.8785 
18173000    164.10024    -5036.779   -4708.5583    -5036.779            0    6887.5772     17.99987    22.714481    19.217347    7857.1605    6429.3308    7412.5422    6820.8586   -420.89463   -614.42026   -769.04603   -3919.3203 
18174000    170.64643   -5034.2081   -4692.8941   -5034.2081            0    7471.2588    17.761054     22.94942    19.194712    7823.8777     9020.954    6676.3878    6716.4346   -450.27566   -504.04511   -625.89903   -3840.3993 
18175000    171.07116   -5036.6804   -4694.5169   -5036.6804            0    8103.8904    17.867951     22.77482    19.198905      7812.79    6457.2704    9086.2526    8768.1483    100.08714    1275.3217    1773.7704   -3771.1472 
18176000    173.71143   -5044.6461   -4697.2018   -5044.6461            0    6983.2796    17.757607    23.042475    19.198366    7855.5724    7927.0949    6137.6059    6885.1379    1788.1585   -687.37703    2367.6443   -3897.1591 
18177000     176.9462   -5029.7272   -4675.8129   -5029.7272            0    6513.5836    17.944112    22.827486    19.218453    7872.2432    6921.2874    5698.1486    6921.3148    727.08306     -389.177   -687.21352   -3927.9975 
18178000    162.66928   -5012.1132   -4686.7545   -5012.1132            0    6100.2197    18.008695    22.734995    19.248304    7880.7865    5278.3612    6581.2684    6441.0295    605.69139    47.463213   -81.152455   -3985.6368 
18179000    169.46779   -5016.1218   -4677.1653   -5016.1218            0    6529.5053     17.95919     22.74755    19.261585    7868.8886    4402.8463    8518.7484    6666.9213   -401.73702    424.45057   -543.27096   -3927.8414 
18180000    179.69151   -5039.4411   -4680.0359   -5039.4411            0    7830.1744    17.919119    22.779113    19.159852    7820.6999    7185.8154    7637.5327     8667.175   -324.02839   -1419.2145   -812.91599   -3786.9506 
18181000    172.54816   -5043.6902   -4698.5726   -5043.6902            0    7059.3215    17.923705    22.914365    19.056156    7826.5602     5973.008    6412.1994    8792.7571    240.34229    -657.9823    981.21534    -3892.805 
18182000    171.89984   -5032.0627   -4688.2418   -5032.0627            0    7137.2028    17.967667     22.69056    19.273952    7857.9211    8012.7186    7264.7552    6134.1347    1007.2577   -183.84321    75.773864   -3870.3203 
18183000    165.40824   -5036.4017   -4705.5648   -5036.4017            0    7178.1073    17.886247    22.682881    19.380626    7862.9451    7596.1749    7545.7505    6392.3966    -633.8766   -544.11858    1980.6927   -3882.4298 
18184000    169.62393   -5039.0755   -4699.8067   -5039.0755            0    9230.8798    17.801346     22.84134    19.166577    7793.2568    9764.4643     8563.993    9364.1821   -310.99205     146.2326    1043.0183   -3650.6557 
18185000    185.77911   -5047.8281   -4676.2469   -5047.8281            0    6691.1849    17.853352    22.890181    19.263062    7872.1672    7737.5139    6148.7197    6187.3213   -217.33232    55.581058   -400.03239   -3908.0488 
18186000    175.14892   -5026.8991   -4676.5796   -5026.8991            0    8308.2887    18.075647    22.615068    19.194616    7846.4132    7678.0692    8422.2654    8824.5316    1117.5119   -382.46402   -18.930391   -3725.8464 
18187000    173.29814   -5042.0752   -4695.4575   -5042.0752            0    7692.6372     17.95116    22.811021    19.151694    7842.3175    7745.8838    7434.6742    7897.3537   -896.70557    846.39763    -1754.252    -3815.634 
18188000    174.47852   -5026.7715   -4677.7929   -5026.7715            0     7240.494    17.870551    22.955228    19.133661    7849.0598      6702.22    6352.7178    8666.5441    19.410393    443.61732   -78.193161   -3848.9701 
18189000     163.0372   -5032.2123   -4706.1178   -5032.2123            0    6625.2127    17.999395    22.585613    19.316831    7852.8207     5863.155    7664.6279    6347.8553     588.1537    389.95967    265.82672    -3947.363 
18190000    183.00363   -5021.9941   -4655.9643   -5021.9941            0    7681.0455    17.808054    22.771955    19.326687    7837.4393    8430.2209    7879.1786    6733.7371   -948.74122    829.91197   -658.02024    -3778.013 
18191000    173.03132   -5024.7922   -4678.7082   -5024.7922            0    7480.8045    17.802473    22.906591    19.186028    7823.9465     8191.671    7675.1854    6575.5571   -158.67561      468.369    89.712337   -3825.1167 
18192000    174.74211   -5035.4722   -4685.9664   -5035.4722            0    6100.3256    18.014433    22.750182     19.21499    7874.9107    5226.6093    6733.6502    6340.7174    449.24755    230.38996    706.03543   -3985.3593 
18193000    170.11023   -5033.8481   -4693.6066   -5033.8481            0     7227.085    18.121563    22.700663    19.112154    7862.1954    6036.2487    6849.8204    8795.1861   -213.27015    93.426641    -680.6857   -3864.9342 
18194000    170.37861   -5023.0822   -4682.3039   -5023.0822            0     6312.032    18.007068    22.851226    19.084352    7852.8977    7642.2382    4947.3093    6346.5485    223.84658   -790.11818   -326.37944   -3959.4093 
18195000    171.37674   -5032.3932   -4689.6185   -5032.3932            0    8135.9231    17.936381    22.790736    19.150027    7828.2113    8147.0893    7771.4796    8489.2004   -541.62006    871.73345    105.66061   -3760.7692 
18196000    167.67764   -5031.8803   -4696.5043   -5031.8803            0    6600.1706     17.78357    23.009639    19.181456    7848.9276    6700.6108    6578.7928    6521.1082   -1347.9841   -338.15462    1749.2193   -3940.9923 
18197000    167.01827   -5023.8623   -4689.8051   -5023.8623            0     5897.555    17.849586    22.932879    19.246192    7878.2821    5370.5518    6550.6511    5771.4619    231.76271    -576.2139    496.69807   -4012.1957 
18198000    171.98665   -5028.5574   -4684.5629   -5028.5574            0    8478.6759    17.898517    22.723621    19.213858    7814.6431    8168.9708    9121.8303    8145.2266    124.64616    450.90763    561.14954   -3718.2605 
18199000    176.41391   -5030.6868   -4677.8372   -5030.6868            0    5994.3793    17.978802    22.623378    19.399546    7890.5956    6219.1772    7197.5478    4566.4128    1486.9515   -441.33063   -120.34286   -3988.0265 
18200000    164.98069   -5025.6448    -4695.663   -5025.6448            0    6935.2583    17.807058    22.855168    19.316704    7861.5757    7610.9861    6920.9542    6273.8347   -404.14225   -275.25064   -778.22392   -3900.5147 
18201000    168.70335   -5016.8921   -4679.4646   -5016.8921            0    8716.2998    17.738857    22.788451    19.265815    7788.0338    9193.1387    9407.0851    7548.6756   -601.17609    -209.5506    1282.9393    -3689.463 
18202000    168.81125    -5033.158   -4695.5146    -5033.158            0    6645.9305    17.873103    22.697224    19.391079    7866.3756    8172.0275    7159.4411     4606.323    316.50896    -674.1142    83.780631   -3933.0734 
18203000    165.85369   -5041.3381   -4709.6103   -5041.3381            0    7477.6309    17.879918    22.764898    19.299774    7855.6739    8680.7996    7087.4703    6664.6226   -14.390778    139.70752   -398.55878   -3852.9209 
18204000    165.23447    -5039.975   -4709.4857    -5039.975            0      7743.87    17.838452    22.898727    19.133187     7815.483    12184.699    5225.3935    5821.5177   -781.35968   -1512.9801   -195.53872   -3826.8332 
18205000    168.85114   -5052.7805   -4715.0574   -5052.7805            0    5858.8138    17.951359    22.872534    19.216138    7890.0128    6359.9519      5596.09    5620.3995   -283.03383   -339.99713    498.20248   -4040.8969 
18206000    177.58799   -5059.3869    -4704.189   -5059.3869            0    7680.5036    18.000253    22.706365    19.195369    7845.5374    7892.5517    7956.6492      7192.31   -598.57892    836.28279    635.68238   -3825.3926 
18207000    168.45697   -5023.1241   -4686.1893   -5023.1241            0    7352.0725    18.024965    22.652461    19.223276    7849.0522    5122.3592    7956.4562    8977.4019    6.0694794    523.03332    459.48032   -3844.5948 
18208000     171.7167   -5011.1304   -4667.6758   -5011.1304            0    8045.7112    17.931294    22.592833    19.326059    7829.3484    10496.652    8044.8539    5595.6277    74.989959   -159.06213   -279.43832   -3748.9922 
18209000    172.57835   -5031.2198   -4686.0418   -5031.2198            0    8034.5635    17.862178    22.703334    19.288708    7822.1685     8461.561    7549.5528    8092.5767   -441.86144     421.5528   -332.72022   -3769.4724 
18210000    170.60165     -5025.12   -4683.8956     -5025.12            0    7153.7999    18.059259    22.752664    19.168578    7876.2969    4327.4642    8767.3706    8366.5648     95.86831   -205.98239    -462.7027    -3862.155 
18211000    174.28611   -5026.5908   -4677.9971   -5026.5908            0    9033.5246    17.872066    23.069524    18.880516    7784.4379    9782.8683    8118.7227    9198.9828   -1875.4131    520.87825    -1835.877   -3652.4387 
18212000    172.22832   -5033.5275   -4689.0496   -5033.5275            0      7290.51    18.015415    22.661469    19.235323    7852.9315    7318.3276     7425.368    7127.8343    1546.7355    8.3394576    338.71599   -3854.0897 
18213000    173.81224   -5039.5678   -4691.9218   -5039.5678            0    7470.1977    17.932958    22.609091    19.326955    7836.0726    6887.3352    8644.3763    6878.8815    169.67058     283.4464    455.69384   -3838.2196 
18214000    169.45423   -5034.5271   -4695.5977   -5034.5271            0    6901.8731    17.802044    22.921147    19.234345    7848.4446    6197.2514    7507.7405    7000.6273   -66.517259    1189.6226    625.54919   -3905.5988 
18215000    161.12706   -5041.5314   -4719.2574   -5041.5314            0    7815.9845    17.861317    22.914985    19.093361    7814.7558    7640.7177      7969.38    7837.8558    163.22075    1245.8352    683.88608   -3828.4681 
18216000    177.99979   -5048.6901   -4692.6686   -5048.6901            0    7708.4631    18.046089    22.691979    19.097734    7820.5507    6148.9587    8202.7029    8773.7277   -365.68416    692.15292   -1735.0183    -3813.482 
18217000    166.20906   -5053.5689   -4721.1303   -5053.5689            0    4991.7824    18.146296    22.712358    19.211332    7917.8579    3837.5343    5791.6529    5346.1598    43.918686    522.54086    907.18037     -4144.71 
18218000    174.34568   -5023.4049    -4674.692   -5023.4049            0    7421.0726     17.89187    22.928727    19.182902    7869.5513    6866.4267    6849.4245    8547.3667    465.18194    1295.9216    965.51851   -3822.9804 
18219000    171.24475   -5036.4908   -4693.9801   -5036.4908            0    7429.8458    17.890485    22.898195    19.185884    7859.6855    7806.5813    7257.0719    7225.8841   -246.97752    179.74575   -2133.6647   -3842.3307 
18220000    168.45133   -5044.6962   -4707.7727   -5044.6962            0    7446.0615    18.081215    22.426213    19.296586    7824.6343    6675.5395    7609.1579     8053.487   -1857.2646   -56.356134   -451.73969   -3858.0709 
18221000     168.6818   -5036.4775   -4699.0931   -5036.4775            0    7217.4587    18.014773     22.61626    19.303804    7864.8869    5407.3313    8041.4957     8203.549   -1480.1558    126.53096   -1232.7338   -3871.2412 
18222000    165.49271   -5042.8832   -4711.8773   -5042.8832            0    7540.6118    17.782691    22.902334    19.197509    7818.4762    7797.5287    7905.3143    6918.9925     507.5676    765.84991    156.17097   -3852.0632 
18223000    165.31875   -5045.4346   -4714.7766   -5045.4346            0    6923.2818    17.820446    22.933631     19.21448    7852.7181    6957.7949    6336.1784     7475.872   -771.52786    54.885344    675.91164   -3921.8958 
18224000    174.15557   -5036.2124   -4687.8798   -5036.2124            0    7756.0429    17.995605    22.452134    19.361266    7822.7208    8915.6403     8024.277    6328.2112    352.87522    464.26275    320.10752   -3803.0211 
18225000    167.18839   -5043.4928   -4709.0954   -5043.4928            0     4933.753    17.968022    22.727174    19.387803    7917.2491    6502.5789     4271.177     4027.503   -574.39022   -500.78566    140.14834   -4139.4198 
18226000    171.31391    -5034.847    -4692.198    -5034.847            0    8827.3747    17.665712    23.033226    19.171761    7800.9576    8224.5674    8690.8131    9566.7436   -188.61059    906.12779    -575.6623   -3687.9167 
18227000    187.14546    -5023.949    -4649.635    -5023.949            0    6388.1179    17.866261    23.036315    19.150955    7882.0127     5267.825    5755.4738    8141.0548   -235.27377   -453.43897   -543.48444    -3915.314 
18228000    169.03629   -5014.3177   -4676.2242   -5014.3177            0    6644.9421    18.078433    22.617488    19.275952    7881.7198    6395.1711    6754.1458    6785.5094   -1747.4943    164.41653   -1022.4117   -3912.4094 
18229000    170.60622   -5016.8795    -4675.646   -5016.8795            0    8335.8782    18.207064    22.411588    19.230814    7847.1188    6307.7709    10178.426    8521.4375    1041.3338    763.50148    830.85277   -3721.6699 
18230000     186.7002   -5039.9927   -4666.5692   -5039.9927            0    6585.5262    17.874105    22.850674    19.324692    7892.8876    6419.7347     7161.761    6175.0828    720.03604    756.82793    437.89799   -3908.5115 
18231000    168.68373   -4999.7489   -4662.3606   -4999.7489            0    10204.975    17.636929     23.03278    19.153802    7780.8011    9793.1799    9726.0298    11095.716    1561.6223    510.47232     1943.446    -3504.351 
18232000     171.2141   -5033.7953    -4691.346   -5033.7953            0    6971.3197    17.886592    22.861644    19.252117     7872.516    6561.2814    6860.1927     7492.485   -694.58293   -88.944324   -1654.0925   -3890.9508 
18233000    172.85524   -5044.0403   -4698.3084   -5044.0403            0    6472.1473    18.125438    22.488255    19.265649    7852.8609    5772.7419    7179.1141     6464.586   -340.74615    7.9505684   -797.40987   -3957.0798 
18234000    180.70044   -5028.1893   -4666.7661   -5028.1893            0    10048.135    17.845862    22.578905    19.279659    7768.5464    11330.055    9626.9237    9187.4273    438.33255   -149.41195    1075.0425   -3528.3497 
18235000    162.53636   -5034.1026   -4709.0098   -5034.1026            0    7123.7051    17.858658    22.897184     19.18538     7845.151    6010.8828    6429.4936     8930.739   -1240.3967    10.837291   -8.2875775   -3893.9619 
18236000    175.10824   -5049.4844   -4699.2463   -5049.4844            0    7462.5897    17.833936    22.787277    19.266061     7829.474     8136.999     7568.927     6681.843   -448.84545   -594.75991    469.80606   -3847.1317 
18237000    169.68217   -5038.5856   -4699.2003   -5038.5856            0    7059.6038    17.918687    22.719721    19.286274    7851.5882    7608.5182    7222.6445    6347.6487    1242.7819    15.094173   -282.51739   -3890.8237 
18238000    165.53871   -5009.7436   -4678.6458   -5009.7436            0    8488.8059    17.864067    22.745604    19.247719    7820.9067    8543.9656    8055.3312    8867.1208    609.08687    136.46912    726.44836   -3710.4134 
18239000    162.95428   -5016.8802   -4690.9515   -5016.8802            0    6566.6632    17.976441    22.888181    19.161037    7883.7714    6129.7404    7374.3535    6195.8957     383.3725    1147.9149   -228.03586   -3935.9381 
18240000    168.92765   -5019.5733   -4681.6971   -5019.5733            0    6935.1878    18.031756    22.653678      19.2547    7865.2677    8100.0292     7171.536    5533.9983    441.38523   -372.27043    492.51691   -3886.1834 
18241000    168.77626   -5034.5201   -4696.9467   -5034.5201            0    7155.4785    18.132548    22.594121     19.10325    7826.3908    4374.0399    9243.6632    7848.7324    569.26537    449.84493    1436.3526   -3880.2212 
18242000    169.56133   -5042.6792   -4703.5356   -5042.6792            0    5230.0716    17.997417    22.822447    19.200096     7886.345    5684.2463    5123.5441    4882.4244   -783.96137   -298.95816   -731.61212   -4102.0028 
18243000    178.79434   -5025.6511   -4668.0403   -5025.6511            0    7171.5158    17.823631    23.023095    19.111915    7842.6722    7073.9741     7234.829    7205.7441   -1286.7975    1479.0191    448.19329   -3847.7815 
18244000    172.07461   -5019.8733   -4675.7028   -5019.8733            0    7290.7875    17.881115    23.033002    19.080928      7858.59    8559.4459     6479.824    6833.0925   -1154.0118    143.74468   -25.796856   -3840.1095 
18245000    169.60223   -5000.6467   -4661.4213   -5000.6467            0    7723.6283     17.97728    22.642225    19.278204    7847.1086    6772.0176    8420.7795    7978.0877    517.65843    182.56881    547.90737   -3777.5136 
18246000    167.20653   -5032.5532   -4698.1195   -5032.5532            0      5603.58    18.194484    22.640107     19.20542     7911.194    5362.9725    5818.6916    5629.0759    1303.1776    133.38278   -1057.0642   -4051.5972 
18247000    172.22168   -5032.0799   -4687.6153   -5032.0799            0    8373.2039    17.928456      22.6475    19.216945    7802.7466    8625.8568    8970.9201    7522.8347    1626.8103    556.32408    101.49263   -3734.7861 
18248000    178.97139   -5027.1069    -4669.142   -5027.1069            0    8672.1623    17.679554    22.931373    19.247517    7803.2598    9265.8572    8601.3391    8149.2906   -381.20836    1911.8438    191.49054   -3682.2279 
18249000    169.47052   -5042.7552   -4703.7932   -5042.7552            0    6423.5956     17.85018    22.926026    19.318717    7905.8696    8442.3296    5789.4789    5038.9783    552.57998    304.12048    424.46297   -3963.1591 
18250000    177.18678   -5016.5459   -4662.1504   -5016.5459            0    9429.7066    17.937331    22.613821    19.257768    7811.5593    9372.4776    9637.8301    9278.8123    130.84115    468.48899   -1003.7808   -3587.8845 
Loop time of 427.733 on 64 procs for 250000 steps with 1008 atoms

Performance: 100.998 ns/day, 0.238 hours/ns, 584.476 timesteps/s
194.6% CPU use with 32 MPI tasks x 2 OpenMP threads

MPI task timing breakdown:
Section |  min time  |  avg time  |  max time  |%varavg| %total
---------------------------------------------------------------
Pair    | 36.182     | 40.01      | 44.116     |  28.8 |  9.35
Bond    | 1.0073     | 1.2112     | 1.5225     |   9.1 |  0.28
Kspace  | 208.22     | 213.84     | 219.42     |  19.8 | 49.99
Neigh   | 1.825      | 1.9274     | 2.0723     |   5.4 |  0.45
Comm    | 66.315     | 70.138     | 73.113     |  23.5 | 16.40
Output  | 0.51852    | 0.51872    | 0.52025    |   0.0 |  0.12
Modify  | 83.924     | 86.987     | 88.528     |   8.6 | 20.34
Other   |            | 13.1       |            |       |  3.06

Nlocal:        31.5000 ave          36 max          26 min
Histogram: 3 1 2 1 3 4 6 4 4 4
Nghost:        2946.78 ave        2969 max        2931 min
Histogram: 3 5 3 4 6 4 3 1 1 2
Neighs:        10710.1 ave       12283 max        8846 min
Histogram: 4 2 1 3 3 4 6 4 1 4

Total # of neighbors = 342722
Ave neighs/atom = 340.00198
Ave special neighs/atom = 2.0000000
Neighbor list builds = 4723
Dangerous builds = 0

unfix		3
unfix		2
unfix		1

write_data	data.final.${pid}
write_data	data.final.0
System init for write_data ...
PPPM initialization ...
  extracting TIP4P info from pair style
  using 12-bit tables for long-range coulomb (../kspace.cpp:340)
  G vector (1/distance) = 0.37982513
  grid = 24 27 32
  stencil order = 5
  estimated absolute RMS force accuracy = 0.002393419
  estimated relative force accuracy = 7.2077102e-06
  using double precision FFTW3
  3d grid and FFT values/proc = 5355 672
Last active /omp style is kspace_style pppm/tip4p/omp
WARNING: Not all mixed pair coeffs generated from mixing. Use write_data with 'pair ij' option to store all pair coeffs. (../write_data.cpp:312)

write_restart   restart.lmp.${pid}
write_restart   restart.lmp.0
System init for write_restart ...
PPPM initialization ...
  extracting TIP4P info from pair style
  using 12-bit tables for long-range coulomb (../kspace.cpp:340)
  G vector (1/distance) = 0.37982513
  grid = 24 27 32
  stencil order = 5
  estimated absolute RMS force accuracy = 0.002393419
  estimated relative force accuracy = 7.2077102e-06
  using double precision FFTW3
  3d grid and FFT values/proc = 5355 672
Last active /omp style is kspace_style pppm/tip4p/omp
Total wall time: 0:07:07
