LAMMPS (30 Jul 2021)
Processor partition = 0
  using 2 OpenMP thread(s) per MPI task
using multi-threaded neighbor list subroutines
variable        pid world 0 1
variable        phase world IceIh IceIII

shell cd ${phase}
shell cd IceIh
include Restart.lmp
echo both
log log.lammps
#include		in.partitions
include		in.temp
variable        temperature equal 100.22
variable	tempDamp equal 100.0
include		in.pressure
variable        pressure equal 2036.7
variable        pressureDamp equal 1000.0 # This is 1 ps
include		in.seed
variable        seed equal 745823

units		real
atom_style	full
#include		in.box
read_restart	restart.lmp.${pid}
read_restart	restart.lmp.0
Reading restart file ...
  restart file = 30 Jul 2021, LAMMPS = 30 Jul 2021
  restoring atom style full from restart
  orthogonal box = (0.15649631 0.091970340 0.15569079) to (18.051076 23.537207 22.057505)
  2 by 4 by 4 MPI processor grid
  restoring pair style lj/cut/tip4p/long/omp from restart
  restoring bond style harmonic/omp from restart
  restoring angle style harmonic/omp from restart
  864 atoms
  576 bonds
  288 angles
Finding 1-2 1-3 1-4 neighbors ...
  special bond factors lj:    0        0        0       
  special bond factors coul:  0        0        0       
     2 = max # of 1-2 neighbors
     1 = max # of 1-3 neighbors
     1 = max # of 1-4 neighbors
     2 = max # of special neighbors
  special bonds CPU = 0.002 seconds
  read_restart CPU = 0.009 seconds
include 	in.setup
variable	out_freq equal 1000
variable	out_freq2 equal 10000
variable	out_freq3 equal 1000

timestep	2.0

neigh_modify    delay 7 every 1

include		in.tip4p
# This is TIP4P/Ice

# create groups ###
group ox type 2
288 atoms in group ox
group hy type 1
576 atoms in group hy

# set charges - beside manually ###
set group ox charge -1.1794
Setting atom values ...
  288 settings made for charge
set group hy charge 0.5897
Setting atom values ...
  576 settings made for charge

# ### TIP3P Potential Parameters ###
pair_style lj/cut/tip4p/long/omp 2 1 1 1 0.1577 8.5
pair_coeff 1 1*2 0.000 0.000
pair_coeff 2 2 0.21084 3.1668
bond_style  harmonic
bond_coeff  1 450 0.9572
angle_style harmonic
angle_coeff 1 55 104.52
kspace_style pppm/tip4p/omp 1.0e-5
pair_modify tail yes

thermo          ${out_freq}
thermo          1000
thermo_style    custom step temp pe etotal epair emol press lx ly lz vol pxx pyy pzz pxy pxz pyz enthalpy

restart 	${out_freq3} restart.lmp.${pid} restart2.lmp.${pid}
restart 	1000 restart.lmp.${pid} restart2.lmp.${pid}
restart 	1000 restart.lmp.0 restart2.lmp.${pid}
restart 	1000 restart.lmp.0 restart2.lmp.0


include         in.dump
dump            myDump all atom ${out_freq2} dump.water.${pid}
dump            myDump all atom 10000 dump.water.${pid}
dump            myDump all atom 10000 dump.water.0
dump            myDump2 all dcd ${out_freq2} dump.dcd
dump            myDump2 all dcd 10000 dump.dcd
dump_modify     myDump append yes
dump_modify     myDump2 append yes


variable natoms 	equal  "count(all)"                        # NUMBER ATOMS
variable H      	equal  "enthalpy/v_natoms"                 # ENTHALPY-per-atom
variable Vol      	equal  "vol/v_natoms"                 # volume-per-atom
fix AVG all 		ave/time ${out_freq} 1 ${out_freq} v_Vol v_H file vol_enthalpy.dat
fix AVG all 		ave/time 1000 1 ${out_freq} v_Vol v_H file vol_enthalpy.dat
fix AVG all 		ave/time 1000 1 1000 v_Vol v_H file vol_enthalpy.dat


timer           timeout 23:50:00 every 1000
New timer settings: style=normal  mode=nosync  timeout=23:50:00

fix 		1 all shake 1e-6 200 0 b 1 a 1
Finding SHAKE clusters ...
       0 = # of size 2 clusters
       0 = # of size 3 clusters
       0 = # of size 4 clusters
     288 = # of frozen angles
  find clusters CPU = 0.001 seconds
fix             2 all nph aniso ${pressure} ${pressure} ${pressureDamp}
fix             2 all nph aniso 2036.7 ${pressure} ${pressureDamp}
fix             2 all nph aniso 2036.7 2036.7 ${pressureDamp}
fix             2 all nph aniso 2036.7 2036.7 1000
fix             3 all temp/csvr ${temperature} ${temperature} ${tempDamp} ${seed}
fix             3 all temp/csvr 100.22 ${temperature} ${tempDamp} ${seed}
fix             3 all temp/csvr 100.22 100.22 ${tempDamp} ${seed}
fix             3 all temp/csvr 100.22 100.22 100 ${seed}
fix             3 all temp/csvr 100.22 100.22 100 745823


run             250000
PPPM initialization ...
  extracting TIP4P info from pair style
  using 12-bit tables for long-range coulomb (../kspace.cpp:340)
  G vector (1/distance) = 0.37193611
  grid = 24 27 25
  stencil order = 5
  estimated absolute RMS force accuracy = 0.0031337008
  estimated relative force accuracy = 9.4370469e-06
  using double precision FFTW3
  3d grid and FFT values/proc = 4410 672
Last active /omp style is kspace_style pppm/tip4p/omp
Neighbor list info ...
  update every 1 steps, delay 7 steps, check yes
  max neighbors/atom: 2000, page size: 100000
  master list distance cutoff = 10.8154
  ghost atom cutoff = 10.8154
  binsize = 5.4077, bins = 4 5 5
  1 neighbor lists, perpetual/occasional/extra = 1 0 0
  (1) pair lj/cut/tip4p/long/omp, perpetual
      attributes: half, newton on, omp
      pair build: half/bin/newton/omp
      stencil: half/bin/3d
      bin: standard
Setting up Verlet run ...
  Unit style    : real
  Current step  : 30500000
  Time step     : 2
  Walltime left : 23:49:59.93
Per MPI rank memory allocation (min/avg/max) = 10.19 | 10.21 | 10.23 Mbytes
Step Temp PotEng TotEng E_pair E_mol Press Lx Ly Lz Volume Pxx Pyy Pzz Pxy Pxz Pyz Enthalpy 
30500000    105.80615   -4546.8159   -4365.4678   -4546.8159            0    1566.0202     17.89458    23.445237    21.901814    9188.7455    313.42631    2004.2533     2380.381     -41.5124   -231.44375   -164.30607   -4155.6079 
30501000    98.780162   -4558.1406   -4388.8347   -4558.1406            0    1402.0765    17.998799    23.286223     21.95451    9201.6633    337.73789     2227.025    1641.4665    298.24892   -336.01219   -405.12919   -4200.6805 
30502000    101.30859   -4565.9401   -4392.3007   -4565.9401            0    1942.6812     18.01181    23.329855    21.863734     9187.424    1993.2409    1939.0285    1895.7741    91.907875    212.57542    132.81623   -4132.0025 
30503000    99.261745   -4561.7385   -4391.6073   -4561.7385            0    2197.0795     17.95787    23.393078    21.795271     9155.972    2434.9457    1942.5807    2213.7121    611.76042    161.01018   -286.72038   -4098.2302 
30504000    97.564112   -4572.8068   -4405.5852   -4572.8068            0    1123.2728    17.776303    23.597749    21.936159     9201.796     1881.007    446.03909    1042.7722    435.45027   -196.83706    388.97387   -4254.8434 
30505000    99.592048   -4555.9027   -4385.2053   -4555.9027            0    1082.7222    17.987585     23.40387    21.879634    9210.8684    1164.4958    1317.1456     766.5253   -363.56134    278.08741    403.30953   -4239.7621 
30506000    100.79997   -4553.7835   -4381.0158   -4553.7835            0    1514.1375    17.965935     23.43731    21.842711    9197.3795    1965.6353    949.32301    1627.4543    -442.0902    357.63293    435.97827   -4177.9179 
30507000    103.43322   -4563.5309   -4386.2499   -4563.5309            0    2706.9924    17.936905    23.399064    21.854723    9172.5754     2575.817    1887.1564    3658.0038    21.091008   -47.422056   -259.43508   -4024.1285 
30508000    103.77447   -4556.8782   -4379.0123   -4556.8782            0    1982.2718    17.993109    23.351025    21.837675    9175.2637    1892.1842    1299.0733    2755.5578    385.18992   -515.54575    15.642691   -4113.7609 
30509000    103.10903   -4554.9931   -4378.2677   -4554.9931            0    1718.2207    18.057425    23.340871    21.804936     9190.258    1134.1311    1566.8181     2453.713   -396.98491     544.5412    335.13485   -4147.9738 
30510000    94.756043   -4550.4462   -4388.0376   -4550.4462            0    2536.2632     17.96566    23.313189    21.899392    9172.2717    1611.6987     3244.127    2752.9637   -483.85338    -215.7148   -46.566098   -4048.7663 
30511000    99.179507   -4560.5982   -4390.6079   -4560.5982            0      2337.21    17.987293    23.418008    21.774689    9172.0777    2320.3706    2037.8586    2653.4008   -229.18657   -379.04563   -150.57896   -4077.9702 
30512000    103.86613   -4548.9477   -4370.9247   -4548.9477            0    1837.9702    17.932849    23.280203    22.005736    9186.9626    1643.1652    2215.8122    1654.9332    -256.6394   -122.37363    224.18098    -4124.669 
30513000    104.41052   -4558.5295   -4379.5735   -4558.5295            0     1854.927    17.984746    23.350798    21.855734     9178.494     1710.561    2076.9423    1777.2777   -936.19054    16.565027    409.01046    -4131.275 
30514000    99.400863   -4568.1802   -4397.8105   -4568.1802            0    2309.1789    17.907029     23.40537    21.869686    9166.0367     2580.237    1344.5856    3002.7141    50.210318    -41.93607   -359.46449   -4089.1259 
30515000    101.19726   -4565.2037   -4391.7551   -4565.2037            0    1780.1575    17.854022    23.485049    21.928626    9194.7296    2070.7399    2002.7779    1266.9547   -358.76402    112.76114    103.87115   -4153.0436 
30516000    98.493471   -4555.9385   -4387.1241   -4555.9385            0     2147.556    17.938089     23.26137    21.984719    9173.4434    2118.3409    1930.4496    2393.8776   -987.74742    63.484031    446.59364   -4099.8127 
30517000    101.26124   -4560.9016   -4387.3433   -4560.9016            0     2122.194    17.868366    23.373097     21.93669    9161.6188    1391.3621    1920.2614    3054.9587     20.60356   -492.62333   -207.68947    -4103.791 
30518000    93.170863   -4559.3149   -4399.6232   -4559.3149            0     2719.658    17.887426    23.224368    22.003151    9140.6403     3051.743    2065.0368     3042.194   -382.73555     249.7531     311.1211   -4037.0741 
30519000    101.58336   -4563.8039   -4389.6935   -4563.8039            0    1162.7462    17.885396    23.298633    22.055606     9190.687    1201.0798    1091.6471    1195.5118   -212.47047   -94.664042   -345.29619   -4233.8428 
30520000    96.416214   -4561.9415   -4396.6875   -4561.9415            0    1756.7605    17.943288    23.248666    22.022803    9186.9779    1610.3165    845.53329    2814.4317    1026.2743    401.53368    553.32424    -4161.312 
30521000    99.340886   -4566.7079    -4396.441   -4566.7079            0    3228.5128    17.848372    23.295037    21.907357    9108.6079    3061.5885    3353.9859     3269.964    507.11395   -81.616984    28.249994   -3967.5663 
30522000    97.283411   -4545.6322   -4378.8918   -4545.6322            0    1300.6941    17.932339    23.409302    21.969627    9222.4878    662.70356    1593.7087    1645.6702   -170.33497   -73.772711    38.107879   -4203.9477 
30523000    99.021498   -4566.3171   -4396.5977   -4566.3171            0    2451.2863    17.824929    23.451278    21.887346    9149.2905    2032.4473    1883.9415    3437.4701    908.29438   -584.84536    291.65192   -4069.5151 
30524000     110.0098   -4556.3031   -4367.7501   -4556.3031            0    1878.0278    17.855014    23.346513     22.03321     9184.595    1810.9259    1807.6625     2015.495    -427.4508    578.48508   -362.41873   -4116.1922 
30525000    101.54902   -4560.4332   -4386.3816   -4560.4332            0    2755.7293    17.974105    23.262512    21.855091    9138.1129    2156.0752    3026.0456    3085.0672    75.523144   -319.18127    132.68169   -4019.1256 
30526000    102.09082   -4552.6184   -4377.6383   -4552.6184            0    1881.5218    18.134593    23.260283     21.76621    9181.3306    2036.3437    2073.2864    1534.9352     362.4073   -552.54853   -25.722085    -4125.702 
30527000    102.97436   -4555.5083   -4379.0138   -4555.5083            0    2358.3079    17.966832    23.210835    21.978971    9165.7842     2934.816    2294.5707    1845.5369   -37.036136    494.55513    431.59713   -4063.7703 
30528000    96.458783   -4557.6326   -4392.3056   -4557.6326            0    2124.3834    17.957927    23.392788    21.825425    9168.5555    754.50927    2366.0077     3252.633    316.60976   -501.25542    520.29741   -4108.2458 
30529000    96.466667   -4568.3725   -4403.0319   -4568.3725            0    1809.9764    17.929286    23.436944    21.862907    9186.9614     2042.299    2513.2213    874.40884   -140.33392   -356.82884   -159.01577   -4160.5269 
30530000    103.26559   -4556.3303   -4379.3366   -4556.3303            0    1649.9625     17.90935    23.351783    21.972041    9189.0427    1821.0842    2650.2686    478.53465    292.36846    -108.9529    149.07038   -4158.2205 
30531000    106.86891   -4559.3321   -4376.1625   -4559.3321            0    2797.9629    18.023256    23.202672    21.847545    9136.3742    2369.2278    3098.0506    2926.6102    360.48218   -930.36175   -75.581307   -4003.3489 
30532000    104.59698    -4558.695   -4379.4193    -4558.695            0    1574.9139    17.996145    23.268217    21.982472    9204.9009     629.2982     2698.138    1397.3055   -308.72689    -379.4019    -75.87484   -4167.9965 
30533000    100.71369   -4559.6057   -4386.9859   -4559.6057            0     1488.201    17.888332    23.417266    21.940219    9190.6663    1581.1789     1312.641    1570.7831   -137.90635    723.99106    105.72553   -4187.5127 
30534000    99.300015   -4567.3612   -4397.1644   -4567.3612            0    2591.6618    17.875139    23.327423    21.952709    9153.8612    1577.8943     2871.284    3325.8071   -559.57802   -546.71857   -18.345882   -4051.1783 
30535000    95.163474   -4566.8266   -4403.7196   -4566.8266            0     1525.654    17.950969    23.259991    22.028549    9197.7867    2391.3182    1959.8216    225.82213   -318.71694    124.11082    386.41677    -4199.068 
30536000    95.338195   -4557.9808   -4394.5744   -4557.9808            0     2866.753    17.968383    23.314297    21.794057    9129.9712    2665.0284    3639.4399    2295.7907   -173.85293    274.00156   -990.40491   -4012.8626 
30537000    102.50354    -4560.083   -4384.3955    -4560.083            0    2209.7625    17.901993    23.334991    21.929944     9161.077     1824.066    3459.6721    1345.5495    155.36137   -30.700746    388.86609   -4089.1604 
30538000    97.443838   -4554.2546   -4387.2392   -4554.2546            0    1726.3964    17.934814    23.154517    22.117218    9184.6605    1364.2393    2688.4628     1126.487    84.364584    11.407352    470.53759   -4155.9904 
30539000    97.197259   -4551.9283   -4385.3355   -4551.9283            0    1937.7677    17.769902      23.4055    22.022122    9159.2962    2054.4056    1215.2188    2543.6787   -71.513135    143.28431   -412.78987   -4126.4905 
30540000    100.39096   -4562.9603   -4390.8936   -4562.9603            0    1430.1334    17.859601    23.386065     21.99893    9188.2007    2659.5323    550.62122    1080.2468    426.32473   -180.93208    219.22523   -4199.2551 
30541000     96.75937   -4555.4639   -4389.6217   -4555.4639            0    1484.6402    17.907182    23.380657    21.965078    9196.3756     1427.115    1102.7881    1924.0175    -758.5853   -223.50999    21.457467   -4190.5022 
30542000    103.23858   -4568.8214    -4391.874   -4568.8214            0    1835.4652    17.866739    23.186054    22.151892    9176.6246    1850.5552    2561.4163    1094.4241    249.49821    25.641769    122.64926   -4146.2307 
30543000    99.447278   -4553.8725   -4383.4233   -4553.8725            0    1586.8978      17.9985     23.29717    21.940466    9199.9474    792.54246    2440.0421    1528.1089   -45.723735      269.073   -323.23216   -4170.5064 
30544000    101.24494   -4557.4569   -4383.9265   -4557.4569            0    2218.1255    17.978223    23.109841    22.049446    9160.9688    1075.2833    2903.7691    2675.3241   -147.44962    25.067937   -159.66798   -4087.5775 
30545000    94.400313   -4567.4426   -4405.6437   -4567.4426            0    1865.0955    17.904117    23.319432    21.965554     9170.923    2276.4389    2695.4094    623.43805     188.9389    -158.3724   -1.0516649     -4156.19 
30546000    103.17526   -4556.5825   -4379.7437   -4556.5825            0    2890.1239     17.74747      23.4794     21.91444    9131.7459    3077.8294     2647.971    2944.5714   -867.75373    91.080047    290.60355   -3994.8452 
30547000    98.830886   -4564.3341   -4394.9413   -4564.3341            0    2338.5488    17.859051    23.312529    22.026575     9170.536    2790.7574    1832.4197    2392.4692    817.87973   -181.75762    346.13824   -4082.1771 
30548000     101.0483   -4559.6346   -4386.4413   -4559.6346            0    2291.7698    17.918679    23.256357    21.973536    9156.8821    2760.2009     2355.793    1759.3155   -165.11372   -92.020508     6.253131   -4080.3898 
30549000    102.75022   -4560.3587   -4384.2483   -4560.3587            0    1312.2727    18.049128    23.322654      21.8625    9203.0976    1700.3623    858.50773    1377.9482    40.040268    -70.71393     190.4985    -4208.118 
30550000    98.171675   -4562.8947   -4394.6318   -4562.8947            0     976.6916    17.951564    23.469056    21.858557    9209.1466     1200.934    718.07307    1011.0677    557.42704    390.95257    286.75483   -4263.4563 
30551000    102.85206   -4556.8245   -4380.5395   -4556.8245            0    2364.3035    17.972612    23.454896    21.762833    9174.0296     2544.821    2375.4237    2172.6659   -334.19695   -67.649059    358.87497   -4064.2104 
30552000     102.1994   -4565.6769   -4390.5106   -4565.6769            0    1214.2756    17.972503    23.456003    21.868831    9219.0916    1297.2232    889.84356      1455.76   -159.92148   -90.893655    93.320557     -4227.25 
30553000    98.201856   -4561.6782   -4393.3635   -4561.6782            0    2929.8149    17.985696    23.299569    21.801634    9136.1701    2095.9037    3362.3005    3331.2405    -560.2138   -329.90178    286.96746   -4002.9901 
30554000    105.33084   -4558.6147   -4378.0813   -4558.6147            0    2929.1333    17.946868    23.147815    21.989517     9135.122    3110.1025    3810.3868    1866.9104     178.0165    169.07573    465.00569   -3987.8434 
30555000    99.974205   -4562.5661   -4391.2137   -4562.5661            0    3113.7696    18.012117    23.250791    21.827426     9141.238    3588.3926    3101.7142    2651.2019   -656.76231    169.66589    1.5770605   -3976.0997 
30556000    111.20262   -4567.4101   -4376.8127   -4567.4101            0    2301.0456     17.94553    23.305359    21.903443    9160.6117    2707.4546    1972.5536    2223.1287    266.79236   -148.30053    -570.9028   -4069.3973 
30557000    102.72519   -4563.9509   -4387.8835   -4563.9509            0    2493.5144    17.873442    23.357967    21.935488    9157.7872    2824.5103    2229.1661    2426.8667   -1123.1865    229.55391   -246.21784   -4054.8573 
30558000    98.126194   -4556.8082   -4388.6232   -4556.8082            0    2564.1272    18.063404    23.168192    21.907782    9168.3282    2266.6054     2681.389    2744.3873    229.04721    341.28783    199.12365   -4045.7721 
30559000    98.881209   -4557.9806   -4388.5016   -4557.9806            0    2166.6755    17.941739    23.304295     21.95879    9181.3999    2179.5079     1996.292    2324.2266   -508.31446    399.09856    475.40728   -4098.3809 
30560000    97.667229   -4570.7591   -4403.3608   -4570.7591            0    2714.4845    17.765964    23.321885    22.032295    9128.7679    2321.6086    3148.5467    2673.2982    -650.1019   -626.26487   -138.58125   -4041.9714 
30561000    95.104465    -4550.953   -4387.9472    -4550.953            0    1677.4756    17.822511    23.412374    22.046958    9199.4746    2265.2479    1276.6085    1490.5704    324.48686   -245.10393    247.30107   -4162.8889 
30562000    99.633702   -4551.6091   -4380.8404   -4551.6091            0    2276.2051    17.900674    23.283315    21.974098    9158.5189    3030.4254    2336.8266    1461.3632    -610.1601   -464.45161    24.348065   -4076.8131 
30563000    104.37451   -4553.1197   -4374.2253   -4553.1197            0    2223.9613    17.862505    23.242749    22.067038     9161.654    3004.2093    1884.1808    1783.4937    485.48536    91.483837     302.9458   -4077.0745 
30564000     100.6119   -4560.2296   -4387.7842   -4560.2296            0    2696.8921    17.946586    23.126494    22.015699    9137.4315    1549.5524    3483.3552    3057.7686    400.92381    -299.8909    6.9128543   -4028.3962 
30565000    92.568401   -4559.4125   -4400.7535   -4559.4125            0    1795.6258    17.978672    23.223803    21.936766    9159.3265     1535.595    1799.9514    2051.3311   -294.62635    544.02719    206.75849   -4160.8949 
30566000    99.614531   -4549.2774   -4378.5415   -4549.2774            0    2311.6706    17.815224    23.268452    22.152777    9183.0499    2383.8839     2485.642    2065.4858   -330.30204    -495.4105    289.19046   -4068.9501 
30567000    94.518685   -4565.9089   -4403.9071   -4565.9089            0    1987.2374    17.911511    23.319399     21.91448    9153.3639    1883.3861    2710.7496    1367.5767   -298.02175    259.85032   -39.755301   -4138.6259 
30568000    102.31146   -4565.5871   -4390.2288   -4565.5871            0    1723.5047    17.950957    23.186995    22.076568    9188.9024     2258.718    2004.9384    906.85767    306.68784    229.07737    336.71164   -4159.2607 
30569000    99.986352   -4578.2705   -4406.8973   -4578.2705            0    2258.1765    17.879068    23.162023    22.095047    9149.8985    2736.8329    2593.1767    1444.5199   -600.37316    58.997583    163.64562    -4105.562 
30570000    103.64538   -4567.2186    -4389.574   -4567.2186            0    1997.0539    17.868333    23.481236    21.867453    9174.9393    1766.7648    2524.5897     1699.807    466.72579   -304.08349   -144.90072    -4122.354 
30571000    98.896443   -4557.2878   -4387.7827   -4557.2878            0     2083.198    17.748575    23.422458    22.012799    9151.0565    2845.6955    1907.6543    1496.2442    221.36903    437.13049   -23.140494   -4109.7617 
30572000    103.65898   -4544.6076   -4366.9396   -4544.6076            0    1859.8812    17.852348    23.440711    21.957566     9188.621    2311.5864    1274.6425    1993.4147   -136.51468    126.36133    366.22705   -4117.7032 
30573000    94.910544   -4564.0735   -4401.4001   -4564.0735            0    2864.9537    17.986721    23.207924    21.885164    9135.6215    2719.9987    3930.6231    1944.2393    500.05211    -51.25312   -47.603968   -4019.6918 
30574000    100.72998   -4565.6944   -4393.0467   -4565.6944            0    923.19272    18.022044    23.373233    21.945985    9244.3825    1241.6229    310.99859    1216.9567    83.738747   -124.45029   -26.550367    -4268.582 
30575000    96.308046   -4552.3735   -4387.3048   -4552.3735            0    2786.6056    17.819055    23.300493    22.030584    9146.9391    3422.6678    3618.5782    1318.5709   -473.25609   -750.59689    321.19612   -4015.5752 
30576000    98.084887   -4560.8112   -4392.6971   -4560.8112            0    1890.0227    17.783035    23.381435    22.081761    9181.4386    3385.4567    1277.3253    1007.2861    1.6895994   -226.84874   -87.865186   -4139.6195 
30577000     92.72735    -4556.178   -4397.2465    -4556.178            0    2149.4155    17.898169    23.377853    21.942624    9181.2496    2386.7849    2301.5353    1759.9264     173.0543    393.93416    202.24496   -4109.4417 
30578000    107.23134    -4555.352   -4371.5612    -4555.352            0    669.05898    17.930581    23.255674     22.13596    9230.4241    1668.3252    767.44018   -428.58846    51.854555    -533.7604     93.15142    -4281.495 
30579000    102.49811   -4569.4248   -4393.7465   -4569.4248            0    743.74769    18.023442    23.305401     21.97416    9230.1038    610.39025    791.62046    829.23238   -699.94006    159.68471    306.42476   -4293.6295 
30580000    105.94563   -4556.9095   -4375.3223   -4556.9095            0    1262.7801    18.021292    23.237825    22.032682    9226.7502     1415.419    1198.3055    1174.6157   -66.639088   -174.87056    46.507962   -4205.3992 
30581000    100.44671   -4559.9705   -4387.8083   -4559.9705            0    1993.4811     17.89431    23.291932    22.054005    9191.9565    1977.6982    2227.7946    1774.9507    485.35164   -45.332739   -157.59883   -4120.5717 
30582000     96.15972   -4562.8657   -4398.0513   -4562.8657            0    1501.4126    17.891502    23.419492    21.986583    9212.5958     2308.334    284.59295     1911.311    409.19565    167.98562    320.20954   -4196.3271 
30583000    93.086356   -4558.2933   -4398.7464   -4558.2933            0    1994.4495    17.928578    23.432928    21.865068    9185.9322    2353.3827    1819.8885    1810.0774   -923.75405    15.113127   -58.965339   -4131.5552 
30584000    99.840133   -4542.9028   -4371.7802   -4542.9028            0    1985.1444    17.984827    23.327017    21.851146    9167.2632    1999.0249    2615.9009    1340.5074   -284.90454    -351.1044    562.17402    -4106.376 
30585000    98.433964   -4558.7503   -4390.0378   -4558.7503            0    2059.2988    17.962708    23.339081    21.889422    9176.7706    1315.1223      1721.43     3141.344    914.29541    42.468735   -292.87047   -4114.4341 
30586000    100.58514   -4561.1958   -4388.7963   -4561.1958            0    2633.3942    17.946123    23.276382    21.819894    9114.6239    2389.3476    2384.4044    3126.4304    80.396611   -124.32559     17.06171    -4038.746 
30587000    99.763156    -4566.524   -4395.5334    -4566.524            0    1745.1222    17.980734    23.375666    21.851286    9184.3495    1741.2921     1297.759    2196.3156    237.70248    45.207152    451.12098   -4161.7842 
30588000    105.09677   -4559.6933    -4379.561   -4559.6933            0    1847.5868    17.990839    23.406996    21.846051    9199.6228    1056.5328    1868.1727    2618.0549   -257.93713    46.348721    75.142962   -4131.6757 
30589000     95.35973   -4563.2045   -4399.7612   -4563.2045            0    3437.6864    18.017587    23.341833    21.670361    9113.7632    3339.2361    2934.5359    4039.2872   -490.04545   -60.905522   -190.53085   -3942.8415 
30590000     99.62768    -4557.207   -4386.4486    -4557.207            0    2118.1636    17.842711    23.476717    21.901806    9174.4102    2068.0473     1786.888    2499.5555    105.60534     197.3788    227.54467   -4103.0396 
30591000    99.786114   -4571.0025   -4399.9725   -4571.0025            0    3325.3357    17.884333    23.300963    21.887559     9121.031    2903.2632    3285.3117    3787.4321    8.9301124   -234.60795   -126.71395   -3957.6334 
30592000    101.46906   -4554.6688   -4380.7543   -4554.6688            0    2429.9092     17.95899     23.34531    21.845727         9159    1755.0211    2083.0398    3451.6667   -104.61527   -31.227239   -627.16173   -4056.1801 
30593000    100.24285   -4571.6665   -4399.8537   -4571.6665            0    2662.4582    18.074483    23.302675    21.762457    9165.9944    2831.2045    2130.7158    3025.4543   -67.601165   -16.077272    187.89072   -4043.9453 
30594000    98.891464   -4560.6474   -4391.1509   -4560.6474            0    2100.7975    18.113825    23.258866     21.75457    9165.3534    1332.3229    2591.3626     2378.707   -606.06996    270.01626    233.33149    -4110.343 
30595000    97.271184   -4563.0122   -4396.2927   -4563.0122            0      1663.64     18.02342    23.362217    21.865573    9206.8724    1488.2246     895.6522    2607.0433   -117.38241   -106.33803     117.3131   -4172.9111 
30596000    106.34147   -4565.4569   -4383.1913   -4565.4569            0    3007.1534    17.922716    23.388121     21.81382    9143.8876    3207.7329    2607.1386    3206.5886    519.80694    173.19865   -423.04232   -3982.1747 
30597000     103.0794   -4564.3135   -4387.6389   -4564.3135            0    2448.4775    17.916733    23.382812    21.889391    9170.4201    2286.0479    2087.2227    2972.1621     447.7416    412.56735   -28.733645   -4060.1766 
30598000    99.218173   -4569.2358   -4399.1792   -4569.2358            0     2246.853    18.010964    23.367899    21.813516    9180.8376    2396.9992    1643.8898      2699.67   -279.85858    234.55699    309.12765   -4098.3411 
30599000    100.44731   -4559.8937   -4387.7304   -4559.8937            0    2161.8642    17.981244    23.268648    21.926133    9173.8777    2665.3167    2006.3783    1813.8975    853.58331   -176.12475   -128.44714   -4098.4912 
30600000    95.846844   -4564.0361   -4399.7579   -4564.0361            0    1502.3344    17.922641    23.343073    22.017052    9211.2632    2042.8011    1243.7791     1220.423   -623.10339    262.93588   -300.99679   -4197.9391 
30601000    99.490281     -4572.82   -4402.2971     -4572.82            0    2194.1202    17.961501    23.287688    21.918827    9168.2473    2305.1713    2287.0369    1990.1524   -203.73648    176.07257    103.83948   -4108.9224 
30602000    99.923082   -4554.3882   -4383.1235   -4554.3882            0    2404.1544    17.997584    23.270626    21.909201    9175.9033    2055.6673     2004.178    3152.6179    164.70519   -28.419683    131.92552   -4061.3968 
30603000    103.14568   -4561.7568   -4384.9686   -4561.7568            0     1143.551    17.883794    23.403809    22.016963    9215.1758     1630.271    619.19899     1181.183    505.14661    -73.83356    33.014085   -4231.2824 
30604000    99.974833   -4561.0956   -4389.7422   -4561.0956            0    1780.0134    17.889742    23.276381    22.048685    9181.2591    1737.5037    1872.0843     1730.452   -17.535739    224.58672    550.29037   -4151.3997 
30605000    105.29906   -4559.8894   -4379.4105   -4559.8894            0    2593.6821    17.978129    23.191883    21.886684    9125.5797     1957.843    3511.3224    2311.8809   -494.47846   -371.38806   -328.23226   -4034.2245 
30606000    97.358193   -4567.6637   -4400.7951   -4567.6637            0    1534.8196    17.925246    23.337456     21.98607    9197.4249    1475.2702     1200.478    1928.7106   -917.54007    90.880382   -37.101718   -4194.9221 
30607000    100.21452   -4570.0688   -4398.3045   -4570.0688            0    1815.2515    17.856323    23.336176    22.027053    9178.6353    1680.7423    2133.4946    1631.5176   -995.80496   -451.49695    352.72401   -4155.3132 
30608000    99.886531   -4560.4788   -4389.2767   -4560.4788            0    1522.8171    17.914463    23.221657    22.076744    9184.0031    2102.2971    616.97344    1849.1807   -753.95596    698.59892   -145.99306   -4185.3117 
30609000    97.735589   -4561.3393   -4393.8239   -4561.3393            0    982.27982    17.985903    23.232274    22.051071    9214.1156     1552.675    1161.1176     233.0469   -895.40108    114.41537    397.44875   -4261.8266 
30610000    102.29817   -4567.4522   -4392.1166   -4567.4522            0    1610.2934    17.802708    23.240905     22.17577    9175.2477    2195.4648    2654.5499   -19.134327   -378.80458    149.35561    416.34189   -4176.6407 
30611000    99.008935   -4552.8844   -4383.1864   -4552.8844            0    2519.7525    17.857877     23.27135    22.021782     9151.744    2643.0745    2459.6192    2456.5637     185.9333    327.12698      221.943   -4046.8781 
30612000    100.82356   -4560.0312   -4387.2231   -4560.0312            0    2018.6345    17.913537    23.484053    21.802243    9171.8212    2529.6528    1274.2201    2252.0306   -285.40331   -205.38333    427.24195   -4117.2073 
30613000    95.459356   -4553.8163   -4390.2022   -4553.8163            0    2370.4781     17.89709    23.417721    21.836798    9151.9995    3320.5454    1885.4201    1905.4688   -113.91679    267.76602   -314.85037   -4073.8085 
30614000    104.42854   -4553.4197   -4374.4328   -4553.4197            0    1810.6715     18.02109     23.21039    21.998611    9201.5027    2417.4594    1930.2734    1084.2818   -688.25933   -48.251378    14.371237   -4131.4506 
30615000    103.32592   -4555.2176   -4378.1205   -4555.2176            0    1395.1699     18.07445    23.170558    21.977597    9204.1098    1068.3569     2262.039     855.1139   -1164.6828    36.582207   -325.59707   -4190.8433 
30616000    95.420364    -4560.049   -4396.5018    -4560.049            0    2105.3656    17.782908     23.63136    21.858178    9185.5561    2849.5029    1946.0532    1520.5408   -307.38442    281.29675   -211.36249    -4114.463 
30617000    98.573479   -4573.3143   -4404.3627   -4573.3143            0    2298.6263    17.853569    23.449279    21.855146    9149.7293    2241.5965    1978.8684    2675.4139   -163.95724   -301.93113   -252.76577   -4097.6353 
30618000    100.06763   -4569.0653   -4397.5528   -4569.0653            0    1989.1526    17.976813    23.171755    21.999597    9164.0263    1530.2203    1528.8118    2908.4257   -35.974466   -70.247491   -220.28866   -4131.7067 
30619000    99.639411   -4554.4505   -4383.6719   -4554.4505            0    1503.1442     18.00168    23.278575    21.964962    9204.4934    1556.0096    1392.4338    1560.9893    163.30105    92.453196    65.357037   -4181.8927 
30620000    96.289858   -4560.9343   -4395.8968   -4560.9343            0    1419.4229     17.98854    23.357172    21.869809    9188.8504    1842.1384    1337.3738    1078.7566     290.2826   -467.59691   -108.69608     -4205.68 
30621000    100.13012   -4566.2121   -4394.5925   -4566.2121            0    2111.1196    17.954353    23.306067    21.916253    9170.7545    3355.4839    1851.3895    1126.4853    571.18294     247.5785    113.48851   -4112.2386 
30622000    105.91956   -4556.0606   -4374.5181   -4556.0606            0    3254.2309    18.042519    23.047613    21.929258    9118.9969    2885.6538    4346.7105    2530.3284   -430.87926   -245.15575   -236.52314    -3941.734 
30623000    95.711739   -4567.0482   -4403.0016   -4567.0482            0    2147.8432    17.987253    23.288059    21.883779    9166.8571    2486.5269    1781.0913    2175.9113   -239.55562   -38.554754    327.25029   -4115.8581 
30624000    101.75912   -4554.5535   -4380.1419   -4554.5535            0    2573.3605    17.946774    23.251153    21.935321    9153.2407    2468.7854    2490.1149     2761.181   -228.96957     -252.191    212.96529   -4036.6224 
30625000    102.43845   -4548.5145   -4372.9385   -4548.5145            0    3604.8947    17.946908    23.120876    21.950731    9108.4173    3547.7709    3986.4295    3280.4837    59.503362    121.61033    603.85481   -3894.0754 
30626000    100.74645   -4564.3114   -4391.6354   -4564.3114            0      1631.13    18.082142    23.108257     21.97692    9182.9854    1189.6036    2136.9913    1566.7952   -439.05652   -111.67201   -306.81214   -4173.1873 
30627000     103.1127   -4565.5277   -4388.7961   -4565.5277            0    1361.2541    17.972613    23.361324    21.996214    9235.4192    618.92947    1537.7243    1927.1086   -45.397777    324.14608    499.47242   -4205.4499 
30628000    99.390917   -4558.9547   -4388.6021   -4558.9547            0    2227.1034    17.895021    23.382366    21.969611    9192.6988    2318.7224    1726.4482    2636.1395   -96.546925    268.98771    101.31396    -4090.023 
30629000     98.12332   -4545.9695   -4377.7895   -4545.9695            0    896.71943    17.971982    23.372554    21.957076    9223.0941    1786.9214   -596.16043    1499.3974    -525.3978   -42.170473   -307.65919   -4257.1723 
30630000    95.001269   -4559.1865   -4396.3576   -4559.1865            0    3100.7076    17.751162    23.232735    22.093631    9111.5912    2720.0516    2986.1406    3595.9305   -632.96636   -471.53639   -23.841588   -3984.3256 
30631000    99.163793   -4570.5818   -4400.6184   -4570.5818            0    2492.2727    17.822058    23.224814    22.096389    9146.0045    3051.2951    2499.8672    1925.6557    290.21494     298.1705   -274.82114   -4068.1864 
30632000    105.63459   -4557.8761   -4376.8221   -4557.8761            0    2708.1599     17.79726    23.388808    21.939191    9132.3354    3611.6514    1747.5801    2765.2482   -681.22824    -193.1251    647.69914   -4016.1338 
30633000    96.246595   -4558.9892   -4394.0258   -4558.9892            0     1168.368     17.81827    23.429548    22.049133    9204.9404    798.20997    737.97032    1968.9236   -537.07549    371.70313    114.42314   -4237.1787 
30634000    99.003446   -4567.6847   -4397.9961   -4567.6847            0    2708.1232    17.788665    23.275851    22.012649     9114.256    2065.1214    3181.6447    2877.6033    96.312744   -483.85983   -329.85244   -4038.0268 
30635000    97.890549   -4570.4367   -4402.6557   -4570.4367            0    2329.2944    17.935917     23.19214    21.966721    9137.5477     1883.087    2529.5978    2575.1984    172.29279    527.31991   -133.09273   -4092.2498 
30636000    109.24611   -4575.6241     -4388.38   -4575.6241            0     2293.761    17.876199    23.261861    21.999035    9147.9388    1995.9651    1129.1066    3756.2114   -558.18375   -459.79492   -352.43549   -4082.3618 
30637000    98.903971   -4565.1386   -4395.6206   -4565.1386            0    3047.0725    17.864371    23.282825    21.920491    9117.4563    2524.1922    3074.9382    3542.0871   -244.43271    195.41121    282.49684   -3990.4552 
30638000    97.376316   -4555.2201   -4388.3204   -4555.2201            0    2623.8283    17.808406    23.283135    22.049385     9142.458     2584.687    2965.6557    2321.1421   -592.91376    348.95373   -197.44376   -4038.4766 
30639000    92.741197   -4569.4381   -4410.4828   -4569.4381            0    1255.7803    17.951063    23.255939    22.039412    9200.7674    1408.3856    1382.4544    976.50069    -344.8707    587.77797    151.40062   -4241.9775 
30640000    98.685672   -4562.8075   -4393.6637   -4562.8075            0    1349.8879    17.959801    23.373304    21.918067    9200.7635    1455.2343    476.06442     2118.365   -204.48018   -420.47483    529.05595   -4212.5307 
30641000    99.273608   -4572.5134   -4402.3618   -4572.5134            0    2299.1085    17.961741    23.274984    21.902261    9156.4426    2012.0287    2411.5927    2473.7041    80.656864   -27.186728   -103.37634    -4095.345 
30642000    97.796504   -4568.6469    -4401.027   -4568.6469            0    1396.0029      18.0141    23.303411    21.921997    9202.6346    1472.2635    1553.5534    1162.1918   -77.293152   -436.16829   -105.89371   -4213.6681 
30643000    99.054729    -4565.305   -4395.5286    -4565.305            0    1779.3876     17.90979    23.375824    21.936195    9183.7214     1923.037    2282.4247    1132.7011   -807.03023   -36.965388   -41.163698    -4157.206 
30644000    97.123341   -4561.4704   -4395.0043   -4561.4704            0    1792.9501    17.917625    23.433851    21.868754    9182.2295    1449.9898    2378.8881    1549.9724    221.98867   -158.13146    81.832335   -4154.9043 
30645000    101.78894   -4553.3791   -4378.9163   -4553.3791            0    2140.9531    18.008728    23.266061    21.834459     9148.467    1788.6284    1772.4827    2861.7483   -421.38103    110.41213   -619.79189   -4093.2682 
30646000    97.220334    -4562.239   -4395.6067    -4562.239            0    1928.3381    17.921676    23.220512     22.01706    9162.4104    1571.7867    3377.6195    835.60805    112.44043    334.86038    319.19787   -4137.9338 
30647000    94.092687   -4564.0797    -4402.808   -4564.0797            0    2087.4827    17.771255    23.467415    21.990149    9170.8912    1872.9532    1202.9838     3186.511   -108.34678   -14.966176    639.21809   -4123.6113 
30648000    97.504491   -4571.8637   -4404.7443   -4571.8637            0    2211.9987    17.799208    23.489948    21.912006    9161.4635    3038.3552    1791.1189     1806.522    193.61824   -23.432299    303.14166    -4109.198 
30649000    106.52746   -4560.8609   -4378.2765   -4560.8609            0    1638.7702    17.943133    23.386247    21.913649    9195.4612     1255.777    661.37898    2999.1546    84.432115    296.59905   -150.11865    -4158.507 
30650000    97.707007   -4558.1179   -4390.6515   -4558.1179            0    3248.0537     17.98512    23.244435    21.761107    9097.3169    2573.5168    2309.1378    4861.5066    716.45939    79.748957    176.09554   -3959.7158 
30651000    100.66366   -4554.4944   -4381.9603   -4554.4944            0    2274.5061    17.921015    23.332974    21.942553    9175.2914    1820.1445    2059.2259    2944.1479    499.33632   -218.07747  -0.44433804   -4077.6036 
30652000    95.374182   -4565.8181     -4402.35   -4565.8181            0    2584.3134    17.815574    23.426822    21.906812     9143.077    2937.0919    1588.4259    3227.4225   -832.47394    34.070024    493.68808   -4057.7515 
30653000    98.349517   -4554.6593   -4386.0916   -4554.6593            0    1921.3518    17.866031    23.435513    21.893135    9166.6469    2613.0546    1520.3063    1630.6946   -824.99595    99.793725    70.281592   -4129.2335 
30654000    94.737839   -4558.5225   -4396.1451   -4558.5225            0    2371.1178    17.874414    23.473552    21.796685    9145.3654    2260.5085    2435.8636    2416.9813   -60.545345    369.55671    283.55882   -4079.8954 
30655000    98.393876   -4558.1591   -4389.5154   -4558.1591            0    2760.5336    18.016808    23.282438    21.759774     9127.686    2007.7192     2569.267    3704.6146   -225.54281   -246.79857   0.48503257   -4022.0389 
30656000    95.889787   -4574.3163   -4409.9644   -4574.3163            0    2424.5253    18.175663    23.284099    21.669396    9170.5737    1402.7427    2188.9055    3681.9278   -187.88355     410.7807    31.999945   -4085.7002 
30657000    101.89564   -4570.5214   -4395.8757   -4570.5214            0     2560.639    17.952022    23.345763    21.824272    9146.6323    1607.5668    3283.5231    2790.8271    56.980478    64.985438    661.00736   -4054.3012 
30658000    97.410603   -4562.6313   -4395.6728   -4562.6313            0    2362.5148    17.983337    23.362559    21.812461     9164.217    2025.4994    2398.4965    2663.5484   -593.82494    7.8597214   -293.49654   -4079.9211 
30659000    96.647617   -4557.7611   -4392.1104   -4557.7611            0    1978.2635    17.990956    23.354083    21.822543    9169.0096    2268.0849    1913.5776    1753.1279    445.89686   -127.54713   -212.23612   -4127.5758 
30660000     108.1222   -4564.7919   -4379.4742   -4564.7919            0    1340.8524    18.021249    23.430079    21.787619    9199.5888    1880.3708    774.64247     1367.544    336.58441    309.69088   -168.78224   -4199.5766 
30661000    100.34501   -4574.6096   -4402.6217   -4574.6096            0    2297.4379    18.034864    23.214961    21.861142    9152.7937    1749.6011    2097.4862    3045.2264   -279.30751    247.48418   -213.08539   -4095.9503 
30662000    99.544209   -4565.8616   -4395.2462   -4565.8616            0    1981.6191    17.905437    23.261587    22.030327    9175.8268    2321.7111    1972.1926    1650.9535   -164.42401   -69.184103    295.31204   -4130.0659 
30663000    101.32612   -4560.9755    -4387.306   -4560.9755            0    2364.7293       17.885    23.476632    21.765731    9138.9854     2390.899    1910.4974    2792.7916   -818.22561    -100.5124    179.04613   -4072.1284 
30664000    96.600973   -4558.6227    -4393.052   -4558.6227            0     2357.785    17.876015    23.502934    21.762714    9143.3609    2710.5768    1876.2903    2486.4877   -74.085893   -11.946525    -304.5632   -4078.6495 
30665000    95.201322   -4554.7904   -4391.6186   -4554.7904            0    2508.8983    18.002736    23.191012    21.960127    9168.3896    2865.9952    1721.5576    2939.1423   -557.05934    32.200032    26.660341   -4056.1499 
30666000    98.748141   -4553.9123   -4384.6613   -4553.9123            0    2767.5701    17.978118      23.2027    21.987549    9171.9053    1754.6468    3477.1381    3070.9254   -87.905169     553.5077    113.96716   -4014.4633 
30667000    99.662166   -4574.3735    -4403.556   -4574.3735            0    2284.4898    17.894634     23.26104    22.004727    9159.4191    3674.1122    1962.2235    1217.1338    89.214787    178.20355    86.567676   -4098.3922 
30668000    108.31558   -4562.7764   -4377.1272   -4562.7764            0    2040.5777    17.958574    23.344737    21.918812    9189.2032    2148.8721    2041.5273    1931.3337    114.35311   -349.89478    60.730896    -4103.659 
30669000    103.57779   -4558.5825   -4381.0537   -4558.5825            0    1382.9083    17.918583    23.283323    22.056347         9202    1340.0988    1987.5072    821.11895   -311.42232    16.093828    640.15577    -4195.465 
30670000    100.92743   -4566.7668   -4393.7807   -4566.7668            0    1468.0957    17.930041     23.39197    21.921136    9194.1406    1714.1126    1461.5523    1228.6223   -367.90169   -670.21923   -400.52979   -4196.9279 
30671000    102.64307   -4566.7928   -4390.8661   -4566.7928            0     2167.172    17.997278    23.385347    21.735842    9148.0198    1613.0253    3034.4421    1854.0485   -499.13409   -607.24798    651.07884   -4101.7339 
30672000    103.16888   -4569.9572   -4393.1293   -4569.9572            0    2921.7008    17.869187    23.319573    21.924365    9135.9226    3978.3522    2791.6764    1995.0737    725.39771    97.038091   -40.492588   -4003.8475 
30673000    98.962162   -4566.5423   -4396.9245   -4566.5423            0    1748.6401    17.863143    23.510076     21.82449    9165.4967    1862.9285    659.77777    2723.2142    162.89184    466.76055    306.93164   -4163.1849 
30674000    98.934574   -4567.6432   -4398.0727   -4567.6432            0    1264.8839    17.921512    23.546421    21.811933    9204.3623    1690.1496    194.29762    1910.2045    646.83484   -222.37311    269.51347   -4228.2795 
30675000    105.92219   -4566.3297   -4384.7827   -4566.3297            0    2292.0179    17.928431    23.355201    21.877069    9160.4126    2915.3813    1605.1489    2355.5236   -188.84187   -297.58967   -330.49829   -4078.5801 
30676000    102.02805   -4567.5356    -4392.663   -4567.5356            0    2922.3856     17.91903    23.322484    21.826633    9121.7056     2702.836    1798.9669    4265.3537   -813.80613    400.15643    139.15479    -4003.896 
30677000    99.845173   -4548.3907   -4377.2595   -4548.3907            0    2248.7666    17.924861    23.453159    21.767998    9151.1493     2327.735    2110.0775    2308.4872   -224.21679    -488.6767   -486.30844   -4077.1389 
30678000    98.226021   -4550.0709   -4381.7149   -4550.0709            0    3061.4961    17.878545    23.522454    21.676544    9116.0109    2540.0279    2808.8491    3835.6112    569.38952    268.59345    83.203152   -3974.6961 
30679000    98.243039   -4559.7583   -4391.3731   -4559.7583            0    2978.9009    17.957165     23.33093    21.758021    9115.6829    2708.7907    2498.0271    3729.8848    231.98076   -360.01588    -362.8051   -3995.3494 
30680000    99.513298   -4563.9591   -4393.3967   -4563.9591            0    1594.1144    18.064402    23.340179    21.822515    9200.9483     780.1135    1994.0053    2008.2244   -202.98144    82.466034    168.58527   -4179.4882 
30681000    100.12289   -4558.1315   -4386.5243   -4558.1315            0    2232.3035    17.961115    23.397845    21.835556    9176.4228     2548.357      2774.49    1374.0635    -384.6258    15.107575    366.55725    -4087.778 
30682000    104.99898   -4556.7344   -4376.7697   -4556.7344            0    1807.0016    18.053519    23.381055     21.77089    9189.7177    1550.5302    1820.1232    2050.3514    140.31953   -203.34069   -264.47729   -4134.5906 
30683000     100.2006   -4569.9378   -4398.1975   -4569.9378            0    2307.4433     18.03336    23.201996    21.931247    9176.2521    2244.1021    2289.6783    2388.5497    276.80327   -274.56052   -313.05258    -4089.401 
30684000    100.97251   -4571.5586   -4398.4951   -4571.5586            0    2013.0668    17.926612     23.40682    21.850802    9168.7052    2300.7475    2267.1637     1471.289   -400.65636    50.598658   -29.424861   -4129.3156 
30685000    102.23697   -4557.0549   -4381.8242   -4557.0549            0    1925.3343    17.965036    23.502677    21.713519    9168.0219    2251.1419    1938.3507    1586.5102    76.444669   -51.314087    49.358663   -4124.3951 
30686000    98.720286   -4551.7588   -4382.5556   -4551.7588            0    2021.2264    17.916993    23.330992     21.95267    9176.6821    2416.2083    1912.8968     1734.574    311.11217   -80.116962   -85.532767   -4112.0498 
30687000    98.111811   -4561.4363    -4393.276   -4561.4363            0    2156.5168    17.909364    23.248721    21.999727     9160.022    2732.7028    1694.2653    2042.5824    16.013484   -161.70364    411.52558   -4105.1879 
30688000      100.589   -4549.8206   -4377.4145   -4549.8206            0    2876.1245    17.940274    23.356097    21.847504    9154.4264    3670.6218    1989.5168     2968.235   -19.825106    372.05322   -231.82416   -3993.4291 
30689000    94.996378   -4564.3604   -4401.5399   -4564.3604            0     1514.904    17.971022    23.394793    21.863891    9192.1996    2120.7731    1719.2514    704.68761     304.8919   -273.73331   -215.89251   -4198.4537 
30690000    103.97658   -4551.9183    -4373.706   -4551.9183            0    1519.8644    18.207885    23.136488    21.809542    9187.6294    964.57581    1760.1544    1834.8631   -97.907332    313.88119   -85.230804   -4170.0561 
30691000    101.13897   -4559.8683   -4386.5195   -4559.8683            0    1534.4894    18.059762    23.265409    21.894869    9199.5179     1824.592    1409.6178    1369.2583   -218.31791    20.336408    198.39376   -4180.6439 
30692000    100.04414   -4554.8504   -4383.3782   -4554.8504            0    3603.2182    17.999123    23.296389    21.768467    9127.8354    3562.2287    3840.4923    3406.9335   -307.39345    133.82616    185.35766   -3903.7174 
30693000    106.54161   -4571.0587   -4388.4501   -4571.0587            0    2247.5357    17.945515    23.488434    21.771026      9176.75    2175.0608    1961.0332    2606.5131   -398.68331   -89.010357   -267.68897   -4087.6545 
30694000    102.92111   -4553.4484   -4377.0451   -4553.4484            0    1851.4027    17.893272    23.453422    21.858802    9173.2311    2071.0718    1759.4338    1723.7024    783.23945   -327.73084   -442.65976   -4129.3605 
30695000    102.18798   -4569.7651   -4394.6184   -4569.7651            0    1757.6362    17.967812    23.376632    21.897291    9197.4518    1722.8213     1299.181    2250.9062   -145.11391   -29.527513    421.72818   -4158.8572 
30696000    98.145022   -4560.2475   -4392.0303   -4560.2475            0     1237.024    17.990181     23.38441     21.92773    9224.7712    1024.1632    840.56207    1846.3467    295.76259     29.07808    453.60819   -4225.6087 
30697000    99.596027   -4559.0529   -4388.3488   -4559.0529            0    1642.9558    18.011137    23.228318    21.946892    9181.8861    2161.3493    1246.8145    1520.7036     41.98415   -178.49619    353.82282   -4168.3432 
30698000    100.63461   -4557.3972   -4384.9129   -4557.3972            0    2397.5154    17.961776    23.139698    22.025214    9154.3413    2318.6073    3378.1116    1495.8272   -736.10498    58.751082    -455.6172   -4064.8286 
30699000     106.2388   -4563.9148   -4381.8252   -4563.9148            0    1992.1267    17.931776    23.291838    22.024065    9198.6598    1990.9539    2422.2762    1563.1502   -227.09473      248.221    353.32701   -4114.5754 
30700000    100.07536   -4563.3654   -4391.8397   -4563.3654            0    1253.9031    17.848048    23.366746    22.104261    9218.6002    1260.8038    1350.5037    1150.4018    -452.0383     150.0936    21.528397   -4223.2602 
30701000    101.70096   -4561.9595   -4387.6475   -4561.9595            0    1778.1741    17.882425    23.205584    22.099981    9170.8759    1196.2801    3224.2191    914.02325    68.024913   -252.43548   -73.736007   -4149.8206 
30702000     102.2632   -4562.1151   -4386.8395   -4562.1151            0    2026.6047    17.995574    23.178942     21.99032    9172.5664     851.8596    3186.6291    2041.3255   -63.601884   -355.99306    207.63078   -4115.7356 
30703000    99.041862   -4567.7795   -4398.0251   -4567.7795            0    1632.0445    18.071716    23.110549    22.012001    9193.2525    2079.4268     921.7969    1894.9099   -547.94394    1.6786256    500.63403   -4179.2101 
30704000    98.648648   -4566.5617   -4397.4813   -4566.5617            0     1445.253    17.942601    23.302723    21.966843    9184.5887    1477.7905    1959.6222    898.34615   -7.3821518   -431.35063   -350.69598   -4203.8929 
30705000    97.597376   -4568.8124   -4401.5339   -4568.8124            0    2232.0879    17.891533    23.266229    21.973974     9147.073    2124.3202    3066.8044    1505.1391   -123.95999   -54.303198    181.77067   -4103.7718 
30706000    98.735093   -4566.1181   -4396.8895   -4566.1181            0    1417.9953    17.827046    23.362894    22.039638    9179.3194    1611.3737    1703.6143    938.99775    408.66475   -6.3965598      246.203   -4207.0612 
30707000    98.351394   -4562.3757   -4393.8048   -4562.3757            0    893.68858    17.914833    23.386438    22.040942    9234.3642    1305.2668     741.5523    634.24668    233.05019   -321.36864    379.26545   -4273.4484 
30708000    102.14066   -4559.4477   -4384.3821   -4559.4477            0    1328.1118    17.962311    23.283134    21.990151    9196.6968     1403.702    1101.8406    1478.7928   -97.159813   -327.16872   -183.57693   -4206.2499 
30709000    100.00777   -4564.0222   -4392.6123   -4564.0222            0     1789.319    17.874573    23.298611    22.022076    9171.1535    1886.9856    1895.1231    1585.8483   -292.15419    335.22212   -126.42725   -4153.2876 
30710000     103.0038   -4555.6877   -4379.1427   -4555.6877            0    2303.2832    17.930825    23.314594    21.913774    9161.0509     2116.784    3205.8445     1587.221    -447.1447    267.49048    136.59207   -4071.4137 
30711000    101.87298   -4568.7954   -4394.1886   -4568.7954            0    2052.7722    18.096989    23.102332    21.915859    9162.6404    2286.4931    2777.5626    1094.2609    16.711413   -178.99568    114.80439   -4119.8813 
30712000    101.22673   -4563.4628   -4389.9637   -4563.4628            0    2105.0038    18.049869     23.24558    21.867061    9174.9746    1484.2109    2376.6317    2454.1689   -218.19889   -439.89537   -363.72021   -4108.2982 
30713000      102.788   -4561.7554   -4385.5803   -4561.7554            0     759.5134    18.048291    23.343723    21.916577    9233.7676    293.45919   -54.273742    2039.3548   -288.83817    115.93769   -32.403069   -4283.3004 
30714000    102.47295   -4571.6521    -4396.017   -4571.6521            0    2325.5564    17.907419    23.341543    21.955721    9177.2013    2395.5367    2176.7057    2404.4267   -278.45352   -174.69925    -163.2887   -4084.7644 
30715000    98.302883   -4575.8953   -4407.4075   -4575.8953            0    2687.9251     17.92911    23.253631    21.920826     9139.163    1760.2583    1903.8877    4399.6291    706.19604    268.21219    707.44941   -4049.1465 
30716000    100.14657   -4568.1265   -4396.4787   -4568.1265            0    1022.3338    17.912964    23.537038    21.871044    9221.2285    1066.9762    396.67988    1603.3453   -786.66749   -227.97323    -523.8673    -4258.993 
30717000    97.057387   -4568.4986   -4402.1455   -4568.4986            0    1909.0708    17.903761    23.543808    21.823644    9199.1618      1725.78     1420.271    2581.1614    57.281943   -397.76143    161.77802   -4146.0239 
30718000    100.09004   -4561.0261   -4389.4752   -4561.0261            0    1447.6257    17.999353    23.265177    21.934695    9185.3317    1735.8209    1872.6876    734.36861    654.22786   -132.24552   -39.336921   -4195.5532 
30719000    103.81867   -4563.5189   -4385.5773   -4563.5189            0    1714.8848     18.01592    23.252708    21.949339    9194.9936    1824.4696    1871.3486    1448.8363    503.21181   -119.08639    351.99661    -4155.612 
30720000    95.474798   -4565.6155    -4401.975   -4565.6155            0     1900.019    17.990963    23.316413    21.925718    9197.5039    1562.5476    1737.1712    2400.3382   -608.57096   -36.184996   -316.95541   -4147.1137 
30721000    101.83059   -4566.9338   -4392.3997   -4566.9338            0    1147.3752    17.870775    23.408205    22.028529    9215.0352    1638.1669    705.91884    1098.0399    1064.7055   -88.493977   -242.00968   -4238.2018 
30722000    99.041697    -4567.823    -4398.069    -4567.823            0    1972.3189    17.857723    23.346669    22.035723    9187.0971    2062.1274    2260.6992    1594.1301   -387.58333   -215.92809    393.78001    -4133.809 
30723000    95.900538   -4560.3442   -4395.9739   -4560.3442            0    2234.0173     17.90583    23.245075    22.022715    9166.3464    2583.1586    3103.7081     1015.185    80.531093   -761.91085   -13.826387   -4097.3266 
30724000    97.049221   -4558.8055   -4392.4665   -4558.8055            0    1709.9686    18.006526     23.24982     21.96394    9195.1702    2773.3779    610.69052    1745.8373   -980.69636    57.333543    201.27729    -4163.156 
30725000    98.353822    -4567.732   -4399.1569    -4567.732            0    1320.2571    17.965148    23.248022    22.054802    9211.2802    988.42448     1704.755    1267.5919    495.58366   -363.96313    611.94769   -4221.7974 
30726000    100.31976   -4564.6058   -4392.6611   -4564.6058            0    1201.4185    17.921321    23.367587    21.987011    9207.6769     659.7962      1505.62    1438.8393    116.64717   -146.39844   -294.15478   -4231.3292 
30727000     102.2328   -4544.3386    -4369.115   -4544.3386            0    1462.6243    17.920695    23.427028    21.968062    9222.8213    1872.6372    879.82526    1635.4105    123.58121    100.79201    264.21772   -4172.3842 
30728000    101.51796   -4555.3416   -4381.3433   -4555.3416            0    1838.9666    17.901008    23.292346    22.098143    9213.9637    2889.1456    836.60918    1791.1451   -146.62437   -109.76911   -27.178896     -4134.23 
30729000    99.995926   -4553.3658   -4381.9762   -4553.3658            0    2202.9892     17.87363    23.158112    22.139499    9163.9709    2109.1264    2571.5788    1928.2625    113.22613   -214.36721    664.65236    -4087.553 
30730000    104.06021   -4555.4244   -4377.0687   -4555.4244            0    2159.5818    17.851024    23.387796    22.005063    9187.0283    2223.2448    2055.2025    2200.2982   -338.85063   -141.13118    -62.89693   -4087.7206 
30731000    105.75462   -4564.9998     -4383.74   -4564.9998            0    1802.1608    17.784988    23.530292    21.963984    9191.6192    2091.3523    1618.7862    1696.3439    641.66734    342.18327   -96.731418   -4142.1597 
30732000    100.58356    -4560.562   -4388.1652    -4560.562            0     1323.311    17.912901    23.384997    21.972384     9204.081    1081.8515    1185.3423    1702.7392   -227.55104    629.06944    7.7550808   -4210.5345 
30733000    97.610439   -4564.8169   -4397.5159   -4564.8169            0    2242.8112    17.953141      23.2479    21.989489    9177.8152    2380.0653    2630.6094    1717.7588    448.01238    324.77275   -52.059143   -4097.3178 
30734000    102.53539   -4558.8178   -4383.0756   -4558.8178            0     1622.873    17.965271     23.27832    21.995539    9198.5636    1150.6444    2378.4326    1339.5418    43.371414   -444.75619    200.35277   -4165.3646 
30735000    97.514988   -4565.3356   -4398.1982   -4565.3356            0     2538.131    17.888718    23.448087    21.784183    9137.5108     2587.179    2353.3743    2673.8397   -837.45721   -117.83253   -75.492237   -4059.9638 
30736000    97.685872     -4558.46   -4391.0298     -4558.46            0    3165.5196    17.973624    23.257753    21.869028    9141.8247    3031.8456    2727.5102    3737.2028    516.40499   -340.18877    89.453753   -3968.9896 
30737000    104.36859   -4568.1986   -4389.3144   -4568.1986            0    2043.0126    17.863003     23.26281    22.029835     9154.358    1697.6759    2312.6896    2118.6723   -405.80444   -263.48681    370.98377   -4116.5581 
30738000    100.45324   -4556.1295   -4383.9561   -4556.1295            0    3099.0013    17.895767    23.245584    21.924874     9120.694    3325.8902    3209.6766    2761.4371    409.09791   -54.662644    531.19986   -3971.7395 
30739000     103.7304   -4566.9887   -4389.1983   -4566.9887            0    2417.2399    17.970536    23.310643    21.844438    9150.7391    2485.5057    2730.3871    2035.8269   -986.24233   -192.85107    78.919923   -4066.6076 
30740000    97.725249   -4555.4828    -4387.985   -4555.4828            0    1358.5083    17.986502      23.4192    21.845279    9201.8756    1760.2344    1666.5306    648.75978    994.75098     36.10743   -205.14333   -4205.6733 
30741000     96.38902   -4563.9351   -4398.7276   -4563.9351            0    2346.7007     18.17602    23.256152    21.658207    9155.0168    1622.9978    2645.1958    2771.9085     78.00518   -160.52015    223.72542   -4085.4043 
30742000    98.517611   -4558.7093   -4389.8535   -4558.7093            0    2094.0547    18.098087    23.296753    21.744294    9167.9742    1986.7155    1884.6831    2410.7654   -242.64086   -197.55482    131.83947   -4109.8669 
30743000     98.91339   -4548.4487   -4378.9145   -4548.4487            0     2149.286    18.074448     23.26405    21.800889    9166.9435    1069.9453    2553.1333    2824.7793   -658.32488   -252.77156    138.79247   -4091.5755 
30744000    99.405564   -4556.2814   -4385.9037   -4556.2814            0    1747.1528    18.015548    23.366012    21.853564    9199.2911    1795.2553     1189.896    2256.3072   -307.92586    641.52732    51.336532   -4151.5018 
30745000     102.2723   -4552.2211   -4376.9298   -4552.2211            0     2448.973    18.053166    23.170776     21.85091    9140.3635    1845.1693    3101.8649    2399.8847   -282.38243    120.97299   -151.70852   -4050.4748 
30746000    97.897828   -4560.1602   -4392.3667   -4560.1602            0    2123.6913    18.145629    23.172412     21.78029     9158.132    1379.9519     1912.545    3078.5769    94.003869    223.15905    738.27745   -4108.7223 
30747000    96.063229   -4557.6639   -4393.0148   -4557.6639            0     2327.942    17.898662    23.332996    21.940131    9162.8438     3470.902    1612.2699    1900.6541     465.9186   -156.09208   -210.67397   -4081.9303 
30748000    105.81684   -4560.4396   -4379.0732   -4560.4396            0    2063.9311    17.866813    23.354115    22.006052    9182.3247    3067.9569    2453.4783    670.35818     -375.608    44.707708    720.06981   -4102.6823 
30749000    96.634637    -4563.801   -4398.1725    -4563.801            0    1965.9353    17.802714     23.39892    22.018259    9172.0202    2426.1306    2196.8088    1274.8665   -329.70032   -498.35322   -366.04635   -4135.2001 
30750000    103.79822   -4552.8289   -4374.9223   -4552.8289            0    1942.3947    17.858833    23.391473    21.976477    9180.5504    2265.3846    1906.8302    1654.9692    17.173297    354.68959    280.77299   -4114.8572 
Loop time of 350.312 on 64 procs for 250000 steps with 864 atoms

Performance: 123.318 ns/day, 0.195 hours/ns, 713.649 timesteps/s
195.5% CPU use with 32 MPI tasks x 2 OpenMP threads

MPI task timing breakdown:
Section |  min time  |  avg time  |  max time  |%varavg| %total
---------------------------------------------------------------
Pair    | 17.305     | 24.916     | 37.665     | 111.4 |  7.11
Bond    | 1.0149     | 1.1972     | 1.7875     |  12.7 |  0.34
Kspace  | 171.52     | 186.88     | 196.69     |  44.4 | 53.35
Neigh   | 0.45112    | 0.53692    | 0.57973    |   5.0 |  0.15
Comm    | 49         | 54.448     | 61.445     |  36.3 | 15.54
Output  | 0.4684     | 0.46869    | 0.47024    |   0.0 |  0.13
Modify  | 64.118     | 66.313     | 70.279     |  19.8 | 18.93
Other   |            | 15.55      |            |       |  4.44

Nlocal:        27.0000 ave          37 max          17 min
Histogram: 1 7 4 3 1 1 5 2 0 8
Nghost:        2150.06 ave        2247 max        2051 min
Histogram: 9 7 0 0 0 0 0 0 4 12
Neighs:        6615.03 ave        9159 max        4285 min
Histogram: 4 4 6 1 1 4 3 1 4 4

Total # of neighbors = 211681
Ave neighs/atom = 245.00116
Ave special neighs/atom = 2.0000000
Neighbor list builds = 1898
Dangerous builds = 0

unfix		3
unfix		2
unfix		1

write_data	data.final.${pid} nocoeff
write_data	data.final.0 nocoeff
System init for write_data ...
PPPM initialization ...
  extracting TIP4P info from pair style
  using 12-bit tables for long-range coulomb (../kspace.cpp:340)
  G vector (1/distance) = 0.37190312
  grid = 24 27 25
  stencil order = 5
  estimated absolute RMS force accuracy = 0.0031407039
  estimated relative force accuracy = 9.4581364e-06
  using double precision FFTW3
  3d grid and FFT values/proc = 4410 672
Last active /omp style is kspace_style pppm/tip4p/omp

write_restart   restart.lmp.${pid}
write_restart   restart.lmp.0
System init for write_restart ...
PPPM initialization ...
  extracting TIP4P info from pair style
  using 12-bit tables for long-range coulomb (../kspace.cpp:340)
  G vector (1/distance) = 0.37190312
  grid = 24 27 25
  stencil order = 5
  estimated absolute RMS force accuracy = 0.0031407039
  estimated relative force accuracy = 9.4581364e-06
  using double precision FFTW3
  3d grid and FFT values/proc = 4410 672
Last active /omp style is kspace_style pppm/tip4p/omp
Total wall time: 0:05:50
