LAMMPS (30 Jul 2021)
  using 1 OpenMP thread(s) per MPI task
package omp 0
using multi-threaded neighbor list subroutines
echo both

include		in.partitions
variable        pid world 0
include		in.temp
variable        temperature equal 263.18
variable	tempDamp equal 100.0
include		in.pressure
variable        pressure equal 4250.0
variable        pressureDamp equal 1000.0 # This is 1 ps
include		in.seed
variable        seed world 745823

units		real
atom_style	full
read_restart	restart.lmp.${pid}
read_restart	restart.lmp.0
Reading restart file ...
  restart file = 30 Jul 2021, LAMMPS = 30 Jul 2021
  restoring atom style full from restart
  orthogonal box = (0.39953012 1.5621250 0.48742581) to (17.808042 22.067053 21.725770)
  4 by 4 by 4 MPI processor grid
  restoring pair style lj/cut/tip4p/long/omp from restart
  restoring bond style harmonic/omp from restart
  restoring angle style harmonic/omp from restart
  864 atoms
  576 bonds
  288 angles
Finding 1-2 1-3 1-4 neighbors ...
  special bond factors lj:    0        0        0       
  special bond factors coul:  0        0        0       
     2 = max # of 1-2 neighbors
     1 = max # of 1-3 neighbors
     1 = max # of 1-4 neighbors
     2 = max # of special neighbors
  special bonds CPU = 0.056 seconds
  read_restart CPU = 0.274 seconds
include 	in.setup
variable	out_freq equal 1000
variable	out_freq2 equal 10000
variable	out_freq3 equal 1000

timestep	2.0

neigh_modify    delay 7 every 1

include		in.tip4p
# This is TIP4P/Ice

# create groups ###
group ox type 2
288 atoms in group ox
group hy type 1
576 atoms in group hy

# set charges - beside manually ###
set group ox charge -1.1794
Setting atom values ...
  288 settings made for charge
set group hy charge 0.5897
Setting atom values ...
  576 settings made for charge

# ### TIP3P Potential Parameters ###
pair_style lj/cut/tip4p/long/omp 2 1 1 1 0.1577 8.5
pair_coeff 1 1*2 0.000 0.000
pair_coeff 2 2 0.21084 3.1668
bond_style  harmonic
bond_coeff  1 450 0.9572
angle_style harmonic
angle_coeff 1 55 104.52
kspace_style pppm/tip4p/omp 1.0e-5
pair_modify tail yes

thermo          ${out_freq}
thermo          1000
thermo_style    custom step temp pe etotal epair emol press lx ly lz vol pxx pyy pzz pxy pxz pyz enthalpy

restart 	${out_freq3} restart.lmp.${pid} restart2.lmp.${pid}
restart 	1000 restart.lmp.${pid} restart2.lmp.${pid}
restart 	1000 restart.lmp.0 restart2.lmp.${pid}
restart 	1000 restart.lmp.0 restart2.lmp.0


include         in.dump
dump            myDump all atom ${out_freq2} dump.water.${pid}
dump            myDump all atom 10000 dump.water.${pid}
dump            myDump all atom 10000 dump.water.0
dump            myDump2 all dcd ${out_freq2} dump.dcd
dump            myDump2 all dcd 10000 dump.dcd
dump_modify     myDump append yes
dump_modify     myDump2 append yes


variable natoms 	equal  "count(all)"                        # NUMBER ATOMS
variable H      	equal  "enthalpy/v_natoms"                 # ENTHALPY-per-atom
variable Vol      	equal  "vol/v_natoms"                 # volume-per-atom
fix AVG all 		ave/time ${out_freq} 1 ${out_freq} v_Vol v_H file vol_enthalpy.dat
fix AVG all 		ave/time 1000 1 ${out_freq} v_Vol v_H file vol_enthalpy.dat
fix AVG all 		ave/time 1000 1 1000 v_Vol v_H file vol_enthalpy.dat


timer           timeout 23:50:00 every 1000
New timer settings: style=normal  mode=nosync  timeout=23:50:00

fix 		1 all shake 1e-6 200 0 b 1 a 1
       0 = # of size 2 clusters
       0 = # of size 3 clusters
       0 = # of size 4 clusters
     288 = # of frozen angles
  find clusters CPU = 0.277 seconds
fix             2 all nph iso ${pressure} ${pressure} ${pressureDamp}
fix             2 all nph iso 4250 ${pressure} ${pressureDamp}
fix             2 all nph iso 4250 4250 ${pressureDamp}
fix             2 all nph iso 4250 4250 1000
fix             3 all temp/csvr ${temperature} ${temperature} ${tempDamp} ${seed}
fix             3 all temp/csvr 263.18 ${temperature} ${tempDamp} ${seed}
fix             3 all temp/csvr 263.18 263.18 ${tempDamp} ${seed}
fix             3 all temp/csvr 263.18 263.18 100 ${seed}
fix             3 all temp/csvr 263.18 263.18 100 745823

run             250000
PPPM initialization ...
  extracting TIP4P info from pair style
  using 12-bit tables for long-range coulomb (../kspace.cpp:340)
  G vector (1/distance) = 0.37374449
  grid = 24 24 25
  stencil order = 5
  estimated absolute RMS force accuracy = 0.003129717
  estimated relative force accuracy = 9.4250498e-06
  using double precision FFTW3
  3d grid and FFT values/proc = 2730 288
Last active /omp style is kspace_style pppm/tip4p/omp
Neighbor list info ...
  update every 1 steps, delay 7 steps, check yes
  max neighbors/atom: 2000, page size: 100000
  master list distance cutoff = 10.8154
  ghost atom cutoff = 10.8154
  binsize = 5.4077, bins = 4 4 4
  1 neighbor lists, perpetual/occasional/extra = 1 0 0
  (1) pair lj/cut/tip4p/long/omp, perpetual
      attributes: half, newton on, omp
      pair build: half/bin/newton/omp
      stencil: half/bin/3d
      bin: standard
Per MPI rank memory allocation (min/avg/max) = 9.238 | 9.242 | 9.248 Mbytes
Step Temp PotEng TotEng E_pair E_mol Press Lx Ly Lz Volume Pxx Pyy Pzz Pxy Pxz Pyz Enthalpy 
 1000000     267.5604     -3813.83   -3355.2406     -3813.83            0    5052.2191    17.408512    20.504928    21.238344    7581.2454    5024.9771    4552.6279    5579.0522   -52.896928   -1591.5945   -1255.2008   -2796.6436 
 1001000     262.0565   -3861.6324   -3412.4765   -3861.6324            0    2655.4575    17.436439    20.537822    21.272415    7617.7896     3399.293    2846.9503    1720.1292    808.15491    532.54009   -724.15938   -3117.4614 
 1002000    246.11572   -3824.9037   -3403.0698   -3824.9037            0    5351.4954    17.374366    20.464708    21.196686    7536.7218    3406.9959    6398.7078    6248.7826   -98.667138    385.21468   -248.11914   -2814.8583 
 1003000    253.39924   -3835.9257   -3401.6081   -3835.9257            0    3589.8456      17.4324    20.533065    21.267487    7612.4972    4856.1352    3122.8856    2790.5159    -859.6453    -147.5241    826.72175   -3003.0617 
 1004000    249.23406   -3888.7832   -3461.6045   -3888.7832            0    3905.8522      17.3643    20.452852    21.184406    7523.6305    3983.3267    3771.9073    3962.3226   -934.48803   -222.61114   -1043.0214   -3033.0371 
 1005000    261.06797   -3848.1648   -3400.7033   -3848.1648            0     4174.495    17.313872    20.393454    21.122884    7458.2718    3780.7775    3665.5213    5077.1861   -357.96059    431.30182     1710.415   -2946.6382 
 1006000    274.71151   -3850.9008   -3380.0547   -3850.9008            0    4480.4646    17.327895    20.409972    21.139992    7476.4089    4116.0742    5564.1842    3761.1355    1851.8398    1866.5413   -210.67414   -2891.5238 
 1007000    263.65131   -3845.5848   -3393.6954   -3845.5848            0    3120.6745     17.38011    20.471473    21.203693    7544.1988    3964.5353    3641.2125    1756.2755    1084.3049   -1089.8617   -396.69065   -3050.3451 
 1008000    280.62917   -3842.6671   -3361.6783   -3842.6671            0    2644.7646    17.347022    20.432501    21.163327    7501.1939    3575.0111    799.18705    3560.0955   -80.090625    1741.3394     487.3477   -3072.3484 
 1009000    263.55708   -3823.3783   -3371.6505   -3823.3783            0     5544.727    17.263846     20.33453    21.061852    7393.8096    6377.6311     7167.798    3088.7517   -171.74198    717.04965   -657.86456   -2773.7563 
 1010000    262.94138   -3833.5431   -3382.8705   -3833.5431            0    7754.3555    17.203562    20.263524    20.988306     7316.624     7264.166    6563.2492    9435.6512   -1223.9869    1256.4439    1772.8478   -2555.4385 
 1011000    269.80127   -3852.9896   -3390.5595   -3852.9896            0    4022.7478    17.367844    20.457026    21.188729    7528.2378    3895.8803    4233.3451    3939.0179    -220.0519   -871.69419   -152.70264   -2948.8954 
 1012000    271.67364   -3803.3546   -3337.7152   -3803.3546            0     3756.278    17.467784    20.574742    21.310655    7658.9458    3933.0237     2650.733    4685.0774    1370.0457    494.34595   -37.470949    -2918.147 
 1013000    267.35618   -3807.2733    -3349.034   -3807.2733            0      3738.15    17.405326    20.501175    21.234457    7577.0831     4522.961    2400.8982    4290.5909   -852.91274    624.96588    90.776757   -2935.9535 
 1014000    259.87272   -3847.5851   -3402.1722   -3847.5851            0    3595.0157    17.415753    20.513457    21.247178    7590.7094    3387.2306    4695.4686    2702.3479   -417.03646    502.99624      960.933   -3004.1942 
 1015000     265.8936   -3847.4407   -3391.7081   -3847.4407            0    2369.4024    17.469907    20.577242    21.313245    7661.7387    2315.2405     3909.659    883.30763   -186.94798    28.607747    8.4058469   -3126.9544 
 1016000    263.41047   -3847.9128   -3396.4362   -3847.9128            0    2769.1227    17.437577    20.539163    21.273804    7619.2818    747.64701    3691.5536    3868.1676   -812.75007    1572.6162    102.10412   -3088.7329 
 1017000    269.16619   -3824.0403   -3362.6987   -3824.0403            0    5177.6145    17.322262    20.403336    21.133119    7469.1188    4430.5043    5163.5381    5938.8011    816.43334   -237.68998     425.4942   -2798.7041 
 1018000    262.07956   -3885.0685   -3435.8731   -3885.0685            0    2602.1557    17.374127    20.464426    21.196394    7536.4105    2847.8374    1486.1498      3472.48    446.27256    1625.9142   -1313.3422   -3149.8681 
 1019000    267.13361   -3849.3541   -3391.4962   -3849.3541            0    3728.3681    17.369917    20.459468    21.191258    7530.9336     4848.591    2831.4468    3505.0666    1037.6963   -449.31949    1345.0409    -2982.006 
 1020000    251.98004    -3870.493   -3438.6079    -3870.493            0    6524.5352    17.358661     20.44621    21.177526    7516.3027    5724.8312    6836.2533     7012.521   -1729.0902   -2232.2577    631.63585   -2723.4042 
 1021000     261.9922   -3880.8306    -3431.785   -3880.8306            0    6520.8108    17.357291    20.444596    21.175854    7514.5225    8274.5207    5947.4835    5340.4282     248.9395    39.274276   -1631.7874   -2717.1588 
 1022000    271.21121   -3864.3841   -3399.5374   -3864.3841            0    4306.8721    17.333686    20.416792    21.147056    7483.9062    3303.1188    4220.2821    5397.2155   -1024.1214     128.7027    1370.0742   -2929.4634 
 1023000    257.59925    -3886.925   -3445.4087    -3886.925            0    4984.2655    17.257495     20.32705    21.054104    7385.6526    5901.4494    4278.1677    4773.1795   -951.83754    1509.9592   -2049.2657   -2908.5427 
 1024000    288.07382   -3859.1815   -3365.4328   -3859.1815            0    3496.6411    17.372479    20.462485    21.194383    7534.2659    4635.4815    4741.0038    1113.4381   -713.86619   -297.35197    551.89566   -2981.2235 
 1025000    258.25939   -3834.6231   -3391.9754   -3834.6231            0    4454.7958     17.19775    20.256678    20.981215    7309.2105    3705.8945    6196.8461    3461.6467    1313.0839   -818.99333    974.79848    -2917.106 
 1026000    261.66092   -3824.8635   -3376.3856   -3824.8635            0    3935.1759    17.347351    20.432888    21.163728    7501.6205    3036.1518    4989.9173    3779.4587   -787.31859   -1108.1521   -920.08044   -2945.8638 
 1027000    269.42111   -3835.8722   -3374.0936   -3835.8722            0    3486.2917    17.341621    20.426139    21.156737    7494.1893    4620.2978    2919.0833     2919.494   -518.54389    614.80213    307.05849   -2993.0592 
 1028000    262.96612   -3887.8277   -3437.1128   -3887.8277            0    5409.3918    17.370264    20.459876    21.191681    7531.3844    6609.2749     4929.004    4689.8966    -456.6231   -380.60881   -1464.9263   -2842.9586 
 1029000    253.07756   -3871.3252   -3437.5589   -3871.3252            0    2780.4264     17.41951    20.517881    21.251761    7595.6223    1847.8069    2279.7976    4213.6745   -560.22686    600.76662    673.09598    -3129.559 
 1030000     269.5433    -3856.305    -3394.317    -3856.305            0    5524.9536    17.335259    20.418645    21.148975     7485.944    4609.3137    5817.3708    6148.1763   -383.17988   -1130.5892   -653.80801   -2791.1312 
 1031000    281.27005   -3880.2867   -3398.1994   -3880.2867            0    2515.9422    17.487049    20.597434    21.334159    7684.3152    1694.7451    2648.1589    3204.9225   -280.56973    53.991098   -661.87421   -3116.2432 
 1032000    257.41079   -3808.5321   -3367.3388   -3808.5321            0    4723.9226    17.371515     20.46135    21.193208    7533.0121    4621.5767    5474.2612    4075.9298    1373.1532   -329.82597    1157.1959   -2848.3628 
 1033000    264.08389   -3861.6711   -3409.0403   -3861.6711            0    2354.0993    17.416593    20.514446    21.248202    7591.8072    1294.9214    2980.0911    2787.2855    211.37062     -60.5532    1119.8851   -3148.3974 
 1034000    253.47311   -3882.3418   -3447.8975   -3882.3418            0     2897.604    17.329215    20.411526    21.141601    7478.1165    2830.9157    2572.6049    3289.2913    321.64063    -238.3983    -1127.411   -3131.8829 
 1035000    255.12895   -3879.6905   -3442.4082   -3879.6905            0    4787.3734     17.32484    20.406373    21.136264    7472.4545    4429.5441    4403.3406    5529.2355   -576.65703    89.843737    128.87593   -2920.6894 
 1036000    249.60369   -3866.8929   -3439.0807   -3866.8929            0    5194.8366    17.332935    20.415908    21.146141    7482.9345    6368.2957    4809.3828    4406.8313   -975.89117     403.5337    730.82524   -2872.1634 
 1037000    282.77735   -3896.2186   -3411.5479   -3896.2186            0    3829.0309    17.383904    20.475942    21.208322    7549.1407    4660.3235    3604.5027    3222.2664   -1048.7576   -868.97684   -619.69969   -2989.9851 
 1038000     259.1149   -3860.5175   -3416.4035   -3860.5175            0    3820.7973    17.358794    20.446366    21.177688    7516.4751     2722.025    4692.3462    4048.0207    291.81048   -1418.7179   -54.449816   -2997.5674 
 1039000    259.26144   -3866.9108   -3422.5455   -3866.9108            0    2851.0689    17.384666     20.47684    21.209252    7550.1335    3049.7315    3223.7936    2279.6815     1166.725   -1097.2973    1.5116359   -3108.6116 
 1040000    270.01411     -3886.65   -3423.8551     -3886.65            0     3699.924    17.348196    20.433883    21.164758    7502.7166    4045.2291     3274.786    3779.7568   -937.56635    621.34334   -1231.1509   -3019.0115 
 1041000    266.46808   -3867.1167   -3410.3995   -3867.1167            0    3524.8771    17.393885    20.487699    21.220499    7562.1517    1622.5575     4255.492    4696.5817   -234.86616    673.98487    160.47677   -3021.6541 
 1042000    258.74157   -3853.3449   -3409.8707   -3853.3449            0    5454.8629    17.326981    20.408895    21.138876    7475.2251    5455.6836    5185.4338    5723.4713    593.01569    266.52462   -1162.6412   -2815.1898 
 1043000    266.32644   -3891.4389   -3434.9645   -3891.4389            0    4932.4222      17.4274    20.527176    21.261388     7605.949    5399.8473    6250.2349    3147.1845   -1260.7274    1119.5394    1055.5622   -2887.8358 
 1044000     265.5822   -3887.9357   -3432.7369   -3887.9357            0    5993.1038    17.296111    20.372534    21.101215    7435.3425    8248.9821    5860.8039    3869.5255    1159.1298   -618.09827    100.22225   -2782.8636 
 1045000    253.76432   -3915.4806   -3480.5373   -3915.4806            0    3364.9866    17.306085    20.384282    21.113383    7448.2124    3367.2905    4190.1065    2537.5629    295.07379    1038.8571   -1703.1901   -3115.0172 
 1046000    268.14628   -3877.2273   -3417.6337   -3877.2273            0    4447.8432    17.328616    20.410821    21.140871    7477.3417     5829.768    4470.7188    3043.0429     410.9862   -348.64631   -1052.8215   -2932.5993 
 1047000    263.93422   -3898.5046   -3446.1304   -3898.5046            0    3166.2008    17.318817    20.399279    21.128916    7464.6636    4078.6731    3315.7455    2104.1838   -1187.4552    130.68317   -423.41053   -3101.4436 
 1048000    259.32978   -3889.2062   -3444.7238   -3889.2062            0    5158.0652    17.251295    20.319747     21.04654    7377.6951    4250.7291    6574.2474     4649.219    387.48361     1505.449    678.17245    -2889.736 
 1049000    267.12762   -3866.9194   -3409.0718   -3866.9194            0    6278.4273    17.255297     20.32446    21.051422    7382.8303    4747.9392    7930.3377    6157.0048    1566.1043    583.47669    1178.7709   -2733.0672 
 1050000    254.53328   -3875.8766   -3439.6153   -3875.8766            0    5773.6226    17.234293    20.299721    21.025798    7355.9036    5577.3958      6067.58    5675.8919    1240.2358   -357.29461   -557.28115   -2820.2308 
 1051000    265.29057   -3844.0466   -3389.3477   -3844.0466            0    3392.1445    17.296441    20.372923    21.101618    7435.7686    4054.0493    4129.0519    1993.3323    449.67061    63.602002   -798.59081   -3021.4931 
 1052000    261.44268   -3869.1744   -3421.0706   -3869.1744            0    5825.1557    17.269495    20.341184    21.068744      7401.07    5329.9853    6777.8773    5367.6046   -749.77523   -1176.7065   -1670.3096   -2792.3206 
 1053000    265.25385   -3887.3092   -3432.6732   -3887.3092            0    4947.0074    17.277831    20.351002    21.078913    7411.7922    6413.5554    4549.1552    3878.3116    902.95133      516.439    1276.8379   -2897.9344 
 1054000    262.32629   -3828.7847   -3379.1664   -3828.7847            0     6556.523    17.301788    20.379221    21.108141    7442.6665    7024.8516    6031.9564    6612.7612    507.22368   -521.65417    -875.8327   -2667.4974 
 1055000    257.12919   -3873.3235   -3432.6129   -3873.3235            0     4127.675    17.498833    20.611314    21.348535    7699.8603    4152.5496    4213.1835    4017.2921    760.17982    748.70712     492.7795   -2969.0974 
 1056000    275.49574   -3845.4381   -3373.2478   -3845.4381            0    4833.2331    17.450554    20.554448    21.289636    7636.3053    4506.4336    5565.6421    4427.6237    1143.4328   -92.296076    547.41274   -2834.9819 
 1057000    260.09761   -3850.8342   -3405.0358   -3850.8342            0    3915.8902    17.472562     20.58037    21.316485    7665.2329    2650.0717    3835.9887    5261.6103    552.63366    89.119852    600.01097   -2967.2802 
 1058000    259.60325   -3868.4351    -3423.484   -3868.4351            0     2651.583    17.420115    20.518595      21.2525    7596.4146    2053.8652    2740.2766    3160.6072   -158.53509    880.98286    1108.5705    -3129.726 
 1059000    267.02399   -3850.3423   -3392.6723   -3850.3423            0    3055.8375    17.412269    20.509353    21.242928    7586.1548    3479.0773    3356.4069    2332.0281    193.94253    472.31564   -335.18045   -3054.5858 
 1060000    255.19261   -3875.7158   -3438.3244   -3875.7158            0    4165.0947     17.35602      20.4431    21.174304     7512.873     4668.162    3167.3196    4659.8025     -747.046    1402.6666   -216.28095   -2981.9652 
 1061000    259.21368   -3853.7397   -3409.4563   -3853.7397            0    4346.4987    17.361661    20.449744    21.181186    7520.2008    4788.5411    5367.0136    2883.9416   -35.565865     1123.011    1606.6021   -2932.7566 
 1062000    250.59908   -3804.7924   -3375.2742   -3804.7924            0    4858.9475    17.333977    20.417135    21.147411    7484.2834    2902.6461    5894.6698    5779.5265   -746.91941    1059.2596    876.80893   -2844.9171 
 1063000    268.89069    -3818.114   -3357.2446    -3818.114            0    2998.8573    17.440163    20.542208    21.276958    7622.6715    2612.2788    2445.4647    3938.8284   -470.81417    1085.6951    73.098644   -3023.8651 
 1064000    264.67963   -3850.8782   -3397.2264   -3850.8782            0    5602.6124    17.315455    20.395319    21.124815    7460.3181    3937.2174    6776.9093    6093.7104    1783.7904    31.646994    776.97895   -2787.6561 
 1065000    262.10032   -3922.0339   -3472.8029   -3922.0339            0     3524.726    17.394075    20.487923    21.220731    7562.3996     4511.022    1682.0835    4381.0725   -196.58635    1122.7568    1344.7546   -3084.0615 
 1066000    285.03566   -3859.1512   -3370.6099   -3859.1512            0    2723.1872    17.414303    20.511749    21.245409    7588.8137    3351.5227    3075.3549    1742.6841   -574.16405   -903.73001    735.44136    -3069.221 
 1067000    251.64079   -3861.8404   -3430.5367   -3861.8404            0    4182.1501    17.365873    20.454705    21.186325    7525.6755    3190.9582    4517.0819    4838.4102    215.49217    933.62501     724.9239   -2971.5279 
 1068000    263.22976   -3860.2571   -3409.0903   -3860.2571            0    5000.2614    17.325318    20.406936    21.136847     7473.073    5425.4793    4405.4455    5169.8594    589.29205     448.5086    19.552989   -2864.1262 
 1069000    241.46868   -3844.4892   -3430.6202   -3844.4892            0    4286.9744     17.30459    20.382522     21.11156    7446.2835    3248.5863    4521.9381    5090.3989   -576.04723   -366.18363   -143.01032   -2965.0701 
 1070000    266.17165   -3859.4586   -3403.2495   -3859.4586            0    4894.0106    17.288796    20.363919    21.092291    7425.9133    2994.2241    5805.5387     5882.269   -351.52439   -131.79385    228.90726   -2873.2314 
 1071000    264.32768   -3865.6344   -3412.5858   -3865.6344            0    3406.7347    17.316916     20.39704    21.126597    7462.2061    4551.9694    2044.8232    3623.4115   -138.31369    1294.3812   -892.51991   -3041.8356 
 1072000    281.57414   -3801.2266   -3318.6182   -3801.2266            0    3148.3751    17.439327    20.541224    21.275938    7621.5756    3161.9223    1897.3223    4385.8807   -379.02528   -154.32591    94.097031   -2968.6673 
 1073000    251.54856   -3842.1128   -3410.9671   -3842.1128            0    3769.7667    17.410438    20.507197    21.240694    7583.7621    2952.9883    4746.9751    3609.3366   -47.079667    854.82199    466.88836   -2994.0257 
 1074000    260.06713   -3844.3986   -3398.6524   -3844.3986            0    5645.4283    17.255536    20.324742    21.051714    7383.1376     5835.072    5002.7707    6098.4423    2220.2971    767.65571    427.43138   -2790.7782 
 1075000    257.54663   -3826.2445   -3384.8184   -3826.2445            0    5908.3926    17.341868     20.42643    21.157039      7494.51    5758.5923    6105.7615    5860.8239   -752.44215    469.05758   -1086.3219   -2739.0326 
 1076000    248.85219   -3832.9561    -3406.432   -3832.9561            0    5158.3997     17.32665    20.408505    21.138472    7474.7965    6687.7979    5348.8564    3438.5449   -1693.2071    1099.5892   -39.999192   -2844.1033 
 1077000    255.61629   -3854.3781   -3416.2606   -3854.3781            0    6014.1018    17.315801    20.395726    21.125236    7460.7643    6332.0477    5830.4766    5879.7811     -833.612     857.6559   -219.27753   -2761.8806 
 1078000    271.01548   -3824.9794   -3360.4682   -3824.9794            0    4045.6501    17.436933    20.538404    21.273018    7618.4374    4187.2625    4241.1135    3708.5745   -499.18073   -1077.7518    134.95841   -2910.9677 
 1079000    272.68162   -3869.8734   -3402.5064   -3869.8734            0    3683.4266    17.404954    20.500737    21.234004     7576.598    4824.3985    2558.0858    3667.7955   -777.41608    374.93071    185.20034   -2995.4992 
 1080000    273.41339   -3837.8568   -3369.2356   -3837.8568            0    2765.3267    17.531854    20.650208    21.388821    7743.5326    3406.9023    2036.5247     2852.553   -69.752551   -139.29592    1999.1914   -3056.9432 
 1081000    266.11398   -3855.3547   -3399.2445   -3855.3547            0    4084.0466    17.390884    20.484165    21.216838    7558.2384    3103.5928    6215.4039     2933.143   -938.15069   -644.69381     224.0678   -2949.0635 
 1082000    258.70857   -3901.2053   -3457.7876   -3901.2053            0    3796.0222      17.3722    20.462157    21.194043    7533.9031    2167.8061    5244.2219    3976.0386    228.91607   -306.74794   -571.36458   -3040.7025 
 1083000    264.36681   -3895.1963   -3442.0807   -3895.1963            0    3852.0778      17.3538    20.440484    21.171595    7509.9893    4535.8611     3114.982    3905.3903   -761.16555    634.81572    73.055035   -3020.1799 
 1084000    289.67245   -3849.4976   -3353.0089   -3849.4976            0    3074.9511    17.392174    20.485684    21.218412    7559.9206    3600.4118    3534.7533    2089.6883    291.12716   -410.00554    658.51712   -3013.9842 
 1085000    266.12479    -3837.005   -3380.8762    -3837.005            0    4866.5273    17.296924    20.373491    21.102206    7436.3905    1878.7699    6652.7999    6068.0122   -273.44405   -384.85703    801.36474    -2853.091 
 1086000    261.76439   -3827.2212    -3378.566   -3827.2212            0    4681.1516    17.216332    20.278565    21.003885    7332.9292    3767.2407    4863.7769    5412.4374    842.31172     392.6166   -440.86529   -2877.9484 
 1087000    261.68392   -3856.3969   -3407.8796   -3856.3969            0    5167.3332    17.222694    20.286058    21.011646     7341.061    3722.9696    6071.6429    5707.3872    1043.0612    643.15585    605.77157   -2854.6553 
 1088000     276.6747   -3848.1361   -3373.9251   -3848.1361            0    5407.5823    17.349859    20.435842    21.166787    7504.8744    5967.4364    4795.1452    5460.1653    447.92717   -2161.6938    1436.2479   -2782.0604 
 1089000    247.73188   -3866.3104   -3441.7064   -3866.3104            0    4195.6868    17.350098    20.436123    21.167079    7505.1842    5599.7676    3586.5526    3400.7402     709.9939   -1468.2152    868.33926   -2982.4658 
 1090000    266.58061   -3865.1992   -3408.2891   -3865.1992            0    5932.9792    17.297328    20.373967    21.102699    7436.9115    6345.0587    7431.4316    4022.4472   -72.588514    150.47942   -1115.7853   -2764.7998 
 1091000    250.87741   -3880.1692   -3450.1739   -3880.1692            0    4927.9646    17.409066     20.50558     21.23902     7581.969    6289.1834    5211.3726    3283.3376   -1233.9438   -571.46587    803.94244    -2905.263 
 1092000    272.67759   -3865.4759   -3398.1159   -3865.4759            0     4202.729    17.492343    20.603669    21.340617    7691.2957    4732.1497    6019.5694     1856.468   -318.85188    1239.0264    702.71926   -2926.6972 
 1093000    253.77545   -3867.8913   -3432.9289   -3867.8913            0    2441.3784     17.42079    20.519389    21.253323    7597.2972    3489.4629     2243.068    1591.6043   -684.50687   -730.98163   -299.00177   -3162.4271 
 1094000    261.09215   -3878.0528   -3430.5498   -3878.0528            0    4885.2469    17.346313    20.431665    21.162461    7500.2737    4732.4104    5162.9512    4760.3791    832.29028    364.62807   -109.44948    -2896.183 
 1095000    256.98904    -3882.143   -3441.6726    -3882.143            0    4276.4659    17.447557    20.550918    21.285979    7632.3713    5206.9374    2651.9523    4970.5081   -516.13103   -467.47268     -790.396   -2965.6579 
 1096000    272.68693   -3858.3075   -3390.9315   -3858.3075            0    4727.7532    17.402775     20.49817    21.231344     7573.752    6618.9606    2435.3079    5128.9911   -454.37799   -759.94649    -88.24979   -2868.7256 
 1097000       259.72   -3862.7746   -3417.6234   -3862.7746            0     3467.576    17.483613    20.593386    21.329966    7679.7859    3751.8121    3527.3537    3123.5622   -95.572866   -807.22046   -562.49243   -3029.2486 
 1098000    258.92582   -3888.0499   -3444.2599   -3888.0499            0    2674.0583    17.458821    20.564186    21.299721    7647.1632    1824.0145    5301.0969    897.06356    161.10739    905.66053   -406.98969   -3146.0328 
 1099000    267.88207   -3888.8836   -3429.7429   -3888.8836            0    3971.9206    17.460143    20.565742    21.301334    7648.8998    5937.5894     2731.122    3247.0504    -640.7177   -1063.9938   -572.23545   -2986.6698 
 1100000    252.97202   -3858.6485   -3425.0631   -3858.6485            0    2768.4644    17.368141    20.457376    21.189091    7528.6237    2824.5579    2604.1131    2876.7223   -841.01796    358.70274    469.14759   -3121.0933 
 1101000    261.29327   -3887.7123   -3439.8646   -3887.7123            0    2826.4058    17.409146    20.505675    21.239118    7582.0741    3046.4753    2422.4804    3010.2618   -806.73683   -152.33674    1281.0511   -3127.3298 
 1102000    267.20325   -3842.4738   -3384.4966   -3842.4738            0    5015.9453     17.36009    20.447893    21.179269    7518.1586    3475.7082    4962.4177    6609.7101    538.50932    170.95956   -254.62803   -2834.5251 
 1103000    274.15781   -3862.0884   -3392.1913   -3862.0884            0    4914.5246    17.340561     20.42489    21.155443    7492.8146    3986.3107    5983.2494    4774.0138    1513.8358   -185.02977   -155.80236   -2855.1566 
 1104000    259.05057   -3850.5869   -3406.5831   -3850.5869            0    4990.2365    17.342524    20.427202    21.157838    7495.3596    4037.8884    7316.6524    3616.1688    455.05959   -2052.1553    138.49876   -2861.0897 
 1105000    273.32803   -3844.1923   -3375.7174   -3844.1923            0    6203.5164     17.34454    20.429577    21.160298    7497.9738    9138.8896    4804.6686     4666.991   -1160.9969   -469.06137    315.88574   -2697.3613 
 1106000     251.2348   -3873.9829   -3443.3751   -3873.9829            0    4330.4613    17.390265    20.483435    21.216083    7557.4312     4433.936    4052.3496    4505.0981    -524.6324   -99.455539    443.92033    -2966.083 
 1107000    255.97434   -3872.4262    -3433.695   -3872.4262            0     2731.653    17.361487    20.449538    21.180973    7519.9739    690.50868    2852.5517    4651.8986   -627.35541    41.238419    358.93616   -3134.1115 
 1108000    261.95757    -3865.014   -3416.0276    -3865.014            0    2916.5858    17.430334    20.530631    21.264966    7609.7904    1268.5392    4888.7076    2592.5106   -137.71728    835.34536    1406.7308   -3092.3421 
 1109000    254.06797   -3842.5496   -3407.0858   -3842.5496            0    7636.7337    17.317555    20.397792    21.127376    7463.0316    7892.3448    6834.0949    8183.7613   -1098.7575    -219.3151   -785.26894   -2575.8987 
 1110000    269.47211   -3870.0973   -3408.2313   -3870.0973            0    5024.3243    17.384336    20.476452     21.20885    7549.7043    5041.4547    5731.4804    4300.0378   -634.82635    8.0920333   -261.48217   -2855.0297 
 1111000    281.55276   -3860.2687   -3377.6969   -3860.2687            0    5359.2268    17.335767    20.419243    21.149595    7486.6021    5860.7996    4332.6311    5884.2498    831.27231    821.85763    563.41256   -2792.5529 
 1112000     270.4313   -3864.5082   -3400.9982   -3864.5082            0    2721.8069    17.467141    20.573985    21.309871    7658.1004    3935.6627     4169.153    60.605112   -298.21377    42.457623   -838.05051   -3097.0117 
 1113000    267.99647   -3866.6651   -3407.3283   -3866.6651            0    5066.3895    17.390477    20.483685    21.216342    7557.7079    3807.0119    4789.3618    6602.7948   -1437.6848    648.22883    656.22902   -2848.9037 
 1114000    281.50487   -3848.4056   -3365.9159   -3848.4056            0    4591.1867    17.435389    20.536585    21.271134    7616.4137    5832.9647    3127.5674     4813.028   -431.20505    109.33651    1099.4945    -2855.938 
 1115000    252.89962   -3820.1318   -3386.6704   -3820.1318            0    5690.9478    17.404422    20.500111    21.233355    7575.9035    5219.2742     4383.872    7469.6972   -904.88121   -914.91629    -502.1104   -2757.8959 
 1116000     251.1585   -3856.9496   -3426.4725   -3856.9496            0     2464.417    17.496197     20.60821     21.34532    7696.3818    2546.9444    2885.1913    1961.1151    -412.0099    474.32756   -179.32261   -3149.8569 
 1117000    256.54553   -3875.6982    -3435.988   -3875.6982            0    2495.9745    17.379593    20.470864    21.203062    7543.5254    2386.1171    2143.3413    2958.4651   -794.51052    2052.5735   -1084.3056   -3161.3944 
 1118000    255.51453   -3862.2198   -3424.2766   -3862.2198            0     3860.436    17.433773    20.534682    21.269163    7614.2964    2702.0614    3453.7823    5425.4644    190.04251   -59.598886    564.14225   -2995.5879 
 1119000    261.09312    -3839.571   -3392.0663    -3839.571            0    4988.3299    17.355698     20.44272    21.173911    7512.4542    3952.0937    5105.7779    5907.1181    1507.9191    425.22728   -322.00765   -2845.5377 
 1120000    257.21259   -3860.3724   -3419.5188   -3860.3724            0    3415.0168      17.3351    20.418458    21.148782    7485.7387    2677.9463    2668.8514    4898.2527   -1253.7196    304.78579    684.18672   -3046.6952 
 1121000    260.44308    -3875.293   -3428.9025    -3875.293            0    5259.4994    17.313242    20.392712    21.122115    7457.4572    5861.4656    5256.8919    4660.1406    1377.1855    1753.5423    926.64216   -2856.8827 
 1122000    279.62753   -3872.0702   -3392.7982   -3872.0702            0    2680.8345     17.48278    20.592405     21.32895    7678.6884    4544.5366    2888.5721    609.39497   -703.71026   -11.414245   -649.88478   -3092.5828 
 1123000     253.6005   -3882.8419   -3448.1794   -3882.8419            0    4235.5312    17.390969    20.484264    21.216941    7558.3487    3732.2378    4122.4097     4851.946    1006.2308    60.464316    320.87538   -2981.2935 
 1124000    264.61455   -3865.2015   -3411.6612   -3865.2015            0    2745.4291    17.429686    20.529867    21.264176    7608.9415     1465.924     4210.639    2559.7242    1924.7304   -192.41059    1457.7543   -3107.0048 
 1125000    275.88922   -3853.2457    -3380.381   -3853.2457            0    4987.8549    17.363728    20.452178    21.183707    7522.8861     5211.531    4709.3328    5042.7008    87.137338   -196.50786    1174.7365   -2833.1456 
 1126000    271.36996   -3875.9822   -3410.8634   -3875.9822            0    7791.2698    17.303799    20.381589    21.110594    7445.2614    9548.5139    8030.7088    5794.5868   -764.85307    1015.7506    567.72478   -2564.8756 
 1127000    266.58511   -3869.2159   -3412.2982   -3869.2159            0    5165.9677    17.390005    20.483129    21.215766    7557.0923     4870.864    4932.4792    5694.5599    96.750184   -257.28936    1010.7743   -2842.9443 
 1128000    264.94944   -3856.0887   -3401.9745   -3856.0887            0    4483.3269    17.330978    20.413602    21.143752    7480.3991    5398.0726    3912.9748    4138.9334    47.732203   -715.04326    1489.7146   -2912.8706 
 1129000    269.03591   -3842.4943    -3381.376   -3842.4943            0    3474.3909    17.373291    20.463442    21.195374     7535.323    3369.6125    3718.3621    3335.1981    512.38159    968.25744    1782.5066    -2999.558 
 1130000    255.52138   -3876.7073   -3438.7524   -3876.7073            0    3580.3974    17.309989    20.388881    21.118147    7453.2552    5138.5474    2082.7723    3519.8726     1718.491   -875.93789    706.35418   -3049.5701 
 1131000    266.20669   -3915.4332   -3459.1641   -3915.4332            0    5025.9119    17.342872    20.427612    21.158263    7495.8113    5102.3146    4746.3987    5229.0225    577.38656    259.39514    420.79742   -2909.7378 
 1132000    273.85217   -3855.4213   -3386.0481   -3855.4213            0    2615.6087    17.375553    20.466106    21.198134    7538.2666    3279.5421    2690.5495    1876.7345    160.48774     528.5598   -189.78238   -3098.4936 
 1133000    269.72797   -3891.1679   -3428.8634   -3891.1679            0    3196.3675    17.308689    20.387349     21.11656     7451.575    3147.1552    1790.5137    4651.4335    401.84392     1150.925   -362.62334   -3081.5027 
 1134000    245.72732    -3881.724   -3460.5558    -3881.724            0    1362.4512    17.502681    20.615847     21.35323    7704.9415    1696.0418    213.88067    2177.4312    134.27925   -26.886004    1056.5764    -3307.459 
 1135000    244.36182   -3874.7614   -3455.9336   -3874.7614            0    4648.8929    17.352885    20.439406    21.170479    7508.8015     4928.006    4773.6719    4245.0008   -474.91915   -73.960987    759.09379   -2946.8419 
 1136000    253.83407   -3832.2702   -3397.2072   -3832.2702            0    4711.5026    17.312779    20.392167     21.12155    7456.8591    4259.1776    4389.1501    5486.1801   -203.90495   -454.32758   -729.56514   -2884.8283 
 1137000    257.19533   -3891.7907   -3450.9667   -3891.7907            0    2080.2624    17.436276     20.53763    21.272216    7617.5764    2198.8462    3129.8298    912.11111    595.29415   -799.16583   -271.38687   -3219.8609 
 1138000       269.23    -3842.681     -3381.23    -3842.681            0    4147.5009    17.309412    20.388201    21.117443    7452.5099    4182.3224    4479.5352    3780.6451   -283.53491   -682.99871   -424.44896   -2930.4497 
 1139000    244.18806   -3898.2243   -3479.6944   -3898.2243            0    2602.3395    17.328693    20.410911    21.140965    7477.4414    1663.7924     3358.792    2784.4341   -171.85587   -401.40248    1238.6907   -3195.9071 
 1140000    263.99438   -3876.8126   -3424.3353   -3876.8126            0    2636.4053    17.404152    20.499793    21.233025     7575.551    1703.1196    3116.6306    3089.4657    24.585101    644.42168   -671.40487   -3133.0609 
 1141000    244.37504   -3869.2426   -3450.3921   -3869.2426            0    2453.2534    17.359427    20.447112    21.178461    7517.2978    2923.5886    2079.6948    2356.4766    702.80193    10.424369   -98.476966   -3181.4369 
 1142000    259.66818   -3898.5082   -3453.4458   -3898.5082            0     3392.076    17.284483    20.358838    21.087029    7420.3571    3326.2357    3130.5757    3719.4166    210.47634   -234.49291    -615.4738   -3086.3611 
 1143000    251.60838   -3871.5624   -3440.3143   -3871.5624            0    3982.7015    17.274834    20.347473    21.075258    7407.9368    3962.8158    5078.7391    2906.5495     1206.116   -651.19593   -800.96846   -3010.0345 
 1144000    265.31056   -3884.0053   -3429.2721   -3884.0053            0    3243.1757    17.383944     20.47599    21.208372    7549.1936    2833.7578    2987.9428    3907.8266   -1224.7368   -1070.8801    212.92257   -3072.2074 
 1145000    276.73597   -3879.4024   -3405.0864   -3879.4024            0    4106.3238    17.502757    20.615936    21.353323    7705.0418    3219.0665    4278.4875    4821.4175    793.16241   -1137.0429    1343.0833   -2943.6583 
 1146000    254.72903   -3875.5932   -3438.9964   -3875.5932            0    2650.4589    17.381086    20.472624    21.204885    7545.4705    1770.6642    2115.7895    4064.9229   -1178.5775   -1580.6377    22.730521   -3147.3321 
 1147000    252.03958   -3883.2104   -3451.2232   -3883.2104            0    4494.7736    17.349988    20.435994    21.166944    7505.0414    2146.4436    6961.7573    4376.1198    595.86948    564.08373    141.44597   -2959.2553 
 1148000    262.08939   -3908.2916   -3459.0793   -3908.2916            0       5730.8    17.303954    20.381773    21.110784    7445.4624    3787.5021    6445.0159     6959.882    63.521616    1438.1739   -328.39763   -2836.8037 
 1149000    277.39902     -3851.89   -3376.4376     -3851.89            0    5577.2348    17.379616    20.470892    21.203091    7543.5563    5853.8803    3273.7644    7604.0598    1233.8581   -1276.8201   -674.65042    -2762.858 
 1150000    256.61333   -3847.4346   -3407.6081   -3847.4346            0    4745.4845    17.450755    20.554685    21.289881    7636.5689    4401.6686    4690.2797    5144.5052    1170.0049    45.590196   -125.83344   -2879.0962 
 1151000    276.40405   -3871.5852   -3397.8381   -3871.5852            0    4659.4075    17.451033    20.555012    21.290219    7636.9333    4834.7481    4755.6557    4387.8188   -1146.1493   -138.10382    -9.693381    -2878.888 
 1152000    247.29903   -3867.9811   -3444.1191   -3867.9811            0    2264.9646    17.453818    20.558292    21.293617    7640.5904    1564.6662    1763.4001    3466.8274    1884.9633   -1658.8799    58.455568   -3191.7337 
 1153000    274.37243   -3902.0065   -3431.7415   -3902.0065            0    2521.9057    17.430965    20.531374    21.265737    7610.6172    3765.3019    2897.3768    903.03825    489.97071   -1607.3482   -197.55282   -3151.8275 
 1154000    244.12824   -3875.4888   -3457.0614   -3875.4888            0    3951.4211      17.4579    20.563101    21.298598     7645.953    4458.7624     3609.206    3786.2947   -1623.5359   -73.268105    609.68575   -3016.4448 
 1155000     251.8494   -3867.4706   -3435.8094   -3867.4706            0    5920.9335    17.318704    20.399145    21.128778    7464.5174    4957.9643    5308.6273    7496.2089   -2.5030296   -112.03101   -716.21798   -2791.2428 
 1156000    244.54828   -3882.7387   -3463.5914   -3882.7387            0    4393.3095    17.323018    20.404227    21.134041    7470.0972       5060.1    1669.3812    6450.4473    928.48436     19.46466   -497.33776    -2984.968 
 1157000     250.8812   -3874.5963   -3444.5945   -3874.5963            0    2165.6355    17.402072    20.497342    21.230488     7572.835    1712.2279     2528.197    2256.4816   -433.26131    230.44506   -833.46485   -3205.4173 
 1158000    262.32334    -3911.139   -3461.5258    -3911.139            0    3320.7148    17.400243    20.495188    21.228256    7570.4473     3128.915    3867.2644     2965.965   -733.00274    63.153694    903.25889   -3094.8949 
 1159000    262.54239   -3887.9609   -3437.9723   -3887.9609            0    2699.2415    17.424468    20.523722     21.25781    7602.1105    3447.0235    1910.7797    2739.9215    306.15276   -564.98356   -47.432295   -3138.7101 
 1160000    268.73132   -3845.3008   -3384.7045   -3845.3008            0    4363.0146    17.395368    20.489446    21.222309    7564.0861    5330.1695    5135.5401    2623.3342   -19.510886   -782.37621   -935.89196    -2903.401 
 1161000    251.65702   -3863.2854   -3431.9539   -3863.2854            0    5524.4535    17.316318    20.396335    21.125867    7461.4329    6736.4267    4211.4408    5625.4931    568.39917   -560.42924    614.89826   -2830.7975 
 1162000    249.40656   -3854.0232   -3426.5489   -3854.0232            0    4549.6934    17.413977    20.511365    21.245012    7588.3879     5418.647    4975.8703    3254.5628     1119.529    120.64294   -1539.5592   -2923.0395 
 1163000    257.80819    -3863.478   -3421.6036    -3863.478            0    3722.4789    17.451642    20.555729    21.290962    7637.7328    2907.3282    3440.8634    4819.2451   -1190.3703    1095.0695   -1949.3625   -3006.9622 
 1164000    253.60638   -3879.8832   -3445.2105   -3879.8832            0    6160.6291    17.409077    20.505594    21.239034     7581.984    6624.9434    6858.4439    4998.5001   -629.97739    764.08024    958.48402   -2763.9961 
 1165000    265.45559   -3850.0273   -3395.0455   -3850.0273            0     6907.201    17.308735    20.387403    21.116616    7451.6346    7093.5656    6110.7105    7517.3269    68.996891    129.53017   -305.02688   -2644.4093 
 1166000    258.23864   -3842.0514   -3399.4392   -3842.0514            0    3654.8182    17.381142    20.472689    21.204952     7545.543    4263.1388    2596.4248    4104.8911    559.78955      511.103   -729.90543   -2997.2483 
 1167000    258.45307   -3909.3724   -3466.3927   -3909.3724            0    3987.1252    17.453471    20.557884    21.293194    7640.1352    4648.6896    2259.0083    5053.6776    966.96411    776.71513    1642.8273   -3022.1331 
 1168000    279.98618   -3859.5953   -3379.7086   -3859.5953            0    4837.7465    17.382067    20.473778    21.206081    7546.7474    5556.2941    4006.7707    4950.1747    873.76436   -1184.0934    1084.8797   -2847.2586 
 1169000    266.12121   -3827.8584   -3371.7358   -3827.8584            0    4882.3909    17.305023    20.383031    21.112087    7446.8415    4188.0582    6852.2609    3606.8535   -742.29558    -1799.743    462.14552   -2841.4859 
 1170000    250.06108   -3823.4482   -3394.8521   -3823.4482            0    6741.3619    17.341615    20.426132     21.15673    7494.1816    6532.9795    7198.9845    6492.1217    2277.6132    243.54699   -661.61606   -2658.0553 
 1171000    247.87042   -3839.4071   -3414.5657   -3839.4071            0    4479.9893    17.362304      20.4505     21.18197    7521.0355    3961.3075    4884.8391    4593.8212    1608.0622    791.16216   -282.43546   -2923.1709 
 1172000    259.07588   -3865.6167   -3421.5695   -3865.6167            0    4669.0073    17.346041    20.431345     21.16213    7499.9213    3024.2067    7269.7511    3713.0642    240.61875   -946.34841    962.63299   -2910.8798 
 1173000    263.42438    -3869.529   -3418.0286    -3869.529            0    3369.4087    17.289129     20.36431    21.092697    7426.3414    2044.0729    3991.5546    4072.5988    -56.10558    655.93004    65.016907   -3053.1029 
 1174000    248.09271   -3862.3786   -3437.1562   -3862.3786            0    3009.2779    17.383388    20.475335    21.207693    7548.4693    1617.8059    2614.2812    4795.7465    275.60018   -686.02995    582.46347   -3105.8748 
 1175000    267.48351   -3849.4233   -3390.9658   -3849.4233            0    4459.2712    17.321398    20.402319    21.132065    7468.0014    4927.2231    5315.6081    3134.9822   -829.64919   -1800.4241    773.24443   -2905.2925 
 1176000    246.67082    -3831.157   -3408.3716    -3831.157            0    4599.6472    17.317954    20.398262    21.127863    7463.5477    6050.6006    3228.5525    4519.7886    338.69426    219.68726    581.05691   -2907.7084 
 1177000    278.68951   -3840.4429   -3362.7786   -3840.4429            0    4306.4732    17.359079    20.446703    21.178036    7516.8462    4344.4844     4124.115    4450.8201    2832.5853    994.20713   -880.63194   -2890.6794 
 1178000    268.42962   -3831.9761   -3371.8969   -3831.9761            0    5316.2008    17.358687     20.44624    21.177557     7516.336    4575.6768    6452.0258    4920.8996   -1094.6256   -718.09676    797.05902   -2789.1454 
 1179000    254.86523    -3832.342   -3395.5117    -3832.342            0    3548.5371    17.382022    20.473725    21.206026    7546.6889    4210.6447    1770.9371    4664.0296    886.74558   -348.61836   -1796.1498   -3004.9572 
 1180000    268.20314   -3883.4816   -3423.7906   -3883.4816            0    3445.1217    17.317515    20.397745    21.127328    7462.9807    2809.2183    4889.6915    2636.4552    734.72639   -1170.9222   -280.37398   -3048.8238 
 1181000    274.68277   -3885.0795   -3414.2826   -3885.0795            0    6142.2365     17.32526    20.406868    21.136777    7472.9984    6757.5239    6654.0528    5015.1329   -411.24714    513.04433   -163.50407   -2744.8647 
 1182000    274.53665   -3869.9059   -3399.3595   -3869.9059            0    4328.6607     17.38568    20.478035    21.210489     7551.455    2688.0961    5056.6582     5241.228    507.30018   -1.6752915   -615.38535   -2922.6431 
 1183000    265.55707   -3923.1305   -3467.9747   -3923.1305            0    3469.5244    17.372417    20.462412    21.194308    7534.1857    4805.9191    2588.9502    3013.7041    1463.5801   -364.37778   -234.10035    -3086.749 
 1184000    267.63814   -3913.8413   -3455.1187   -3913.8413            0    3475.4946    17.423142     20.52216    21.256192    7600.3747    4249.5939    3197.2702    2979.6197   -646.50649   -89.093584    68.845938   -3069.8821 
 1185000    268.96108   -3835.2191    -3374.229   -3835.2191            0    5309.4418    17.375846    20.466451    21.198491    7538.6478    3892.8801     4036.398    7999.0473    432.17039   -598.96931   -102.98981   -2790.4907 
 1186000    258.48649   -3802.9405   -3359.9035   -3802.9405            0    3186.6977    17.350982    20.437164    21.168157    7506.3315    3171.3239    4002.3618    2386.4074    32.092489   -409.76422   -1238.0913   -3011.0489 
 1187000    252.70872   -3857.3329   -3424.1988   -3857.3329            0    5243.7055    17.426104    20.525648    21.259806    7604.2513    7201.2972    3273.9215    5255.8979    891.95209   -297.30768    534.16737   -2842.6708 
 1188000    277.45315   -3870.7139   -3395.1687   -3870.7139            0    5399.7304    17.326761    20.408635    21.138608    7474.9402    5865.2403    5567.9821    4765.9688    444.08148    508.92367    573.98386   -2806.5207 
 1189000    252.13504   -3872.0654   -3439.9146   -3872.0654            0     5759.348    17.327606    20.409631    21.139639    7476.0342    6306.3725    7582.4865     3389.185   -432.82651    780.55921   -193.03552   -2811.9712 
 1190000    269.76369   -3835.6765   -3373.3108   -3835.6765            0    4656.3936    17.419667    20.518067    21.251953    7595.8285    4524.0869    5393.8228    4051.2712    200.72468    57.922712   -1567.0838   -2857.4877 
 1191000     271.4132   -3868.7236   -3403.5307   -3868.7236            0    4251.2874    17.346338    20.431695    21.162492    7500.3065    4669.6272    3302.1455    4782.0894    924.17679    39.318655    653.39108   -2938.5067 
 1192000    273.64982   -3882.9939   -3413.9675   -3882.9939            0    4563.2838    17.395487    20.489586    21.222453    7564.2408    4847.0965     4047.033    4795.7219   -665.88383    815.94587   -348.45752   -2910.5611 
 1193000    255.88791   -3853.9976   -3415.4145   -3853.9976            0     5895.736    17.348967    20.434791    21.165699    7503.7167    6460.1778    4295.1211     6931.909    486.34048    853.20882    936.49655   -2770.2205 
 1194000    270.70909   -3867.4154   -3403.4293   -3867.4154            0    6472.3021    17.314304    20.393963    21.123411      7458.83    6944.9065    5736.3775    6735.6224   -521.49154    69.720457   -2291.7113   -2699.3762 
 1195000    256.14746     -3876.69    -3437.662     -3876.69            0    5000.5728    17.388457    20.481305    21.213877    7555.0737    4941.0712    6224.4893    3836.1579   -364.50964    438.09924    122.02636   -2886.6839 
 1196000    263.84946   -3875.2961   -3423.0671   -3875.2961            0    3077.2377    17.389372    20.482383    21.214993    7556.2668    4237.3529    2853.5738    2140.7865   -648.83891    499.14011    1211.7671   -3083.9543 
 1197000    259.07842   -3867.5856    -3423.534   -3867.5856            0    4615.2666    17.446658    20.549858    21.284882    7631.1908    4748.3431    4672.0328     4425.424   -957.45119   -308.78728    59.599886   -2909.8868 
 1198000    262.30195   -3841.5772   -3392.0007   -3841.5772            0    4561.8207    17.392169    20.485678    21.218406    7559.9139    4813.7951    4819.8848    4051.7823    859.00254    1298.8159   -1713.7662   -2889.0436 
 1199000    259.79982   -3804.6857   -3359.3976   -3804.6857            0    4225.8641    17.448853    20.552444     21.28756    7634.0721    5226.0613    2951.4221    4500.1089    384.29053    484.97748   -512.69293   -2888.9106 
 1200000    261.73604   -3849.1835   -3400.5769   -3849.1835            0    4163.9225    17.395688    20.489823    21.222699    7564.5037    4667.1815    3009.0018    4815.5844   -1067.0344   -40.507163    -566.7422   -2941.2107 
 1201000    271.67216   -3864.0885   -3398.4517   -3864.0885            0    3261.4845    17.469851    20.577176    21.313177    7661.6651    3794.0132    3351.0078    2639.4324   -502.31609   -1290.0031   -597.21358   -3034.0215 
 1202000    259.50391    -3858.945   -3414.1642    -3858.945            0    6040.6985    17.354039    20.440766    21.171887    7510.3001    5175.7427    6483.2462    6463.1065    1809.8109     1102.072   -1493.7019   -2752.5264 
 1203000    260.95363   -3900.2487   -3452.9831   -3900.2487            0    3610.3873    17.324371    20.405821    21.135693    7471.8482    2692.0494    3581.8496     4557.263    127.94239   -755.29915    146.39558   -3059.5619 
 1204000    256.83349   -3878.0958    -3437.892   -3878.0958            0     3378.047    17.317319    20.397514    21.127089    7462.7269    2047.9426    2904.5038    5181.6946    217.65187   -93.108402    1145.4994   -3070.2381 
 1205000    254.57126   -3862.5474    -3426.221   -3862.5474            0    3890.5072    17.349323    20.435211    21.166134    7504.1796    4629.2731    2491.2994     4550.949   -465.63588    -687.5789   -953.86737   -3000.4409 
 1206000    253.83586   -3860.1676   -3425.1016   -3860.1676            0    3930.0075      17.3571    20.444371    21.175622    7514.2754    4387.2849    2133.6696    5269.0681    553.57974   -2270.0247    103.70346     -2994.42 
 1207000    273.09453   -3883.0825   -3415.0079   -3883.0825            0    4602.8999    17.337555     20.42135    21.151777    7488.9192     2838.623    4419.1749    6550.9018    754.59366   -495.75555    796.46656   -2912.2874 
 1208000    265.94234    -3870.096     -3414.28    -3870.096            0    4797.1265    17.355724    20.442751    21.173943    7512.4884    3090.1479     4827.056    6474.1754   -68.427987    619.26195    502.99065   -2888.6975 
 1209000    270.65692    -3878.457   -3414.5603    -3878.457            0    4574.7164    17.330529    20.413073    21.143204    7479.8177    3458.1718    5117.8358    5148.1417   -792.51359    708.18276   -39.432696   -2915.5253 
 1210000    278.52856   -3850.9983   -3373.6099   -3850.9983            0    5924.5033    17.239207    20.305508    21.031792    7362.1969    7782.7378    5595.5835    4395.1886    2000.1869   -472.34817   -20.226331   -2737.4954 
 1211000    256.89725   -3862.5316   -3422.2185   -3862.5316            0    5265.1518    17.341888    20.426454    21.157063    7494.5356    4687.6261    5011.2055    6096.6238      907.049    58.132789    -1317.104   -2846.7368 
 1212000    257.82807   -3859.8833   -3417.9748   -3859.8833            0    3680.7241    17.384588    20.476749    21.209157    7550.0323    3102.0464    3647.6168     4292.509    902.07377    940.44332    502.17985   -3012.6922 
 1213000    269.51641    -3876.585   -3414.6431    -3876.585            0    4615.2189    17.285875    20.360477    21.088727    7422.1493    5297.1695     5170.239    3378.2481    40.220857   -8.3589764    1476.2235   -2915.0713 
 1214000    251.57395   -3875.5573   -3444.3682   -3875.5573            0    4530.4166    17.356076    20.443165    21.174372    7512.9453    4857.9289     4364.109    4369.2119   -742.20825   -355.40538   -1996.5668   -2947.9768 
 1215000    243.17182   -3899.9483   -3483.1601   -3899.9483            0    4603.4531    17.310989    20.390058    21.119366    7454.5462    4490.7139    5736.2187    3583.4265   -1481.7643    486.81883    1295.1125   -2982.6869 
 1216000    271.07385   -3873.8668   -3409.2555   -3873.8668            0    4632.5979     17.27615    20.349023    21.076863    7409.6297    5901.7177    3342.3636    4653.7124   -1274.8055    518.44119   -1102.8129   -2908.6484 
 1217000    267.34866   -3883.6386   -3425.4121   -3883.6386            0    3353.1513    17.385357    20.477654    21.210095     7551.034    4349.6269     2456.958     3252.869   -474.69817    1395.5027   -86.566929   -3056.1494 
 1218000    269.08089   -3855.0523   -3393.8569   -3855.0523            0    2066.1921    17.439581    20.541523    21.276249     7621.909    2106.1821    2856.1262    1236.2679   -1421.6042   -601.37742   -389.28575   -3164.1837 
 1219000    271.51864    -3862.847   -3397.4734    -3862.847            0    4868.1127    17.405594    20.501491    21.234784    7577.4339    4741.3173    5230.2874    4632.7334    404.55091    800.87857    412.78817   -2859.5026 
 1220000    247.54244   -3884.5129   -3460.2336   -3884.5129            0    4862.3959    17.394068    20.487914    21.220722      7562.39    5311.4318    3467.7503    5808.0056   -363.28506   -789.72762   -206.98045   -2923.9614 
 1221000    262.05338    -3857.121   -3407.9704    -3857.121            0     4516.139    17.403725    20.499289    21.232504    7574.9929    4800.4461    4979.9943    3767.9764    1513.7315    1355.5325   -223.60668   -2909.0568 
 1222000    264.17087   -3882.8082   -3430.0284   -3882.8082            0    6610.0696    17.453216    20.557583    21.292883    7639.8001    5874.5291    7028.1077    6927.5719   -555.24154   -1194.0658   -525.94549   -2693.5434 
 1223000    254.12387   -3835.3705   -3399.8108   -3835.3705            0    7444.1111    17.332297    20.415157    21.145362    7482.1082    7348.6349    7278.0282    7705.6702   -155.33554    380.00373    69.683386   -2587.5178 
 1224000    262.72111   -3851.0723   -3400.7773   -3851.0723            0    4192.8642    17.422387     20.52127    21.255271    7599.3865    4760.0739    4143.0744    3675.4444    -759.7453   -381.60667   -1839.9954   -2936.0853 
 1225000    252.49475   -3862.1922   -3429.4249   -3862.1922            0    3773.8345    17.454362    20.558932     21.29428    7641.3042    3434.7889    3439.9807     4446.734    352.05296   -46.733088   -668.48512   -3008.8666 
 1226000    270.74218   -3880.6881   -3416.6452   -3880.6881            0    2625.1618    17.459223    20.564659    21.300211    7647.6909    2692.2945    2179.1719    3004.0189     133.6611   -1151.1083    1147.1861   -3123.8512 
 1227000    270.66183   -3830.7528   -3366.8477   -3830.7528            0    4143.3708    17.410885    20.507722    21.241239    7584.3456     3892.059    4453.6781    4084.3753    2615.3527   -1518.2244   -785.92676   -2908.5499 
 1228000    272.38345   -3864.0075   -3397.1516   -3864.0075            0     3466.778    17.526011    20.643326    21.381693    7735.7929    3430.1875    3952.8956    3017.2508    2021.5187    1224.2629   -66.196222   -3006.0346 
 1229000    265.72328   -3835.1418   -3379.7012   -3835.1418            0    3726.4455    17.401044    20.496131    21.229233    7571.4927    2696.6748    4494.2582    3988.4036    653.48428   -638.63634   -419.51482   -2968.2179 
 1230000    263.50762    -3830.704   -3379.0609    -3830.704            0    2908.1981    17.435127    20.536276    21.270814    7616.0699    2482.1275    4036.8395    2205.6272   -142.36051    1313.2961    1199.7035   -3056.0399 
 1231000    261.54708   -3847.8815   -3399.5987   -3847.8815            0    3860.9506    17.418885    20.517146    21.250999    7594.8052    3963.4742     2568.287    5051.0904   -1284.1048   -244.23266       364.12   -2971.9504 
 1232000    263.08399   -3868.2313   -3417.3144   -3868.2313            0    2480.2442    17.347415    20.432963    21.163806    7501.7033    2371.0684    3317.2969    1752.3674   -334.83847   -157.23778    1052.7606   -3145.9641 
 1233000    257.70676   -3864.4734   -3422.7728   -3864.4734            0    5734.3157    17.361337    20.449361     21.18079     7519.779    6067.0321    4671.6882    6464.2268   -1025.0551   -433.21841    -168.4913   -2793.9003 
 1234000    265.00903   -3837.6605   -3383.4441   -3837.6605            0    2978.9262    17.379304    20.470525    21.202711    7543.1503    4152.3117    1991.5977    2792.8691   -798.15306    1075.1633    382.76596    -3055.735 
 1235000    249.80806   -3858.7156   -3430.5532   -3858.7156            0    5070.5946    17.436601    20.538012    21.272612    7618.0015    5146.8437    6799.8147    3265.1255   -1670.8273   -147.87259   -1722.9377   -2867.2064 
 1236000    263.61571   -3868.7151   -3416.8868   -3868.7151            0    2519.1306     17.50025    20.612983    21.350264     7701.731    250.08949    4442.1356    2865.1666   -104.99171    2.8830323   -90.315692   -3133.9334 
 1237000    259.18579   -3881.6622   -3437.4266   -3881.6622            0    3696.4922    17.385505    20.477829    21.210276    7551.2274    4640.6884    2896.9188    3551.8694      266.041    549.05329    596.74571   -3030.3434 
 1238000    275.18188   -3877.6686   -3406.0163   -3877.6686            0    4710.2523    17.376974     20.46778    21.199868    7540.1166    5495.6827    4879.0103    3756.0638    884.41375   -1056.2481   -1817.9911    -2888.054 
 1239000    268.60107    -3859.337   -3398.9639    -3859.337            0    5083.8267    17.361783    20.449887    21.181335    7520.3589    5535.9014    5077.0099    4638.5689    281.00533     1089.995   -347.29312   -2841.3865 
 1240000     267.6231   -3834.9314   -3376.2345   -3834.9314            0    6580.6237    17.351316    20.437559    21.168566    7506.7661    6109.8441    7820.8583    5811.1687    141.41622    582.34219    963.24148   -2655.7978 
 1241000    272.16371    -3891.033   -3424.5537    -3891.033            0    2433.0381    17.508663    20.622893    21.360528    7712.8442    2364.7405    3106.4338      1827.94   -1505.1483   -607.52146    492.20679    -3150.876 
 1242000    263.47969   -3839.9144   -3388.3192   -3839.9144            0    3796.2269    17.400525     20.49552      21.2286    7570.8153    3645.5623     4237.798    3505.3204   -710.22189   -703.72557   -15.711459    -2969.168 
 1243000    270.05786   -3835.0571   -3372.1872   -3835.0571            0    3687.9214    17.463006    20.569114    21.304826    7652.6628    4021.3604    2713.7569    4328.6468    1206.5365   -894.51058    142.92532   -2960.5921 
 1244000    257.01777     -3838.15   -3397.6304     -3838.15            0    4695.3164    17.325778    20.407478    21.137409    7473.6686    2952.2793     4889.428    6244.2419     39.45467    403.29644    283.88377   -2885.8606 
 1245000    271.90083   -3827.0586   -3361.0299   -3827.0586            0    5689.2821    17.322394    20.403492    21.133281    7469.2905     6177.839    5148.5058    5741.5014    1977.1957   -1589.3604    821.26068   -2741.2854 
 1246000    268.23028   -3845.1073   -3385.3698   -3845.1073            0     2724.146    17.395567    20.489681    21.222552    7564.3461    3915.1101    1668.5845    2588.7435   -1166.9092   -253.63794      57.4579   -3084.8468 
 1247000     266.1379   -3859.0619   -3402.9107   -3859.0619            0    4701.5178    17.367869    20.457056     21.18876    7528.2704    5439.2117    3946.6568    4718.6848    744.33055   -175.45145   -757.69884   -2886.7212 
 1248000    268.76819   -3846.4243   -3385.7649   -3846.4243            0    3828.3009    17.404893    20.500665    21.233929    7576.5179    2888.0686    2124.8103    6472.0236   -1452.9745   -244.87328     610.6467   -2962.7539 
 1249000    248.57634   -3864.7697   -3438.7184   -3864.7697            0    5413.7394    17.426707    20.526359    21.260542     7605.041    5654.9487    6084.8819    4501.3876    1074.2234    1478.7941    442.09189   -2838.2712 
 1250000    277.29215    -3870.187   -3394.9177    -3870.187            0    4560.8476    17.424095    20.523282    21.257355    7601.6218    4901.4831    3495.4977    5285.5618    640.70594   -81.873178     402.0847   -2889.2937 
Loop time of 460.192 on 64 procs for 250000 steps with 864 atoms

Performance: 93.874 ns/day, 0.256 hours/ns, 543.251 timesteps/s
99.0% CPU use with 64 MPI tasks x 1 OpenMP threads

MPI task timing breakdown:
Section |  min time  |  avg time  |  max time  |%varavg| %total
---------------------------------------------------------------
Pair    | 20.394     | 24.858     | 29.096     |  44.6 |  5.40
Bond    | 0.26765    | 0.27829    | 0.29198    |   0.9 |  0.06
Kspace  | 204.29     | 212.57     | 220.14     |  23.9 | 46.19
Neigh   | 5.2166     | 5.9696     | 7.1138     |  19.3 |  1.30
Comm    | 92.304     | 102.79     | 112.08     |  43.5 | 22.34
Output  | 1.1076     | 1.1084     | 1.1098     |   0.0 |  0.24
Modify  | 101.58     | 106.2      | 113.54     |  27.9 | 23.08
Other   |            | 6.415      |            |       |  1.39

Nlocal:        13.5000 ave          19 max           7 min
Histogram: 2 1 4 4 10 25 3 6 6 3
Nghost:        2115.69 ave        2166 max        2081 min
Histogram: 6 7 16 6 5 8 7 5 1 3
Neighs:        4059.39 ave        5425 max        1986 min
Histogram: 1 2 2 4 14 11 9 5 7 9

Total # of neighbors = 259801
Ave neighs/atom = 300.69560
Ave special neighs/atom = 2.0000000
Neighbor list builds = 14364
Dangerous builds = 0

unfix		3
unfix		2
unfix		1

write_data	data.final.${pid}
write_data	data.final.0
System init for write_data ...
PPPM initialization ...
  extracting TIP4P info from pair style
  using 12-bit tables for long-range coulomb (../kspace.cpp:340)
  G vector (1/distance) = 0.37367068
  grid = 24 24 25
  stencil order = 5
  estimated absolute RMS force accuracy = 0.0031380526
  estimated relative force accuracy = 9.4501522e-06
  using double precision FFTW3
  3d grid and FFT values/proc = 2730 288
Last active /omp style is kspace_style pppm/tip4p/omp
WARNING: Not all mixed pair coeffs generated from mixing. Use write_data with 'pair ij' option to store all pair coeffs. (../write_data.cpp:312)

write_restart   restart.lmp.${pid}
write_restart   restart.lmp.0
System init for write_restart ...
PPPM initialization ...
  extracting TIP4P info from pair style
  using 12-bit tables for long-range coulomb (../kspace.cpp:340)
  G vector (1/distance) = 0.37367068
  grid = 24 24 25
  stencil order = 5
  estimated absolute RMS force accuracy = 0.0031380526
  estimated relative force accuracy = 9.4501522e-06
  using double precision FFTW3
  3d grid and FFT values/proc = 2730 288
Last active /omp style is kspace_style pppm/tip4p/omp
Total wall time: 0:07:41
