LAMMPS (30 Jul 2021)
Processor partition = 0
  using 2 OpenMP thread(s) per MPI task
using multi-threaded neighbor list subroutines
variable        pid world 0 1
variable        phase world IceIh IceIII

shell cd ${phase}
shell cd IceIh
include Restart.lmp
echo both
log log.lammps
#include		in.partitions
include		in.temp
variable        temperature equal 107.72
variable	tempDamp equal 100.0
include		in.pressure
variable        pressure equal 2019.1
variable        pressureDamp equal 1000.0 # This is 1 ps
include		in.seed
variable        seed equal 745823

units		real
atom_style	full
#include		in.box
read_restart	restart.lmp.${pid}
read_restart	restart.lmp.0
Reading restart file ...
  restart file = 30 Jul 2021, LAMMPS = 30 Jul 2021
  restoring atom style full from restart
  orthogonal box = (0.11552089 0.18533901 0.075144800) to (18.092052 23.443839 22.138051)
  2 by 4 by 4 MPI processor grid
  restoring pair style lj/cut/tip4p/long/omp from restart
  restoring bond style harmonic/omp from restart
  restoring angle style harmonic/omp from restart
  864 atoms
  576 bonds
  288 angles
Finding 1-2 1-3 1-4 neighbors ...
  special bond factors lj:    0        0        0       
  special bond factors coul:  0        0        0       
     2 = max # of 1-2 neighbors
     1 = max # of 1-3 neighbors
     1 = max # of 1-4 neighbors
     2 = max # of special neighbors
  special bonds CPU = 0.002 seconds
  read_restart CPU = 0.008 seconds
include 	in.setup
variable	out_freq equal 1000
variable	out_freq2 equal 10000
variable	out_freq3 equal 1000

timestep	2.0

neigh_modify    delay 7 every 1

include		in.tip4p
# This is TIP4P/Ice

# create groups ###
group ox type 2
288 atoms in group ox
group hy type 1
576 atoms in group hy

# set charges - beside manually ###
set group ox charge -1.1794
Setting atom values ...
  288 settings made for charge
set group hy charge 0.5897
Setting atom values ...
  576 settings made for charge

# ### TIP3P Potential Parameters ###
pair_style lj/cut/tip4p/long/omp 2 1 1 1 0.1577 8.5
pair_coeff 1 1*2 0.000 0.000
pair_coeff 2 2 0.21084 3.1668
bond_style  harmonic
bond_coeff  1 450 0.9572
angle_style harmonic
angle_coeff 1 55 104.52
kspace_style pppm/tip4p/omp 1.0e-5
pair_modify tail yes

thermo          ${out_freq}
thermo          1000
thermo_style    custom step temp pe etotal epair emol press lx ly lz vol pxx pyy pzz pxy pxz pyz enthalpy

restart 	${out_freq3} restart.lmp.${pid} restart2.lmp.${pid}
restart 	1000 restart.lmp.${pid} restart2.lmp.${pid}
restart 	1000 restart.lmp.0 restart2.lmp.${pid}
restart 	1000 restart.lmp.0 restart2.lmp.0


include         in.dump
dump            myDump all atom ${out_freq2} dump.water.${pid}
dump            myDump all atom 10000 dump.water.${pid}
dump            myDump all atom 10000 dump.water.0
dump            myDump2 all dcd ${out_freq2} dump.dcd
dump            myDump2 all dcd 10000 dump.dcd
dump_modify     myDump append yes
dump_modify     myDump2 append yes


variable natoms 	equal  "count(all)"                        # NUMBER ATOMS
variable H      	equal  "enthalpy/v_natoms"                 # ENTHALPY-per-atom
variable Vol      	equal  "vol/v_natoms"                 # volume-per-atom
fix AVG all 		ave/time ${out_freq} 1 ${out_freq} v_Vol v_H file vol_enthalpy.dat
fix AVG all 		ave/time 1000 1 ${out_freq} v_Vol v_H file vol_enthalpy.dat
fix AVG all 		ave/time 1000 1 1000 v_Vol v_H file vol_enthalpy.dat


timer           timeout 23:50:00 every 1000
New timer settings: style=normal  mode=nosync  timeout=23:50:00

fix 		1 all shake 1e-6 200 0 b 1 a 1
Finding SHAKE clusters ...
       0 = # of size 2 clusters
       0 = # of size 3 clusters
       0 = # of size 4 clusters
     288 = # of frozen angles
  find clusters CPU = 0.002 seconds
fix             2 all nph aniso ${pressure} ${pressure} ${pressureDamp}
fix             2 all nph aniso 2019.1 ${pressure} ${pressureDamp}
fix             2 all nph aniso 2019.1 2019.1 ${pressureDamp}
fix             2 all nph aniso 2019.1 2019.1 1000
fix             3 all temp/csvr ${temperature} ${temperature} ${tempDamp} ${seed}
fix             3 all temp/csvr 107.72 ${temperature} ${tempDamp} ${seed}
fix             3 all temp/csvr 107.72 107.72 ${tempDamp} ${seed}
fix             3 all temp/csvr 107.72 107.72 100 ${seed}
fix             3 all temp/csvr 107.72 107.72 100 745823


run             250000
PPPM initialization ...
  extracting TIP4P info from pair style
  using 12-bit tables for long-range coulomb (../kspace.cpp:340)
  G vector (1/distance) = 0.37181088
  grid = 24 27 25
  stencil order = 5
  estimated absolute RMS force accuracy = 0.0031488014
  estimated relative force accuracy = 9.4825218e-06
  using double precision FFTW3
  3d grid and FFT values/proc = 4410 672
Last active /omp style is kspace_style pppm/tip4p/omp
Neighbor list info ...
  update every 1 steps, delay 7 steps, check yes
  max neighbors/atom: 2000, page size: 100000
  master list distance cutoff = 10.8154
  ghost atom cutoff = 10.8154
  binsize = 5.4077, bins = 4 5 5
  1 neighbor lists, perpetual/occasional/extra = 1 0 0
  (1) pair lj/cut/tip4p/long/omp, perpetual
      attributes: half, newton on, omp
      pair build: half/bin/newton/omp
      stencil: half/bin/3d
      bin: standard
Setting up Verlet run ...
  Unit style    : real
  Current step  : 29000000
  Time step     : 2
  Walltime left : 23:49:59.89
Per MPI rank memory allocation (min/avg/max) = 10.21 | 10.22 | 10.23 Mbytes
Step Temp PotEng TotEng E_pair E_mol Press Lx Ly Lz Volume Pxx Pyy Pzz Pxy Pxz Pyz Enthalpy 
29000000    113.91809   -4533.7644   -4338.5127   -4533.7644            0    1235.0786    17.976531      23.2585    22.062906    9224.6585    1608.3629    1246.6292    850.24355   -551.66963    230.64564   -638.85868   -4172.3548 
29001000    107.77347   -4544.4512   -4359.7311   -4544.4512            0    2665.1018    17.898253    23.281072    22.008368    9170.6783    2618.3387    3088.7508    2288.2159    144.86852    101.01066    409.78126   -4003.2873 
29002000    110.06251   -4551.7907   -4363.1473   -4551.7907            0    1455.5124     17.91781    23.406678    21.999251     9226.407     2146.781    1418.9841    800.77201   -337.08779   -359.53155    -370.7753    -4167.297 
29003000    105.43879   -4544.1195   -4363.4011   -4544.1195            0     1872.346    17.863435    23.428898    21.971666    9195.5943    1831.8613    1613.3465    2171.8302   -1238.0916     -222.675   -111.90915   -4112.3039 
29004000    103.60968   -4554.8885    -4377.305   -4554.8885            0    2675.2741    17.944674    23.258929    21.912779    9145.8218    3254.7065    2759.1655    2011.9502   -526.73746   -261.30653   -171.89344   -4020.4705 
29005000    109.06282   -4544.7491   -4357.8192   -4544.7491            0    1605.9029    17.916584    23.263391    22.059433    9194.3833    2815.1653    907.60375    1094.9398    257.87964   -153.10797   -71.749776   -4142.4826 
29006000    111.99964   -4546.8429   -4354.8794   -4546.8429            0    1956.5963     17.90197    23.437706    21.908781    9192.5105    2361.4554    2443.1907    1065.1427    299.79715   -554.32981    515.25615   -4092.5715 
29007000    109.14776   -4546.3674   -4359.2919   -4546.3674            0    2973.2001    17.915895    23.322393    21.861735    9134.7414    2733.3493    2087.0588    4099.1922   -194.38711    126.25741    111.99627   -3963.1997 
29008000    111.73282   -4547.1716   -4355.6654   -4547.1716            0     1244.546    17.971909    23.314809    21.987246    9212.9119    1707.1067    821.52004    1205.0113    60.565411   -23.139814    161.99454   -4188.4471 
29009000     110.9005   -4540.5032   -4350.4235   -4540.5032            0    2398.7519    17.956805    23.177577    22.009253    9160.1459    2457.6839    1832.5362    2906.0356   -417.12531   -224.70376   -214.77029   -4029.9711 
29010000    110.38935   -4548.0058   -4358.8022   -4548.0058            0    2971.7353     17.93989    23.394848    21.823277    9159.2517    2893.4586     2780.431    3241.3164    525.50748   -203.35538    -78.33317   -3961.8429 
29011000    106.98647   -4545.8167   -4362.4456   -4545.8167            0    1518.0525    17.902349    23.489218    21.880497    9201.0152     1828.171    1367.4991    1358.4875   -908.44194    35.728582    521.25656   -4158.7421 
29012000    110.12792   -4530.9172   -4342.1617   -4530.9172            0    2114.6341    17.939188    23.175708    22.041511    9163.8327    2641.0947    1899.1843    1803.6233    152.40081   -161.78429   -103.56979   -4059.5512 
29013000    110.38279   -4538.8491   -4349.6568   -4538.8491            0    1820.7486     17.96247    23.238497    22.000534    9183.4805    1795.4646    1903.9768    1762.8045   -474.20016   -275.01923    377.77947   -4105.8009 
29014000    105.23862    -4553.666   -4373.2906    -4553.666            0    1927.6274    17.902237    23.366342    21.910416    9165.3412    2568.0977    1604.2221    1610.5624    237.04546    200.47001    129.95645   -4115.6302 
29015000    102.65355   -4533.9311   -4357.9864   -4533.9311            0    2680.5692    17.836652    23.434494    21.873664    9143.0367    3090.4421    2246.4801    2704.7853    20.894006    5.8342824    261.82763   -4000.5545 
29016000    112.44076    -4552.015   -4359.2953    -4552.015            0    1387.2974    18.013576    23.312715    21.952135    9218.6976    1219.3045    1491.7005    1450.8871   -210.90148    134.46455    -137.4596   -4172.7798 
29017000    106.55242   -4540.9149   -4358.2877   -4540.9149            0     2150.595    18.000932    23.276902    21.899241    9175.9118    2578.8301    1911.3321    1961.6229    445.79634    324.43462   -418.13038   -4070.4924 
29018000    102.12017   -4548.9868   -4373.9563   -4548.9868            0    1630.6089    17.995893    23.242532    21.971029    9189.8249    1009.5716    2517.5613    1364.6937    238.25824    105.99962    198.74995   -4155.4153 
29019000    104.56196   -4541.0682   -4361.8525   -4541.0682            0    2049.4331     17.87704    23.487582    21.880904    9187.5385    1782.2819    1542.0599    2823.9576   -100.35304   -757.55621    67.406011   -4087.2473 
29020000    105.34165   -4549.7599   -4369.2079   -4549.7599            0    1852.7306     17.86528    23.505714    21.825709    9165.4043    2493.1496    1544.6222    1520.4199   -26.750092    423.09653   -244.32161   -4121.5571 
29021000    108.05122    -4555.968   -4370.7719    -4555.968            0    2271.8337     17.90892    23.384095    21.871871    9159.5868    2806.2637    3184.5115    824.72578   -481.71687   -156.18698    436.44448   -4067.2931 
29022000    109.65096   -4537.3114   -4349.3734   -4537.3114            0    2873.6723     18.00095    23.218482    21.842635     9129.233    3546.8513    2254.6185     2819.547   -67.335402    179.08934    213.35513   -3966.7712 
29023000    102.16568   -4545.9958   -4370.8873   -4545.9958            0    1608.3448    18.018257    23.276866    21.878317    9175.9534    1174.7486    2004.9957    1645.2901   -178.17351    97.169842   -38.938767   -4155.6556 
29024000    113.92838   -4534.9022   -4339.6329   -4534.9022            0      1380.53    17.893672    23.324553    22.047042    9201.5951    1769.2325    2294.2051    78.152341    765.17458   -619.99784    381.17114   -4154.3715 
29025000     103.8227   -4537.9785     -4360.03   -4537.9785            0    1845.1741    17.900609    23.363305    21.989141    9196.2408    1609.0225    2103.8886    1822.6111    101.49113   -460.19382    576.14657   -4112.5594 
29026000    113.46659   -4541.3815   -4346.9037   -4541.3815            0     3082.606    18.021084    23.168642    21.850163    9122.9682    3180.2688    4634.0103     1433.539   -760.55798    271.81262    87.868002   -3936.7656 
29027000    110.24027   -4543.0223   -4354.0743   -4543.0223            0    1571.8712    17.915313    23.315501    22.019327    9197.5714    1702.5361    2378.0875    634.98982    153.47803    -74.51113     342.1711    -4143.228 
29028000    106.10447   -4549.5702   -4367.7107   -4549.5702            0     2866.796    17.822252    23.256002    22.047153    9137.9789    2960.7625    3725.6872    1913.9382    619.26721    168.24819    177.41791   -3985.6584 
29029000    105.31946   -4555.7754   -4375.2615   -4555.7754            0    1948.6034     17.71287    23.454492    22.107839    9184.6216    2429.2906     1961.351    1455.1686   -426.51736    14.804795   -44.885488   -4114.2494 
29030000    109.62841   -4541.0255   -4353.1262   -4541.0255            0    1134.2211    18.016534    23.318364    21.893906    9197.9821    838.94929    204.66452    2359.0496   -137.18603    236.48132   -339.50951   -4200.9782 
29031000    116.65563   -4545.6237   -4345.6799   -4545.6237            0    1347.0702    18.100489     23.14963    21.940491    9193.4965    219.77798    2257.5009    1563.9318   -162.54812   -449.07327    226.49171   -4165.0678 
29032000     105.4891   -4535.1275   -4354.3228   -4535.1275            0    2251.5693    17.879808    23.321108    22.009581    9177.4877    2153.9061    2370.4808    2230.3211   -859.72076      100.609   -471.71564   -4052.9632 
29033000    112.71405   -4552.5141   -4359.3261   -4552.5141            0     2895.612    17.824632    23.403608    21.929289    9148.0378    2894.4207    3123.7457    2668.6697   -1146.2555   -742.43786    361.89047   -3973.0087 
29034000    107.09081   -4554.3416   -4370.7917   -4554.3416            0    2358.3372    17.784873    23.506165    21.930145    9167.9882    3699.0352    2908.0466    467.92971   -267.43913    46.728572    242.97634   -4055.4685 
29035000    103.19573   -4552.0967   -4375.2228   -4552.0967            0    2843.2644    17.845369     23.39388    21.886975    9137.2084    3298.8585    2943.2583    2287.6763    440.85719    212.20081   -166.55525   -3996.3384 
29036000    107.32895    -4555.006   -4371.0478    -4555.006            0    1572.1287    18.003362    23.295977    21.966802    9213.0066    1717.0427    1483.5275     1515.816   -24.458987   -171.37258    41.090259   -4159.8131 
29037000    108.68472    -4547.226   -4360.9441    -4547.226            0    1361.3245    18.056798    23.402359    21.853066    9234.4865    1159.2928    793.30736    2131.3732    332.71127    96.161887    27.493418    -4177.607 
29038000    108.67328   -4547.4378   -4361.1756   -4547.4378            0    2002.3521     17.97215    23.293975    21.928671    9180.2803    2316.1495    1655.3744    2035.5323   -577.00349   -605.98667    506.50451   -4093.0907 
29039000     106.0055   -4542.0733   -4360.3835   -4542.0733            0    2604.5815    17.955715      23.1535    22.030331     9158.838     2805.016    2303.8657    2704.8629   -37.933275   -169.81989    166.03009   -4012.4837 
29040000    105.33407   -4543.9156   -4363.3766   -4543.9156            0    2347.3626    17.944754    23.207345    22.038368    9177.8809    2676.6317    2568.1902    1797.2658     66.75951   -741.99347    136.34137   -4049.1822 
29041000    106.07872     -4544.79   -4362.9747     -4544.79            0    1428.4134    17.828864    23.315843     22.14176     9204.219    1626.2446    1433.1389    1225.8565   -227.37725    419.05352    780.69567    -4171.233 
29042000    108.52927   -4549.9308   -4363.9153   -4549.9308            0    2056.7244    17.887463    23.396025    21.929028    9177.2002    2752.5446    1313.8789    2103.7496    117.96056    79.540998   -298.75451   -4088.6432 
29043000    110.83641   -4544.3603   -4354.3905   -4544.3603            0    2247.6716    17.987649    23.428028    21.734499    9159.2473    1243.4829     2226.096    3273.4359    -18.29891     562.4139    366.57838   -4054.1505 
29044000    111.46733   -4549.6917   -4358.6406   -4549.6917            0    1968.3293    18.028933    23.301745    21.834663    9172.8639    1515.9946    2508.2004    1880.7928    572.55767   -56.985655    280.51993   -4095.3237 
29045000    100.24146   -4552.9818   -4381.1713   -4552.9818            0    2267.1305    17.983396    23.348077    21.774033    9142.4312    2040.2507    3084.3305    1676.8102   -813.47044   -195.48477    746.75088   -4078.8881 
29046000    111.12705   -4547.4128   -4356.9448   -4547.4128            0    1818.8092    17.993522    23.537607    21.698327     9189.772    1041.8954    977.51717     3437.015   -21.191058   -100.95723    -158.4097   -4113.1818 
29047000    111.50173   -4559.7656   -4368.6554   -4559.7656            0    1421.7497    17.960883    23.454095    21.874917    9214.9456    1241.7647    1411.0935    1612.3908    -170.2593   -149.96952   -20.669495   -4177.5857 
29048000    104.83542   -4536.7146   -4357.0303   -4536.7146            0    2493.7257    17.840916    23.432438    21.895435    9153.5215    2285.6347    2289.6357    2905.9067   -1087.1306    95.532553    234.46134    -4024.131 
29049000    109.82412   -4544.7457    -4356.511   -4544.7457            0    1971.1033    17.952403    23.286685    21.959126    9180.0556    641.96975    2840.6764    2430.6638   -66.496955   -165.21783    171.88292   -4092.6163 
29050000    107.24338   -4551.4385    -4367.627   -4551.4385            0    2413.2153    17.999649     23.20994    21.935928    9164.1896    2371.6784    2743.3844    2124.5832    562.89828    497.77337   -192.51521      -4045.1 
29051000    111.62545   -4542.4949   -4351.1727   -4542.4949            0    3037.9461    17.948024    23.381269    21.781497    9140.5524    3335.4871    3222.1316    2556.2195    697.04601   -435.01907   -17.025087   -3946.1976 
29052000    104.34855   -4541.6664   -4362.8165   -4541.6664            0    2465.6221    17.946161    23.267301    21.994679    9184.0701    2954.2105    2614.0362    1828.6195    696.15635   -227.15805    206.43047   -4032.5705 
29053000    110.10619   -4556.2369   -4367.5187   -4556.2369            0    2259.4733    17.886728    23.336311     21.99448    9180.7218    2337.3066    1984.5315    2456.5818   -131.98193    302.52174    70.860457   -4064.9946 
29054000    108.89412   -4538.3005   -4351.6597   -4538.3005            0    1775.5521     17.88786    23.362186    21.961321    9177.6251    1730.5352      1764.41    1831.7111   -367.03592   -192.20093    137.59502   -4114.0087 
29055000     106.1626   -4544.1904   -4362.2313   -4544.1904            0    2635.4415    17.890132    23.315325    21.969468    9163.7781    3032.8801    2313.3103    2560.1343    -178.6001    391.26923   -59.815166   -4010.0196 
29056000    107.89261   -4533.4465   -4348.5223   -4533.4465            0    1515.7846    18.050772    23.297106    21.897088    9208.3989    1234.5431    2972.1794     340.6313     522.0084    127.89278   -228.32444   -4144.9599 
29057000    113.01605   -4554.8889   -4361.1833   -4554.8889            0    2294.1619    17.970676    23.203817    21.940394    9148.8871    2226.8838    2160.9873    2494.6147   -55.916228   -121.31534   -276.11861   -4055.0798 
29058000    108.26737   -4545.9979   -4360.4314   -4545.9979            0    1921.4056    17.892338    23.325945    21.981741    9174.2046      1727.02    2663.1842    1374.0127   -225.10205    605.36977   -352.13813   -4103.3543 
29059000    108.81047   -4546.9312   -4360.4338   -4546.9312            0    1281.4029    18.015993    23.217099    22.036228    9217.2935    1252.4973    1933.9797    657.73171   -742.52146   -762.26806    685.62854   -4188.1815 
29060000    104.92338   -4556.8954   -4377.0603   -4556.8954            0    1387.7849    17.925057    23.361483    21.945838    9189.9494    1492.2343    1304.1671    1366.9531   -960.96127    452.97285    227.46233    -4191.061 
29061000    110.50975   -4553.7067   -4364.2967   -4553.7067            0    2111.8551    17.923755    23.330319    21.896606    9156.4367    2353.4158    2126.9927    1855.1567   -473.31025    158.79516    218.34308   -4082.2855 
29062000    105.31193   -4537.2706   -4356.7696   -4537.2706            0    1682.8939    17.910279    23.434903    21.904934    9194.0623    2041.4254    1129.0651    1878.1912     206.4319    24.771739    698.33872   -4131.1171 
29063000     109.2812   -4534.3981   -4347.0939   -4534.3981            0    2068.4683    17.981429    23.294916    21.919428    9181.5194     1968.443    2383.7272    1853.2348    -288.3754   -73.371288   -409.83814   -4070.1197 
29064000    110.17745   -4552.2164    -4363.376   -4552.2164            0    1565.1127     17.96416    23.386829    21.854811    9181.7466    1653.3698     1100.488    1941.4802    677.19428     50.09418    31.971432   -4153.7974 
29065000    105.76929   -4554.2163   -4372.9313   -4554.2163            0    1503.6936    17.980814    23.421891    21.827531    9192.5481    1922.3146     1146.477    1442.2893    175.93779   -626.41771    450.93304   -4171.3403 
29066000    110.14256   -4540.5532   -4351.7726   -4540.5532            0    1969.8378    17.983891    23.239915    21.988137    9189.8126    2800.6625    2477.4003    631.45075    158.19798    53.767751    487.33284   -4087.7671 
29067000    104.37976   -4558.4808   -4379.5775   -4558.4808            0    1706.3799    17.945951    23.298367    21.984824    9192.1046    1601.7786    1802.7442     1714.617    -494.1115    126.72479    -746.2051   -4150.8246 
29068000    108.17811   -4549.9418   -4364.5282   -4549.9418            0    1613.0502    17.934498    23.273159    22.028692    9194.6091    1473.2462    2504.7333    861.17119   -1001.3784    183.72664    390.12369    -4148.228 
29069000    103.01233   -4558.8003   -4382.2407   -4558.8003            0    780.00804    17.938878    23.432719    21.955644    9229.2017    1495.3557    478.04563    366.62274    403.29664   -130.88908   -30.218545   -4277.2528 
29070000    106.00738   -4545.4322   -4363.7392   -4545.4322            0     2604.159    17.895959    23.404573    21.907514    9175.9031    1908.6046    2990.9694    2912.9031   -317.21446   -603.61728    62.794828   -4015.2477 
29071000    102.91663   -4538.9293   -4362.5337   -4538.9293            0    2048.1352    17.930016    23.202911    22.014644    9158.7208    2545.9024    1766.0984    1832.4048   -586.33761   -122.20091    222.59287   -4088.9632 
29072000    112.77195   -4530.5429   -4337.2556   -4530.5429            0    1895.3087    18.021406     23.19587    21.979234    9187.8078    1308.6443    1614.3131    2762.9686   -37.500867    -153.6173   -205.69198   -4083.2942 
29073000    103.61452   -4553.6351   -4376.0433   -4553.6351            0    1700.8759    17.847632     23.42109    21.958457    9178.8764    2096.6804    1885.3732     1120.574   -279.61476    -59.59738   -339.87944   -4148.3564 
29074000    113.49422   -4560.7736   -4366.2484   -4560.7736            0    2025.2027    17.806165    23.396454    22.033884    9179.3406    2443.5892    1204.0267    2427.9923   -212.57201   -91.982578     335.2763    -4095.132 
29075000    106.64367   -4545.9585   -4363.1749   -4545.9585            0    2884.4716    17.952231    23.150774    22.010054    9147.5556    2034.4759    3849.7689    2769.1698   -258.96449    401.60078   -35.767627   -3978.3641 
29076000    111.98811   -4557.5744   -4365.6306   -4557.5744            0    1999.6094    17.946627    23.312828    21.906927    9165.5652    829.61754    2203.7615     2965.449   -518.45085   -229.37821    72.742022   -4098.3421 
29077000    106.36655   -4549.1348   -4366.8262   -4549.1348            0     2686.436    17.960545    23.280166    21.860781    9140.5273    1467.3244    3404.8533    3187.1303   -255.43655    318.46036    508.86166   -4008.7103 
29078000     115.2921   -4539.8069   -4342.2002   -4539.8069            0    2554.7494    17.874992    23.378609     21.91453    9157.9164    2734.4754    2098.9348     2830.838    43.351723     -78.8919    415.27824   -4000.9909 
29079000    106.54697   -4548.4116   -4365.7937   -4548.4116            0    1403.2739    17.985493    23.491294    21.796727    9209.1718    983.53535     709.9859    2516.3005    726.12054   -476.30252    145.26372   -4177.3251 
29080000    115.47021   -4542.1566   -4344.2446   -4542.1566            0    2407.4694    18.020279    23.237647    21.875989     9160.546    2526.5539    2834.3758    1861.4785   -301.09447    463.62168    309.12949   -4022.6135 
29081000     109.6607   -4550.1944   -4362.2398   -4550.1944            0    1971.1639    17.996544    23.185062    22.035681      9194.41    2030.7984    2156.9495    1725.7438    283.21429    670.39959   -90.835194   -4097.9244 
29082000    106.60858   -4553.3399   -4370.6164   -4553.3399            0    1927.8498    17.820925    23.346675    22.088212    9190.0073    2637.6565    2129.5653    1016.3275    222.49656    -68.06062    23.639752   -4112.2328 
29083000    101.30105   -4546.5924   -4372.9658   -4546.5924            0    1846.3994    17.818681    23.454893    21.984032    9187.9019    2554.5583    210.88089     2773.759   -68.113508    55.271889     139.9955   -4125.5555 
29084000    112.92105    -4539.346   -4345.8032    -4539.346            0    2892.4754    17.934014    23.370303    21.843373    9155.0677    3121.5582    3458.2253    2097.6427   -648.22645    433.86506    780.40985   -3959.6078 
29085000    108.79731   -4552.2421   -4365.7673   -4552.2421            0    735.54411    18.106328     23.24524    21.988009    9254.4438   -188.52721    1121.6837    1273.4758    167.62054     35.14377    154.19645   -4266.4934 
29086000    110.51082   -4554.2167   -4364.8049   -4554.2167            0    914.24135    17.990282    23.301316    22.023294    9232.1038     339.9856    2188.4071    214.33129   -351.18072     434.3956   -319.43929   -4241.7108 
29087000    105.27817   -4551.3711    -4370.928   -4551.3711            0    1767.5724    17.828576    23.563881    21.912018    9205.4677     2604.734    831.16446    1866.8188    -218.4621   -306.51037    33.277991   -4133.6273 
29088000    110.80316   -4538.1848    -4348.272   -4538.1848            0    2639.4271    17.912828    23.285865    21.965545    9162.1736    3299.5884     3041.477     1577.216   -386.18916   -287.70096   -263.77896   -3995.5894 
29089000    101.69581   -4546.5468   -4372.2436   -4546.5468            0    2708.8724    17.986783    23.289302    21.866833    9160.0082     1713.067     2913.933    3499.6171    234.94928   -195.13889    875.52175   -4010.3672 
29090000     106.3436   -4541.3058   -4359.0365   -4541.3058            0    2254.2361    18.073892    23.237839    21.860544    9181.3892    1791.7203    2616.0657    2354.9224     512.5571   -340.77023    279.50156   -4057.1917 
29091000    101.77459    -4551.467   -4377.0288    -4551.467            0    1654.2095    17.910586    23.483861    21.820716    9178.0048    1804.0543    1242.1157    1916.4584   -340.79674   -294.53928   -572.33588   -4155.6099 
29092000    106.30594   -4536.2428   -4354.0381   -4536.2428            0    2431.3012    17.994706    23.478775     21.65159    9147.6591    3153.6008    1972.1204    2168.1823    91.227115   -522.13694   -147.23305   -4029.6801 
29093000    110.88424   -4561.8949   -4371.8431   -4561.8949            0     1882.479    18.103128     23.30064    21.759249    9178.3663    873.26549    2227.5544     2546.617   -409.73663   -26.292146   -85.456431     -4119.86 
29094000    106.51048   -4545.0484   -4362.4931   -4545.0484            0    2765.6921    18.105061    23.146906    21.761645    9119.7862    1815.2649     3133.187    3348.6243   -870.24181   -179.47622    242.40532   -3994.6485 
29095000     110.3286   -4559.9037   -4370.8043   -4559.9037            0    2212.1254    18.027559    23.317138    21.831913    9177.0682    2175.9538    2409.1762    2051.2462   -691.66122    318.75402   -287.07735   -4074.7376 
29096000    111.42706   -4545.1932   -4354.2111   -4545.1932            0    2233.6668    18.039803    23.447096    21.688497    9173.8222    2271.6025    2061.7775    2367.6204   -146.69815    237.78308    226.68936    -4055.367 
29097000    111.73185   -4550.6295   -4359.1249   -4550.6295            0    1827.3268    17.985355    23.365508    21.852527    9183.2393    2195.5283    2249.4541     1036.998    -54.23914    106.78055    93.904668   -4114.3945 
29098000     104.5211   -4554.8145   -4375.6689   -4554.8145            0    1793.7718    18.054354    23.307097    21.836976     9188.881    1242.1591    2524.9398    1614.2167    296.29187    -120.2992    562.77348   -4135.2848 
29099000    112.80951   -4552.5157   -4359.1641   -4552.5157            0    1560.6091    17.958819    23.315123    21.981808    9204.0487    1019.5849    1801.0796    1861.1628    45.366606    78.744281     20.02315    -4149.681 
29100000    103.43496   -4545.5529   -4368.2689   -4545.5529            0    2058.1226    17.708699    23.591592    21.890494    9145.3319    2046.3247    1445.4361     2682.607    151.49258    25.631451   -386.74011   -4093.7662 
29101000     109.5011   -4566.5087   -4378.8276   -4566.5087            0     2393.444    17.881445     23.38634    21.891455    9154.6025    2532.6311    1951.5532    2696.1477    35.734683    294.14263   -56.713611   -4059.2777 
29102000    112.69552   -4550.2356   -4357.0794   -4550.2356            0    1341.7084    18.105264    23.153542    21.971087    9210.3011     1718.132    841.45335    1465.5399   -153.10784   -109.64075    57.410095   -4176.8574 
29103000     110.7628   -4546.6447   -4356.8011   -4546.6447            0    1073.4074    18.081777    23.227195    21.907605    9200.9524     367.4302    1677.5206    1175.2714   -2.9190204   -331.01229    335.77661   -4212.7643 
29104000    108.91392   -4548.7793   -4362.1045   -4548.7793            0    2435.4396      17.9413    23.386608    21.817561    9154.3462    2463.1948     2369.193    2473.9308    615.39349    193.17638   -64.090829   -4036.9569 
29105000    112.39443   -4544.9909   -4352.3507   -4544.9909            0    2550.4421    17.924045    23.470676    21.817728     9178.488    2014.2601    2258.2305    3378.8357    -419.6465     401.2008     98.80736   -4010.9515 
29106000     106.7254   -4557.4106   -4374.4869   -4557.4106            0    3024.0289    17.892905    23.285308    21.926509    9135.5002    3090.0475    3875.6454    2106.3937    341.25345   -371.51633    -192.8871   -3971.5898 
29107000    111.54836   -4562.7857   -4371.5957   -4562.7857            0    2615.6519    17.855588    23.296979    21.992289    9148.3798    2622.0598    2834.8352    2390.0607    393.88458   -338.23469    37.621258   -4022.6161 
29108000    103.82017   -4541.0733   -4363.1291   -4541.0733            0     2126.488     17.91787    23.374165    21.927702    9183.6557    2578.6805    1379.8805    2420.9029    61.547769    585.43847    408.08684   -4078.3196 
29109000    112.38056   -4559.6788   -4367.0624   -4559.6788            0    2204.8457    17.989483    23.351885    21.780006    9149.5268    1645.9795      2096.69    2871.8678   -745.98327    207.64408    109.80594   -4072.8555 
29110000    110.30109   -4554.2565   -4365.2042   -4554.2565            0    2237.3938    18.023063    23.006859    22.073464    9152.8519     1623.667    3685.0682    1403.4461    454.16847    135.52565   -365.51504   -4066.5458 
29111000    109.63931   -4546.4408   -4358.5228   -4546.4408            0     2206.465    17.942625     23.24647    21.929749    9146.9576    1791.1158    2424.9641    2403.3152    124.87136    185.48187    510.54439   -4064.1826 
29112000    108.91772   -4552.5087   -4365.8274   -4552.5087            0    1168.9408     17.91633    23.449462     21.91806    9208.3974    1658.3293    983.64858    864.84466   -643.22807     1.355752    307.97816   -4208.8445 
29113000    104.74326   -4544.6868   -4365.1604   -4544.6868            0    2080.6621    17.833062    23.502659    21.904776    9180.8255    2469.5724    928.89417    2843.5198   -348.98438   -450.03697    382.90423   -4086.5745 
29114000     108.1619   -4532.1613   -4346.7755   -4532.1613            0    1768.5827    17.982211    23.328644    21.964219    9214.0027    1960.0892    1141.1168    2204.5422     -709.226    55.418413    87.146685   -4109.1191 
29115000    112.45921   -4543.7322   -4350.9809   -4543.7322            0    2334.5004    18.008454    23.201393    21.895751    9148.5097    2102.4267     1897.455    3003.6194    162.94525   -38.628539    83.021099   -4039.5081 
29116000    106.57616   -4551.5913   -4368.9234   -4551.5913            0    2058.8704    17.933692    23.356328      21.9315    9186.3421    1592.0681    2250.1698    2334.3733    -476.2482   -639.39897    280.01515   -4093.0896 
29117000    102.76741    -4552.967   -4376.8271    -4552.967            0    2481.8982    17.863411    23.505665    21.825194    9164.2101     2286.558    2438.5392    2720.5974    504.68302    95.277252   -335.02442   -4045.1199 
29118000    105.62356   -4551.4622    -4370.427   -4551.4622            0    2700.4452     17.94614      23.3159    21.902239    9164.5631    1950.1604    2803.2504    3347.9247    182.89594    -177.4755    1223.4506    -4009.497 
29119000    107.77838   -4541.4247   -4356.6963   -4541.4247            0    2716.6445    17.905938    23.263573    21.962931    9148.7928    3481.7455    2569.0985    2099.0896   -128.40081     211.5115    160.80964   -3994.2259 
29120000    103.29338   -4543.9691   -4366.9277   -4543.9691            0    2680.5291    17.945468    23.311856    21.841405    9137.1803    2133.6938    2101.0626    3806.8309    879.99791    253.07723   -34.163188   -4009.7301 
29121000    106.28785   -4548.9163   -4366.7425   -4548.9163            0    1897.6885    17.849819    23.474539     21.89789    9175.5721    1483.9268    1993.4263    2215.7125    303.43056   -58.085139   -241.35551   -4112.8009 
29122000    110.69785   -4542.4044   -4352.6721   -4542.4044            0    1504.1833    17.862438    23.406494    22.004744    9200.1181    2137.5566    1151.5232    1223.4699    105.69953   -14.449099     176.3566   -4150.8494 
29123000    103.68853   -4554.4185   -4376.6999   -4554.4185            0    1688.9423    17.999003    23.192896    22.021388    9192.8061    1514.9582    2028.5029    1523.3659   -415.11139   -207.15726   -482.27928   -4150.2674 
29124000    108.73172   -4541.0886   -4354.7262   -4541.0886            0     2107.921     18.07131    23.224837    21.903328    9192.8977    1479.2972    1913.2484    2931.2174     37.59873   -387.45846   -16.432997   -4072.1194 
29125000    110.36245   -4535.9729   -4346.8154   -4535.9729            0    2053.4794    17.977176    23.343787    21.888705    9185.7123    1298.9419    2773.2402    2088.2562    -512.5299   -85.750513   -252.42316   -4071.7227 
29126000    109.71055   -4551.4486   -4363.4085   -4551.4486            0    1810.8827    17.965828    23.345075     21.92316    9194.8714    897.07342    2572.9823    1962.5924    376.84958    291.00178     367.6129   -4120.5732 
29127000    106.69001   -4542.8116   -4359.9486   -4542.8116            0    639.44408    17.972669    23.397386    21.970158    9238.7474    614.23832    857.90117    446.19274    38.723376   -21.965787   -321.13046   -4273.7914 
29128000    108.91247   -4548.5311   -4361.8589   -4548.5311            0    1576.8074    17.898013    23.423001    21.932847    9194.8015    1790.5723    863.64604    2076.2038    804.07701    45.709436   -566.97912   -4150.4141 
29129000    109.95278   -4540.9001   -4352.4447   -4540.9001            0     1431.473    18.033495    23.296511    21.931948    9213.9954    656.42797    815.18033    2822.8108    193.69924    58.262295    208.49694   -4160.0882 
29130000    102.23265    -4549.134   -4373.9107    -4549.134            0    2138.8144    18.002397    23.193912    21.983194    9178.9947    1255.5851    2720.1347    2440.7233   -387.76485   -58.615934   -610.67847   -4087.5957 
29131000    105.98944   -4556.7389   -4375.0766   -4556.7389            0    2189.0558    17.951181    23.260808    22.007752     9189.534    2403.7095    2415.9315    1747.5265   -450.78695    78.573601    845.57984   -4081.6995 
29132000    108.65962   -4537.6585   -4351.4197   -4537.6585            0    1324.2277    18.059411     23.19938    22.024026    9227.3433    1024.0759    1941.3499    1007.2574    247.28659   -71.366291    615.26816   -4173.2166 
29133000    107.31553   -4550.4823   -4366.5472   -4550.4823            0    2661.4529    17.861449    23.205987    22.066575    9146.4313    3262.9517    4311.1348    410.27216   -74.749262   -450.83969    172.25282   -4011.5325 
29134000    106.76755   -4559.0844   -4376.0885   -4559.0844            0      1086.33    17.852433    23.473776    22.004255    9221.1916    2107.1202    1053.6058     98.26421   -138.24594    186.35315   -486.30498   -4229.9971 
29135000    104.37414   -4560.3873   -4381.4936   -4560.3873            0    1510.7386    17.823995    23.594285    21.880168    9201.5827    1628.3652    533.57728    2370.2733   -176.39775   -335.12491    372.44427   -4178.7591 
29136000    101.38965   -4537.5757   -4363.7973   -4537.5757            0    1933.9375    17.984636    23.283587    21.993162     9209.567    1736.3116    1715.9753    2349.5254   -493.56641    626.01908   -191.75634   -4104.0461 
29137000    105.29353   -4551.5148   -4371.0453   -4551.5148            0    1790.1967    17.987908    23.281275    21.951554    9192.9038    1917.3672    1428.3763    2024.8465   -493.92367   -648.46635    216.65316   -4131.0353 
29138000    111.53479   -4552.3747   -4361.2079   -4552.3747            0    1821.1624    17.950006    23.244209    22.046809    9198.6711    2579.7858    2055.5391    828.16244    117.31725    501.57365   -402.10036   -4116.8931 
29139000    99.050539   -4554.9225   -4385.1533   -4554.9225            0     1873.065    17.891275    23.264451    22.067263    9185.0724    2880.1919    1683.4929    1055.5102    468.97131    212.16063    176.04599   -4134.2471 
29140000    107.27764   -4551.5369   -4367.6667   -4551.5369            0    1618.4987    17.983218     23.19609    22.092478     9215.664    1896.0392    1608.4787    1350.9782   -100.78524   -36.211329    14.132529   -4150.1388 
29141000    104.69289    -4553.758   -4374.3179    -4553.758            0     2701.949    17.838316    23.285275    22.034997     9152.679    2415.3964    2663.7463    3026.7044   -81.395894    -280.2848    11.786809   -4013.6552 
29142000    106.30483   -4552.4949   -4370.2921   -4552.4949            0    2263.3011    17.767491    23.308614    22.102809    9153.5601    2678.1421    2017.2094     2094.552   -234.46751   -83.496507    458.14663    -4068.152 
29143000    101.21002   -4546.0163   -4372.5458   -4546.0163            0     1877.267    17.894684    23.231978    22.100551    9187.8383     2301.569    2351.6029    978.62932     53.18631    274.43965   -61.969795    -4121.001 
29144000    110.55581   -4555.1565   -4365.6676   -4555.1565            0    1851.9724    17.899592    23.299725    21.984439    9168.7325     2541.186    1682.7804    1331.9507    1280.6475    356.61653    15.154636   -4118.0282 
29145000     109.4372   -4539.3028   -4351.7312   -4539.3028            0    1232.0339    17.877474    23.304273    22.122985    9216.9118    2462.7129    1279.1477   -45.758959    157.28674   -89.239153   -342.15498   -4186.1222 
29146000    103.54832   -4546.1731   -4368.6949   -4546.1731            0    2381.4872    17.878886    23.256449     22.02356    9157.3828    2962.0631    2293.0705    1889.3281    68.755309   -693.30293    105.72024   -4050.6448 
29147000    101.16338   -4549.5557   -4376.1651   -4549.5557            0    2125.8052    17.752991    23.454148    22.070198    9189.6173    2574.4959    2378.1684    1424.7512    1180.4389    453.48715   -400.54683   -4091.2623 
29148000    101.49845   -4550.5859   -4376.6211   -4550.5859            0    2307.1892     17.69339    23.394427     22.08608    9142.0183    2353.6718    2992.7859    1575.1097    269.71096   -429.72765   -333.27446   -4069.0105 
29149000    110.96586   -4537.3264   -4347.1347   -4537.3264            0    1993.4755    17.817147    23.321705    22.129986    9195.5902    2163.4809    2332.6077    1484.3379    351.59709   -10.079233   -144.76858   -4079.7932 
29150000    106.75507   -4549.5401   -4366.5656   -4549.5401            0    2459.9165    17.941427    23.268789    21.951433    9164.1803    3633.5957    2199.6337    1546.5202   -463.39741    796.76331    199.15335   -4037.7973 
29151000    110.22976   -4544.3074   -4355.3774   -4544.3074            0    1709.7528    17.982542    23.241388    21.994126    9192.2081    1300.9907    2408.3147    1419.9529    476.26044   -88.572154    285.35109   -4126.1697 
29152000    102.06351   -4551.2186   -4376.2853   -4551.2186            0    2842.5426    17.869835     23.34178    21.924448    9144.9891       3176.3    2921.2293    2430.0986    139.16961     143.1846   -199.99299   -3997.1745 
29153000    108.28314   -4545.0685   -4359.4749   -4545.0685            0    1790.6116    17.892765    23.259246    22.125634     9208.074      2005.36    3049.9661    316.50869   -720.42821   -357.81879    204.51936   -4119.0131 
29154000    101.86322   -4544.2053   -4369.6152   -4544.2053            0    2449.9887    17.898004     23.28497    22.002651    9169.7034    2541.4514     3174.064    1634.4507    10.349054    530.54076   -939.68497   -4041.9764 
29155000    107.11085   -4549.3438   -4365.7594   -4549.3438            0    1007.8803    18.000929    23.403209    21.914634    9232.1861   -637.30852    2234.7454     1426.204   -170.97884    54.101152   -28.524673   -4230.0564 
29156000    102.01004   -4562.0649   -4387.2231   -4562.0649            0    1786.9547    17.946616    23.261609    22.046146    9203.5417    1400.9118    1780.4673     2179.485   -536.99453   -145.19935    443.73201   -4147.3706 
29157000    108.13231   -4554.9633   -4369.6282   -4554.9633            0    2079.5012    17.908988    23.267335     22.01877    9175.0984     2975.052    1512.2987    1751.1531   -1086.9154   -196.33801   -154.03756   -4091.3714 
29158000    107.38421   -4556.5581   -4372.5052   -4556.5581            0    1673.0032    17.947573    23.436143    21.908127    9215.0378    2032.3376    1449.3043    1537.3677   -98.108003    645.06873    261.93639   -4147.6672 
29159000    106.88658   -4550.1567   -4366.9568   -4550.1567            0    1746.6089    17.903728    23.495815    21.889133    9207.9411    1137.3534    1619.1394    2483.3338   -557.51731    16.150376   -34.731587   -4132.4075 
29160000    107.53716     -4534.82    -4350.505     -4534.82            0    1681.3216    17.908032    23.386178    21.981639    9205.9199    2629.7225    1210.0621    1204.1803   -396.59859   -216.94137    53.238147   -4124.7726 
29161000    101.88009   -4552.7693   -4378.1503   -4552.7693            0     1236.918    18.026272    23.226517    22.016239    9217.9243    1656.1714    1437.2035    617.37914    162.19858    300.10914   -100.97772   -4211.8665 
29162000    102.92078   -4546.3437    -4369.941   -4546.3437            0    1913.7786    17.947684    23.263437    21.969904    9172.9801     3008.619     1238.125    1494.5919   -243.30209   -506.01402    106.71644   -4113.9186 
29163000    108.84982   -4549.2815   -4362.7167   -4549.2815            0     2166.774    17.869439     23.50654    21.823307    9166.8515    2836.4314    2488.5861    1175.3045    163.71693    735.80753    154.57863   -4073.0426 
29164000    110.42724   -4559.0687   -4369.8001   -4559.0687            0    2753.6579    17.862098     23.52928    21.758345    9144.6471    2603.0149    1883.5124    3774.4465   -363.00343    163.38381    426.56605   -4002.5577 
29165000    107.80546   -4547.7957   -4363.0208   -4547.7957            0    1756.3282     18.05864    23.221008    21.898864    9183.0658    585.00955    3013.1094    1670.8658    307.16641   -126.35672    32.877536   -4127.8035 
29166000     108.3266   -4543.5702   -4357.9022   -4543.5702            0    2638.9015    18.009697    23.102868    21.968125    9140.4021    1480.3418    4380.5467    2055.8161    362.95094   -459.70908   -51.791688   -4006.1276 
29167000    103.19563   -4551.6753   -4374.8016   -4551.6753            0    1016.1956    17.897531    23.456328     21.95287    9216.0422    1507.5286    1947.8906   -406.83254    91.488673    23.113225    407.62969   -4238.2183 
29168000    112.08528   -4542.5134   -4350.4031   -4542.5134            0    1788.1102     17.86936    23.586208    21.825635    9198.8602    2200.6546    1199.9584    1963.7175   -2.1549313    115.95488    188.35639   -4110.5175 
29169000      112.247   -4543.0696   -4350.6821   -4543.0696            0    2399.8697    18.002764    23.146969    21.946657    9145.3785    2191.8977    3201.8771    1805.8345   -68.885868   -383.46034    629.55479   -4030.5972 
29170000    107.03076   -4548.8127   -4365.3657   -4548.8127            0    1806.4466    17.998198    23.084132    22.066887    9168.1907    2231.6768    1652.5467    1535.1163   -118.61725   -494.03097   -190.84956   -4123.8281 
29171000    107.58065   -4549.4759   -4365.0863   -4549.4759            0    1742.6554    17.906768    23.331469    21.988858    9186.7515    2400.6229    1750.2953    1077.0481    116.93183    677.05507    646.62413   -4131.6065 
29172000    108.57665   -4552.1405   -4366.0439   -4552.1405            0     2201.067    17.826527    23.426599    21.933326     9159.684    2066.2176    1577.4738    2959.5097    455.34132    -152.9962    14.162793   -4072.0152 
29173000    102.88779   -4543.3435   -4366.9974   -4543.3435            0    1745.1059    17.896081     23.55094      21.7881    9183.0204    1974.1215     1389.127    1872.0691    -87.33355    63.729142    549.59876   -4133.2842 
29174000    103.87968   -4550.0549   -4372.0087   -4550.0549            0    2298.0547    18.001329    23.291799    21.838449    9156.4979    2389.9757    2382.4614    2121.7271   -439.83433    -429.5684    132.01279   -4065.1307 
29175000    112.56558   -4551.2771   -4358.3435   -4551.2771            0    1840.5962     18.02389    23.291811    21.880697    9185.7143    1191.2167    2180.0621    2150.5099   -152.83984    367.13226    262.97795   -4111.7695 
29176000    107.87996   -4557.3478   -4372.4452   -4557.3478            0    1132.8945    17.937739    23.412216    21.970189    9226.6495    1572.1444    914.00668    912.53255     748.9118   -276.43991   -137.12158   -4220.0015 
29177000    105.00467   -4529.8243   -4349.8499   -4529.8243            0    816.24614    18.069621    23.345146    21.923949    9248.3537    862.51995    625.19075    961.02771    714.17925    -559.7194    -15.54994   -4239.7564 
29178000    112.54125   -4545.9888   -4353.0969   -4545.9888            0    3404.2703    17.994674    23.124215    21.914698    9118.9842    2644.4791    4201.6327     3366.699   -211.69554   -407.64544   -348.17213   -3900.3595 
29179000    107.27554   -4549.0692   -4365.2026   -4549.0692            0    2384.8721    17.933001    23.435635    21.806617    9164.6947     2363.908    2290.3848    2500.3236    417.95192   -381.77554    648.99449   -4046.4461 
29180000    107.04783   -4551.1865   -4367.7101   -4551.1865            0    1304.5458    17.988154    23.518891    21.760648    9206.0914    1374.3971    1327.0572    1212.1831     -452.977    -646.0388   -146.09574     -4192.56 
29181000    106.96625   -4543.3077   -4359.9712   -4543.3077            0    1843.9132      17.9468    23.404471    21.899981    9198.7666    1754.6018    2267.3453    1509.7925   -262.42918   -274.56358    279.45247   -4112.6018 
29182000    109.23453   -4534.7267   -4347.5024   -4534.7267            0    2064.3918    17.929723    23.354995      21.8666    9156.6078    2080.9915    2108.0506    2004.1334   -309.96055   -37.954243     52.25391   -4071.8241 
29183000    108.47675   -4557.1432   -4371.2177   -4557.1432            0    2038.1538    17.818201    23.536822    21.845709    9161.7369    2070.8842    1634.5617    2409.0154   -537.47154    28.213005    327.14366   -4098.8908 
29184000    107.56279   -4555.3709    -4371.012   -4555.3709            0    1841.6459    17.915654    23.521072    21.766887     9172.466    1783.2796    1466.1635    2275.4945   -13.531861   -553.85028   -56.254858   -4124.6531 
29185000    108.11836   -4542.0523   -4356.7411   -4542.0523            0    2713.8325    18.051945    23.287291    21.745174     9141.256    3140.9564    2822.8003    2177.7407     57.02923    313.14324   -239.93132   -3994.9443 
29186000    106.19597   -4537.3536   -4355.3374   -4537.3536            0    2186.9601    18.002909    23.340945    21.836372    9175.7507    3016.9288    1023.3105    2520.6411   -205.66626   -38.404999   -79.204259   -4062.6807 
29187000     107.8102   -4552.6355   -4367.8525   -4552.6355            0    2420.1287    17.944584    23.299634    21.873256    9145.2577    2848.0829    2699.0302    1713.2731    242.39005    53.252296    -25.33574   -4045.0697 
29188000    117.39909   -4548.7489   -4347.5308   -4548.7489            0    3034.1232    17.795482    23.467033    21.864863    9130.9233    2540.3765    2826.4005    3735.5926   -169.91238   -593.55213   -161.94972   -3943.4914 
29189000     105.7779   -4555.5438   -4374.2441   -4555.5438            0    1577.6975    17.982168    23.281232    21.941334    9185.6747    602.79095    2545.2751    1585.0264   -43.819905    81.685527    697.84691     -4162.89 
29190000    109.84479   -4535.0098   -4346.7396   -4535.0098            0    1658.1198    18.041822    23.174261    21.940486    9173.4464    1709.5311    1752.6996    1512.1287    767.69509   -605.21867    216.49867   -4124.9075 
29191000    108.02923   -4543.6518   -4358.4934   -4543.6518            0    2671.9676    18.011553    23.246891    21.857905    9152.1806    2430.6668    2693.9102    2891.3259    246.99198    152.87268    336.32053    -4001.852 
29192000    110.41119   -4548.8665   -4359.6255   -4548.8665            0    1919.9902    17.902112    23.315263    21.990165    9178.5287    2749.3474    1637.0638    1373.5595    339.79946    672.58889   -54.231618   -4102.6167 
29193000    106.39762   -4546.0423   -4363.6804   -4546.0423            0    1588.2696    17.972953    23.236692    22.007046     9190.846    1516.6219    1695.9991    1552.1877    -286.3885    203.28221     548.3856   -4150.7903 
29194000    110.65781   -4537.7262   -4348.0625   -4537.7262            0    2106.9366    18.063504    23.088366    22.018111    9182.8026    1942.3273    2920.1843    1458.2983    61.345432    -108.5029    -322.7954   -4065.8979 
29195000    108.72587   -4552.0428   -4365.6904   -4552.0428            0    1921.6058     17.90014    23.341302     22.00083    9192.2233    3455.0938    1241.9396    1067.7839    75.148054   -380.56591    266.92484   -4108.0815 
29196000    108.54588    -4550.163    -4364.119    -4550.163            0    2038.8367    17.826498    23.562544    21.808987    9160.5952    1724.1163    2223.7848    2168.6089    279.15459     159.4365   -70.101057   -4091.7348 
29197000    109.42135    -4546.291   -4358.7466    -4546.291            0     1792.818    17.929076    23.435624    21.845256    9178.9194    2350.8784    1762.0328    1265.5429   -1151.5717   -286.06805   -77.879904   -4118.7508 
29198000     111.5854   -4550.7753   -4359.5217   -4550.7753            0    2327.3363    18.017892    23.199173    21.956467    9177.8075    2956.0744    2393.6964    1632.2381   -673.85103    490.29101   -165.19555   -4048.0103 
29199000    111.43209   -4545.4284   -4354.4376   -4545.4284            0    2526.9434    18.112704    23.185507    21.840254    9171.8632    3320.3483     1932.783    2327.6987   -275.39866   -320.53383    95.138937   -4016.4281 
29200000    108.11287   -4549.8887   -4364.5869   -4549.8887            0    2386.4178    17.933885    23.350179    21.893566    9168.1371    2293.7159     2190.566    2674.9715    365.31929   -533.49717    155.76272    -4045.504 
29201000    108.13332   -4547.9496   -4362.6128   -4547.9496            0    1799.4149    17.960884    23.395716     21.87317    9191.2752    2318.4611    936.47633    2143.3071   -452.25814   -24.541219    427.04327   -4121.4097 
29202000    103.65058   -4538.1036   -4360.4501   -4538.1036            0    1892.3634    18.084185    23.183047    21.928397     9193.404    2113.0565    1187.7704    2376.2632   -106.66445    124.79065    46.124328   -4106.7289 
29203000     109.3996   -4559.3436   -4371.8365   -4559.3436            0    2401.4936    17.895612    23.331268    21.945671    9162.9175    3047.5053    1931.2501    2225.7256    224.08896   -188.38872     393.2381   -4050.9206 
29204000    104.94454   -4550.0485   -4370.1771   -4550.0485            0    1747.3011    17.793093    23.500837    21.971654    9187.5039    2459.3382     1302.307     1480.258    23.339815    261.91624   -40.848586   -4136.0557 
29205000    104.68132   -4555.5643   -4376.1441   -4555.5643            0    2005.3483    17.950601    23.392957    21.809114    9158.0313    754.92253     2277.539    2983.5832   -607.74514   -452.48139    718.35394   -4108.3088 
29206000     105.6314   -4552.6895   -4371.6409   -4552.6895            0    1718.5791    18.037084    23.327846     21.85028    9193.8622    707.61261    1668.3891    2779.7356    34.796719   -32.063616    112.27318   -4141.2086 
29207000    106.21634   -4547.6203   -4365.5691   -4547.6203            0    1653.3473    18.165916    23.240106    21.780935    9195.4276    834.02841    2442.3775    1683.6359   -114.12901   -52.533945  -0.53364846   -4143.8455 
29208000      105.721   -4535.1645   -4353.9623   -4535.1645            0    2601.8601    17.992978    23.331899    21.836454    9167.1695    2812.4061    1715.1074    3278.0668    100.42267    247.42792    422.34262   -4006.1098 
29209000    106.01923   -4543.7134        -4362   -4543.7134            0    2697.8987    17.841322    23.433275     21.89069    9152.0733     3071.893    2147.2526    2874.5505    528.20119   -811.52354    129.17354   -4001.9018 
29210000    109.64792   -4535.8639   -4347.9311   -4535.8639            0     2663.608    17.825265    23.410667    21.947981    9158.9218    3015.3621     2826.514    2148.9479   -55.052486   -241.33211   -115.61181   -3992.1437 
29211000    110.39202   -4558.7799   -4369.5718   -4558.7799            0    2559.1413    17.821009    23.332878    22.003061    9149.2123      3076.47    2030.2601     2570.694   -51.897194    -219.7022    255.85842   -4028.1007 
29212000    108.77861   -4546.5667   -4360.1239   -4546.5667            0    2046.8143    17.951515    23.231913    21.980447     9166.902    2079.1402    1957.0948    2104.2079   -236.39059    59.372894    219.51301   -4086.4855 
29213000    114.84523   -4554.3099   -4357.4691   -4554.3099            0    1809.0004    17.948317    23.311235    22.007915    9208.0549    2160.2407    2774.3651    492.39554   -79.036675   -225.04468    13.790252   -4114.5383 
29214000    99.248673   -4537.5983   -4367.4895   -4537.5983            0    1736.4414      17.8999    23.612427    21.781333    9206.0999    1638.2828    501.26969    3069.7717    103.26595   -14.168436    450.01587   -4134.3522 
29215000    101.15138   -4559.4729   -4386.1029   -4559.4729            0    1100.5834    18.035881    23.373012    21.884428    9225.4432    695.28236    853.04239    1753.4253   -317.64079    304.94673   -171.28691   -4238.0264 
29216000    109.22199   -4555.0136   -4367.8108   -4555.0136            0    2501.6638    17.998579    23.192058    21.932885    9155.3146     1905.628    2443.9125    3155.4507   -554.75455    475.18248    623.45732   -4033.7865 
29217000    104.58248   -4555.1317   -4375.8809   -4555.1317            0    1582.4221    17.914987    23.371999    21.942839    9187.6652    807.58703    2258.2372     1681.442   -154.00211   -133.54718   -711.25674    -4163.848 
29218000     110.0475   -4551.7832   -4363.1656   -4551.7832            0    2036.1948    17.719413    23.597375    21.954345    9179.8064    2776.6631    1935.0675     1396.854    726.97755   -456.60032   -204.21703   -4090.5638 
29219000    114.26144   -4552.6626   -4356.8224   -4552.6626            0    1838.7804    17.902205    23.369595    21.920092    9170.6496    1552.5233    2362.0122    1601.8057    38.554936    190.41337    185.93224   -4110.8956 
29220000    100.84342   -4546.6653   -4373.8231   -4546.6653            0    2591.2197    17.994207     23.35548    21.767348     9148.018     2902.871    2136.0174    2734.7708   -130.67364   -291.70523   -156.52779   -4028.1169 
29221000    105.69301   -4546.0109   -4364.8567   -4546.0109            0    2227.5797    18.061744    23.140687    21.955448    9176.5247    3242.5329    1770.3074    1669.8988   -105.35857    487.28495    112.16411   -4066.7393 
29222000    104.65733   -4552.9704   -4373.5913   -4552.9704            0     1112.209    17.973222    23.372153    22.008111    9245.0112    1939.8506    489.83118    906.94521   -308.32391   -37.705889    346.36675   -4223.6333 
29223000    109.88602   -4553.7071   -4365.3663   -4553.7071            0    2457.8228    17.840048    23.452405    21.823909    9130.9496    2943.4434    1966.6239     2463.401    190.54793    2.2609374   -90.768629    -4038.069 
29224000    104.96481   -4545.0466   -4365.1405   -4545.0466            0    2151.1971    17.891623    23.333833    22.029894    9197.0429    2680.5647    2073.3295    1699.6973   -822.28662    307.14032    112.10046   -4076.6016 
29225000    106.55539   -4551.7491   -4369.1168   -4551.7491            0    3108.1056    17.838213    23.245394    22.054845    9145.1803    3640.1006    2916.8004    2767.4158    33.128412    186.05458   -238.79875   -3954.5792 
29226000    107.36853   -4548.3234   -4364.2974   -4548.3234            0    1496.5029    17.912551    23.383995    21.985731    9209.0973     1611.246    1295.3765    1582.8863    33.840648   -504.25255   -28.095322   -4163.3092 
29227000    109.88581   -4526.1767   -4337.8362   -4526.1767            0    1636.4691    17.805186    23.489378    22.023381    9210.8995    2056.7787     1201.856    1650.7725    -458.6043    37.071414   -475.38487   -4118.0068 
29228000     108.1831   -4538.0598   -4352.6376   -4538.0598            0    1728.2439    17.929736    23.382659    21.982153    9215.9053    1779.2335    682.36363    2723.1346   -350.50453    -423.7387    376.14259   -4120.3538 
29229000    111.65328   -4545.8167   -4354.4468   -4545.8167            0    2950.5217    17.925722    23.032736    22.118607    9132.2953    2677.1202    4058.4943    2115.9505    85.277904    566.83044   -166.40677   -3961.4811 
29230000    112.82718   -4543.6656   -4350.2837   -4543.6656            0    2310.3749    17.867999    23.342232    22.007234    9178.7548    2838.1924     1764.531    2328.4013   -699.12959   -399.76722    573.63545   -4041.0106 
29231000    109.69771   -4544.4556   -4356.4375   -4544.4556            0    2466.3472    17.878892    23.431283    21.917349     9181.734    2674.6654    1601.6603    3122.7157    -1041.188    86.937635    365.12322   -4026.1784 
29232000    109.48365   -4549.7948   -4362.1436   -4549.7948            0    2286.2384    17.902144     23.33306    21.956612    9171.5361    3270.3561    2054.4699    1533.8894     921.4319   -20.351108   -174.18109   -4056.3422 
29233000    100.62835    -4544.214   -4371.7404    -4544.214            0    2060.6051    18.018357    23.096217    22.093556    9194.3636    2376.4284    2972.2489    833.13799    -297.7167    23.082168    182.38502   -4095.4331 
29234000     106.8455   -4537.8271   -4354.6976   -4537.8271            0     2496.116    17.954461     23.25569    21.936717     9159.531      2340.71    3269.6062     1878.032    386.40365    6.3999534    98.955776   -4021.2605 
29235000    103.45805     -4550.14   -4372.8164     -4550.14            0    2927.5347    17.850643    23.389485     21.89389     9141.079    2890.2709    2775.5461    3116.7872    4.9164432    -264.2939    709.87496   -3982.5372 
29236000    111.41745   -4557.4772   -4366.5115   -4557.4772            0     1847.665    17.892785    23.399768     21.87556    9159.0131     2826.299    1692.6249    1024.0711   -305.42257    228.46443    415.44669     -4119.71 
29237000    108.64143   -4553.1232   -4366.9155   -4553.1232            0    1414.2006    18.173584    23.180288     21.89074    9221.8878    233.57082    1830.5079    2178.5229    155.57672   -649.93309   -23.598066   -4176.7172 
29238000    107.61124   -4541.2924   -4356.8504   -4541.2924            0    1939.6799    17.935566    23.346706    21.907643    9173.5273     1376.267    2349.2908     2093.482    33.817205   -243.79387    93.221553   -4097.3474 
29239000    106.66015   -4541.4496   -4358.6377   -4541.4496            0    1675.6937    18.010734    23.275134     21.87578     9170.376    370.46053    1980.0816     2676.539    219.67176    130.86528    425.86192   -4134.5296 
29240000    112.23319   -4552.0298    -4359.666   -4552.0298            0    1477.0666    17.863185    23.432047    21.933499     9180.726    1627.7197    1104.0484    1699.4316    429.32579   -320.56293   -20.180559   -4161.8994 
29241000    103.57322   -4552.2818   -4374.7608   -4552.2818            0    1629.6872    17.839207    23.554991     21.85015    9181.4846    1308.5533    1504.5092    2075.9991    140.99166   -32.082517    262.21892   -4156.5416 
29242000     107.8661   -4549.6991   -4364.8203   -4549.6991            0    2184.9187    17.911124    23.306139    21.944657    9160.5591    2790.0864    1382.7899    2381.8798   -91.017601   -192.23616   -514.33588   -4072.9209 
29243000     111.6759   -4543.5646   -4352.1559   -4543.5646            0    1794.2022    17.929851    23.267184    22.010592    9182.3161    2113.3222    755.04203    2514.2422   -87.874758    -316.1199    313.92753   -4111.8859 
29244000     107.0653   -4540.3486   -4356.8424   -4540.3486            0     1442.697    17.848859    23.558073    21.872886     9197.214    1982.0114     806.3783    1539.7014   -779.62323    601.47242   -167.22452   -4163.3306 
29245000    109.91964   -4539.9591   -4351.5606   -4539.9591            0    1952.5625    17.809718    23.545916    21.892446    9180.5121    2539.5339     1788.582    1529.5714   -387.92758   -624.23917     355.0159   -4090.1352 
29246000    99.842195    -4536.224   -4365.0979    -4536.224            0    1142.3751    18.034887    23.343415    21.922668    9229.3522    1344.0835    298.03048    1785.0113    196.23073   -185.51168    125.16911   -4211.3335 
29247000    106.86471   -4549.7864    -4366.624   -4549.7864            0    1858.8852     18.01752    23.219285    21.953899    9184.4999    1438.1721    2888.6032    1249.8804   -166.97229    94.995892   -105.99657   -4117.6328 
29248000    110.31288   -4540.4716   -4351.3991   -4540.4716            0     1962.838    17.995732     23.23226    22.004309    9199.5946     2094.014    1105.7484    2688.7517   -114.18981   -347.73434    133.59786   -4088.0517 
29249000    102.26754   -4548.4629   -4373.1799   -4548.4629            0     2713.126    17.758411    23.489795    21.921666    9144.4354    3223.2901    2482.0001    2434.0879   -586.07824    264.48471   -461.72018   -4011.3514 
29250000    112.97002   -4539.1427    -4345.516   -4539.1427            0    1922.2134    17.786638     23.48102    21.947625    9166.3904    2777.5411    1893.5136    1095.5855    -184.2599    43.511595    395.99538   -4088.5499 
Loop time of 436.532 on 64 procs for 250000 steps with 864 atoms

Performance: 98.962 ns/day, 0.243 hours/ns, 572.696 timesteps/s
194.0% CPU use with 32 MPI tasks x 2 OpenMP threads

MPI task timing breakdown:
Section |  min time  |  avg time  |  max time  |%varavg| %total
---------------------------------------------------------------
Pair    | 17.241     | 25.77      | 35.827     | 107.1 |  5.90
Bond    | 1.0168     | 1.278      | 1.8036     |  18.9 |  0.29
Kspace  | 219.49     | 231.57     | 241.57     |  42.5 | 53.05
Neigh   | 0.64532    | 0.72782    | 0.80882    |   5.4 |  0.17
Comm    | 67.064     | 74.065     | 80.142     |  39.2 | 16.97
Output  | 0.45452    | 0.455      | 0.4566     |   0.1 |  0.10
Modify  | 76.849     | 80.901     | 87.38      |  27.1 | 18.53
Other   |            | 21.76      |            |       |  4.99

Nlocal:        27.0000 ave          39 max          18 min
Histogram: 7 4 4 1 2 3 2 4 1 4
Nghost:        2144.34 ave        2252 max        2047 min
Histogram: 13 3 0 0 0 0 0 0 9 7
Neighs:        6623.72 ave        9569 max        4304 min
Histogram: 5 5 4 2 2 3 2 3 3 3

Total # of neighbors = 211959
Ave neighs/atom = 245.32292
Ave special neighs/atom = 2.0000000
Neighbor list builds = 2216
Dangerous builds = 0

unfix		3
unfix		2
unfix		1

write_data	data.final.${pid} nocoeff
write_data	data.final.0 nocoeff
System init for write_data ...
PPPM initialization ...
  extracting TIP4P info from pair style
  using 12-bit tables for long-range coulomb (../kspace.cpp:340)
  G vector (1/distance) = 0.3719016
  grid = 24 27 25
  stencil order = 5
  estimated absolute RMS force accuracy = 0.0031434024
  estimated relative force accuracy = 9.4662631e-06
  using double precision FFTW3
  3d grid and FFT values/proc = 4410 672
Last active /omp style is kspace_style pppm/tip4p/omp

write_restart   restart.lmp.${pid}
write_restart   restart.lmp.0
System init for write_restart ...
PPPM initialization ...
  extracting TIP4P info from pair style
  using 12-bit tables for long-range coulomb (../kspace.cpp:340)
  G vector (1/distance) = 0.3719016
  grid = 24 27 25
  stencil order = 5
  estimated absolute RMS force accuracy = 0.0031434024
  estimated relative force accuracy = 9.4662631e-06
  using double precision FFTW3
  3d grid and FFT values/proc = 4410 672
Last active /omp style is kspace_style pppm/tip4p/omp
Total wall time: 0:07:16
