LAMMPS (30 Jul 2021)
Processor partition = 0
  using 2 OpenMP thread(s) per MPI task
using multi-threaded neighbor list subroutines
variable        pid world 0 1
variable        phase world IceIh Liquid

shell cd ${phase}
shell cd IceIh
include Restart.lmp
echo both
log log.lammps
#include		in.partitions
include		in.temp
variable        temperature equal 219.50
variable	tempDamp equal 100.0
include		in.pressure
variable        pressure equal 3022.2
variable        pressureDamp equal 1000.0 # This is 1 ps
include		in.seed
variable        seed equal 745823

units		real
atom_style	full
#include		in.box
read_restart	restart.lmp.${pid}
read_restart	restart.lmp.0
Reading restart file ...
  restart file = 30 Jul 2021, LAMMPS = 30 Jul 2021
  restoring atom style full from restart
  orthogonal box = (0.069167422 0.20133981 0.16439666) to (18.138405 23.427838 22.048799)
  2 by 4 by 4 MPI processor grid
  restoring pair style lj/cut/tip4p/long/omp from restart
  restoring bond style harmonic/omp from restart
  restoring angle style harmonic/omp from restart
  864 atoms
  576 bonds
  288 angles
Finding 1-2 1-3 1-4 neighbors ...
  special bond factors lj:    0        0        0       
  special bond factors coul:  0        0        0       
     2 = max # of 1-2 neighbors
     1 = max # of 1-3 neighbors
     1 = max # of 1-4 neighbors
     2 = max # of special neighbors
  special bonds CPU = 0.002 seconds
  read_restart CPU = 0.006 seconds
include 	in.setup
variable	out_freq equal 1000
variable	out_freq2 equal 10000
variable	out_freq3 equal 1000

timestep	2.0

neigh_modify    delay 7 every 1

include		in.tip4p
# This is TIP4P/Ice

# create groups ###
group ox type 2
288 atoms in group ox
group hy type 1
576 atoms in group hy

# set charges - beside manually ###
set group ox charge -1.1794
Setting atom values ...
  288 settings made for charge
set group hy charge 0.5897
Setting atom values ...
  576 settings made for charge

# ### TIP3P Potential Parameters ###
pair_style lj/cut/tip4p/long/omp 2 1 1 1 0.1577 8.5
pair_coeff 1 1*2 0.000 0.000
pair_coeff 2 2 0.21084 3.1668
bond_style  harmonic
bond_coeff  1 450 0.9572
angle_style harmonic
angle_coeff 1 55 104.52
kspace_style pppm/tip4p/omp 1.0e-5
pair_modify tail yes

thermo          ${out_freq}
thermo          1000
thermo_style    custom step temp pe etotal epair emol press lx ly lz vol pxx pyy pzz pxy pxz pyz enthalpy

restart 	${out_freq3} restart.lmp.${pid} restart2.lmp.${pid}
restart 	1000 restart.lmp.${pid} restart2.lmp.${pid}
restart 	1000 restart.lmp.0 restart2.lmp.${pid}
restart 	1000 restart.lmp.0 restart2.lmp.0


include         in.dump
dump            myDump all atom ${out_freq2} dump.water.${pid}
dump            myDump all atom 10000 dump.water.${pid}
dump            myDump all atom 10000 dump.water.0
dump            myDump2 all dcd ${out_freq2} dump.dcd
dump            myDump2 all dcd 10000 dump.dcd
dump_modify     myDump append yes
dump_modify     myDump2 append yes


variable natoms 	equal  "count(all)"                        # NUMBER ATOMS
variable H      	equal  "enthalpy/v_natoms"                 # ENTHALPY-per-atom
variable Vol      	equal  "vol/v_natoms"                 # volume-per-atom
fix AVG all 		ave/time ${out_freq} 1 ${out_freq} v_Vol v_H file vol_enthalpy.dat
fix AVG all 		ave/time 1000 1 ${out_freq} v_Vol v_H file vol_enthalpy.dat
fix AVG all 		ave/time 1000 1 1000 v_Vol v_H file vol_enthalpy.dat


timer           timeout 23:50:00 every 1000
New timer settings: style=normal  mode=nosync  timeout=23:50:00

fix 		1 all shake 1e-6 200 0 b 1 a 1
Finding SHAKE clusters ...
       0 = # of size 2 clusters
       0 = # of size 3 clusters
       0 = # of size 4 clusters
     288 = # of frozen angles
  find clusters CPU = 0.000 seconds
fix             2 all nph aniso ${pressure} ${pressure} ${pressureDamp}
fix             2 all nph aniso 3022.2 ${pressure} ${pressureDamp}
fix             2 all nph aniso 3022.2 3022.2 ${pressureDamp}
fix             2 all nph aniso 3022.2 3022.2 1000
fix             3 all temp/csvr ${temperature} ${temperature} ${tempDamp} ${seed}
fix             3 all temp/csvr 219.5 ${temperature} ${tempDamp} ${seed}
fix             3 all temp/csvr 219.5 219.5 ${tempDamp} ${seed}
fix             3 all temp/csvr 219.5 219.5 100 ${seed}
fix             3 all temp/csvr 219.5 219.5 100 745823


run             250000
PPPM initialization ...
  extracting TIP4P info from pair style
  using 12-bit tables for long-range coulomb (../kspace.cpp:340)
  G vector (1/distance) = 0.37208573
  grid = 24 27 25
  stencil order = 5
  estimated absolute RMS force accuracy = 0.0031091526
  estimated relative force accuracy = 9.3631206e-06
  using double precision FFTW3
  3d grid and FFT values/proc = 4410 672
Last active /omp style is kspace_style pppm/tip4p/omp
Neighbor list info ...
  update every 1 steps, delay 7 steps, check yes
  max neighbors/atom: 2000, page size: 100000
  master list distance cutoff = 10.8154
  ghost atom cutoff = 10.8154
  binsize = 5.4077, bins = 4 5 5
  1 neighbor lists, perpetual/occasional/extra = 1 0 0
  (1) pair lj/cut/tip4p/long/omp, perpetual
      attributes: half, newton on, omp
      pair build: half/bin/newton/omp
      stencil: half/bin/3d
      bin: standard
Setting up Verlet run ...
  Unit style    : real
  Current step  : 10250000
  Time step     : 2
  Walltime left : 23:49:59.95
Per MPI rank memory allocation (min/avg/max) = 10.19 | 10.21 | 10.23 Mbytes
Step Temp PotEng TotEng E_pair E_mol Press Lx Ly Lz Volume Pxx Pyy Pzz Pxy Pxz Pyz Enthalpy 
10250000    240.03837   -4323.4546    -3912.037   -4323.4546            0    2883.3632    18.069238    23.226498    21.884402    9184.5579    3483.8529     4830.038    336.19873   -445.93788    330.03736    119.19767   -3525.8181 
10251000    218.41391   -4319.8316   -3945.4776   -4319.8316            0    2145.6649    17.976573    23.173454    22.251027    9269.3169    2826.7719    2163.3177    1446.9051   -278.48411    442.50491    364.26059   -3655.4192 
10252000    220.95123   -4321.6119    -3942.909   -4321.6119            0    3889.3886    17.836159    23.542211    21.891175    9192.1615    4685.1323    4423.7121    2559.3215   -775.50605   -397.69482   -256.32812   -3421.5044 
10253000    220.80588   -4325.0101   -3946.5564   -4325.0101            0    4242.5037    17.821451    23.512212    21.818587    9142.4624    4185.6942    5183.7104    3358.1065    328.13216   -223.65512   -491.02751   -3380.8888 
10254000    207.11767    -4334.255   -3979.2624    -4334.255            0    2422.2387    17.857416    23.257268    22.143857    9196.6696    3030.6898    3263.7442      972.282   -743.82385    760.43256   -1011.8792   -3654.3821 
10255000    230.83774   -4332.5257   -3936.8777   -4332.5257            0      3277.61    18.120086    23.319675    21.843041    9229.8754    3534.7205    2767.3971    3530.7124   -679.49099   -357.50156    210.90277   -3495.6843 
10256000    219.11584   -4303.8798   -3928.3228   -4303.8798            0    2179.9068    18.155108    23.031797    22.088448    9236.1689    2146.5691    2237.9882    2155.1632   -45.669854   -419.49369   -598.90612   -3634.6892 
10257000    226.36714   -4337.4147   -3949.4292   -4337.4147            0    3466.6337     17.95964    23.369283    21.934415    9205.9593    2000.1621    2881.3893    5518.3497   -348.82064    269.58476    579.69605   -3484.0008 
10258000    221.77657   -4312.2076   -3932.0902   -4312.2076            0    2470.8836    17.802585     23.82808    21.833319    9261.7252    2804.1872    958.01742    3650.4461   -721.32655    7.4621253    89.034201   -3598.3411 
10259000    232.93034   -4328.9732   -3929.7386   -4328.9732            0     2842.724    17.988115    23.423725    21.984638    9263.1976    2711.9494    1230.2588    4585.9639   -385.51175   -714.63122    130.61016   -3545.7029 
10260000    224.64108   -4324.7969   -3939.7698   -4324.7969            0    2501.2224    18.133317    23.121549    22.013407    9229.5694     2203.745    4462.6424    837.27968    544.52234   -793.71048   -289.03924   -3603.0958 
10261000    225.83073   -4339.7924   -3952.7263   -4339.7924            0    2510.7335    18.038169    23.351189    22.048605    9287.1521    2963.8346    2126.8504    2441.5155    682.20169   -60.403943   -148.88638   -3612.6635 
10262000    230.58868    -4302.492   -3907.2709    -4302.492            0    2978.9401    17.991636    23.341404    22.061217    9264.6094    2892.1881    2699.4237    3345.2085    336.08656    156.95848   -754.72648   -3504.7719 
10263000    233.67457   -4323.8331   -3923.3229   -4323.8331            0     893.7072    18.167472    23.332436    22.036776    9341.1995    1410.9607    829.97187      440.189     824.5357    66.384653    397.72297   -3801.5715 
10264000    208.89864   -4320.2427   -3962.1976   -4320.2427            0    3113.5076    17.946552    23.491156    21.885752    9226.7102    2999.1955    2823.4807    3517.8467   -570.51695    206.04272   -675.61386   -3543.2375 
10265000    227.29639   -4331.7855   -3942.2073   -4331.7855            0    2731.9067     17.77112    23.570951    22.094308    9254.9122     4178.804    1065.3042    2951.6117   -305.15261   -41.389792    1207.8253   -3573.4726 
10266000    213.64134   -4304.2705   -3938.0965   -4304.2705            0    4042.3069    17.851497    23.554818    21.893087     9205.797    4356.7376    2892.2139    4877.9693    -423.2723   -84.663981   -610.24266   -3395.3881 
10267000    217.53659   -4317.9837   -3945.1334   -4317.9837            0    3001.1125    18.141516    23.198885    22.012901    9264.4144    2908.0847    3070.5457    3024.7069    1496.4663    924.37893    405.93335   -3539.6472 
10268000    217.70133   -4343.8663   -3970.7336   -4343.8663            0    2284.1904     17.96479    23.313996    22.051954    9236.0428    2132.3751    1743.4645    2976.7317    533.91565   -155.14171    651.88741   -3663.0573 
10269000    215.84744     -4317.59   -3947.6349     -4317.59            0    1755.1104    17.853793    23.691594    21.860531     9246.673    1239.2249    2841.2821    1184.8243    83.850023    166.80714    428.07708   -3710.9526 
10270000    219.29211   -4337.7864   -3961.9273   -4337.7864            0    2304.7808    17.811779     23.44834    22.003563    9189.9344    2572.7732    1153.3868    3188.1826    209.48345    148.94615    318.22966   -3653.0272 
10271000    220.20706   -4345.5084    -3968.081   -4345.5084            0    1778.0839    18.024612    23.311852    22.103533    9287.6195    1392.9842     2844.475    1096.7926    746.56551    64.316207    -276.8412   -3727.2388 
10272000    226.46311   -4318.4568   -3930.3068   -4318.4568            0    2538.4905    18.078846    23.389946    21.812793    9223.8277    1068.2582    3481.3736    3065.8398    106.88674   -61.307796    -696.2613   -3588.8289 
10273000     218.5849   -4344.2176   -3969.5706   -4344.2176            0    3365.1977    17.841721    23.363269    22.010866    9175.0298    4089.4792    3053.7202    2952.3938    562.25463    95.581483     187.8161   -3519.2789 
10274000    233.50277   -4298.2207   -3898.0049   -4298.2207            0    3252.2514    17.750559    23.479897    21.983966    9162.5056    2930.3424    2535.5215    4290.8904   -984.13142   -1074.5574    694.02149   -3463.4204 
10275000    222.24051   -4321.0407    -3940.128   -4321.0407            0    2163.6831    18.005156     23.49913    21.875798    9255.7707    1241.2925    2899.9507    2349.8061   -44.128658    105.80095    381.72051   -3648.0613 
10276000    229.82411   -4311.9518   -3918.0412   -4311.9518            0    3191.9208    18.047139    23.123839     22.13866    9238.8869    3609.4161    3631.1674    2335.1788   -435.20415    431.38935    130.61635   -3487.9628 
10277000    225.51176    -4311.604   -3925.0845    -4311.604            0     3601.173    18.267958    23.116447    21.790091    9201.7436    3546.9904    2875.1287       4381.4   -645.77513    960.01122    171.57926   -3441.8143 
10278000     208.2462   -4317.7239   -3960.7971   -4317.7239            0    2693.1713    17.944179    23.453539    22.067524    9287.2167    3148.9354     1745.424    3185.1545    615.20068   -309.27214    273.12412   -3596.0217 
10279000    211.66591   -4334.4106   -3971.6224   -4334.4106            0    3573.5593     17.70987    23.568942    22.015704    9189.4189    4564.6854    4436.0011    1719.9915    1488.7966   -318.22503   -824.86133   -3492.7003 
10280000    226.07099    -4315.658   -3928.1801    -4315.658            0    3128.5356    17.922832    23.552946    21.855536    9225.9972    4078.5932    2906.7008    2400.3127   -241.50899    -618.6121   -182.36432   -3507.2303 
10281000    233.14938    -4317.692   -3918.0819    -4317.692            0    3898.5988    17.927502    23.185505    22.023874    9154.4035    4222.5789    4700.5468    2772.6709    153.57335    170.81566    1133.8858   -3397.5894 
10282000    214.79094   -4299.3093    -3931.165   -4299.3093            0    2852.1907    18.030522    23.126845    22.066014    9201.2871    2611.9604    2342.3356    3602.2762    495.54465   -257.07127   -448.58093   -3548.4257 
10283000    219.78393   -4319.7435   -3943.0413   -4319.7435            0    3524.8942    17.969719    23.417701    21.865144    9201.0602     3172.964    3559.2056    3842.5129   -138.92324    -621.4938   -42.144041   -3470.0427 
10284000    203.71631   -4317.8805   -3968.7177   -4317.8805            0    2835.9333    17.817007    23.220212    22.142195    9160.5508    3047.2363    3985.7064    1474.8571   -397.18781    25.465301   -593.51302   -3589.8448 
10285000    208.72055   -4335.6993   -3977.9594   -4335.6993            0     2755.088    18.131962    23.308167    21.792095    9209.8357    3428.0872    2592.1169      2245.06   -189.11106   -659.80093   -254.09392    -3607.907 
10286000    220.08119   -4346.7964   -3969.5847   -4346.7964            0    1958.2424    18.028643     23.38949    21.919932    9243.2141     1885.623    3353.7055    635.39882   -974.07003    292.81456   -60.714615   -3705.6082 
10287000    230.45354   -4329.6991   -3934.7096   -4329.6991            0     3345.603     17.79027    23.107636    22.222953    9135.6579    4728.5664    3857.5748    1450.6677    4.3108015   -165.17586    278.10319   -3488.9609 
10288000    217.52402   -4318.4327    -3945.604   -4318.4327            0    3733.6406    18.060305    23.427467    21.740476    9198.5518    2811.5219    2493.2484    5896.1514    359.29347    133.49546    739.13519   -3444.7307 
10289000    219.43566   -4319.1442    -3943.039   -4319.1442            0    3165.8895    17.832791    23.309197    22.098432    9185.6117    3188.4061    2114.5524      4194.71    105.18688   -190.61668    444.93008   -3518.9278 
10290000    208.87414   -4310.7935   -3952.7904   -4310.7935            0    2579.2529    17.908888    23.558915    21.903282    9241.3008     3170.639    2638.7978     1928.322   -972.04287   -336.73043   -236.89456   -3605.1719 
10291000    219.86991   -4336.1796   -3959.3301   -4336.1796            0    3170.2165    17.992664    23.480934    21.847554    9230.2542    3896.1993    2141.5966    3472.8536    -707.6427    184.36611   -173.10493   -3532.5752 
10292000    215.81303    -4323.377   -3953.4809    -4323.377            0    4358.7825    18.000889    23.200456    21.851633    9125.8719    3408.0319    5209.0426    4459.2732   -238.58345    463.07912   -1099.6409   -3373.3641 
10293000    232.81285   -4335.5712    -3936.538   -4335.5712            0    2831.4593    18.033027     23.16312     21.97332    9178.2815    3503.4791    2482.6113    2508.2876    801.71795    378.11448   -500.71416   -3557.5307 
10294000    217.61003   -4316.4563   -3943.4802   -4316.4563            0    3287.3431    18.008209    23.317338    21.992815    9234.8599    3505.4982    4697.2017    1659.3295   -1075.9081   -360.16193   -55.299546   -3500.7377 
10295000    215.55575   -4360.6443   -3991.1891   -4360.6443            0    3380.0637    17.938654     23.46008    21.812517     9179.629    3763.8853     2553.749    3822.5568   -195.41097    193.23932    78.813128   -3538.6815 
10296000    227.07972   -4313.7979    -3924.591   -4313.7979            0    4965.5078    17.696345    23.248993    22.182456    9126.3547    5061.8034    5825.1764    4009.5437   -288.77631    366.78865   -5.4548563   -3263.6893 
10297000    212.77289   -4329.9004   -3965.2149   -4329.9004            0    1657.9326    18.167431    23.344208    21.884239    9281.1995    1787.0591    1199.2676     1987.471    201.04357    319.28642    219.41887   -3740.8025 
10298000    220.02768    -4319.416   -3942.2961    -4319.416            0    2842.3153     18.15558    23.163802    21.954289    9232.9257    2511.7793     4772.484    1242.6825      2.10755   -201.26878   -929.63183   -3559.5705 
10299000    215.79824   -4308.8256   -3938.9548   -4308.8256            0    2199.8539    17.915539     23.48871    22.116054    9306.7208    2980.9792    1316.3408    2302.2415    506.43787    98.209957   -444.00869   -3640.3709 
10300000    209.14998   -4315.3302   -3956.8542   -4315.3302            0    1959.5113    17.859755    23.716116    21.879234    9267.2568    2234.7281    1276.2058    2367.5999   -773.33801   -473.96618    347.34836   -3692.0196 
10301000    223.92965   -4309.0296   -3925.2219   -4309.0296            0    3014.2758    17.799132    23.375299    22.073907    9184.0704    1835.9975    4415.2584    2791.5715   -439.23726    932.67131    624.80339    -3521.489 
10302000    209.24276    -4311.737   -3953.1021    -4311.737            0    2016.8277    18.111636    23.243983    22.019087    9269.7392    2465.6032    1865.3957    1719.4841    277.25955    254.30166    462.74821   -3680.4479 
10303000    215.42621   -4336.3677   -3967.1346   -4336.3677            0    2363.7443    18.167338    23.107713    22.056939     9259.627    3849.8166      2219.35    1022.0663    76.336377   -199.17012    962.73764   -3647.9294 
10304000    230.32672   -4324.3344   -3929.5623   -4324.3344            0    2731.5951    17.972282    23.544473    21.821612    9233.7699    3235.2338    2031.2121    2928.3396    548.16326    525.89081     475.9044   -3561.7119 
10305000    213.19693   -4307.6065   -3942.1943   -4307.6065            0    2730.0527    17.800087    23.565558    21.916823    9193.4274    3710.8114    3671.1288    808.21799   -371.02767    22.238176    156.77851   -3576.1578 
10306000    230.76068   -4310.5603   -3915.0444   -4310.5603            0    2195.0737    17.934843    23.506452    22.037435    9290.6413    3188.0442    1124.4655    2272.7114   -868.18819   -470.19268   -221.60832   -3617.6241 
10307000    214.85393   -4314.8629   -3946.6106   -4314.8629            0    2682.0386    18.281638    22.999789    21.917073    9215.5552    1101.8973    3520.4332    3423.7854    168.45431   -823.13808   -97.355995   -3586.1462 
10308000    219.82188   -4322.6587   -3945.8916   -4322.6587            0     4169.812    18.014999    23.154369    21.922615    9144.4913    3249.0831    4004.6002    5255.7527    545.50754    672.28034    650.94483   -3389.7928 
10309000    225.29311    -4328.642   -3942.4973    -4328.642            0    2637.8494    17.947323    23.358218    22.071961    9252.9519    2802.7774    2949.1161    2161.6546    393.17019   -710.36595     137.2543   -3586.5332 
10310000    212.97331   -4342.5158   -3977.4868   -4342.5158            0    1541.8107    17.831714    23.698884    21.890585    9250.7796    1430.3936     1318.074    1876.9643   -730.53065    182.33227   -321.73649   -3769.4763 
10311000    221.46004   -4333.1863   -3953.6113   -4333.1863            0    1429.8274    17.901957    23.465968    22.091733    9280.4443    1102.7798    679.87338    2506.8289    813.22373   -25.501285   -36.778904   -3760.0903 
10312000    222.79615   -4320.9784   -3939.1134   -4320.9784            0    2628.8325    18.032049    23.382351    21.947338    9253.6929    4612.7722    1863.5829    1410.1424    190.87032    567.58121   -262.88602   -3584.3377 
10313000    232.94823   -4302.3692    -3903.104   -4302.3692            0    5193.8444    18.055991    23.068416    21.783625    9073.3835    5550.3459    5963.1152     4068.072    675.12288   -62.129959   -86.521807   -3215.8233 
10314000    220.97546   -4326.0609   -3947.3165   -4326.0609            0    2862.9776    18.020563    23.234664    22.093637    9250.6442    2203.3426    2995.5661     3390.024   -155.24988   -740.38228   -73.336448   -3561.0689 
10315000    208.43215   -4331.6633   -3974.4178   -4331.6633            0    2889.0334    17.964404     23.45418    21.853945    9207.9491    2341.0182    3060.5836    3265.4984    1502.0567    -48.16125    309.43475   -3586.4538 
10316000    229.94432    -4312.323   -3918.2063    -4312.323            0    1897.8206    17.919852    23.602897    21.852828    9242.8812    3316.7592    169.04402    2207.6585   -514.89221   -51.862046   -319.39326    -3662.384 
10317000    209.30492   -4341.2265   -3982.4851   -4341.2265            0    1682.2312    17.803916    23.300914      22.3076    9254.2524    3007.0868    2268.0517   -228.44477    421.41364    482.66055    665.16398   -3755.4448 
10318000    215.21529    -4315.215   -3946.3433    -4315.215            0    2450.5326    18.080821    23.316299    21.889723    9228.2218    2040.0901    2124.5497    3186.9581    734.36326    169.94396    145.66836   -3616.5405 
10319000    197.40252   -4322.7427   -3984.4015   -4322.7427            0    2780.8881    18.028079    23.196782    21.981227    9192.4044    2981.4219    2722.4669    2638.7754    85.257076    47.489996    813.41412   -3611.5907 
10320000    215.00035   -4311.5009   -3942.9976   -4311.5009            0     3000.496    18.031314    23.123278    22.012427    9177.9296    3266.8793     2212.865    3521.7438   -1938.9379    32.519245    938.66142   -3541.3792 
10321000    215.63409   -4320.3237   -3950.7342   -4320.3237            0    3970.5512    17.924722    23.308809    21.948096    9170.0004    2719.0172     5120.195    4072.4414   -950.17619   -37.106643   -1002.5337   -3419.7323 
10322000    238.51219   -4297.6116   -3888.8098   -4297.6116            0    5679.6118    17.690689    23.776239    21.683569    9120.5001    6009.3373    3796.1953    7233.3029    -1522.768     62.20288    417.10817   -3133.3468 
10323000    206.35793   -4331.7709   -3978.0805   -4331.7709            0    2101.4194    17.975428    23.416089    22.044433    9278.8151     1926.553    2897.7381    1479.9672   -833.95308    179.51156    227.60294   -3693.7122 
10324000    220.16978   -4323.0149   -3945.6515   -4323.0149            0    4362.9034     18.13712    22.713649    22.111422    9109.0252    4269.9228    5060.4466    3758.3407    742.46162    395.04266   -338.73653   -3366.0581 
10325000    221.31301   -4329.9796   -3950.6566   -4329.9796            0    3466.6899    18.065223    23.316363    21.861126    9208.2408    1793.2487     3266.521       5340.3   -481.02826   -605.06395   -616.90583   -3485.1053 
10326000    217.75314   -4320.2868   -3947.0654   -4320.2868            0    2033.2252    17.752517    23.495593    22.073419    9206.9534    2505.1041    1757.8936    1836.6779   -826.40893    66.758715    191.03426   -3674.0561 
10327000    227.11806    -4356.735   -3967.4624    -4356.735            0    3543.6009    17.777232    23.593315    21.904416    9187.2342    4053.1109    3041.0708    3536.6209   -552.44762    417.33304    550.15618   -3492.6682 
10328000    235.93681   -4311.3427   -3906.9551   -4311.3427            0    4083.2678    18.015281    23.372462    21.732774    9150.8338    3580.3467    4091.1692    4578.2874   -176.13691     -306.719    160.40395   -3362.0205 
10329000    225.44935   -4342.3001   -3955.8877   -4342.3001            0    3309.9675    17.860178    23.310672    22.090946    9197.1844    4066.7987    4143.9849    1719.1188   -78.417521    -221.4108   -181.54559   -3511.9168 
10330000    229.30871    -4305.626   -3912.5987    -4305.626            0    3855.6356    17.952382    23.644148    21.678962    9202.0425    4155.7263    3181.5163    4229.6643   -192.86188   -30.968148    129.24671   -3395.1633 
10331000    216.83889   -4315.0157   -3943.3613   -4315.0157            0    3236.1784    17.981671    23.406641    21.887524    9212.2518    3753.7479    2122.2496    3832.5378   -274.38344    565.02377    737.29428   -3508.5767 
10332000    213.74292   -4328.6443   -3962.2963   -4328.6443            0    3222.2067      17.9531      23.0651     22.09812    9150.6115      4641.88    3188.7729    1835.9671    628.23822    13.685429   -335.20236   -3532.2854 
10333000    203.68521   -4313.9921   -3964.8826   -4313.9921            0    3820.5167    18.012922    23.330051    21.772195    9149.5995    4679.1743    2606.9104    4175.4653    236.90524    223.41478    210.45492   -3455.0823 
10334000    236.20537   -4318.6855   -3913.8376   -4318.6855            0     3254.249    17.708673    23.517759    22.130003     9216.445    2761.1778    3727.3538    3274.2153   -201.55163  -0.16382037    241.71684   -3476.4262 
10335000    223.61987   -4339.3791   -3956.1023   -4339.3791            0    2916.8717    17.988063    23.424002    21.931651    9240.9543    3208.5138    3917.5643    1624.5369   -1034.6383   -115.19602     681.6564    -3562.996 
10336000    218.15762   -4323.5799   -3949.6652   -4323.5799            0    3166.9399     18.29092    23.112973    21.818483     9223.928    2544.0887    3827.6999    3129.0312    100.04693   -113.15013   -497.24548   -3523.6436 
10337000    211.67372   -4328.1938   -3965.3923   -4328.1938            0    2023.2951    18.070717    23.273478    22.048278    9272.8093    2593.4186    2386.2829    1090.1839    654.32011    123.79057    86.502965   -3691.7732 
10338000    231.09923   -4317.7032    -3921.607   -4317.7032            0    2764.9627    17.700424    23.677519    21.991026    9216.4859    3620.3305    1715.8912    2958.6663    905.90889    375.81139    30.587949   -3549.9601 
10339000    211.15148   -4331.2026   -3969.2961   -4331.2026            0    3712.9904    17.891095     23.41297    21.850386    9152.7699    3990.0381    1787.0284    5361.9047    126.49764   -86.368835   -160.07056   -3473.6722 
10340000    212.00273   -4305.4989   -3942.1334   -4305.4989            0    3297.7162    18.023964    23.239316    21.963329    9199.6607     3904.384    3162.5405     2826.224    55.397107   -542.96859    275.17354   -3499.6867 
10341000    217.50572   -4343.6554    -3970.858   -4343.6554            0    4231.2626    18.041497    23.132379     21.98038    9173.3522    5429.8366    3758.3573     3505.594    64.308583    459.59134   -5.4207681    -3404.783 
10342000    231.77237   -4328.0669    -3930.817   -4328.0669            0    2849.1183    17.816321    23.515027    22.027306    9228.3676    3558.4865    1693.3454    3295.5231   -253.34602   -541.95358    724.09745   -3547.3648 
10343000    208.80677   -4321.5495   -3963.6618   -4321.5495            0    3661.4456    17.750006    23.685608    21.791676    9161.6496    3584.1971    3609.3496    3790.7901   -122.25469   -498.97956   -216.96252   -3474.4441 
10344000    216.75494   -4322.6118   -3951.1012   -4322.6118            0    2042.8619    17.828761    23.374581     22.15162    9231.4619    2767.2475    2390.4047    970.93339     126.7813     -68.2768    261.87588   -3676.0679 
10345000    218.52287   -4336.5046   -3961.9639   -4336.5046            0    3763.5569    18.075623    23.214313     21.87565    9179.3106    2191.4261    5279.5013    3819.7433   -1101.4362    1265.6466    1417.9364   -3458.1334 
10346000    232.12787   -4325.4046   -3927.5453   -4325.4046            0     3551.446    18.101641    23.246503    21.850355    9194.6262    4038.0852    4504.1496     2112.103   -1455.9072    151.14818     363.1315   -3451.3171 
10347000    225.04411   -4330.8411   -3945.1231   -4330.8411            0    2829.5952    17.953408    23.402666    21.922302     9210.822    2750.1211     2618.302    3120.3626    943.38215    -173.5155    -17.45667   -3565.0225 
10348000    214.08185   -4343.0718   -3976.1429   -4343.0718            0    2991.7791    17.834206    23.676132    21.842631     9222.942    3498.0578    2097.6329    3379.6467     558.4727    357.23157    639.62312   -3573.7272 
10349000     222.3517   -4324.9359   -3943.8327   -4324.9359            0     3371.958    17.833121    23.528024     21.99587    9228.9856     3157.125    2950.4381    4008.3109    145.30333    285.92537   -397.95063    -3489.983 
10350000    219.93722   -4343.3317   -3966.3668   -4343.3317            0    2219.3877    18.061768    23.251609    22.025613    9249.9903    1988.9219    2052.3486    2616.8926     611.4283    588.36963    1296.0686   -3666.9678 
10351000    220.95004   -4358.9799   -3980.2791   -4358.9799            0    4263.3468    18.082688     23.11529    21.915278     9160.292    4885.8831    4545.9275    3358.2297   -325.04227   -78.328834    662.43413   -3410.7239 
10352000    230.27111   -4321.3485   -3926.6717   -4321.3485            0    2948.9008    18.004205    23.546573    21.673984    9188.4112    2288.4112    3048.6248    3509.6664    158.92091    480.08386    182.90505   -3531.5085 
10353000    208.05851   -4292.5032   -3935.8981   -4292.5032            0    1971.0489    17.919565    23.432816     21.96188    9221.9224    1354.1024    2143.8977    2415.1465    342.28222    484.55935    560.65366   -3670.8072 
10354000    225.40923   -4332.3804   -3946.0367   -4332.3804            0    3834.6871    17.874572    23.464259    21.812548    9148.4789    2618.7052    2934.6827    5950.6734    142.02907    152.05837    56.362588   -3434.4082 
10355000    216.87907   -4297.2303    -3925.507   -4297.2303            0    2552.4881    17.892167    23.293814    22.127014    9222.0266    859.97505    4039.6608    2757.8286    52.226408   -102.93546    905.59867   -3582.2132 
10356000     208.6205   -4325.7044    -3968.136   -4325.7044            0    3281.7951    18.088204    23.154745    21.905236    9174.5204    2266.5883    4165.5502    3413.2468    923.03839    175.66337    719.62848   -3529.0286 
10357000    218.07371   -4336.9883   -3963.2175   -4336.9883            0    4402.6802     18.05698    23.225049    21.785211    9136.1569    5578.9476    2676.3296    4952.7633   -4.1326206   -19.344372   -387.20481   -3376.5978 
10358000    226.11616   -4332.3217   -3944.7664   -4332.3217            0    3056.4075    17.975804     23.25737    21.958509     9180.192    3079.0435    2254.1615    3836.0177   -131.80762    52.734832    405.69503   -3535.5633 
10359000    221.36689   -4339.5161   -3960.1008   -4339.5161            0    3634.9738    17.934175    23.426917    21.824145    9169.2494    4235.9205    3044.7359    3624.2649    714.94064    241.48746   -474.15269   -3474.0172 
10360000    215.33693   -4325.2011    -3956.121   -4325.2011            0    2134.8591    17.779555    23.476798    22.141482    9242.0099    2201.3974    2495.8226    1707.3574    356.70524     154.6333   -481.20275   -3668.3735 
10361000    218.09639   -4318.2363   -3944.4266   -4318.2363            0    2583.4323    18.090914    23.517969    21.839847    9292.0154    1532.2381    2264.3784    3953.6804    50.098011   -149.59239   -344.55708    -3594.334 
10362000    219.72919   -4319.8797   -3943.2714   -4319.8797            0    3673.4622    18.049838    23.195481    21.955348    9192.1485    4061.5989    2373.5715    4585.2163   -519.63292    486.95969    354.41539   -3450.8141 
10363000    213.13953   -4317.3973   -3952.0834   -4317.3973            0    3391.5289     18.01036     23.20625    21.956985    9176.9859    2225.5803    4103.6201    3845.3864    222.15989    715.17348    328.16672   -3498.1716 
10364000    233.65435   -4318.7983   -3918.3228   -4318.7983            0    3121.6799    17.943005    23.750305    21.605235    9207.1106    1403.3021    3413.6786    4548.0591    7.0674049   -931.97922   -1009.3084   -3499.1552 
10365000    221.21619   -4312.2673   -3933.1103   -4312.2673            0    1694.9741    17.855837    23.504419    22.215999    9323.8565    1949.5425    2351.1839    784.19594   -1015.8487   -285.80495   -937.10149   -3702.6296 
10366000    223.16876   -4337.9448   -3955.4412   -4337.9448            0    4159.4097    18.063274    23.142653    21.914835    9161.1042    3250.9059    5044.8301    4182.4933   -329.25614     536.9475   -417.58991    -3399.722 
10367000    218.88876   -4354.8245   -3979.6567   -4354.8245            0    3473.9598    18.153323    23.183341    21.886256    9210.9329    2567.4082    3785.3484    4069.1228   -752.46937    128.36256    -64.64424   -3512.9927 
10368000    220.65314   -4342.3819   -3964.1899   -4342.3819            0    3447.7038    17.854737    23.301009    22.026774     9163.873    3695.6456    3630.5962    3016.8697   -908.82515    -551.2575   -147.56327   -3503.4192 
10369000     224.6608   -4325.1978   -3940.1369   -4325.1978            0    3246.2768    17.891175    23.517196    21.901929    9215.2429    2304.9853    3744.2413    3689.6039   -455.86696   -181.35559    94.900218    -3503.854 
10370000    203.71976   -4302.8288   -3953.6601   -4302.8288            0    2435.9425    18.054034    23.357897    21.869436    9222.4346    2127.9693     249.2853    4930.5729    508.94278    257.92884    26.866529   -3626.0265 
10371000    221.32347   -4335.2523   -3955.9114   -4335.2523            0    4859.5449    17.943182    23.068588    22.012075    9111.3232    5669.1231    4425.9071    4483.6047    181.20214    528.58258    196.74713   -3310.1785 
10372000    219.24396   -4300.9536    -3925.177   -4300.9536            0    3233.9186    18.112078    23.239099    21.828038    9187.6042    4881.7066    2845.1149    1974.9343   -1043.4468   -442.39107   -520.08457   -3491.8585 
10373000    208.55623   -4334.8941   -3977.4358   -4334.8941            0    3030.1256    17.852813    23.324429    21.983966    9154.2705    1786.1947    2407.9587    4896.2235    472.86137    -554.4461    156.66249    -3572.897 
10374000     230.5289   -4325.5929   -3930.4742   -4325.5929            0    2131.3024    17.814766    23.697621    21.798477    9202.6099    1259.5786    2078.1419    3056.1868    250.75359   -615.53906    25.059234   -3644.4308 
10375000    225.39485    -4302.448    -3916.129    -4302.448            0    4242.4081    17.853563    23.324243    22.015316    9167.6365    4271.5082    4764.7176    3690.9985    327.15705    44.656295    -45.24802   -3348.9166 
10376000    223.09389   -4329.8946   -3947.5193   -4329.8946            0    3885.0818    18.126262    22.987255    22.025614    9177.4788    2913.9026    5536.0931    3205.2496    586.31076   -240.62064    99.587702   -3427.5239 
10377000    218.32292   -4314.8247   -3940.6266   -4314.8247            0     3664.978    18.103659    23.201562    21.909845    9202.8619    4912.7656     2851.005    3231.1635    635.06258     296.5498    563.49481   -3448.7342 
10378000    213.48958   -4313.1775   -3947.2636   -4313.1775            0    3163.1146    17.835372    23.461311    22.032727    9219.4012     3463.831    3093.5455    2931.9672   -655.13733   -388.14183    498.69545   -3521.9655 
10379000     229.5599   -4320.1038    -3926.646   -4320.1038            0    2397.2651    17.757839    23.613892    22.037789    9241.1434     3427.966    795.37426    2968.4551    22.883877   -800.94736   -990.19917   -3603.5603 
10380000    208.29516   -4325.7875   -3968.7767   -4325.7875            0    2585.1507    17.925508    23.457618    21.870983     9196.523    2402.2525    2995.6878    2357.5119    647.05188    142.76859    32.477871   -3622.0515 
10381000    214.09192   -4338.4923   -3971.5461   -4338.4923            0    2728.1097    18.004799    22.982005    22.183706    9179.3155    2839.7067    4408.8937    935.72875    663.01108   -310.24013   -359.08004   -3606.3315 
10382000    220.61206   -4292.9441   -3914.8226   -4292.9441            0    2891.7195    18.183069    23.159055    21.824305    9190.2733     2630.841    2832.5845    3211.7329   -1609.4782    362.70984    517.70032   -3527.2434 
10383000    209.22011     -4314.67   -3956.0739     -4314.67            0    2328.6932     18.04354    23.403663    21.843724    9224.2754    1829.1836    3830.5998    1326.2961    191.49539    62.843209   -327.47179   -3642.8027 
10384000    210.12984   -4334.7643    -3974.609   -4334.7643            0    2742.4376    17.876679    23.487881    21.987028      9232.03    2731.3174    2246.9995    3248.9959   -1211.2188   -232.66579    122.56946    -3605.368 
10385000      210.063   -4347.5911   -3987.5503   -4347.5911            0    2314.0751    17.965129    23.354181    22.002563    9231.4146    2197.4939     3200.243    1544.4884   -377.51908    169.06608   -18.083374   -3676.0047 
10386000    215.16775   -4316.0438   -3947.2537   -4316.0438            0    2796.3454    18.145565    23.132297    21.827948    9162.2508    3658.5532    3312.7879    1417.6951   -476.72956    902.30639   -214.94162   -3573.6003 
10387000    211.82361   -4331.0098   -3967.9514   -4331.0098            0    1973.4666    18.060331    23.110991    22.085144    9218.1656     639.9543    2910.1469    2370.2984    1354.0507    782.78543     191.0992   -3702.6435 
10388000    220.07865   -4326.2887   -3949.0814   -4326.2887            0    2264.7389    17.920128    23.491194    21.916876    9226.2422    2796.4174     3052.739    945.06012    1133.3866     758.5947    126.16627   -3644.3489 
10389000    206.40933   -4348.1371   -3994.3586   -4348.1371            0    2766.8644    17.898333    23.527091    21.853062    9202.2307    2098.4703    3529.7389    2672.3839   -307.78489    647.30006     25.73156   -3623.0313 
10390000    212.34054     -4318.51   -3954.5656     -4318.51            0    2316.0512    17.897853    23.335244    22.105837    9232.5199    1639.7715    3958.3266    1350.0555    570.94691    113.50001   -370.62913   -3642.7167 
10391000    216.46069   -4337.7639   -3966.7577   -4337.7639            0    3241.9454    18.092761    23.336187    21.717289    9169.3877    1658.3841    3278.5655    4788.8868    764.33554   -615.51807    650.67424   -3533.2249 
10392000    220.18531   -4340.4654   -3963.0753   -4340.4654            0    3240.2395    18.059185    23.254419     21.92169    9206.1419    2316.0688    3889.6986     3514.951    247.44733    715.56562   -173.17796   -3528.0339 
10393000    213.71018   -4330.5113   -3964.2194   -4330.5113            0    3534.9259    17.921621    23.224326    22.080448    9190.2704    3449.3316    4376.8553    2778.5908   -613.13147    70.312218   -318.03639   -3490.4309 
10394000    222.65543   -4343.5622   -3961.9384   -4343.5622            0    2961.1801    18.023266    23.442919    21.912022    9258.2232    2758.6122     2926.694    3198.2341    499.35091   -294.35073    36.002501   -3562.1149 
10395000    228.31049   -4320.6444    -3929.328   -4320.6444            0    3121.3839    17.675219    23.502237    22.141091    9197.5683    4204.3602     2813.464    2346.3276   -697.28494    103.25967    974.94191   -3510.6346 
10396000    217.83851   -4338.2995   -3964.9317   -4338.2995            0    2902.4272    18.040496    23.456964    21.819934    9233.6562    3806.5567    2026.9254    2873.7994   -196.92875     257.1149   -43.992918    -3574.081 
10397000    212.99006   -4341.4064   -3976.3487   -4341.4064            0    3301.3961    18.311509    22.969425    21.950458    9232.4685      2121.02    4229.0863    3554.0819   -503.06823     337.1076   -132.02873   -3531.8286 
10398000     215.4827   -4346.1726   -3976.8426   -4346.1726            0    2499.2087    18.015414    23.304903    21.993823    9234.0511    2583.0635    1958.2919    2956.2706   -152.21834   -162.56708    17.203191   -3640.2763 
10399000    227.67783   -4313.7653   -3923.5333   -4313.7653            0    1255.6937    18.004501    23.746914    21.841724    9338.4581    986.42459    1362.1238    1418.5327   -318.59494    58.586836   -148.74619   -3752.5181 
10400000    208.52782   -4315.2835   -3957.8739   -4315.2835            0    3088.2413    17.808348    23.400192    22.066835    9195.6642    4923.5443    3631.0731    710.10648    484.68909    306.14238    286.29402   -3543.7119 
10401000    217.74768   -4302.4978   -3929.2857   -4302.4978            0    2466.1879    17.993378    23.345216    21.906918    9202.2049    3258.8333    2249.6854    1890.0451   -1186.2414   -135.67582   -922.43783   -3598.3116 
10402000     199.1483    -4314.986   -3973.6527    -4314.986            0    2693.7046     18.10747    23.294477     21.87815    9228.2923    2660.2073     3024.156    2396.7506   -265.64909   -437.50325   -86.859169   -3611.1199 
10403000    226.10811   -4334.4697   -3946.9281   -4334.4697            0    1542.8563    17.953925    23.242593    22.346408    9325.0614    1827.6305    2395.6682    405.27027    257.21762   -42.635966   -306.18919   -3737.1051 
10404000    205.30108   -4319.3295   -3967.4504   -4319.3295            0    2936.7396    18.060287    23.353447    21.867339    9222.9863    3369.3723    2016.2441    3424.6024   -1103.8456   -669.38509    300.35662   -3572.4361 
10405000    216.40063    -4327.233   -3956.3298    -4327.233            0    2134.2957    18.074452     23.11908     22.15159    9256.3674    2980.6615    1724.8313    1697.3945   -27.838424    664.24742   -37.013613   -3668.2113 
10406000    205.99763   -4347.1201   -3994.0472   -4347.1201            0    3322.7596     17.99593    23.316918    21.864346    9174.4902    2650.7084    3566.1372    3751.4333   -118.25042    353.68869    96.888863   -3549.4602 
10407000     223.3622   -4344.3838   -3961.5486   -4344.3838            0    3815.4399    17.932122    23.412452    21.833269    9166.3698    5020.8003    3357.4218    3068.0976   -1171.4439   -387.06173    151.69517   -3451.4926 
10408000    214.88806   -4331.7354   -3963.4247   -4331.7354            0    4063.4283    17.897953    23.309072    22.045871    9197.1994    3355.1321     3607.474    5227.6789    738.14314    -333.0875   -241.01449     -3418.39 
10409000     217.8118   -4331.0849   -3957.7629   -4331.0849            0    2500.3993    18.039234    23.548826    21.784798    9254.2427    2530.9732    2360.1295    2610.0953   -585.85748   -345.39113    622.12496   -3620.2999 
10410000    233.30524   -4324.3824   -3924.5052   -4324.3824            0    3762.1899    18.061146    23.225921    21.932727    9200.4884    3284.8445    4357.1642    3644.5611   -323.60288   -378.04231   -435.49056   -3419.6957 
10411000    213.64242   -4343.1599   -3976.9841   -4343.1599            0    2885.8123    17.985512    23.113414     22.17293     9217.433    3360.5262    5423.6705   -126.75962    796.13371   -523.33431   -580.93639   -3589.0536 
10412000     212.2877    -4327.862   -3964.0082    -4327.862            0    2703.6027    18.010946    23.585223    21.828372    9272.5216    2428.8968    1150.6287    4531.2827   -1078.5131    -269.2156   -135.49418   -3598.3994 
10413000    210.13195   -4310.7615   -3950.6025   -4310.7615            0    3827.8618    17.894643    23.580146     21.90008    9240.9203     5410.121    828.05131     5245.413    684.01395   -1424.5821   -536.81729   -3434.7241 
10414000    218.04793   -4336.6742   -3962.9475   -4336.6742            0    3201.9908    17.937077    23.327274    22.064364      9232.24    4874.0114    2863.5745    1868.3865    164.41435   -858.33847    613.69665   -3531.8226 
10415000    211.18795   -4307.5715   -3945.6026   -4307.5715            0    3857.2548    18.132663    23.300129    21.673993    9157.1186    4174.2384    3026.3824    4371.1435   -82.477297    236.32698   -703.84087   -3430.4771 
10416000    213.24347   -4301.6745   -3936.1825   -4301.6745            0    3158.0167    17.905215    23.154856    22.237217    9219.3875    2287.3755    3163.8547    4022.8199    697.13794    292.55316    460.74846   -3511.5704 
10417000    206.05208   -4333.6431   -3980.4769   -4333.6431            0    2233.4927    18.085941    23.521299    21.768089      9260.25    1548.1837    2109.1295    3043.1649    454.08417    104.56829    634.41455   -3678.8409 
10418000     230.3782   -4314.7533   -3919.8929   -4314.7533            0    2083.3045    17.865905    23.407514     22.00246    9201.3498    2437.4762    1861.0944    1951.3429   -1253.1995    226.91074    1062.6196   -3640.3296 
10419000     215.9477   -4293.4946   -3923.3676   -4293.4946            0    3143.6826    17.833824    23.399337     22.02846    9192.4692    2833.3423    3431.9783    3165.7274      136.052   -654.56119    851.10152    -3501.917 
10420000    216.43892   -4325.4063   -3954.4374   -4325.4063            0    3819.0358     18.01949    23.289119    21.829919     9161.101    3956.1265    3962.0886    3538.8924   -85.000075   -244.87897    833.19533   -3444.1941 
10421000    216.44851   -4316.3444   -3945.3591   -4316.3444            0    4492.0948    17.777192    23.375483    22.009268    9145.9611    5483.8344    4342.5848    3649.8651    842.35271    1253.0332   -64.192466   -3346.1835 
10422000    215.15435   -4328.4556   -3959.6884   -4328.4556            0    2238.9451    18.137163    23.467456    21.745285    9255.5123    1245.2932    2525.4779    2946.0642    206.68988   -487.05207   -846.69417   -3657.4708 
10423000    215.54885   -4334.5126   -3965.0693   -4334.5126            0    2906.9288    17.948671    23.233297    22.077323    9206.3939    4177.0889    2521.2777    2022.4199    888.98702   -58.677008   -246.12986   -3574.7681 
10424000    213.48421   -4336.2862   -3970.3815   -4336.2862            0    2875.8497    18.000893     23.42507    21.866167    9220.3545    3752.6475    2553.4048    2321.4968   -287.09637   -52.733454    348.70578   -3583.6677 
10425000    216.81685   -4311.2674   -3939.6507   -4311.2674            0    2650.6727    18.059706    23.481207    21.753328    9224.7971    2735.6769     2865.653     2350.688    194.62549    101.59283    852.03246   -3583.0446 
10426000     219.8802   -4340.0533   -3963.1861   -4340.0533            0    2475.7139    17.842214    23.404967    22.035464    9201.9313    1542.4061    2320.3408    3564.3949   -605.67056    255.68449   -587.42753   -3630.9435 
10427000    233.86754    -4326.955    -3926.114    -4326.955            0    3525.9264    17.887902    23.477625    21.823695    9165.1982    3420.1572     3047.428    4110.1939   -827.87969    856.76417    100.52135    -3454.821 
10428000    220.26735   -4311.6514   -3934.1207   -4311.6514            0    1660.1471    18.156414    23.310773    21.831373     9239.911    584.84673    2576.6525    1818.9422    1519.1083   -281.76659    546.03842   -3710.4082 
10429000    218.43356   -4322.0065   -3947.6189   -4322.0065            0    3945.0125    17.902446    23.173305    22.056996    9150.5401    3417.5993    3675.5141    4741.9239   -157.89051    -723.4546    -565.4614   -3421.1521 
10430000    215.93989    -4322.936   -3952.8225    -4322.936            0    3942.9702    18.078838    23.268973    21.715476    9135.1795    3374.7766    4213.5665    4240.5675    848.10834   -124.64792    1097.1117   -3427.5115 
10431000    229.97709   -4338.8667   -3944.6938   -4338.8667            0    3887.5329     17.79077    23.221613    22.144691    9148.6445    3256.2199    5641.4592    2764.9195    816.88605   -187.84208   -207.03339   -3426.0052 
10432000     234.7648   -4320.4633   -3918.0844   -4320.4633            0    4583.6006    17.858147    23.502466    21.775288    9139.3168     5019.389    4649.5206    4081.8922    914.94377   -834.00549    210.28182   -3307.1475 
10433000    212.67817   -4329.4766   -3964.9535   -4329.4766            0    3831.7503    17.887986    23.414739     21.88485     9166.306    4007.2997    2122.7578    5365.1933    253.00604    211.87711    333.11245   -3452.7206 
10434000    222.21588   -4353.9523   -3973.0819   -4353.9523            0    3864.9932    17.984131    23.357516    21.932055    9212.8805    3699.4977    2936.3769    4959.1051   -229.80036    329.18187   -380.69015   -3453.7798 
10435000    222.28649   -4312.6481   -3931.6567   -4312.6481            0    3654.3451    18.180096    23.132134    21.844471    9186.5705    3001.9187    3431.0423    4530.0742    -913.6761    675.10559    1064.4752   -3442.0595 
10436000    232.07144   -4331.4421   -3933.6796   -4331.4421            0    2225.1279    18.133063    23.192436    22.079309     9285.451    2827.7954    3858.9885    -11.40014   -1171.9722      -69.577    1190.6865   -3632.3555 
10437000    210.59553   -4316.6499   -3955.6964   -4316.6499            0    2392.1253    17.912212     23.45252    21.972485    9230.3448    2850.3608    1668.7681    2657.2471    395.69713    415.61076    29.553066   -3633.6802 
10438000     228.7141   -4317.1119   -3925.1038   -4317.1119            0    1522.8815    17.887043    23.764441    21.837184    9282.4538    665.21805    948.32736    2955.0991    153.39308   -923.83219   -1013.5087   -3718.9436 
10439000     215.5134   -4340.4503   -3971.0677   -4340.4503            0    2489.3083    17.874631    23.273857    22.148762    9214.1424    3397.8708    1395.0231     2675.031    114.56237   -344.37099    196.00895   -3636.5574 
10440000    231.36573    -4315.363     -3918.81    -4315.363            0    3029.3136    18.241332    23.129435     21.83793    9213.6787    1788.1495    4223.0912       3076.7    273.92711   -445.51762    502.67606   -3511.7549 
10441000    233.07852   -4342.7295   -3943.2409   -4342.7295            0    2108.4526    18.147087    23.202739    21.945806    9240.5479    1465.6839    2337.5923    2522.0816    363.45207   -381.70575   -410.60248   -3659.0975 
10442000    228.40027   -4327.9975   -3936.5272   -4327.9975            0    4502.0852    17.781646    23.297585    22.048715    9134.1077    5106.1478    5133.2235    3266.8841   -855.09873   -482.04567    164.96144   -3336.7973 
10443000    221.87887   -4327.4616   -3947.1689   -4327.4616            0    2412.6405    17.735989    23.864719    21.819248    9235.3105    3402.1328    1511.2419    2324.5469   -524.56965   -221.34473    136.29472   -3622.2163 
10444000    241.34081   -4345.1639    -3931.514   -4345.1639            0    1470.6045    17.937655    23.418243    22.022281    9250.8636    1858.8563    1685.7768    867.18042    -785.9986    909.34625    473.90231   -3733.1084 
10445000    215.37977   -4325.2782   -3956.1246   -4325.2782            0    2737.2704    18.134681     23.15627    21.907606    9199.6954    1785.8088    2862.0487    3563.9537    55.350739   -865.08259    408.77196   -3588.8702 
10446000     213.3849    -4316.142   -3950.4076    -4316.142            0    2645.2876    18.144509    23.079177     21.97946    9204.1259    2604.7794    3488.2817    1842.8019   -400.41872    66.064604   -453.92961   -3595.3234 
10447000    209.98716     -4305.23   -3945.3192     -4305.23            0    2820.4713    17.983197    23.394091    21.897341    9212.2232    3875.6821     2353.161    2232.5708    570.51932   -640.64802   -38.958389   -3566.3866 
10448000    212.22104    -4306.344   -3942.6045    -4306.344            0    2123.3025    17.865269     23.30781    22.314533    9291.7785    2464.9257    1595.8626    2309.1192   -301.03613    12.787684   -1042.2143   -3654.8735 
10449000    226.71015   -4322.0154   -3933.4419   -4322.0154            0    2642.0135    17.991692    23.379041    21.957856    9236.0999    1561.8986    3984.0318    2380.1101   -392.05411    551.92143    290.73404   -3577.5652 
10450000    214.63789   -4323.3844   -3955.5024   -4323.3844            0     3537.702    17.969056    23.571056     21.76049    9216.6475    3849.1214    4196.5524    2567.4321  -0.56889365   -552.22987    753.64555   -3479.9809 
10451000    214.51616   -4313.3219   -3945.6486   -4313.3219            0    2932.0691    17.944303    23.220196    22.173481    9239.0296    3466.1946    4322.8087    1007.2039    28.632329   -263.99579    295.69497   -3550.5764 
10452000    218.35049   -4306.7458   -3932.5006   -4306.7458            0    3939.9136    18.346373    22.942309    21.754221    9156.5292    2959.8355    4378.4891    4481.4161   -396.53603    -104.0589    111.19967   -3406.3701 
10453000    215.59293   -4342.3134   -3972.7945   -4342.3134            0    2173.2959    17.969246    23.482382    21.986274    9277.3433    3273.5899    670.54081    2575.7571    -18.63921    181.76564   -722.08687   -3678.7464 
10454000    212.75207    -4335.419   -3970.7693    -4335.419            0    3627.0228    17.739818    23.490496    22.007028    9170.7058    4181.3057    2755.5795    3944.1832    535.36872   -405.82562    768.48915   -3485.6719 
10455000    220.99504   -4355.0655   -3976.2875   -4355.0655            0    2214.9269    17.898552    23.755294    21.796557    9267.5768    2019.1708    1573.4932    3052.1167    1208.6258   -37.026274    227.02815   -3676.9222 
10456000    210.52526   -4331.7036   -3970.8706   -4331.7036            0    2753.5716    18.075676    23.247973    21.943126    9221.0022    2950.6259    2445.0922    2864.9968   -694.55791   -219.84451   -393.85328   -3600.5734 
10457000    213.58517   -4318.6157    -3952.538   -4318.6157            0    3885.3672      18.1367    23.070846    22.046491    9224.8918    3866.1955    4348.6792    3441.2269   -1039.8462     91.58682     1337.356   -3429.8179 
10458000    226.39905   -4323.4254   -3935.3852   -4323.4254            0    4325.1077    18.026811    23.283352    21.881861    9184.3552     4091.677     4842.463    4041.1832   -390.96127    940.26074    -74.59356   -3356.0612 
10459000    223.97151   -4340.6326   -3956.7531   -4340.6326            0    3072.0554     17.92944    23.406964    21.935547     9205.773    2283.2352    3064.4738    3868.4573    193.69368    77.894542   -208.87443   -3544.3089 
10460000     226.6436   -4322.6573   -3934.1979   -4322.6573            0    3450.0439    17.807306    23.523609    22.017676    9223.0301    3993.1059    2914.6069     3442.419   -479.27156     799.0602    323.95401   -3470.1379 
10461000    209.55401   -4323.2388   -3964.0704   -4323.2388            0    3149.3209    17.962645    23.379903    21.980711    9231.1272    3466.9898    3257.8845    2723.0883   -1303.2876    121.10803    103.06944   -3540.0883 
10462000    222.96286   -4324.5707     -3942.42   -4324.5707            0     3849.933    17.944311    23.027406    22.184908    9167.0469    3001.0484    3963.4487    4585.3019     346.2116    801.85965   -871.06593   -3427.7149 
10463000    228.77963   -4324.8363   -3932.7159   -4324.8363            0    3611.9011    18.182258    23.191948    21.783205     9185.585     2815.762    4130.3036    3889.6376   -585.81189   -144.88153   -193.63323   -3448.8572 
10464000    211.50333   -4326.9279   -3964.4185   -4326.9279            0     2533.698    17.935494    23.456386    22.008712    9259.1061    2175.2635     2119.726    3306.1043   -65.422904   -274.72143    767.66108   -3622.2817 
10465000    219.32158   -4379.0959   -4003.1862   -4379.0959            0    2945.9821    17.913672    23.405219    22.001075    9224.4658    3129.3404     3864.584     1844.022    282.12776   -461.88108   -91.686575   -3606.8651 
10466000    213.46632    -4324.061    -3958.187    -4324.061            0    3308.8657    18.017686    23.465343    21.690417    9170.5168    2537.5599    2805.0932    4583.9438   -29.198666    962.94462    647.07705   -3515.6508 
10467000    212.68494   -4336.2745   -3971.7398   -4336.2745            0     2695.649    17.951534    23.117328    22.071808    9159.6128    2846.0239    2939.1822    2301.7408   -949.63148     -36.6487     408.1027   -3611.6454 
10468000    220.56097   -4314.6974   -3936.6634   -4314.6974            0    3920.4991     18.00774    22.988696    22.019768    9115.6214     2763.475    5218.5492    3779.4731    906.66843   -463.11527   -696.81745   -3415.4645 
10469000    214.72187   -4305.5675   -3937.5416   -4305.5675            0    3841.9978    17.918589    23.489769    21.891248    9214.1029    4039.6817    3718.8287     3767.483   -255.25993    298.66285   -14.850359   -3421.2607 
10470000    203.80412   -4321.9582   -3972.6449   -4321.9582            0    2831.1479    17.708893    23.450751     22.18543    9213.3172    3157.7563    2039.2116    3296.4757    60.794303   -157.57137   -258.68575   -3592.2327 
10471000    216.34815   -4325.9006   -3955.0872   -4325.9006            0    3405.0758    17.965853    23.367065    21.938661     9210.053    3479.8052    2329.9134     4405.509   -370.40478    -445.0431   -411.47493   -3497.7202 
10472000    222.49014   -4342.6926   -3961.3521   -4342.6926            0    3275.3909    18.185258    23.313842    21.732867    9214.0453    3492.5909    2799.7035    3533.8784   -1105.4832    202.29504    327.90285   -3521.2136 
10473000    212.72132   -4330.8966   -3966.2995   -4330.8966            0    2587.6397    18.011645    23.296535    22.064725    9258.5553    3338.1869    1273.4945    3151.2378    1212.4888   -297.28189   -438.30649   -3616.8995 
10474000    220.36832   -4328.2466   -3950.5428   -4328.2466            0     4409.513    17.965615    23.520125    21.728077    9181.2751     4231.752    3819.7238    5177.0631   -839.90512   -695.93055   -574.13152   -3360.1113 
10475000    223.14951   -4352.5403   -3970.0697   -4352.5403            0    2457.3933    17.895523    23.489179    21.980329    9239.4566    3702.9974    1542.9171    2126.2655    22.952443    190.76291    293.37387   -3638.9409 
10476000      218.403    -4321.261   -3946.9257    -4321.261            0    3366.7313     17.86412    23.344524     21.98097    9166.7102    2684.4295    2905.1971    4510.5673    78.862088    796.28252    205.79622   -3496.8373 
10477000    234.58632   -4304.8172   -3902.7443   -4304.8172            0    1195.1769    18.229307    23.576477    21.728165    9338.3926    1169.1134    2189.2276    227.18979    1330.0587    77.688479   -197.90728   -3739.9721 
10478000    216.87483   -4301.9349   -3930.2189   -4301.9349            0    2656.2941    17.868311    23.216801    22.305494    9253.3229     2627.487    1997.4404    3343.9548   -431.02979    352.22908    944.93179   -3571.7514 
10479000     224.7318   -4327.1365   -3941.9538   -4327.1365            0    2551.8297    18.108062    23.426575    21.800566    9248.0152    3106.5885    2451.9419    2096.9588   -671.29291   -126.69471    211.82337   -3597.7814 
10480000    228.85718   -4315.1609   -3922.9075   -4315.1609            0    2408.4294    18.022293     23.40622    21.913502    9243.8545    2643.4817    2439.0952    2142.7113   -879.55835   -478.29853    86.616623    -3598.222 
10481000    212.89499   -4294.4228    -3929.528   -4294.4228            0    3237.3719    17.767536    23.348541    22.081053    9160.2377    3573.5735    3257.3058    2881.2362    806.15026    113.43063    317.27357   -3497.0389 
10482000    223.93549   -4333.1274   -3949.3096   -4333.1274            0    3215.3321    17.982625    23.439942     21.82124    9197.9079    4305.1309    2548.4862    2792.3793    -317.7712   -230.13476    35.978161   -3517.9984 
10483000     216.3774   -4332.6411   -3961.7777   -4332.6411            0    3813.3406    17.874238    23.214209    22.104861    9172.1094    3651.0015    3648.3488    4140.6713   -175.50376    877.35782   -1039.0488   -3451.6831 
10484000    217.47402   -4300.3603   -3927.6173   -4300.3603            0    4109.4935    17.950178    23.249164    21.934981    9154.0521    3952.3086    3449.7489    4926.4229    38.472109    21.265544   -242.40185   -3378.9898 
10485000    216.30921   -4339.7757   -3969.0291   -4339.7757            0    1495.3111    18.195158     23.40596    21.696401    9239.9582     1687.132    290.84101    2507.9603    -549.4047   -161.41903    646.85727    -3767.528 
10486000    221.50107   -4335.3095   -3955.6643   -4335.3095            0    3009.9847    17.932361    23.129792    22.244334    9226.3221    2927.4298    4768.1913    1334.3331    1461.3042    240.80373    303.84864   -3550.6514 
10487000     222.0743   -4335.8636   -3955.2358   -4335.8636            0    2823.1129    17.992922    23.444047     21.85573    9219.3351    2938.8992     1834.029    3696.4104   -91.505386   -35.903082   -100.60942   -3575.6554 
10488000    227.76788   -4331.5659   -3941.1795   -4331.5659            0    2696.7648    18.037826    23.479965    21.742203    9208.4211    1714.6595    2963.1422    3412.4927    326.84201   -150.25128   -48.930477   -3579.0165 
10489000    220.51296   -4323.6297    -3945.678   -4323.6297            0    2870.6214    17.915706    23.033446    22.377123    9234.1535    3262.4196    4293.2273    1056.2172    -1936.102   -445.76024    255.46742   -3559.0895 
10490000    219.93024   -4317.4809    -3940.528   -4317.4809            0    2195.1484    17.996448    23.375436    21.874871    9202.2073    1801.4669    2155.2154    2628.7628    330.83523    41.840805   -715.16441   -3645.9287 
10491000    211.93468   -4339.2563   -3976.0075   -4339.2563            0    2311.7828    17.826237    23.539336    21.930559    9202.4528    2987.6389     2576.498    1371.2116    132.09261    405.47611    246.30758    -3665.747 
10492000    214.86971   -4318.7923    -3950.513   -4318.7923            0    1687.2122    17.947735     23.37286    22.103737    9272.2944    1999.6655   -163.31552    3225.2866    78.046487    161.90817    -312.1021   -3722.3565 
10493000     238.3494     -4335.21   -3926.6872     -4335.21            0    3940.0147    18.058299    23.321245    21.850644     9202.224    4079.0206    3854.9338    3886.0896    545.85513    212.64963   -388.32294   -3397.9176 
10494000    214.07863   -4306.3612   -3939.4378   -4306.3612            0    3137.7079    18.050228    23.504846    21.732256    9220.2968    1663.0601    3624.0934    4125.9702   -354.92237     199.4439     462.1904   -3517.5147 
10495000    224.38129   -4308.6071   -3924.0252   -4308.6071            0    2312.2632     17.86811    23.434598      22.0445    9230.7373    2675.1384    1315.4255    2946.2256   -586.36655    957.45123    324.93953   -3612.7464 
10496000    224.44989   -4339.7605   -3955.0611   -4339.7605            0    1413.2699    18.143828    23.269473    21.841266     9221.324    162.55144    2968.9671    1108.2912    70.462394    275.63714    446.60992   -3764.9995 
10497000    225.22591   -4343.6665    -3957.637   -4343.6665            0    2971.7603    18.067326    23.175426     22.01107    9216.4308    2852.0195    3441.1023    2622.1592    440.86211    139.88544   -266.05892   -3558.1962 
10498000    229.48083   -4318.5204   -3925.1981   -4318.5204            0    2643.7489    17.876176    23.229857    22.289384    9255.9122     3007.071    2992.4929    1931.6828    383.04733    211.91176   -69.760504   -3568.3238 
10499000    214.10128   -4332.6442   -3965.6819   -4332.6442            0    3952.3138    17.905441    23.466499     21.83114    9172.9648    4550.9494    2956.0004    4349.9915   -1066.7247    261.00085    215.57508   -3436.9482 
10500000    234.06067   -4317.2109   -3916.0389   -4317.2109            0    2296.2521    17.749726    23.463551    22.255067    9268.6032     2282.866    2870.9039    1734.9864    66.268231    174.43337   -575.72643   -3605.6474 
Loop time of 393.855 on 64 procs for 250000 steps with 864 atoms

Performance: 109.685 ns/day, 0.219 hours/ns, 634.752 timesteps/s
191.7% CPU use with 32 MPI tasks x 2 OpenMP threads

MPI task timing breakdown:
Section |  min time  |  avg time  |  max time  |%varavg| %total
---------------------------------------------------------------
Pair    | 17.703     | 25.094     | 34.04      | 107.7 |  6.37
Bond    | 0.9285     | 1.0424     | 1.3367     |   8.4 |  0.26
Kspace  | 192.64     | 203.97     | 214.01     |  40.5 | 51.79
Neigh   | 1.3771     | 1.4432     | 1.5245     |   4.0 |  0.37
Comm    | 61.596     | 65.563     | 69.037     |  20.1 | 16.65
Output  | 0.52634    | 0.52663    | 0.52803    |   0.0 |  0.13
Modify  | 71.139     | 72.745     | 76.124     |  13.6 | 18.47
Other   |            | 23.47      |            |       |  5.96

Nlocal:        27.0000 ave          39 max          17 min
Histogram: 5 5 3 2 4 3 2 1 2 5
Nghost:        2128.28 ave        2216 max        2042 min
Histogram: 9 7 0 0 0 0 0 0 5 11
Neighs:        6552.31 ave        9458 max        4203 min
Histogram: 4 4 5 4 2 0 5 1 3 4

Total # of neighbors = 209674
Ave neighs/atom = 242.67824
Ave special neighs/atom = 2.0000000
Neighbor list builds = 4775
Dangerous builds = 0

unfix		3
unfix		2
unfix		1

write_data	data.final.${pid} nocoeff
write_data	data.final.0 nocoeff
System init for write_data ...
PPPM initialization ...
  extracting TIP4P info from pair style
  using 12-bit tables for long-range coulomb (../kspace.cpp:340)
  G vector (1/distance) = 0.37140343
  grid = 24 27 25
  stencil order = 5
  estimated absolute RMS force accuracy = 0.0032111535
  estimated relative force accuracy = 9.6702933e-06
  using double precision FFTW3
  3d grid and FFT values/proc = 4410 672
Last active /omp style is kspace_style pppm/tip4p/omp

write_restart   restart.lmp.${pid}
write_restart   restart.lmp.0
System init for write_restart ...
PPPM initialization ...
  extracting TIP4P info from pair style
  using 12-bit tables for long-range coulomb (../kspace.cpp:340)
  G vector (1/distance) = 0.37140343
  grid = 24 27 25
  stencil order = 5
  estimated absolute RMS force accuracy = 0.0032111535
  estimated relative force accuracy = 9.6702933e-06
  using double precision FFTW3
  3d grid and FFT values/proc = 4410 672
Last active /omp style is kspace_style pppm/tip4p/omp
Total wall time: 0:06:33
