LAMMPS (30 Jul 2021)
Processor partition = 1
  using 2 OpenMP thread(s) per MPI task
using multi-threaded neighbor list subroutines
variable        pid world 0 1
variable        phase world IceII IceV

shell cd ${phase}
shell cd IceV
include Restart.lmp
echo both
log log.lammps
#include		in.partitions
include		in.temp
variable        temperature equal 20.99
variable	tempDamp equal 100.0
include		in.pressure
variable        pressure equal 9358.3
variable        pressureDamp equal 1000.0 # This is 1 ps
include		in.seed
variable        seed equal 745823

units		real
atom_style	full
read_restart    restart.lmp.${pid}
read_restart    restart.lmp.1
Reading restart file ...
  restart file = 30 Jul 2021, LAMMPS = 30 Jul 2021
  restoring atom style full from restart
  triclinic box = (-3.0419236 -0.041186992 0.13524186) to (14.651923 22.621186 19.094756) with tilt (-0.25672078 -6.6359052 0.15202793)
  2 by 4 by 4 MPI processor grid
  restoring pair style lj/cut/tip4p/long/omp from restart
  restoring bond style harmonic/omp from restart
  restoring angle style harmonic/omp from restart
  1008 atoms
  672 bonds
  336 angles
Finding 1-2 1-3 1-4 neighbors ...
  special bond factors lj:    0        0        0       
  special bond factors coul:  0        0        0       
     2 = max # of 1-2 neighbors
     1 = max # of 1-3 neighbors
     1 = max # of 1-4 neighbors
     2 = max # of special neighbors
  special bonds CPU = 0.002 seconds
  read_restart CPU = 0.007 seconds

include 	in.setup
variable	out_freq equal 1000
variable	out_freq2 equal 10000
variable	out_freq3 equal 1000

timestep	2.0

neigh_modify    delay 7 every 1

include		in.tip4p
# This is TIP4P/Ice

# create groups ###
group ox type 2
336 atoms in group ox
group hy type 1
672 atoms in group hy

# set charges - beside manually ###
set group ox charge -1.1794
Setting atom values ...
  336 settings made for charge
set group hy charge 0.5897
Setting atom values ...
  672 settings made for charge

# ### TIP3P Potential Parameters ###
pair_style lj/cut/tip4p/long/omp 2 1 1 1 0.1577 8.5
pair_coeff 1 1*2 0.000 0.000
pair_coeff 2 2 0.21084 3.1668
bond_style  harmonic
bond_coeff  1 450 0.9572
angle_style harmonic
angle_coeff 1 55 104.52
kspace_style pppm/tip4p/omp 1.0e-5
pair_modify tail yes

thermo          ${out_freq}
thermo          1000
thermo_style    custom step temp pe etotal epair emol press lx ly lz vol pxx pyy pzz pxy pxz pyz enthalpy

restart 	${out_freq3} restart.lmp.${pid} restart2.lmp.${pid}
restart 	1000 restart.lmp.${pid} restart2.lmp.${pid}
restart 	1000 restart.lmp.1 restart2.lmp.${pid}
restart 	1000 restart.lmp.1 restart2.lmp.1


include         in.dump
dump            myDump all atom ${out_freq2} dump.water.${pid}
dump            myDump all atom 10000 dump.water.${pid}
dump            myDump all atom 10000 dump.water.1
dump            myDump2 all dcd ${out_freq2} dump.dcd
dump            myDump2 all dcd 10000 dump.dcd
dump_modify     myDump append yes
dump_modify     myDump2 append yes


variable natoms 	equal  "count(all)"                        # NUMBER ATOMS
variable H      	equal  "enthalpy/v_natoms"                 # ENTHALPY-per-atom
variable Vol      	equal  "vol/v_natoms"                 # volume-per-atom
fix AVG all 		ave/time ${out_freq} 1 ${out_freq} v_Vol v_H file vol_enthalpy.dat
fix AVG all 		ave/time 1000 1 ${out_freq} v_Vol v_H file vol_enthalpy.dat
fix AVG all 		ave/time 1000 1 1000 v_Vol v_H file vol_enthalpy.dat



fix 		1 all shake 1e-6 200 0 b 1 a 1
Finding SHAKE clusters ...
       0 = # of size 2 clusters
       0 = # of size 3 clusters
       0 = # of size 4 clusters
     336 = # of frozen angles
  find clusters CPU = 0.001 seconds
fix             2 all nph tri ${pressure} ${pressure} ${pressureDamp}
fix             2 all nph tri 9358.3 ${pressure} ${pressureDamp}
fix             2 all nph tri 9358.3 9358.3 ${pressureDamp}
fix             2 all nph tri 9358.3 9358.3 1000
fix             3 all temp/csvr ${temperature} ${temperature} ${tempDamp} ${seed}
fix             3 all temp/csvr 20.99 ${temperature} ${tempDamp} ${seed}
fix             3 all temp/csvr 20.99 20.99 ${tempDamp} ${seed}
fix             3 all temp/csvr 20.99 20.99 100 ${seed}
fix             3 all temp/csvr 20.99 20.99 100 745823


run             250000
PPPM initialization ...
  extracting TIP4P info from pair style
  using 12-bit tables for long-range coulomb (../kspace.cpp:340)
  G vector (1/distance) = 0.38048866
  grid = 24 27 32
  stencil order = 5
  estimated absolute RMS force accuracy = 0.0023393004
  estimated relative force accuracy = 7.0447337e-06
  using double precision FFTW3
  3d grid and FFT values/proc = 5355 672
Last active /omp style is kspace_style pppm/tip4p/omp
Neighbor list info ...
  update every 1 steps, delay 7 steps, check yes
  max neighbors/atom: 2000, page size: 100000
  master list distance cutoff = 10.8154
  ghost atom cutoff = 10.8154
  binsize = 5.4077, bins = 5 5 4
  1 neighbor lists, perpetual/occasional/extra = 1 0 0
  (1) pair lj/cut/tip4p/long/omp, perpetual
      attributes: half, newton on, omp
      pair build: half/bin/newton/tri/omp
      stencil: half/bin/3d/tri
      bin: standard
Setting up Verlet run ...
  Unit style    : real
  Current step  : 9250000
  Time step     : 2
Per MPI rank memory allocation (min/avg/max) = 10.32 | 10.33 | 10.34 Mbytes
Step Temp PotEng TotEng E_pair E_mol Press Lx Ly Lz Volume Pxx Pyy Pzz Pxy Pxz Pyz Enthalpy 
 9250000    21.297737   -5334.7072   -5292.1091   -5334.7072            0    9190.0223    17.693846    22.662373    18.959514    7602.4722    8553.9249    9304.0325    9712.1094    289.30307    293.17965    82.724449   -4273.1722 
 9251000    20.999801   -5334.2717   -5292.2695   -5334.2717            0    9295.0393    17.725768    22.625691    18.943398    7597.3969    9245.2527     9079.538    9560.3274    69.038468   -254.82461    -259.6312   -4262.3769 
 9252000    21.078194   -5333.8336   -5291.6746   -5333.8336            0    9310.6788     17.73863    22.597026    18.949088    7595.5576    9038.0731     9540.048    9353.9154    92.110408   -344.56761   -76.025615   -4260.2989 
 9253000    20.176507   -5333.1801   -5292.8246   -5333.1801            0     9696.608    17.743441     22.54169    18.976811    7590.1013    9789.9842    9837.8775    9461.9622     209.9342     224.6868    56.021475   -4219.4698 
 9254000    19.612546   -5334.3751   -5295.1475   -5334.3751            0     9416.231    17.727221    22.564524    18.984777    7594.0307    9398.5732    9624.0192    9226.1005   -97.726991     -63.1759    46.824124   -4252.2891 
 9255000    21.091299   -5335.3656   -5293.1804   -5335.3656            0    9263.3152    17.712005    22.590288    18.988195    7597.5433    9366.3362    9209.3066     9214.303   -39.931526   -52.040578    88.326535    -4266.783 
 9256000     21.37587   -5333.6909   -5290.9365   -5333.6909            0    9506.9219    17.774821    22.483247    19.006487    7595.6706    9387.3754     9653.598    9479.7922    27.582813    63.145819   -263.48757   -4237.8066 
 9257000    20.614426   -5334.2063   -5292.9749   -5334.2063            0    9160.9773    17.731361    22.649704    18.935313     7604.613    9138.0115    8792.3264    9552.5941   -164.53853   -381.73447    109.91897   -4276.9724 
 9258000    21.327364   -5334.4132   -5291.7558   -5334.4132            0    9491.9821    17.690691     22.60594    18.985699    7592.6601    9652.5639    9140.1179    9683.2645     147.2754    62.833816    12.686933   -4240.6977 
 9259000    21.857598   -5334.1979     -5290.48   -5334.1979            0    9599.4527    17.689487    22.615774    18.992192     7598.044    9572.4319    9700.6694    9525.2569   -67.574273    25.925783   -228.39119   -4226.7677 
 9260000    20.791907    -5333.459   -5291.8726    -5333.459            0    9426.6109    17.655398    22.701294     18.94904    7594.7823    9422.5949    9135.1784    9722.0592    280.88398   -212.08449   -287.35152   -4247.7613 
 9261000    20.905823   -5336.3728   -5294.5586   -5336.3728            0    9369.4381     17.67479    22.659635    18.969416    7597.3323    9611.9271     9049.326    9447.0612   -382.09934    220.03386    273.80307   -4256.4315 
 9262000    21.574869   -5332.7106   -5289.5581   -5332.7106            0    9190.3278    17.721152    22.588742    18.994531    7603.4826    9558.7324    9130.2914    8881.9596   -55.147908    313.79105   -266.03591   -4270.4519 
 9263000    22.193871   -5335.5801   -5291.1896   -5335.5801            0     9246.235    17.663457    22.677394    18.989331    7606.3889    9074.0812    9310.5704    9354.0533     66.75567    734.36334    317.50268    -4265.492 
 9264000    20.780772   -5335.9711   -5294.4069   -5335.9711            0     9117.215    17.710106      22.6353    18.974013    7606.1798    9070.9612    9119.4936    9161.1901    122.19172    318.24853    383.54121   -4283.0495 
 9265000    21.273029   -5333.3716   -5290.8229   -5333.3716            0    9794.6455    17.714406    22.596141    18.953854    7586.7959    9883.1124    9537.0074    9963.8167    44.587577   -116.18127    827.97814   -4207.0882 
 9266000    21.061069   -5334.4744   -5292.3497   -5334.4744            0    9179.7194    17.689183    22.564239    19.041401    7600.2411    9287.6309    9514.2581    8737.2693    323.33017    285.93367    116.82371   -4274.8538 
 9267000    20.048178   -5332.0342   -5291.9354   -5332.0342            0    9423.7808    17.755052    22.565201    18.951322    7592.7773    9209.0183    9298.4855    9763.8386    74.317595   -148.93339    95.928463   -4248.4131 
 9268000    19.843018   -5334.1844   -5294.4959   -5334.1844            0    8835.6605    17.650016    22.662558    19.004762    7601.8007    9101.6411    8751.1266    8654.2137   -242.88434   -61.016029   -2.3761134   -4314.9352 
 9269000    19.836835   -5332.5339   -5292.8578   -5332.5339            0    9738.2398    17.725774      22.5713    18.966238    7588.2734    9361.5462    10062.699    9790.4745   -1.8552842    95.292469   -115.54742   -4215.1542 
 9270000    21.776968   -5337.2547   -5293.6981   -5337.2547            0    9013.6774    17.702231    22.572877    19.024253    7601.9067    9646.4126    8752.7553    8641.8643   -237.03574   -146.30183   -136.05677   -4294.3876 
 9271000    20.176653   -5337.7691   -5297.4133   -5337.7691            0    8826.2815    17.750577    22.596652    18.984667    7614.8183    8217.6846    9088.1871    9172.9726   -280.35188    120.54598   -142.03875   -4317.2167 
 9272000    21.088578   -5333.0307   -5290.8509   -5333.0307            0    9936.8432    17.715895    22.571426    18.963608     7583.035    10366.529    9962.6317    9481.3693   -167.84044    9.5727166    46.053214   -4191.9276 
 9273000    21.776555   -5338.2883   -5294.7325   -5338.2883            0    9323.2959    17.682803    22.647495    18.963263    7594.2401    9164.1131    9396.7601    9409.0145   -125.53386   -180.91549   -86.210715   -4262.1383 
 9274000    21.894097   -5331.0387   -5287.2478   -5331.0387            0    9523.1895    17.705088    22.584534    18.992423    7594.3324    9638.8543    9422.5685    9508.1456   -345.78672    107.73772    212.56751   -4232.5017 
 9275000    21.924643   -5337.9988   -5294.1468   -5337.9988            0    9024.1981    17.709923    22.561395    19.053928    7613.1982     8987.491    9307.0712    8778.0322   -260.93436    115.25474    5.3563652   -4292.1839 
 9276000    22.180889   -5333.5932   -5289.2287   -5333.5932            0    9843.7934     17.65313    22.687173    18.946364    7588.0113    9947.4372    9486.9173    10097.026   -606.50559   -113.37456   -239.48877   -4199.8815 
 9277000    21.808028   -5333.8234   -5290.2047   -5333.8234            0    9458.7883    17.647289     22.58121    19.064018    7596.9566    9503.6059     9866.228     9006.531    76.770436    315.45402     626.1577   -4242.2294 
 9278000     20.54475   -5334.4699   -5293.3779   -5334.4699            0    9004.2252    17.682562    22.698107    18.934598    7599.6035    9467.5822    8587.9633      8957.13   -671.30092    302.92742   -341.76911   -4295.4178 
 9279000    20.723019   -5333.0909   -5291.6423   -5333.0909            0    9925.6074    17.662159    22.638574     18.96908    7584.7125    9990.9882    9653.7624    10132.072    260.38851    104.71364    621.69946   -4193.7188 
 9280000    21.817446   -5334.2351   -5290.5975   -5334.2351            0    9623.0981    17.671841    22.674254    18.946129    7591.6347    9367.4634    9562.6702    9939.1606   -420.86859      441.848   -355.95298   -4225.1646 
 9281000    21.410008   -5331.8758   -5289.0532   -5331.8758            0    9612.1474     17.69899    22.593461    18.967765    7584.8573    9606.0646    9631.4533    9598.9242    412.84579   -148.22325    475.97262   -4225.7828 
 9282000    21.319859   -5335.0329   -5292.3905   -5335.0329            0    9028.9931    17.662967    22.679446     18.98857    7606.5609    8842.1654    8933.1171    9311.6967    -255.7204   -154.72645    418.07306   -4290.7692 
 9283000    20.469932     -5332.61   -5291.6676     -5332.61            0    9558.1761    17.738453    22.501805    19.028052    7594.9941    9531.4642    9976.4723    9166.5918    764.66447    103.09984     112.0991   -4232.9543 
 9284000    20.209124   -5333.0127    -5292.592   -5333.0127            0     10000.61     17.66348    22.615541    18.983161    7583.1874    10054.748     9878.925    10068.156    657.02946    163.79551    596.45963   -4186.5945 
 9285000    20.884555   -5337.9597    -5296.188   -5337.9597            0    9012.6414    17.720803    22.565553    19.017971    7604.9007    9507.9942    8990.8025    8539.1274    294.67461    83.043367   -438.29192   -4296.5988 
 9286000    20.263667   -5335.7245   -5295.1947   -5335.7245            0    9348.4581    17.669981    22.681811    18.943505    7592.3136    9395.4316    9200.0175    9449.9252      220.881    112.94812    313.27561   -4260.0763 
 9287000    21.394747   -5338.0281    -5295.236   -5338.0281            0    8739.4762    17.752034    22.574543    19.011946    7618.9244    8938.3774    8507.2745    8772.7768    649.11354   -306.80623    519.94169   -4324.1561 
 9288000    20.800206   -5332.5296   -5290.9266   -5332.5296            0    9826.2081     17.66212    22.537708    19.039995    7579.1309    10077.439    9866.2115    9534.9737    540.08537   -32.223299   -1.5919345    -4204.798 
 9289000    20.653128   -5335.3358    -5294.027   -5335.3358            0    9199.5566     17.73554    22.542633    19.014998    7602.3061     8999.077    9098.3429    9501.2501   -39.305677   -278.78075   -101.71716   -4274.0552 
 9290000     21.85787   -5336.9686   -5293.2502   -5336.9686            0    9037.7704     17.71276    22.533637    19.036399     7598.053    9027.0072    9256.4398    8829.8643   -502.33334   -90.439246   -155.39253   -4291.7766 
 9291000    21.058619   -5336.0489    -5293.929   -5336.0489            0    9012.7903    17.748334    22.624007    18.939284    7604.8505    9275.8091    8590.9688     9171.593   -85.955355   -342.08104    305.04192     -4294.33 
 9292000    21.257577   -5335.6308    -5293.113   -5335.6308            0    9043.5742    17.718586     22.51493    19.059925    7603.6279    9790.5636    8887.1393    8453.0196    191.59026   -224.50963    98.330394    -4290.261 
 9293000    21.806475   -5334.5894   -5290.9737   -5334.5894            0    9451.6232     17.68372    22.591246    19.001309    7590.9709    9714.4767    9498.9781    9141.4146   -375.28303    31.387839    155.93806   -4244.6174 
 9294000    20.365447    -5334.886   -5294.1526    -5334.886            0    9189.1066    17.661958    22.586822    19.041631    7596.2303    9430.1739    9685.5273    8451.6186   -140.29795    222.81134   -215.77093   -4276.1537 
 9295000    19.465206   -5334.2132   -5295.2803   -5334.2132            0     9809.473    17.671281    22.614367    19.004776    7594.7805     9407.176    10093.227    9928.0159    102.79763    442.30512    -95.89586   -4208.7627 
 9296000    20.456077   -5335.8574   -5294.9428   -5335.8574            0    9345.4764     17.72967     22.64149    18.934574     7600.833    9741.6856    8963.2852    9331.4583   -480.97193   -192.35126    8.3393035   -4258.9934 
 9297000    21.817973   -5335.2356   -5291.5969   -5335.2356            0    9944.2197    17.704706    22.615023    18.933257     7580.731    9395.2816    10090.819    10346.558   -336.25955    314.45043   -43.509179    -4192.192 
 9298000    20.598291   -5334.4632    -5293.264   -5334.4632            0    9520.3334    17.675242    22.581295    19.023168    7592.7144    9963.0946    9309.3385     9288.567    302.53205    22.404699    508.53786    -4239.059 
 9299000    20.763096   -5333.4246   -5291.8958   -5333.4246            0    9220.1516    17.692654    22.585461    19.014601    7598.1724    9690.3239    9045.3786    8924.7522   -601.77122   -341.83889   -334.28397   -4270.1965 
 9300000    20.883594   -5338.1656   -5296.3959   -5338.1656            0    9194.4418    17.695672    22.563196    19.043911    7603.6795    9009.3927    9211.4816    9362.4511    132.71804   -52.164253    188.05693   -4276.8071 
 9301000    22.569174   -5333.3168   -5288.1757   -5333.3168            0    9418.7571    17.672423    22.617245    19.015074     7600.354    9049.6725    9592.9834    9613.6155    205.21312    566.76314    410.70451   -4244.1689 
 9302000    20.481626   -5334.5507   -5293.5849   -5334.5507            0    9649.3474    17.677043    22.660536    18.952297    7591.7459    9227.2876    9565.8505    10154.904   -60.990738    -230.8478   -187.40088   -4225.2302 
 9303000     19.81774   -5334.5144   -5294.8765   -5334.5144            0    9431.8801    17.682474    22.648409    18.942208    7585.9732    9611.3905     9387.152    9297.0977   -247.47838    117.54484    16.070962   -4251.3932 
 9304000     21.49746   -5333.3417   -5290.3442   -5333.3417            0     9367.391    17.752588     22.56544    18.965479    7597.4756    9213.7185    9607.0841    9281.3705    307.17398    78.179568   -149.69533   -4252.4242 
 9305000    21.627965   -5333.2749   -5290.0163   -5333.2749            0    9675.9014    17.642674    22.641008    18.992395    7586.4727     9650.178    9635.2452    9742.2812    184.90335   -33.828904   -181.94128   -4219.4656 
 9306000    21.813577   -5332.9802   -5289.3503   -5332.9802            0    9518.5841    17.683041    22.711188    18.917999    7597.5224    9825.7722    8965.6119    9764.3683    111.93541   -451.50597   -56.048468   -4234.6715 
 9307000    20.343039   -5337.8711   -5297.1825   -5337.8711            0     9193.542    17.690293    22.631416    19.001137    7607.2263    9205.9414    9343.0373    9031.6473   -38.344887    194.78235   -333.49663   -4277.2179 
 9308000    20.134795   -5331.1301    -5290.858   -5331.1301            0    9805.8619    17.729594    22.613588    18.928735    7589.0929    9450.8111    9699.3435    10267.431     555.2224   -354.72793    715.71496   -4205.5537 
 9309000     20.54856   -5335.6645   -5294.5648   -5335.6645            0    9212.5559    17.744328    22.552241    18.993753    7600.8129    9103.1924    8881.4047    9653.0707    65.068547   -174.48069   -131.11743   -4273.3525 
 9310000    21.213944   -5336.1089   -5293.6784   -5336.1089            0    9091.6832    17.708937    22.629294    18.960826    7598.3756    8680.4379    9089.8062    9504.8055    88.441635   -122.75196    181.79759    -4286.188 
 9311000    21.409886    -5331.554   -5288.7316    -5331.554            0    9986.0492    17.683388    22.556844     19.00794    7581.9143    10319.225    10088.433     9550.489    -174.0031   -21.685364   -405.93228   -4184.5297 
 9312000    22.884534   -5334.7924   -5289.0205   -5334.7924            0     9227.168    17.711058     22.56759    19.013295    7599.5358    8895.4315    9574.4891    9211.5834    287.05735    240.68609   -64.460547   -4266.3603 
 9313000    22.528672   -5336.7402     -5291.68   -5336.7402            0    9082.1283    17.736856     22.60783    18.971667    7607.4835    8812.9759    9080.0263    9353.3826   -210.20127    259.21726   -276.02606    -4284.042 
 9314000    20.136028   -5332.9723   -5292.6978   -5332.9723            0    9286.3062    17.670259    22.665751    18.966049    7596.0864    10116.932    8932.9476    8809.0392     33.67923   -221.60073   -478.54951   -4263.9503 
 9315000    20.568184   -5335.9614   -5294.8225   -5335.9614            0    9307.2453    17.717389    22.553964    19.025018    7602.3465    9203.2618    9531.5869    9186.8872   -121.58243    213.45737    442.28521   -4262.9056 
 9316000    21.997666    -5335.523    -5291.525    -5335.523            0    9358.1376    17.685723    22.576952    19.025356    7596.6289    9783.7343    9169.5288    9121.1496   -277.37563    -219.0518   -427.83043   -4254.7459 
 9317000    20.388124   -5334.8157    -5294.037   -5334.8157            0    9325.8239    17.707812    22.606839    18.966969     7592.813    8938.8287    9312.1519    9726.4912    42.095663    43.700053   -133.45624   -4261.3569 
 9318000     21.40443   -5335.8229   -5293.0113   -5335.8229            0    9463.7873    17.681041    22.610551    19.003415    7597.1491    9351.2609    9453.0501     9587.051     484.5241   -339.32951    304.14868   -4244.4556 
 9319000     20.82538   -5336.1459   -5294.4926   -5336.1459            0    9606.3641    17.707678    22.602948    18.956181    7587.1303    9203.6091    9717.0912    9898.3919   -36.124992   -88.469547   -6.1217909   -4231.5435 
 9320000    20.789203   -5333.8929   -5292.3119   -5333.8929            0    9304.6156    17.667163    22.652962    18.982519    7597.0617     9426.248    8999.3065    9488.2924    -132.0378   -121.66068    462.65981   -4261.4038 
 9321000    21.419827   -5334.0086   -5291.1663   -5334.0086            0     9466.741    17.664696    22.624214    18.986702     7588.033     9489.442    9606.6801    9304.1008   -513.76867    233.31674   -239.05057    -4243.542 
 9322000    21.841271   -5334.2114   -5290.5262   -5334.2114            0    9248.6293    17.704619    22.572302    19.031056    7605.4575    8397.2752    9811.3759    9537.2369     275.5184    63.150954   -168.00073   -4264.6886 
 9323000    20.023283   -5332.8969   -5292.8479   -5332.8969            0    9850.8246    17.715065    22.546895    18.970383    7577.1447    9026.4054    10388.459    10137.609    214.63443   -203.38402    297.58838   -4204.2837 
 9324000    20.420586   -5336.0293   -5295.1856   -5336.0293            0    9563.9968    17.694207    22.611013    18.969845    7589.5301     9188.631    9559.2977    9944.0618   -103.27934   -182.34525    419.39378   -4236.5897 
 9325000    20.440445   -5334.9711   -5294.0876   -5334.9711            0    9243.3876    17.652478    22.693951     18.95422    7593.1452    9797.9811    8896.3028    9035.8788    72.503481   -124.60536    79.118207   -4270.4912 
 9326000    21.766786   -5336.7646   -5293.2283   -5336.7646            0    9231.4408    17.758606    22.552966    18.991407     7606.234    8612.8931    9066.6489     10014.78   -292.21431   -360.02591    284.28336   -4269.1927 
 9327000     20.14353   -5334.5317   -5294.2422   -5334.5317            0    9764.2798    17.659516    22.661317    18.950115    7583.6064    9501.1085    9986.0856    9805.6454    24.024018    451.81508   -125.34844   -4214.3214 
 9328000    22.715994   -5334.9647   -5289.5299   -5334.9647            0    9216.3319    17.702741    22.622972    18.974756    7599.1737    9375.7573    9118.2838    9154.9547    180.27782   -248.99578   -224.30479   -4268.1193 
 9329000    21.602955   -5335.8944   -5292.6858   -5335.8944            0    9578.5829    17.719925     22.57397     18.96416     7585.836    8803.1403    9969.6623    9962.9462    171.46214    30.137346     498.1091   -4232.9915 
 9330000    22.289239   -5335.6945   -5291.1133   -5335.6945            0    9320.7083    17.655816    22.667325    18.981675    7596.6585    9269.5065    9324.0346    9368.5837    355.09474    -106.0497    320.29622   -4258.4769 
 9331000    19.938208   -5331.9831   -5292.1042   -5331.9831            0    9662.2726    17.714879     22.59994     18.95465    7588.5928    9701.2367    9651.8637    9633.7174   -291.00034    24.973823   -652.75073   -4222.7627 
 9332000    20.078846   -5335.9595   -5295.7993   -5335.9595            0    9336.3108    17.751528    22.556982    18.982121    7600.8378    9177.5259    9035.3028    9796.1038    21.518515   -11.010678   -48.777438   -4260.8653 
 9333000    20.622171   -5332.4094   -5291.1625   -5332.4094            0    9373.7189    17.737554    22.545322     18.99987    7598.0266    8834.5491    9433.0345    9853.5731    229.55165     -35.7652   -204.75726   -4252.4661 
 9334000    21.444771   -5330.9526   -5288.0604   -5330.9526            0    10054.439    17.745414    22.568727      18.9361    7583.7454    9734.3125    10040.663    10388.342    243.97149    202.89046    420.81499   -4176.0279 
 9335000    20.785863    -5337.785   -5296.2107    -5337.785            0    8907.9933    17.756834     22.57899     18.98766    7612.7485    8903.6387    9121.9042     8698.437   -171.99479    38.664598    62.383639   -4307.2085 
 9336000    20.707395    -5336.245   -5294.8277    -5336.245            0    9250.8533    17.763247    22.552051    18.967343    7598.2733    8978.1384    9078.8383    9695.5832    24.900919    5.4308734   -249.54494   -4269.7127 
 9337000    20.773247   -5335.7094   -5294.1603   -5335.7094            0    9108.1771    17.687655    22.572695    19.034862    7599.8218    9303.7635    9044.1972    8976.5707   -66.412905   -99.705337    350.43643     -4284.65 
 9338000    21.222089   -5335.9945   -5293.5477   -5335.9945            0    8946.7759    17.741328    22.506053    19.041281    7602.9412    9258.9349    9280.5424    8300.8505    394.72966    11.357695    752.60245   -4301.5194 
 9339000    20.097842   -5336.5176   -5296.3194   -5336.5176            0    9343.7048    17.709503    22.583323     18.98917    7594.5174    9583.9431     9211.655    9235.5164    1.3600665   -173.24281     511.6796   -4261.4271 
 9340000    20.442766   -5334.5293   -5293.6412   -5334.5293            0    9467.7242    17.724732    22.581014    18.985253    7598.7036    9655.0783    9105.9771    9642.1171   -301.69631    10.230183   -241.13295   -4244.4347 
 9341000    21.141454   -5336.0154   -5293.7299   -5336.0154            0    9586.2422    17.706407    22.609761    18.958233    7589.6942    9318.7628    9516.3513    9923.6127    67.242711    249.75755    82.525164   -4232.6488 
 9342000    20.308847   -5335.7995   -5295.1793   -5335.7995            0    9294.7794     17.68844    22.621935    18.994562    7600.6118    9567.0237    9168.5682    9148.7462   -548.61509   -133.95318   -313.57473   -4264.8797 
 9343000    21.032165   -5334.7453   -5292.6784   -5334.7453            0    9480.0695    17.742472    22.509529    19.034914     7602.063    9513.1415    9533.8213    9393.2455      182.064   -61.732567    278.60185   -4241.6393 
 9344000    20.246525   -5334.1793   -5293.6837   -5334.1793            0    9267.3699     17.63808     22.71855    18.983769    7607.0168    9479.8352    9037.8042    9284.4704   -278.37227    109.99287   -19.873417   -4265.5567 
 9345000    19.498285   -5334.9815   -5295.9826   -5334.9815            0    9292.4359    17.757748    22.487548    19.026494    7597.8159    9584.8645    9479.3159    8813.1272   -146.12009   -252.41855   -511.51824   -4266.3216 
 9346000     21.43527   -5334.8778   -5292.0047   -5334.8778            0    9219.2033    17.692971    22.575702    19.031402    7601.7363    9428.2682    9329.5494    8899.7923   -240.24747   -60.016411   -67.728079   -4269.9313 
 9347000    21.359348   -5333.7181   -5290.9968   -5333.7181            0    9785.4055    17.716947    22.502917    19.026025    7585.3522    9884.1853    10220.212    9251.8188    156.89838    147.86481   -82.591743   -4208.4904 
 9348000    21.732398   -5337.4412   -5293.9737   -5337.4412            0    9049.9699    17.693042    22.613843    19.001319    7602.5732    8969.6347    9096.9458    9083.3292   -256.09649    121.39309   -493.15685   -4290.5517 
 9349000    20.615874   -5332.0652   -5290.8309   -5332.0652            0    9863.4296    17.736108    22.572082    18.928474     7577.842    9857.0961    9836.1948    9896.9979   -96.200297     18.19996   -84.835094   -4200.7734 
 9350000    20.763345   -5337.1872   -5295.6579   -5337.1872            0    8887.0546    17.691586    22.662544     18.98397    7611.3634    8820.6227    9128.9902    8711.5508   -528.75246     279.5176   -470.05327   -4309.1599 
 9351000    19.801801   -5334.9388   -5295.3328   -5334.9388            0     9636.062    17.688305    22.590429    18.988212    7587.4311    10134.409    9403.9182     9369.859   -645.09518   -79.711506   -275.61078   -4229.0553 
 9352000    21.464447     -5339.26   -5296.3285     -5339.26            0    8749.7427    17.725352    22.702353    18.931336    7618.1059    8427.2582    8433.0443    9388.9255   -43.239322    160.32693   -415.12991   -4324.2123 
 9353000      22.4834   -5335.7387   -5290.7691   -5335.7387            0     9110.717    17.676455    22.691173    18.940323     7596.954    9265.5285    9096.7041    8969.9183    197.18162     80.06833   -80.225207   -4281.3583 
 9354000    21.237801    -5334.062   -5291.5837    -5334.062            0    9378.7887    17.712797    22.546114     19.00607    7590.1641    9451.3364    9686.6143    8998.4153   -629.15157    187.68594   -351.32803    -4253.401 
 9355000    21.161869   -5330.4249   -5288.0986   -5330.4249            0    9396.0284    17.709829    22.583263    18.977355    7589.9121    9356.0478    9186.5288    9645.5086    433.58392   -297.25715   -217.82821    -4248.042 
 9356000    19.974528   -5335.7726    -5295.821   -5335.7726            0    9068.8596    17.758144    22.598704    18.932649    7597.8812    8193.2392    9048.3087    9965.0309   -335.47785   -132.74947   -89.898622   -4290.9252 
 9357000    21.864897   -5335.7532   -5292.0207   -5335.7532            0    9683.1933    17.745914    22.592996    18.931261    7590.1738    9336.3677    9955.0312    9758.1809    280.37907    521.64459    760.09541   -4220.1406 
 9358000    21.673445   -5336.9374   -5293.5879   -5336.9374            0    8653.7941    17.768347    22.526352    19.030495    7617.0705    8621.8506    8764.9094    8574.6224   -76.883643   -148.11482   -107.41458   -4332.2625 
 9359000    21.327451   -5335.0131   -5292.3556   -5335.0131            0    9607.9253    17.653144    22.673894    18.952757     7586.135    10091.218    9414.6891    9317.8687   -319.77395    2.5464248   -502.68246   -4229.3732 
 9360000    20.596834   -5331.4906   -5290.2944   -5331.4906            0    9611.0241    17.668884    22.633724    18.986331    7592.8739    9758.6278    9837.5231    9236.9215    249.87245   -26.015413    911.44418   -4226.0246 
 9361000    21.778068   -5330.1772   -5286.6183   -5330.1772            0    10100.373    17.661574    22.606112    18.991382      7582.49    10095.231    10123.439    10082.448    183.61625    172.22101    166.85984   -4169.6905 
 9362000    21.456745   -5336.2058   -5293.2897   -5336.2058            0    9378.8053    17.670743    22.581106    19.050074    7601.4542    9298.4331     9664.462    9173.5209   -364.77092    310.08162   -205.81191   -4253.5608 
 9363000    20.514564   -5334.9534   -5293.9218   -5334.9534            0    9213.7202    17.734572    22.623169    18.934851    7596.8934    8478.2081    9412.5504    9750.4022    471.62497    289.13576   -36.194643    -4273.107 
 9364000    21.514569   -5335.6329   -5292.6011   -5335.6329            0    9157.7836    17.686019    22.630079    19.005164    7606.5512    9199.1039    9058.6632    9215.5838   -198.11752   -152.55382    69.553005   -4276.6939 
 9365000     20.86524   -5335.8387   -5294.1056   -5335.8387            0    9056.2674    17.717284    22.571174     19.02883    7609.6275    8933.7072    9200.3874    9034.7077   -155.52294   -106.40684    621.25868   -4289.0536 
 9366000    21.008173   -5335.9703   -5293.9514   -5335.9703            0    9288.8691    17.723145    22.527871    19.012952    7591.2011    9500.2533    9332.9634    9033.3906    179.42765   -358.45601   -203.63516   -4265.5818 
 9367000    20.008806   -5335.0241    -5295.004   -5335.0241            0    9537.9472    17.697513     22.57759    19.007165    7594.6399    9724.2892    9566.4442     9323.108    184.47203    19.620745    547.31634   -4238.5807 
 9368000    20.010058   -5333.7659   -5293.7433   -5333.7659            0    9760.2273    17.713388     22.63178    18.944851    7594.7161    9990.2108    9680.0579    9610.4132    111.61051    287.92439   -299.20484   -4212.6894 
 9369000    20.528178     -5336.09   -5295.0311     -5336.09            0    9491.8371    17.717564    22.541371    19.029182    7599.8399    8613.5145    10075.028    9786.9685   -498.76954    408.24398    566.38013   -4242.9951 
 9370000    20.375182    -5334.035   -5293.2821    -5334.035            0    9159.5309    17.658555    22.586219    19.050932    7598.2735    9679.1478     9374.576    8424.8691   -131.16648   -178.76494    207.25094   -4278.2868 
 9371000     20.21028    -5336.451   -5296.0279    -5336.451            0     9276.491    17.696514     22.57084    19.030804    7601.3826     9527.092    9234.3953    9067.9857   -123.02548   -314.84411    867.57674   -4267.6513 
 9372000    21.491891   -5334.3343   -5291.3479   -5334.3343            0    8915.4919    17.690013    22.596234    19.007223    7597.7132    8660.9661    9141.7893    8943.7202     464.1251    -332.7099    162.71515   -4303.4681 
 9373000    20.934271   -5333.6259   -5291.7547   -5333.6259            0    9680.9974    17.661693    22.588553    19.005639    7582.3391    9421.5288    9885.4498    9736.0137    183.02547    3.5979069   -496.50334   -4221.2239 
 9374000    21.535125   -5336.4953   -5293.4224   -5336.4953            0    9187.8276    17.737644    22.558571     19.00678    7605.2954    8890.0459    9381.8736    9291.5634    306.90494    299.22575    757.91109   -4274.3505 
 9375000      21.0357   -5331.8059   -5289.7319   -5331.8059            0    9572.6181    17.669466    22.557472    19.044376    7590.6784    9370.6258    9888.3072    9458.9212   -371.72507    14.430842     65.13067   -4230.0215 
 9376000    20.733369    -5334.006   -5292.5367    -5334.006            0    9778.6422    17.678913    22.592987    18.993148     7586.233    9502.5577    10005.707    9827.6617   -806.73662    -346.9697    577.17265   -4210.6529 
 9377000    20.233831   -5335.2134   -5294.7433   -5335.2134            0    9068.1515    17.652304    22.661675    18.985322    7594.7131    9529.1819    8636.1186    9039.1538   -282.60432   -261.82764   -604.11497   -4290.3448 
 9378000    20.558165   -5336.7057   -5295.5868   -5336.7057            0    9159.6922    17.689924    22.630462    18.993971    7603.8786     9039.262    9188.9874    9250.8272    -371.2217    230.11996   -247.52628   -4279.8248 
 9379000    22.286425   -5333.4602   -5288.8846   -5333.4602            0    9447.3887    17.745901     22.60419    18.943691    7598.9151     9431.286    9547.8012     9363.079   -278.26462    96.329353    331.00512   -4241.9024 
 9380000    20.568033   -5336.1321   -5294.9935   -5336.1321            0    9308.4114    17.729312    22.603481    18.944097    7591.7363     9160.302    9337.0408    9427.8915   -142.75643   -77.587174   -55.835582   -4264.3877 
 9381000    20.349572   -5337.9715   -5297.2698   -5337.9715            0    9205.8238    17.732274    22.605138    18.971284    7604.4591    8782.4033    9096.6883    9738.3796   -35.453458    188.02075    151.66573   -4276.3142 
 9382000    22.130111   -5336.0954   -5291.8325   -5336.0954            0    9253.0039    17.692584     22.59441    19.025267    7605.4169    9143.3734    9446.1657    9169.4727    157.18522    369.17292   -313.39839   -4265.5151 
 9383000    22.124294   -5335.1638   -5290.9125   -5335.1638            0    9429.2367    17.703193    22.612894    18.982782     7599.195    9678.0796    9154.1879    9455.4426    115.39676    5.5830811   -5.3959742   -4245.9035 
 9384000    20.306515   -5337.1984   -5296.5828   -5337.1984            0    9018.2329    17.741453    22.561619    18.996063    7603.6663    8800.6384    9026.6472    9227.4131   -35.348876   -275.50561    245.05781   -4296.5359 
 9385000    21.100605   -5335.9222   -5293.7184   -5335.9222            0    9314.8919    17.696461    22.636764    18.963165    7596.4657    9385.7406    9200.1008    9358.8343    200.32397    -207.6681    292.72011   -4261.7526 
 9386000     21.16037   -5334.0609   -5291.7375   -5334.0609            0    9074.9815    17.686757    22.561076    19.048231     7600.859    9724.9237    9195.8163    8304.2045    54.329456    48.879497    134.53887   -4285.7692 
 9387000    20.152316   -5335.2895   -5294.9824   -5335.2895            0    9078.2563    17.695827    22.655209     18.96165    7601.7758    9179.0078    9109.4001    8946.3609    537.62158    341.13835    626.74454   -4288.5296 
 9388000    20.896903   -5334.9765   -5293.1801   -5334.9765            0    9542.4492    17.707982    22.574684     18.98236    7588.2384     9215.967    9440.9014    9970.4793   -352.21372    -125.4978   -129.57694    -4237.149 
 9389000    20.842016   -5336.6881   -5295.0015   -5336.6881            0    9391.6161    17.725161    22.587605    18.976992    7597.7982    9132.1348    9520.3057    9522.4079   -60.316958   -383.01879   -298.52684   -4254.3532 
 9390000    21.161617   -5336.7066   -5294.3808   -5336.7066            0    8846.1621    17.674871    22.650884    19.013192     7611.959    8662.2309    8676.5256    9199.7296    161.67558   -146.78918      139.091   -4312.3452 
 9391000    20.648549   -5336.1623   -5294.8626   -5336.1623            0    9729.3218    17.697599    22.624652    18.981054    7600.0526    9854.5231    9487.7448    9845.6974   -361.96527   -224.20895    1.3352841   -4216.4746 
 9392000    20.530939    -5332.671   -5291.6066    -5332.671            0    9412.4048    17.680524    22.628288    18.973439    7590.8932    9356.8989    9582.1911    9298.1243   -16.396282   -223.90841    454.94114   -4249.6026 
 9393000    21.188777   -5337.3848   -5295.0046   -5337.3848            0    9181.7513    17.761079    22.533083    18.988398    7599.3821    8969.4803    9163.3639    9412.4097   -416.98195    -371.9087   -154.92315   -4277.3985 
 9394000    21.556648   -5336.3654   -5293.2495   -5336.3654            0    9245.4042    17.699828    22.651881    18.944077    7595.3324    8977.7574    8891.6726    9866.7827    90.905166    24.923822   -233.67452   -4269.1348 
 9395000     20.90658   -5335.0892   -5293.2734   -5335.0892            0    9385.5417    17.666629    22.653384    18.975563    7594.1901    10061.944     9090.503     9004.178     215.4575    9.1890259    274.17891   -4253.7921 
 9396000    20.731602   -5336.3277   -5294.8619   -5336.3277            0    9201.2919    17.718581    22.572939    19.000953    7599.6297    9262.5627    9178.6077    9162.7053   -167.25319   -8.0950978    518.53014   -4275.0569 
 9397000    21.329131   -5337.2521   -5294.5912   -5337.2521            0    9492.8114     17.66155     22.67015    18.957659    7590.4567    9873.0254    9057.7679     9547.641   -586.09328   -209.61406   -472.25658   -4243.7463 
 9398000    20.882829   -5333.5484   -5291.7802   -5333.5484            0    9983.9203    17.704862    22.564631    18.977266     7581.488    9832.6086    10140.445     9978.707      103.652   -5.5114105   -283.89465   -4187.8758 
 9399000    21.769153   -5334.2198   -5290.6788   -5334.2198            0    9414.0513    17.726174    22.599594    18.962574    7596.4893    8991.9857    9811.1304    9439.0379   -426.62423    223.31688    -320.5434   -4247.7243 
 9400000    19.908378   -5334.9929   -5295.1737   -5334.9929            0      9279.57    17.657251    22.628893    19.006249    7594.2137    9091.3991    9595.7954    9151.5155   -299.18436    27.023689   -361.05437   -4267.4259 
 9401000    21.614296   -5333.5274   -5290.2961   -5333.5274            0    9131.1747    17.731981    22.595648    18.983914    7606.2011    8917.1231    9063.9481     9412.453   -219.49097   -334.30597   -427.13903   -4277.3873 
 9402000    21.075029   -5334.1144   -5291.9618   -5334.1144            0    9765.3482     17.69149    22.618815     18.96359    7588.4804    10020.462    9628.0488    9647.5336   -129.18036   -150.58268    -686.4072   -4211.2287 
 9403000    21.579333   -5335.8325   -5292.6712   -5335.8325            0    8957.9853    17.691176    22.716552    18.919567    7603.4433    8580.9879    8647.1923    9645.7759   -623.67931   -203.13202   -584.70093   -4299.3343 
 9404000    20.511493   -5336.2752   -5295.2497   -5336.2752            0    9201.9037    17.736907     22.65209    18.925974      7604.04    8999.3702    9021.3549    9584.9861   -104.20335    551.93846     496.6969   -4274.7851 
 9405000    20.996463   -5335.1982   -5293.2027   -5335.1982            0    9593.6023    17.718266     22.55976    18.994363    7592.4234    9655.2281    9923.0323    9202.5465    3.6795214    571.78303     390.5835   -4230.9251 
 9406000    19.915341   -5335.7041   -5295.8709   -5335.7041            0    9257.4905    17.738503    22.610256    18.941998     7597.107    8926.7512    9248.4736    9597.2465   -45.526387   -437.11698   -373.47107   -4270.1779 
 9407000    20.518228   -5333.3672   -5292.3282   -5333.3672            0    9339.4437    17.732939    22.597935    18.954912    7595.7604    9302.0424    9295.2939    9420.9949    77.852151   -349.54599    528.53858   -4257.7385 
 9408000    20.538727   -5339.8097   -5298.7297   -5339.8097            0    8712.4499    17.737277    22.610861    18.967392    7606.9694    8136.6558    9014.0693    8986.6244   -500.39402    243.77363    199.05903   -4332.1718 
 9409000    20.064167     -5335.24   -5295.1092     -5335.24            0    9174.1663    17.735875    22.548649    19.010277    7602.5901    8668.9087    9480.3575    9373.2327     529.2864    329.86102    558.70739   -4277.9146 
 9410000    22.118269   -5336.5496   -5292.3104   -5336.5496            0    9306.8672    17.759226    22.497621    19.009115     7594.908    8798.0619    9584.6224    9537.9172    121.95869     -605.418   -160.69348   -4261.4451 
 9411000    20.175984   -5335.4901   -5295.1356   -5335.4901            0    9455.2473    17.739963    22.564614    18.980046     7597.625    9502.6824    9616.8377    9246.2217   -176.37112   -137.36138   -271.03938   -4247.4605 
 9412000    20.550094   -5334.8953   -5293.7926   -5334.8953            0    8715.2411     17.72257     22.59153    19.014323    7612.9541    8123.4487    8984.9035    9037.3712    882.37528   -133.96084    488.99999   -4326.1644 
 9413000    21.382072   -5336.0599   -5293.2931   -5336.0599            0    9557.6266     17.71039    22.604342    18.962289    7591.2054    9833.6563    9592.3514     9246.872   -530.79103    422.42037   -220.43258   -4235.1688 
 9414000     20.26196   -5333.2724    -5292.746   -5333.2724            0      9855.98    17.720817    22.529335    18.995446    7583.7083    9592.3345    9931.7235    10043.882   -125.83973    360.69033   -49.923146   -4202.6686 
 9415000    20.546361   -5336.7665   -5295.6713   -5336.7665            0    8761.2006    17.694355    22.646832    18.996111    7612.1422    8663.1002    8806.6194    8813.8821   -269.47123    114.51028    681.26981   -4323.0441 
 9416000    21.972076   -5332.0388   -5288.0919   -5332.0388            0     9802.165    17.689995    22.610076    18.955043     7581.489    9348.5442    9990.2068    10067.744    111.50839    241.99542   -201.10829   -4204.2838 
 9417000    20.224763   -5331.7162   -5291.2642   -5331.7162            0    9851.4769    17.643263    22.661453    18.970263    7584.7279    10289.448     9767.846    9497.1367   -14.718647    284.31413   -42.500172   -4201.5384 
 9418000    22.059775   -5334.0313    -5289.909   -5334.0313            0    9500.3513    17.623951    22.620802    19.017958    7581.8497    9819.3694    9448.6314     9233.053    273.53783   -226.54383    126.99436   -4239.4219 
 9419000    21.822346   -5333.6895   -5290.0421   -5333.6895            0      9673.56    17.714838    22.568691    18.994994    7594.2117    9697.5901    9572.8143    9750.2756   -504.90712   -143.23417   -338.08112   -4218.6587 
 9420000    21.038547   -5334.1685   -5292.0888   -5334.1685            0    9490.9234    17.704463    22.579131    18.982531    7588.2931    9423.7261    9606.2053    9442.8387   -244.61565    217.04673    208.40581   -4241.7523 
 9421000    21.859848    -5336.107   -5292.3846    -5336.107            0     9014.983    17.687081    22.592648    19.025664    7602.6171    9466.3953    8913.8082    8664.7454   -24.214861    135.58289    124.57975    -4292.836 
 9422000    20.352878   -5335.0561   -5294.3478   -5335.0561            0    9443.7704    17.731075    22.556994    18.981776    7591.9463     9620.681    9279.6757    9430.9545    304.16646   -246.36949   -5.4585386   -4248.7265 
 9423000    19.985258   -5333.2801   -5293.3071   -5333.2801            0    9390.1753    17.630623    22.661483    18.989544     7587.008    10391.753     8977.251    8801.5216    456.21162   -375.37417    215.83473   -4254.2961 
 9424000    20.938464   -5335.3282   -5293.4487   -5335.3282            0     9596.509    17.679804    22.595334    18.995568    7588.3698    9945.0429    9246.5865    9597.8977   -152.12273   -315.87718   -196.88311   -4231.4166 
 9425000    20.961282   -5335.7504   -5293.8253   -5335.7504            0    9420.4402    17.696641    22.546523    19.031999    7593.7242    9746.6273    9637.8834    8876.8099   -298.79873    -64.78479   -102.83893   -4250.5428 
 9426000    20.436831   -5336.1426   -5295.2664   -5336.1426            0     8722.702     17.71321    22.604154    18.999591    7607.2861    8102.2353    9179.6117    8886.2589    404.82792    357.79056    51.014401   -4327.5309 
 9427000    20.543716   -5330.5641   -5289.4742   -5330.5641            0    9686.9582    17.674251    22.565901    19.031849    7590.5752    10055.743    9523.1135    9482.0185    1.6329423    82.121859   -394.62645   -4217.1206 
 9428000    21.234979   -5336.0913   -5293.6187   -5336.0913            0    9472.2295    17.744523    22.578314    18.971614    7600.8142    9688.5966    9361.9692    9366.1227   -33.220623    286.80471    -175.4682   -4243.6213 
 9429000    21.766464   -5334.7172   -5291.1816   -5334.7172            0    9516.3596    17.698177    22.562295    19.026265    7597.4064    9626.4819    9671.0037    9251.5931    46.538107    304.31788    188.58471   -4236.7654 
 9430000    21.042898   -5335.0926   -5293.0042   -5335.0926            0    9309.5832    17.709802    22.603988    18.992126    7602.7789    9271.8657    8976.5644    9680.3196   -375.69912   -156.96619    301.00512   -4260.7694 
 9431000    20.735438   -5336.6165   -5295.1431   -5336.6165            0    9327.8447    17.692811    22.653037    18.968332    7602.4293    9465.7303    8991.0454    9526.7584    291.75475    95.287595    82.760027    -4260.931 
 9432000     21.29033   -5334.9847   -5292.4014   -5334.9847            0     9449.478    17.726863    22.644876    18.922427    7595.8902    9317.5719     9182.329     9848.533   -277.45554    295.69026   -316.29181   -4245.6046 
 9433000    21.178416   -5339.8867   -5297.5272   -5339.8867            0    8846.8785    17.730053    22.587299    19.013998     7614.612    8633.0017    9101.5792    8806.0544    386.42423    237.56483    224.72789   -4315.0698 
 9434000    21.232687   -5337.3038   -5294.8358   -5337.3038            0    9592.3556    17.679813    22.568002    19.039002    7596.5246    9836.2351    9812.1233    9128.7085    72.577472    354.40898   -34.053986   -4232.1226 
 9435000    21.528661   -5334.0845   -5291.0245   -5334.0845            0    9408.8843     17.67356    22.620124    19.010333    7599.9152    9726.2176    9231.0196    9269.4157   -136.24768    60.601224   -113.64436   -4248.1723 
 9436000    20.653349    -5335.049   -5293.7398    -5335.049            0     8990.615    17.714992    22.625702    18.972544    7604.4638    9003.8335    9057.8854    8910.1261    596.41612    236.44476    52.399223   -4296.6509 
 9437000    19.993353    -5332.394   -5292.4048    -5332.394            0    9666.9116    17.676558    22.665527    18.939945    7588.2607    10077.363    9185.9647    9737.4074   -78.635149   -110.27182    150.94607   -4222.5967 
 9438000    21.736824   -5338.3172   -5294.8408   -5338.3172            0    8774.2189    17.733604    22.595805    19.010028    7617.4142    8902.9795    8648.4661    8771.2111     2.423752   -200.78426    68.397091   -4320.0938 
 9439000    20.841646    -5335.473   -5293.7871    -5335.473            0    9695.6212    17.685987    22.615549    18.974857    7589.5314    9733.4994    9669.4235    9683.9408   -51.721572    8.1487752   -16.115615   -4220.6221 
 9440000    21.211304   -5331.9898   -5289.5646   -5331.9898            0    9055.2699    17.707191    22.569463     19.02493     7603.157    9359.2287    8909.0732     8897.508   -497.74143   -298.84262    292.94935   -4285.4778 
 9441000    20.893843   -5337.2106   -5295.4204   -5337.2106            0    8886.3349    17.713913    22.586557    19.036248    7616.3326    9287.1823    9021.5298    8350.2924    328.36059    64.341935   -101.71092   -4308.3583 
 9442000    21.668005   -5335.8868   -5292.5481   -5335.8868            0    9224.3093    17.666963    22.582625    19.043167    7597.5836    9478.9075    9152.0834    9041.9371    415.73138   -230.51071   -886.63988   -4270.4672 
 9443000    21.340598   -5335.8809   -5293.1971   -5335.8809            0    9665.2227     17.69774    22.605285    18.974692    7591.0619    9563.1569    9679.0047    9753.5065    511.88911    293.00828    176.79067    -4223.181 
 9444000    21.341288   -5333.9787   -5291.2935   -5333.9787            0    9499.6625    17.703998    22.542042    19.021048    7591.0009    9014.3691    10144.823    9339.7953   -131.14298    358.17403    166.09656   -4239.6147 
 9445000    21.374994   -5335.8945   -5293.1418   -5335.8945            0    9218.7867    17.694905    22.619101    19.003889    7606.1706    8963.8678    9238.3017    9454.1906    124.64821    384.49752    774.86127   -4270.5184 
 9446000    21.768527   -5338.4589   -5294.9191   -5338.4589            0    8924.7259    17.655605    22.662692    18.991898    7599.1058    8947.2272    8769.0219    9057.9285    -244.7712   -427.40205   -309.68948   -4305.8349 
 9447000    21.345835   -5335.9668   -5293.2725   -5335.9668            0     9237.727    17.679179    22.705521    18.939647    7602.6574    9045.8186    9018.9957    9648.3668    78.344507    301.56736     15.31856   -4269.0214 
 9448000    20.935809    -5335.121   -5293.2468    -5335.121            0     9495.947    17.682078    22.533923    19.058815    7593.9194    9553.4464    9819.2482    9115.1464   -652.09033   -264.29755   -923.35684   -4241.5751 
 9449000     21.97528   -5334.3069   -5290.3536   -5334.3069            0    9555.8704    17.767433    22.502759    18.988759    7592.0148    9526.7429    9326.6861    9814.1823   -529.06422   -437.04256   -340.81543    -4232.311 
 9450000    20.606944   -5336.1678   -5294.9514   -5336.1678            0    9274.5947    17.711516    22.534796    19.043814    7600.8696    9273.7608    9530.6249    9019.3985    154.24129   -169.91072    523.59742   -4266.8543 
 9451000    20.762473   -5335.5859   -5294.0584   -5335.5859            0    9242.5369    17.707355    22.599677      18.9892    7599.1076    8915.8581    9262.6495     9549.103   -220.33156   -142.67363    78.431021   -4269.7525 
 9452000    20.353216   -5334.8894   -5294.1805   -5334.8894            0    9324.5593    17.723459    22.575659    18.988587    7597.6903    9401.1464    9260.8032    9311.7283    261.52607    245.39478   -212.61928   -4260.9771 
 9453000    20.741471   -5336.2948   -5294.8093   -5336.2948            0    9312.7065    17.659688    22.626451    19.002233    7592.8373    9636.4422    9237.1248    9064.5526   -60.771178   -56.681903   -437.43519   -4263.5785 
 9454000    20.371868    -5336.562   -5295.8157    -5336.562            0    9191.0537    17.701712    22.596154    19.003556    7601.2439     9301.027    9252.1202     9020.014    21.275471    185.81879   -497.09309   -4276.9291 
 9455000    20.989914   -5337.2239   -5295.2414   -5337.2239            0    9368.6941    17.693496    22.507856    19.066007    7592.8976    9404.2297    9800.8785    8900.9741   -124.59308    126.40949    -131.3712   -4257.8026 
 9456000     20.70821   -5336.6733   -5295.2543   -5336.6733            0    9340.5514    17.683829    22.684929    18.947231    7600.8031    8989.5276    9363.6392    9668.4874     436.4226    231.91787   -223.12158    -4259.855 
 9457000    21.926816   -5336.9743    -5293.118   -5336.9743            0    9397.9472    17.700652    22.642414    18.961484    7599.4878    9452.1848    9333.5506    9408.1063    221.92348   -68.757706   -395.97535   -4251.5366 
 9458000    21.359108   -5336.0113   -5293.2904   -5336.0113            0    9233.6695    17.682028    22.664364    18.977481     7605.262    9888.0339    8964.5788    8848.3959    96.466796   -155.53381   -268.40371   -4269.1385 
 9459000    21.313707   -5335.5268   -5292.8967   -5335.5268            0    9494.1969    17.714667    22.597807    18.972198    7594.8105    9254.0886    9758.3248    9470.1773     107.4233    529.48124    60.429989   -4241.2955 
 9460000    21.371157   -5333.7062   -5290.9613   -5333.7062            0    9579.0403    17.710975    22.519161    19.029174    7589.5251    8981.8437    10100.575    9654.7024   -51.370662    336.96898   -595.41508    -4230.701 
 9461000    20.828617   -5333.6659   -5292.0061   -5333.6659            0    9473.0477    17.754881    22.610233    18.915335    7593.4098    9519.3926    9036.3122    9863.4384   -231.72642   -176.39748    81.014275   -4242.9409 
 9462000    21.351314   -5335.5036   -5292.7983   -5335.5036            0    9315.4956    17.692897     22.66356    18.955071     7600.681    9039.2494     9471.843    9435.3943   -54.153516     391.3028    23.432965    -4260.193 
 9463000    20.877594    -5334.709   -5292.9513    -5334.709            0    9331.5764    17.738106    22.555624     18.99837    7601.1347    9037.4329    9686.5817    9270.7146   -281.58413    432.31721   -370.48346   -4258.5017 
 9464000    20.747927   -5336.2529   -5294.7545   -5336.2529            0    9102.2686    17.726754    22.517396    19.050715      7604.29    9304.3399    9094.9271    8907.5388    280.50306     3.095038    115.98282   -4285.3059 
 9465000    19.675722   -5334.6667   -5295.3129   -5334.6667            0    9646.7376    17.699454    22.598778    18.975464    7589.9207    9277.8434    9552.8655    10109.504    631.71475     237.6255   -799.41989   -4227.5038 
 9466000    21.207526   -5336.8114   -5294.3937   -5336.8114            0     9496.496    17.702891     22.57032    19.008368     7594.982    9425.0002    9765.0337    9299.4541   -247.01457    377.11246    809.44821   -4242.5141 
 9467000    20.275196   -5336.2921   -5295.7393   -5336.2921            0    9283.5855    17.754795    22.606164     18.91877    7593.3855     8639.878    9636.9316    9573.9469    96.267928    188.87699    21.023569   -4267.6589 
 9468000    22.496512    -5339.021   -5294.0252    -5339.021            0    8965.8809    17.695373    22.591019    19.023211    7604.6527    9254.0869     8920.811    8722.7449    186.53084    391.26987   -199.87896   -4299.6546 
 9469000    21.456658   -5337.1217   -5294.2057   -5337.1217            0    9089.6866    17.712057    22.629382    18.965296    7601.5355    8946.4701    8809.1159    9513.4739    70.706551   -268.26771   -172.69027   -4286.5176 
 9470000    20.226978   -5334.3016   -5293.8452   -5334.3016            0     9689.241    17.647715    22.628443    18.987338    7582.4092    10015.803    9813.1547    9238.7651    41.016724   -74.224198    222.96009   -4222.3928 
 9471000    19.922724   -5335.6365   -5295.7885   -5335.6365            0    8799.7615    17.682638    22.698639    18.957401    7608.9668      9238.72    8332.6298    8827.9347   -380.03176   -64.574544    184.00642    -4319.288 
 9472000    19.778622   -5336.7613   -5297.2016   -5336.7613            0    9399.4152    17.670863    22.632281    19.011734       7603.4    9528.1737    9554.0895    9115.9824    127.06223    51.686265   -537.87415   -4254.9212 
 9473000    20.431972    -5336.576   -5295.7095    -5336.576            0    9338.8723    17.683237    22.609317    18.985893    7590.6725     9559.163    9374.3138    9083.1403   -52.546929   -353.62908     403.6817   -4261.8761 
 9474000    20.946982   -5337.1216   -5295.2251   -5337.1216            0    8696.1369    17.733608    22.615759    18.967735    7607.1811    8390.4342    8746.4184    8951.5582    47.260963   -53.707879   -185.36993   -4330.4501 
 9475000    21.303372   -5338.9613   -5296.3519   -5338.9613            0     8974.637     17.73292    22.610604    18.972224    7606.9515    8978.1841    8825.1042    9120.6228    403.83866   -258.38769    917.39003   -4300.7094 
 9476000    20.671772   -5336.4289   -5295.0828   -5336.4289            0    9526.2532      17.7104    22.623958    18.971128     7601.339    9133.1374     9829.973    9615.6494    -228.8341    332.95394   -81.621282   -4239.0239 
 9477000    22.344276   -5332.8887   -5288.1974   -5332.8887            0    9311.3928    17.758689    22.457289    19.057902      7600.52    9069.8399    9663.3224    9201.0161    104.41755   -26.982784   -744.10483   -4256.0687 
 9478000    21.192534    -5332.233   -5289.8453    -5332.233            0    9751.7749     17.70533    22.541897    19.021258    7591.6071    10354.092    9646.3572    9254.8754    719.81688    11.878229    898.00974   -4210.1697 
 9479000    21.585487   -5333.2993   -5290.1257   -5333.2993            0    9923.1321    17.679867      22.6365    18.960265    7588.0936    10170.365    9618.0223    9981.0088    45.956857   -9.3254578   -675.57963   -4191.9866 
 9480000    21.908614   -5334.4328   -5290.6129   -5334.4328            0    9342.0154     17.70829    22.621376    18.963233    7596.4031    9379.1035    9255.4141    9391.5286    406.90948    23.617139    751.22177   -4255.6507 
 9481000    21.886659    -5335.861   -5292.0849    -5335.861            0    9559.3502    17.732713    22.548369    19.000784     7597.345    9544.1849    9549.7961    9584.0695    763.44733   -198.00012    622.13674   -4232.9139 
 9482000     21.31586   -5335.1226   -5292.4883   -5335.1226            0     9567.476    17.682145    22.605961    18.984535    7588.5338    9064.2559    9624.2777    10013.894   -26.100698   -235.95406    547.71797   -4233.6463 
 9483000    21.528526   -5339.8814   -5296.8217   -5339.8814            0    8853.5309    17.740296    22.627814    18.964416     7612.774    9052.9903    8602.5781    8905.0242    194.29367   -81.438144     455.4825   -4313.8629 
 9484000    21.244599   -5335.2234   -5292.7316   -5335.2234            0     9393.422    17.719329    22.570977     19.00727    7601.8162    9652.7389    9220.5661    9306.9611     41.08288   -11.885802    191.54216   -4251.3327 
 9485000    19.780171    -5335.349   -5295.7862    -5335.349            0    9180.0735    17.707922    22.654921     18.94193    7598.9637    9050.3276    8838.5476    9651.3453   -344.32133   -363.00216   -697.62394   -4278.4221 
 9486000     21.42271   -5338.4854   -5295.6373   -5338.4854            0    9336.4233    17.700701    22.589513    19.017683    7604.2248    9526.0581    9415.2374    9067.9744    267.41015   -13.836648    179.89183   -4260.2296 
 9487000    19.638944   -5332.5521   -5293.2718   -5332.5521            0    9839.8468     17.69314    22.582765    18.995165    7589.7086    9924.6146    9946.3704    9648.5554     511.9103    153.46157    77.595373   -4204.1177 
 9488000    20.548728    -5331.919    -5290.819    -5331.919            0    9621.8978    17.713222    22.509956    19.044025    7593.3066    9570.0706     9920.973    9374.6497   -188.98524   -109.78911    413.62828   -4225.2844 
 9489000    20.640795   -5334.4768   -5293.1926   -5334.4768            0    9271.0022    17.731547    22.551091    18.994432    7595.2221    9655.8527    9251.3002    8905.8537   -55.093734   -310.73919   -222.35034   -4266.2574 
 9490000    21.647446   -5336.6152   -5293.3177   -5336.6152            0    8912.6196    17.745144    22.591696    18.976039    7607.3595     8790.774     8985.406    8961.6789    122.10211   -65.495029    34.402925   -4304.5023 
 9491000    20.228517   -5334.3162   -5293.8566   -5334.3162            0    9375.4594    17.693975    22.695499    18.906959    7592.5353     8871.396    9453.2356    9801.7466   -359.65875    -7.978424   -54.876373   -4255.7182 
 9492000    20.967183   -5338.1791   -5296.2421   -5338.1791            0    8903.7421    17.764402    22.550809    19.002023    7612.2414    8658.3007    9190.9909    8861.9346    204.52554   -280.49108   -159.98119   -4307.7777 
 9493000    21.633025   -5332.3386   -5289.0698   -5332.3386            0    9942.8389    17.665345    22.500395    19.082547    7584.8782    10431.908    10252.293    9144.3154     330.8256    114.62157    252.52911   -4189.2162 
 9494000    20.906022    -5333.713   -5291.8984    -5333.713            0    9127.9613    17.682345    22.660862    18.966863    7599.9687    9659.8916     8551.133    9172.8593   -357.74969   -92.107465   -223.50067   -4280.1757 
 9495000    22.054215   -5337.2213   -5293.1101   -5337.2213            0    8697.7225    17.674708    22.594929     19.06492    7613.7433    9045.6679    8862.2943    8185.2054    41.867399    40.837154    623.59334   -4327.3269 
 9496000    19.990526   -5334.2087   -5294.2252   -5334.2087            0    9497.9287     17.71456    22.601564    18.975085    7597.1832    9010.5682    9734.3006    9748.9174   -351.35253     26.24869    307.09395    -4241.882 
 9497000    20.795521   -5335.5329   -5293.9393   -5335.5329            0    9339.4597    17.666709    22.655876    18.986998    7599.6364    9439.2832    9187.8519     9391.244    352.30901    164.19033    412.88232   -4258.8199 
 9498000    21.028738   -5334.4283   -5292.3682   -5334.4283            0    9158.1212     17.70788    22.574751    19.021386    7603.8178    9160.0773    9194.2598    9120.0265   -302.07674    10.193419   -121.42535   -4276.7886 
 9499000    21.435213   -5335.1397   -5292.2667   -5335.1397            0    9851.0578    17.703592     22.55862    18.984916     7581.979     10243.25    9716.6522    9593.2715   -369.06803   -75.967366   -166.45706   -4202.9821 
 9500000    21.118899   -5335.2664    -5293.026   -5335.2664            0    8912.0058    17.706728    22.637665    18.989582    7611.7645    9136.3825    8520.2612    9079.3738   -485.71055   -449.64374   -277.11033   -4303.7062 
Loop time of 445.057 on 64 procs for 250000 steps with 1008 atoms

Performance: 97.066 ns/day, 0.247 hours/ns, 561.726 timesteps/s
195.1% CPU use with 32 MPI tasks x 2 OpenMP threads

MPI task timing breakdown:
Section |  min time  |  avg time  |  max time  |%varavg| %total
---------------------------------------------------------------
Pair    | 34.818     | 40.197     | 48.675     |  49.0 |  9.03
Bond    | 0.86557    | 1.0875     | 1.8351     |  16.1 |  0.24
Kspace  | 214.91     | 224.23     | 231.24     |  25.0 | 50.38
Neigh   | 0.096032   | 0.10996    | 0.1236     |   1.9 |  0.02
Comm    | 69.38      | 74.131     | 77.807     |  25.5 | 16.66
Output  | 0.77964    | 0.77993    | 0.78158    |   0.0 |  0.18
Modify  | 86.38      | 88.987     | 92.011     |  14.8 | 19.99
Other   |            | 15.54      |            |       |  3.49

Nlocal:        31.5000 ave          36 max          28 min
Histogram: 2 4 3 7 0 6 5 4 0 1
Nghost:        2999.75 ave        3013 max        2989 min
Histogram: 2 1 6 3 6 6 3 2 2 1
Neighs:        10966.9 ave       12551 max        9769 min
Histogram: 3 3 3 7 4 2 5 4 0 1

Total # of neighbors = 350942
Ave neighs/atom = 348.15675
Ave special neighs/atom = 2.0000000
Neighbor list builds = 261
Dangerous builds = 0

unfix		3
unfix		2
unfix		1

write_data	data.final.${pid}
write_data	data.final.1
System init for write_data ...
PPPM initialization ...
  extracting TIP4P info from pair style
  using 12-bit tables for long-range coulomb (../kspace.cpp:340)
  G vector (1/distance) = 0.38007994
  grid = 24 27 32
  stencil order = 5
  estimated absolute RMS force accuracy = 0.0023909575
  estimated relative force accuracy = 7.2002974e-06
  using double precision FFTW3
  3d grid and FFT values/proc = 5355 672
Last active /omp style is kspace_style pppm/tip4p/omp
WARNING: Not all mixed pair coeffs generated from mixing. Use write_data with 'pair ij' option to store all pair coeffs. (../write_data.cpp:312)

write_restart   restart.lmp.${pid}
write_restart   restart.lmp.1
System init for write_restart ...
PPPM initialization ...
  extracting TIP4P info from pair style
  using 12-bit tables for long-range coulomb (../kspace.cpp:340)
  G vector (1/distance) = 0.38007994
  grid = 24 27 32
  stencil order = 5
  estimated absolute RMS force accuracy = 0.0023909575
  estimated relative force accuracy = 7.2002974e-06
  using double precision FFTW3
  3d grid and FFT values/proc = 5355 672
Last active /omp style is kspace_style pppm/tip4p/omp
Total wall time: 0:07:25
