LAMMPS (30 Jul 2021)
  using 1 OpenMP thread(s) per MPI task
package omp 0
using multi-threaded neighbor list subroutines
echo both

include		in.partitions
variable        pid world 0
include		in.temp
variable        temperature equal 243.31
variable	tempDamp equal 100.0
include		in.pressure
variable        pressure equal 2750.0
variable        pressureDamp equal 1000.0 # This is 1 ps
include		in.seed
variable        seed world 745823

units		real
atom_style	full
box tilt large
read_restart	restart.lmp.${pid}
read_restart	restart.lmp.0
Reading restart file ...
  restart file = 30 Jul 2021, LAMMPS = 30 Jul 2021
  restoring atom style full from restart
  triclinic box = (-10.757602 -9.2993265 -0.11390428) to (12.737602 12.289325 21.973903) with tilt (-9.0457509 1.8353048 2.8664808)
  4 by 4 by 4 MPI processor grid
  restoring pair style lj/cut/tip4p/long/omp from restart
  restoring bond style harmonic/omp from restart
  restoring angle style harmonic/omp from restart
  1296 atoms
  864 bonds
  432 angles
Finding 1-2 1-3 1-4 neighbors ...
  special bond factors lj:    0        0        0       
  special bond factors coul:  0        0        0       
     2 = max # of 1-2 neighbors
     1 = max # of 1-3 neighbors
     1 = max # of 1-4 neighbors
     2 = max # of special neighbors
  special bonds CPU = 0.827 seconds
  read_restart CPU = 1.127 seconds
include 	in.setup
variable	out_freq equal 1000
variable	out_freq2 equal 10000
variable	out_freq3 equal 1000

timestep	2.0

neigh_modify    delay 7 every 1

include		in.tip4p
# This is TIP4P/Ice

# create groups ###
group ox type 2
432 atoms in group ox
group hy type 1
864 atoms in group hy

# set charges - beside manually ###
set group ox charge -1.1794
Setting atom values ...
  432 settings made for charge
set group hy charge 0.5897
Setting atom values ...
  864 settings made for charge

# ### TIP3P Potential Parameters ###
pair_style lj/cut/tip4p/long/omp 2 1 1 1 0.1577 8.5
pair_coeff 1 1*2 0.000 0.000
pair_coeff 2 2 0.21084 3.1668
bond_style  harmonic
bond_coeff  1 450 0.9572
angle_style harmonic
angle_coeff 1 55 104.52
kspace_style pppm/tip4p/omp 1.0e-5
pair_modify tail yes

thermo          ${out_freq}
thermo          1000
thermo_style    custom step temp pe etotal epair emol press lx ly lz vol pxx pyy pzz pxy pxz pyz enthalpy

restart 	${out_freq3} restart.lmp.${pid} restart2.lmp.${pid}
restart 	1000 restart.lmp.${pid} restart2.lmp.${pid}
restart 	1000 restart.lmp.0 restart2.lmp.${pid}
restart 	1000 restart.lmp.0 restart2.lmp.0


include         in.dump
dump            myDump all atom ${out_freq2} dump.water.${pid}
dump            myDump all atom 10000 dump.water.${pid}
dump            myDump all atom 10000 dump.water.0
dump            myDump2 all dcd ${out_freq2} dump.dcd
dump            myDump2 all dcd 10000 dump.dcd
dump_modify     myDump append yes
dump_modify     myDump2 append yes


variable natoms 	equal  "count(all)"                        # NUMBER ATOMS
variable H      	equal  "enthalpy/v_natoms"                 # ENTHALPY-per-atom
variable Vol      	equal  "vol/v_natoms"                 # volume-per-atom
fix AVG all 		ave/time ${out_freq} 1 ${out_freq} v_Vol v_H file vol_enthalpy.dat
fix AVG all 		ave/time 1000 1 ${out_freq} v_Vol v_H file vol_enthalpy.dat
fix AVG all 		ave/time 1000 1 1000 v_Vol v_H file vol_enthalpy.dat


timer           timeout 10:00:00 every 1000
New timer settings: style=normal  mode=nosync  timeout=10:00:00

fix 		1 all shake 1e-6 200 0 b 1 a 1
       0 = # of size 2 clusters
       0 = # of size 3 clusters
       0 = # of size 4 clusters
     432 = # of frozen angles
  find clusters CPU = 0.055 seconds
fix             2 all nph tri ${pressure} ${pressure} ${pressureDamp}
fix             2 all nph tri 2750 ${pressure} ${pressureDamp}
fix             2 all nph tri 2750 2750 ${pressureDamp}
fix             2 all nph tri 2750 2750 1000
fix             3 all temp/csvr ${temperature} ${temperature} ${tempDamp} ${seed}
fix             3 all temp/csvr 243.31 ${temperature} ${tempDamp} ${seed}
fix             3 all temp/csvr 243.31 243.31 ${tempDamp} ${seed}
fix             3 all temp/csvr 243.31 243.31 100 ${seed}
fix             3 all temp/csvr 243.31 243.31 100 745823


run             250000
PPPM initialization ...
  extracting TIP4P info from pair style
  using 12-bit tables for long-range coulomb (../kspace.cpp:340)
  G vector (1/distance) = 0.36670144
  grid = 30 40 32
  stencil order = 5
  estimated absolute RMS force accuracy = 0.0045981914
  estimated relative force accuracy = 1.3847317e-05
  using double precision FFTW3
  3d grid and FFT values/proc = 5168 640
Last active /omp style is kspace_style pppm/tip4p/omp
Neighbor list info ...
  update every 1 steps, delay 7 steps, check yes
  max neighbors/atom: 2000, page size: 100000
  master list distance cutoff = 10.8154
  ghost atom cutoff = 10.8154
  binsize = 5.4077, bins = 7 5 5
  1 neighbor lists, perpetual/occasional/extra = 1 0 0
  (1) pair lj/cut/tip4p/long/omp, perpetual
      attributes: half, newton on, omp
      pair build: half/bin/newton/tri/omp
      stencil: half/bin/3d/tri
      bin: standard
Per MPI rank memory allocation (min/avg/max) = 9.431 | 9.438 | 9.444 Mbytes
Step Temp PotEng TotEng E_pair E_mol Press Lx Ly Lz Volume Pxx Pyy Pzz Pxy Pxz Pyz Enthalpy 
 7250000    252.99797   -6313.4152   -5662.5934   -6313.4152            0    366.14061    23.495204    21.588651    22.087808    11203.593    469.90306    576.35786    52.160902    -1175.283   -38.822724   -806.64016   -5602.7686 
 7251000    242.81669   -6339.7497   -5715.1185   -6339.7497            0    2681.4441    23.413129    21.529149     21.85508    11016.375     2065.372    3106.9259    2872.0344   -564.22377   -267.34912    471.22285   -5284.3109 
 7252000    239.36539   -6311.9227   -5696.1698   -6311.9227            0    4107.8088    23.523004    21.580401     21.67531    11003.164    3154.0303    3667.0255    5502.3705    461.05103    619.99215    915.21562   -5036.9903 
 7253000    248.32888    -6343.653   -5704.8421    -6343.653            0    1882.6462    23.366111    21.596946    21.957662     11080.64    2140.9684    2264.5083     1242.462   -1728.6861    1916.9025     382.0491   -5400.6069 
 7254000    239.38935   -6362.3224   -5746.5078   -6362.3224            0    1225.8372    23.540696    21.416562    22.033337    11108.344     1341.747    2356.1268   -20.362216   -412.52431    1286.1041   -1085.1475   -5547.9175 
 7255000    241.28687   -6339.0716   -5718.3758   -6339.0716            0    914.80986    23.485284    21.679512     21.84468    11122.208    1814.0524   -347.87316    1278.2504    -224.1272    413.84182    789.66551   -5569.9882 
 7256000    259.87101   -6362.0146   -5693.5123   -6362.0146            0    3339.0904      23.4591    21.571586    21.787138    11025.381     3542.707    3196.2121    3278.3522     643.4409    12.281136   -410.40771    -5156.607 
 7257000    240.36717   -6341.1404   -5722.8105   -6341.1404            0    4311.7394    23.397637    21.501677    21.844608     10989.77    5604.3787    3179.4138    4151.4257   -370.32032   -351.84062    119.04444   -5031.7486 
 7258000    245.59246   -6327.5678   -5695.7962   -6327.5678            0    2923.9549    23.431688    21.661653    21.751763    11040.523    3045.8761     3014.093    2711.8955   -534.69554   -295.03375    -648.0575   -5224.9965 
 7259000    249.24346   -6307.5586    -5666.395   -6307.5586            0    1845.4857    23.558538    21.522864    21.939487    11124.356    1607.5292    1877.4828     2051.445    371.80852    47.148781    406.50338   -5366.9883 
 7260000    243.32627   -6319.9985   -5694.0565   -6319.9985            0    2333.0282    23.324148    21.616286    21.943507     11063.51    2647.4371    1187.9115    3163.7359    740.77326   -719.35387     153.5573   -5317.6225 
 7261000     240.5817    -6324.639   -5705.7572    -6324.639            0    3606.5545    23.493016     21.48246    21.795436     10999.89    3369.8233    3851.4273    3598.4131     1411.949   -525.30615   -60.502478   -5127.1861 
 7262000    259.17771   -6329.5901   -5662.8712   -6329.5901            0    3375.1961    23.396382    21.578351     21.86958    11040.975    4754.5949    2561.6877    2809.3057    556.00028   -1305.2417   -527.26153   -5119.3928 
 7263000    245.24113     -6305.47   -5674.6021     -6305.47            0    1440.6065    23.563631     21.58063    21.921504    11147.479    1749.1902    2020.7485    551.88095   -193.45062   -1389.2559   -1334.9692   -5440.3961 
 7264000    233.29411   -6335.6966   -5735.5618   -6335.6966            0    2205.5882    23.491888    21.581602    21.808806    11056.903    1760.9211    2256.8687    2598.9747   -757.17849    574.69855    265.86467   -5379.9028 
 7265000    248.93985   -6339.9847   -5699.6021   -6339.9847            0    1409.1511    23.552691    21.556286     21.86186    11099.454    1007.3569    1952.4388    1267.6576    292.04156   -761.20245    806.28737    -5471.497 
 7266000    251.57785   -6359.3814   -5712.2127   -6359.3814            0    2018.8953    23.430516     21.68976    21.758341    11057.638    2335.1567    2427.3813    1294.1481   -179.40392   -775.82254   -187.95641   -5386.6369 
 7267000    237.92204   -6311.3055   -5699.2655   -6311.3055            0    4810.8596     23.42941    21.468364    21.828544    10979.564    4317.0973    3959.0185     6156.463   -419.96569    758.19745    315.56894   -4928.9234 
 7268000    241.31085   -6358.2734    -5737.516   -6358.2734            0    1187.1192    23.545448    21.704179    21.785184    11132.983    1131.1633    1028.9532    1401.2413   -428.08706    743.48949   -80.653052   -5544.7716 
 7269000    243.43617   -6341.4995   -5715.2748   -6341.4995            0     3235.364    23.358457    21.542921    21.902026    11021.306    4604.2067    1992.1147    3109.7706    -1118.151    641.84982   -123.91588   -5195.2404 
 7270000     240.2289   -6340.7285   -5722.7543   -6340.7285            0     3581.764    23.466041    21.447991    21.861957    11003.111    2850.3174    4398.6733    3496.3014   -982.04796    352.19391     424.6313   -5147.9919 
 7271000    245.07815   -6367.3788   -5736.9302   -6367.3788            0    2742.9233    23.481536     21.60627    21.764521    11042.195     3715.295    2794.2431    1719.2318   -949.16084    311.02954   -18.197244   -5295.2123 
 7272000     244.0995   -6327.0753   -5699.1442   -6327.0753            0    2362.6071    23.453852    21.577543    21.901246    11083.706    2613.3247    2064.4221    2410.0744   -772.64839    401.64307    866.53739   -5317.2418 
 7273000    239.67976   -6345.9381   -5729.3765   -6345.9381            0    1679.6897    23.481977    21.592026    22.014187     11161.71     1880.712    1735.1334    1423.2236   -186.39348    54.680609   -133.60939   -5455.9531 
 7274000     253.3969   -6296.2694   -5644.4213   -6296.2694            0    2668.3683    23.516936    21.684304     21.79073    11112.147    2776.6371    2134.4131    3094.0547   -985.82286    1220.2639    -1193.176   -5211.9875 
 7275000     252.3723   -6323.6973   -5674.4849   -6323.6973            0    3747.0969    23.434953    21.436699    21.975623     11039.85    3276.0054    5293.3388    2671.9466    124.72211    536.09756   -555.47537    -5071.184 
 7276000    254.70406   -6329.8709   -5674.6602   -6329.8709            0    2104.6974     23.19587    21.752858    21.929303     11065.01    3017.5984    691.06425    2605.4295    824.81001    439.14658   -683.00691   -5335.0213 
 7277000    247.33441   -6329.6398   -5693.3871   -6329.6398            0    2548.4184    23.634248    21.359066    21.903756    11057.136    2649.0585    3045.0763    1951.1203    -293.9185    89.592631    394.36291   -5282.4368 
 7278000    227.25989   -6321.3778   -5736.7656   -6321.3778            0    2696.8574    23.244278    21.658048    21.947584    11048.977     3614.524    1956.9413    2519.1068   -20.217002    -407.1024    656.69934   -5302.1994 
 7279000    233.56532   -6331.1137   -5730.2812   -6331.1137            0    2594.6795    23.472826    21.484612    21.937054    11062.956    3477.9704    2877.1103     1428.958   -206.28551   -544.20768    41.630692   -5311.6507 
 7280000    253.14255   -6316.5733   -5665.3795   -6316.5733            0    1636.9468    23.405914    21.628861    21.953967    11114.048    2250.5602    1360.7384    1299.5418   -1210.3681    408.03328    92.541832   -5400.0517 
 7281000    252.70771   -6329.8131   -5679.7379   -6329.8131            0    1359.8238    23.520002     21.67691    21.804755    11116.957    852.31007    1686.4671    1540.6942    759.26169     489.9943   -191.68669   -5459.2705 
 7282000    247.82214   -6334.3041   -5696.7967   -6334.3041            0    2937.2234    23.522837    21.460144    21.876646    11043.407    1736.2395    3795.4401    3279.9906    1065.3189    318.24581    54.927461   -5223.7371 
 7283000    242.44662   -6331.1586   -5707.4795   -6331.1586            0     3908.214    23.138447    21.687486    21.887315    10983.377    5010.7804    3358.2477    3355.6138    744.88585    29.949324    273.70927   -5081.4567 
 7284000     237.1249   -6334.8109   -5724.8216   -6334.8109            0    3353.4613    23.701232    21.334446    21.834409    11040.627    1992.1326     3997.081    4071.1704     -297.951    -17.03233    -393.0561   -5184.8599 
 7285000     234.1223    -6337.898   -5735.6327    -6337.898            0    2515.4587    23.347207    21.688985    21.820449    11049.379    3068.6778    1924.9703    2552.7281   -15.610039   -427.66396   -573.73802   -5330.2819 
 7286000    246.61813   -6361.6887   -5727.2786   -6361.6887            0     3188.481    23.447645    21.356542    22.001074    11017.271    2807.2104     5105.123    1653.1097    386.23626   -301.20045   -287.28246   -5214.9675 
 7287000    244.88527   -6327.2926   -5697.3402   -6327.2926            0    2830.8471    23.284724    21.664634    21.861453     11028.12    3579.9434    3396.2446    1516.3533    886.91492   -271.99969    468.04289   -5242.0443 
 7288000    250.87012   -6348.7624   -5703.4143   -6348.7624            0    2905.3887    23.635984    21.480436    21.724835    11029.943     1366.087    4038.0727    3312.0064   -309.31477    583.17266    91.144168   -5236.0523 
 7289000    238.59264   -6316.7379   -5702.9728   -6316.7379            0    2154.0347    23.493862    21.584296    21.896188    11103.523    734.97825    3888.7225    1838.4035    697.06889   -106.39012   -219.47603   -5354.1625 
 7290000    240.80709   -6337.5164   -5718.0548   -6337.5164            0    4377.1736    23.337262    21.559539    21.828759    10982.935    4847.9426    3901.7238    4381.8543    1065.7448   -1217.5692   -295.93615   -5016.9417 
 7291000    242.31781   -6334.9645   -5711.6167   -6334.9645            0     2444.082    23.791297    21.560729    21.569121    11064.047    1143.6364    2742.0418    3446.5677    152.07845   -1504.1187   -259.31874    -5317.245 
 7292000    238.51244   -6332.1578   -5718.5991   -6332.1578            0    3189.2743    23.339767    21.712054    21.765747    11029.885    4034.0212    2036.5524    3497.2494   -489.53205   -717.37532     527.7639   -5205.5738 
 7293000    243.72929   -6321.4185   -5694.4397   -6321.4185            0     2676.871    23.472286    21.429161     21.93564    11033.439    1288.1222    4966.9589    1775.5318    1233.4274   -297.56372    395.41198   -5263.7007 
 7294000    249.75129   -6344.2078   -5701.7378   -6344.2078            0    2619.3388    23.391486    21.570939    21.869881    11035.024     3591.594    1848.1552    2418.2672    523.53225   -1193.0863    638.37648   -5280.1958 
 7295000    230.57979    -6372.329   -5779.1765    -6372.329            0    1503.0212    23.466271    21.523356    21.938648    11080.617    1185.3321    1758.3059    1565.4257    856.12555    339.72647   -1161.6075   -5536.2892 
 7296000    241.21991   -6321.5978   -5701.0743   -6321.5978            0    3064.8038    23.544663    21.577987    21.818382    11084.751    3392.6245    2718.8265    3082.9604    534.58409   -369.40812   -142.72932    -5205.619 
 7297000     245.3659   -6362.8698    -5731.681   -6362.8698            0    3906.7332    23.404891    21.563173     21.78825    10996.175    3881.5351    3611.6146    4227.0498     451.3722    322.25855    151.07337   -5105.1663 
 7298000    243.80829   -6313.1103   -5685.9283   -6313.1103            0    3621.6024    23.348771    21.422706    22.081806    11045.184    4239.4042    5196.2529      1429.15   -962.85375   -72.531423   -811.02177   -5102.5509 
 7299000    253.56558   -6332.4432   -5680.1612   -6332.4432            0    3053.1882    23.334914     21.61087    21.846751     11017.05    3228.1084    2172.8174    3758.6389   -613.80437    208.53271   -235.17044   -5189.5982 
 7300000     257.1518   -6364.3962   -5702.8889   -6364.3962            0    2532.6717    23.617114    21.505986    21.730731    11037.241    1438.8571    2577.7832    3581.3746   -50.993659   -13.830569    355.50694   -5295.2127 
 7301000     251.6011   -6326.3553   -5679.1268   -6326.3553            0    1242.3842    23.433795     21.59512    21.997652    11132.035    1921.1733    440.26105    1365.7182   -266.80462    119.90157    598.51431   -5477.4266 
 7302000    234.09239   -6344.0608   -5741.8724   -6344.0608            0    1704.1986    23.366474    21.554764    22.020998     11091.07    859.25804    3075.2114    1178.1263    20.673146    1127.7918   -236.81631    -5466.215 
 7303000    249.59504   -6376.3213   -5734.2532   -6376.3213            0    4147.2531    23.480902    21.402304    21.781238    10946.061    4268.0885    4158.0379    4015.6328   -135.26236    229.39936     -1007.02   -5072.1979 
 7304000    251.94253   -6343.7345   -5695.6277   -6343.7345            0    4183.1166    23.404041    21.569288    21.736093    10972.565    3763.0369    5013.2411    3773.0718    866.24967    405.04059   -538.38253   -5026.2303 
 7305000    259.35598   -6361.9491   -5694.7716   -6361.9491            0    2254.8991     23.32457    21.548715    21.976523    11045.719    2806.9567    2267.4623    1690.2784    -536.3617    198.10268    217.11481   -5331.5288 
 7306000    245.96556   -6303.2307   -5670.4993   -6303.2307            0    2520.8433    23.354639    21.614556    21.903956    11057.121    3168.4053    2861.9648    1532.1598     -934.267   -822.44916   -758.09726   -5263.9963 
 7307000    245.93931   -6330.0544   -5697.3906   -6330.0544            0     2915.417    23.537248    21.649671    21.634086    11024.161    1525.2209    2831.2606    4389.7694   -1650.4311    110.47902    1576.6374   -5228.6612 
 7308000    240.43117   -6326.7548   -5708.2603   -6326.7548            0    3211.0291    23.323272    21.593611    21.907153     11033.18    3912.0851    3555.6316    2165.3706   -442.65481    230.81358   -716.28768   -5191.5812 
 7309000    248.30872   -6335.0039   -5696.2449   -6335.0039            0    2516.1324    23.462458    21.547833    21.911413    11077.647    1640.5775    3344.0362    2563.7835    1387.6413    435.86823   -219.54398   -5289.7483 
 7310000    233.91548   -6346.9617   -5745.2284   -6346.9617            0    819.00771    23.601301    21.602074    21.796929    11112.882    740.05319   -128.05606     1845.026    972.21407    431.83425     46.61695   -5612.4918 
 7311000    240.91863   -6335.0748   -5715.3263   -6335.0748            0    2559.9727    23.489904    21.692633    21.741729    11078.669    1807.1223    2871.8797    3000.9161    347.61933    222.12868   -587.28067   -5301.7089 
 7312000    244.13085   -6321.6676   -5693.6559   -6321.6676            0    1095.6004    23.372246    21.653775    22.001457    11134.879    1573.3271    1456.6978    256.77635    -645.0313   -1426.7406    178.63952   -5515.7405 
 7313000    251.03341    -6311.524   -5665.7558    -6311.524            0    936.55827    23.657882    21.470633    21.914977    11131.706   -406.62344    1801.4516    1414.8466   -1232.9702    1190.3066    694.71331   -5513.7107 
 7314000    237.53809   -6326.4462   -5715.3939   -6326.4462            0    2218.0024    23.302429    21.741183    21.806178    11047.498    1942.0042    1586.1374    3125.8657    120.12336     1204.357    12.168144   -5358.0373 
 7315000    227.65614    -6340.752   -5755.1204    -6340.752            0    2360.7855    23.752422    21.439137    21.719941    11060.477    1385.9684    2659.6012    3036.7867    1017.9968   -779.48842   -21.567005   -5374.3123 
 7316000    243.91451   -6304.3826   -5676.9274   -6304.3826            0    2363.9315    23.368242     21.65379    21.938404    11101.074    2405.5195    2645.0227    2041.2522    406.72919    499.58955   -1029.2285   -5294.2121 
 7317000    238.77587   -6361.0098   -5746.7734   -6361.0098            0    2569.7433    23.537524    21.569886    21.707702    11021.037     1105.453    3023.5737    3580.2033    803.02373    104.90516   -64.708948   -5333.7372 
 7318000    235.02217     -6341.23   -5736.6498     -6341.23            0     2348.014     23.50574    21.534914    21.858018    11064.399    1972.5956    2681.3169    2390.1293    1090.9108    583.87833    173.29659   -5357.7674 
 7319000    226.79303   -6340.6792    -5757.268   -6340.6792            0      2315.16    23.391227    21.635463    21.860391    11063.107    2708.7316    2903.7147    1333.0339   -1001.0743   -229.58124   -485.69735   -5383.7306 
 7320000    239.44807   -6331.8947   -5715.9291   -6331.8947            0    2767.3669    23.482134    21.441053    21.917923    11035.272    3099.9295    2693.0875    2509.0837     824.2031    -938.3973    549.44931   -5270.5543 
 7321000    237.26265   -6311.6928   -5701.3491   -6311.6928            0    2221.5983    23.430955    21.600708    21.971488    11120.324    2913.2528    2626.3337    1125.2084   -654.42721    886.43311    536.78351   -5341.0535 
 7322000    259.88431   -6312.9646    -5644.428   -6312.9646            0    2491.7116    23.656735    21.585148    21.651715    11056.104    2046.8116    1979.5521     3448.771   -1653.0525    993.05287    282.94584   -5242.6596 
 7323000    240.09775   -6353.0995   -5735.4627   -6353.0995            0    3529.7547    23.382661    21.496814    21.884026    11000.065    3804.7076     4288.434    2496.1225   -781.82088    66.962681   -1037.0251   -5169.2029 
 7324000    244.07534   -6340.6332   -5712.7642   -6340.6332            0    3960.4525    23.321056     21.54031    21.951457    11027.156     4737.932    5305.1128    1838.3129    253.66831    651.25963   -1059.4447   -5075.8452 
 7325000    239.50428   -6330.6733   -5714.5632   -6330.6733            0     2556.918    23.566289    21.492929    21.802137    11042.969    2864.0891    1820.6992    2985.9657    90.868498   -665.22654   -292.68389   -5302.7706 
 7326000    248.24283   -6350.7907   -5712.2012   -6350.7907            0    2432.6235    23.310095    21.602982    21.885694    11020.926    2481.9823    2144.7178    2671.1702   -19.734449   -126.13901    699.31484   -5321.2083 
 7327000    243.30863   -6354.9909   -5729.0943   -6354.9909            0    3077.4206    23.501944    21.425718    21.935883    11045.726    2381.4777     3144.385    3706.3991    247.05403   -511.74003    1500.4421   -5233.3508 
 7328000    245.98985   -6305.4698   -5672.6759   -6305.4698            0    3068.1011    23.362631    21.691612    21.837572    11066.695    3268.7095    3584.3234    2351.2703   -1131.8478    113.69921    154.82872   -5177.4955 
 7329000    236.47593   -6336.0561   -5727.7362   -6336.0561            0    4065.1175    23.471447    21.529132     21.78549    11008.641    4314.7951    3469.2354    4411.3221   -733.21262    782.99587    837.74929   -5075.0826 
 7330000    237.99405   -6289.5034   -5677.2782   -6289.5034            0    3073.2459    23.430651    21.531787    22.056624     11127.65     3279.643    3449.4873    2490.6074    -734.2195     440.1665   -813.30004   -5178.5354 
 7331000    241.33394        -6350   -5729.1831        -6350            0    2216.1008     23.52123     21.62508    21.710596    11043.061    1406.2259    2154.9684     3087.108    256.99963    146.56159    66.375378   -5372.2763 
 7332000    245.41726   -6356.8178   -5725.4968   -6356.8178            0    3392.1639    23.439288    21.430083    21.933783    11017.468    3950.3046    4590.1111    1636.0759    292.37574   -781.58559   -231.35362   -5180.4491 
 7333000    246.37581   -6341.2973   -5707.5106   -6341.2973            0    3224.1816    23.271431    21.439902    22.113519    11033.257    2832.7119    3498.1833    3341.6498    1350.7394    258.96725    1865.6031   -5188.7116 
 7334000     258.3727   -6327.9847   -5663.3367   -6327.9847            0    1921.9433    23.584794    21.696838    21.676999    11092.455    1477.2387    788.63286    3499.9584    154.48094    196.38991    769.16541   -5352.4199 
 7335000    236.83693    -6331.797   -5722.5485    -6331.797            0    4005.9934    23.461465    21.522807    21.791619    11003.822     4520.226    4093.7578    3403.9965    -1182.209    170.37617   -424.61026   -5079.6688 
 7336000    249.97565   -6365.8978   -5722.8507   -6365.8978            0    1990.6761    23.373841     21.46293      22.0786    11076.196    1433.2261    2874.8773     1663.925    749.26302   -909.68989    511.75556   -5401.2869 
 7337000    242.76124   -6369.1898   -5744.7014   -6369.1898            0    1653.7104     23.39331    21.672348    21.816383    11060.644     1825.917    1500.7735    1634.4407    337.32003    513.08026    340.67085   -5477.9444 
 7338000    242.56694   -6326.9875   -5702.9988   -6326.9875            0    2950.0101    23.591498    21.473388    21.844436    11066.159    2191.0598    3633.4746    3025.4959    817.17009   -333.86548    926.69446   -5226.9009 
 7339000    243.13498   -6384.0424   -5758.5925   -6384.0424            0    3060.6306    23.252614    21.552451    21.961385    11005.966    4341.9682    980.69703    3859.2266    555.11164    -152.1601   -409.51987   -5267.3285 
 7340000    236.00528   -6331.5576   -5724.4484   -6331.5576            0     3507.598     23.53253     21.48709    21.803965    11025.078    3068.2172     3984.378    3470.1987    564.51248   -923.81262    -1178.487   -5160.4637 
 7341000     248.3381   -6378.5795   -5739.7449   -6378.5795            0    3159.6407    23.565396    21.538462    21.704278    11016.275    2027.7724    4140.4218    3310.7279   -516.69485    -250.1403    54.469252   -5232.1136 
 7342000    242.68823   -6331.4257    -5707.125   -6331.4257            0      2447.11     23.43623    21.562467    21.829294     11031.28    2728.2129    2672.9899    1940.1273   -394.92788    147.07184     659.5526   -5313.4341 
 7343000    239.58362   -6327.4502   -5711.1359   -6327.4502            0    1940.5893    23.425614    21.536149    21.996467    11097.163    2467.4684    2039.9636    1314.3358    94.451641   -1204.8271   -132.10047   -5397.0695 
 7344000      241.692   -6323.4782   -5701.7403   -6323.4782            0    3206.5852    23.384473    21.572342    21.874317    11034.671    3207.5855    3479.3642     2932.806   -38.534252   -1319.1414   -30.484804   -5185.7066 
 7345000    228.50246   -6342.9356   -5755.1269   -6342.9356            0    2821.3362    23.448375    21.640139     21.75178     11037.42    2267.3368    1961.6943    4234.9774    345.48614    1164.4249   -627.04185    -5300.978 
 7346000     246.6696   -6314.9646    -5680.422   -6314.9646            0    3882.4735    23.606387    21.479071     21.78896    11047.945    3886.1969    3969.9358    3791.2877    240.46102     538.0777   -880.44675   -5054.8665 
 7347000    244.52405   -6345.0262    -5716.003   -6345.0262            0    4733.3175    23.237733    21.551789     21.90699    10971.343    5769.4723    4601.0556    3829.4246    562.27621   -645.57022   -825.88843   -4958.6448 
 7348000    228.03619   -6340.0064   -5753.3972   -6340.0064            0    1917.8884    23.483791    21.512939    21.986679    11107.788    1669.6201    2278.7374    1805.3078    1119.5336   -400.60203   -282.53138   -5442.7075 
 7349000    239.25325   -6327.1945   -5711.7301   -6327.1945            0    732.28692    23.649784    21.679922    21.693799    11122.963   -404.61089    1382.9034    1218.5682   -44.610883   -413.13349    -950.9134   -5592.9407 
 7350000    239.36603   -6351.4796    -5735.725   -6351.4796            0    3027.4741    23.272516    21.549479    22.030522     11048.54    3595.8048    3539.6998    1946.9178   -598.59666   -529.01761    -308.7681   -5247.9032 
 7351000    236.46336   -6350.0738   -5741.7862   -6350.0738            0     3175.612    23.475358    21.415579     21.90902    11014.505    2308.3763    3912.4539    3306.0059    308.19495    531.02871    396.35642   -5231.6709 
 7352000    244.64363   -6343.5344   -5714.2035   -6343.5344            0    1593.3648    23.535226    21.620624    21.867395    11127.142    2320.5525    679.61928    1779.9226    300.29307   -199.34829     107.8709   -5455.6355 
 7353000    244.11306   -6312.7805   -5684.8145   -6312.7805            0    2851.3196    23.473736    21.454267    21.990018    11074.433    2870.6694    2978.3583    2704.9311   -167.47855   -82.128692    876.87074      -5224.3 
 7354000    242.51648   -6330.5879    -5706.729   -6330.5879            0    3906.8288    23.221492    21.545191    22.050744    11032.241    6027.5827     3473.938    2218.9657   -242.11671   -519.70643   -646.22296    -5078.144 
 7355000    244.40234   -6326.9239   -5698.2137   -6326.9239            0    2799.9966    23.492746    21.598326    21.826079     11074.64    2909.7968    1354.3644    4135.8287   -1142.8571   -306.47914    669.37136   -5245.9799 
 7356000    239.80273   -6344.2229    -5727.345   -6344.2229            0    4423.9561    23.496903    21.620403    21.572144    10958.919    3808.9774      4007.74    5455.1509    1316.9362   -485.38379    204.82856    -5020.288 
 7357000    234.32897   -6326.6373   -5723.8403   -6326.6373            0    3621.2234    23.398264    21.494792    21.933342    11031.173     3559.307    4385.8798    2918.4834   -664.31945    559.49625    436.01535   -5141.2639 
 7358000     248.4681   -6353.1281   -5713.9591   -6353.1281            0    2690.2652    23.385261     21.57517    21.912976    11055.994    3063.2769     2721.788    2285.7307   -210.94289    282.25731    765.28362   -5280.1798 
 7359000    228.26441   -6319.8135   -5732.6172   -6319.8135            0    1824.7108    23.616858    21.557375    21.795601    11096.521    843.79459    2472.3839    2157.9538   -93.820487   -236.64962    25.643429   -5437.3218 
 7360000    239.88508   -6345.2683   -5728.1785   -6345.2683            0    3625.2605    23.530563    21.581108    21.645267    10991.804    2985.5607    2649.1255    5241.0952    1771.0526   -418.46516   -535.25281   -5147.0341 
 7361000    239.94894    -6324.259    -5707.005    -6324.259            0    2482.4611    23.471657    21.496009    21.932003    11065.725    2422.7606    2574.0835    2450.5391     1097.905   -671.75758    191.48467   -5306.3798 
 7362000    243.55275   -6332.4872   -5705.9626   -6332.4872            0    2553.3515    23.213733    21.645687    21.987366     11048.15    3040.1461    2703.9264     1915.982    1362.9239   -22.417839     1211.748   -5294.5515 
 7363000    251.02842   -6353.7037   -5707.9484   -6353.7037            0    2547.3139    23.568023    21.409556    21.904216    11052.449    2570.2326    3230.6092    1841.0999    354.41197    -1063.319    287.06156   -5297.3503 
 7364000    246.48261   -6329.4886   -5695.4272   -6329.4886            0    3937.5234    23.401276    21.618022    21.728128    10992.027    2878.9992    4382.3259    4551.2451   -293.99479    1197.5212    303.36318   -5064.2128 
 7365000    248.70937   -6333.1919   -5693.4022   -6333.1919            0    1444.6941    23.431054    21.549175     22.02284     11119.77    1737.0253    1923.2881     673.7688    -1680.125   -273.91479   -1199.3139   -5459.1156 
 7366000    231.63283   -6348.4157   -5752.5544   -6348.4157            0    1897.3134    23.430107    21.625693    21.814307    11053.141     1665.385    1622.5041    2404.0511   -397.44417   -209.12793    -204.1765   -5446.7099 
 7367000    229.71005   -6367.8112   -5776.8961   -6367.8112            0    2006.1988    23.478251    21.546265    21.792301    11024.041    2307.6818     1963.187    1747.7276   -757.64914    303.92698    959.60875   -5454.3508 
 7368000    242.58831   -6364.9793   -5740.9357   -6364.9793            0    3587.2769    23.255401    21.558712    21.936636    10998.074    4888.3837    3298.1917    2575.2554   -1099.2706    427.96947   -654.83917   -5165.5521 
 7369000    241.95884   -6342.9243   -5720.4999   -6342.9243            0    3619.3391    23.434883    21.498385    21.920737    11043.933    3695.3171    3410.3308    3752.3693    7.2998503    270.91071   -329.07032   -5137.5531 
 7370000     239.5613    -6335.639   -5719.3822    -6335.639            0    2275.1105    23.575514    21.535987    21.807518    11072.156    1412.3405     2563.279     2849.712    903.85099     215.6963    782.42632   -5352.0063 
 7371000    239.30669   -6341.1957   -5725.5939   -6341.1957            0    2000.1302    23.353931    21.566708    22.071519    11116.705    3717.5074    1175.0588    1107.8243   -313.12595    527.51035    1206.0849   -5401.3213 
 7372000    254.79758   -6335.6393   -5680.1881   -6335.6393            0    1660.9049    23.510768    21.537098    21.892878     11085.54    1051.8587     1364.365     2566.491    605.75703    87.820654    1054.0774   -5411.6675 
 7373000    243.99773   -6355.9552   -5728.2859   -6355.9552            0    3839.6086    23.505973    21.447473    21.785959    10983.255    4098.6454    3868.8905    3551.2899   -1155.9913    510.77614    801.46355   -5113.2593 
 7374000    245.03979   -6333.7544   -5703.4045   -6333.7544            0    3324.2238     23.27219    21.574252    21.943423    11017.356    3754.8854    3035.5983    3182.1878    521.47247   -534.92685    1445.1981   -5169.2787 
 7375000    249.24771   -6315.4639   -5674.2893   -6315.4639            0     3622.566    23.513251    21.522306    21.731042    10997.197    4028.3914    3750.0575    3089.2492   -37.881692   -638.65812   -597.71289   -5093.2919 
 7376000    243.05568   -6338.2166   -5712.9707   -6338.2166            0    2412.6097    23.490452    21.683975    21.728614    11067.825    2548.6862    1437.0592    3252.0838    423.34985    92.821798    111.52144   -5323.5444 
 7377000    244.49259   -6346.2955   -5717.3532   -6346.2955            0    2554.1341    23.461436     21.53214    21.879208    11052.827    1706.1436    3236.3579    2719.9009    -331.0311   -349.42564     50.87701   -5305.6417 
 7378000    238.07658   -6332.4348   -5719.9973   -6332.4348            0    2790.1748    23.307361    21.552697     21.95523    11028.913    2362.8046    3584.0514    2423.6686   -278.85053   -442.08348    318.73522   -5271.2106 
 7379000    250.11516   -6319.1487   -5675.7427   -6319.1487            0    1938.5502    23.526713    21.520188    21.847079    11061.161    2458.3717    691.21347    2666.0655    1302.0204   -111.05327    1151.3348   -5363.0242 
 7380000    236.33802   -6369.6915   -5761.7264   -6369.6915            0    2452.5963    23.518828    21.538572    21.824451    11055.437     1224.463    2354.6162    3778.7096   -3.0914821    452.46373   -1241.0334   -5366.2889 
 7381000    248.59464   -6388.4534   -5748.9588   -6388.4534            0    3139.6807     23.42331    21.609267    21.779174    11023.759    3563.0445    2375.4675    3480.5301   -179.61572   -128.32869    141.60156   -5244.1917 
 7382000     247.8903   -6318.6394   -5680.9567   -6318.6394            0    1573.2999    23.556126    21.640422    21.848546    11137.613    624.31369    2996.7281     1098.858    252.15381    432.62456    390.53157   -5425.4046 
 7383000    243.72614   -6325.4485   -5698.4779   -6325.4485            0    2928.5852    23.311347     21.51717    21.962425    11016.226    4002.7557    1820.4685    2962.5314    490.65997   -324.32399    685.77847   -5227.9704 
 7384000    232.75095    -6341.785   -5743.0474    -6341.785            0    4361.4928    23.433791    21.466768    21.851063    10992.128    4084.1564    4342.1816    4658.1403    374.58367   -562.10438   -642.92485   -5043.8612 
 7385000    234.23698   -6344.5818   -5742.0214   -6344.5818            0    3855.4338    23.516841    21.407081    21.829715    10989.666    4159.5198    3978.0578    3428.7237   -1862.0902   -1329.5209   -1125.1021   -5124.0994 
 7386000    252.92989   -6344.1715   -5693.5247   -6344.1715            0    1830.9984    23.448191    21.677861    21.843934    11103.416    1872.8868     1081.933    2538.1753    91.059271   -1064.4534   -551.61303   -5397.0276 
 7387000    248.57104    -6358.955   -5719.5211    -6358.955            0    3143.0606    23.515732    21.527094    21.704735    10987.487    2423.2111    3296.8539    3709.1169   -1071.3299    387.54598    279.95654   -5215.8732 
 7388000    231.88607    -6336.421   -5739.9082    -6336.421            0    2390.3535    23.406349    21.536643    21.947231    11063.471    3030.6848    2991.3525    1149.0233   -763.27722   -146.02008    16.904488   -5354.2261 
 7389000     239.2778   -6350.7624   -5735.2348   -6350.7624            0    2780.5556    23.404549    21.414496    21.956975    11004.762    2418.4777    4636.1314    1287.0577    1088.1014   -559.40364    41.068335   -5288.9747 
 7390000    243.26994    -6338.369   -5712.5719    -6338.369            0    2469.5729    23.526279    21.569563    21.737941    11030.952     2735.181    2291.9016    2381.6362   -113.21928    599.54121    -1036.374    -5315.279 
 7391000    237.03031    -6343.664    -5733.918    -6343.664            0    1908.8104    23.544023     21.63496    21.837786      11123.6    863.79422    2084.4451     2778.192   -749.34656    -518.2464     127.6018   -5424.2587 
 7392000    237.56521   -6325.5185   -5714.3964   -6325.5185            0    4291.4462     23.37559    21.497306     21.89835    11004.188    4755.6628    4532.0613    3586.6144   -522.73605   -39.300235   -334.86804   -5025.6846 
 7393000    238.32346   -6316.0539   -5702.9813   -6316.0539            0    3105.9032     23.30932    21.690401    21.841361    11042.741    2548.8496    2890.6712     3878.189    365.85495   -769.46522    416.12658   -5202.7847 
 7394000    229.67062   -6310.1173   -5719.3036   -6310.1173            0    3324.0523    23.650809    21.463238    21.728587    11029.929    3720.4055    1815.1058    4436.6455   -649.32984   -382.30255    952.16614   -5184.5958 
 7395000    257.87655   -6336.1577   -5672.7859   -6336.1577            0    2983.7496    23.425116    21.598686    21.835221    11047.568    3266.8037     3852.071    1832.3742   0.87375753   -1015.8248   -210.76932   -5192.0518 
 7396000    248.32509   -6365.8518   -5727.0507   -6365.8518            0     2772.959    23.316414    21.502263    22.088596    11074.243    3207.3017    2637.1432    2474.4321   -760.28121    182.47851   -853.82236   -5279.1999 
 7397000    235.37803   -6346.7996    -5741.304   -6346.7996            0    2205.3134    23.467013    21.522747    21.940665    11081.672    1005.0416    3723.8354    1887.0632   -101.62154    922.26876    97.685484   -5384.8926 
 7398000    235.64252   -6349.2494   -5743.0733   -6349.2494            0    3232.9637    23.491351    21.652609     21.66606     11020.42    3573.7329    2101.8369    4023.3211   -1097.3886   -286.58975     113.2252   -5223.4665 
 7399000    248.27791   -6312.3299   -5673.6501   -6312.3299            0    2535.3774    23.434026    21.481215    21.958161    11053.549    4133.0216     2073.274    1399.8367    149.30143   -991.81089   -1459.9052   -5264.9354 
 7400000    237.47673   -6340.0636   -5729.1691   -6340.0636            0     1629.113    23.292952    21.604089    22.158315    11150.574    1984.1597    2217.4166    685.76256   -292.00036    254.16511   -384.17386   -5464.2433 
 7401000    245.94583   -6318.7577    -5686.077   -6318.7577            0    2287.7074       23.602    21.484277    21.861804    11085.507    1846.3489     2399.558    2617.2154   -296.89426     483.3058    460.83614   -5316.2217 
 7402000     233.1542   -6342.7417   -5742.9667   -6342.7417            0    1865.5845    23.475252    21.660525    21.715754    11042.163    1341.5207     952.9564    3302.2764    815.53583    -318.2578    171.78412   -5442.5355 
 7403000    248.64224   -6318.0464   -5678.4293   -6318.0464            0    3149.7188    23.458576     21.33349    22.047573    11033.781    3231.6417    4132.3063    2085.2085   -1373.0341    188.32595    334.05115    -5171.588 
 7404000    239.05255   -6329.3088   -5714.3606   -6329.3088            0     3904.644    23.125274    21.633323     21.96672    10989.434    6230.0455    3484.3479    1999.5385   -1017.1123    801.28158   -11.780237   -5088.5648 
 7405000    238.61665   -6353.4394   -5739.6126   -6353.4394            0    2003.5873    23.613225    21.611022    21.668156    11057.389    1175.1294    2565.1997    2270.4327    56.744145    1170.0253   -662.59587   -5416.5128 
 7406000    230.96249   -6359.2976   -5765.1607   -6359.2976            0    2533.5074     23.44279    21.564466    21.930322    11086.463    2113.4373    3977.5606    1509.5241   -342.14891     170.8334   -579.49109   -5355.5313 
 7407000    229.99579   -6331.7715   -5740.1213   -6331.7715            0    2798.9568    23.394231    21.532129    21.969688    11066.739    3524.4132    3820.9914    1051.4658   -16.702108    -200.1591   -202.18092    -5288.378 
 7408000    244.06353   -6368.2752   -5740.4367   -6368.2752            0    3736.9795    23.444681    21.435337    21.813156    10962.085    2174.6355    4861.8092    4174.4936   -190.45878    1255.5813    492.99213   -5143.0029 
 7409000    251.69034    -6355.672   -5708.2139    -6355.672            0     1976.985     23.45774    21.480233    21.909776    11039.848    2322.2743    2502.0449    1106.6358    368.92684    719.60071    406.95254   -5389.9097 
 7410000    240.16207    -6342.053   -5724.2507    -6342.053            0    2790.3128    23.322894    21.616553    21.983447    11083.188    2577.9397    3069.3348    2723.6638   -275.61496    1403.3169   -325.04214   -5273.2331 
 7411000     242.2673   -6372.0364   -5748.8185   -6372.0364            0    1729.6484    23.664087    21.460181     21.79705    11069.318    261.42275    3016.2698    1911.2527    892.13495    445.84185   -931.67739   -5469.5933 
 7412000    238.03705   -6320.3773   -5708.0415   -6320.3773            0    1760.4602    23.479945    21.671942    21.886783    11137.221    1741.6344    1115.0713    2424.6751    1175.5806   -878.75326   -346.19101   -5422.0989 
 7413000    238.45822   -6327.9357   -5714.5164   -6327.9357            0    4252.1142    23.386437    21.508472    21.851691    10991.543    4414.6998    4010.5908     4331.052    110.21535   -742.78174    949.09624   -5032.9009 
 7414000    236.76335   -6332.0082    -5722.949   -6332.0082            0    2663.4214    23.567139    21.372743    21.974992    11068.681    1340.1393    3821.3143    2828.8104    1074.2238   -378.31249    456.47653   -5293.0052 
 7415000    242.38248   -6338.9849   -5715.4707   -6338.9849            0    1933.2342    23.348329    21.755021    21.762237    11053.984    1233.3831    1174.9961    3391.3235    744.69617   -525.91666    1835.8612   -5403.8121 
 7416000    241.92613   -6307.1997   -5684.8595   -6307.1997            0    2902.0913    23.645727    21.386317     21.85157     11050.23    1814.4121    3443.8979    3447.9639    -318.8292   -9.6504436    102.04192   -5217.1693 
 7417000     244.6852   -6356.6448    -5727.207   -6356.6448            0    2987.3608    23.347431    21.631611    21.849905    11035.131    4006.9838    3258.8384    1696.2601    -702.5805   -1072.6567   -1212.4615   -5246.4329 
 7418000    245.44202    -6316.998   -5685.6134    -6316.998            0     2587.108    23.564417    21.594717    21.756167    11070.994    2156.1992    2533.2173    3071.9076   -10.717851   -1163.0206    269.28742   -5267.9013 
 7419000    259.37281   -6331.5851   -5664.3644   -6331.5851            0     2140.246     23.50997    21.514797    21.911305    11083.006    2129.1842     2015.126    2276.4278    708.50315   -1034.7727   -1101.2982   -5318.4273 
 7420000     233.2071   -6317.5685   -5717.6575   -6317.5685            0    4219.9832    23.275987    21.531944    21.892107    10971.826    4026.5036     4783.186      3850.26    394.62871    144.17202    506.91633   -5042.4061 
 7421000    239.05444   -6324.6406   -5709.6876   -6324.6406            0     2817.611    23.523222    21.471122    21.870214    11045.989    2808.3857    3244.3711    2400.0762     623.2078   -1381.8568   -298.39863   -5255.7862 
 7422000    246.78219   -6341.4107   -5706.5786   -6341.4107            0    2780.4744    23.300641    21.712283    21.872334    11065.435    3476.1959     2582.938    2282.2893    214.25111   -448.77353   -522.89488   -5257.8712 
 7423000      241.951   -6346.1106   -5723.7064   -6346.1106            0    3575.4108    23.508343    21.534193    21.695661    10983.064     2102.233    4554.6777    4069.3217    690.12861   -946.93202   -805.32621   -5151.0088 
 7424000    241.46123   -6354.9004   -5733.7561   -6354.9004            0    2191.5244    23.477438    21.526255    21.906087    11070.927    2342.5825    1787.9549    2444.0359     36.69807    843.17597    884.57582   -5379.9167 
 7425000    239.52191   -6326.8671   -5710.7116   -6326.8671            0    2335.3861    23.385945    21.538097    21.976006    11069.067    2512.1216    3078.2719    1415.7648    -465.7355    923.44398   -179.92838   -5333.7079 
 7426000    237.85843    -6351.842   -5739.9656    -6351.842            0    3751.0671    23.481305    21.385586    21.878868    10986.724    3704.6355    3899.1127     3649.453    546.29787    306.08514    -323.1505   -5138.9318 
 7427000    251.07363   -6322.2228   -5676.3512   -6322.2228            0    2261.9079    23.345131    21.824156    21.793746    11103.647    1699.5521    1018.2499    4067.9217    -371.4157    488.65776    329.12017   -5310.0684 
 7428000    250.75445   -6351.6206     -5706.57   -6351.6206            0    2273.3804    23.443189    21.420558    22.066529    11081.065    3000.3085    1892.3095    1927.5233   -926.30012    1479.9319    626.44792   -5339.1781 
 7429000    247.65535   -6353.6326   -5716.5543   -6353.6326            0    2823.0174    23.290088    21.641653    21.905131    11040.974    2947.7058    2115.0521    3406.2944   -228.78015   -570.56918    773.29227   -5261.9884 
 7430000     237.9908   -6316.8323   -5704.6155   -6316.8323            0    2558.3034    23.547946    21.453221    21.873786    11050.183    1789.4871    3179.1485    2706.2746   -1035.0995     625.4865    1170.3998   -5292.3306 
 7431000    243.19432   -6348.1997   -5722.5971   -6348.1997            0    2728.5024    23.305765    21.568592    22.014156    11065.912    3426.8592    2976.7198    1781.9283    508.36401   -390.11976   -280.13943   -5282.2578 
 7432000    250.71682   -6333.0755   -5688.1218   -6333.0755            0    3556.6034    23.417269    21.614089    21.749958    11008.588     3476.505    4186.0534    3007.2518    664.47708    -47.26268   -842.94596   -5117.1128 
 7433000    237.16797     -6343.42   -5733.3199     -6343.42            0    2445.4303    23.516771    21.423159    21.937331    11052.105    1876.8439    2850.9138    2608.5333    999.80804    1117.2372    454.46216   -5339.1566 
 7434000    243.24969   -6362.2597   -5736.5147   -6362.2597            0    2912.4712    23.343454    21.673198    21.855862    11057.477     3325.909    1622.3581    3789.1466    686.61802   -562.81566    1173.3433   -5266.8439 
 7435000    241.14447    -6312.948   -5692.6185    -6312.948            0    2618.7374    23.564313    21.486887    21.882346    11079.551    2839.1254    1646.6829    3370.4038   -644.79206    229.29877    564.60122   -5269.4728 
 7436000      245.881   -6327.0603   -5694.5464   -6327.0603            0    2849.9478    23.416962    21.680714    21.709627      11021.9    2910.9645    1060.0024    4578.8766   -1271.0939   -361.83058    829.69304   -5236.4369 
 7437000    230.11887    -6336.026   -5744.0592    -6336.026            0    4144.2053    23.407756    21.601079    21.777545    11011.441    5209.3228    3522.2568    3701.0362   -814.88538   -1766.9751   -1011.1152   -5078.5389 
 7438000    251.06955   -6328.5764   -5682.7153   -6328.5764            0    4222.5369    23.403223    21.489936    21.855386    10991.812    4872.7881    5329.6624    2465.1601   -804.06418   -1298.0397   -1433.3613   -5005.8245 
 7439000    228.98545   -6348.5587   -5759.5076   -6348.5587            0     2988.397    23.295334    21.593506    21.944515    11038.704    3252.3339    3112.7763     2600.081    1637.0104   -141.17389   -96.023947    -5278.411 
 7440000    252.37502   -6305.3759   -5656.1565   -6305.3759            0    1594.7833     23.65724    21.473696    21.948827    11150.188    1680.3968    1125.0263    1978.9266    1059.7245    751.19703    344.46284   -5396.8223 
 7441000    236.89455      -6299.9   -5690.5033      -6299.9            0    3237.4583    23.326324    21.608058    22.007325    11092.496    4818.1459    2641.6988    2252.5301    899.16741   -330.58008    649.69124   -5166.7709 
 7442000    242.63257    -6323.198   -5699.0405    -6323.198            0    3385.7542    23.597843    21.561552     21.66769    11024.653    2873.9232    3044.5133    4238.8262   -490.80526   -705.22619    -25.35099   -5154.6679 
 7443000    244.06546   -6351.5928   -5723.7493   -6351.5928            0     3678.302    23.413094     21.65432    21.689511    10996.466    4153.0063    3210.4978    3671.4019   -372.40571   -182.64616    -716.9447    -5133.852 
 7444000    242.03047   -6327.9639   -5705.3553   -6327.9639            0    2610.1613    23.398416    21.484611    22.073103    11096.278    3605.1619    3901.1618    324.16012   -596.14539   -356.28117    -187.4231   -5282.9585 
 7445000    255.82113   -6353.4986   -5695.4143   -6353.4986            0    3164.1074    23.491715     21.57284    21.752776    11023.937     1376.993    4149.0719    3966.2572   -461.33655    504.41574    429.30972   -5186.7119 
 7446000    251.93575   -6367.2869   -5719.1975   -6367.2869            0    3289.9816    23.399833    21.567554    21.786559    10995.179    2261.6826    3903.5555    3704.7066    117.25445   -115.09609    -412.3653   -5191.6378 
 7447000    241.01576   -6327.5938   -5707.5955   -6327.5938            0    1461.2362    23.511046    21.571964    21.985283    11150.483    861.82301    1785.4181    1736.4674    302.68303   -1178.8317   -46.020073   -5469.9716 
 7448000    244.43542   -6320.1626   -5691.3674   -6320.1626            0    2865.5316    23.309151    21.616448    21.959754    11064.664    2614.4924    2410.0123    3572.0901    87.345075    164.72206     1148.855   -5228.9657 
 7449000    254.23557   -6340.0286    -5686.023   -6340.0286            0    2707.4329    23.561767    21.450867    21.857643    11047.297     2024.253    4036.8728    2061.1728    126.17201    428.48537    33.970748   -5249.8191 
 7450000    249.32252   -6367.2043   -5725.8373   -6367.2043            0    3305.9559    23.421598    21.516583    21.835459    11004.039      2363.97      4564.88    2989.0176    72.394526    1058.8846   -206.11379   -5195.2888 
 7451000    252.02299   -6347.6609   -5699.3471   -6347.6609            0    2885.2369    23.345207     21.67459    21.831883    11046.885    3925.1683    1827.4951    2903.0473   -1961.5262   -898.56179    843.93964   -5234.5139 
 7452000    244.46849   -6337.5979   -5708.7176   -6337.5979            0    3641.2079    23.586331    21.449438    21.746117    11001.655    2506.0815    4026.3691     4391.173    220.93867   -531.52109     844.7127   -5124.4936 
 7453000    238.07415   -6383.3802   -5770.9489   -6383.3802            0    1953.1728    23.190324    21.711007    21.944292    11048.628    2631.0883     2132.032    1096.3981   -658.45749    381.06756    84.582999   -5456.2285 
 7454000    242.43599   -6353.6477   -5729.9959   -6353.6477            0    3369.5244    23.492346     21.50922    21.823526    11027.472    3106.7645     4243.055    2758.7538   -398.03992     1714.797   -686.14231   -5188.0943 
 7455000    243.35744    -6357.004   -5730.9818    -6357.004            0    3700.5306    23.449413    21.542467    21.827254    11026.216    4642.7518     3059.753    3399.0871   -439.81119    564.68984   -410.69485    -5135.914 
 7456000    236.47695   -6359.7748   -5751.4522   -6359.7748            0    3205.0967    23.271408    21.542482     22.01432    11036.304    3997.3633    3258.0375    2359.8894    158.46971    1106.6977   -664.86321   -5235.5817 
 7457000    240.39134   -6355.0363   -5736.6442   -6355.0363            0     3475.646    23.383993    21.486631    21.843692    10975.215    2679.0899     5179.326    2568.5221   -571.56161    590.60285   -64.374355   -5180.3245 
 7458000    236.51533   -6319.7681   -5711.3469   -6319.7681            0    1672.8455    23.455281    21.661148    21.817566    11084.814    2568.8255    1014.2064    1435.5047   -1019.7566    347.67137   -239.16279   -5440.9136 
 7459000    240.34023   -6316.6777   -5698.4171   -6316.6777            0    2993.3169    23.444159    21.482882    21.998392    11079.448    3295.2226    3285.9708    2398.7573   -540.70943    436.20253   -451.78107   -5214.7498 
 7460000    238.69671   -6338.5909   -5724.5582   -6338.5909            0    2629.1404    23.396678    21.565412    21.924639    11062.274    3347.9726    2539.4994    1999.9492    -1972.199    754.87586   -623.34985   -5300.3939 
 7461000    248.21877   -6342.6774   -5704.1497   -6342.6774            0     1828.556    23.495983    21.617624    21.790595    11068.039    1194.0285     1679.447    2612.1924    123.04621    1204.2662    873.94786   -5408.9916 
 7462000    245.14682    -6366.202   -5735.5767    -6366.202            0    4002.4593    23.405869    21.489067    21.865023    10997.457    4806.5153    2596.4065    4604.4562   -6.3441708    242.13976    150.67964   -5093.6358 
 7463000    241.54359   -6339.2831   -5717.9269   -6339.2831            0    3776.7606    23.408025    21.458531    21.949627    11025.338    4912.1886    4434.3988    1983.6944    685.45652    -669.7543   -210.17124   -5110.6493 
 7464000     240.1193   -6324.1335   -5706.4412   -6324.1335            0    2358.5688     23.45798    21.628654    21.796848    11058.948      3845.37    644.26451    2586.0719   -1040.5047   -844.18951    499.69484   -5326.0432 
 7465000     233.6482   -6355.3515   -5754.3058   -6355.3515            0    1959.6073    23.475401    21.598386    21.850066    11078.655    2791.6948    1820.4335    1266.6937    4.4705374   -1706.6136    827.10235   -5437.6904 
 7466000    239.78351   -6343.1266   -5726.2981   -6343.1266            0    2958.8435    23.451682    21.506052    21.878497    11034.488    1856.6173    3261.4257    3758.4874     400.4857    204.21994    626.81153   -5250.1413 
 7467000    244.26721   -6347.7707   -5719.4081   -6347.7707            0    3247.7484     23.32782    21.601826    21.885896    11028.817    4061.4645    3023.0323    2658.7486     607.9719    -30.49701   -679.19526   -5197.0273 
 7468000    237.83721   -6299.7099   -5687.8881   -6299.7099            0    3376.4876    23.579175    21.504312    21.749747    11028.295    2291.2427    4011.6423    3826.5779    1975.8638   -350.18703    -34.05175   -5144.8261 
 7469000    232.48735   -6322.2122   -5724.1527   -6322.2122            0     2561.369    23.418077    21.684179     21.79116     11065.59    2095.9284    2661.5342    2926.6443     671.4937    145.92014   -203.95259   -5310.7982 
 7470000    241.32178   -6380.9041   -5760.1185   -6380.9041            0    2046.5981    23.514824    21.484309    21.878202    11052.862     2124.176    2360.7795    1654.8388   -760.73608   -621.30797    224.42612   -5430.2178 
 7471000    239.71129   -6347.6403   -5730.9976   -6347.6403            0    3130.9687    23.329415    21.581636    21.877118    11014.843    3457.9123     2033.919    3901.0747    797.90059   -759.59507    658.67599   -5228.0382 
 7472000    234.41864   -6335.0676   -5732.0399   -6335.0676            0    2073.1824    23.448605    21.622958    21.802157    11054.308    3555.4952    1097.5356    1566.5164    553.45216   -1381.6267    119.76884   -5397.8102 
 7473000    236.78042   -6346.6071   -5737.5039   -6346.6071            0    1898.8961    23.443445    21.464904    22.057793    11099.731    2220.3598    2017.1668    1459.1616    270.80514   -850.40592    1058.0522    -5430.114 
 7474000     251.3601   -6333.4685     -5686.86   -6333.4685            0    3692.7547    23.337055    21.624855    21.792816    10997.972    3614.9799    4189.1589    3274.1254    1235.2887   -333.46026   -1183.0834   -5094.5638 
 7475000    238.01875   -6343.4091   -5731.1204   -6343.4091            0     1801.793    23.716287    21.451159     21.80389    11092.551    1653.6446    2201.3515     1550.383   -158.47296    226.07605   -988.68571   -5439.6381 
 7476000    240.92303   -6343.1755   -5723.4157   -6343.1755            0    2184.8374     23.23026    21.639533    22.073157    11095.999    3268.4741    2057.8578    1228.1803   -222.86841    -112.6916    377.23718   -5369.8571 
 7477000    252.73861   -6311.5799   -5661.4252   -6311.5799            0    2943.9925    23.509144     21.43738    21.884611    11029.284    3412.6626    2332.0782    3087.2368   -1672.9237   -336.56339    1016.7897   -5187.8816 
 7478000     256.5222   -6329.4738   -5669.5861   -6329.4738            0    3376.6162    23.575951    21.566892    21.659683    11013.082     2953.151    3519.4857    3657.2119   -1170.2405    161.67298     202.7631   -5127.2525 
 7479000    242.60983   -6325.4097   -5701.3107   -6325.4097            0     3080.814    23.253987     21.62594    21.979453    11053.233    3372.3405    3104.4072    2765.6942    -445.9674     571.3065    141.71104   -5204.6833 
 7480000    255.45886    -6341.885   -5684.7326    -6341.885            0    2456.8123     23.57641    21.523769    21.828998    11077.195    1878.8635    2419.6561    3071.9172   -196.70512   -843.83932    -387.9125   -5287.8357 
 7481000    247.21409   -6314.9345   -5678.9913   -6314.9345            0    4520.4659    23.260744    21.603208    21.868594    10989.115    5277.4083    4944.5738    3339.4156    1600.2144   -531.27693   -3.3507678    -4954.519 
 7482000    245.30529   -6326.6006   -5695.5677   -6326.6006            0    3643.5234    23.518503    21.313096    21.909989    10982.428    3410.3236    4281.7112    3238.5354    10.172862    85.380319    262.63452   -5111.9939 
 7483000    243.93218   -6355.8815   -5728.3809   -6355.8815            0    3318.2722    23.335238     21.56835    21.858718    11001.549    4291.5114    4031.3052    1631.9998    628.52719    -177.9747   -299.04803   -5195.9763 
 7484000    241.84104   -6332.8525   -5710.7312   -6332.8525            0    2477.3393    23.471532    21.610198    21.835979    11075.743    2373.6724    1718.1261    3340.2193   -295.41763    352.65063    808.02077   -5310.5707 
 7485000    241.15532    -6346.187   -5725.8296    -6346.187            0    3736.4561    23.541586    21.547676    21.741279    11028.622    3990.6756    2632.7134    4585.9792   -1100.4001   -37.335093   -321.52035   -5124.8538 
 7486000    235.50109   -6321.3064   -5715.4942   -6321.3064            0    3417.7539    23.329507    21.625754    21.925334     11061.73    4877.1374      2896.17    2479.9543    487.10071   -1565.2776   -448.86614   -5164.1285 
 7487000    229.93896   -6320.3971   -5728.8932   -6320.3971            0    4032.4646    23.480868    21.475064    21.865186    11025.589     2635.149    5483.6453    3978.5996    982.10715   -833.54181    368.48097   -5080.4854 
 7488000     249.4322   -6324.0122   -5682.3631   -6324.0122            0    3812.6445    23.338894    21.669625    21.781643    11015.959    4189.2551    3131.5138    4117.1647    -610.8525    383.74612    574.87966   -5069.8371 
 7489000    233.33882   -6321.2571   -5721.0072   -6321.2571            0    2596.7944    23.383209    21.610641     21.93221    11082.918    3658.2329     2076.196    2055.9542    334.08064    -615.3401   -1571.9119   -5301.2796 
 7490000    243.17037   -6335.2048   -5709.6638   -6335.2048            0    1610.9985    23.623509    21.507419    21.862803    11108.069    1493.7907    1705.1627    1634.0421    725.37438     -143.216   -387.69019   -5448.6824 
 7491000    247.04042   -6362.0026   -5726.5062   -6362.0026            0    3099.8942    23.239491    21.649578    21.873234    11004.975    3573.6726    2427.7853    3298.2249    56.946697   -273.34923    590.18367   -5228.9847 
 7492000    242.28516   -6337.8857   -5714.6218   -6337.8857            0    3624.6119    23.712488    21.196432    21.853433    10983.975    1092.3387    5895.6723    3885.8246    908.25002    671.78797    585.92898   -5133.9952 
 7493000    248.63399   -6337.1485   -5697.5527   -6337.1485            0    1746.3148    23.405996    21.830589    21.711828    11094.021    2108.3551    322.02559    2808.5638   -111.74303   -118.65543    742.83838   -5415.0079 
 7494000    233.06656   -6319.2754   -5719.7259   -6319.2754            0    3397.1826    23.495991    21.465673    21.930182    11060.646    2181.0584    4593.1295    3417.3598   -204.17673    658.13386    -901.5874   -5171.7325 
 7495000    264.04942   -6347.8706   -5668.6196   -6347.8706            0    3118.7202    23.389881    21.656368     21.75445    11019.496    3583.8402    2488.3522    3283.9681   -832.20005   -873.05373   -352.21814   -5167.4162 
 7496000    239.09227   -6345.1395   -5730.0892   -6345.1395            0    1531.8373    23.590075    21.585036    21.842628    11122.105    1692.4408    1869.4451     1033.626     756.5535    245.23709    225.18547   -5481.6183 
 7497000    238.93145   -6326.2598   -5711.6232   -6326.2598            0    3428.0073     23.54746    21.420074    21.849895    11020.832    4331.1327    2955.8796    2997.0097   -455.38088   -315.54679    880.11985   -5160.6481 
 7498000    232.33087   -6292.5378   -5694.8807   -6292.5378            0    3011.2626    23.313065      21.5949    21.965686    11058.478    4272.7667    2234.3104    2526.7105    901.88756     390.3947    572.92053   -5209.2347 
 7499000    244.78021   -6357.9219   -5728.2397   -6357.9219            0    1476.2969    23.535355    21.543702    21.890098    11099.127    1447.6587    2582.2303    399.00163    431.56865   -94.963473   -880.97719   -5489.2725 
 7500000    248.08609   -6298.0885   -5659.9022   -6298.0885            0    1841.0644     23.57816    21.769625    21.758089    11168.159    854.96631    2428.5284    2239.6986     115.7056   -120.26032   -1066.3988   -5360.0367 
Loop time of 622.101 on 64 procs for 250000 steps with 1296 atoms

Performance: 69.442 ns/day, 0.346 hours/ns, 401.864 timesteps/s
99.2% CPU use with 64 MPI tasks x 1 OpenMP threads

MPI task timing breakdown:
Section |  min time  |  avg time  |  max time  |%varavg| %total
---------------------------------------------------------------
Pair    | 28.915     | 38.012     | 47.27      |  95.8 |  6.11
Bond    | 0.26766    | 0.27612    | 0.28465    |   0.8 |  0.04
Kspace  | 318.63     | 336.64     | 356.71     |  46.8 | 54.11
Neigh   | 4.3856     | 5.0641     | 6.1968     |  19.1 |  0.81
Comm    | 94.997     | 109.28     | 119.11     |  56.4 | 17.57
Output  | 1.3548     | 1.3676     | 1.3811     |   0.3 |  0.22
Modify  | 121.63     | 124.12     | 126.41     |  10.4 | 19.95
Other   |            | 7.347      |            |       |  1.18

Nlocal:        20.2500 ave          26 max          13 min
Histogram: 5 0 6 12 5 4 11 7 6 8
Nghost:        2522.33 ave        2554 max        2477 min
Histogram: 2 0 4 6 8 12 12 7 10 3
Neighs:        6243.98 ave        7973 max        3947 min
Histogram: 4 1 6 10 7 4 3 14 7 8

Total # of neighbors = 399615
Ave neighs/atom = 308.34491
Ave special neighs/atom = 2.0000000
Neighbor list builds = 9024
Dangerous builds = 1

unfix		3
unfix		2
unfix		1

write_data	data.final.${pid}
write_data	data.final.0
System init for write_data ...
PPPM initialization ...
  extracting TIP4P info from pair style
  using 12-bit tables for long-range coulomb (../kspace.cpp:340)
  G vector (1/distance) = 0.3759429
  grid = 30 40 36
  stencil order = 5
  estimated absolute RMS force accuracy = 0.0028007497
  estimated relative force accuracy = 8.4343744e-06
  using double precision FFTW3
  3d grid and FFT values/proc = 5472 750
Last active /omp style is kspace_style pppm/tip4p/omp
WARNING: Not all mixed pair coeffs generated from mixing. Use write_data with 'pair ij' option to store all pair coeffs. (../write_data.cpp:312)

write_restart   restart.lmp.${pid}
write_restart   restart.lmp.0
System init for write_restart ...
PPPM initialization ...
  extracting TIP4P info from pair style
  using 12-bit tables for long-range coulomb (../kspace.cpp:340)
  G vector (1/distance) = 0.3759429
  grid = 30 40 36
  stencil order = 5
  estimated absolute RMS force accuracy = 0.0028007497
  estimated relative force accuracy = 8.4343744e-06
  using double precision FFTW3
  3d grid and FFT values/proc = 5472 750
Last active /omp style is kspace_style pppm/tip4p/omp
Total wall time: 0:10:24
