#include		in.partitions
include		in.temp
variable        temperature equal 70.22
variable	tempDamp equal 100.0
include		in.pressure
variable        pressure equal 2096.1
variable        pressureDamp equal 1000.0 # This is 1 ps
include		in.seed
variable        seed equal 745823

units		real
atom_style	full

read_restart	restart.lmp.${pid}
read_restart	restart.lmp.1
Reading restart file ...
  restart file = 30 Jul 2021, LAMMPS = 30 Jul 2021
  restoring atom style full from restart
  orthogonal box = (1.2996747e-05 0.058292382 -0.053312280) to (19.999988 19.941709 20.753310)
  4 by 2 by 4 MPI processor grid
  restoring pair style lj/cut/tip4p/long/omp from restart
  restoring bond style harmonic/omp from restart
  restoring angle style harmonic/omp from restart
  972 atoms
  648 bonds
  324 angles
Finding 1-2 1-3 1-4 neighbors ...
  special bond factors lj:    0        0        0       
  special bond factors coul:  0        0        0       
     2 = max # of 1-2 neighbors
     1 = max # of 1-3 neighbors
     1 = max # of 1-4 neighbors
     2 = max # of special neighbors
  special bonds CPU = 0.002 seconds
  read_restart CPU = 0.009 seconds
include 	in.setup
variable	out_freq equal 1000
variable	out_freq2 equal 10000
variable	out_freq3 equal 1000

timestep	2.0

neigh_modify    delay 7 every 1

include		in.tip4p
# This is TIP4P/Ice

# create groups ###
group ox type 2
324 atoms in group ox
group hy type 1
648 atoms in group hy

# set charges - beside manually ###
set group ox charge -1.1794
Setting atom values ...
  324 settings made for charge
set group hy charge 0.5897
Setting atom values ...
  648 settings made for charge

# ### TIP3P Potential Parameters ###
pair_style lj/cut/tip4p/long/omp 2 1 1 1 0.1577 8.5
pair_coeff 1 1*2 0.000 0.000
pair_coeff 2 2 0.21084 3.1668
bond_style  harmonic
bond_coeff  1 450 0.9572
angle_style harmonic
angle_coeff 1 55 104.52
kspace_style pppm/tip4p/omp 1.0e-5
pair_modify tail yes

thermo          ${out_freq}
thermo          1000
thermo_style    custom step temp pe etotal epair emol press lx ly lz vol pxx pyy pzz pxy pxz pyz enthalpy

restart 	${out_freq3} restart.lmp.${pid} restart2.lmp.${pid}
restart 	1000 restart.lmp.${pid} restart2.lmp.${pid}
restart 	1000 restart.lmp.1 restart2.lmp.${pid}
restart 	1000 restart.lmp.1 restart2.lmp.1


include         in.dump
dump            myDump all atom ${out_freq2} dump.water.${pid}
dump            myDump all atom 10000 dump.water.${pid}
dump            myDump all atom 10000 dump.water.1
dump            myDump2 all dcd ${out_freq2} dump.dcd
dump            myDump2 all dcd 10000 dump.dcd
dump_modify     myDump append yes
dump_modify     myDump2 append yes


variable natoms 	equal  "count(all)"                        # NUMBER ATOMS
variable H      	equal  "enthalpy/v_natoms"                 # ENTHALPY-per-atom
variable Vol      	equal  "vol/v_natoms"                 # volume-per-atom
fix AVG all 		ave/time ${out_freq} 1 ${out_freq} v_Vol v_H file vol_enthalpy.dat
fix AVG all 		ave/time 1000 1 ${out_freq} v_Vol v_H file vol_enthalpy.dat
fix AVG all 		ave/time 1000 1 1000 v_Vol v_H file vol_enthalpy.dat


timer           timeout 02:55:00 every 1000
New timer settings: style=normal  mode=nosync  timeout=02:55:00

fix 		1 all shake 1e-6 200 0 b 1 a 1
       0 = # of size 2 clusters
       0 = # of size 3 clusters
       0 = # of size 4 clusters
     324 = # of frozen angles
  find clusters CPU = 0.001 seconds
fix             2 all nph aniso ${pressure} ${pressure} ${pressureDamp}
fix             2 all nph aniso 2096.1 ${pressure} ${pressureDamp}
fix             2 all nph aniso 2096.1 2096.1 ${pressureDamp}
fix             2 all nph aniso 2096.1 2096.1 1000
fix             3 all temp/csvr ${temperature} ${temperature} ${tempDamp} ${seed}
fix             3 all temp/csvr 70.22 ${temperature} ${tempDamp} ${seed}
fix             3 all temp/csvr 70.22 70.22 ${tempDamp} ${seed}
fix             3 all temp/csvr 70.22 70.22 100 ${seed}
fix             3 all temp/csvr 70.22 70.22 100 745823


run             250000
PPPM initialization ...
  extracting TIP4P info from pair style
  using 12-bit tables for long-range coulomb (../kspace.cpp:340)
  G vector (1/distance) = 0.37254976
  grid = 24 24 25
  stencil order = 5
  estimated absolute RMS force accuracy = 0.003390189
  estimated relative force accuracy = 1.0209453e-05
  using double precision FFTW3
  3d grid and FFT values/proc = 3458 576
Last active /omp style is kspace_style pppm/tip4p/omp
Neighbor list info ...
  update every 1 steps, delay 7 steps, check yes
  max neighbors/atom: 2000, page size: 100000
  master list distance cutoff = 10.8154
  ghost atom cutoff = 10.8154
  binsize = 5.4077, bins = 4 4 4
  1 neighbor lists, perpetual/occasional/extra = 1 0 0
  (1) pair lj/cut/tip4p/long/omp, perpetual
      attributes: half, newton on, omp
      pair build: half/bin/newton/omp
      stencil: half/bin/3d
      bin: standard
Per MPI rank memory allocation (min/avg/max) = 10.19 | 10.20 | 10.21 Mbytes
Step Temp PotEng TotEng E_pair E_mol Press Lx Ly Lz Volume Pxx Pyy Pzz Pxy Pxz Pyz Enthalpy 
36500000    74.384983   -5103.0808   -4959.6231   -5103.0808            0    1515.2122    19.999975    19.883416    20.806623    8274.1244    2376.9271    1373.5256    795.18387   -297.87536    814.76125   -9.2666875    -4776.783 
36501000     71.33207   -5119.0461   -4981.4762   -5119.0461            0     2350.404    19.927643    19.955094    20.706375    8234.0551    2926.2263    1753.1788    2371.8068    82.675481    816.52444   -432.73992   -4699.2273 
36502000    68.512445   -5109.2786   -4977.1466   -5109.2786            0    1533.9835    19.959118    19.907497    20.788093    8259.8591    2182.5813    969.64585    1449.7235   -212.25443    536.15518   -595.31634   -4792.3605 
36503000    69.695688   -5113.7926   -4979.3786   -5113.7926            0    2695.0298    19.921224    19.912352    20.638281    8186.7607      2927.36    2360.9978    2796.7315   -326.44463    1344.5675   -286.77163   -4657.6041 
36504000    69.660625    -5123.173   -4988.8266    -5123.173            0    1919.9973     19.93653    19.890388    20.719424    8216.1902    1870.0718    1922.6067    1967.3134   -46.822165    443.15758   -192.44404   -4758.7635 
36505000    68.710697   -5108.0006   -4975.4863   -5108.0006            0    2403.8199    19.861807    20.003462    20.560231    8168.6804    2740.5806    1500.7556    2970.1233   -105.24616    -366.3761    180.60496   -4689.1148 
36506000     72.27108    -5112.231   -4972.8501    -5112.231            0    1302.0367    19.964391    19.825148    20.822003    8241.2866    415.77265    2249.6316    1240.7059   -181.11393   -664.13995   -242.86774   -4816.3574 
36507000    74.477905   -5122.7795   -4979.1426   -5122.7795            0    1013.1009    20.109086    19.874653    20.581957    8225.8078     346.3267    170.48462    2522.4913   -435.79348    455.94518   -13.594631    -4857.606 
36508000    66.950992   -5104.3589   -4975.2382   -5104.3589            0    2035.0145    19.969052     19.92841    20.633082    8210.9652    2511.0941    2139.0481    1454.9012   -141.02424    107.00783    247.70442   -4731.5483 
36509000     72.10893   -5111.0093   -4971.9411   -5111.0093            0    2526.4837    19.966302     19.79415    20.816221    8226.9033    2128.4855    3303.2097     2147.756   -132.20819    680.83349   -299.47952   -4668.8112 
36510000    71.023153    -5109.324   -4972.3499    -5109.324            0    2286.7091    20.041376    19.858384    20.766866    8264.9916    2782.7567    2151.6992    1925.6715   -63.540726    485.00685   -225.00529   -4696.7182 
36511000    72.012762   -5117.9898   -4979.1071   -5117.9898            0    2180.9231    20.025746    19.897982    20.670298    8236.5338    1327.5753    2968.6042    2246.5897    44.766028    264.56934   -109.20558   -4717.1316 
36512000    74.917493   -5107.7976   -4963.3129   -5107.7976            0    2259.0325    19.956787    19.962365    20.583825    8200.2803    1629.4424    2626.9399    2520.7153   -365.03549     -192.436   -253.37887   -4693.1491 
36513000    73.725318   -5109.7715    -4967.586   -5109.7715            0    2760.0701    19.901971    20.005878    20.632479    8214.9537     2869.584     2106.702    3303.9243   -561.75366   -294.67674    351.17982   -4636.9112 
36514000    69.431553   -5115.3471   -4981.4425   -5115.3471            0    1558.5366    19.888143    19.931305     20.76353    8230.5935    2596.0485    837.05997    1242.5013    205.85659   -300.69726    114.35043    -4794.364 
36515000    69.150999    -5113.623   -4980.2595    -5113.623            0    2492.2653    19.901926     19.96181    20.672405    8212.7013     2915.743    2706.7917    1854.2612    -334.4416    226.55906     118.7076   -4681.7514 
36516000    71.064422   -5116.0641   -4979.0104   -5116.0641            0    1675.5256    19.967794    19.861447    20.798089    8248.2993    1096.4441    1979.5241    1950.6085    -102.1128   -73.312322    343.81225   -4777.4564 
36517000    70.664663   -5115.8559   -4979.5731   -5115.8559            0    1940.6708    19.919578    19.956613    20.655906    8211.2869    2345.1128    2204.4508    1272.4487    183.48536    57.198008    119.24426   -4747.1716 
36518000     69.00303   -5118.8012    -4985.723   -5118.8012            0    1724.1841    19.958678    19.948387    20.722693    8250.6043    923.26952    1998.4796    2250.8033    -383.2359    88.086363    31.726107   -4778.2578 
36519000    71.457819   -5117.2435   -4979.4311   -5117.2435            0    1959.5307    19.981775    19.851902    20.818334    8258.1384    1385.5563    2337.5481    2155.4877    88.174164     713.0837   -609.97943   -4743.4321 
36520000    70.342935   -5116.2416   -4980.5793   -5116.2416            0    3002.4001    19.956602    19.894958    20.656509    8201.3731    4145.3421    1888.4286    2973.4297   -273.27633    520.17138    685.91171   -4621.4664 
36521000    67.590312   -5114.0774   -4983.7238   -5114.0774            0    2223.8037    19.861036    19.914309    20.659201    8171.1025     2673.908    1929.9444    2067.5589    34.807863   -326.83744    7.0724376   -4718.7195 
36522000    71.666976   -5113.4792   -4975.2634   -5113.4792            0    1936.9662    19.967269    19.783303    20.804847    8218.3004    1747.0495    2439.0352    1624.8139   -79.740748   -591.96996    125.93999   -4743.1074 
36523000    71.030789   -5119.9073   -4982.9185   -5119.9073            0    1795.4644    19.921804    19.874125     20.70912    8199.3293    1180.8928    1992.8922     2212.608   -365.85471   -100.20573   -53.989191    -4768.219 
36524000    73.325698   -5105.2672   -4963.8525   -5105.2672            0    2243.5184    19.987258    19.925841    20.580326    8196.3808    2133.4048    2291.5527    2305.5977    359.19426    811.68347   -949.75017   -4695.6717 
36525000    71.604627   -5107.6973   -4969.6017   -5107.6973            0    1987.0883    19.926034    19.904864    20.675567    8200.4467    1626.8614    2156.5457    2177.8579    267.08442    953.71257    -364.2122   -4731.9557 
36526000    73.914562   -5111.9058   -4969.3554   -5111.9058            0    1507.1078    20.010944    19.972711     20.68608    8267.6635    353.15277    1863.6037    2304.5669   -105.75207    348.78294    373.07996   -4787.6353 
36527000    74.336739   -5114.6872   -4971.3226   -5114.6872            0    1365.7756    19.933798    19.963261    20.791625    8273.8946    1219.4492    1072.5182    1805.3593   -174.27196   -6.0959106   -241.49252   -4806.5195 
36528000    67.626298   -5113.2473   -4982.8243   -5113.2473            0    2159.4918    19.944945    19.900458    20.716427      8222.63    1632.5822    2019.4685    2826.4247   -245.93157    678.99344   -762.67601    -4723.861 
36529000    70.662681   -5111.4307   -4975.1518   -5111.4307            0    1824.5995    19.918622    20.011729    20.647755    8230.3202    1740.6042    1662.0065    2071.1878    214.40204   -114.28858    221.72494   -4756.1437 
36530000     71.52656   -5113.2342   -4975.2892   -5113.2342            0    2408.3183    19.752137    20.014338    20.817418    8229.6657    3102.6417    1623.2459    2499.0672   -186.41238    274.64745   -259.50625   -4686.2399 
36531000    71.374644   -5106.7175   -4969.0655   -5106.7175            0    3341.5352    19.920507    19.881291    20.631807     8171.132    3136.9123    2982.6359    3905.0573    189.58958    716.01466    215.82108   -4570.8629 
36532000    69.554048   -5105.7981   -4971.6572   -5105.7981            0    2842.4916     19.93448    19.817187    20.669405    8165.3517    2544.3684    2856.0726    3127.0337     272.6864   -116.04265   -250.07323    -4633.164 
36533000    71.575585   -5112.7209   -4974.6814   -5112.7209            0    2452.9005    19.966238    20.026324    20.534467    8210.7138    2534.3775    931.72942    3892.5947    292.14968   -162.80654   -225.51933   -4680.9592 
36534000    69.644912   -5115.3026   -4980.9865   -5115.3026            0    1386.6828    19.992978    19.967721     20.58298    8217.0184     1402.512    253.06453    2504.4717    15.113173   -552.32367    590.82409   -4814.8109 
36535000    65.573675   -5115.6345   -4989.1701   -5115.6345            0    3233.7024    19.904058    19.870376    20.729649    8198.5994    2929.8665    3525.5014    3245.7393   -277.02532    528.31944    1049.1323   -4602.5223 
36536000    67.154944   -5116.6042   -4987.0903   -5116.6042            0    1927.9049    20.055123    19.771635    20.754001    8229.4298    1048.6073    2481.0627    2254.0447    132.24683    800.90854    291.76845   -4755.7074 
36537000    70.941783   -5113.8138   -4976.9966   -5113.8138            0    2331.5038    19.951938    19.873228    20.706865     8210.467    1889.2704    3013.3469    2091.8943   -325.21351    223.66546     44.34299   -4697.8195 
36538000    71.688581   -5112.8509   -4974.5934   -5112.8509            0    1545.3994    19.970253    19.903416    20.696791    8226.4831    1604.1959     1664.649    1367.3533   -361.36834   -110.84829   -265.30233   -4789.1844 
36539000    70.312984   -5121.6057   -4986.0012   -5121.6057            0    1990.8844    19.901427    20.001697    20.728276    8251.1455      2066.31    1341.8548    2564.4885   -396.78794   -332.45532    -144.8801   -4746.4292 
36540000    71.351357   -5116.7413   -4979.1342   -5116.7413            0     2794.301    19.947975    19.829871    20.753592    8209.4107    3231.1918    3064.6225    2087.0888     91.10225   -871.18575    66.160247   -4644.5842 
36541000     70.00041   -5113.5105   -4978.5089   -5113.5105            0    2282.6883    19.899591    19.903418    20.830368    8250.2809     2711.186    2186.1359    1950.7429   -66.788105    408.99576   -260.69117   -4703.8515 
36542000    68.731478   -5114.3035   -4981.7491   -5114.3035            0     1464.041    20.010479    19.984912    20.638756    8253.5964    1001.3307    1559.3093     1831.483   -46.671822    801.99867    54.496008   -4805.5221 
36543000    71.856861   -5110.5549   -4971.9729   -5110.5549            0    1789.7198    19.928674    19.945679    20.695583    8226.3067    2611.8519    1303.1229    1454.1846    121.68319    595.94122    352.65589   -4757.2562 
36544000    66.044451   -5113.6651   -4986.2928   -5113.6651            0    2180.0451     20.00984    19.941566    20.609618    8223.8051    2006.0948     1878.198    2655.8425   -196.17132   -316.11179    -24.50195   -4724.8274 
36545000    69.826213    -5121.328   -4986.6623    -5121.328            0    2439.6324    19.921224    20.007505     20.56255    8195.6972    3238.5677    1342.2287    2738.1008    334.42348    38.958367   -464.45423   -4695.0632 
36546000    69.166854   -5116.7484   -4983.3543   -5116.7484            0    1969.3009    19.948953    19.948347    20.707444     8240.499    2029.8198    1935.4115    1942.6716    112.97903    405.30715    193.66929   -4746.6852 
36547000    70.535164   -5113.7808   -4977.7478   -5113.7808            0    2648.1796    19.935587    19.919393    20.688215    8215.3891     2129.612    2585.9902    3228.9365   -53.135358    -83.55536   -161.87822   -4660.4614 
36548000    68.329099   -5116.1858   -4984.4074   -5116.1858            0    2361.5803    19.926517    19.971437    20.631464    8210.5215    2934.2864    1886.1155    2264.3389  -0.53301885    282.55388   -164.12742    -4701.627 
36549000     67.47837   -5104.8075   -4974.6698   -5104.8075            0     1341.051    20.038348    19.829521    20.757168    8247.8783    1344.5316    1118.7375    1559.8838    157.66896    497.52252    22.507543    -4813.359 
36550000    69.401977   -5118.1187   -4984.2711   -5118.1187            0    2625.3378    19.966579    19.868592    20.634798    8185.9853    2584.0172    2356.5517    2935.4444   -160.01224   -20.971825   -491.56572   -4670.8473 
36551000    77.128283   -5108.1617   -4959.4133   -5108.1617            0    2484.0492    19.904473    19.816322    20.892609    8240.7442    3402.9211    2393.9408    1655.2856   -224.00869    876.72717   -317.68195   -4660.8733 
36552000    67.967986   -5112.9552   -4981.8732   -5112.9552            0    2154.2318    19.948956    19.898157    20.680403    8209.0334    2557.6792    1992.0893    1912.9269   -561.83348    120.78614  -0.89529359   -4723.9679 
36553000    68.463278   -5118.6391   -4986.6019   -5118.6391            0      2655.87    19.894566    19.917026    20.650303    8182.4884    3045.5145    2247.5756      2674.52   -173.96256   -238.90741   -301.61101   -4669.6684 
36554000    74.013466   -5114.6817   -4971.9406   -5114.6817            0    2375.0283    19.904778     19.97326    20.642079     8206.533     2861.924    1889.1194    2374.0416    87.599856    271.36263    518.36363    -4687.688 
36555000    70.444299   -5110.6383   -4974.7806   -5110.6383            0    2471.2301    19.810268    19.946749    20.765088    8205.3339    2995.3229    2180.9866    2237.3809   -38.413229    116.01705   -114.03005   -4679.0574 
36556000    73.544902   -5108.0169   -4966.1794   -5108.0169            0    2437.3841    19.931646    19.923447    20.762131    8244.7893    2983.0487    1910.2463    2418.8573    13.170444   -374.66251   -791.11612    -4673.104 
36557000      68.4549   -5119.2193   -4987.1982   -5119.2193            0    2767.0601    19.933501    19.893389    20.732438    8221.3423    1928.3818    2409.5134    3963.2851    -425.8667    178.28558   -225.95673   -4655.4282 
36558000    70.722977   -5114.1893   -4977.7941   -5114.1893            0    1535.0755     19.96824    19.936818      20.7278    8251.8028      1816.34    1571.6936    1217.1928   -241.26699    779.61768   -514.22201   -4793.0568 
36559000    69.047942   -5114.2418    -4981.077   -5114.2418            0     1832.585    19.912608    19.958138    20.703409    8227.9194    1369.0163    2201.5241    1927.2146   -377.59371     201.5891    890.54823   -4761.1746 
36560000    69.680554   -5114.5478    -4980.163   -5114.5478            0    1526.0483    20.038415    19.862933    20.701596    8239.6843    2036.8844    1106.0323    1435.2282   -309.03729    391.38958    -349.0943   -4796.7818 
36561000    70.661396   -5111.9331   -4975.6567   -5111.9331            0    2538.9443    19.931767    19.857026    20.783483    8225.8038    3172.2901    2264.7235    2179.8192   -341.25616     121.1711   -135.42408   -4671.0724 
36562000    72.617499   -5108.2138   -4968.1649   -5108.2138            0    1560.3981    19.920134    19.875816    20.897587    8273.9589         1561    2107.9087    1012.2858   -44.992208    154.05495    -883.8723    -4779.876 
36563000    68.734301   -5103.3009   -4970.7411   -5103.3009            0    2024.8956     19.91702    19.966634    20.676941    8222.7203    2300.3932    1585.0741    2189.2195    441.56154    595.33082    -462.8927   -4727.9157 
36564000    71.699493   -5116.3185     -4978.04   -5116.3185            0    2192.4924    20.011085    19.855375    20.691417    8221.2711    1453.7229    3208.1629    1915.5915    240.36327   -322.91845   -410.96711   -4715.1628 
36565000    69.350343   -5114.4004   -4980.6525   -5114.4004            0    2304.9239     19.98417    19.873724    20.618733    8188.9338    2225.9909    2539.0655    2149.7154    3.4725741    548.12757   -377.49425   -4705.3819 
36566000    75.384086   -5112.5864   -4967.2019   -5112.5864            0    2446.4074    19.920895    19.852286    20.786096    8220.3877    3107.5889    2044.9972    2186.6361   -397.98049    433.48157    148.05108   -4673.9121 
36567000    68.155403   -5112.2778   -4980.8344   -5112.2778            0    2505.0146    19.913175    19.930981    20.676299     8206.198    2604.2542    1843.5232    3067.2664   -113.94939    39.425527    114.98703   -4681.0368 
36568000    73.419981   -5121.4781   -4979.8814   -5121.4781            0    1961.4693    19.891808    20.012081    20.658523    8223.6718    1393.6311    2349.6293    2141.1474   -81.658833    1023.2197    243.76319   -4744.6349 
36569000    67.192156   -5118.2644   -4988.6786   -5118.2644            0    2543.6455    19.996076    19.952566    20.515614    8185.1762     2078.778    2962.2083    2589.9504   -17.724609    338.11314   -137.64845   -4685.0376 
36570000    71.542163   -5111.8241    -4973.849   -5111.8241            0    2503.0297    20.002055    19.885265    20.616402     8200.095    1926.4625    2639.7128     2942.914   -127.40115   -371.23406    333.11745   -4674.5118 
36571000    71.327032   -5113.7632    -4976.203   -5113.7632            0    1940.1649    19.901925    20.016049    20.633955    8219.6992    2062.9227    1986.6887    1770.8832    231.00878    655.54436   -110.69291    -4743.624 
36572000      76.5918   -5111.7214   -4964.0077   -5111.7214            0    2547.1564    19.905416    19.874259    20.769945    8216.7022    2767.1794     3414.405    1459.8848   -160.31916    525.23409    180.69734   -4658.7764 
36573000    70.085442   -5122.5055   -4987.3399   -5122.5055            0    2551.5504    19.838476    19.965455    20.724971    8208.8334    2708.2019     2829.511    2116.9384    19.212352    159.10342   -493.15297   -4681.8748 
36574000    68.638991   -5117.5944   -4985.2183   -5117.5944            0    1571.8134    19.913433    19.954206    20.731733    8237.8936    2138.0486    935.09158       1642.3   -134.48176    478.19584    248.92919   -4796.3787 
36575000    69.019071   -5115.8033   -4982.6942   -5115.8033            0     2400.022    19.856491    19.903658    20.798958    8220.0976    2720.1959    1888.9216    2590.9484   -130.45605   -324.47124   -5.1298083   -4694.9755 
36576000    70.779251   -5113.4151   -4976.9113   -5113.4151            0    2413.5498    19.960345    19.954108    20.627183    8215.6189    2966.7295    1486.4761     2787.444    256.83434    390.78496    433.10701   -4687.7286 
36577000    67.528341   -5118.6604   -4988.4263   -5118.6604            0    2283.4747    20.008963    19.781618    20.793183    8230.1425    1314.7835    3540.5101    1995.1305     212.5149   -56.219249   -72.132346   -4714.3449 
36578000    72.682914   -5108.3186   -4968.1435   -5108.3186            0    1810.7369    19.948783    19.845084    20.788388    8229.8167    2357.3936    1461.0777    1613.7394   -252.84719     627.5405   -4.0025331   -4750.8126 
36579000    71.806644   -5120.1123   -4981.6271   -5120.1123            0    2042.3528    20.058731    19.911563    20.473579    8177.1613    1610.4628    2071.3106     2445.285   -367.26985    287.55485    377.29362   -4738.0653 
36580000    71.903105   -5111.3533   -4972.6821   -5111.3533            0    2644.2367    19.891755    19.920337    20.731107     8214.711    3540.6642    2048.7741    2343.2718   -228.43631    421.81465   -571.09998   -4655.8943 
36581000    72.987031   -5115.8709   -4975.1093   -5115.8709            0     1819.338    19.920942    20.018289    20.629925    8226.8673    1142.4213    1977.3111    2338.2815   -248.49348    482.13899    455.06067   -4756.8244 
36582000    71.719408   -5125.1785   -4986.8616   -5125.1785            0    1569.2857     19.94892    19.992512    20.705305    8257.8765    2237.5045    633.74614    1836.6063   -199.86949    423.44486    953.90365   -4797.8683 
36583000    70.313168   -5110.7087   -4975.1038   -5110.7087            0    2332.2223     19.90792    19.883806    20.756954    8216.5412    2896.4782    1882.2333    2217.9553    -404.4896   -555.10309   -271.51434    -4695.634 
36584000     72.27977    -5107.694   -4968.2963    -5107.694            0    2249.6549    19.987188    19.961942    20.658286    8242.3067    2154.5363    2380.5942    2213.8341   -524.97756    189.41429   -165.89836   -4697.8752 
36585000    68.205406   -5114.7443   -4983.2045   -5114.7443            0    2262.2945    19.867049    19.855783    20.880532    8236.8648    2846.5544    2420.0811     1520.248   -602.55128     45.66081   -64.813606   -4711.4436 
36586000    66.999897   -5109.9817   -4980.7668   -5109.9817            0    1356.0901    19.930422    19.967828     20.66717    8224.8566    1610.8846    858.65543    1598.7303   -177.54684   -171.90289   -411.31654   -4818.1023 
36587000     68.33961    -5113.209   -4981.4103    -5113.209            0    1918.7858    19.997608    19.866205    20.708703    8227.0827    1063.3755    2793.2905    1899.6914   -200.18022    579.76376    265.39707   -4751.1876 
36588000    71.633174   -5116.9125   -4978.7619   -5116.9125            0    2441.0734     19.98838    19.880904    20.628721     8197.587    2182.6688    2257.4022    2883.1491   -132.08738    663.81946   -233.20065   -4686.9233 
36589000    68.226315   -5122.9166   -4991.3364   -5122.9166            0    2175.3956    19.897035     19.92169    20.682888    8198.3361    2387.6571    2164.7835    1973.7461   -298.48131    296.59689   -221.61938   -4731.2367 
36590000     68.34337   -5110.9647   -4979.1587   -5110.9647            0    1534.6155    19.893058    19.903426     20.79968     8235.425    1371.6486    1252.4606    1979.7375   -332.77931    553.94031    518.54962   -4794.8434 
36591000    68.730556   -5115.3865   -4982.8339   -5115.3865            0    1549.7622    19.943291    19.981585    20.669631    8236.8181    1577.8457    884.81382     2186.627   -37.154546    573.67163   -423.83614   -4796.6678 
36592000    71.625714   -5120.3753   -4982.2391   -5120.3753            0     3076.026    19.860865    19.971708    20.732389    8223.6138    2868.3088    2990.9429    3368.8262   -104.54155    1560.1891   -335.54315   -4613.3221 
36593000    71.040258   -5107.8659   -4970.8588   -5107.8659            0    2389.7556    19.914016    19.940398    20.669593    8207.7589    3081.0519    1476.6828     2611.532   -142.77683    108.73581    212.92604   -4684.8009 
36594000    71.972744   -5117.6067   -4978.8013   -5117.6067            0     2213.372    19.949524    19.857693    20.748352    8219.4911    1511.9592    2878.4738     2249.683     209.8854    827.42065   -949.23439   -4713.4781 
36595000     68.12318   -5121.8878   -4990.5065   -5121.8878            0    1212.9184    20.021954    19.947962    20.665329    8253.6743    292.93854     1863.841    1481.9756    14.521435    245.00756    90.408047   -4844.5058 
36596000    71.414567   -5112.9211   -4975.1921   -5112.9211            0    2975.1163    19.885547    19.914449    20.667231    8184.4244    2866.7988    3463.6789    2594.8713    235.61771    262.70562    98.658843    -4620.078 
36597000    72.275774   -5116.2631   -4976.8732   -5116.2631            0    1173.4577    19.937502    19.935493    20.629545    8199.5001    754.68753    1166.6681    1599.0175    82.405655   -45.902391   -399.84878   -4836.5496 
36598000    70.849278   -5116.5064   -4979.8676   -5116.5064            0    2355.9957    19.999497     19.93336    20.635107    8226.3334    1538.7683    1800.6592    3728.5595   -85.592358   -51.767478   -89.366963   -4697.2126 
36599000    67.911094   -5112.0583    -4981.086   -5112.0583            0    2353.8509    19.913972    19.906645    20.729435    8217.5706    2502.7671    2206.7834    2352.0023   -118.63162   -354.92736    174.00128   -4698.9891 
36600000    69.750785   -5112.6689   -4978.1486   -5112.6689            0    2561.9456    19.900218    19.923073    20.696875    8205.7627    2664.8461    2367.5394    2653.4513   -637.77016    244.02857    117.02314   -4671.5538 
36601000    66.659268    -5118.851    -4990.293    -5118.851            0    1952.0965    19.795867    20.064912    20.669535    8209.9876     1732.045    1848.4413    2275.8032    -332.9029    450.00978    385.88168   -4756.5602 
36602000    67.435418   -5107.5937   -4977.5388   -5107.5937            0     2032.267    19.960799    19.988537    20.563323    8204.5022    1552.3972    1919.3292    2625.0747    180.74018    140.00462    76.052176   -4734.3694 
36603000    69.660067   -5106.7966   -4972.4513   -5106.7966            0    1940.5062    19.917925    19.936537    20.624767    8189.9807    2029.7523    1401.0654     2390.701   -59.075374    549.93243    813.59234   -4740.6725 
36604000    74.618837   -5119.9893   -4976.0806   -5119.9893            0    2189.3917    19.871266    19.929528    20.767568    8224.4752    2719.6293    2258.6039    1589.9418     105.7626    773.04423    1018.7324   -4713.4729 
36605000    70.414605   -5101.3841   -4965.5836   -5101.3841            0    2320.7653    19.832969    19.978934    20.720973    8210.5111    2740.3087    1758.6406    2463.3466     77.74372    1277.3625    645.96404   -4687.6908 
36606000    65.613262   -5111.3039   -4984.7632   -5111.3039            0    3039.0965    19.832688    19.961357    20.702903    8196.0177    3130.7261    3188.9384    2797.6251   -83.802511    565.82295   -533.66876   -4621.4984 
36607000    71.432833   -5113.9641   -4976.1998   -5113.9641            0    1888.4098    19.819423    19.983554    20.688288     8193.855    3120.5941    631.57395    1913.0614   -378.07851     74.01223    87.525083   -4750.5368 
36608000    70.596288   -5108.6501   -4972.4993   -5108.6501            0    2763.9078    19.954351    19.874947    20.687028    8204.3026    2050.6932    3314.9626    2926.0677    -93.30581    444.21196    74.690847    -4641.794 
36609000    70.858394   -5114.7198   -4978.0634   -5114.7198            0    2122.4729     20.00385    19.864272    20.673913    8215.0253    2210.7445    1927.7354    2228.9387   -108.30375    42.649376    16.566676   -4723.7748 
36610000    73.247498    -5110.049    -4968.785    -5110.049            0    3032.5963      19.9604    19.702276    20.753743    8161.7272    2771.8814    3526.5832    2799.3244   -92.559996    -13.10339   -784.87767   -4607.8138 
36611000     72.92399   -5108.2833   -4967.6432   -5108.2833            0    2045.5349    19.868598    19.980468    20.654422    8199.4728    2220.9646    1288.4426    2627.1976   -190.07393   -234.52248   -200.41007   -4723.0363 
36612000     71.06462   -5112.3136   -4975.2596   -5112.3136            0    1778.0279    19.904443    19.962165    20.742016    8241.5448    2207.9184    885.45363    2240.7117   -6.6403438    202.77755   -139.72303   -4761.5504 
36613000    67.671659   -5118.2147   -4987.7042   -5118.2147            0    1633.0329    20.034978    19.925237     20.66507    8249.5306    572.61152    2323.3801    2003.1072   -60.798667    471.36436     243.2682   -4791.2325 
36614000    71.894466   -5112.4076   -4973.7531   -5112.4076            0    1952.7839    20.002819    19.904042    20.700316    8241.5606    1044.4794    2564.6259    2249.2464   -206.37158    236.24351     327.1596   -4739.0388 
36615000    68.789091    -5111.268   -4978.6025    -5111.268            0     2518.066    20.022541    19.916878    20.644696    8232.8262    2646.7757    2056.6972    2850.7252   -92.587409    929.61449   -85.537215    -4676.265 
36616000    69.764162     -5120.42   -4985.8739     -5120.42            0    1843.5697    20.035741    19.854172    20.708395    8237.6555    1929.1978    2399.4417    1202.0697   -57.078637    170.76406   -460.34696   -4764.3916 
36617000    69.588948   -5120.3272    -4986.119   -5120.3272            0    1878.5724    19.956755     19.88003     20.72702    8223.2563    1429.7569    2948.3304    1257.6297    118.74307    311.15642    145.22613   -4760.8261 
36618000    67.553436   -5115.2997   -4985.0172   -5115.2997            0    1314.7959    19.973778    19.943616    20.702785    8246.9414    1104.7707    1918.5252    921.09167   -438.21906   -7.5740917   -489.11078   -4826.8825 
36619000     68.69859   -5118.3239   -4985.8329   -5118.3239            0    2305.6399    19.924771    19.874227    20.744489    8214.5984    2519.4569    2399.8939    1997.5688   -7.2238558   -386.09331   -399.24745   -4709.6138 
36620000    70.509679   -5115.1598    -4979.176   -5115.1598            0    1897.4177    20.018301     19.84756    20.761791    8248.9589    2237.6403    1451.4809    2003.1317    41.973821    760.11148    826.53585   -4750.9117 
36621000    68.585631   -5119.1895   -4986.9163   -5119.1895            0    2023.4021    19.996132    19.915896    20.638366     8219.041    2116.5334    1827.7558    2125.9169    2.2862272    790.48224    666.95022   -4744.3787 
36622000    73.233499   -5110.9317   -4969.6947   -5110.9317            0    1880.8114    19.889913     19.95663    20.738297    8231.7691    2027.7162    1782.7951    1831.9228   -11.757823   -35.064582   -159.29193   -4743.8997 
36623000    68.743999    -5112.454   -4979.8754    -5112.454            0    1849.6336    19.935982    19.892179    20.759045    8232.4167    1213.3797    2227.1357    2108.3854   -211.71895    457.77299    129.77239   -4757.8059 
36624000    70.492425   -5116.0616   -4980.1111   -5116.0616            0    979.15416    19.966099    20.007469    20.774133    8298.6657    1255.2316    577.23486    1104.9961    246.59503    102.41437    371.04893   -4861.6064 
36625000     74.32681   -5114.7144   -4971.3689   -5114.7144            0    1974.7996    19.989227    19.964551    20.663222    8246.1948     1325.724    1630.5056    2968.1694    19.820056   -406.35779   -76.470341   -4733.8749 
36626000    67.886335   -5117.7217   -4986.7972   -5117.7217            0    1960.5686    19.970668    19.838046    20.696282    8199.4333     1511.657    2958.5827    1411.4662   -43.184798    855.81077    -154.3627   -4752.3517 
36627000    70.062414   -5116.0327   -4980.9115   -5116.0327            0    1690.8511    19.955205    19.869729    20.751296    8227.9824    1706.7134    1851.5564    1514.2835    395.78108    321.40949   -448.36994   -4778.0149 
36628000    69.349947   -5117.0833   -4983.3361   -5117.0833            0    2254.7531    19.904366    19.925765    20.795008     8247.502    1553.5299    3046.9575    2163.7717   -112.13354   -13.096343      -821.62   -4712.1313 
36629000    74.845916   -5112.4828   -4968.1361   -5112.4828            0    1673.4162    19.954246    19.916993    20.808667     8269.959    1357.9989    1998.8589    1663.3908    29.736214    1107.4866    214.12411   -4766.3073 
36630000    65.814277   -5116.1807   -4989.2523   -5116.1807            0    1268.3386    20.056694    19.970511    20.648358    8270.5433    921.61856    1110.8402     1772.557   -168.32384    281.75424   -522.01551   -4836.2687 
36631000    65.944342   -5117.6276   -4990.4484   -5117.6276            0    1941.3796    19.951943    19.815852    20.848477    8242.7527    2180.3838    2171.2007    1472.5543   -110.64998   -207.25184    75.305781   -4757.0711 
36632000    71.140534   -5106.3394   -4969.1389   -5106.3394            0    1763.9731     20.07485     19.83384    20.636347    8216.5961    1045.9406    2662.1947    1583.7842   -222.75509   -281.20547   -117.11269   -4757.7609 
36633000    73.247997    -5110.696   -4969.4311    -5110.696            0    2312.6379    19.948487    19.805587    20.821808    8226.5188    2055.8725    2489.1843     2392.857    306.90392    614.00876    839.59237   -4691.9716 
36634000    68.388331   -5114.1761   -4982.2835   -5114.1761            0    2036.6643    20.014423    19.867375    20.717307    8237.9065    1534.5644     2117.014    2458.4146   -312.90205    937.02556   -1248.6176   -4737.5957 
36635000    71.835843   -5117.7005    -4979.159   -5117.7005            0    2615.3441    19.989842    19.919764    20.562155    8187.7047    2398.1907    2084.0348    3363.8068     225.8816    337.51836    579.05658   -4666.8626 
36636000    72.422786   -5117.3964    -4977.723   -5117.3964            0    1449.0217    20.011587     19.86688    20.778545    8260.8805    942.53414    1978.8857    1425.6453    24.199808    472.20551    165.67873   -4803.1499 
36637000    69.844875   -5119.7945   -4985.0927   -5119.7945            0    1859.0835    19.989636    19.877065     20.75304    8245.9151    1284.1928    2624.8368    1668.2209    108.31537   -138.58434     534.9333   -4761.5227 
36638000    68.935666   -5116.2232   -4983.2749   -5116.2232            0    2380.7848    19.915796    19.909051    20.755876    8229.8003    2562.1531     2407.329    2172.8722     162.8899    95.378802   -252.74233   -4697.5255 
36639000    67.851933   -5123.3325   -4992.4744   -5123.3325            0    1300.9335    19.949817    19.828075    20.882877    8260.5659    1853.8457    1033.7072    1015.2478    45.040495   -315.05843    367.57533   -4835.7485 
36640000    71.946091   -5115.2297   -4976.4756   -5115.2297            0    2431.8168    19.888846    19.910908    20.777008     8227.799    2071.8242    3085.5784    2138.0479    342.34871    359.70875    653.55019   -4684.6722 
36641000    66.167892     -5108.16   -4980.5496     -5108.16            0    2245.8779    19.876488    19.988083     20.61305    8189.4179    2680.1433    2520.3039    1537.1866   -259.60644   -476.27379   -380.23714   -4712.3148 
36642000    68.832859   -5112.0634   -4979.3135   -5112.0634            0    2696.0327    19.927002     19.92426    20.589872    8174.8128    3467.3598    1752.5007    2868.2374    258.62885    802.51596   -117.69621   -4657.8891 
36643000    71.987761   -5123.0533   -4984.2188   -5123.0533            0    1594.6208    19.906244    19.949666    20.753697    8241.7691    1005.3843    2407.1644    1371.3138   -286.15446    175.96952     129.4701    -4792.549 
36644000    72.771612   -5116.9286   -4976.5824   -5116.9286            0    3459.7991    19.868727    19.834558    20.739236     8173.072    3209.8523    3592.6971    3576.8479   -160.02655    439.27576    395.13119   -4564.1887 
36645000    69.439443   -5112.1149   -4978.1951   -5112.1149            0    2454.2918    19.865741    19.978021    20.718008    8222.5257    2465.6711     2525.829    2371.3752    324.04803    271.80463      476.875   -4683.8836 
36646000     69.04315   -5118.9578   -4985.8023   -5118.9578            0    2067.6309    19.942775    19.937982    20.675251    8220.8665    2293.1911    1437.1395    2472.5622   -73.002255    1489.8791    -134.0168    -4737.908 
36647000    69.610832   -5120.5361   -4986.2857   -5120.5361            0    1872.9814     19.98936    19.926012    20.698988    8244.5771    1791.8434    2350.6583    1476.4426     16.86997    177.46243    79.529159   -4761.0809 
36648000    64.786618   -5108.4232   -4983.4768   -5108.4232            0    1810.5523    20.003944    19.879731    20.734104    8245.3937    1665.2662    1968.2949    1798.0959    8.5917487   -154.90244   -501.41066   -4765.7568 
36649000    73.536009   -5115.8007   -4973.9803   -5115.8007            0    2496.3556    19.964527    19.868847    20.776528    8241.4699    3104.2884    1977.2447    2407.5338   -222.84379    -358.8706    804.91157   -4673.9349 
36650000     69.41743   -5114.3278   -4980.4504   -5114.3278            0    2408.3728    19.971595    19.801086    20.716535    8192.5459    2113.4213    2810.7774    2300.9196    270.97945    256.60901    547.01379   -4692.6984 
36651000     72.97938   -5108.6601   -4967.9132   -5108.6601            0    2112.9199    19.955925    19.960249    20.615058    8211.4978    1274.4208    2659.7631    2404.5757    293.16725   -523.34097   -224.43477   -4714.8778 
36652000    71.044769   -5113.3645   -4976.3486   -5113.3645            0    1250.0295    19.957982     19.98245    20.684814    8249.2978    1658.6098   -220.05123    2311.5299    243.07205    314.89344      331.804   -4825.9607 
36653000     70.86608    -5118.096   -4981.4248    -5118.096            0    1657.8278    20.012513    19.991014     20.67161    8270.0993    1149.2278    1180.9627     2643.293   -113.24268    59.026822    15.548606   -4781.4726 
36654000    67.554489   -5109.6683   -4979.3838   -5109.6683            0    1640.9208    20.055463    19.928757    20.624571    8243.2376   -7.0752424    3163.8033    1766.0344   -279.03729   -98.311019   -860.13603   -4782.1136 
36655000     70.17704   -5115.2866   -4979.9442   -5115.2866            0     2039.056    19.850653    19.886203    20.854255    8232.3031    2790.4787    1937.7871    1388.9022   -470.57532   -573.04985    744.93911   -4735.1358 
36656000     68.66243   -5115.3948   -4982.9735   -5115.3948            0    1495.6975    20.022797    19.992425    20.510161    8210.3045    874.37732    696.48025    2916.2348   -43.474067   -328.84687   -217.70395   -4803.8804 
36657000    70.042669   -5110.3028   -4975.2197   -5110.3028            0    2523.3427    20.058704    19.772753    20.730424    8222.0136    1339.0531    3398.2939    2832.6811   -218.79893    7.6561933   -288.87871   -4672.6466 
36658000     66.95384   -5118.5496   -4989.4235   -5118.5496            0    907.20163    19.992832    19.931919    20.801326    8289.2349    721.78549     805.5139    1194.3055   -172.98554   -46.818391    141.43298   -4879.7519 
36659000    68.799751   -5117.4834   -4984.7973   -5117.4834            0    2276.5679    20.012067    19.889782    20.668772    8226.9085    1150.6737     3196.663    2482.3669    105.11127    1178.9645    89.905053   -4711.6524 
36660000    72.998438   -5118.9745   -4978.1909   -5118.9745            0    1709.3396    19.913505    20.007405    20.668836    8234.8273    1804.2562    1049.8149    2273.9476   -120.50349    405.94828    460.44833   -4772.9052 
36661000    67.621337   -5114.7187   -4984.3052   -5114.7187            0     2132.953    19.936186    19.950203    20.637897    8208.3303    2007.4659    1954.8319    2436.5612   -277.37667    582.38675    228.77728   -4728.9693 
36662000    70.908316   -5113.4976   -4976.7449   -5113.4976            0    1595.3585    19.946774    19.880377    20.745917    8226.7802    1344.1422    1771.0548    1670.8783   -454.82599   -123.41875   -167.29963   -4785.3352 
36663000    70.290311   -5112.8097   -4977.2489   -5112.8097            0    2382.3838    19.845114    19.913087    20.784002    8213.3696    3731.0988    1200.7862    2215.2662    17.454696    296.67077   -174.25536   -4691.8785 
36664000    69.048044   -5115.8165   -4982.6515   -5115.8165            0    2693.1515    19.817049    19.955975    20.814459    8231.4634     2801.908    2853.1229    2424.4236    63.402744    625.34189    445.49421   -4659.3456 
36665000    69.416605   -5113.4085   -4979.5328   -5113.4085            0    911.00241    20.045322     19.90077    20.654688    8239.5133    10.769034    980.66433    1741.5739    13.286943    270.09066    667.32396   -4870.0623 
36666000     69.08106   -5106.1526    -4972.924   -5106.1526            0    852.11028    20.003241    19.887534    20.687392    8229.7574    1086.5079    651.67315    818.14977   -93.050868   -149.54305    363.27467   -4870.6515 
36667000    71.496312   -5113.5418   -4975.6551   -5113.5418            0    2414.1633    19.982704    19.990581    20.581472    8221.5953    2297.2637    2429.0265    2516.1998   -81.427914   -170.75788   -406.98815   -4686.1884 
36668000    72.881794   -5108.6935   -4968.1348   -5108.6935            0    1913.2689    19.879502    19.921542    20.768508    8224.9592    2049.4874    1653.6755    2036.6439    205.77407     109.6401   -303.78836   -4738.6332 
36669000    71.160383   -5109.7132   -4972.4744   -5109.7132            0    2102.4282    19.837052    20.010685    20.790171    8252.7208    2531.6922    1642.1118    2133.4806    291.60901    176.20821   -394.03867   -4719.4315 
36670000    70.155498   -5114.0282   -4978.7274   -5114.0282            0    2075.7668    19.916754    19.933591    20.688448     8213.571    1690.6748    2777.3415    1759.2842    110.14326    482.94414   -572.65898   -4730.0786 
36671000    74.895876    -5116.467    -4972.024    -5116.467            0    2331.8289    19.947467    19.965847    20.585524     8198.557    2564.6234    1923.2155    2507.6478   -173.80545    785.94222   -601.03003   -4693.2129 
36672000    68.712066   -5112.1223   -4979.6054   -5112.1223            0    2465.9942    20.065266    19.829567    20.516785    8163.3319    1685.2727    2672.9732    3039.7365   -12.377835    115.48403     29.88335   -4686.0193 
36673000    67.615369   -5115.0073   -4984.6054   -5115.0073            0    1937.6579    19.913684    19.967944    20.669586    8218.9578    2279.4143    1322.9976    2210.5619    140.44076   -728.73283   -55.933253   -4752.3479 
36674000    71.756932   -5116.6845   -4978.2953   -5116.6845            0    1450.1929    19.934935    19.855098    20.846925    8251.4235    1480.9499    1667.1292    1202.4996   -422.25815    220.93989   -431.33691   -4803.7811 
36675000    70.533618   -5117.9814   -4981.9514   -5117.9814            0    2056.7224    19.876592    19.912502    20.835636    8246.5922    2901.3522    1946.7722    1322.0428   -173.40709   -139.58712    398.24669   -4734.5933 
36676000    67.463888   -5116.7776   -4986.6678   -5116.7776            0    2133.9262    19.989546    19.892248    20.672954    8220.3314    1773.3919    2244.7023    2383.6844   -235.89739   -96.259561   -404.17735   -4730.8418 
36677000     70.82224   -5114.8158   -4978.2292   -5114.8158            0    2113.0555     19.90913    19.869357    20.859826     8251.764    1175.4573    3279.1622     1884.547   -272.44694    133.14712    785.46024   -4723.9366 
36678000    70.077643   -5114.3609   -4979.2103   -5114.3609            0    1170.3902    19.956634    19.931687    20.714285    8239.5084     346.0033    2335.4915    829.67591    -698.9462    212.65183   -447.77554   -4838.5706 
36679000    72.639771   -5112.5122   -4972.4203   -5112.5122            0    2692.8446    19.888289    19.903641      20.6875    8189.1339    2565.9563    2841.3989    2671.1785    -232.2829   -28.003467     45.87159   -4650.8136 
36680000    71.403846   -5111.9339   -4974.2256   -5111.9339            0    1754.0854    19.972522    19.929373    20.723484    8248.7722    2173.8301    1483.3945    1605.0316    -43.96826    436.99747    828.38305   -4763.2093 
36681000    71.919348   -5119.0162   -4980.3137   -5119.0162            0    3006.6712    19.927726    19.909049    20.661625    8197.3358     3709.607    2334.4073    2975.9994   -13.891148    580.41744   -130.23971   -4620.8669 
36682000    68.750373   -5109.7857   -4977.1949   -5109.7857            0    1487.5275     19.93846    19.902259    20.754014    8235.6161    1042.2116    1998.6842    1421.6867   -98.272534    133.60671   -640.48249   -4798.5309 
36683000    70.117183   -5122.2419    -4987.015   -5122.2419            0    1667.9253    19.930452    19.925089    20.742536    8237.1933    2053.6834     1524.548    1425.5446   -189.84069    152.04001    98.208062   -4786.6455 
36684000    67.307842   -5115.2887   -4985.4799   -5115.2887            0    2087.2994    19.930774    19.917778    20.753373    8238.6064    1808.7728     2038.656    2414.4695    -128.7326    883.71181    66.376044   -4734.6875 
36685000    71.842397   -5111.3364   -4972.7823   -5111.3364            0    1931.5348    19.928033    19.953447    20.770326    8258.9657    2534.5074    1741.9699    1518.1272    65.061901    298.99131    455.62316   -4740.1318 
36686000    73.178986   -5112.8508    -4971.719   -5112.8508            0    2117.4318    19.924236    19.875587    20.808352    8240.2297    2831.0189     1566.552    1954.7245   -298.97176    780.70679   -247.38051    -4717.256 
36687000    70.022897   -5117.4741    -4982.429   -5117.4741            0    2664.2903    19.951221    19.920821    20.602384    8188.3086      2112.64    2594.5926    3285.6382    -142.4261   -83.766823   -103.25731   -4664.2646 
36688000    72.076784   -5115.7891    -4976.783   -5115.7891            0    2088.9228    19.899764     19.90964    20.814495    8246.6436    2347.6955    1737.3689    2181.7039   -66.740702    718.14786   -717.51708   -4725.5507 
36689000    68.438353   -5117.1427   -4985.1536   -5117.1427            0    2343.9943     19.94196    19.861408    20.692636    8195.8439    1379.2148    3922.6792    1730.0888   -139.75713   -116.85352    665.85849   -4704.9807 
36690000    70.097832   -5105.6134   -4970.4239   -5105.6134            0    1471.1273    19.921508    20.024052    20.701966     8258.207     2624.796     118.0174    1670.5687     242.3871   -18.836256    176.63066    -4793.245 
36691000    66.572482   -5105.0969   -4976.7063   -5105.0969            0    1913.7491    19.923857    19.878864    20.747298    8217.2505    1551.5434    2520.1423    1669.5618    172.04269    410.46005    176.69092   -4747.3623 
36692000    69.258306   -5109.8436   -4976.2732   -5109.8436            0    2069.0281    19.904775    19.981171    20.764649    8258.5308    3375.5735    845.83124    1985.6796   -126.84638   -716.11708    138.31117   -4727.0749 
36693000    70.996436   -5114.9612   -4978.0386   -5114.9612            0    2883.4694    20.021262    19.839214    20.663903    8207.8285    3035.0564    2760.7499     2854.602   -208.04238    123.99825    516.92649   -4632.8793 
36694000     69.31586   -5105.6086   -4971.9272   -5105.6086            0    1557.7025    20.001621    19.926349    20.744161    8267.7776    729.94454    1748.5867    2194.5762   -8.6843754    1072.1801   -225.76769    -4784.104 
36695000     70.27092    -5113.459   -4977.9356    -5113.459            0    1914.9642    19.907908    20.038332    20.651421    8238.2907    2116.6447    1064.8473    2563.4007   -478.99009    176.90235   -41.360005   -4747.8584 
36696000    71.720764   -5120.1638   -4981.8442   -5120.1638            0    2182.2329    19.884566    19.866667    20.831058    8229.1021    2387.8581    2951.4022    1207.4385   -47.438882     -159.696     1309.775   -4719.9479 
36697000    68.917524   -5110.6439   -4977.7307   -5110.6439            0      2583.63    19.930299    19.871746    20.767093    8224.8037    3758.7188    1672.0037    2320.1675   -292.23328    274.81304    606.00652   -4667.8234 
36698000    69.760009   -5111.3612   -4976.8231   -5111.3612            0    1971.8665    19.971161    19.927228    20.706529     8240.575    2042.1423    1836.0168    2037.4405    58.095892    1063.0942    -629.4285   -4739.8435 
36699000    71.023187   -5108.5279   -4971.5537   -5108.5279            0    2305.1302    19.927498    19.926741     20.72358    8229.1287    1974.5424    2527.2108    2413.6375   -24.519718   -129.92885   -483.78984   -4694.9072 
36700000    66.184536   -5107.5702   -4979.9277   -5107.5702            0    2303.2384    19.964311    19.950377    20.594708    8202.7802    2086.5914    2165.1737    2657.9501    225.83297    1070.2801   -702.86046   -4704.3933 
36701000    70.593173   -5116.8352   -4980.6904   -5116.8352            0    2139.5857    19.927535    19.937671    20.732347    8237.1407    2594.5522    1714.9271    2109.2779     85.56532   -308.37319    1103.8509   -4723.6614 
36702000    68.985888   -5112.9683   -4979.9232   -5112.9683            0    1478.2907     19.91338    20.021119    20.667722     8239.976    2676.9474    158.40846    1599.5163   -136.35907   -126.58892   -244.21696   -4802.2747 
36703000    69.600055   -5122.6521   -4988.4226   -5122.6521            0    1992.4426    19.924095    19.890662    20.846953    8261.7192    1655.2058    2412.6217    1909.5001   -30.805702    601.97585    -303.0304   -4748.3558 
36704000    67.876118     -5117.59   -4986.6852     -5117.59            0    1731.1433    20.011685    19.904637    20.673509     8234.782    1873.9607    1051.0742    2268.3949    158.58786    700.75779    421.91635   -4778.7821 
36705000    67.458243   -5119.0728    -4988.974   -5119.0728            0    2288.2368     20.02067    19.879782    20.616186    8205.3772    2075.4723    2345.6359    2443.6023   -236.97738   -223.09564   -175.12974   -4715.1475 
36706000    68.290245   -5118.6499   -4986.9465   -5118.6499            0    1931.0286    20.010998    19.982573    20.515031    8203.3707     1627.984    1366.9921    2798.1096   -89.564441    852.74666    1265.4536   -4755.9225 
36707000    71.272202   -5117.4777   -4980.0233   -5117.4777            0    1519.8196     20.01566    19.934095     20.63711    8234.0847    1448.3784     1239.322    1871.7585   -225.03306    -438.9992     75.02021   -4797.5147 
36708000    69.083153   -5107.9044   -4974.6718   -5107.9044            0    2074.1446    19.925405     19.89314     20.77939     8236.511    1821.4781    2144.3841    2256.5717   -342.10465   -212.52695     19.38967   -4725.5233 
36709000    69.769623   -5115.1772   -4980.6206   -5115.1772            0    2368.1332    19.935107    19.922527    20.780155    8252.9986    2731.8278    1695.5607     2677.011   -362.21599    833.40636   -432.65091   -4695.5885 
36710000     69.04837   -5102.0109   -4968.8453   -5102.0109            0    2228.2762    19.870691     19.96224    20.681371    8203.5449    2375.4417    2466.7245    1842.6624     -168.271   -366.41849   -672.28445   -4702.2537 
36711000    70.814595   -5111.4653   -4974.8934   -5111.4653            0    2186.3902    19.918313    19.901139    20.635723    8179.9414    1990.8702    2467.8507    2100.4496   -280.29124     512.1935   -526.20237   -4714.0657 
36712000    69.610699   -5114.7973   -4980.5472   -5114.7973            0    1936.2323     19.95697    19.978309    20.665164    8239.3357    2337.6115    1257.3475     2213.738    182.54001    442.55085   -325.70341   -4747.8852 
36713000    73.095955   -5113.4192   -4972.4475   -5113.4192            0    1967.4147    19.924941    19.867292    20.855812    8255.8692     2614.519    1309.6599    1978.0653    122.44909    189.07191   -441.96987   -4735.5641 
36714000    71.258066   -5113.7063   -4976.2791   -5113.7063            0    1889.0547    20.030852    19.935364    20.619477    8233.8174    811.27703    2027.9741    2827.9131    270.88789    329.02355    587.06812   -4749.4381 
36715000    64.654372   -5115.4006   -4990.7092   -5115.4006            0    1474.6512     19.88796    19.925461    20.697423     8201.908    3032.7048    397.28734    993.96141    114.20659   -128.94392    199.74807   -4814.3167 
36716000    67.730407   -5113.1945   -4982.5707   -5113.1945            0     2193.946     19.89791    19.925063     20.70295    8208.0388    2674.4326    1589.3536    2318.0516   -274.42099    724.36995   -527.79632   -4719.9426 
36717000    69.144364   -5123.2941   -4989.9434   -5123.2941            0     2290.092    19.940364    19.912536    20.646384    8197.9193    1350.2705    2924.9231    2595.0825   -7.4363587    731.45506   -322.43813    -4716.144 
36718000    72.132863   -5112.0014   -4972.8871   -5112.0014            0    1082.1719     19.99851    19.885853    20.738993    8247.6365    1545.5957    1200.7811    500.13874    55.607201   -325.07937    310.54058   -4842.7199 
36719000    69.624422   -5110.5921   -4976.3155   -5110.5921            0    2784.4921     19.86853    19.838544    20.882178    8230.9755    2106.7718    3678.1904    2568.5141   -169.52418    46.491384     607.1563   -4642.0642 
36720000    67.355119    -5117.516    -4987.616    -5117.516            0    1960.2988    19.921546     19.92567      20.6847    8210.7948    1352.8462    2159.7351    2368.3151   -165.41338   -95.327369    -33.41618    -4752.878 
36721000    67.145433   -5110.2469   -4980.7513   -5110.2469            0    2165.8833    19.960649    19.891484    20.729026     8230.396    1526.5186    3207.9515    1763.1799   -5.7504744   -129.38156    251.19609   -4720.7762 
36722000    67.191754   -5114.8341   -4985.2492   -5114.8341            0    2216.9952    19.906713     19.86906    20.781936    8219.8309    2975.9549    2205.1612    1469.8695    304.55406    1120.3049    806.06164   -4719.4807 
36723000    68.223795   -5118.3451   -4986.7697   -5118.3451            0    2012.2055    19.944734    19.943972    20.805812    8276.0781    1692.7347     1940.706    2403.1757    28.501053   -365.55879   -768.45356   -4743.9003 
36724000    67.173216   -5108.1833   -4978.6341   -5108.1833            0    2269.3052     19.96717     19.85195      20.7677    8232.0521     1950.624    2533.6244    2323.6671   -247.46507   -586.74324   -115.43242   -4706.1903 
36725000    68.461031   -5116.9522   -4984.9194   -5116.9522            0    2188.9397    19.894685    19.950939     20.70291    8217.3502    1615.6423    2919.0105    2032.1661    64.483743    235.24018   -394.19545   -4722.5933 
36726000    71.562191   -5116.7243   -4978.7106   -5116.7243            0    1983.2027    19.869366    19.932094    20.762471     8222.729     2724.105    1735.0074    1490.4956   -305.11444    201.86876   -744.09693   -4740.8848 
36727000    75.546691   -5106.6501    -4960.952   -5106.6501            0    2476.6318    19.956962    19.949616    20.584032    8195.1969     1410.109    3004.8539    3014.9325   -251.48011   -306.78189    164.69089   -4664.9486 
36728000    74.343522   -5116.4652   -4973.0875   -5116.4652            0    1717.4833    19.969739     19.92526    20.754921    8258.4293    1356.3979    2571.9171    1224.1349    -467.2877    189.54445   -149.50232   -4766.2325 
36729000    70.337472   -5108.6262   -4972.9745   -5108.6262            0    2315.6723    19.912683    19.817944    20.856976    8230.7558    2151.3116    3016.8961    1778.8091   -123.38389    131.07713    388.30588   -4695.0078 
36730000    73.912198   -5111.8876   -4969.3417   -5111.8876            0    2067.7734    19.959445     19.96464    20.678865    8240.1787    2883.8464    1068.8144    2250.6594    18.976772    354.55187    105.32112    -4720.848 
36731000    70.901247   -5110.0683   -4973.3293   -5110.0683            0    2594.6086    19.961756    19.922558    20.667425    8219.2128    2217.3975    2596.6778    2969.7505   -66.258488    485.44846   -81.904121   -4662.3167 
36732000    70.995237   -5117.1282   -4980.2079   -5117.1282            0    808.34079    19.930641    20.055382    20.680207    8266.2224    960.72883    196.92517    1267.3684   -134.99558    727.15385   -305.72692   -4882.7589 
36733000    68.877358   -5115.8736   -4983.0378   -5115.8736            0    2585.0207    19.999265    19.879371    20.644932    8207.8641    2414.1622    2864.8693    2476.0306    183.21414   -39.094332    30.942646   -4673.6024 
36734000    71.073211   -5112.2032   -4975.1325   -5112.2032            0    2080.0267    19.882355    19.933522    20.741103     8220.225    2402.6367    2005.7003    1831.7431   -97.238968   -264.82551    412.97365   -4725.7716 
36735000    65.171651   -5112.4512   -4986.7622   -5112.4512            0    2846.8069    19.912178    19.952632    20.591971    8181.1972    3300.9662    1916.6371    3322.8174   -221.54557    891.14123   -141.28797   -4647.0972 
36736000    68.664718   -5117.4038   -4984.9782   -5117.4038            0     2195.528    19.941755    19.875859    20.734209    8218.2012    2129.4333     2603.251    1853.8998   -450.82061     9.081378    450.00048   -4721.8353 
36737000    71.254856    -5116.703    -4979.282    -5116.703            0    1902.8154    19.945503     19.86003    20.754531    8221.2493    2720.7324    1236.7539    1750.9598   -131.21765   -196.66719    391.59426   -4751.1373 
36738000     71.40691   -5113.2659   -4975.5516   -5113.2659            0    1920.8203    19.922444      19.9676    20.639155    8210.3259    1640.9707    2088.7283    2032.7617    132.68173    106.08948    517.26381   -4745.5542 
36739000    69.525183   -5111.5021    -4977.417   -5111.5021            0    2502.9078    19.824942    19.875994    20.828023    8207.0832    3778.4993    1900.4901    1829.7341    96.922945   -152.47689    207.11778   -4677.8392 
36740000    69.416941   -5109.9792   -4976.1028   -5109.9792            0    1548.2663    19.997467    19.955387    20.673932    8250.0813    700.24442    1850.8469    2093.7077   -95.956987    225.01138     367.5021    -4789.817 
36741000    67.367468   -5113.9169   -4983.9931   -5113.9169            0    2752.5502    19.928215    19.906392    20.745048    8229.5368    2248.5537    2978.5688     3030.528    343.79771   -688.43788    288.79269   -4653.6338 
36742000    72.419994    -5120.257   -4980.5889    -5120.257            0    2216.6816    19.788461    20.049741    20.716545    8219.3622    3029.0983    1650.8506    1970.0957   -153.49234    753.18141   -465.84115   -4714.8732 
36743000    69.776119   -5105.9281    -4971.359   -5105.9281            0    3501.9546    19.875789    19.908504    20.639579    8167.0239    3984.6173    3136.3242    3384.9223   -112.94655     989.5927    125.30265   -4554.2494 
36744000    74.281158   -5117.0958   -4973.8383   -5117.0958            0    1890.3526     20.03526    19.859592    20.687627    8231.4431    1123.7377    2045.5419    2501.7782   -44.245098      901.718   -193.10444   -4746.9069 
36745000    74.558355   -5112.0077   -4968.2157   -5112.0077            0    3043.1131    19.955727    19.859035      20.7999    8243.0311    2634.5197    3541.2241    2953.5956    12.252659    288.43218     419.7431   -4602.3843 
36746000    70.367571   -5110.0972   -4974.3874   -5110.0972            0     984.6003    19.846821    20.022451    20.795825    8263.8863    1336.6409    691.04273    926.11725     -131.371    172.05941    49.910675   -4855.7231 
36747000    70.491191    -5118.006   -4982.0578    -5118.006            0    1666.9111    19.899787    19.967112    20.744103     8242.488    1726.8762    1456.8931    1816.9638    156.69406   -388.34773   -62.361963   -4781.6813 
36748000    72.951478   -5112.4312   -4971.7382   -5112.4312            0    1934.1872    19.985388    19.911812    20.590539    8193.9079    1462.7303    1723.1906    2616.6407   -12.863649    334.80817    448.34009   -4740.6033 
36749000    68.822976   -5118.2251   -4985.4942   -5118.2251            0    1621.4309    19.984357    19.907638    20.780674    8267.4114    1141.1822    2374.6492    1348.4612   -214.00324    577.18633   -323.06653   -4789.9955 
36750000    70.981133   -5101.5076   -4964.6146   -5101.5076            0    2075.6919    19.904581    19.987486    20.638443    8210.8502    1641.4648    1982.1477    2603.4632    229.98332    509.79556    -127.2601    -4716.057 
Loop time of 365.421 on 64 procs for 250000 steps with 972 atoms

Performance: 118.220 ns/day, 0.203 hours/ns, 684.142 timesteps/s
195.2% CPU use with 32 MPI tasks x 2 OpenMP threads

MPI task timing breakdown:
Section |  min time  |  avg time  |  max time  |%varavg| %total
---------------------------------------------------------------
Pair    | 26.613     | 34.299     | 43.841     |  72.7 |  9.39
Bond    | 0.87875    | 1.2327     | 1.5784     |  13.3 |  0.34
Kspace  | 160.45     | 174.07     | 183.72     |  39.5 | 47.64
Neigh   | 0.12653    | 0.13868    | 0.14602    |   1.6 |  0.04
Comm    | 61.107     | 65.04      | 70.656     |  31.2 | 17.80
Output  | 0.49981    | 0.5002     | 0.50174    |   0.0 |  0.14
Modify  | 70.536     | 73.977     | 77.12      |  15.1 | 20.24
Other   |            | 16.16      |            |       |  4.42

Nlocal:        30.3750 ave          37 max          23 min
Histogram: 2 1 6 1 0 10 2 7 2 1
Nghost:        2652.72 ave        2676 max        2629 min
Histogram: 3 1 3 5 7 1 2 4 5 1
Neighs:        9598.31 ave       12010 max        6629 min
Histogram: 1 3 2 4 4 4 3 5 3 3

Total # of neighbors = 307146
Ave neighs/atom = 315.99383
Ave special neighs/atom = 2.0000000
Neighbor list builds = 391
Dangerous builds = 0

unfix		3
unfix		2
unfix		1

write_data	data.final.${pid}
write_data	data.final.1
System init for write_data ...
PPPM initialization ...
  extracting TIP4P info from pair style
  using 12-bit tables for long-range coulomb (../kspace.cpp:340)
  G vector (1/distance) = 0.37156975
  grid = 24 24 24
  stencil order = 5
  estimated absolute RMS force accuracy = 0.0035878175
  estimated relative force accuracy = 1.0804606e-05
  using double precision FFTW3
  3d grid and FFT values/proc = 3211 432
Last active /omp style is kspace_style pppm/tip4p/omp
WARNING: Not all mixed pair coeffs generated from mixing. Use write_data with 'pair ij' option to store all pair coeffs. (../write_data.cpp:312)

write_restart   restart.lmp.${pid}
write_restart   restart.lmp.1
System init for write_restart ...
PPPM initialization ...
  extracting TIP4P info from pair style
  using 12-bit tables for long-range coulomb (../kspace.cpp:340)
  G vector (1/distance) = 0.37156975
  grid = 24 24 24
  stencil order = 5
  estimated absolute RMS force accuracy = 0.0035878175
  estimated relative force accuracy = 1.0804606e-05
  using double precision FFTW3
  3d grid and FFT values/proc = 3211 432
Last active /omp style is kspace_style pppm/tip4p/omp
Total wall time: 0:06:05
