LAMMPS (30 Jul 2021)
Processor partition = 1
  using 4 OpenMP thread(s) per MPI task
using multi-threaded neighbor list subroutines
variable        pid world 0 1
variable        phase world IceVI IceV

shell cd ${phase}
shell cd IceV
include Restart.lmp
echo both
log log.lammps
#include		in.partitions
include		in.temp
variable        temperature equal 150.77
variable	tempDamp equal 100.0
include		in.pressure
variable        pressure equal 8346.9
variable        pressureDamp equal 1000.0 # This is 1 ps
include		in.seed
variable        seed equal 745823

units		real
atom_style	full
read_restart    restart.lmp.${pid}
read_restart    restart.lmp.1
Reading restart file ...
  restart file = 30 Jul 2021, LAMMPS = 30 Jul 2021
  restoring atom style full from restart
  triclinic box = (-3.0342780 -0.12335623 -0.033652717) to (14.644277 22.703355 19.263651) with tilt (-0.37928031 -6.4568507 0.30659946)
  2 by 4 by 2 MPI processor grid
  restoring pair style lj/cut/tip4p/long/omp from restart
  restoring bond style harmonic/omp from restart
  restoring angle style harmonic/omp from restart
  1008 atoms
  672 bonds
  336 angles
Finding 1-2 1-3 1-4 neighbors ...
  special bond factors lj:    0        0        0       
  special bond factors coul:  0        0        0       
     2 = max # of 1-2 neighbors
     1 = max # of 1-3 neighbors
     1 = max # of 1-4 neighbors
     2 = max # of special neighbors
  special bonds CPU = 0.001 seconds
  read_restart CPU = 0.006 seconds

include 	in.setup
variable	out_freq equal 1000
variable	out_freq2 equal 10000
variable	out_freq3 equal 1000

timestep	2.0

neigh_modify    delay 7 every 1

include		in.tip4p
# This is TIP4P/Ice

# create groups ###
group ox type 2
336 atoms in group ox
group hy type 1
672 atoms in group hy

# set charges - beside manually ###
set group ox charge -1.1794
Setting atom values ...
  336 settings made for charge
set group hy charge 0.5897
Setting atom values ...
  672 settings made for charge

# ### TIP3P Potential Parameters ###
pair_style lj/cut/tip4p/long/omp 2 1 1 1 0.1577 8.5
pair_coeff 1 1*2 0.000 0.000
pair_coeff 2 2 0.21084 3.1668
bond_style  harmonic
bond_coeff  1 450 0.9572
angle_style harmonic
angle_coeff 1 55 104.52
kspace_style pppm/tip4p/omp 1.0e-5
pair_modify tail yes

thermo          ${out_freq}
thermo          1000
thermo_style    custom step temp pe etotal epair emol press lx ly lz vol pxx pyy pzz pxy pxz pyz enthalpy

restart 	${out_freq3} restart.lmp.${pid} restart2.lmp.${pid}
restart 	1000 restart.lmp.${pid} restart2.lmp.${pid}
restart 	1000 restart.lmp.1 restart2.lmp.${pid}
restart 	1000 restart.lmp.1 restart2.lmp.1


include         in.dump
dump            myDump all atom ${out_freq2} dump.water.${pid}
dump            myDump all atom 10000 dump.water.${pid}
dump            myDump all atom 10000 dump.water.1
dump            myDump2 all dcd ${out_freq2} dump.dcd
dump            myDump2 all dcd 10000 dump.dcd
dump_modify     myDump append yes
dump_modify     myDump2 append yes


variable natoms 	equal  "count(all)"                        # NUMBER ATOMS
variable H      	equal  "enthalpy/v_natoms"                 # ENTHALPY-per-atom
variable Vol      	equal  "vol/v_natoms"                 # volume-per-atom
fix AVG all 		ave/time ${out_freq} 1 ${out_freq} v_Vol v_H file vol_enthalpy.dat
fix AVG all 		ave/time 1000 1 ${out_freq} v_Vol v_H file vol_enthalpy.dat
fix AVG all 		ave/time 1000 1 1000 v_Vol v_H file vol_enthalpy.dat



fix 		1 all shake 1e-6 200 0 b 1 a 1
Finding SHAKE clusters ...
       0 = # of size 2 clusters
       0 = # of size 3 clusters
       0 = # of size 4 clusters
     336 = # of frozen angles
  find clusters CPU = 0.000 seconds
fix             2 all nph tri ${pressure} ${pressure} ${pressureDamp}
fix             2 all nph tri 8346.9 ${pressure} ${pressureDamp}
fix             2 all nph tri 8346.9 8346.9 ${pressureDamp}
fix             2 all nph tri 8346.9 8346.9 1000
fix             3 all temp/csvr ${temperature} ${temperature} ${tempDamp} ${seed}
fix             3 all temp/csvr 150.77 ${temperature} ${tempDamp} ${seed}
fix             3 all temp/csvr 150.77 150.77 ${tempDamp} ${seed}
fix             3 all temp/csvr 150.77 150.77 100 ${seed}
fix             3 all temp/csvr 150.77 150.77 100 745823


run             250000
PPPM initialization ...
  extracting TIP4P info from pair style
  using 12-bit tables for long-range coulomb (../kspace.cpp:340)
  G vector (1/distance) = 0.38037226
  grid = 24 27 32
  stencil order = 5
  estimated absolute RMS force accuracy = 0.0023262018
  estimated relative force accuracy = 7.0052876e-06
  using double precision FFTW3
  3d grid and FFT values/proc = 7875 1344
Last active /omp style is kspace_style pppm/tip4p/omp
Neighbor list info ...
  update every 1 steps, delay 7 steps, check yes
  max neighbors/atom: 2000, page size: 100000
  master list distance cutoff = 10.8154
  ghost atom cutoff = 10.8154
  binsize = 5.4077, bins = 5 5 4
  1 neighbor lists, perpetual/occasional/extra = 1 0 0
  (1) pair lj/cut/tip4p/long/omp, perpetual
      attributes: half, newton on, omp
      pair build: half/bin/newton/tri/omp
      stencil: half/bin/3d/tri
      bin: standard
Setting up Verlet run ...
  Unit style    : real
  Current step  : 22500000
  Time step     : 2
Per MPI rank memory allocation (min/avg/max) = 12.45 | 12.47 | 12.48 Mbytes
Step Temp PotEng TotEng E_pair E_mol Press Lx Ly Lz Volume Pxx Pyy Pzz Pxy Pxz Pyz Enthalpy 
22500000    161.73444   -5063.3526   -4739.8638   -5063.3526            0     7574.163    17.678555    22.826711    19.297303     7787.297    9511.9604    6768.4258    6442.1027    1079.1016   -321.45378   -443.35896   -3879.6681 
22501000    148.01572   -5078.5116   -4782.4619   -5078.5116            0    6978.6323    17.889698    22.680761    19.276578    7821.5096    7281.9646    6719.5042    6934.4282   -834.13055   -46.259277   -149.80963   -3986.4184 
22502000    151.06161   -5077.3035   -4775.1616   -5077.3035            0    7406.7574    17.808225    22.751778     19.30952    7823.6148    8591.4043    7303.9687    6324.8992   -705.81536   -105.00737    562.33756   -3930.0551 
22503000    149.68215   -5075.7976   -4776.4148   -5075.7976            0    7975.7984    17.809698     22.91866    19.110118     7800.261    8665.7153    7464.4246    7797.2553   -57.877682   -768.10374    522.28055   -3869.0975 
22504000    146.66204   -5090.5466   -4797.2044   -5090.5466            0    7657.8661    17.944576    22.579474    19.273213    7809.1027    8478.4146    6834.9185    7660.2654   -384.45579   -1531.2665   -950.52366   -3925.0672 
22505000    145.39666   -5066.6137   -4775.8024   -5066.6137            0    7538.8409    17.771324     22.72209     19.35615    7816.0447    7450.9323    8280.5098    6885.0805   -12.618582     233.3748    348.92252   -3916.4575 
22506000    155.54488   -5067.1638   -4756.0548   -5067.1638            0    9332.6173    17.615414    22.862902     19.25034    7752.8716    10578.843    9373.5101    8045.4985    145.49478   -171.60302    829.22003   -3700.8375 
22507000    152.81832   -5078.2821   -4772.6266   -5078.2821            0    9441.6846    17.915504    22.483197     19.26369    7759.3718     9789.445    9445.0934    9090.5154    397.81465   -171.23017    480.58251   -3704.1822 
22508000     160.1274   -5086.4865    -4766.212   -5086.4865            0    9975.8707    17.811798    22.606474    19.240621    7747.4659    10352.882     10305.16    9269.5699    1171.9656     488.0156    952.94032   -3639.0499 
22509000    151.57477   -5055.4971   -4752.3288   -5055.4971            0    9175.2309    17.756143    22.912408    19.142423    7787.8267    8764.4549    8788.5236    9972.7143    629.45383   -3.3289585   -1404.0714   -3710.2294 
22510000    152.55297   -5076.2598    -4771.135   -5076.2598            0    6554.7906    18.002605    22.573295    19.337298    7858.2545    5588.0726    7509.9043    6566.3951    870.00123    530.51775   -713.59267    -4019.926 
22511000    153.36264   -5084.2771   -4777.5328   -5084.2771            0    7713.2619    17.928184    22.628139    19.197613    7788.1156    6721.9939    8590.0702    7827.7215    -852.6858   -290.59991   -1151.7592   -3901.4476 
22512000     158.1352   -5061.2779    -4744.988   -5061.2779            0    8807.0278     17.86502    23.083865    18.896541     7792.815    6960.6369    7633.2341    11827.212    27.941756   -167.61235   -40.201366   -3744.0674 
22513000    154.38691   -5057.5259    -4748.733   -5057.5259            0    8547.4379    17.867563    22.699124    19.203402    7788.4776    6945.7672    9355.3777    9341.1688   -1131.3629     1380.979    572.61301   -3777.8556 
22514000    150.11582   -5071.4069   -4771.1568   -5071.4069            0    9508.8296    17.834908    22.530474    19.270936    7743.6199    8807.4785    10648.087    9070.9232   -1182.6621    437.55994    555.04213   -3697.2985 
22515000    157.99859    -5086.977   -4770.9603    -5086.977            0    7569.7743    17.740758    22.938018    19.114064    7778.2357    7850.2472    7466.4573    7392.6183   0.98688159     123.0005    184.04757   -3912.2633 
22516000    147.29479   -5058.3767    -4763.769   -5058.3767            0    9243.3086     17.83251    22.655293    19.244471    7774.7805    9768.9138    9373.3146    8587.6975    745.16771    -827.2697    1276.3896   -3715.6961 
22517000    150.20725   -5068.0975   -4767.6645   -5068.0975            0    8374.7189    17.843192    22.520576     19.36682    7782.3428    8376.8586    9006.9648    7740.3334    276.24802    -713.9073    968.72891   -3817.1549 
22518000    148.89904   -5081.3109   -4783.4944   -5081.3109            0    8649.0472    17.652555    22.943501    19.165708    7762.3304    9084.5288    8648.9704    8213.6425   -625.92115     -11.6519    755.99573   -3804.3736 
22519000    154.67014   -5080.4584    -4771.099   -5080.4584            0    8460.4427    17.814204    22.806653    19.117139    7766.9569    9748.1216    8198.2597    7434.9468    1119.7162   -519.98452    1828.3111   -3812.7585 
22520000    156.29067   -5080.2674   -4767.6668   -5080.2674            0     9354.645    17.956757    22.684441    19.022476    7748.5966    8512.2874    9562.2605    9989.3871   -1826.4411    21.517935    592.30336    -3710.542 
22521000    148.15276     -5086.86   -4790.5362     -5086.86            0    7242.8564    17.995238    22.636275    19.152724    7801.7698    5646.2944    8253.5327    7828.7423   -323.75662   -150.27708    697.00391   -3966.4381 
22522000    145.99421   -5061.0614    -4769.055   -5061.0614            0    8497.7665    17.790496    22.952583    19.059489    7782.7104    9087.5184    7727.4478    8678.3332    437.18901    587.57656   -389.21926   -3804.5343 
22523000    151.18421   -5091.4875   -4789.1004   -5091.4875            0    7643.8449    17.961267    22.525621    19.280145    7800.5286    6184.6336    8527.2301     8219.671    1056.7065    138.45422   -239.13496   -3919.5159 
22524000    159.18635   -5069.0631   -4750.6707   -5069.0631            0     6953.761    17.987484    22.649942    19.251125    7843.2063    6310.0862    7036.6442    7514.5526   -223.21409    472.98189   -764.84044    -3955.264 
22525000    157.71164   -5062.7828     -4747.34   -5062.7828            0    10006.853    17.737677    22.795328    19.128411    7734.3087    12365.084    9495.4622    8160.0134   -1353.1263    1219.6795   -1849.1478   -3618.5974 
22526000    154.01084   -5071.8675   -4763.8268   -5071.8675            0    8093.7649    17.843085    22.767355    19.230121    7812.0416     7718.973     8605.174    7957.1476    281.92742   -214.72407    340.96536   -3841.6992 
22527000    154.45187   -5066.0179   -4757.0951   -5066.0179            0    7766.1609    17.872793     22.77888    19.206237    7819.2856    7108.8249     8507.179    7682.4788    491.97287    354.22656   -565.16811   -3871.4712 
22528000    148.79154   -5081.3952   -4783.7938   -5081.3952            0    7383.7959    18.017978    22.657634    19.175217    7828.1813    6938.7181    7858.7689    7353.9007   -399.94363   -6.5753822   -331.36744   -3940.8154 
22529000    154.53487   -5079.8341   -4770.7452   -5079.8341            0    8214.0697    17.914807    22.760987    19.088544    7783.5196    8583.5673    8124.6654    7933.9763   -523.30168    348.87491    143.61944    -3838.328 
22530000    155.01622   -5068.2325   -4758.1809   -5068.2325            0    8772.9923    17.897601    22.877388     18.99596    7777.9029    8081.0793    8638.5364    9599.3611   -219.00261    259.50367   -1636.5074   -3763.0364 
22531000    148.72737   -5048.0339   -4750.5608   -5048.0339            0    8981.3618    18.027631    22.436965    19.222024    7775.0263    8236.4618    9576.6704    9130.9533   -351.43402    21.374796   -612.68405   -3732.1572 
22532000    154.37859   -5073.1644   -4764.3882   -5073.1644            0     8645.188    17.862345    22.805981    19.121829    7789.6271    8821.6389    7879.6452    9234.2798   -378.94949   -439.69057   -1021.0937   -3782.2627 
22533000     151.4745   -5079.9881   -4777.0204   -5079.9881            0    7622.7009    17.826562    22.905685    19.115293    7805.3404    7237.1623    7179.6633    8451.2771   -890.96223   -491.46479   -601.72191   -3909.3064 
22534000    147.00702   -5080.9506   -4786.9184   -5080.9506            0    7971.5248    17.932866    22.597783    19.215118    7786.7924    8227.8051    8049.7598    7637.0095    1215.9343   -1118.7184    172.67622    -3881.653 
22535000    149.90293   -5087.9566   -4788.1322   -5087.9566            0    7769.4945    17.865538    22.870057    19.060257    7787.7516    7630.6864    7059.6601     8618.137     -498.644   -894.45546    864.74232   -3905.7013 
22536000    147.76844   -5080.7509   -4785.1958   -5080.7509            0     8854.867    17.856645    22.848659    19.021805    7760.9037    8355.6189    7629.2423     10579.74   -90.733064   -1099.5818   -672.98614   -3782.9593 
22537000    156.51206   -5078.9609   -4765.9174   -5078.9609            0    9643.2057    17.942039    22.598836    19.091936    7741.1919    8315.0273    9232.9298     11381.66   -142.82836   -1157.0784    49.402919   -3677.2251 
22538000    152.67082   -5082.4534   -4777.0929   -5082.4534            0    8811.9251    17.907105    22.685824    19.142466    7776.3863    9720.3157    8012.2271    8703.2324   -301.04612   -649.88377    816.59825    -3777.727 
22539000    148.88935   -5078.2359   -4780.4388   -5078.2359            0    7960.4595    17.961491    22.719009    19.100959    7794.4763    8340.9348    7576.5684    7963.8754    501.03318   -777.39335    706.91191    -3875.538 
22540000     152.7445   -5075.4854   -4769.9775   -5075.4854            0      8293.71    17.953489    22.645343    19.148745    7785.1696    6370.2555    10367.497    8143.3773    206.31791    1792.4386   -82.916016   -3828.3203 
22541000    153.56578   -5076.5226   -4769.3721   -5076.5226            0    8747.6813    17.749559    22.868947     19.12487    7763.0474    9468.8067    7696.0249    9078.2121    94.314816    874.77123    200.85656   -3778.9938 
22542000    153.67224   -5075.1223   -4767.7588   -5075.1223            0    9932.7383    17.847429    22.604513    19.209468    7749.7221    10692.474    9391.1334    9714.6072    989.36737    247.61108    870.52695   -3645.1434 
22543000    152.06437   -5062.0753   -4757.9277   -5062.0753            0    7789.8116      17.9587    22.492085    19.336655     7810.628    8768.2882     8543.066    6058.0806   -185.07778    1083.2209    111.25254   -3870.5903 
22544000    147.67585   -5085.6779    -4790.308   -5085.6779            0    7963.8402    17.783475    22.845617    19.182471    7793.3477    8509.9792     7842.766    7538.7754   -945.77744    584.05015    1248.3012    -3885.154 
22545000    145.74979   -5082.8267   -4791.3091   -5082.8267            0    9542.0284    17.881779    22.609644    19.168785    7749.9522    9532.9507    8901.1637    10191.971    197.58065     290.4171    1497.2933   -3712.8204 
22546000    148.70643   -5090.7118   -4793.2806   -5090.7118            0    6807.1807     18.05297    22.588739    19.209778    7833.6288     5997.084    7298.1504    7126.3077   -112.68321    358.67964    1990.2438   -4015.5913 
22547000    150.12639   -5071.0558   -4770.7845   -5071.0558            0    9015.8673    17.863962    22.862618     18.99202    7756.6625    8810.8862    9009.3147     9227.401    1329.2735    768.95823   -1180.1126   -3750.8829 
22548000    154.38458   -5094.9279   -4786.1397   -5094.9279            0    8438.8289     17.98706    22.707876    19.074212    7790.8226     7363.534    8856.4032    9096.5496   -514.24367    211.33345     197.5313   -3827.3102 
22549000    153.65921   -5072.4742   -4765.1367   -5072.4742            0    7231.6815    17.943948    22.751147    19.146084    7816.3007    6610.8024    6676.4613    8407.7807   -41.825677   -426.40012    101.88922   -3940.7776 
22550000    149.12825   -5084.6651   -4786.3902   -5084.6651            0     7806.121    17.745132    22.944277    19.100296    7776.6707    8382.8856    6896.0074    8139.4698   -764.97256   -572.90404   -582.83112   -3901.0608 
22551000    159.60299   -5050.9319   -4731.7062   -5050.9319            0    8913.9858    17.881267    22.694847    19.237424    7806.7894    7437.3234    9758.2529     9546.381    1024.1127    78.227212    1175.6893   -3716.8131 
22552000    149.19872   -5074.6687   -4776.2529   -5074.6687            0    9558.9195    17.800845    22.671225    19.141552    7724.8981    10167.513     9905.207    8604.0379   -886.46539   -443.58513     960.7385   -3699.3477 
22553000    149.18724   -5092.2994   -4793.9065   -5092.2994            0    7652.6669    17.756782    22.839955    19.144526    7764.3326    8807.5089    7081.4476    7069.0441   -71.863102   -1476.0463    823.40427   -3927.3581 
22554000    154.29246   -5061.2583   -4752.6543   -5061.2583            0    7713.5626     17.84013    22.678374    19.309089    7812.1704    8495.5107    7020.3463    7624.8307    679.56895   -283.20649    472.94826   -3873.8289 
22555000    160.20701   -5081.7677   -4761.3339   -5081.7677            0     8620.916    17.842164      22.7285    19.192245    7782.9473    8798.0527    8157.4942    8907.2013    497.77263   -450.20473    165.94985   -3782.8055 
22556000     161.6348     -5063.37   -4740.0804     -5063.37            0    10163.514    17.828867    22.741222    19.090065    7740.0711    10665.849    9895.0052    9929.6872   -488.15323     131.8096   -97.082414   -3592.8128 
22557000    142.75129    -5081.707   -4796.1868    -5081.707            0    8135.7965    17.889582    22.764339    19.170984    7807.2776    9241.0608    7218.6314    7947.6974   -204.53244   -12.944059   -706.73155   -3869.8357 
22558000    150.53944   -5072.3989   -4771.3015   -5072.3989            0    8288.1442    17.981307    22.670838    19.102493    7787.1561    6029.7892    8782.4771    10052.166   -51.203934    482.36928   -668.22892   -3830.0361 
22559000    149.73815    -5072.857   -4773.3622    -5072.857            0     8346.646    17.824783    22.895541    19.103501    7796.2924    11220.211    6582.4291    7237.2982   -274.47502   -11.180639    1067.7334   -3824.3408 
22560000    148.86499   -5068.3427   -4770.5943   -5068.3427            0    9027.2558    17.920044    22.637577    19.163966    7774.1768    7366.2572    10351.309    9364.2013    1394.6102    372.11191     509.7407   -3747.0986 
22561000    155.18678   -5067.2287   -4756.8359   -5067.2287            0    8418.2747    17.855254    22.639331    19.281012    7793.9828    8169.6915    8768.9742    8316.1584    1917.5423    832.85675    1209.2058   -3799.9538 
22562000    166.41101   -5077.8944   -4745.0518   -5077.8944            0    8906.4685    17.785576    22.773567     19.22014     7784.945    10245.227    8301.9402     8172.238    203.28697    303.71274    126.00402    -3733.852 
22563000    156.29906   -5065.4196   -4752.8022   -5065.4196            0    8562.6013    17.787574    22.739499    19.216931    7772.8741    9864.1716    8142.5088    7681.1235   -384.29789   -286.07113    94.822539   -3782.1509 
22564000    148.80375   -5077.3232   -4779.6974   -5077.3232            0     7764.025    17.797939    22.670948    19.325621    7797.8137    9187.8042    7053.8672    7050.4036   -429.95815   -563.26992   -96.844415   -3896.7483 
22565000    141.80816   -5067.3577   -4783.7238   -5067.3577            0     8253.177    17.643927     22.78402    19.357112     7781.551    8767.7545     8072.668    7919.1086    340.30816    480.49897   -288.61559   -3847.1043 
22566000    152.27712   -5056.3291   -4751.7561   -5056.3291            0    7510.9982     17.77008    22.635881    19.424165    7813.2034    7473.7826     7636.805    7422.4069   -119.97306   -852.86855   -332.22121   -3895.8962 
22567000    150.06443   -5081.8986   -4781.7512   -5081.8986            0    7826.5573     17.81454    22.705313     19.22977    7778.1476    8568.3678    8210.5832    6700.7207     717.9269    -272.7867    1310.0084   -3893.9355 
22568000    148.32933   -5065.7109    -4769.034   -5065.7109            0    9538.0827    17.715816    22.979474    19.086376    7770.0663    8325.3114    9885.4547    10403.482    1220.1425   -410.89547    -912.9861   -3688.1932 
22569000    145.09805   -5084.5455   -4794.3315   -5084.5455            0    7821.7087    17.848953    22.668487    19.280111    7800.9018    8409.0966     7440.143    7615.8865   -144.49013   -437.65972    71.227407   -3904.4701 
22570000    146.36516   -5051.2569   -4758.5085   -5051.2569            0     9190.021    17.800738    22.595943     19.28319    7756.1709    10757.549    8842.6535    7969.8604   -817.22409   -1232.4575   -878.26897   -3718.9719 
22571000    151.47058   -5067.8937   -4764.9338   -5067.8937            0    8846.1675    17.726767    23.035815    19.048229    7778.3545    9618.9545    6910.8422    10008.706     474.2256    -705.4107   -1480.5489   -3761.4305 
22572000    162.57617   -5066.1273   -4740.9549   -5066.1273            0    9370.6343    17.898063    22.590975    19.245744    7781.7215     9337.497    9445.2022    9329.2036   -3.5697658    -392.6801   -728.34822   -3677.4963 
22573000     147.7971   -5092.1944    -4796.582   -5092.1944            0    6756.6545    17.850496    22.683708    19.285796    7809.1161    6733.5921    7138.0965    6398.2749   -653.99948    359.96775   -1884.3988   -4027.0805 
22574000     141.2322   -5078.5178   -4796.0359   -5078.5178            0    7509.9649    17.722842    22.938752     19.14269    7782.2667    7991.4825    6756.0843    7782.3278   -793.61305   -163.48999   -471.55202   -3943.6821 
22575000    148.56569   -5078.4271   -4781.2774   -5078.4271            0    7882.5431    17.794167    22.844834     19.18371    7798.2701    7647.8081    8654.1868    7345.6344    430.15527    476.51135   -449.88219   -3884.7975 
22576000    155.96488   -5080.4158   -4768.4668   -5080.4158            0    7248.5502    18.007307    22.518301    19.285606    7820.1967    5866.5089    8771.2969    7107.8449   -2.4053242    1053.9713    154.35504   -3941.7729 
22577000    145.60579    -5089.426   -4798.1964    -5089.426            0    8039.3521    17.924896    22.638107     19.16275    7775.9702    7315.1674    7880.5938    8922.2951   -1603.9507    58.532608    62.992475   -3886.4973 
22578000    159.48508   -5063.5781   -4744.5883   -5063.5781            0    8591.3584    17.881213    22.722039    19.130554    7772.6983     8405.448    8749.9582    8618.6691    243.21458    935.64505    216.53987   -3770.6991 
22579000    147.60474   -5077.7319   -4782.5042   -5077.7319            0    8769.7765    17.901351     22.62318    19.207738    7778.8552    9603.6592    9037.9036    7667.7667    1486.5834    858.74468    1136.6306   -3787.6026 
22580000    157.61238   -5068.2516   -4753.0074   -5068.2516            0    8207.6334    17.795077    22.765802    19.196079       7776.7    7900.1799    8271.6244    8451.0959     683.6069    389.93091   -1108.6973    -3822.137 
22581000     150.7938   -5072.2122    -4770.606   -5072.2122            0    8446.5422    17.910999    22.769212    19.113332    7794.7863    9991.9533    8033.3359    7314.3374   -1701.6328    76.385525   -642.18412   -3810.4118 
22582000    153.70946   -5099.5627   -4792.1248   -5099.5627            0     8279.609    17.906619    22.684186    19.146194    7777.1279    7572.9009    8637.1514    8628.7748   -1014.5197    307.06147   -150.81118   -3853.0396 
22583000    151.79858   -5060.8598   -4757.2439   -5060.8598            0    10476.542    17.647438     22.87727    19.115832    7717.5429    11792.804    8991.8192    10645.003   -1671.7335   -732.05429   -231.84171   -3578.0834 
22584000    151.81078   -5056.7439   -4753.1036   -5056.7439            0    7514.4678    17.840147    22.659865    19.290151     7798.146     7599.122     8256.211    6688.0704   -863.13891    -175.4437   -1415.6575   -3898.4985 
22585000    153.77898   -5087.3063   -4779.7294   -5087.3063            0    9013.3338    17.853967    22.713696    19.143686    7763.3311    9802.9516    8248.2858    8988.7639   -168.00982    110.13369   -311.21307   -3759.2377 
22586000    151.93882   -5083.1804    -4779.284   -5083.1804            0    7938.2059    17.705635    22.913677    19.142337    7766.0691    9230.1957    7793.4516    6790.9704   -1609.2162   -935.15473   -506.32283   -3880.2016 
22587000    147.74727    -5076.983   -4781.4702    -5076.983            0    7128.4848    17.780276    22.818363    19.228075    7801.1529    7317.5801    6540.5021    7527.3723   -515.17374   -942.62122   -920.47889   -3970.4496 
22588000     151.6228   -5077.4604    -4774.196   -5077.4604            0    7328.8663    17.841437    22.704385    19.285165    7812.0126    8233.7774     7439.687    6313.1345   -427.22115   -573.35043   -1302.8064   -3939.2169 
22589000    146.90013   -5092.0918   -4798.2734   -5092.0918            0    8812.1073    17.769616    22.828982    19.123833    7757.8168    10899.694    8277.4867     7259.141     135.0519   -852.88658    21.598305   -3801.2733 
22590000    154.67877   -5086.6515   -4777.2748   -5086.6515            0    8988.3862    17.807183    22.868676    19.042614    7754.6606    9163.2693    7981.9658    9819.9236    652.30514   -1390.7356    783.42071   -3760.7443 
22591000    154.67384   -5093.8634   -4784.4967   -5093.8634            0    8723.6211    17.947714    22.622778    19.161727    7780.1816    8926.4611    8092.3613     9152.041    1532.9409   -48.668559    1703.1861   -3794.6625 
22592000    154.72793   -5082.3646   -4772.8896   -5082.3646            0    10266.618     17.79019    22.584224    19.211745    7718.8495    8534.8551     11856.21     10408.79   -120.76799    1389.9099    -1144.836    -3617.161 
22593000    152.06074    -5064.144   -4760.0037    -5064.144            0    8813.4484    17.882476    22.717757    19.119586     7767.327    6971.8617     9585.923    9882.5605   -308.59549    638.42994   -1815.0633   -3761.6295 
22594000    152.14299   -5081.6716   -4777.3668   -5081.6716            0    8563.1994    17.869189     22.84867    19.071996    7786.8522    6541.1627    8624.1204    10524.315    -466.3239    709.01441    1118.0551   -3804.9021 
22595000    142.24771   -5086.6462   -4802.1332   -5086.6462            0    8641.9382     17.84778    22.757468    19.128492    7769.4246     8524.081    8946.3583    8455.3753   -573.04105    119.37912   -174.40989   -3822.9231 
22596000     150.9251   -5065.5817   -4763.7128   -5065.5817            0    8679.9785     17.87098    22.480388    19.345262    7771.8922    9156.6864    10001.296    6881.9535    1880.3852    251.77165     910.3229     -3779.88 
22597000    151.05223   -5076.8341   -4774.7109   -5076.8341            0    8169.8353    17.876365    22.726341    19.199764    7800.1797    5796.6717    9069.0428    9643.7916   -715.28886   -130.39311    652.32263   -3845.3299 
22598000    151.20433   -5077.8257   -4775.3983   -5077.8257            0    8221.1071    17.849019    22.756479    19.199294    7798.3849    8563.4475    8273.5529     7826.321   -794.64798    448.23518    1840.8749      -3840.4 
22599000    145.91981   -5073.3698   -4781.5121   -5073.3698            0    6827.5207    17.907377    22.652209    19.290445     7825.008    6729.6134    6372.0437     7380.905    945.95244   -1018.4774   -701.24273   -4002.3574 
22600000    152.57319   -5075.7327   -4770.5675   -5075.7327            0    9349.5234    17.957703    22.623709    19.068996     7747.158    8111.8964    10350.116    9586.5574   -677.52869    724.09172   -1581.0918   -3714.2176 
22601000    145.34378   -5087.3386   -4796.6331   -5087.3386            0    9527.7643    17.793515    22.799717    19.136005    7763.2301    9511.4369    9232.9255    9838.9305   -1338.3384    148.79206   -893.08327   -3717.9116 
22602000    153.68551   -5079.5367   -4772.1467   -5079.5367            0    9438.5231    17.919522    22.572977    19.194471    7764.1052    8314.3101     9932.054    10069.205    455.14947    858.42018    48.131615   -3703.4085 
22603000    149.37252   -5060.6068   -4761.8433   -5060.6068            0    7864.3968    17.839283    22.740228     19.20699    7791.6873    9359.8769    6303.6555     7929.658    46.939935   -454.36616    -967.5277   -3868.1823 
22604000    146.61491    -5057.676   -4764.4281    -5057.676            0    8584.3421    17.820145    22.682737    19.255109    7783.1013    9607.0178    8477.3683    7668.6403   -437.47924   -144.49908    364.33587   -3790.0319 
22605000    161.86551   -5068.6233   -4744.8723   -5068.6233            0    7781.0317    17.722586    22.864031    19.206191     7782.536    8371.7175    6840.6135    8130.7642    158.36022   -1344.1609    1753.5929   -3861.7228 
22606000    146.08059   -5087.5656   -4795.3864   -5087.5656            0    7521.8315    17.852366    22.728393    19.229242    7802.3723    7889.6128    8352.4204    6323.4613   -722.65926    951.00417   -1416.8566   -3939.4803 
22607000    155.08036     -5079.95   -4769.7701     -5079.95            0    8612.2754    17.835453    22.696362    19.190994    7768.5124    8333.9026    8597.3065    8905.6172    661.12299   -40.924297   -637.98416   -3794.0356 
22608000    153.25273   -5066.8524   -4760.3281   -5066.8524            0    8537.6508    17.715913     22.79623     19.19921    7753.7166    8644.9817    8734.7312    8233.2394    180.54887    317.72347   -28.725262   -3794.8905 
22609000    152.99127   -5086.2718   -4780.2704   -5086.2718            0    8068.6854    17.676413    22.834558    19.315563    7796.4001    9930.8966    6907.5818    7367.5779   -342.90249   -909.84292    -1054.035   -3862.8407 
22610000    150.83412   -5061.5676   -4759.8807   -5061.5676            0     8639.798     17.72396    22.895674    19.211996    7796.2665    10684.714    7597.4856    7637.1947   -586.10062    288.44547    166.15543   -3777.5309 
22611000    157.88389   -5066.2433    -4750.456   -5066.2433            0    8062.0004    17.872915    22.550225    19.312542    7783.6932    7887.6919    9475.2069    6823.1026    344.49004   -124.03105    573.91266   -3835.2804 
22612000    153.51331    -5078.212   -4771.1664    -5078.212            0    7131.6015    17.919129    22.792778    19.130416    7813.3735    7595.6728    6729.6387    7069.4929    773.71315   -288.02853   -265.65128   -3958.5201 
22613000    152.43821   -5092.5624   -4787.6672   -5092.5624            0    7907.2662    17.760676    22.912041    19.143841    7790.2669    9338.2373    7140.3876    7243.1738    1030.3309    88.192804    786.95427   -3889.2985 
22614000     148.0511   -5058.5985    -4762.478   -5058.5985            0    9072.6727    17.856883    22.757499    19.139465    7777.8576    7647.5158    9897.7045    9672.7979     1289.903    462.65359   -719.31774   -3733.3459 
22615000    151.22391   -5073.3368   -4770.8703   -5073.3368            0    8675.5799    17.979992     22.53925    19.219667    7788.8767    8377.9132    9308.9426    8339.8839    74.016782    1506.5277    1559.7838   -3785.3871 
22616000    139.97309    -5069.743   -4789.7795    -5069.743            0    8447.1155    17.907229    22.746951    19.117623     7787.274    8509.5205    7745.0066    9086.8194    752.59488   -809.21194    629.13321   -3830.4456 
22617000    147.28278   -5091.1612   -4796.5774   -5091.1612            0    7617.1783    17.799163    22.922176    19.124349    7802.6491    8229.9699    6928.2027    7693.3624   -78.903475     167.5676   -1715.5782    -3929.791 
22618000    150.28145   -5090.1105    -4789.529   -5090.1105            0     8262.059    17.883825    22.563264    19.281436    7780.3958     8525.934    8598.9607    7661.2822   -633.09754   -360.77736    284.05078   -3852.0407 
22619000    144.70567   -5078.4315   -4789.0022   -5078.4315            0    8190.6135    17.780537    22.852451     19.15604    7783.6518     9645.086    7246.9175    7679.8369    789.93187   -198.32108    1023.7845   -3859.2318 
22620000    150.38461   -5077.4455   -4776.6577   -5077.4455            0    8541.6231    17.732575    22.863377    19.211675    7788.9229    7485.3216    8554.0793    9585.4685    294.29159   -218.70967    975.48368   -3806.3852 
22621000    144.30142   -5073.1224   -4784.5017   -5073.1224            0    9085.8824    17.829136    22.583445    19.261396    7755.4724    8450.3404    9906.2326    8901.0742   -215.94791   -121.96533    7.1598938   -3756.8374 
22622000    156.65032   -5063.8238   -4750.5038   -5063.8238            0    9203.4296    17.780151    22.787641    19.134685    7752.7564    9083.0007     9544.767    8982.5211    683.60955    224.70244    807.05334   -3709.9088 
22623000     145.0022   -5062.5284    -4772.506   -5062.5284            0    8635.5592    17.780314    22.990315    19.039119    7782.7161    6878.2972    8812.6982    10215.682   -161.95874    233.08031    258.42871   -3792.3447 
22624000     155.7409   -5076.3352   -4764.8341   -5076.3352            0    8133.5736    18.108476    22.450149    19.173919    7794.9264    7685.0639    8686.9453    8028.7116   -686.24871   -166.33427    672.44596   -3840.2013 
22625000    160.15803   -5077.0669    -4756.731   -5077.0669            0    8998.3283    17.868665    22.709421     19.12479    7760.5918    11563.354    7721.4528    7710.1779   -92.634672   -1186.9968    824.98008   -3738.2978 
22626000    150.68795   -5075.5005    -4774.106   -5075.5005            0    9770.7242    17.645885    22.992346    19.028375     7720.198    9467.0773    9488.0607    10357.034    52.099489   -507.84062    1062.9031   -3674.0087 
22627000      149.077   -5080.1058   -4781.9334   -5080.1058            0    9164.2142    17.807713    22.706713    19.236225    7778.2566    8760.6789    9108.4692    9623.4945     -895.525    132.27873    -70.03117   -3742.3642 
22628000    145.38423   -5074.5769   -4783.7904   -5074.5769            0    8441.7234    17.932605    22.480039    19.304358    7782.0817    8714.5214    9018.6571    7591.9916   -442.73694   -986.20841    -872.3606   -3825.7082 
22629000    160.79508   -5069.1124   -4747.5024   -5069.1124            0    7855.1802     18.01116    22.795014    18.976618    7791.1283    7120.0212    7368.5793    9076.9402    323.64733    167.17958   -243.51659   -3854.9527 
22630000    146.74469   -5089.8861   -4796.3785   -5089.8861            0    8705.4971    17.970232    22.758826    18.999633    7770.4961    8634.7108    8213.1817    9268.5988    302.55724    558.54787    985.17364   -3809.8306 
22631000    139.51783    -5078.107   -4799.0541    -5078.107            0    8314.1861    17.963629     22.65686    19.103736    7775.2094    6757.4793    9119.2535    9065.8254    1165.3527    141.71854   -369.81256   -3856.2798 
22632000    158.63649   -5074.9345   -4757.6419   -5074.9345            0    7345.9208    17.904999    22.737233    19.148778    7795.6616    8717.6323    6497.8165    6822.3135   -89.613296   -303.12767   -54.616171   -3922.4715 
22633000    158.51568   -5069.5892   -4752.5383   -5069.5892            0    9845.3333    17.712295    22.805039    19.159637    7739.1439    11449.031    9421.2548    8665.7139   -452.47895   -246.08869    641.39951   -3641.3204 
22634000    139.71711    -5069.474   -4790.0226    -5069.474            0    9003.4684    17.877748    22.721674    19.127685    7769.9019    8745.3739    9025.1344     9239.897    -32.10126    55.684203   -35.199563   -3769.7851 
22635000     147.7847   -5082.8367   -4787.2491   -5082.8367            0    7830.7068    17.898297    22.745835    19.151569     7796.828    8874.5234    6728.3467    7889.2503    605.75257      -284.77   -514.33905   -3896.8293 
22636000    155.69295   -5074.4347   -4763.0295   -5074.4347            0    8339.3211    17.879795    22.673825    19.187828    7778.8096    9080.0059    8780.1288    7157.8287    435.47374    816.37543    1201.5137   -3816.9673 
22637000    149.07101   -5073.5589   -4775.3985   -5073.5589            0    8752.0945    17.540335    23.035577    19.188075    7752.9749    9491.7075    8762.0191    8002.5571   -215.03661   -260.98203    302.57052   -3785.8063 
22638000    154.85045   -5084.5398   -4774.8198   -5084.5398            0    8591.9969    17.930039    22.533342     19.27374    7787.0478    9739.2964    8527.0242    7509.6702    184.14427   -317.22019    470.72645   -3799.0601 
22639000    147.48739   -5087.2247   -4792.2317   -5087.2247            0    7772.1899     17.85014    22.646072    19.237432    7776.4538    9578.9527    7413.7453    6323.8716    517.71248   -1280.7478    689.98302   -3910.7752 
22640000    152.04373    -5070.301   -4766.1947    -5070.301            0    8086.2778    17.787742    22.862484    19.120916    7775.9406    9354.1808    6866.1039    8038.5487    679.66176   -1044.7818    348.77701   -3849.1775 
22641000    152.19205   -5080.8228   -4776.4199   -5080.8228            0    8315.3472    17.887372    22.605144     19.20792    7766.6576    9802.0375    8399.2352    6744.7688   -1128.0472    -943.7661    377.02547   -3834.5511 
22642000    151.34853   -5074.7888    -4772.073   -5074.7888            0     8499.152    17.771355    22.801002    19.208585    7783.4088    8939.5416    8269.9966    8287.9178    -476.0028    925.29737    423.21596   -3807.3085 
22643000    146.50746    -5079.605    -4786.572    -5079.605            0    8294.5258    17.890137     22.73522    19.185322     7803.365    8977.4051    8226.2754     7679.897    998.88667    1587.6845   -905.37456   -3842.6212 
22644000    151.29722    -5073.107   -4770.4938    -5073.107            0    9562.9978    17.855816    22.721731     19.11319    7754.5089    9864.4629    8476.0013    10348.529   -376.61763   -763.31197   -251.53571   -3688.9995 
22645000    148.59778   -5073.0846   -4775.8707   -5073.0846            0    8488.4449    17.905104    22.752952    19.066877    7767.7307    7385.7894     8115.002    9964.5434    64.122247   -268.71013    188.95251   -3814.2624 
22646000    143.95538   -5072.2707   -4784.3421   -5072.2707            0    6381.8065    17.992462    22.549804    19.261139    7814.7542    4630.9637    7266.7873    7247.6686    759.08451    434.01514    396.70766   -4057.0065 
22647000    144.85583   -5084.9254   -4795.1958   -5084.9254            0    7802.5328    17.844239    22.719195    19.233902    7797.5539    8668.8182    7442.8309    7295.9493    311.86171    152.78308    107.59228   -3907.8971 
22648000    148.35219   -5078.4036   -4781.6809   -5078.4036            0    8625.0398    17.865491    22.761621    19.153365    7788.6688    9677.0196     7632.287    8565.8129    252.36687     258.1032   -1948.7386   -3801.9648 
22649000    158.75436   -5077.9538   -4760.4255   -5077.9538            0    7270.8945    18.008757    22.664656    19.149921    7816.2753    5589.0656    8090.5882    8133.0298    37.128745    995.11768   -1187.0322   -3931.5991 
22650000    148.65516   -5080.8733   -4783.5446   -5080.8733            0     8035.214    17.986068     22.56278    19.205554    7793.9149    6963.4692    9209.6255    7932.5474   -2210.2379   -239.60451    104.74216   -3870.2119 
22651000    157.55762   -5062.2184   -4747.0837   -5062.2184            0     8818.298    17.765094    22.840277    19.166212    7776.8758    8345.3874    8859.1004    9250.4063   -1139.1078    552.89298   -770.57151   -3746.9321 
22652000    150.64846   -5072.5874   -4771.2718   -5072.5874            0     9098.131    17.922641    22.571482    19.212913    7772.4027    9736.0259    8828.6077    8729.7593    34.957747    -751.1569   -656.02052   -3739.9758 
22653000    157.81051   -5081.3774   -4765.7368   -5081.3774            0    8302.9118    17.863037    22.739562     19.18039     7791.029     8794.875    8731.2597    7382.6006   -782.14836    1651.6116    351.46698   -3822.3254 
22654000    152.88972   -5082.4098   -4776.6115   -5082.4098            0    7548.9899     17.75268    23.008705    19.051447    7781.8714    6766.4738     6568.197     9312.299    773.58605   -233.74194   -445.69389    -3919.872 
22655000    152.30641   -5087.3841   -4782.7524   -5087.3841            0    7598.6154    17.895815    22.737507    19.150045    7792.2726    6240.8383    7668.9003    8886.1075    839.20807   -426.36873   -692.50363   -3919.2283 
22656000    142.48402   -5075.1703   -4790.1847   -5075.1703            0    9445.6099    17.973931    22.394834    19.288853    7764.2112     9746.234    9135.6657      9454.93   -1120.4271   -655.10538    189.42903   -3720.6294 
22657000    153.66033    -5081.189   -4773.8494    -5081.189            0    9217.0555    17.739308    22.767261    19.217822    7761.6068     10111.25    9242.8919    8297.0249    448.74052   -276.64768   -1407.4003   -3730.5241 
22658000    146.63506   -5085.1182     -4791.83   -5085.1182            0     8241.144    17.784834    22.897683    19.130642    7790.5996    9598.7511    8326.5133    6798.1676   -933.40297    210.95344    -1289.996   -3855.4885 
22659000    150.19241   -5089.4755   -4789.0721   -5089.4755            0    8178.9366    18.009182    22.521487    19.185048    7781.3319    7124.5041    8751.9725    8660.3331   -1876.8036   -1310.9781   -1023.9121   -3860.9039 
22660000    146.58478   -5055.6233   -4762.4357   -5055.6233            0    10246.502    17.947952    22.614451    19.060125    7736.1821    9408.9564    10318.629     11011.92    407.91292   -1046.4813   -623.65235   -3606.3815 
22661000    146.04408   -5075.2218   -4783.1156   -5075.2218            0    9634.5118    17.721169    22.993363    18.994426    7739.6449    10734.983    8595.5941    9572.9582   -478.64991    239.93878   -309.01441   -3695.6222 
22662000    158.92392   -5090.3393   -4772.4718   -5090.3393            0    9167.4161    17.781334    22.801027    19.136576    7758.5933    10359.899    8427.4248    8714.9241   -186.87047    41.006975   -944.75887   -3735.1683 
22663000    151.87168   -5081.7934   -4778.0313   -5081.7934            0    7710.5263    17.925633    22.598708    19.197103    7776.6721    7038.2757     8390.244    7703.0593   -176.22404    15.531159   -261.74238   -3903.5436 
22664000    152.99475   -5080.7746   -4774.7662   -5080.7746            0    9977.6633    17.733082    22.934109    18.993953     7724.697    9405.5954    9446.3242     11081.07   -1546.7939   -859.80427    1828.8296   -3650.7148 
22665000    145.95179   -5067.6867   -4775.7651   -5067.6867            0    9101.2971    17.682349    22.852475    19.203408    7759.8177    9678.4224    9103.7041    8521.7649   -918.26878   -21.890173    1461.6445   -3745.7806 
22666000    156.52414   -5063.6195   -4750.5519   -5063.6195            0    7819.2611    17.887051    22.504572    19.298859     7768.571    7786.5737    8944.1873    6727.0224   -815.23714   -862.68285    280.91526   -3864.6559 
22667000    147.49906   -5070.9162   -4775.8999   -5070.9162            0    7510.0842    17.793564    22.752486    19.278966    7805.0471     7979.491    8011.9001    6538.8615   -180.52552   -417.79673    874.35317   -3921.0374 
22668000    149.49386   -5066.5383   -4767.5321   -5066.5383            0    5770.7344    17.748401    22.963276      19.2852    7859.9037    6211.5972    5741.4698    5359.1362    300.76702    214.68944       1511.3   -4106.0407 
22669000    160.04565   -5072.7076   -4752.5965   -5072.7076            0    8194.4183    17.912061     22.61143    19.291734    7813.4862    7875.1425    8653.4602    8054.6522    371.71372    -356.9306    1433.2964   -3818.8288 
22670000    153.70943    -5081.193   -4773.7552    -5081.193            0    8469.5769      17.9078    22.654013    19.165499    7775.1275     7099.851    8830.1604    9478.7192   -837.33942    209.86286   -241.08533   -3813.3707 
22671000    151.90012   -5069.1975   -4765.3785   -5069.1975            0    8775.0393     17.72407    23.024412    19.040142     7770.021    9369.0385    8166.2227    8789.8568    141.86596    448.78792    1420.4664   -3771.0105 
22672000    147.16646   -5083.1516   -4788.8005   -5083.1516            0    8084.5868    17.898229    22.602603    19.286527    7802.2981    8005.2518    9184.5184    7063.9901    693.29289    171.70099    214.15759   -3868.8673 
22673000    149.07516   -5090.1598   -4791.9911   -5090.1598            0     8511.532    17.848983    22.609313    19.253556    7769.8346    9443.5787    8868.7999    7222.2174    809.19882    179.98627   -97.256029   -3827.5063 
22674000    151.05523   -5082.2543   -4780.1252   -5082.2543            0    8801.1036    17.792992    22.835696     19.10011     7760.668     9598.831    8071.0242    8733.4558     743.7518    411.58954    1215.9928   -3784.0041 
22675000    142.55758   -5073.5589   -4788.4261   -5073.5589            0    6197.5936    17.891319    22.724468    19.275031    7836.6629    6810.8628    6125.9483    5655.9697   -303.79782   -439.17546   -1281.5218   -4080.1051 
22676000    149.13311   -5078.1894   -4779.9048   -5078.1894            0    8577.2188    17.806295    22.772392    19.186604     7780.013    8318.8366    9017.7666    8395.0533    1342.7313    87.315881   -599.40117   -3806.7034 
22677000    151.17457   -5062.8322   -4760.4644   -5062.8322            0    8527.4626    17.912366    22.667475    19.157796     7778.604    7556.1487    7988.5032    10037.736   -35.243584   -978.52986     223.2064   -3793.0838 
22678000    159.00431   -5085.1401   -4767.1119   -5085.1401            0    8497.4197    17.911143    22.651362    19.166013    7775.8775    8198.8844    9195.0966    8098.2782   -328.16361    810.57387   -930.92832   -3803.4773 
22679000    153.15442   -5075.3954   -4769.0676   -5075.3954            0    7467.5037    17.950063    22.795219    19.096155    7813.6808    7509.8189    7393.5532    7499.1389   -532.26852     646.2519    -2336.417   -3918.1118 
22680000     153.8035    -5071.562    -4763.936    -5071.562            0    9332.8201    17.692907    22.913291     19.11131    7747.7776    8989.4159    9268.7416    9740.3028    1297.5079    318.91446    934.91501   -3709.3891 
22681000    147.61284   -5079.3285   -4784.0846   -5079.3285            0     8003.755    17.884883    22.709401    19.174507    7787.8215    9147.3936    6892.6585    7971.2128   -1009.5629   -988.76984    852.69544    -3875.039 
22682000    158.16588   -5089.7933    -4773.442   -5089.7933            0    8175.4586    17.986489    22.550776    19.199301    7787.4148     8649.977    8672.9853    7203.4136    780.10114    551.22307    328.40311   -3844.9432 
22683000    157.86941   -5094.7734   -4779.0151   -5094.7734            0    10115.925    17.795043     22.87118    18.972137    7721.5389    10772.799    8817.4828    10757.493    457.40317    7.0384849    1192.2779   -3639.8534 
22684000    147.23109   -5088.6765   -4794.1961   -5088.6765            0    7980.1815    17.819476    22.696682    19.310934    7810.1719    8605.0903    9137.6366    6197.8175   -2025.0329    900.17753   -721.68882   -3885.2268 
22685000    154.77284   -5069.7779   -4760.2132   -5069.7779            0    8834.1468    17.902298    22.727068    19.152223    7792.4029    8578.7506    8046.2985    9877.3913    403.80618   -141.69304    -54.56174   -3756.2636 
22686000    150.29602    -5063.002   -4762.3914    -5063.002            0    9060.7154    17.852232    22.684749    19.173912    7764.9244     9315.759    9268.3346    8598.0527   -639.50664    279.09589   -231.92999   -3736.3246 
22687000    145.72189   -5077.5944   -4786.1326   -5077.5944            0    8118.6747    17.743434    22.839744    19.217803    7788.1202    8682.2229    7978.4695    7695.3318    225.01372    1381.1076   -555.36004   -3863.9994 
22688000    153.83975   -5067.2147   -4759.5162   -5067.2147            0    9043.6271    17.816979    22.796997    19.086888    7752.5902    8642.7809    9305.0477    9183.0527   -464.01835    214.64436    443.68871   -3737.0114 
22689000    142.23163   -5078.8061   -4794.3252   -5078.8061            0    7593.4128    17.942171     22.74151    19.115882     7799.893    5934.6884    8592.7414    8252.8085    602.69702    874.80058    -417.5947   -3930.5484 
22690000    161.38583   -5072.1889   -4749.3973   -5072.1889            0    7978.0139    17.887908    22.708511    19.181135    7791.5258    7977.9294    8900.0376    7056.0749    809.80375    481.61329    349.13245   -3842.8443 
22691000    148.49207   -5061.2267   -4764.2242   -5061.2267            0    9216.3424    17.817171    22.725607    19.154007    7755.5726    8385.6737    9198.9368    10064.417   -887.14912   -975.51196    919.15184   -3721.7907 
22692000    157.84261   -5082.2277    -4766.523   -5082.2277            0    8115.4532    17.724693     23.02687     19.06174    7779.9389    8243.3379    7495.5715    8607.4502    227.01407   -712.91246   -459.54231   -3845.7239 
22693000      144.664   -5066.6596   -4777.3137   -5066.6596            0    8206.0273    17.826293    22.818842     19.14714    7788.5849     7462.155    8117.1319    9038.7951    792.80048     251.5986    20.016949   -3845.2032 
22694000    152.63843   -5075.7627    -4770.467   -5075.7627            0    7486.8845    17.906194      22.6371     19.25469    7804.7787    7473.5699    7507.1198    7479.9637   -236.36419    178.81755    122.28567   -3918.2747 
22695000    151.85295   -5071.5983   -4767.8737   -5071.5983            0    8714.4759      17.8166    22.762592    19.123508     7755.577    9243.0752    8311.5571    8588.7953   -655.01061   -535.52948    354.93213   -3782.2043 
22696000     143.1742   -5069.8454   -4783.4793   -5069.8454            0    7977.5425    17.819762    22.902562    19.095902    7793.3849    8487.6785     7613.795    7831.1541   -483.42708   -783.17791     211.2246   -3876.7636 
22697000    148.40585   -5069.9602   -4773.1302   -5069.9602            0    8202.2293     17.90158    22.574109    19.263125    7784.4644    7462.1409    8521.3781    8623.1689   -1319.6717   -246.94877   -2240.5425    -3841.944 
22698000    150.07693   -5076.6506   -4776.4782   -5076.6506            0    8049.8438    17.898052    22.546941    19.341311    7805.1152    8127.3508    8756.9839    7265.1968   -1777.0869    195.27735   -1201.0743   -3860.1677 
22699000    156.50564   -5070.6748   -4757.6442   -5070.6748            0    9600.0297    17.773267    22.729073    19.160892     7740.423    8924.5423      10303.7    9571.8463   -842.94603    815.49199   -141.98671    -3673.934 
22700000     151.5954   -5080.8691   -4777.6595   -5080.8691            0    7911.9775      17.7449    22.693556    19.338119    7787.3615    8762.3302    8387.0962    6586.5059   -1357.9678   -545.27435   -2357.6881   -3879.0909 
22701000    151.41937   -5075.0804    -4772.223   -5075.0804            0    8381.7591      17.8459    22.627169    19.268005    7780.4627    8802.1946    8370.6624    7972.4204   -326.13244   -318.08901   -141.24442   -3821.1442 
22702000    150.72856   -5081.4133   -4779.9375   -5081.4133            0    6728.1644    17.879589    22.610469    19.307332    7805.2959    6063.9046    7270.8021    6849.7866     296.3055   -633.02413    1013.1595   -4014.0556 
22703000    147.32632   -5084.2498    -4789.579   -5084.2498            0    7630.8855    17.673649    22.893565    19.261625    7793.5007    8354.9372    7744.7203     6792.999    -174.6251    196.83159    -487.4793   -3922.2509 
22704000    146.88559    -5086.091   -4792.3017    -5086.091            0    8167.2665    17.724145    22.751136    19.245574    7760.6708    7851.9712     7693.237    8956.5912    -77.49977   -1100.3412   -799.41077   -3867.9189 
22705000     146.7189   -5085.1292   -4791.6733   -5085.1292            0    7873.0401    17.742794    22.629881    19.400512    7789.6417    8954.0741    7678.8702     6986.176   -378.31187   -316.72101   -1790.2507   -3897.2649 
22706000    145.55247   -5074.9908   -4783.8678   -5074.9908            0    7450.6057    17.715886    22.968968    19.160972    7796.8989    7793.2947    7340.9828    7217.5395    511.94169    787.36695   -302.04773   -3936.6612 
22707000    149.64373   -5079.8149   -4780.5089   -5079.8149            0    7142.4266    17.863718    22.756707    19.275273    7835.7723    7950.2419    7270.2917    6206.7464    405.14827    37.646845    1100.4446    -3964.296 
22708000    150.35767   -5060.7667   -4760.0328   -5060.7667            0    9673.2635     17.81909     22.68481    19.197578    7760.0962    11240.815     8649.277    9129.6982    -101.1775   -756.32035   -1328.0578   -3665.2801 
22709000     155.4882   -5084.3775   -4773.3819   -5084.3775            0    7556.6527    17.758593    22.797533     19.31197    7818.4919    7721.3488    7482.9307    7465.6786    764.16843    733.99728   -3.8812338    -3911.737 
22710000    154.00187   -5068.5192   -4760.4964   -5068.5192            0    9225.2059    17.839663    22.580757     19.28779    7769.7602    11732.439    8748.8519    7194.3271   -1642.4179   -325.39428   -1310.5757   -3715.1516 
22711000    152.23268   -5071.9538   -4767.4697   -5071.9538            0    8142.3199    17.756411    22.838416    19.180618    7778.2832    8668.9455    8887.0322    6870.9818    17.044838    46.304677    292.83127   -3843.8189 
22712000    153.76607   -5074.0066   -4766.4555   -5074.0066            0    10585.967    17.816336    22.794127    18.988564    7711.4045    10469.214    9589.8082    11698.878    1078.5604   -553.92599   -325.47786   -3575.9267 
22713000    148.06373   -5069.4043   -4773.2585   -5069.4043            0    8076.3284    18.080268    22.387622    19.239809    7787.7785    8348.0555     8023.341    7857.5887   -520.93872   -300.82133   -1022.9557   -3855.9753 
22714000    150.29899   -5080.1232   -4779.5066   -5080.1232            0    8128.8841    17.898299    22.748435    19.157848    7800.2769    6715.2085    8567.5001    9103.9435   -253.22954    276.19378    482.31846   -3854.7726 
22715000    144.55237    -5089.754   -4800.6314    -5089.754            0    8914.1377    17.807461    22.787516    19.132416    7763.7011    8256.7989    9347.1227    9138.4914    314.92191    688.85802   -774.64108   -3791.3227 
22716000     149.4549   -5079.0995   -4780.1712   -5079.0995            0     7904.916    17.958682      22.6489    19.159709    7793.1039    7582.6846    8000.1881    8131.8752    1072.4144    60.317734    650.31706   -3881.7425 
22717000    147.79282   -5087.4553   -4791.8514   -5087.4553            0    8664.1432    17.832323    22.779891    19.105707    7761.0891    8977.7172    8023.1031    8991.6091   -563.87243   -194.99753    460.37921   -3811.1785 
22718000    154.54921   -5074.8401   -4765.7226   -5074.8401            0    8245.7168    17.733622    22.870634    19.217763    7794.3245    9710.9473    7391.7611    7634.4419    57.591161   -45.092189    1187.5314   -3828.4136 
22719000     151.3413   -5074.4404   -4771.7391   -5074.4404            0    9373.4325    17.838864    22.449861    19.291916    7726.0268    9298.3552    9505.8154    9316.1271    536.34459   -781.80733   -635.21325   -3715.5765 
22720000    150.95805   -5095.3529   -4793.4181   -5095.3529            0    7803.5947     17.95216    22.705343    19.127484    7796.5524    6404.9402    8602.6079    8403.2361    502.37667    677.45039    1103.4443   -3906.1126 
22721000     145.3272    -5075.517   -4784.8446    -5075.517            0    7434.0436    17.891976     22.90317    19.078546    7818.0634     8325.822     7198.032    6778.2767    1204.2661    800.54798    2153.4434   -3937.2266 
22722000     140.9508   -5084.0371    -4802.118   -5084.0371            0    8795.0835    17.917881    22.580155    19.264606    7794.2386    8532.5434      8721.54    9131.1671     2263.608   -273.96717    250.60386   -3802.3723 
22723000    143.22512   -5075.9865   -4789.5186   -5075.9865            0    9643.3924    17.871343    22.673715    19.131524    7752.2795    9668.1084    9404.3818     9857.687    189.83793   -578.64572   -283.06783   -3699.2458 
22724000    151.41474   -5083.2215   -4780.3733   -5083.2215            0    6922.5159    17.859443    22.874289    19.152816    7824.3478    8138.0022    6186.7764    6442.7692   -852.54929   -616.67187    533.92972   -3990.4444 
22725000    154.07673   -5089.0348   -4780.8623   -5089.0348            0    9535.3029    17.872977    22.594871    19.155088     7735.545    9094.4502    10052.877    9458.5811   -609.28124    -1198.611   -1313.3623   -3705.1372 
22726000    156.87732   -5087.6093   -4773.8353   -5087.6093            0     8889.571    17.943946    22.622563    19.093666    7750.8457    9451.9853    8210.7021    9006.0257    565.58429   -872.04783    586.79927   -3768.9748 
22727000    154.51923   -5049.9538   -4740.8963   -5049.9538            0    7501.4523     17.86111    23.056921    18.989133    7820.1465    6812.3683    6660.0366     9031.952   -312.66354   -245.18711   -37.109811   -3885.3645 
22728000    151.01724   -5067.7132   -4765.6601   -5067.7132            0    7731.3514    17.887632    22.789685    19.184797    7820.7498    8091.7449    7387.9785    7714.3307    273.96767   -1287.2858    66.737996   -3883.8406 
22729000    160.02295   -5082.1971   -4762.1314   -5082.1971            0    8285.0491    17.881889    22.729846    19.125816    7773.7372     7883.029    8468.6265    8503.4918    544.52163    -430.6562    896.08783    -3822.839 
22730000    155.52519   -5064.4175   -4753.3479   -5064.4175            0    6770.9104    17.912892    22.819111     19.17593    7838.2817    5369.3904    7182.1561    7761.1848    592.84157   -119.29347   -887.34709   -3979.3428 
22731000    150.44764   -5062.3513   -4761.4375   -5062.3513            0    7871.2678    17.801544    22.936739    19.086488    7793.1919    8161.7878    7421.1679    8030.8478    1024.9558    31.699383    967.22965   -3866.8229 
22732000    144.55194   -5061.2504   -4772.1287   -5061.2504            0    8227.6496    17.863908     22.72281    19.154624    7775.2104    9464.0503     8172.236    7046.6626    599.67733   -325.64608   -156.38746   -3839.1669 
22733000    144.45288   -5077.1546    -4788.231   -5077.1546            0    7929.0513    17.972933    22.650275    19.166562    7802.5517    7698.7545    8793.4939    7294.9054    854.70465   -162.56145    1448.1071   -3885.9667 
22734000    152.69625   -5065.9351   -4760.5237   -5065.9351            0    7881.9407    17.788424    22.964828    19.086111    7796.8311    8055.0315    7562.2709    8028.5196   -271.88947    162.13691    162.42399   -3864.2778 
22735000     144.2199   -5084.0395   -4795.5819   -5084.0395            0    6816.5552    17.839953    22.886359    19.158709    7822.3395     6827.857    5146.7918    8475.0169   -60.349214   -868.37612    -863.0022   -4017.9438 
22736000    151.07111    -5081.186   -4779.0251    -5081.186            0    9450.5138    17.871806    22.626336    19.165692    7750.0974    11486.965     8005.704    8858.8726    392.38378     178.3177   -307.29363   -3710.8598 
22737000    148.25278     -5079.06   -4782.5361     -5079.06            0    7792.0639    17.878921    22.835565    19.129266     7810.006    6561.1562    8874.0803    7940.9551   -986.92595    1325.4374    494.58094   -3895.0128 
22738000    153.39518   -5072.6264   -4765.8171   -5072.6264            0    7654.9177    17.907248    22.796388    19.126485    7807.8246    6945.6729    7330.3036    8688.7764    109.08496   -323.35652   -363.79722   -3894.1584 
22739000    149.58389   -5075.4459   -4776.2596   -5075.4459            0    8370.0556    17.924981    22.669179    19.193133    7799.0257    7566.6069    9290.6591    8252.9008    238.76979    1038.1711    286.88737   -3824.2429 
22740000    146.41665   -5058.6086   -4765.7572   -5058.6086            0    8367.9795    17.802933    22.685782    19.260818    7778.9332    8225.0703     9218.452    7660.4162   -73.788395    603.79364    587.33213   -3816.4287 
22741000    148.00533   -5078.7785   -4782.7495   -5078.7785            0     9838.541    17.702122     22.74157    19.212417    7734.4205    10839.485    9920.9972    8755.1412    1322.3861    607.41372   -1549.3391    -3672.976 
22742000    146.97335    -5074.888   -4780.9232    -5074.888            0    8105.2914    17.835755    22.661154    19.295403    7798.7927    7846.0407      8794.21    7675.6235    378.08053    348.14286   -1270.7916   -3859.0485 
22743000     160.5526   -5071.9844   -4750.8593   -5071.9844            0    10613.693    17.794842    22.706469    19.136473    7732.2456    8771.9421    12345.997     10723.14   -504.78799     55.77135   -1608.8016   -3553.9864 
22744000    152.88469   -5063.3552   -4757.5669   -5063.3552            0    8874.1276    17.714742    22.957893    19.127916    7779.1927    10816.156    7635.5404    8170.6866   -359.10121   -535.83967   -362.14117   -3750.7834 
22745000    147.70591   -5047.5919   -4752.1618   -5047.5919            0    9338.5385    17.847347     22.67153    19.197427    7767.7906    9050.8253    9111.4311     9853.359   -156.27068   -421.14618    831.34496   -3694.2431 
22746000     152.2561   -5077.6067   -4773.0757   -5077.6067            0    8873.0692    17.783731    22.764288     19.13449    7746.2915    8985.6422    8240.5386    9393.0267   -307.12408   -1339.6696   -514.22159   -3770.6699 
22747000    148.99194   -5075.6723     -4777.67   -5075.6723            0    8340.6596     17.84911    22.862852    19.106025    7796.8164    8103.0752    8229.1407    8689.7629    642.40397   -649.52576    888.32254   -3829.2655 
22748000    150.78619   -5063.6353   -4762.0443   -5063.6353            0    7810.2099    17.948737    22.629817     19.20697    7801.4227    7260.8895    8172.4811     7997.259    300.12988     405.6315    529.51125   -3873.4318 
22749000    151.30687   -5081.7585   -4779.1261   -5081.7585            0    10854.079    17.839191    22.663509    19.145794    7740.6192    11239.262    9885.6996    11437.277    945.22851   -253.69221    2226.0135     -3553.82 
22750000    155.14839   -5066.2932   -4755.9772   -5066.2932            0    7316.1496    17.772553    22.931245    19.163113    7809.8645    7499.3789    7593.0324    6856.0376    685.39169   -206.18014   -340.71208   -3922.6761 
Loop time of 492.684 on 64 procs for 250000 steps with 1008 atoms

Performance: 87.683 ns/day, 0.274 hours/ns, 507.424 timesteps/s
377.2% CPU use with 16 MPI tasks x 4 OpenMP threads

MPI task timing breakdown:
Section |  min time  |  avg time  |  max time  |%varavg| %total
---------------------------------------------------------------
Pair    | 41.905     | 44.379     | 46.988     |  19.6 |  9.01
Bond    | 1.6644     | 1.9091     | 2.4747     |  15.2 |  0.39
Kspace  | 235.89     | 240.89     | 246.36     |  14.4 | 48.89
Neigh   | 1.816      | 1.885      | 1.9651     |   3.0 |  0.38
Comm    | 67.475     | 70.898     | 74.423     |  17.5 | 14.39
Output  | 0.55706    | 0.55741    | 0.5591     |   0.1 |  0.11
Modify  | 107.92     | 109.8      | 112.49     |  10.7 | 22.29
Other   |            | 22.37      |            |       |  4.54

Nlocal:        63.0000 ave          67 max          60 min
Histogram: 2 3 3 0 2 1 0 2 2 1
Nghost:        3443.12 ave        3451 max        3433 min
Histogram: 1 0 1 5 0 1 1 4 1 2
Neighs:        21389.1 ave       22802 max       20291 min
Histogram: 2 2 4 0 2 1 1 1 1 2

Total # of neighbors = 342226
Ave neighs/atom = 339.50992
Ave special neighs/atom = 2.0000000
Neighbor list builds = 4040
Dangerous builds = 0

unfix		3
unfix		2
unfix		1

write_data	data.final.${pid}
write_data	data.final.1
System init for write_data ...
PPPM initialization ...
  extracting TIP4P info from pair style
  using 12-bit tables for long-range coulomb (../kspace.cpp:340)
  G vector (1/distance) = 0.37971837
  grid = 24 27 32
  stencil order = 5
  estimated absolute RMS force accuracy = 0.00240774
  estimated relative force accuracy = 7.2508376e-06
  using double precision FFTW3
  3d grid and FFT values/proc = 7875 1344
Last active /omp style is kspace_style pppm/tip4p/omp
WARNING: Not all mixed pair coeffs generated from mixing. Use write_data with 'pair ij' option to store all pair coeffs. (../write_data.cpp:312)

write_restart   restart.lmp.${pid}
write_restart   restart.lmp.1
System init for write_restart ...
PPPM initialization ...
  extracting TIP4P info from pair style
  using 12-bit tables for long-range coulomb (../kspace.cpp:340)
  G vector (1/distance) = 0.37971837
  grid = 24 27 32
  stencil order = 5
  estimated absolute RMS force accuracy = 0.00240774
  estimated relative force accuracy = 7.2508376e-06
  using double precision FFTW3
  3d grid and FFT values/proc = 7875 1344
Last active /omp style is kspace_style pppm/tip4p/omp
Total wall time: 0:08:12
