LAMMPS (30 Jul 2021)
  using 1 OpenMP thread(s) per MPI task
package omp 0
using multi-threaded neighbor list subroutines
echo both

include		in.partitions
variable        pid world 0
include		in.temp
variable        temperature equal 249.84
variable	tempDamp equal 100.0
include		in.pressure
variable        pressure equal 6500.0
variable        pressureDamp equal 1000.0 # This is 1 ps
include		in.seed
variable        seed world 745823

units		real
atom_style	full
read_restart	restart.lmp.${pid}
read_restart	restart.lmp.0
Reading restart file ...
  restart file = 30 Jul 2021, LAMMPS = 30 Jul 2021
  restoring atom style full from restart
  orthogonal box = (0.53247160 1.7187125 0.64961411) to (17.675101 21.910465 21.563582)
  4 by 4 by 4 MPI processor grid
  restoring pair style lj/cut/tip4p/long/omp from restart
  restoring bond style harmonic/omp from restart
  restoring angle style harmonic/omp from restart
  864 atoms
  576 bonds
  288 angles
Finding 1-2 1-3 1-4 neighbors ...
  special bond factors lj:    0        0        0       
  special bond factors coul:  0        0        0       
     2 = max # of 1-2 neighbors
     1 = max # of 1-3 neighbors
     1 = max # of 1-4 neighbors
     2 = max # of special neighbors
  special bonds CPU = 1.462 seconds
  read_restart CPU = 1.791 seconds
include 	in.setup
variable	out_freq equal 1000
variable	out_freq2 equal 10000
variable	out_freq3 equal 1000

timestep	2.0

neigh_modify    delay 7 every 1

include		in.tip4p
# This is TIP4P/Ice

# create groups ###
group ox type 2
288 atoms in group ox
group hy type 1
576 atoms in group hy

# set charges - beside manually ###
set group ox charge -1.1794
Setting atom values ...
  288 settings made for charge
set group hy charge 0.5897
Setting atom values ...
  576 settings made for charge

# ### TIP3P Potential Parameters ###
pair_style lj/cut/tip4p/long/omp 2 1 1 1 0.1577 8.5
pair_coeff 1 1*2 0.000 0.000
pair_coeff 2 2 0.21084 3.1668
bond_style  harmonic
bond_coeff  1 450 0.9572
angle_style harmonic
angle_coeff 1 55 104.52
kspace_style pppm/tip4p/omp 1.0e-5
pair_modify tail yes

thermo          ${out_freq}
thermo          1000
thermo_style    custom step temp pe etotal epair emol press lx ly lz vol pxx pyy pzz pxy pxz pyz enthalpy

restart 	${out_freq3} restart.lmp.${pid} restart2.lmp.${pid}
restart 	1000 restart.lmp.${pid} restart2.lmp.${pid}
restart 	1000 restart.lmp.0 restart2.lmp.${pid}
restart 	1000 restart.lmp.0 restart2.lmp.0


include         in.dump
dump            myDump all atom ${out_freq2} dump.water.${pid}
dump            myDump all atom 10000 dump.water.${pid}
dump            myDump all atom 10000 dump.water.0
dump            myDump2 all dcd ${out_freq2} dump.dcd
dump            myDump2 all dcd 10000 dump.dcd
dump_modify     myDump append yes
dump_modify     myDump2 append yes


variable natoms 	equal  "count(all)"                        # NUMBER ATOMS
variable H      	equal  "enthalpy/v_natoms"                 # ENTHALPY-per-atom
variable Vol      	equal  "vol/v_natoms"                 # volume-per-atom
fix AVG all 		ave/time ${out_freq} 1 ${out_freq} v_Vol v_H file vol_enthalpy.dat
fix AVG all 		ave/time 1000 1 ${out_freq} v_Vol v_H file vol_enthalpy.dat
fix AVG all 		ave/time 1000 1 1000 v_Vol v_H file vol_enthalpy.dat


timer           timeout 23:50:00 every 1000
New timer settings: style=normal  mode=nosync  timeout=23:50:00

fix 		1 all shake 1e-6 200 0 b 1 a 1
       0 = # of size 2 clusters
       0 = # of size 3 clusters
       0 = # of size 4 clusters
     288 = # of frozen angles
  find clusters CPU = 0.608 seconds
fix             2 all nph iso ${pressure} ${pressure} ${pressureDamp}
fix             2 all nph iso 6500 ${pressure} ${pressureDamp}
fix             2 all nph iso 6500 6500 ${pressureDamp}
fix             2 all nph iso 6500 6500 1000
fix             3 all temp/csvr ${temperature} ${temperature} ${tempDamp} ${seed}
fix             3 all temp/csvr 249.84 ${temperature} ${tempDamp} ${seed}
fix             3 all temp/csvr 249.84 249.84 ${tempDamp} ${seed}
fix             3 all temp/csvr 249.84 249.84 100 ${seed}
fix             3 all temp/csvr 249.84 249.84 100 745823

run             250000
PPPM initialization ...
  extracting TIP4P info from pair style
  using 12-bit tables for long-range coulomb (../kspace.cpp:340)
  G vector (1/distance) = 0.3734495
  grid = 24 24 24
  stencil order = 5
  estimated absolute RMS force accuracy = 0.0032549105
  estimated relative force accuracy = 9.8020662e-06
  using double precision FFTW3
  3d grid and FFT values/proc = 2535 216
Last active /omp style is kspace_style pppm/tip4p/omp
Neighbor list info ...
  update every 1 steps, delay 7 steps, check yes
  max neighbors/atom: 2000, page size: 100000
  master list distance cutoff = 10.8154
  ghost atom cutoff = 10.8154
  binsize = 5.4077, bins = 4 4 4
  1 neighbor lists, perpetual/occasional/extra = 1 0 0
  (1) pair lj/cut/tip4p/long/omp, perpetual
      attributes: half, newton on, omp
      pair build: half/bin/newton/omp
      stencil: half/bin/3d
      bin: standard
Per MPI rank memory allocation (min/avg/max) = 9.234 | 9.238 | 9.241 Mbytes
Step Temp PotEng TotEng E_pair E_mol Press Lx Ly Lz Volume Pxx Pyy Pzz Pxy Pxz Pyz Enthalpy 
22250000     261.9845   -3886.9721   -3437.9397   -3886.9721            0    5145.0179    17.142629    20.191753    20.913968    7239.1551    3569.1789    6175.4279    5690.4467    727.78154   -435.61894   -291.42526   -2894.7511 
22251000    246.98879   -3904.5634   -3481.2331   -3904.5634            0     5460.213    17.224861    20.288611     21.01429    7343.8322    3678.5353    5216.9777     7485.126   -409.26661   -693.84043   -4.7341892   -2896.4319 
22252000    246.16841     -3904.25   -3482.3258     -3904.25            0    5693.2852    17.166155    20.219463    20.942668    7268.9995    6208.6434      5882.99    4988.2223    138.27436   -1077.0133    777.80449   -2878.7755 
22253000    246.15744   -3884.2944   -3462.3889   -3884.2944            0    6407.3758    17.109728    20.152999    20.873828    7197.5531    3939.5686     7999.675    7282.8836   -678.00844    -146.6276    394.81316   -2789.8136 
22254000    231.89235   -3906.2029   -3508.7474   -3906.2029            0     7040.059      17.0837    20.122342    20.842074    7164.7561    7864.0286    6033.3939    7222.7547    1543.8343    224.03866   -637.16149   -2773.1272 
22255000    248.59687   -3883.4993   -3457.4128   -3883.4993            0    6687.0903    17.130271    20.177196     20.89889      7223.51    5810.0108    8556.7184    5694.5419    743.03675    1461.3342   -2104.1721   -2752.9446 
22256000    255.76552   -3913.9495   -3475.5762   -3913.9495            0    7161.4631    17.127699    20.174167    20.895753     7220.257    7703.7176    7173.6713    6607.0005    1181.9954    1506.0292   -410.97677   -2721.4738 
22257000    241.92156   -3881.3854   -3466.7402   -3881.3854            0    8497.9887    17.045304    20.077117    20.795231    7116.5559    7638.2948     9190.639    8665.0324    538.47504   -242.21996   -749.06929   -2584.7537 
22258000    254.04965   -3903.0871   -3467.6547   -3903.0871            0     7614.046    17.095177     20.13586    20.856076    7179.2057    7287.2469    6116.6794    9438.2118    1658.0794    1565.4865   -854.67156   -2670.4538 
22259000     262.7842   -3894.8535   -3444.4503   -3894.8535            0     6828.818     17.13732      20.1855    20.907491    7232.4317    6123.2294      6261.45    8101.7746    662.95722   -520.89779   -324.55623    -2724.163 
22260000    259.71769   -3908.2962   -3463.1489   -3908.2962            0    5050.8913    17.156828    20.208477     20.93129    7257.1583    4221.1259    5694.0545    5237.4936   -58.331912     717.4175    2442.0393   -2928.5716 
22261000    253.69894   -3910.1088   -3475.2775   -3910.1088            0    6851.6873    17.068624    20.104584    20.823681    7145.8038     8112.618    5738.4061    6704.0378    491.26416    621.91494   -1782.8281   -2761.2343 
22262000    259.79086   -3892.5901   -3447.3175   -3892.5901            0    5418.7686    17.140407    20.189136    20.911257    7236.3406    5156.7321    3912.0979    7187.4756   -664.23029   -696.23869   -1264.6038   -2875.4499 
22263000    257.97294    -3883.039   -3440.8822    -3883.039            0    6692.2077    17.095044    20.135704    20.855914    7179.0387    7510.3877    6724.0234    5842.2119   -106.26416    1416.0485     755.7032   -2740.2154 
22264000     247.5743   -3918.0091   -3493.6752   -3918.0091            0    6492.4338    17.089413    20.129072    20.849044    7171.9467    6300.5385    6175.4943    7001.2686    492.81578    140.91535   -173.17846    -2814.596 
22265000    240.68042   -3883.0189   -3470.5009   -3883.0189            0    6804.9436    17.062937    20.097886    20.816743    7138.6639    7886.6124     6258.708    6269.5104   -1428.1877     -1780.06   -732.55588   -2762.0377 
22266000    261.28381   -3908.7933   -3460.9618   -3908.7933            0     6683.237    17.095303    20.136009     20.85623    7179.3649    8877.2617     6081.557    5090.8923   -1272.4337    127.10719   -118.32732   -2761.2023 
22267000    242.11596   -3892.4222   -3477.4437   -3892.4222            0    5708.3656    17.154781    20.206067    20.928793    7254.5614    6246.9888    5978.9891     4899.119   -1681.2008    1467.0175   -35.362308   -2873.4967 
22268000    247.19558   -3941.3299   -3517.6451   -3941.3299            0    7060.4738    17.135378    20.183212    20.905122    7229.9731    6133.8317    7598.1403    7449.4494   -279.41171   -2596.7139    48.112576   -2773.1764 
22269000    255.67764   -3931.2315   -3493.0087   -3931.2315            0    5892.4886    17.161941    20.214499    20.937528    7263.6479    4078.9303    5182.0115     8416.524    408.96311   -3110.5198    -872.7611   -2868.8006 
22270000    244.73806   -3935.3269   -3515.8542   -3935.3269            0    5800.3005    17.172564    20.227012    20.950488    7277.1451    8259.5076    4400.7063    4740.6876   -1309.9343    289.30622    531.85072   -2900.2701 
22271000    233.45486   -3908.0504   -3507.9168   -3908.0504            0    7859.0113    17.090241    20.130046    20.850054    7172.9883    7848.8687    7090.4742    8637.6911   -470.46823   -1123.3964    711.44259   -2685.7803 
22272000    252.52004   -3910.8425   -3478.0317   -3910.8425            0    5734.5074    17.165606    20.218817    20.941999     7268.303    6481.0935    4925.7591    5796.6697    1761.0358   -2276.9251    319.43931   -2870.1697 
22273000    239.04153   -3906.8778   -3497.1688   -3906.8778            0    7260.6262    17.113706    20.157686    20.878682    7202.5755    8441.8864     6999.855    6340.1371   -127.96957    479.99494    578.02826   -2734.4968 
22274000    259.18736   -3872.9941   -3428.7558   -3872.9941            0    6686.4945    17.167054    20.220522    20.943765    7270.1419    4644.3733    7712.2583     7702.852   -774.92257   -1858.9478   -589.34958   -2719.8031 
22275000    243.44169   -3873.4711   -3456.2204   -3873.4711            0    6610.3895    17.088633    20.128152    20.848092     7170.964     5904.479    6108.0702    7818.6193    1168.5753    1367.6455    1033.7983   -2764.8982 
22276000    259.14609   -3883.3608   -3439.1932   -3883.3608            0    7399.6733    17.117868    20.162588    20.883759    7207.8317    8006.7214    5397.8065     8794.492     608.7064    1076.9095    917.92798   -2661.3482 
22277000    259.97744   -3896.4017   -3450.8092   -3896.4017            0    7282.2165     17.03969    20.070504    20.788382    7109.5266    7473.1409    7390.4697    6983.0388   -7.5574714     1053.802     957.1027   -2695.7515 
22278000     252.6975   -3905.2052   -3472.0904   -3905.2052            0    9650.7537     16.98787    20.009467    20.725162    7044.8602    9798.6468    9723.7403     9429.874    -670.7882   -348.71655    1049.7057   -2480.5521 
22279000    247.03082   -3925.3687   -3501.9664   -3925.3687            0     6340.076    17.085821     20.12484    20.844662    7167.4249    6819.6428    6581.6859    5618.8994    690.95715    461.07739   -20.662178   -2839.2411 
22280000    257.49226    -3899.368   -3458.0351    -3899.368            0    7360.0821    17.090537    20.130395    20.850415     7173.361    7459.8378     5864.698    8755.7104    1693.6991     604.9477   -153.26319   -2688.0519 
22281000    253.61368   -3898.8266   -3464.1414   -3898.8266            0    6598.5289    17.081221    20.119422     20.83905    7161.6375    4690.5936    6932.0301    8172.9631    -783.7327   -737.33267    894.43011   -2774.9572 
22282000     251.6856   -3906.5379   -3475.1574   -3906.5379            0    6596.8317    17.095568    20.136321    20.856554    7179.6988    6196.1526    5609.6437    7984.6987   -364.86769   -513.54128   -448.23535   -2784.4128 
22283000    242.81956   -3900.6152   -3484.4308   -3900.6152            0    5079.9004    17.118995    20.163914    20.885134    7209.2545    5352.1845    4379.1906    5508.3262    2077.4201   -843.59578   -859.87617   -2950.3321 
22284000    250.60856   -3961.3445     -3531.81   -3961.3445            0    6436.9785    17.090352    20.130177    20.850189    7173.1281    5195.8521    7148.7814     6966.302   -169.72298    293.30079    -328.2572   -2858.4202 
22285000    236.71672   -3934.7281   -3529.0037   -3934.7281            0    8762.0956    17.054827    20.088334    20.806849    7128.4902    10081.573    8838.6672    7366.0469   -1207.6187   -1272.0697   -2093.3277   -2618.0812 
22286000    248.86247   -3950.3068    -3523.765   -3950.3068            0     5414.997     17.09994    20.141471    20.861887    7185.2081    7045.8004    4254.3159    4944.8748   -478.19839    165.51325    511.95524   -2956.3335 
22287000    262.33991   -3934.0988   -3484.4571   -3934.0988            0     6852.867    17.058767    20.092975    20.811656    7133.4321    4763.7428    8668.8515    7126.0068   -424.28985    548.97032    532.95015   -2771.5274 
22288000       255.58   -3906.6564   -3468.6011   -3906.6564            0    7094.4104    17.009299    20.034708    20.751305    7071.5539    7258.5725    7768.9422    6255.7164   -127.42915    284.04542   -1403.0095   -2736.9449 
22289000    243.03453   -3897.5384   -3480.9855   -3897.5384            0    5421.0469     17.15281    20.203745    20.926388    7252.0607    6710.7086    3408.7685    6143.6636   -675.59196    454.54682    408.65336   -2907.6346 
22290000     241.7128   -3906.9588   -3492.6713   -3906.9588            0    6315.6613     17.10614    20.148773    20.869451    7193.0261    6444.9266    7000.1321    5501.9252    798.10267   -1215.2429    1511.6224   -2830.1401 
22291000    238.15122   -3885.0539   -3476.8709   -3885.0539            0    5986.8625    17.097731    20.138869    20.859192    7182.4239     6272.329    4277.7464    7410.5122    168.74534   -1063.0965   -1201.8169   -2849.7573 
22292000    238.93772   -3897.4649   -3487.9338   -3897.4649            0    5923.9787     17.14117    20.190034    20.912187    7237.3068    6998.8084    4935.8183    5837.3094    645.16123   -640.65307   -595.07104   -2862.6656 
22293000    262.59722   -3929.1514   -3479.0687   -3929.1514            0    6848.1936    17.080929    20.119079    20.838694    7161.2704    6500.3082    6720.3789    7323.8938   -1169.5414    -761.3359    176.75165   -2763.8448 
22294000     253.7637   -3917.3137   -3482.3714   -3917.3137            0    7341.3894    17.061878    20.096639    20.815451    7137.3351    7776.5319    7095.1993     7152.437   -199.88357   -518.13404   -780.47244   -2718.2009 
22295000    236.81791   -3906.1454   -3500.2476   -3906.1454            0    8535.5368    16.939143    19.952073    20.665715     6984.413     9652.673    9246.5048    6707.4326    91.311619   -421.54464    321.44015   -2630.8136 
22296000    253.54988   -3911.6396   -3477.0638   -3911.6396            0    6780.9317    17.050941    20.083756    20.802108     7123.618    7981.5208    6515.6469    5845.6274    1260.3083    63.026044   -1279.5258   -2772.5883 
22297000    251.32856   -3909.9374   -3479.1688   -3909.9374            0    6414.1111    17.079703    20.117634    20.837198    7159.7279     7338.356    6174.0131    5729.9642   -477.03804   -670.29398    516.91596   -2809.4247 
22298000    246.82574   -3888.5482   -3465.4974   -3888.5482            0    4639.7656     17.09419    20.134698    20.854872    7177.9625     4791.386    4968.4635    4159.4474   -463.60537   -576.65811   -585.28335   -2979.7918 
22299000    251.06252   -3874.8186    -3444.506   -3874.8186            0    6714.5808    17.129748    20.176581    20.898253    7222.8491    5967.5663     5556.165     8620.011   -186.83887    -720.6486     1012.354   -2737.2066 
22300000    250.20779   -3904.5081   -3475.6605   -3904.5081            0    6035.1691    17.072848     20.10956    20.828835    7151.1111    7307.3828      5847.19    4950.9346    1356.6777    229.42964   -752.14879   -2846.2429 
22301000    250.63632   -3887.7903   -3458.2082   -3887.7903            0    5805.2348    17.154139     20.20531     20.92801    7253.7464    5944.9048    6576.9641    4893.8355    2065.1382    2513.7393    323.42703   -2844.0814 
22302000    258.53484     -3936.83   -3493.7102     -3936.83            0    6306.2175    17.106321    20.148987    20.869672     7193.255    5172.7138    7704.2857    6041.6531   -681.57472    183.26898   -9.5613597   -2832.1486 
22303000    248.87267   -3916.3918   -3489.8325   -3916.3918            0    7039.1915    17.093091    20.133403    20.853531    7176.5777    5705.0934    6199.9228    9212.5584    -548.2862   -301.35629    687.36519   -2753.0895 
22304000    257.08122   -3885.6826   -3445.0542   -3885.6826            0    7181.6749    17.118687    20.163552    20.884758    7208.8653    6723.4169    7122.8125    7698.7953   -1067.6683   -198.08869    1282.9887   -2690.0166 
22305000    257.59564   -3911.0482   -3469.5381   -3911.0482            0    7307.0866    17.074457    20.111455    20.830797    7153.1326    7534.5555    7694.8768    6691.8276    152.13132     896.6286    578.47545   -2707.2548 
22306000    268.92913   -3887.8563    -3426.921   -3887.8563            0    6372.5382    17.141325    20.190217    20.912377    7237.5035    6873.1869    5925.5911    6318.8366    74.306718    541.45803    655.43121   -2754.2896 
22307000    256.70886   -3901.7312    -3461.741   -3901.7312            0    6588.3418    17.170777    20.224908    20.948308    7274.8738    7036.3677    5039.0499    7689.6078    339.82583    6.8670465   -1653.5996   -2762.7405 
22308000    263.30698   -3914.0886   -3462.7894   -3914.0886            0    9144.2181    17.138699    20.187124    20.909173    7234.1777    9733.9712    9254.7279    8443.9552    258.78799    -115.5348   -544.77945   -2498.0464 
22309000    246.82024   -3893.4732   -3470.4318   -3893.4732            0    7589.8845    17.163676    20.216543    20.939644    7265.8512    8768.4452    9631.5945    4369.6138   -636.73471    148.33874   -142.64598   -2666.1698 
22310000     240.6749   -3935.6432   -3523.1347   -3935.6432            0    5976.2849     17.15464      20.2059    20.928621    7254.3823    6376.9075    6777.3043    4774.6429    250.20047   -243.38371   -1459.2215   -2890.8573 
22311000    240.38527   -3883.2244   -3471.2123   -3883.2244            0     6516.351    17.173856    20.228534    20.952065     7278.788    5994.3949    6645.2359    6909.4222   -848.61623    124.68178   -942.93094   -2779.4778 
22312000    238.91298   -3881.5666    -3472.078   -3881.5666            0    4874.7556    17.191652    20.249495    20.973775    7301.4382     4615.215    5081.9788    4927.0729    2007.0905    878.11808    734.11631   -2952.9946 
22313000    255.64911   -3870.1558    -3431.982   -3870.1558            0     5552.778    17.136441    20.184463    20.906417    7231.3177    5931.9424    5462.5591    5263.8325   -269.59607    289.06679    661.50516   -2846.3785 
22314000    247.22674   -3900.8746   -3477.1364   -3900.8746            0    4949.6938    17.080352    20.118399     20.83799    7160.5446    4818.5129    5151.4652    4879.1033    93.759225    849.40634   -942.47176   -2960.2438 
22315000    250.83607   -3940.5806   -3510.6562   -3940.5806            0    6030.6953    17.073273     20.11006    20.829353    7151.6447    4821.0295    7947.4776    5323.5787    387.11913   -807.80635   -705.54211   -2881.6583 
22316000    265.74706   -3923.6176   -3468.1362   -3923.6176            0    6726.6369    17.100287    20.141879     20.86231    7185.6456    5680.2274     6614.404    7885.2792    -123.2696    1336.5336    249.36121   -2763.2165 
22317000    252.67086    -3956.239   -3523.1698    -3956.239            0    6454.8736    17.075848    20.113093    20.832494     7154.881    6002.4168    7529.4025    5832.8014   -1090.1794   -117.95464    1331.7301   -2849.6257 
22318000    233.75702    -3915.597   -3514.9454    -3915.597            0    6947.1438    17.132672    20.180024     20.90182    7226.5479    8161.3258    6992.1272    5687.9782   -578.20055   -812.19149    207.58461   -2782.7735 
22319000    237.11758   -3944.8531   -3538.4417   -3944.8531            0    7419.0943     17.01663    20.043343    20.760249    7080.7015    6325.0465    7119.0252    8813.2113   -133.41765    1668.1716   -311.38505   -2772.3107 
22320000    248.53926   -3940.0699   -3514.0821   -3940.0699            0    6239.7556    17.086604    20.125762    20.845617    7168.4101    6979.3533    5987.3975    5752.5161   -442.40989   -280.08832    499.75329   -2861.7537 
22321000    245.75882   -3928.7075   -3507.4853   -3928.7075            0    5931.0552    17.084891    20.123745    20.843527    7166.2548    5402.8466    7261.5945    5128.7246    611.70882   -348.56402   -337.58951    -2887.616 
22322000     261.4683   -3888.2621   -3440.1144   -3888.2621            0    6035.5683    17.129126    20.175847    20.897493    7222.0613    3839.8239    7479.8002    6787.0809   -255.48304   -896.23821    359.66947   -2804.4099 
22323000    239.72525   -3924.5521   -3513.6712   -3924.5521            0    8563.4748    16.997875    20.021251    20.737368    7057.3146    8787.0673    7208.1657    9695.1914    1678.0464    246.46515   -320.79826   -2632.2868 
22324000    254.36628   -3945.4562   -3509.4811   -3945.4562            0    7004.8582    17.032655    20.062218      20.7798    7100.7245    5886.7019    6552.0028      8575.87    209.50572   -753.37753   -650.50941   -2784.0805 
22325000    251.62633   -3943.4912   -3512.2123   -3943.4912            0    6307.5789    17.058624    20.092806    20.811482    7133.2523    7767.3579    4608.7719     6546.607   -871.17985    262.66567    222.32518   -2856.0275 
22326000     241.1532   -3921.6016   -3508.2733   -3921.6016            0    5949.3044    17.090811    20.130718     20.85075     7173.707    6647.2388    5297.8506    5902.8239    807.51092    1022.9723   -130.95118   -2885.8502 
22327000    250.84791   -3957.2827    -3527.338   -3957.2827            0    6759.6848    17.092705    20.132948     20.85306    7176.0912    6742.3177    8688.8967    4847.8401   -907.14481   -615.06893   -823.75943   -2819.8969 
22328000    264.65915   -3918.6453   -3465.0286   -3918.6453            0     6104.415    17.131757    20.178946    20.900703    7225.3897    5727.2199    6205.3102    6380.7148    -261.4828     -1099.37   -993.68752   -2821.7765 
22329000    256.82746   -3957.8357   -3517.6423   -3957.8357            0    6124.3567    17.008097    20.033291    20.749838    7070.0541    5896.6542    5242.9971    7233.4188   -1373.1585   -745.98817   -544.68647    -2886.163 
22330000    259.90798   -3912.5643   -3467.0909   -3912.5643            0    3411.4258    17.132472    20.179789    20.901576    7226.2951    5346.3376    1290.9924    3596.9473   -21.651142    398.40638   -1889.9326   -3107.5672 
22331000    255.70994   -3926.8818   -3488.6037   -3926.8818            0    6997.0826    17.060483    20.094995    20.813749     7135.584    7097.0209    5992.1641    7902.0628    976.78945    923.68313    -954.9958   -2760.4511 
22332000    245.46917   -3938.1325   -3517.4068   -3938.1325            0    7747.0265    17.021856    20.049498    20.766625    7087.2268    6701.8122    7490.6373    9048.6301   -385.42765    2053.6717    980.70366   -2716.6746 
22333000    233.98707   -3899.0181   -3497.9722   -3899.0181            0    9400.7878    17.007023    20.032026    20.748528    7068.7148    10308.714    9049.8768    8843.7726     1186.071   -526.81728    461.19342   -2528.8455 
22334000     261.0494   -3891.2186   -3443.7888   -3891.2186            0    5845.1826    17.098673    20.139979    20.860342    7183.6115     7603.162    7136.3184    2796.0676     1043.002    304.29125    -547.9651   -2831.4148 
22335000     247.2343   -3912.3277   -3488.5766   -3912.3277            0    5265.0991    17.036757    20.067049    20.784804    7105.8554    6750.0478    3987.4075    5057.8421   -643.75808    814.63732   -1961.4261   -2942.9458 
22336000    252.39587   -3909.5972   -3476.9993   -3909.5972            0     7396.856    17.075863    20.113112    20.832513    7154.9006    8826.4841    8249.0409     5115.043   -1169.4215    585.10954    -150.8731   -2705.1605 
22337000    245.62063   -3930.8782   -3509.8929   -3930.8782            0    6299.8268    17.088013    20.127422    20.847336    7170.1837    7238.1933    4551.9838    7109.3033   -719.67972    399.00055    830.40745   -2851.1214 
22338000    253.16282   -3896.7102   -3462.7978   -3896.7102            0    5321.5795    17.195393    20.253901    20.978339    7306.2054    4021.0704    6394.7683    5548.8997   -1086.0597    -1283.469    -1444.828   -2895.7648 
22339000    245.34322   -3941.0957   -3520.5858   -3941.0957            0    5558.7822    17.093312    20.133664    20.853801    7176.8568    6332.0885    5780.1527    4564.1053    431.50834    1596.6822    213.52708   -2938.7642 
22340000    245.78928   -3933.4383   -3512.1639   -3933.4383            0    5150.2989    17.074879    20.111953    20.831313    7153.6638    4106.9449    6061.7299    5282.2219   -353.93163    124.68945    557.12257   -2974.8391 
22341000    243.84924    -3937.085   -3519.1358    -3937.085            0    7112.2591    17.058939    20.093177    20.811866    7133.6479    7164.0649    6390.8495    7781.8628     498.7307     1690.729    -860.7822   -2779.1981 
22342000    258.86894   -3940.7109   -3497.0184   -3940.7109            0    6971.5209    17.082642    20.121096    20.840783    7163.4247    5983.8059    7592.5094    7338.2474    32.168027   -726.42705   -1137.0014   -2768.6952 
22343000    238.51192   -3946.6674   -3537.8661   -3946.6674            0    8570.7969    17.105004    20.147435    20.868065    7191.5932    8190.1637    10081.688    7440.5395   -1399.4442    907.47382   -52.748526   -2638.9437 
22344000    243.43964   -3921.6022    -3504.355   -3921.6022            0    7105.8003      17.0581    20.092188    20.810842    7132.5946    6373.6753    7776.4892    7167.2365   -148.35702   -529.68556    34.893024   -2765.1985 
22345000    251.49903   -3953.5213   -3522.4606   -3953.5213            0    7422.5834    17.061305    20.095964    20.814752    7136.6161    6227.9917    8038.7405    8001.0182   -672.62972    538.88224   -580.06164   -2749.9164 
22346000    256.07457   -3911.8352   -3472.9322   -3911.8352            0     6325.085    17.049832     20.08245    20.800756    7122.2288    7315.5326    4949.4322    6710.2903   -860.19025    1429.5337   -876.92682   -2815.9431 
22347000    245.84998     -3905.27   -3483.8915     -3905.27            0    6978.5553     17.06934    20.105428    20.824555    7146.7039    6892.2177    6311.9216    7731.5267   -847.30345   -817.13412    1056.6058   -2756.5352 
22348000     235.1906   -3910.3053   -3507.1967   -3910.3053            0    5474.4495    17.050874    20.083678    20.802027    7123.5348    5978.7233    4884.7749    5559.8502   -499.37254    274.72598   -7.5519339   -2938.4592 
22349000    248.03388   -3896.7247   -3471.6031   -3896.7247            0    5493.4778    17.066133     20.10165    20.820642    7142.6762    5358.2234     5052.843    6069.3669   -634.14106   -1202.9144    664.55444   -2899.3552 
22350000    238.07017    -3890.437   -3482.3929    -3890.437            0    7181.9397    17.068673    20.104642    20.823741    7145.8658    8986.6691    5234.3633    7324.7869    486.73353    121.92094    155.09266   -2733.9262 
22351000    239.01563   -3915.2377   -3505.5731   -3915.2377            0    6436.7471      17.1021    20.144015    20.864522    7187.9313    5770.8983    7556.0652    5983.2777   -2055.4528   -647.15721    826.70208   -2830.8178 
22352000     262.1606    -3930.668   -3481.3337    -3930.668            0    4825.5444    17.160455    20.212749    20.935715    7261.7611     5011.182    5607.2296    3858.2217    663.47426    1336.6773    129.08551   -2970.2828 
22353000    247.77894   -3909.5452   -3484.8606   -3909.5452            0    4993.1192    17.171831    20.226149    20.949594     7276.213    4787.3632    3198.6236    6993.3706    -40.93223     3.756975   -1017.2137   -2955.0102 
22354000    253.45635   -3915.6098   -3481.1943   -3915.6098            0    4807.9964    17.177124    20.232383    20.956051    7282.9429    4520.5963    4418.1226    5485.2704    248.17216   -164.00749   -322.70058   -2970.5166 
22355000    264.42796   -3918.4808   -3465.2604   -3918.4808            0     6781.678    17.057491    20.091471    20.810099    7131.8309     6763.027    6781.1032    6800.9037    777.23663   -535.01528   -901.84055   -2759.8951 
22356000     234.6212   -3925.9351   -3523.8024   -3925.9351            0    5582.5583    17.134929    20.182683    20.904574    7229.4048    3903.4359    7252.9019    5591.3373   -1188.8008    115.21294   -164.55163    -2935.214 
22357000    250.84589   -3954.2391   -3524.2978   -3954.2391            0    5648.9795    17.152251    20.203086    20.925707    7251.3519    4393.5063    6752.4701     5800.962   -488.04337    1422.8459     1097.397   -2926.8983 
22358000    239.63301    -3907.636   -3496.9132    -3907.636            0    5203.5205    17.133159    20.180598    20.902414    7227.1638    4516.9492    5915.2031    5178.4093    101.16808   -815.19158     793.2178   -2948.4582 
22359000    258.33941    -3942.328   -3499.5431    -3942.328            0    6547.8936     17.02287    20.050693    20.767862    7088.4936    4596.1134    5026.1965    10021.371   -482.38977   -151.29728   -1814.9845   -2822.6323 
22360000    247.68139   -3924.1282   -3499.6107   -3924.1282            0    6106.9597    17.061716    20.096448    20.815254    7137.1317    4634.0276    8132.5008    5554.3507    616.89526   -1789.7419   -1279.3912   -2863.9511 
22361000    245.80187   -3909.6609   -3488.3649   -3909.6609            0    5755.0537    17.127906    20.174411    20.896005    7220.5189    6363.0944    4572.0006    6330.0661   -1437.5683    224.04702    1039.3997   -2882.3355 
22362000    251.80123   -3920.6234   -3489.0447   -3920.6234            0    7009.0185    17.031716    20.061112    20.778654    7099.5498    6939.2711    7775.0229    6312.7615   -1447.8096    -568.9599   -787.84004   -2763.3333 
22363000    249.17883   -3936.7406   -3509.6566   -3936.7406            0    5921.3091    17.081276    20.119486    20.839116    7161.7059    4654.3726    7389.1942    5720.3606   -222.25088    847.32226    211.32371   -2891.1988 
22364000    256.74258   -3904.6057   -3464.5577   -3904.6057            0    6565.3887    17.084245    20.122984    20.842739    7165.4411    6616.0849    5198.4246    7881.6566    542.32703    860.58826    537.85482   -2778.4705 
22365000    257.91901   -3928.3579   -3486.2935   -3928.3579            0    6922.9147    17.073791    20.110671    20.829986    7152.2964     6807.071    7401.5527    6560.1204    562.84942    927.30411    1855.5286   -2764.1718 
22366000    246.51643   -3945.2702   -3522.7495   -3945.2702            0    7179.1732    17.065492    20.100896    20.819861    7141.8719    7387.0422    6640.5466    7509.9308   -8.1566221   -199.73703   -1293.4151   -2774.9893 
22367000    237.85519   -3960.5609   -3552.8852   -3960.5609            0    5586.3625    17.098387    20.139642    20.859993    7183.2512    5179.9181    6008.6684    5570.5011    1192.3587   -1068.4698     -1615.65   -2967.6559 
22368000    247.85853   -3949.9671    -3525.146   -3949.9671            0    4877.7228    17.033106    20.062749     20.78035    7101.2887    5661.7188    4340.1843    4631.2654    695.88805    33.555336   -2179.3387   -3019.9846 
22369000    248.50897   -3919.0284   -3493.0925   -3919.0284            0    5720.5545    17.074843     20.11191    20.831269    7153.6181    6189.6168    5477.4799    5494.5668    509.77201    514.60741      1054.42   -2896.2775 
22370000    242.75521   -3915.9279   -3499.8537   -3915.9279            0    4706.3282    17.143377    20.192634     20.91488    7240.1031    6864.6425    5005.3463    2248.9958    515.58874   -1213.5986    41.346789    -3002.915 
22371000    249.47193    -3916.782   -3489.1957    -3916.782            0    7723.5869    17.075007    20.112102    20.831468    7153.8237    9649.9891    6482.8171    7037.9545   -1266.5198   -965.32703    1117.1902   -2683.3848 
22372000    247.63858   -3888.9693   -3464.5252   -3888.9693            0     5490.268    17.130655    20.177649    20.899359    7223.9963    5674.2734    5885.2219    4911.3089   -1598.4496    465.18672    1152.7609   -2886.1004 
22373000    238.26416   -3913.8302   -3505.4536   -3913.8302            0    4868.4767     17.10382    20.146041    20.866621    7190.1005    6431.0354    3947.7635    4226.6313   -415.90669    958.47002    741.09932   -2994.9439 
22374000    260.97136   -3915.0403   -3467.7443   -3915.0403            0    7240.5085    17.044209    20.075827    20.793895    7115.1842    7421.1264    6968.2256    7332.1735    1206.1861    523.82137    519.30175   -2716.4137 
22375000    251.57973   -3863.7196   -3432.5205   -3863.7196            0    5741.5092    17.103337    20.145472    20.866031    7189.4912    5178.7905    5462.2202    6583.5169   -1586.4549   -964.43563    1632.8009   -2830.5155 
22376000    249.81146   -3907.1057   -3478.9374   -3907.1057            0     8309.708    17.065449    20.100845    20.819808    7141.8175    8994.5489    7708.6695    8225.9055    202.00677   -624.57681   -181.16191   -2613.4308 
22377000    252.73029   -3913.1206   -3479.9495   -3913.1206            0    5566.5778    17.120033    20.165138    20.886401    7210.5667    5753.1305     6192.407    4754.1959    928.11233    277.49266    1072.5564   -2894.5753 
22378000    257.32927   -3929.5214   -3488.4679   -3929.5214            0    6856.3225    17.111636    20.155247    20.876156    7199.9621    7383.2254      8862.44    4323.3021    -476.9304    933.80783    -293.1581   -2768.5262 
22379000    252.83026   -3875.5207   -3442.1783   -3875.5207            0    7791.7667    17.074672    20.111709     20.83106    7153.4035     9357.515    6870.8183    7146.9667   -567.32067    1466.0104   -1267.2534   -2629.3018 
22380000    242.86132   -3919.4355   -3503.1795   -3919.4355            0     8225.318    17.082935    20.121441    20.841141    7163.7932     8210.288    7023.3479    9442.3182   -2008.2116   -284.59198    1363.9334   -2643.8264 
22381000     256.3803   -3955.9578   -3516.5308   -3955.9578            0    5660.8513    17.155431    20.206832    20.929586    7255.3856    4923.4172     6706.394    5352.7425   -22.363962    675.38771    252.45809   -2917.5428 
22382000     251.2717   -3885.0963   -3454.4252   -3885.0963            0    5856.4053    17.130839    20.177865    20.899583    7224.2285    3659.4956    7886.2617    6023.4587   -937.99353    242.53986   -124.92448   -2837.4063 
22383000    247.89645   -3906.0544   -3481.1684   -3906.0544            0    6878.8052    17.093241     20.13358    20.853714    7176.7669    5711.3563    4724.2848    10200.775    660.82898   -778.98627    253.76445   -2761.1929 
22384000    244.95744   -3920.5219   -3500.6732   -3920.5219            0    3473.6403     17.14653    20.196347    20.918726    7244.0979    4760.5171    2579.3607    3081.0431   -1120.0618    345.91963   -409.47734    -3133.691 
22385000    249.71093   -3947.6277   -3519.6317   -3947.6277            0    4761.7822    17.061458    20.096144    20.814939    7136.8083     5641.184     3848.907    4795.2555    334.21144    678.85267   -1050.1673    -3024.011 
22386000    243.81228   -3896.7161   -3478.8302   -3896.7161            0    7397.2177    17.108173    20.151167    20.871931    7195.5907    7517.8655    7228.7571    7445.0304   -174.34264    384.49974   -1088.4899   -2702.5639 
22387000     250.2641   -3949.8589   -3520.9148   -3949.8589            0    4041.6251     17.18186    20.237962    20.961829    7288.9693    4616.0743    4932.9935    2575.8077    228.78787   -390.21008    205.70083   -3091.2814 
22388000    248.15132   -3905.3559   -3480.0331   -3905.3559            0    6672.2105    17.111903    20.155562    20.876482    7200.2992    6157.3079    6613.8385    7245.4851    1847.4911   -862.43831   -507.06362   -2779.3911 
22389000    231.19597   -3924.5316   -3528.2696   -3924.5316            0    7124.6817    17.071778      20.1083     20.82753    7149.7668    6263.1082    8902.9707    6207.9662    1029.7735    539.00138       147.35   -2785.3647 
22390000    259.17062   -3927.3645   -3483.1549   -3927.3645            0    8313.1024    17.044752    20.076467    20.794558    7115.8648    9607.9886    9235.4402    6095.8783    588.87491   -1797.2835   -371.17541   -2620.4412 
22391000    241.45028   -3930.8169   -3516.9794   -3930.8169            0     6003.545    17.122072    20.167539    20.888888    7213.1428    7632.0174     5613.647    4764.9707   -613.12168    520.71445   -38.420725   -2885.4287 
22392000    248.22336   -3921.1585   -3495.7122   -3921.1585            0    6137.6462    17.087353    20.126645    20.846531    7169.3534     6001.284    5689.0013    6722.6532   -340.73297    376.66433    639.31745   -2853.9742 
22393000    242.12379   -3918.1091   -3503.1172   -3918.1091            0    6219.0221    17.105485    20.148002    20.868652    7192.2005    6850.2478    6295.4172    5511.4011   -509.06491    843.84752   -1251.9207   -2850.7986 
22394000    244.50741   -3901.7386   -3482.6613   -3901.7386            0    6452.2651    17.140034    20.188697    20.910802    7235.8685    5357.9656    5988.3792    8010.4506    580.26718   -198.52124   -821.23415   -2801.7685 
22395000    259.05381    -3905.429   -3461.4196    -3905.429            0    6100.4137    17.121127    20.166426    20.887734    7211.9483    5899.4196    5794.3824    6607.4391   -1181.9088   -925.05105   -621.13738    -2819.785 
22396000    237.69153    -3897.491   -3490.0959    -3897.491            0    7132.8813    17.047738    20.079983      20.7982    7119.6045     6092.346    7384.5277    7921.7704    1071.1798   -9.1471243    382.62672   -2749.4736 
22397000    238.37243   -3931.5883   -3523.0261   -3931.5883            0    7359.2465    17.045205    20.076999     20.79511    7116.4309     7882.727    7628.9396    6566.0728   -1163.5399    1087.2843     32.65878   -2759.2405 
22398000    229.60784   -3907.4558   -3513.9158   -3907.4558            0    7115.7601    17.079567    20.117474    20.837032    7159.5572     6750.369    5585.3458    9011.5654   -336.76029   -844.26897    65.116606   -2770.9251 
22399000    259.51218   -3890.7532   -3445.9582   -3890.7532            0    7226.5436    17.101106    20.142845     20.86331    7186.6786    6517.4179    5230.8347    9931.3782   -788.87483    267.08758   -1158.7225   -2688.5417 
22400000    251.63431   -3911.2482   -3479.9556   -3911.2482            0    7519.3522     17.05507    20.088619    20.807145    7128.7942    7923.5042    7206.5471    7428.0054   -207.50385    1232.9675    755.51884   -2698.1975 
22401000    262.23721   -3895.8558   -3446.3902   -3895.8558            0    6098.8376    17.138009    20.186311    20.908331    7233.3032    7631.7266    5026.9528    5637.8334    773.57723    1012.2259   -563.10127    -2803.022 
22402000    227.48879   -3899.2313   -3509.3233   -3899.2313            0     8070.719    17.092883    20.133159    20.853278    7176.3162    8078.7322    7878.0747    8255.3501    291.13302   -385.41229    725.12996   -2664.6483 
22403000    238.82857   -3892.3555   -3483.0115   -3892.3555            0    6303.9685    17.165176     20.21831    20.941475    7267.7565     4574.047    7007.5061    7330.3522    1013.0717    77.305036    1765.9543   -2814.8364 
22404000    244.43125   -3940.9347   -3521.9879   -3940.9347            0    4921.4974    17.228603    20.293019    21.018856    7348.6199    4678.6124     5965.645    4120.2349    767.87402   -287.20832   -652.47589   -2994.5407 
22405000    233.07026   -3889.2734   -3489.7989   -3889.2734            0    5281.2417    17.198302    20.257328    20.981888    7309.9145    4508.6395    5052.4344    6282.6513   -466.05391    765.57362   -365.88464   -2926.7784 
22406000     236.1074   -3917.2152   -3512.5352   -3917.2152            0    7193.6205    17.144171    20.193569    20.915849    7241.1089    7321.2992    8015.0164    6244.5461   -501.83744    92.846545    332.87689    -2752.859 
22407000     235.6457   -3909.9493   -3506.0606   -3909.9493            0    6136.4312    17.119123    20.164066     20.88529    7209.4169    4499.2645    8148.0898    5761.9393    583.65577   -947.20196    469.63714   -2860.8643 
22408000    247.35251   -3924.2036   -3500.2498   -3924.2036            0    6944.7302     17.11245    20.156206    20.877149    7200.9892    6709.9029    8495.5215    5628.7663   -1049.5027    46.627766    1059.2886   -2770.9209 
22409000    242.77228   -3926.5724    -3510.469   -3926.5724            0    6703.1859    17.142383    20.191463    20.913667     7238.843    6281.0257     6301.148    7527.3841    1500.6043    -1438.934    349.76031   -2802.8063 
22410000    251.45593   -3890.7194   -3459.7325   -3890.7194            0    6235.8335    17.090336    20.130158     20.85017     7173.108    4227.0171    6346.9986    8133.4847    1482.9997   -1416.7426   -965.57942   -2807.3869 
22411000    247.41882   -3934.0713   -3510.0039   -3934.0713            0    7750.6664    17.021235    20.048767    20.765867    7086.4511    6868.8315    8166.4952    8216.6727   -130.05995   -1426.9309   -773.32166   -2708.9833 
22412000    238.89241   -3892.9543   -3483.5009   -3892.9543            0    3870.7864    17.143537    20.192822    20.915075    7240.3054    2206.4601     2914.769    6491.1301   -299.05814   -61.194423   -301.65582   -3074.7752 
22413000    252.33856   -3907.4795   -3474.9798   -3907.4795            0    5506.6924    17.086822    20.126019    20.845883    7168.6844    4732.1359    6415.1997    5372.7415   -603.74397    102.12574    1316.4787   -2899.2666 
22414000    252.56064   -3912.7637   -3479.8834   -3912.7637            0    7345.8032    17.046973    20.079083    20.797268    7118.6466    7565.6826    6248.4332    8223.2939   -595.19431    325.85039   -183.23851   -2717.2556 
22415000    250.79183   -3913.7239   -3483.8753   -3913.7239            0    5702.3846    17.018589     20.04565    20.762639    7083.1466    6481.3194    6010.3383     4615.496    877.69193    269.46355   -1506.0909   -2894.8165 
22416000      241.599   -3888.1779   -3474.0855   -3888.1779            0    5562.8196    17.066209     20.10174    20.820735    7142.7717    6199.9162    4846.9732    5641.5695    186.10432   -942.65384    -799.5928   -2894.6066 
22417000    234.59162   -3933.0526   -3530.9706   -3933.0526            0    6283.9031    17.059578     20.09393    20.812646    7134.4493    8243.2958    5189.0274    5419.3862    1186.2514    -287.9118    -418.6402   -2877.1391 
22418000    262.80681   -3904.1272   -3453.6854   -3904.1272            0    4998.8269    17.091516    20.131549     20.85161    7174.5948    5531.7269    5548.0547    3916.6991   -635.14216   -993.59445    768.20723   -2930.6376 
22419000    257.92895   -3890.0153   -3447.9339   -3890.0153            0    4620.5452    17.104254    20.146552     20.86715    7190.6474    4222.7669    4023.2309    5615.6379   -53.373874   -588.91522    950.58729   -2963.3856 
22420000    256.56628   -3905.6556   -3465.9098   -3905.6556            0    7105.0342    17.060476    20.094987    20.813741    7135.5756    6552.0271    6203.5029    8559.5726    77.521242   -206.87175    392.19061   -2726.5241 
22421000    251.37266   -3887.4473   -3456.6032   -3887.4473            0    7563.0949    17.038898    20.069571    20.787416    7108.5348    7949.2064    8010.7522     6729.326    563.42245   -81.508364   -747.69365    -2672.532 
22422000    258.24586   -3896.3375   -3453.7129   -3896.3375            0    7368.0518    17.046679    20.078736    20.796909    7118.2779    7245.1664    6569.5327    8289.4562    1523.8629    -951.5348    1320.7344    -2688.815 
22423000     253.0624   -3921.2061   -3487.4658   -3921.2061            0    7311.2999    17.063312    20.098327      20.8172    7139.1345    8779.6875    7437.6796    5716.5327    102.73235   -2547.7471   -14.434751   -2726.2355 
22424000    241.86899   -3925.8316   -3511.2764   -3925.8316            0    4996.5016    17.143494    20.192771    20.915022    7240.2505    6640.9679    3901.5909     4446.946   -862.46442    795.85915    1194.1393   -2983.6877 
22425000    256.12784   -3906.8217   -3467.8273   -3906.8217            0    4978.4721    17.137753    20.186009    20.908018     7232.979    4048.3955    6738.6658    4148.3549   -733.73846    1894.7229   -236.63098   -2942.6703 
22426000    245.84123   -3915.7346   -3494.3712   -3915.7346            0    6192.0279    17.117994    20.162736    20.883913    7207.9909    7578.9759    4583.8349    6413.2729   -740.44438    442.73494    1373.3387    -2843.458 
22427000    248.14926   -3877.0687   -3451.7493   -3877.0687            0    9463.9629    17.065758    20.101209    20.820185    7142.2059    8243.9092    8650.8631    11497.116   -1485.7841    465.93512    435.28835   -2465.9664 
22428000    252.92953    -3891.926   -3458.4134    -3891.926            0    5274.0733    17.163817    20.216709    20.939816    7266.0299    4683.5336    6905.6813     4233.005    130.69429   -516.41027    189.09999   -2899.5326 
22429000     244.0624   -3905.1925   -3486.8779   -3905.1925            0    6079.0152    17.146928    20.196816    20.919212    7244.6026    7332.9052    5180.4413    5723.6991    -1191.236   -813.10316    -1458.148    -2844.599 
22430000    247.88324   -3918.9728   -3494.1095   -3918.9728            0    5022.5765    17.107701    20.150612    20.871355    7194.9958    6324.3939    3564.1328    5179.2028    236.82058   -1866.4661   -621.55693   -2967.0823 
22431000    246.04904    -3911.422   -3489.7024    -3911.422            0    6894.8579    17.094858    20.135485    20.855687    7178.8037    7162.6129    7090.4395    6431.5212    417.28391   -529.72633    1569.2791   -2767.8419 
22432000    270.98963   -3942.2159   -3477.7489   -3942.2159            0    7718.0325    17.050217    20.082903    20.801225    7122.7106    7068.6976    9854.9295    6230.4704    431.82253   -571.53105      2339.02   -2676.0195 
22433000    258.34055   -3979.4811   -3536.6942   -3979.4811            0    6728.4054    17.107963    20.150921    20.871675    7195.3267     5525.544    8373.7678    6285.9044   -203.33993    118.35999    -630.2699   -2830.6391 
22434000    243.04153   -3948.3348   -3531.7699   -3948.3348            0    7156.8109    17.162552    20.215219    20.938273    7264.4234    6831.1899    7476.2155    7163.0273    22.369899   -801.70244    38.752444   -2773.5476 
22435000    268.41914   -3934.4147   -3474.3534   -3934.4147            0    6841.5541    17.077205    20.114692    20.834151    7156.5877    5051.7778    7920.2604     7552.624   -76.504204   -486.21359     1041.995   -2760.2902 
22436000    248.95091   -3904.7271   -3478.0337   -3904.7271            0    5359.0803    17.117463    20.162111    20.883265    7207.3203    5118.3792    3973.1564    6985.7053    2084.2255    764.90325   -609.24624   -2914.7334 
22437000    241.36372   -3912.8952   -3499.2061   -3912.8952            0    6281.1578    17.088299    20.127759    20.847685    7170.5438    4112.7534    7820.6516    6910.0683    213.99967   -679.92483   -424.68557   -2842.3538 
22438000    266.82098    -3898.257    -3440.935    -3898.257            0    6477.0619    17.075331    20.112484    20.831863    7154.2308    8722.2952    6096.7432    4612.1474   -317.90199    257.36265    -683.6693    -2765.137 
22439000    236.20385   -3920.3505   -3515.5052   -3920.3505            0    5137.1006    17.102706    20.144729    20.865261    7188.6955    4468.3076    5491.0687    5451.9254    742.62561   -1123.5119   -481.63603   -2976.9329 
22440000    267.98056   -3912.3608   -3453.0513   -3912.3608            0    6284.1039    17.108321    20.151342    20.872112    7195.7779    6857.0512    7099.8543    4895.4063   -130.97626   -310.93852    819.71245   -2793.5784 
22441000    256.84115   -3927.6249    -3487.408   -3927.6249            0    6634.3129    17.076098    20.113388    20.832799    7155.1953    7639.3235    6839.9312     5423.684    169.18425    2187.6391    885.06649   -2795.1096 
22442000    251.29707   -3906.5327   -3475.8181   -3906.5327            0    6224.6104    17.136522    20.184559    20.906517    7231.4206    5044.6828    6062.3605     7566.788    409.60281    346.55631    1656.3934    -2819.353 
22443000    241.47669   -3886.8906   -3473.0078   -3886.8906            0    8274.4136    17.044365    20.076011    20.794086    7115.3797     8138.155    10055.685    6629.4009    1106.3564    83.661886    551.24497   -2614.3677 
22444000    247.46103   -3881.1693   -3457.0296   -3881.1693            0    8341.2462    17.156207    20.207746    20.930533    7256.3701    10629.287    7346.6765    7047.7755   -402.59057     -50.8137     415.7422   -2574.3029 
22445000    253.74888   -3911.9362   -3477.0193   -3911.9362            0    5349.2491    17.147364    20.197329    20.919743    7245.1545    6067.3103     4361.612    5618.8251   -73.908484     711.5422    596.22108   -2911.8008 
22446000    249.76247   -3915.9672   -3487.8829   -3915.9672            0    4282.6714    17.160781    20.213133    20.936113    7262.1756    4737.6414     4393.288    3717.0849   -601.28904   -119.07788   -125.88279   -3034.2992 
22447000    256.66671   -3913.8512   -3473.9332   -3913.8512            0    7070.0952    17.084165    20.122889    20.842641    7165.3405    6745.7974    7229.7503    7234.7379   -2174.9407   -509.81845    717.01978   -2735.1144 
22448000    248.82545   -3909.9733    -3483.495   -3909.9733            0    5441.6649    17.197668    20.256581    20.981115    7309.1064      4121.17    5348.4824    6855.3424    1033.7396    726.16762   -193.46617   -2903.4363 
22449000    256.30816   -3875.7973   -3436.4939   -3875.7973            0    5635.6494    17.102873    20.144925    20.865465    7188.9056    5903.1361    4781.5276    6222.2845   -42.616177   -36.612124    -709.0281   -2845.6366 
22450000    255.00022   -3914.6722   -3477.6105   -3914.6722            0    8360.8758    17.090573    20.130438     20.85046    7173.4073    10374.379    7799.7813    6908.4671   -677.31304   -3050.5721   -412.63625   -2602.9225 
22451000     249.9719   -3890.8492   -3462.4059   -3890.8492            0    6599.9538    17.072896    20.109616    20.828893    7151.1708    7524.2571    5464.2687    6811.3355    11.315156   -379.26164    1031.3339   -2774.0803 
22452000    259.12029   -3920.3065   -3476.1831   -3920.3065            0    5259.5299    17.226379      20.2904    21.016143     7345.775    4990.5735    5908.9816    4879.0346    1397.7971   -714.84811    414.71674   -2912.7266 
22453000    245.97588   -3931.4267   -3509.8324   -3931.4267            0    7040.7325    17.150676    20.201231    20.923785    7249.3543     6341.262    7596.7095    7184.2259    522.07697    924.85199    345.92106   -2765.4552 
22454000    237.80136   -3906.7963   -3499.2129   -3906.7963            0    7452.5959    17.071945    20.108496    20.827733    7149.9765    6510.0896    7530.8478    8316.8503    1686.0185    443.05481    1287.8416    -2722.093 
22455000    240.44049    -3925.765   -3513.6582    -3925.765            0    7293.2174    17.082868    20.121362    20.841059    7163.7095    8579.3958    5592.6088    7707.6476    1193.6417   -936.90679    1144.7375   -2751.6968 
22456000    243.73395   -3913.9207   -3496.1691   -3913.9207            0     6387.328    17.050806    20.083598    20.801944    7123.4497     6433.598    7237.7592    5490.6268    33.832403   -581.54971   -652.57775    -2832.601 
22457000    239.63812   -3899.0179   -3488.2864   -3899.0179            0     7474.821    17.114302    20.158387    20.879408    7203.3274    8874.6287    7121.4488    6428.3855    421.87997   -543.92641    339.46328   -2703.0329 
22458000    261.83883    -3892.243   -3443.4602    -3892.243            0    7062.1039    17.036214     20.06641    20.784142    7105.1766    6576.0483    7629.2449    6981.0186   -208.81459    -1253.651   -28.169939   -2711.6729 
22459000    249.70173   -3894.7871   -3466.8069   -3894.7871            0    8572.3449    17.092192    20.132345    20.852434    7175.4457    7391.4757    7720.4643    10605.095    832.74331   -1456.6947   -576.28407   -2569.7408 
22460000    259.40021   -3901.4481    -3456.845   -3901.4481            0    6382.8086    17.145878    20.195579    20.917931    7243.2713    6288.2028    5724.7933    7135.4298   -391.21295   -1880.9888    254.24381   -2782.5927 
22461000    248.84763   -3908.2204   -3481.7041   -3908.2204            0    8223.6367    17.050571    20.083321    20.801657    7123.1549    8017.2338    9627.4943     7026.182   -631.75594   -175.42017    166.44739   -2627.4005 
22462000    239.54975   -3889.1003   -3478.5203   -3889.1003            0    6264.1792    17.179869    20.235617      20.9594    7286.4359    7891.9749    5544.0285    5356.5342    455.24426   -647.07579   -106.40939    -2812.856 
22463000    263.23306   -3891.4568   -3440.2844   -3891.4568            0    6456.2335     17.13688    20.184981    20.906954    7231.8743    6389.7643    6601.3812    6377.5549     396.6588   -1240.8676   -160.28554   -2759.3488 
22464000    248.76966   -3901.2189   -3474.8363   -3901.2189            0    6625.9859    17.099905    20.141429    20.861844    7185.1638    6653.8811    8109.8028    5114.2739    752.20573   -989.64721   -485.86303   -2780.5108 
22465000    236.00561   -3940.5798   -3536.0743   -3940.5798            0    6943.5951      17.0577    20.091717    20.810354    7132.0929    6448.7201    7106.5958    7275.4694   -285.25252    -713.2763   -375.76309   -2813.8413 
22466000    255.09207   -3951.3786   -3514.1596   -3951.3786            0    5973.9677    17.119751    20.164806    20.886057    7210.2106    3618.6273    8201.1701    6102.1058   -897.13255   -49.779571    1280.4314   -2885.9758 
22467000     249.0974   -3940.6493   -3513.7048   -3940.6493            0    7860.6983    17.102124    20.144043    20.864551    7187.9617    9129.1182    6701.6523    7751.3245   -1286.2786      -1561.9    1283.8871   -2689.6753 
22468000    253.30531   -3924.4261   -3490.2695   -3924.4261            0    5480.4037    17.113317    20.157227    20.878207    7202.0841     6498.458    5034.4777    4908.2753   -321.77536   -172.19928   -2130.1588   -2914.6352 
22469000    253.79534   -3901.9212   -3466.9247   -3901.9212            0    6687.9449    17.177674    20.233031    20.956723    7283.6436    8312.8049    6043.5684    5707.4614   -595.62473   -390.03526    1251.1664   -2756.5013 
22470000    244.48416   -3940.7158   -3521.6783   -3940.7158            0    7370.3073    17.096086    20.136932    20.857185    7180.3514    7153.1199    7887.7955    7070.0066   -892.01953   -494.94605   -1119.9565    -2749.874 
22471000     241.8827   -3905.9415   -3491.3628   -3905.9415            0     6761.756    17.056888    20.090761    20.809363    7131.0744    7032.4458    6221.6301     7031.192    693.19822   -1940.7314   -1070.0098   -2788.1442 
22472000    242.95725   -3936.4517   -3520.0313   -3936.4517            0    6037.3565    17.138285    20.186636    20.908668     7233.653    5468.5742    5304.1448    7339.3506   -1330.3936     82.50693    2362.2076   -2883.1179 
22473000    236.42084   -3921.6831   -3516.4659   -3921.6831            0    5405.7557    17.087502    20.126821    20.846713    7169.5412    8032.8229    3078.8031    5105.6411   -298.55077    2122.6436    -909.7106   -2951.2379 
22474000    249.93234   -3932.3484   -3503.9729   -3932.3484            0    6998.0707    17.068192    20.104076    20.823154    7145.2619    4517.8872     7791.501    8684.8239   -119.03823    442.60885    165.71731   -2774.7297 
22475000    238.86564   -3920.9098   -3511.5023   -3920.9098            0    6961.1519    17.066877    20.102527     20.82155    7143.6106    8852.8646    5236.6945    6793.8967   -70.395647    620.61804    -1909.169   -2786.2739 
22476000     250.3272   -3914.5065   -3485.4543   -3914.5065            0    5365.4198    17.120578    20.165779    20.887065    7211.2546    7893.8333    4754.0847    3448.3414    72.333961    745.26072    1100.8101   -2921.1798 
22477000    262.95533   -3880.0969   -3429.4004   -3880.0969            0    7349.2322    17.073579    20.110421    20.829727    7152.0298    7729.4176    7339.7958    6978.4832     38.38478     891.3932   -418.91985   -2662.8386 
22478000    251.33051   -3892.6679    -3461.896   -3892.6679            0    6613.3175    17.126902    20.173228     20.89478    7219.2487    6943.1161    5092.0208    7804.8158   -1143.9441    907.31491    160.53244   -2765.6107 
22479000    254.68527   -3918.8172   -3482.2953   -3918.8172            0      5887.22    17.137251    20.185418    20.907406     7232.344    5668.8289     5179.434    6813.3969    -2313.396   -185.57576   -334.84255    -2861.333 
22480000    256.21848   -3906.5265   -3467.3768   -3906.5265            0    5518.4637    17.164718    20.217771    20.940916    7267.1752    6127.7514    6763.5548    3664.0848   -887.22469   -417.65479    269.12725   -2882.5063 
22481000    257.59632   -3924.0278   -3482.5166   -3924.0278            0    6120.1594    17.129327    20.176085    20.897739    7222.3165    6423.3927    5270.8755    6666.2101    122.50024   -1339.5331    170.97056   -2837.8797 
22482000    249.02799   -3922.4969   -3495.6715   -3922.4969            0    4861.3569    17.136334    20.184338    20.906287    7231.1825    6388.6074    3672.4237    4523.0397    1644.2521   -757.67827    103.41866   -2982.9958 
22483000    242.44637   -3918.5495   -3503.0047   -3918.5495            0    6162.2329    17.086252    20.125349    20.845188    7167.9678    5678.2824    6692.5462    6115.8699    174.59769     200.7635     66.22943   -2858.8206 
22484000    248.25135   -3901.3417   -3475.8474   -3901.3417            0    4215.2012    17.080337    20.118381    20.837971    7160.5255    3448.8875    5045.8475    4150.8685   -716.56697   -940.29383   -2025.3304   -3035.6585 
22485000    247.81976   -3915.0896    -3490.335   -3915.0896            0    7065.4495    17.017099    20.043895    20.760821    7081.2868    7604.7017    8425.5184    5166.1286    509.48719   -328.13373   -436.68102   -2760.6627 
22486000    252.39311   -3899.4311   -3466.8379   -3899.4311            0    5024.2077    17.130942    20.177987     20.89971    7224.3594    4577.3017    6037.2231    4458.0984     174.8794   -1096.3687   -665.04172    -2937.488 
22487000     236.4166   -3879.6888   -3474.4789   -3879.6888            0    6979.2834    17.130914    20.177954    20.899675    7224.3234    5837.6517    8004.2477    7095.9508    502.38829    -78.73711   -542.31909   -2739.1461 
22488000    252.57301   -3905.9139   -3473.0124   -3905.9139            0    7450.6977    17.137149    20.185298    20.907282    7232.2144    8688.3931     8408.648    5255.0519   -275.11333    1167.2935   -2169.0697   -2687.1544 
22489000    248.84819   -3917.5785   -3491.0612   -3917.5785            0    4794.1139    17.212534    20.274092    20.999252    7328.0775    3511.7158    5970.6036    4900.0222    577.63326   -149.69294   -304.95425   -2978.7023 
22490000    246.82003   -3891.7064   -3468.6653   -3891.7064            0    5589.0454    17.165835    20.219087    20.942279    7268.5941    6486.3881    3676.9626    6603.7855   -76.669501    954.80652    311.25252   -2876.1986 
22491000    233.74501   -3896.6186   -3495.9877   -3896.6186            0    6483.9792    17.175576     20.23056    20.954163    7280.9749    5763.8367    7343.6889     6344.412   -1195.0561    424.48399    1795.9073   -2807.4828 
22492000    258.63433   -3919.0569   -3475.7665   -3919.0569            0    5989.5554    17.159938     20.21214    20.935084    7261.1053     7111.133    4779.9806    6077.5524   -391.89923    1600.5503    676.89515   -2841.4979 
22493000    257.02443   -3882.4062   -3441.8751   -3882.4062            0     6626.252    17.123732    20.169494    20.890913    7215.2411    5778.0017    7956.1681    6144.5862    1576.4911    530.51005   -754.01501   -2744.6152 
22494000    252.22845   -3873.3193   -3441.0083   -3873.3193            0    7681.2696    17.092653    20.132887    20.852996    7176.0257    7053.7959    7008.0824    8981.9305    261.13119    523.66145    4.8066897   -2637.1253 
22495000    258.93232   -3886.8086   -3443.0075   -3886.8086            0    7053.3356    17.079043    20.116857    20.836393    7158.8988    6581.5389    7303.1288    7275.3391   -291.92525   -1875.0987    1248.6527   -2706.6026 
22496000    249.51475    -3925.956   -3498.2963    -3925.956            0    5865.1002    17.178751      20.2343    20.958036    7285.0135     5163.569    5642.1622    6789.5694   -906.56522   -1449.0389   -878.81316   -2875.1619 
22497000    255.14371   -3938.3119   -3501.0043   -3938.3119            0     7001.105     17.09455    20.135122    20.855311     7178.416     9307.841    4028.8201    7666.6539   -289.06886    1704.0011    231.01739   -2768.0598 
22498000    255.78612   -3903.1119   -3464.7032   -3903.1119            0    6939.9687      17.1284    20.174992    20.896608    7221.1431    7706.5699    7014.0447    6099.2914    26.042405   -819.90384   -1873.6661   -2733.8345 
22499000    253.04576   -3943.6381   -3509.9263   -3943.6381            0     5480.517    17.160543    20.212853    20.935822    7261.8731    6005.9756     4028.868    6406.7074    1187.3823    101.13527   -553.44539   -2929.5013 
22500000    254.73238   -3905.9711   -3469.3685   -3905.9711            0    6092.0747    17.179084    20.234692    20.958443    7285.4375    7073.5645    5770.6211    5432.0384     681.3345   -796.06289    911.26643   -2822.0817 
Loop time of 477.703 on 64 procs for 250000 steps with 864 atoms

Performance: 90.433 ns/day, 0.265 hours/ns, 523.337 timesteps/s
99.1% CPU use with 64 MPI tasks x 1 OpenMP threads

MPI task timing breakdown:
Section |  min time  |  avg time  |  max time  |%varavg| %total
---------------------------------------------------------------
Pair    | 21.01      | 26.194     | 31.05      |  47.8 |  5.48
Bond    | 0.27376    | 0.28097    | 0.29455    |   0.8 |  0.06
Kspace  | 200.5      | 213.48     | 229.34     |  46.6 | 44.69
Neigh   | 4.5547     | 5.853      | 7.2338     |  30.9 |  1.23
Comm    | 95.964     | 112.21     | 127.27     |  70.7 | 23.49
Output  | 1.3889     | 1.3905     | 1.3965     |   0.1 |  0.29
Modify  | 108.88     | 113.4      | 118.63     |  28.9 | 23.74
Other   |            | 4.892      |            |       |  1.02

Nlocal:        13.5000 ave          17 max           8 min
Histogram: 2 1 4 5 8 8 13 10 9 4
Nghost:        2193.02 ave        2241 max        2145 min
Histogram: 1 3 8 10 7 14 12 4 4 1
Neighs:        4239.31 ave        5850 max        2175 min
Histogram: 1 3 4 6 11 9 12 10 5 3

Total # of neighbors = 271316
Ave neighs/atom = 314.02315
Ave special neighs/atom = 2.0000000
Neighbor list builds = 12779
Dangerous builds = 0

unfix		3
unfix		2
unfix		1

write_data	data.final.${pid}
write_data	data.final.0
System init for write_data ...
PPPM initialization ...
  extracting TIP4P info from pair style
  using 12-bit tables for long-range coulomb (../kspace.cpp:340)
  G vector (1/distance) = 0.37483578
  grid = 24 24 25
  stencil order = 5
  estimated absolute RMS force accuracy = 0.0030088063
  estimated relative force accuracy = 9.0609309e-06
  using double precision FFTW3
  3d grid and FFT values/proc = 2730 288
Last active /omp style is kspace_style pppm/tip4p/omp
WARNING: Not all mixed pair coeffs generated from mixing. Use write_data with 'pair ij' option to store all pair coeffs. (../write_data.cpp:312)

write_restart   restart.lmp.${pid}
write_restart   restart.lmp.0
System init for write_restart ...
PPPM initialization ...
  extracting TIP4P info from pair style
  using 12-bit tables for long-range coulomb (../kspace.cpp:340)
  G vector (1/distance) = 0.37483578
  grid = 24 24 25
  stencil order = 5
  estimated absolute RMS force accuracy = 0.0030088063
  estimated relative force accuracy = 9.0609309e-06
  using double precision FFTW3
  3d grid and FFT values/proc = 2730 288
Last active /omp style is kspace_style pppm/tip4p/omp
Total wall time: 0:08:00
