#include		in.partitions
include		in.temp
variable        temperature equal 111.47
variable	tempDamp equal 100.0
include		in.pressure
variable        pressure equal 6938.7
variable        pressureDamp equal 1000.0 # This is 1 ps
include		in.seed
variable        seed equal 745823

units		real
atom_style	full
read_restart    restart.lmp.${pid}
read_restart    restart.lmp.0
Reading restart file ...
  restart file = 30 Jul 2021, LAMMPS = 30 Jul 2021
  restoring atom style full from restart
  triclinic box = (-3.1256808 -0.047675989 -0.0034618889) to (14.735680 22.627675 19.233460) with tilt (-0.23128739 -6.6235044 0.27302716)
  2 by 4 by 4 MPI processor grid
  restoring pair style lj/cut/tip4p/long/omp from restart
  restoring bond style harmonic/omp from restart
  restoring angle style harmonic/omp from restart
  1008 atoms
  672 bonds
  336 angles
Finding 1-2 1-3 1-4 neighbors ...
  special bond factors lj:    0        0        0       
  special bond factors coul:  0        0        0       
     2 = max # of 1-2 neighbors
     1 = max # of 1-3 neighbors
     1 = max # of 1-4 neighbors
     2 = max # of special neighbors
  special bonds CPU = 0.002 seconds
  read_restart CPU = 0.006 seconds

include 	in.setup
variable	out_freq equal 1000
variable	out_freq2 equal 10000
variable	out_freq3 equal 1000

timestep	2.0

neigh_modify    delay 7 every 1

include		in.tip4p
# This is TIP4P/Ice

# create groups ###
group ox type 2
336 atoms in group ox
group hy type 1
672 atoms in group hy

# set charges - beside manually ###
set group ox charge -1.1794
Setting atom values ...
  336 settings made for charge
set group hy charge 0.5897
Setting atom values ...
  672 settings made for charge

# ### TIP3P Potential Parameters ###
pair_style lj/cut/tip4p/long/omp 2 1 1 1 0.1577 8.5
pair_coeff 1 1*2 0.000 0.000
pair_coeff 2 2 0.21084 3.1668
bond_style  harmonic
bond_coeff  1 450 0.9572
angle_style harmonic
angle_coeff 1 55 104.52
kspace_style pppm/tip4p/omp 1.0e-5
pair_modify tail yes

thermo          ${out_freq}
thermo          1000
thermo_style    custom step temp pe etotal epair emol press lx ly lz vol pxx pyy pzz pxy pxz pyz enthalpy

restart 	${out_freq3} restart.lmp.${pid} restart2.lmp.${pid}
restart 	1000 restart.lmp.${pid} restart2.lmp.${pid}
restart 	1000 restart.lmp.0 restart2.lmp.${pid}
restart 	1000 restart.lmp.0 restart2.lmp.0


include         in.dump
dump            myDump all atom ${out_freq2} dump.water.${pid}
dump            myDump all atom 10000 dump.water.${pid}
dump            myDump all atom 10000 dump.water.0
dump            myDump2 all dcd ${out_freq2} dump.dcd
dump            myDump2 all dcd 10000 dump.dcd
dump_modify     myDump append yes
dump_modify     myDump2 append yes


variable natoms 	equal  "count(all)"                        # NUMBER ATOMS
variable H      	equal  "enthalpy/v_natoms"                 # ENTHALPY-per-atom
variable Vol      	equal  "vol/v_natoms"                 # volume-per-atom
fix AVG all 		ave/time ${out_freq} 1 ${out_freq} v_Vol v_H file vol_enthalpy.dat
fix AVG all 		ave/time 1000 1 ${out_freq} v_Vol v_H file vol_enthalpy.dat
fix AVG all 		ave/time 1000 1 1000 v_Vol v_H file vol_enthalpy.dat



fix 		1 all shake 1e-6 200 0 b 1 a 1
       0 = # of size 2 clusters
       0 = # of size 3 clusters
       0 = # of size 4 clusters
     336 = # of frozen angles
  find clusters CPU = 0.001 seconds
fix             2 all nph tri ${pressure} ${pressure} ${pressureDamp}
fix             2 all nph tri 6938.7 ${pressure} ${pressureDamp}
fix             2 all nph tri 6938.7 6938.7 ${pressureDamp}
fix             2 all nph tri 6938.7 6938.7 1000
fix             3 all temp/csvr ${temperature} ${temperature} ${tempDamp} ${seed}
fix             3 all temp/csvr 111.47 ${temperature} ${tempDamp} ${seed}
fix             3 all temp/csvr 111.47 111.47 ${tempDamp} ${seed}
fix             3 all temp/csvr 111.47 111.47 100 ${seed}
fix             3 all temp/csvr 111.47 111.47 100 745823


run             250000
PPPM initialization ...
  extracting TIP4P info from pair style
  using 12-bit tables for long-range coulomb (../kspace.cpp:340)
  G vector (1/distance) = 0.38002071
  grid = 24 27 32
  stencil order = 5
  estimated absolute RMS force accuracy = 0.0023709593
  estimated relative force accuracy = 7.1400735e-06
  using double precision FFTW3
  3d grid and FFT values/proc = 5355 672
Last active /omp style is kspace_style pppm/tip4p/omp
Neighbor list info ...
  update every 1 steps, delay 7 steps, check yes
  max neighbors/atom: 2000, page size: 100000
  master list distance cutoff = 10.8154
  ghost atom cutoff = 10.8154
  binsize = 5.4077, bins = 5 5 4
  1 neighbor lists, perpetual/occasional/extra = 1 0 0
  (1) pair lj/cut/tip4p/long/omp, perpetual
      attributes: half, newton on, omp
      pair build: half/bin/newton/tri/omp
      stencil: half/bin/3d/tri
      bin: standard
Per MPI rank memory allocation (min/avg/max) = 10.31 | 10.32 | 10.33 Mbytes
Step Temp PotEng TotEng E_pair E_mol Press Lx Ly Lz Volume Pxx Pyy Pzz Pxy Pxz Pyz Enthalpy 
30000000     115.5563   -5143.9194   -4912.7925   -5143.9194            0     6738.467    17.861361    22.675351    19.236922    7791.1961    6873.3567     6381.206    6960.8383    202.72705   -253.24927   -1846.6871   -4147.1234 
30001000    108.24597   -5151.5051   -4934.9997   -5151.5051            0    8156.6485    17.826325    22.699629    19.115045    7734.9211    7306.4004     9281.435    7882.1103    1313.7823    834.54607    1859.8748   -4014.8817 
30002000    110.13361    -5157.429   -4937.1482    -5157.429            0    6899.0885    17.779571    22.769226    19.224983    7782.7933    7645.6607    6581.9459     6469.659     961.7198   -175.51455   -113.25873   -4154.0737 
30003000    109.65157   -5162.4651   -4943.1484   -5162.4651            0    6641.9777    17.899363    22.740226     19.13978    7790.5712    7297.6577    6535.7191    6092.5563   -635.84397    216.08706   -696.85265   -4188.5036 
30004000    105.26053   -5159.8584   -4949.3244   -5159.8584            0    7103.7289    17.864073    22.545235    19.295233    7771.1497    7171.2402    7338.5461    6801.4004    804.30067    594.08612    735.42361   -4144.2286 
30005000    108.92399   -5153.5628   -4935.7013   -5153.5628            0    6350.4442    17.952256    22.771194    19.068391    7795.0496    4521.2034     6614.692    7915.4372   -325.03774   -54.579602    341.02365    -4213.765 
30006000    113.56855   -5153.6246   -4926.4734   -5153.6246            0    7089.3817     17.87374    22.611329    19.198607    7759.0982    6478.8423    7526.6419    7262.6611    1542.5365   -271.48532   -188.20218   -4124.2497 
30007000    111.15839   -5161.7798   -4939.4492   -5161.7798            0    6591.3583    17.858877    22.803669    19.120278    7786.6934    5575.1978      6527.91    7670.9671    724.70293   -854.09528    278.36561   -4190.9284 
30008000    109.59523   -5154.3754   -4935.1714   -5154.3754            0    6634.3252    17.966994    22.603647    19.212744    7802.6718    6605.2135    7043.8616    6253.9005    -423.1915    419.53233    8.3476425   -4180.2253 
30009000    115.12537   -5150.0763   -4919.8113   -5150.0763            0    7866.9969    17.728625     22.88378     19.12953    7760.8112    7018.3469    7855.1493    8727.4945   -455.66612    816.49924   -101.64186   -4029.3973 
30010000    111.59712    -5148.743    -4925.535    -5148.743            0    7926.1058    17.844725    22.670892    19.144044    7744.8345    7242.5937    8661.3642    7874.3594    238.60069   -382.25721   -303.14624   -4030.2777 
30011000     113.6291   -5167.8286   -4940.5564   -5167.8286            0    6440.4012    17.875654    22.681793    19.221406    7793.3557    7462.9682    6209.2159    5649.0195   -34.191251   -630.82511   -179.20937   -4208.5526 
30012000    114.22764   -5142.5271   -4914.0577   -5142.5271            0    7393.3956    17.837556    22.843764    19.034943    7756.3001    7021.0628    6870.8206    8288.3033   -182.37782      523.717    722.78951   -4077.7339 
30013000     112.9378   -5146.9853   -4921.0958   -5146.9853            0    6325.5662    17.986839    22.545798    19.242393     7803.322    5817.6087    7260.9513    5898.1386    128.41704   -24.416322    496.97064   -4201.2246 
30014000    113.36822   -5164.2913   -4937.5409   -5164.2913            0    5637.4404     17.74938    22.965336    19.125123    7795.7917    6634.4837    5399.5957    4878.2418   -346.03704   -737.12002     413.5878   -4296.5998 
30015000    111.44226   -5156.2537   -4933.3554   -5156.2537            0    7657.3263    17.897183    22.503021    19.258899    7756.3419    8055.0604    8428.5075     6488.411    583.73772    214.03444    622.49083   -4067.1718 
30016000    109.56709   -5149.0076   -4929.8599   -5149.0076            0    7084.9305    17.787451    22.775052    19.178159    7769.2662    7645.4363    7114.8207    6494.5343   -1459.8939    280.63569   -377.90675   -4127.0893 
30017000    108.94583   -5152.1151   -4934.2099   -5152.1151            0    7382.6301    18.017932    22.550125    19.125407    7770.7796    7479.7449     7313.331    7354.8145      116.427   -279.91372    228.17214    -4097.545 
30018000    107.04847   -5161.9295   -4947.8194   -5161.9295            0      6520.11    17.768532    22.794843    19.236697    7791.4568    7028.8059    6665.1655    5866.3586    356.68705    147.47614   -711.73305   -4206.9366 
30019000     109.6347   -5154.8368   -4935.5539   -5154.8368            0    7175.8312    17.832687    22.715927    19.186697    7772.2623     6641.759    7600.1363    7285.5982   -676.53265   -565.95521     192.1301     -4122.17 
30020000    109.86002    -5158.374   -4938.6404    -5158.374            0    7408.6652    18.016339    22.546035    19.160777    7783.0503    6556.8747    7658.5841    8010.5368    489.31174    30.375987    711.17698    -4097.699 
30021000    109.32975    -5162.801    -4944.128    -5162.801            0    7614.5212    17.758625    23.021184    18.972683    7756.4993    8683.4764     6151.618    8008.4692   -104.71261    2.8589407    769.56714   -4082.7689 
30022000    108.39052   -5152.8187   -4936.0243   -5152.8187            0    7251.5013    17.988189    22.456098    19.270164    7784.0777     6676.591    7379.8153    7698.0976    576.42624   -261.62469    942.02412   -4112.8136 
30023000    112.52955   -5176.0317   -4950.9587   -5176.0317            0    6421.6897    17.761598     22.96273    19.084323    7783.6324    6961.8172    5810.5013    6492.7507    502.60762    816.99652     434.3301   -4221.9923 
30024000    115.83228   -5150.1564   -4918.4775   -5150.1564            0     6417.121    17.948754    22.637888    19.220629    7809.7624    6859.4122    6218.4861    6173.4645   -934.76437   -795.99789   -982.81249   -4187.5843 
30025000    116.92948   -5158.5942   -4924.7208   -5158.5942            0    6265.7884    17.851288    22.789952    19.150568    7791.0258    5494.6144    6496.2552    6806.4957    37.184487     379.1479      844.611   -4212.7761 
30026000    112.90991   -5155.1795   -4929.3458   -5155.1795            0    6456.1411    17.925734     22.78059    19.102855    7800.8191    7887.9279    5600.5618    5879.9338   -552.75836    -667.6303   -498.45002   -4194.8503 
30027000    117.09392   -5158.4434   -4924.2411   -5158.4434            0    5777.3251    17.907988    22.781589    19.176587    7823.5188    5541.1161    5358.5101    6432.3492   -177.01637   -135.05109     34.97036   -4265.0599 
30028000    112.18116   -5166.3392   -4941.9631   -5166.3392            0    7171.3812    17.929508    22.712302    19.112672      7783.07    6622.1463    7813.5235    7078.4738    271.07974    590.63565    1739.3922   -4127.9533 
30029000     109.0017   -5157.1253   -4939.1085   -5157.1253            0    6552.2397    17.894267    22.626752    19.261761    7798.8781    7105.8339     6472.769    6078.1163   -394.55004   -454.57116    96.699063   -4193.8656 
30030000    114.53371   -5155.9949   -4926.9133   -5155.9949            0    6701.4871    17.780234    22.988171    19.064563    7792.3554    6670.0072    5945.4452    7489.0087   -737.11685     -618.745   -894.68869   -4165.3328 
30031000    112.27603   -5146.0124   -4921.4465   -5146.0124            0    7618.3359    17.879193    22.578029    19.251001    7771.1849    7774.2747    7606.3833    7474.3497   -574.35292   -276.52908   -567.29071   -4058.0242 
30032000    111.45302   -5154.9807   -4932.0609   -5154.9807            0    6243.7462    17.780787    22.800886    19.241353    7800.7853    7124.9746    5881.6323    5724.6316    1246.2294     193.4881    527.53329    -4221.732 
30033000    108.50073    -5151.798   -4934.7831    -5151.798            0    8265.6511    17.851933    22.756412    19.112508    7764.3787    6777.4953    8424.5288    9594.9293   -958.03048    673.32445   -37.243013    -3998.818 
30034000    107.05338   -5167.4579   -4953.3379   -5167.4579            0    5790.4794    17.905967    22.750874    19.188793    7817.0613    4756.2972    6311.8503    6303.2906   -1620.8686   -404.80498   -1640.7663   -4293.2011 
30035000    109.18066   -5167.1445   -4948.7697   -5167.1445            0    6854.0146    17.767469    22.615966    19.305846    7757.6384    7265.9099    7480.5745    5815.5595   -176.20027    1144.2597   -584.69355   -4173.3257 
30036000    109.34424   -5170.2573   -4951.5553   -5170.2573            0    5662.0286    17.973073    22.705326    19.153609    7816.2908    5770.9242     5487.342    5727.8197   -611.08379   -130.98155   -344.82433    -4306.126 
30037000    109.74336     -5147.86   -4928.3597     -5147.86            0    9092.1039    17.796359    22.820262    19.037844    7731.6027    8413.3272    9119.5949    9743.3895   -116.12748    240.29214    338.51002   -3903.1569 
30038000    112.67768   -5166.6753    -4941.306   -5166.6753            0    5879.9391    17.904825    22.735994    19.159452    7799.5059    5918.7666    5677.3828    6043.6679    1067.6229    240.76797    316.40247   -4272.4759 
30039000    110.99135    -5161.654   -4939.6576    -5161.654            0    6007.3654    17.840791    22.815999    19.139015    7790.6407    5192.2248    5998.9085    6830.9628   -1089.4904     245.3593   -569.69961   -4257.1097 
30040000    109.52745   -5155.2449   -4936.1765   -5155.2449            0    6076.3784    17.943882    22.612316     19.22198    7799.3708    6541.8567    5807.5497    5879.7287    -170.8789    572.68849    434.67154   -4245.0138 
30041000    113.14852   -5162.0097   -4935.6987   -5162.0097            0    7037.3106    17.839929    22.721512    19.191587    7779.3126     7520.023    6255.7543    7336.1545   -250.08574   -145.68497    1069.5828   -4137.2926 
30042000     114.5467   -5162.8473   -4933.7398   -5162.8473            0      7039.61    17.780321      22.7383    19.233948    7776.1754    6959.8641    7292.4094    6866.5566    248.67531    1.7796489   -344.12943   -4135.3949 
30043000    108.77722   -5148.8187   -4931.2508   -5148.8187            0     5804.321    17.901309    22.741469     19.21442      7822.23    6185.5867    5464.3357    5763.0407    54.764408   -916.76499    877.02945   -4269.0985 
30044000    106.88426   -5157.9424   -4944.1607   -5157.9424            0    7090.4793    17.873791    22.637658    19.177028    7759.4237    8403.3291    6543.5124    6324.5965   -479.77474   -618.04569   -1023.1583   -4141.7791 
30045000    107.61752   -5165.4467   -4950.1984   -5165.4467            0    6794.2826     17.79973    22.809121     19.15467     7776.723    7498.9966    6308.0393    6575.8121   -613.81473   -648.89319   -816.99126   -4179.6212 
30046000    111.07617   -5166.7459   -4944.5798   -5166.7459            0    8146.4104    17.911993    22.739912    19.039432    7755.0869    7123.5098    8616.0203    8699.7009    708.93352    1098.1614    1853.8866   -4023.2209 
30047000    114.87419   -5172.1123   -4942.3497   -5172.1123            0    5265.6481     17.89272    22.646002    19.299861    7820.2765    5241.6847    5892.4655     4662.794   -42.498959    -314.6733    1560.8924   -4341.7988 
30048000    112.04727   -5170.1405   -4946.0321   -5170.1405            0    6842.5068    17.781327    22.855921    19.125706    7772.8515    6743.3881    6868.1043     6916.028   -1322.2031    11.636085   -1106.8042   -4170.3719 
30049000    111.29474   -5153.5681   -4930.9649   -5153.5681            0     6114.918    17.980215    22.676841    19.173238    7817.5903    6588.1711    5329.4524    6427.1305    386.16131   -983.14507    2062.8829   -4233.7937 
30050000    109.79145   -5167.5011   -4947.9046   -5167.5011            0    7804.1714    17.813045    22.786289    19.113882    7758.1948     8507.358    7033.2409    7871.9152    84.051129   -107.14486   -472.34277   -4064.8992 
30051000    118.50447    -5146.002   -4908.9784    -5146.002            0    6294.7079    17.928108    22.678461    19.186196      7800.76    6508.4206    7097.5705    5278.1325   -1021.0212   -148.22821   -497.32317   -4192.8541 
30052000    108.91827   -5159.2967   -4941.4467   -5159.2967            0    6668.7704    17.767144     22.82997    19.171619    7776.4569    7508.6515    6085.9994    6411.6603   -147.69504   -1583.5541   -786.33217   -4185.1305 
30053000    108.31993   -5170.6592   -4954.0059   -5170.6592            0    6963.2154    17.892779     22.59435     19.23613       7776.7     6932.407    7179.2282     6778.011    776.40759   -223.60967    774.72647   -4164.2715 
30054000    116.49014   -5154.6852   -4921.6906   -5154.6852            0    7127.1524    17.874982    22.765505     19.14806    7791.9775    7944.9239    6905.5526    6530.9807   -1048.0933    275.02889    1617.5083   -4111.7752 
30055000    116.99203   -5159.0433   -4925.0448   -5159.0433            0      8068.32    17.748223    22.759143    19.171275    7743.9363    7168.9915    8717.7359    8318.2326    510.78484    34.400067   -778.25902     -4013.83 
30056000    120.14449    -5157.019   -4916.7151    -5157.019            0    6562.4733    17.914665    22.504111    19.292345    7777.7786    5289.9903    8088.6311    6308.7985   -1409.4465   -488.92966   -132.63067   -4172.3277 
30057000    106.53481   -5168.0977   -4955.0149   -5168.0977            0    5555.5889    17.801617    22.899047    19.135064    7800.2187    4785.1532    5547.6467    6333.9667    282.94442    184.90905   -397.44789   -4323.0212 
30058000    112.66838   -5159.0029   -4933.6522   -5159.0029            0    7848.9943    17.908708    22.559167    19.219956    7764.9687    7829.8771    8210.6121    7506.4937    502.74345    289.34562   -4.0637726   -4044.7999 
30059000    113.47648   -5166.2036   -4939.2366   -5166.2036            0    6564.7406    17.862224    22.811264    19.117137    7789.4668    6582.7428    6389.4301     6722.049    1059.1845   -473.78256   -610.53932    -4193.473 
30060000    111.20872   -5157.0651   -4934.6339   -5157.0651            0    7337.2879    17.790965    22.672883    19.254674    7766.8056    7767.7241    7931.0162    6313.1233   -56.465845    36.861554   -584.92302   -4103.5328 
30061000    112.28592   -5150.8543   -4926.2686   -5150.8543            0    7621.4227    17.846471    22.740722    19.150179    7771.9401     6900.802    7718.7513    8244.7148   -784.55556     69.37294    331.59413   -4062.4126 
30062000     118.9936   -5155.3602   -4917.3583   -5155.3602            0    6514.3107    17.921695    22.719195    19.158316    7800.6238    6405.1255    5981.7369    7156.0696   -56.707892    323.19557   -218.89485   -4176.2637 
30063000    117.26508   -5157.9611   -4923.4165   -5157.9611            0    7034.3037     17.90252    22.703724    19.118929    7770.9628    8039.4479    6752.8231    6310.6402    383.23718   -147.20528   -1380.1753   -4126.2081 
30064000    108.26687   -5157.1329   -4940.5858   -5157.1329            0    6932.0699    17.778037    22.855782    19.148502     7780.629    6030.5936    7360.4872     7405.129   -4.7523171     695.7812    22.502262   -4153.9865 
30065000    108.28158   -5162.5442   -4945.9676   -5162.5442            0    7100.8312     17.90087    22.510485    19.296426    7775.6353    7796.5195     6584.146    6921.8281     445.7042   -610.66473     213.1604   -4140.7358 
30066000    112.33738   -5145.4246    -4920.736   -5145.4246            0    7404.5176     17.83306    22.829227    19.102966    7777.1036    7359.1491    6849.3672    8005.0366     315.1785    589.08464   -378.90435   -4080.9076 
30067000    112.71201   -5169.8397   -4944.4018   -5169.8397            0     6782.877    17.949096    22.531627     19.25147    7785.7248    5653.6489    7665.3349    7029.6472    -24.19662    1267.2735   -1294.1109   -4174.2277 
30068000    109.26566    -5152.093   -4933.5482    -5152.093            0    7757.3585     17.86273    22.792026    19.066635    7762.5575    6519.8064    8366.0877    8386.1813    146.92289    8.8700218    244.07697   -4055.3459 
30069000     107.5846   -5165.9187   -4950.7362   -5165.9187            0    7672.8749    17.827086    22.646619    19.228027    7762.8007    8410.3192    7557.7579    7050.5475   -445.24232   -485.80911    838.88708   -4082.0709 
30070000    112.06941   -5156.2452   -4932.0925   -5156.2452            0    6400.0601    18.083187    22.650335    19.055967    7805.1382    6152.8262    6334.1848    6713.1693    317.61952    176.14765   -424.98995   -4203.5741 
30071000    111.25895   -5160.0063   -4937.4746   -5160.0063            0     6829.852    17.876264    22.716631    19.166743    7783.3939    6743.7639    7409.0685    6336.7235   -348.69467    474.70876    423.33675   -4162.1989 
30072000    115.20965   -5144.4176    -4913.984   -5144.4176            0    6772.4111    17.910383    22.669005    19.174591    7785.0867    6575.4253    7391.1506    6350.6575   -98.499109    -392.6216    147.82162   -4145.0614 
30073000    104.74223   -5160.3874     -4950.89   -5160.3874            0    8088.4279    17.841012    22.813951    19.042989     7750.953    6669.3532    8051.1824     9544.748    438.18379   -892.80961    532.89989   -4036.5765 
30074000    106.80341   -5165.2096   -4951.5896   -5165.2096            0    7843.4012    17.809153    22.595557    19.297143    7765.3195    8768.1164    8197.5646    6564.5225   -53.332141    42.178019    -322.5093   -4063.3305 
30075000    111.02971   -5168.2772   -4946.2041   -5168.2772            0      6066.33    17.916195    22.774676    19.133801    7807.2709    5576.9931    5760.2494    6861.7476   -700.65183    703.06562   -1573.6858   -4255.4855 
30076000     109.9325   -5152.6582   -4932.7797   -5152.6582            0    6607.4249    17.792168    22.658471    19.300522    7780.8764    7505.4543    6276.7622    6040.0582   -148.51043   -830.64573   -726.22825   -4182.9948 
30077000    107.02201   -5172.5983    -4958.541   -5172.5983            0    6667.0176     17.85595    22.763318    19.176359    7794.4357    8453.6544    5949.5505    5597.8478   -9.4925463   -224.64652    -376.5785   -4200.6755 
30078000    120.00168   -5155.8829   -4915.8648   -5155.8829            0    6611.9852    17.901353    22.782276    19.134596    7803.7307     5925.639    6143.5144     7766.802      60.6616   -420.39527   -1103.2142   -4163.3587 
30079000    110.21379   -5166.5516   -4946.1104   -5166.5516            0    6863.0056    17.868658    22.634675    19.248898     7785.241    5877.9306     7841.224    6869.8622    961.94958    311.22976    1016.8416   -4166.8865 
30080000    112.90179   -5145.6267   -4919.8092   -5145.6267            0    7118.1751    17.824702    22.833221    19.083357    7766.8378    7210.2303    5961.6965    8182.5985     178.4821   -655.90256    -745.7785   -4113.5238 
30081000    106.90921    -5146.835   -4933.0034    -5146.835            0    7440.3563     17.89964    22.652944    19.183902    7778.6801    7045.7907    8302.5522    6972.7262    154.19184    1649.8398    755.11035   -4088.9391 
30082000    108.18489   -5164.7655   -4948.3823   -5164.7655            0    7588.4302    17.806235    22.798366    19.146501    7772.5809     8069.434    7251.9191    7443.9376    252.83531   -58.409859    456.15873   -4088.1949 
30083000    113.13346   -5156.3434   -4930.0625   -5156.3434            0    7311.6208     17.88334    22.763289    19.127736    7786.5884    7298.0715    7224.9856    7411.8055    -1087.584    -189.0416   -1946.9906   -4099.7592 
30084000    114.03053   -5147.3983   -4919.3231   -5147.3983            0    6830.3967    17.824861    22.721523    19.225521    7786.4897    6273.1396    6767.0827    7450.9679   -706.85968    58.149785     -206.603   -4143.6771 
30085000    110.21327   -5162.9942    -4942.554   -5162.9942            0    7253.9003    17.909429    22.538315    19.230969    7762.5494    5999.7272    8586.7098    7175.2638     1006.033    863.51338     171.8074   -4121.3485 
30086000    107.10443   -5155.9719   -4941.7498   -5155.9719            0    6811.2949    17.911782     22.79379    19.062727    7782.8807    6530.7074    6735.3747    7167.8028    -894.6643    861.19908    116.34295   -4168.6315 
30087000    108.54635   -5161.4045   -4944.2984   -5161.4045            0    8138.3636    17.852631     22.75413    19.102732    7759.9326    7616.4584    8029.9786    8768.6537   -69.073154    376.71222    366.59488   -4023.2744 
30088000    109.38922   -5154.8322   -4936.0403   -5154.8322            0    7467.2949    17.830649    22.700748    19.173816    7760.9677    6889.2695    7793.4043    7719.2107    581.94582    -111.2416    53.985715   -4090.8489 
30089000    107.26967   -5170.5192   -4955.9666   -5170.5192            0    7289.2071    17.832852    22.835669    19.036259    7752.0426    6483.0437    6915.7093    8468.8683   -1118.0632   -651.35604   -464.35436    -4131.881 
30090000    110.25256   -5158.2822   -4937.7634   -5158.2822            0    7967.8173    17.864673    22.585284    19.225632     7757.133    7735.4023    8143.5769    8024.4727   -59.785788   -253.20865   -698.17212   -4036.3656 
30091000    109.52451   -5164.1894   -4945.1269   -5164.1894            0    6535.6321     17.80242    22.936581    19.079564    7790.6946    7892.8856    5921.2428     5792.768    308.38262   -237.32115   -6.3583237    -4202.553 
30092000    111.67816   -5166.2717   -4942.9016   -5166.2717            0    6934.1332    17.868877    22.546324    19.321082    7784.0291    7217.1186    7039.5606    6545.7204   -275.13624   -575.07192    1329.1587   -4155.7243 
30093000    121.37977   -5167.9851   -4925.2106   -5167.9851            0    7061.3721    17.814376    22.930341    19.040534    7777.8622     6620.208    6457.8143    8106.0939    276.16558   -364.18379    526.65073    -4124.224 
30094000    109.37308   -5154.4075   -4935.6478   -5154.4075            0    7520.8226    17.975466    22.566286    19.179277    7779.8725    5704.3534    8280.4646    8577.6499    461.73347    560.72203    876.17605   -4082.3243 
30095000    106.94225   -5168.3927   -4954.4949   -5168.3927            0    6467.0002    17.863852    22.747545    19.179668    7793.8262    6071.6678    6136.5606    7192.7721   -1055.3774    405.77765   -1541.5269   -4219.4236 
30096000    113.59656   -5158.3486   -4931.1414   -5158.3486            0    7027.7191    17.803126     22.71256    19.231101    7776.1836    8061.3286    5860.0657     7161.763    270.75131    -1064.748    1076.6659   -4134.1442 
30097000    111.48355   -5159.1511   -4936.1702   -5159.1511            0    6636.3138    17.952025    22.569628    19.170239    7767.2159    6822.4994    6980.4903    6105.9517    437.48132    -175.0477   -351.64307   -4184.4293 
30098000    112.61344   -5161.2799   -4936.0391   -5161.2799            0    6019.1333    17.883886    22.994029     18.95509    7794.7613    5420.3773    5179.9199    7457.1028    48.041457    427.10505   -555.35439   -4251.7925 
30099000    112.46991    -5163.759   -4938.8053    -5163.759            0     7771.315    17.998066    22.519794    19.151877       7762.5    7238.0152    7758.7835    8317.1462    830.09622    28.255015   -809.76005   -4059.0295 
30100000    107.73259   -5155.0163   -4939.5378   -5155.0163            0    7065.0657    17.814302    22.876148    19.097963    7782.8515    7660.1955    6600.2821    6934.7196    364.20075   -397.18866    137.78694   -4137.6182 
30101000    106.93216   -5170.2946    -4956.417   -5170.2946            0     7807.356    17.906131    22.631564    19.128829    7751.8385    7984.4989    7587.5701    7849.9991    527.24488     13.06975   -546.64491    -4073.775 
30102000    110.32058   -5161.5749   -4940.9201   -5161.5749            0    5993.1576    18.001467    22.635786    19.161286    7807.7901    4764.6325    6449.7927    6765.0476   -331.56168    730.99431   -619.54091   -4258.4876 
30103000    111.46806   -5153.5979    -4930.648   -5153.5979            0    6275.1373    17.743423    22.873138    19.221868    7801.1523     7844.942    5060.0138    5920.4561    39.101948   -52.021811    733.40762   -4216.7143 
30104000    112.64899   -5154.3288   -4929.0169   -5154.3288            0    6496.2885    17.917713    22.576509    19.281353    7799.6815    6625.8117    6665.7811    6197.2728   -154.10024    -285.5295   -486.67032   -4190.0618 
30105000     114.2422   -5143.4236   -4914.9251   -5143.4236            0    6800.2873    17.806031    22.958013    19.057367    7790.4818    6084.8032    6001.6884    8314.3703    439.50771    97.733053    524.68388   -4142.3024 
30106000    109.20212    -5170.213   -4951.7952    -5170.213            0    6204.1293    17.842818    22.646618    19.290218    7794.7818     7321.735    5546.8322    5743.8206    466.39861   -231.52526   -126.41334   -4246.5167 
30107000     115.2534   -5167.5937   -4937.0727   -5167.5937            0    5144.4929    17.841519    22.745581    19.291389     7828.749    5571.3546    5019.2038    4842.9203   -205.17187    51.974336    11.897207    -4349.704 
30108000    117.17376    -5161.521    -4927.159    -5161.521            0    7839.6308    17.847422    22.776313    19.108993    7767.7765    6925.6885    8050.7848    8542.4191    -943.1056    507.86564   -542.06998    -4039.046 
30109000    112.13714   -5166.8099   -4942.5218   -5166.8099            0    6958.3632    17.912737    22.634437    19.188108    7779.7169    6394.8311    7626.6041    6853.6545    491.69021    1336.1185    230.94609   -4153.0315 
30110000    114.17642   -5151.9313   -4923.5643   -5151.9313            0    7018.1357    17.758127    22.926811     19.05469    7757.8733    6240.3817    6642.3944     8171.631   -563.58894   -243.58357   -918.96424   -4129.5281 
30111000    114.98529   -5145.4858    -4915.501   -5145.4858            0    7686.8238    17.955582      22.4561    19.244355    7759.5613    6927.0747    8253.2457    7880.1511    242.24287   -1305.0206      58.7867   -4045.6197 
30112000    114.91428   -5160.1296   -4930.2868   -5160.1296            0    6623.6371    17.894509    22.794175    19.067052    7777.2705    5505.5728    7380.9579    6984.3805    52.834859    1039.1514    235.22659   -4179.0107 
30113000    111.19401   -5165.3878   -4942.9861   -5165.3878            0    7167.1874    18.018936    22.547243    19.132212    7772.9839    6848.0206     6743.775    7909.7666     17.10466    7.5065956    279.35479   -4130.5066 
30114000    114.23194   -5157.7964   -4929.3184   -5157.7964            0    6480.7145    17.892224    22.644625    19.221109    7787.6765    6699.4588    6934.5232    5808.1615    155.33181    69.669015   -199.66256   -4193.2695 
30115000    110.33318    -5160.687    -4940.007    -5160.687            0    6398.7271    17.787834    22.923278    19.070198    7775.9775    6450.8998     5864.834    6880.4476    1669.1718   -1130.8052    527.30528   -4214.3615 
30116000    109.24338   -5168.6356   -4950.1354   -5168.6356            0    5490.1063    18.022187    22.341544    19.381854    7803.9773    5027.0044    6886.9009    4556.4137   -975.68322   -547.00035   -326.52172   -4325.2899 
30117000     108.0018   -5161.8098   -4945.7929   -5161.8098            0    8431.1883    17.796844    22.875783    18.986722    7729.8124    7374.1633    8595.9022    9323.4993   -555.39842    1112.3118   -1169.6548   -3995.3333 
30118000    110.21591   -5162.9338   -4942.4884   -5162.9338            0    7630.9374    17.865444    22.534535     19.26425    7755.5843    8485.2687    7709.6258    6697.9178    247.51578   -334.72976   -215.83349   -4079.3741 
30119000    108.70202   -5164.5029   -4947.0854   -5164.5029            0    7051.3884    17.793748    22.777185    19.177599    7772.5177    7413.4926    6464.4886    7276.1839    800.65235   -559.72982    1526.4949    -4147.781 
30120000    115.22395    -5167.419   -4936.9569    -5167.419            0    7931.0807    17.826419    22.720822    19.144568    7754.1415    8686.4517    7978.0158    7128.7746    26.328235   -97.832158   -1003.0191   -4040.0611 
30121000    108.22613   -5163.8621   -4947.3964   -5163.8621            0    7106.1931    17.933945    22.521943     19.20904    7758.6713    8016.2423    7064.0608    6238.2762    276.49112   -464.49103    874.89966   -4143.3146 
30122000    115.84915   -5156.3539   -4924.6413   -5156.3539            0    7408.4591    17.822658    22.817555    19.100077    7767.4183    7968.9274    6778.2706    7478.1793    -254.5462    164.45246    102.42328   -4085.4123 
30123000    110.59225   -5157.9693   -4936.7712   -5157.9693            0    7515.9797    17.891025    22.665454    19.146206    7763.9434     8361.287    6984.1222    7202.5299   -649.82412   -179.59375     480.3082   -4085.7432 
30124000    112.49068   -5156.7292   -4931.7339   -5156.7292            0    6962.7288    17.811792    22.728601    19.225998    7783.3977    7226.2824    7018.7787    6643.1251    997.54996   -407.36399    986.87377   -4141.3746 
30125000    116.47281      -5158.3     -4925.34      -5158.3            0    6924.1478    17.962198    22.673817    19.096702    7777.5441    7119.7631    7332.3313     6320.349     498.2549    389.23895    -109.6814   -4139.9512 
30126000    110.22127   -5166.8611   -4946.4049   -5166.8611            0    6697.9124    17.784435    22.771278    19.227346    7786.5811    6686.5214    7178.0147    6229.2012   -120.81216     524.5218   -1051.9657   -4185.7947 
30127000    105.05472   -5153.9174    -4943.795   -5153.9174            0     7648.015     17.83025    22.747547    19.122458    7755.9625    8006.8764    7981.7664    6955.4021     504.5845   -103.06091    557.51529   -4078.7069 
30128000    110.51964   -5166.2314   -4945.1785   -5166.2314            0    7640.7713    17.937482    22.607183     19.13486    7759.4905    7667.4143    7797.5203    7457.3793   -480.61655   -248.77102   -277.09926   -4080.5167 
30129000    114.37574    -5146.906   -4918.1404    -5146.906            0    6508.6965    17.798629    22.872414     19.15751    7798.9768    8680.6693    5405.8502      5439.57    151.06517    617.54745   -2179.4208   -4177.8408 
30130000    107.77366   -5165.8457    -4950.285   -5165.8457            0    6967.7596    18.024061    22.487457    19.149734    7761.6804    6154.7412    8219.4957     6529.042    854.93043    136.02648    771.33765   -4161.5615 
30131000    106.41654   -5168.9859   -4956.1396   -5168.9859            0    6587.4077    17.875344    22.808187    19.099144     7786.801    7176.6232    5535.2652    7050.3347   -153.89547   -304.93636   -84.794722   -4208.0571 
30132000    116.02543   -5158.0038   -4925.9386   -5158.0038            0    6419.7396    17.888065     22.54541     19.29573    7781.8478    7556.6616    6648.8888    5053.6684    143.36374    419.22306   -11.703053   -4197.3606 
30133000    113.06816   -5152.2916   -4926.1414   -5152.2916            0    6976.1289    17.835546     22.79361    19.131481    7777.6448    7719.4115    6861.7462    6347.2291   -85.463487      300.393    431.03263   -4134.8462 
30134000    109.15137   -5164.4579   -4946.1417   -5164.4579            0    6563.0918    17.835486    22.788451    19.131824    7775.9982     6058.593    6283.8171    7346.8654    1169.2784   -789.11394    1108.9396   -4201.8545 
30135000    108.89265   -5156.9521   -4939.1534   -5156.9521            0    7645.2549    17.932917     22.54247    19.202783    7762.7683    6835.2281     8499.322    7601.2145    743.78493    745.50052    1133.7199   -4073.6187 
30136000    116.53701   -5156.9397   -4923.8513   -5156.9397            0     7869.185     17.84161    22.823835    19.060627    7761.7536    7308.4112    7728.3965    8570.7473    73.364287    307.17311    707.02761   -4033.0815 
30137000    110.96166   -5162.1661   -4940.2291   -5162.1661            0    7750.8913    17.926373    22.534647     19.19002    7752.0867    7342.4777    8203.0444    7707.1519   -822.37438   -389.80909     401.6688   -4063.9426 
30138000     108.5709   -5153.6716   -4936.5164   -5153.6716            0    6897.0377    17.804061    22.889441    19.091157     7780.124    6481.7767    6754.2758    7455.0608    472.73665    91.503791   -144.86463   -4153.9431 
30139000    106.64228   -5166.4233   -4953.1256   -5166.4233            0    6652.0402      17.9402    22.628418    19.177574    7785.2961    6282.5286    6894.2825    6779.3095    189.76686    157.93006    1036.1166   -4197.8492 
30140000    115.15388   -5158.7462   -4928.4242   -5158.7462            0    7293.1009    17.733588    22.844694    19.156891    7760.8088     7702.545    6787.9641    7388.7938   -845.78604    768.79542   -235.10082    -4102.966 
30141000    109.29013   -5160.6756   -4942.0818   -5160.6756            0    6162.3361     17.84252    22.659328    19.281082     7795.332    5886.3777    6333.9277     6266.703    180.73583   -928.66475   -593.52566   -4241.5048 
30142000    111.31247   -5158.6106   -4935.9719   -5158.6106            0    6528.7507    17.860389    22.728845    19.158917    7777.4862    7307.3795     5493.033    6785.8395   -17.960646    -1040.427    57.996024   -4195.4375 
30143000    109.92301    -5164.044   -4944.1844    -5164.044            0    7049.2515    17.895175    22.726709    19.141059    7784.6384    7369.7129    7154.8828    6623.1588     621.9585   -368.90124    718.02723   -4143.8761 
30144000    113.35676   -5164.7688   -4938.0413   -5164.7688            0    7101.4422    17.910292    22.642803    19.186186    7780.7504    7492.8999    7675.1421    6136.2847   -798.07862   -249.11437   -214.66397   -4132.2103 
30145000    115.82006   -5170.1275    -4938.473   -5170.1275            0    6316.1758    17.855493    22.760729    19.159634    7786.5528    5357.8099    7215.3545    6375.3629    803.09778    97.462282    65.041309   -4221.2152 
30146000    111.49095   -5167.2877    -4944.292   -5167.2877            0     5844.205    17.764415    22.682004    19.374235    7806.5098    6429.1856    6189.4361    4913.9932    -581.2521    286.25406    201.61381   -4278.9297 
30147000    107.94726   -5169.2566   -4953.3487   -5169.2566            0    7462.1743    17.849023    22.713438     19.15981    7767.6297    5838.5392    8020.0965    8527.8872    146.59533    -453.7993    525.50174   -4108.0119 
30148000    108.94388   -5158.4001   -4940.4989   -5158.4001            0    6714.6613    17.796285    22.753768     19.20239    7775.6725    7325.8916    6299.2031     6518.889    1652.7823   -19.667841   -551.31132   -4179.0549 
30149000    107.36263   -5138.6522   -4923.9136   -5138.6522            0    7540.2036    17.933777    22.759561    19.050154    7775.6042    5697.9926    8566.9491    8355.6692    -177.5286     148.2588   -777.49228   -4068.8605 
30150000     108.2247   -5160.0096   -4943.5468   -5160.0096            0    5790.7384    17.852903    22.803986    19.169875    7804.3892     6337.142     5964.927    5070.1461   -603.32411   -255.28019    799.74341   -4284.4507 
30151000    117.06797   -5148.9007   -4914.7503   -5148.9007            0    7646.3173    17.877068    22.727842    19.113767    7766.0606    7100.2943    7682.8251    8155.8326    465.81234     338.7383    766.60178   -4048.7282 
30152000    110.12287   -5154.7627   -4934.5033   -5154.7627            0    7478.1065     17.91332    22.621652    19.164459    7765.9927    8425.9273    7386.2708    6622.1215    40.991509    759.74332    1195.2496   -4087.5402 
30153000    113.55721   -5159.0141   -4931.8856   -5159.0141            0    6846.7348    17.908869    22.819424    19.049579    7784.9928    6051.8783     7328.212    7160.1141   -438.48917    310.26582    620.36807   -4154.5338 
30154000     110.3095   -5156.5431   -4935.9105   -5156.5431            0    7289.7629    17.763774    22.668342    19.271905      7760.32     8221.643    6666.6878     6980.958   -540.24954   -871.11533   -262.53081    -4110.882 
30155000    109.09565    -5163.051   -4944.8462    -5163.051            0    6611.4921    17.752075    22.794039     19.22867    7780.7178    7525.0924    6057.1146    6252.2693    348.67591   -155.99749   -166.31878   -4194.6151 
30156000    111.42026   -5173.8509   -4950.9966   -5173.8509            0    7416.4535    17.939188    22.511586    19.203274    7755.0421    6750.8986    8304.5451    7193.9168   -1047.8064     1354.167   -600.53544   -4112.2006 
30157000    111.29211   -5162.6294   -4940.0314   -5162.6294            0     7082.106    17.804969    22.724764     19.22285    7777.8289    8001.3981    7218.5472    6026.3726   -769.57062    1174.6998   -576.36593   -4136.6964 
30158000    108.62911   -5169.4613   -4952.1896   -5169.4613            0    6449.1988    17.816559    22.888584    19.105039    7790.9547    6541.7111     5411.654    7394.2315   -858.22726   -1196.0626    668.22823   -4219.4118 
30159000    111.20411   -5162.0886   -4939.6666   -5162.0886            0    8577.2975    17.834396      22.5069      19.2613    7731.4275    8758.5016     9144.517    7828.8739    562.88025   -100.51272   -1546.4599    -3972.534 
30160000    112.55525   -5156.7722   -4931.6478   -5156.7722            0    8357.3726    17.873247    22.659811    19.134953      7749.74    8303.4546    8307.9956    8460.6675   -1284.9856    197.80398    207.21304   -3987.0808 
30161000    107.54534   -5165.4484   -4950.3444   -5165.4484            0     7300.359    17.866094    22.738843    19.166513    7786.4783    6848.5306     7591.924    7460.6223    1.9228596   -4.6331545    487.35416   -4121.3317 
30162000     110.3605   -5157.1982   -4936.4636   -5157.1982            0    6630.9718    17.795986    22.682081     19.26001     7774.303    7622.9347    6205.8528     6064.128   -405.10782   -473.34442   -136.08926   -4184.6424 
30163000    110.23398     -5159.59   -4939.1084     -5159.59            0     7866.253    17.847234    22.741472    19.096863    7750.8893     7924.028    7994.5829    7680.1482    739.46552    95.578637    939.46259   -4049.9168 
30164000    108.24162   -5159.5549   -4943.0583   -5159.5549            0    7475.9894    17.829671    22.707735    19.189024    7769.0878    6951.2322    8129.5029    7347.2331    806.55419    1210.3401   -44.810836   -4095.9975 
30165000    111.61878   -5168.8638   -4945.6125   -5168.8638            0     5872.272    17.930604    22.714375    19.155274    7801.6073    5474.0316    5372.5112    6770.2732    733.71412   -210.71877    648.54067   -4277.4745 
30166000    112.29802   -5147.2379    -4922.628   -5147.2379            0    6817.9409    17.890414    22.882284    19.047801    7797.6653    5938.4627    6203.7468    8311.6133    17.321024    267.71459    904.87218   -4147.2853 
30167000    113.45226   -5170.2749   -4943.3563   -5170.2749            0    6857.6633    17.982171    22.482342     19.25138    7782.9729    6283.9537    7752.5104    6536.5258   -175.98794     687.6232   -850.53144   -4164.9658 
30168000    109.52565   -5148.5276   -4929.4628   -5148.5276            0    7036.5751    17.866938      22.8706    19.039169    7779.9297    6643.3064    6614.3138    7852.1052   -322.82935   -134.64206    -700.8111   -4131.0768 
30169000    118.64599   -5157.6638   -4920.3572   -5157.6638            0    6473.5681    17.905564    22.479596     19.33838    7783.8886    5771.5777     6765.027    6884.0997   -351.38281   -916.00639    982.57232   -4185.4775 
30170000    112.38597   -5162.7859        -4938   -5162.7859            0    6668.1657    17.693805    22.817049    19.273417    7781.0723    7531.0913    7172.3676    5301.0383    584.07317    514.97697   -210.85486   -4181.3035 
30171000    110.63036   -5156.0901   -4934.8157   -5156.0901            0    6480.0407    17.986793     22.63496    19.177302    7807.6617    5677.9488    6938.9468    6823.2265   -692.86409    738.22217     353.7989   -4196.9547 
30172000    105.72591    -5160.613   -4949.1481    -5160.613            0     6614.303    17.809068    22.838955    19.155078    7791.1458    6514.4387    6321.7285    7006.7416    465.61523    188.13346   -576.27571   -4197.5922 
30173000    110.21489   -5170.7834     -4950.34   -5170.7834            0    7540.2674    17.867032    22.703511    19.113069    7753.1082    6909.6144    7761.9994    7949.1884    502.09153   -241.26642   -179.65517   -4097.7534 
30174000    106.93457   -5156.0254   -4942.1431   -5156.0254            0     6896.541    17.889347    22.688455    19.163309    7778.0355    6379.4619    6837.0826    7473.0786    312.02526   -502.85845    756.85467   -4159.8362 
30175000    109.70775   -5158.9689   -4939.5399   -5158.9689            0    7559.9886    17.841366    22.776078      19.1056    7763.6818    7433.4409    6867.6097    8378.9152    320.62257   -504.51153   -463.62776   -4083.5576 
30176000    112.18818   -5163.4547   -4939.0644   -5163.4547            0    7397.4001    17.875365    22.558581    19.272392    7771.4547    6408.0017    7822.6365     7961.562   -64.524788   -662.54003    616.75673   -4100.6528 
30177000    116.12867   -5161.9118   -4929.6401   -5161.9118            0     6306.876    17.832529    22.724484    19.246542    7799.3729    6937.8841    6828.5627    5154.1811    135.11948    47.969035    -219.4598   -4212.2591 
30178000       115.79   -5160.6369   -4929.0426   -5160.6369            0    7434.9529     17.80303    22.758502    19.154273    7760.7425    9205.8007    7283.6691    5815.3888     269.3235    476.22898    495.45063   -4087.5363 
30179000    113.26784   -5158.8728   -4932.3231   -5158.8728            0    7381.4354      17.9147    22.658943    19.188555    7789.1752    6680.0535    7943.8846    7520.3682   -180.05156    65.773034   -1067.6454   -4093.8132 
30180000    107.54982   -5149.9818   -4934.8689   -5149.9818            0    7665.4117    17.740996    22.859702    19.150758    7766.6644    8135.5581    6993.0651     7867.612   -109.72985    842.34964   -1044.8962   -4066.6166 
30181000    106.00175   -5155.7859   -4943.7693   -5155.7859            0    7425.0661    17.948884    22.501172    19.266914    7781.3465    6997.9237    8407.0306    6870.2439   -612.69423     576.6599   -778.67185   -4101.1508 
30182000    111.21151   -5161.1754   -4938.7386   -5161.1754            0    6498.5977    17.880624    22.788426    19.112107    7787.6347    6379.8271    5999.8233    7116.1428   -353.47814   -328.21491   -182.53687   -4200.6626 
30183000    112.23585   -5171.1555   -4946.6699   -5171.1555            0    7336.7091    17.813524    22.604009    19.271949    7759.9864    7640.3358    7468.4643    6901.3273   -74.677912   -36.263836    578.54715    -4116.364 
30184000    103.79232   -5156.2485   -4948.6511   -5156.2485            0    7055.2365    17.789687    22.779858    19.134378      7754.14    7246.5636    6684.7455    7234.4002   -155.66414    479.39993   -35.908379   -4150.8014 
30185000    113.34297   -5153.7057   -4927.0057   -5153.7057            0    7334.5949    17.965002    22.557505     19.16913    7768.2059    6852.4167    7265.2964    7886.0715    394.17874   -357.13432    460.51937   -4096.0598 
30186000    113.06632   -5155.8465   -4929.6999   -5155.8465            0    6711.2022    17.583831    22.958952    19.217222     7758.114    7276.1609    7352.0351    5505.4105   -298.93181    81.666798   -9.3075152   -4170.3668 
30187000    110.64041   -5168.3941   -4947.0996   -5168.3941            0    7262.5888    17.973713    22.529117      19.2259    7785.1799    7405.6872    6990.9085    7391.1708    138.87566   -60.725716     -119.901   -4122.5135 
30188000     113.7136   -5158.0343    -4930.593   -5158.0343            0    7033.6027    17.771592    22.809393     19.17016    7770.8014    8109.8284    7150.5849    5840.3949    124.38129    398.54512    978.62063   -4133.4807 
30189000    109.67778   -5169.7172   -4950.3481   -5169.7172            0    6881.7493    17.847007    22.709157     19.15655    7763.9678    7455.8357     7147.003    6042.4094    980.23973   -307.78448    38.406578    -4171.131 
30190000    119.87038   -5157.7584   -4918.0028   -5157.7584            0    8025.2149    17.766325    22.825718    19.153515    7767.3085    8228.5299    6879.8521    8967.2627    328.18229   -884.12003   -123.44118   -4008.9207 
30191000    111.92545   -5151.6629   -4927.7981   -5151.6629            0     8739.586    17.990284     22.54528    19.095275     7744.967    7162.2116    8970.1112    10086.435    564.64998    58.356223   -317.55639   -3940.6409 
30192000    115.66528   -5165.6757   -4934.3309   -5165.6757            0    7211.5084    17.692094    22.937649    19.181426    7784.1111    8693.8795    6838.6894    6101.9562   -299.15079   -96.883258   -382.23956   -4115.6568 
30193000     110.8068    -5163.436   -4941.8087    -5163.436            0    6582.7623    17.880692    22.666734    19.224128    7791.4795    6150.4736    6614.9743    6982.8388    60.136115    -424.1002    139.63992   -4193.8046 
30194000     116.0193   -5167.6132   -4935.5603   -5167.6132            0    5893.3253    17.733545    22.940474     19.20148    7811.4674    5985.5059    5449.2845    6245.1856   -151.35314    -425.2113    262.90398   -4264.1795 
30195000    107.25616    -5150.626   -4936.1004    -5150.626            0    6836.4432    17.919063    22.590906    19.206901    7775.1048    7135.4757    7182.2877    6191.5661    -467.1386    356.07319    -828.5022    -4160.903 
30196000    115.17246   -5176.2109   -4945.8518   -5176.2109            0    6269.5718    17.888993    22.799574    19.104792    7792.1075    4933.1882    6224.9279    7650.5992    -111.5423    398.64864   -114.44129   -4233.3783 
30197000    110.93548   -5157.6482   -4935.7635   -5157.6482            0    7421.3208    17.876519    22.776182    19.111695    7781.4958    6075.7855     7665.986    8522.1909    47.343913   -534.63906    -1579.839   -4093.5539 
30198000    107.10568   -5152.7197   -4938.4951   -5152.7197            0    7184.8242    17.939285    22.729839     19.09152    7784.7018    5882.4529    7682.1515    7989.8684   -385.67926    427.33197    186.15274   -4122.7884 
30199000    117.65597   -5168.9429   -4933.6164   -5168.9429            0    6319.0273     17.93867    22.707203    19.119393    7788.0369    5938.9544    6495.7823    6522.3452    154.82478    665.05788   -869.42107   -4215.8979 
30200000     110.1277   -5163.3449   -4943.0759   -5163.3449            0    7121.5334    17.948342     22.69451    19.081184    7772.3165    6635.5741    6622.1673    8106.8587   -754.55579   -354.34258   -636.38587   -4135.8411 
30201000     109.8014   -5158.4239   -4938.8075   -5158.4239            0    6292.4114    17.800072    22.801272    19.210375    7796.8046    6504.9768     6876.202    5496.0553    687.08528   -58.877519    400.67487   -4223.3075 
30202000    112.96753   -5166.4977   -4940.5487   -5166.4977            0    7567.5943    17.904732    22.684392    19.131461    7770.3949    7509.9531    7543.1883    7649.6416    754.47335  -0.97171534    94.156875   -4082.9644 
30203000    106.41771   -5160.5755   -4947.7269   -5160.5755            0    6506.0028    17.809882    22.571437    19.399228    7798.3854    7298.5488    7412.4313    4807.0281   -619.45843    1335.2014   -1384.8997   -4207.7898 
30204000    105.50471   -5160.0521   -4949.0297   -5160.0521            0    7183.0326    17.857699    22.852637    19.050609    7774.4682    6077.5951    8003.7198     7467.783   -1009.0808    601.17756    -1793.299   -4134.5985 
30205000    108.47172   -5166.5289   -4949.5721   -5166.5289            0    7202.6505    17.868204    22.623031    19.236413    7775.9917    7051.1722    6928.1651    7628.6142   -142.23211    -305.6223    833.79039   -4132.7565 
30206000    103.20087    -5151.543   -4945.1285    -5151.543            0    6882.7787     17.77166    22.886338    19.098475    7767.8892    7587.9668    5991.5085    7068.8609   -927.74378   -525.85321   -1003.9342   -4165.4012 
30207000    113.62329     -5165.53   -4938.2694     -5165.53            0    7125.6121    17.875409     22.63417    19.206785    7770.9697    6142.7693    7682.8317    7551.2353    523.21466    522.28374    1044.6313   -4130.7122 
30208000    114.89579   -5158.1801   -4928.3743   -5158.1801            0     6247.908    17.872212    22.752332    19.139419    7782.7478    5865.2699    6062.7363    6815.7177    44.550816    582.64939    1170.2196   -4219.2156 
30209000    109.28073   -5155.7036   -4937.1287   -5155.7036            0    5446.9324    17.859635    22.653805    19.297907    7807.7152     6419.284    5288.1074    4633.4057    729.16375   -448.76588    1141.2959      -4316.9 
30210000    115.57295   -5160.6543   -4929.4941   -5160.6543            0    7216.7425    17.937114     22.57994      19.1501    7756.1536    5898.5909    7756.6262    7995.0102   -943.93071   -316.09235    1003.6787   -4113.1683 
30211000    112.68979   -5160.7376   -4935.3441   -5160.7376            0    6644.2278    17.824998    22.792839    19.131557     7772.813    6287.3456    7151.3039    6494.0338    374.93691    115.70255    426.15597   -4182.1644 
30212000      112.112   -5158.3282   -4934.0903   -5158.3282            0    7394.8672    17.904608    22.536138    19.230294    7759.4372    8395.5036    7825.3475    5963.7505    263.35002     261.4568    1272.2881   -4097.2618 
30213000     108.9866   -5156.3741   -4938.3875   -5156.3741            0     6853.069     17.86589    22.824862    19.027837    7759.2947    7118.3834     6163.029    7277.7945   -74.253439   -1158.7038   -333.58015   -4162.8849 
30214000    114.76171   -5170.8321   -4941.2945   -5170.8321            0    7342.2044    17.917941    22.546137    19.238686    7772.0514    8218.1701    7406.4225    6402.0205    -91.75924    919.60632   -231.64475   -4109.0747 
30215000    109.82509   -5173.0473   -4953.3836   -5173.0473            0    7187.1771    17.775869    22.858525    19.112473     7765.974    8080.3664     6580.818    6900.3467   -434.07318   -888.72583   -1161.9454   -4139.3728 
30216000    110.32771   -5164.2502   -4943.5812   -5164.2502            0    5444.0109    17.873824    22.694027    19.242027    7805.1253    5711.8309    4670.3213    5949.8804    181.36921   -129.54073   -545.82582   -4323.8908 
30217000    104.31563   -5160.0753   -4951.4312   -5160.0753            0    8233.7047     17.84684    22.712386    19.134123    7755.9079    7726.2412    7764.1457    9210.7272    67.152751   -57.708488   -491.10411   -4020.1007 
30218000    112.22589   -5157.7547   -4933.2891   -5157.7547            0    5910.3974    17.879754    22.773663    19.142063    7794.4084     6604.408    5309.9681    5816.8161   -35.458295   -1.2884395   -613.60576   -4261.4338 
30219000    111.57237   -5161.4574   -4938.2989   -5161.4574            0    7873.1353    17.833628    22.722813    19.149171    7759.8221    6886.1194    8697.0797    8036.2067   -973.50367    35.224445    883.82278   -4047.3037 
30220000    107.93697   -5170.2983    -4954.411   -5170.2983            0    6529.1198    17.894736    22.641819    19.228925    7790.9714    6697.0509    7339.6233    5550.6852    426.07373    1169.9374     672.2675   -4212.5507 
30221000    109.74626   -5159.5997   -4940.0936   -5159.5997            0    7356.7649    17.847973    22.752953    19.133226    7769.8901    8532.4848    6602.5402    6935.2698   -985.77951     178.1763   -1523.6029   -4106.4554 
30222000    107.74689   -5166.0463   -4950.5393   -5166.0463            0    9417.5583    17.938441      22.4928    19.116561    7713.2605    7007.2265    9962.9353    11282.513   -67.962137     130.1815     607.8666   -3891.1582 
30223000    105.96608   -5164.1534   -4952.2082   -5164.1534            0    7432.3538    17.813211    22.703921    19.192728    7762.1098    7961.1097    7236.5698     7099.382   -82.784501   -838.37846   -424.42263   -4110.8478 
30224000    111.68545   -5160.6975   -4937.3128   -5160.6975            0    7311.9876    17.947304    22.684758    19.115925    7782.6712     6732.257    7249.2033    7954.5025    78.649436    482.55917    1117.2595   -4107.3855 
30225000    114.28953   -5176.4879   -4947.8947   -5176.4879            0    6605.0263    17.800646    22.790485    19.184857    7783.0153    8004.8061    5412.7088     6397.564   -571.20568    416.78204    244.66461    -4198.176 
30226000    108.79079   -5156.5088   -4938.9138   -5156.5088            0    7333.3225    17.888808    22.494795    19.311541    7771.0621    8129.0461    7585.2142    6285.7072    649.81908   -11.748719    388.23982   -4107.8066 
30227000    118.91752   -5153.2185   -4915.3688   -5153.2185            0    5092.9281    17.804902    23.051992    19.063133    7824.2428    4837.5099     4234.175    6207.0993    568.98817   -588.05709   -702.62124   -4334.2221 
30228000    111.02315   -5147.9369   -4925.8769   -5147.9369            0    6887.5936    17.913807    22.568891    19.196266    7760.9501    5771.0319    8226.5559    6665.1931    401.86456    42.462125     790.2302   -4146.3012 
30229000    111.89922    -5153.118   -4929.3057    -5153.118            0    8084.9746    17.877485    22.832005      18.9848    7749.1932    8765.0878    7311.4871     8178.349    -271.5632    850.81406      783.941   -4015.5901 
30230000     118.0751   -5157.1317   -4920.9669   -5157.1317            0    6377.7348     17.85723    22.648605    19.255575    7787.7509     6575.609     6981.152    5576.4434    578.63501    -240.2067    487.33072    -4196.607 
30231000    114.69241   -5155.8686   -4926.4696   -5155.8686            0    6748.0057    17.875643    22.707723    19.166368    7779.9189    5796.0059    7825.5541     6622.457    -940.1321      447.001   -701.42905   -4160.8265 
30232000    117.56386   -5175.1127   -4939.9705   -5175.1127            0    5913.7243    17.954681    22.684057    19.188022    7814.9938    5670.1031    5835.0117    6236.0581    314.93824    748.39464   -280.42421   -4265.9616 
30233000    115.24419   -5180.0176    -4949.515   -5180.0176            0    6190.6944     17.87651    22.700906    19.211725    7796.3675    6230.5984    6196.3525    6145.1323   -256.69797    270.05516   -481.39172   -4245.6205 
30234000    116.47376   -5157.2027   -4924.2408   -5157.2027            0    7517.7167    17.705353    22.705672    19.278437    7750.1615    8584.5434    7283.4214    6685.1853   -774.36127   -603.55412   -34.698856   -4074.5271 
30235000    110.75965   -5173.6075   -4952.0745   -5173.6075            0    6450.6437    17.901783    22.698863    19.174206    7791.4413    6623.3476    6739.2598    5989.3238    -727.3566    856.59875    71.236695   -4219.0867 
30236000    110.16559   -5165.0566   -4944.7118   -5165.0566            0    6673.9289    17.904761     22.77368    19.114706    7794.1608    6697.8747    6524.1537    6799.7585    489.05828    255.81238   -839.87576   -4186.0873 
30237000    110.78674    -5170.312   -4948.7249    -5170.312            0     6870.155    17.883952    22.730253    19.134546    7778.3222    7288.7471    6858.8695    6462.8483    234.63559    719.29598   -144.17336   -4169.3824 
30238000    112.62509   -5155.7563   -4930.4922   -5155.7563            0     6491.087    17.944032     22.72096    19.076985    7777.7946    6229.4106    6539.0264     6704.824    656.56765   -807.99718   -464.27037   -4194.2007 
30239000    114.25231    -5169.602   -4941.0833    -5169.602            0    5485.8723    17.704366    22.915886    19.254259    7811.6689    6422.1796    5330.8162    4704.6211   -837.02892    364.29029   -318.91985   -4316.1043 
30240000    110.97651   -5150.1234   -4928.1567   -5150.1234            0    7257.1004    17.956334     22.56223    19.127816    7749.3464    7204.0867    7487.9251    7079.2893    473.21422   -89.812539    475.90637   -4107.9863 
30241000    107.35105   -5167.0352   -4952.3199   -5167.0352            0    6196.3406    17.837038    22.714522    19.278833    7811.0083     5941.452    6189.5671    6458.0027   -302.74112    142.64573    1899.5236   -4246.4604 
30242000    109.79255   -5161.2477    -4941.649   -5161.2477            0    6625.3689    17.832901    22.772591    19.143681    7774.2752    5800.2996    5813.6152    8262.1919   -284.29424   -940.41936    -356.4609   -4190.4659 
30243000    112.39337   -5152.0377   -4927.2371   -5152.0377            0    6623.4246    17.936223     22.61132    19.220172    7794.9651    7224.0458    6942.4157    5703.8122    282.86416   -137.08287    610.80358   -4174.2758 
30244000    114.89326   -5156.6637    -4926.863   -5156.6637            0    7513.6841    17.864496    22.754175    19.113392    7769.4384    7111.9073    8529.6993    6899.4457    175.46131    785.56156   -365.76184   -4075.4928 
30245000    116.86556    -5159.838   -4926.0924    -5159.838            0    6723.0835    17.967369    22.641563     19.15492    7792.3996    6653.0758    6999.8576    6516.3169   -183.15212   -1349.0568    69.481507   -4162.0533 
30246000    108.71438   -5158.4014   -4940.9592   -5158.4014            0     6168.604    17.875909    22.728777    19.209094    7804.6075    7930.8486    5255.6927    5319.2706   -59.763195   -242.05674    299.90678   -4238.8352 
30247000     115.3732    -5163.999   -4933.2383    -5163.999            0    7950.8773    17.729861    22.894364     19.07504    7742.8235    8247.1676    7675.7938    7929.6704    1186.4675    128.05687    1057.8805   -4035.4162 
30248000    118.44317   -5164.8302   -4927.9292   -5164.8302            0    6540.2319    17.962752    22.473257    19.286387    7785.5583    5331.0689    7430.7327    6858.8939   -558.26292    -397.2114     450.1193   -4185.3227 
30249000    109.02855   -5162.2106     -4944.14   -5162.2106            0    6639.1835    17.735864    22.909719    19.159492    7784.9549    8361.9987      5231.49    6324.0619    887.82727   -298.99725   -345.42268   -4190.3565 
30250000    114.22274    -5149.403   -4920.9434    -5149.403            0    5737.2892    17.966492     22.62966    19.179518    7797.9241    5139.2393    6291.0753    5781.5532    701.94021   -233.29593    1412.0288   -4268.4718 
Loop time of 423.825 on 64 procs for 250000 steps with 1008 atoms

Performance: 101.929 ns/day, 0.235 hours/ns, 589.866 timesteps/s
196.3% CPU use with 32 MPI tasks x 2 OpenMP threads

MPI task timing breakdown:
Section |  min time  |  avg time  |  max time  |%varavg| %total
---------------------------------------------------------------
Pair    | 35.284     | 40.902     | 54.385     |  59.0 |  9.65
Bond    | 0.99785    | 1.2776     | 2.2432     |  22.5 |  0.30
Kspace  | 201.5      | 214.06     | 223.14     |  30.4 | 50.51
Neigh   | 1.1906     | 1.3082     | 1.4211     |   6.4 |  0.31
Comm    | 61.472     | 68.902     | 75.532     |  40.8 | 16.26
Output  | 0.4918     | 0.49209    | 0.49385    |   0.0 |  0.12
Modify  | 82.249     | 85.307     | 89.366     |  13.0 | 20.13
Other   |            | 11.58      |            |       |  2.73

Nlocal:        31.5000 ave          35 max          26 min
Histogram: 1 0 2 2 3 7 6 7 2 2
Nghost:        2957.62 ave        2970 max        2944 min
Histogram: 1 5 2 1 2 7 7 3 2 2
Neighs:        10723.0 ave       11864 max        8804 min
Histogram: 1 0 2 2 3 7 6 4 3 4

Total # of neighbors = 343137
Ave neighs/atom = 340.41369
Ave special neighs/atom = 2.0000000
Neighbor list builds = 3001
Dangerous builds = 0

unfix		3
unfix		2
unfix		1

write_data	data.final.${pid}
write_data	data.final.0
System init for write_data ...
PPPM initialization ...
  extracting TIP4P info from pair style
  using 12-bit tables for long-range coulomb (../kspace.cpp:340)
  G vector (1/distance) = 0.37971988
  grid = 24 27 32
  stencil order = 5
  estimated absolute RMS force accuracy = 0.0024093832
  estimated relative force accuracy = 7.255786e-06
  using double precision FFTW3
  3d grid and FFT values/proc = 5355 672
Last active /omp style is kspace_style pppm/tip4p/omp
WARNING: Not all mixed pair coeffs generated from mixing. Use write_data with 'pair ij' option to store all pair coeffs. (../write_data.cpp:312)

write_restart   restart.lmp.${pid}
write_restart   restart.lmp.0
System init for write_restart ...
PPPM initialization ...
  extracting TIP4P info from pair style
  using 12-bit tables for long-range coulomb (../kspace.cpp:340)
  G vector (1/distance) = 0.37971988
  grid = 24 27 32
  stencil order = 5
  estimated absolute RMS force accuracy = 0.0024093832
  estimated relative force accuracy = 7.255786e-06
  using double precision FFTW3
  3d grid and FFT values/proc = 5355 672
Last active /omp style is kspace_style pppm/tip4p/omp
Total wall time: 0:07:03
