LAMMPS (30 Jul 2021)
  using 1 OpenMP thread(s) per MPI task
package omp 0
using multi-threaded neighbor list subroutines
echo both

include		in.partitions
variable        pid world 0
include		in.temp
variable        temperature equal 246.97
variable	tempDamp equal 100.0
include		in.pressure
variable        pressure equal 6625.0
variable        pressureDamp equal 1000.0 # This is 1 ps
include		in.seed
variable        seed world 745823

units		real
atom_style	full
read_restart	restart.lmp.${pid}
read_restart	restart.lmp.0
Reading restart file ...
  restart file = 30 Jul 2021, LAMMPS = 30 Jul 2021
  restoring atom style full from restart
  orthogonal box = (0.57126986 1.7644117 0.69694789) to (17.636303 21.864766 21.516248)
  4 by 4 by 4 MPI processor grid
  restoring pair style lj/cut/tip4p/long/omp from restart
  restoring bond style harmonic/omp from restart
  restoring angle style harmonic/omp from restart
  864 atoms
  576 bonds
  288 angles
Finding 1-2 1-3 1-4 neighbors ...
  special bond factors lj:    0        0        0       
  special bond factors coul:  0        0        0       
     2 = max # of 1-2 neighbors
     1 = max # of 1-3 neighbors
     1 = max # of 1-4 neighbors
     2 = max # of special neighbors
  special bonds CPU = 1.152 seconds
  read_restart CPU = 1.606 seconds
include 	in.setup
variable	out_freq equal 1000
variable	out_freq2 equal 10000
variable	out_freq3 equal 1000

timestep	2.0

neigh_modify    delay 7 every 1

include		in.tip4p
# This is TIP4P/Ice

# create groups ###
group ox type 2
288 atoms in group ox
group hy type 1
576 atoms in group hy

# set charges - beside manually ###
set group ox charge -1.1794
Setting atom values ...
  288 settings made for charge
set group hy charge 0.5897
Setting atom values ...
  576 settings made for charge

# ### TIP3P Potential Parameters ###
pair_style lj/cut/tip4p/long/omp 2 1 1 1 0.1577 8.5
pair_coeff 1 1*2 0.000 0.000
pair_coeff 2 2 0.21084 3.1668
bond_style  harmonic
bond_coeff  1 450 0.9572
angle_style harmonic
angle_coeff 1 55 104.52
kspace_style pppm/tip4p/omp 1.0e-5
pair_modify tail yes

thermo          ${out_freq}
thermo          1000
thermo_style    custom step temp pe etotal epair emol press lx ly lz vol pxx pyy pzz pxy pxz pyz enthalpy

restart 	${out_freq3} restart.lmp.${pid} restart2.lmp.${pid}
restart 	1000 restart.lmp.${pid} restart2.lmp.${pid}
restart 	1000 restart.lmp.0 restart2.lmp.${pid}
restart 	1000 restart.lmp.0 restart2.lmp.0


include         in.dump
dump            myDump all atom ${out_freq2} dump.water.${pid}
dump            myDump all atom 10000 dump.water.${pid}
dump            myDump all atom 10000 dump.water.0
dump            myDump2 all dcd ${out_freq2} dump.dcd
dump            myDump2 all dcd 10000 dump.dcd
dump_modify     myDump append yes
dump_modify     myDump2 append yes


variable natoms 	equal  "count(all)"                        # NUMBER ATOMS
variable H      	equal  "enthalpy/v_natoms"                 # ENTHALPY-per-atom
variable Vol      	equal  "vol/v_natoms"                 # volume-per-atom
fix AVG all 		ave/time ${out_freq} 1 ${out_freq} v_Vol v_H file vol_enthalpy.dat
fix AVG all 		ave/time 1000 1 ${out_freq} v_Vol v_H file vol_enthalpy.dat
fix AVG all 		ave/time 1000 1 1000 v_Vol v_H file vol_enthalpy.dat


timer           timeout 23:50:00 every 1000
New timer settings: style=normal  mode=nosync  timeout=23:50:00

fix 		1 all shake 1e-6 200 0 b 1 a 1
       0 = # of size 2 clusters
       0 = # of size 3 clusters
       0 = # of size 4 clusters
     288 = # of frozen angles
  find clusters CPU = 0.131 seconds
fix             2 all nph iso ${pressure} ${pressure} ${pressureDamp}
fix             2 all nph iso 6625 ${pressure} ${pressureDamp}
fix             2 all nph iso 6625 6625 ${pressureDamp}
fix             2 all nph iso 6625 6625 1000
fix             3 all temp/csvr ${temperature} ${temperature} ${tempDamp} ${seed}
fix             3 all temp/csvr 246.97 ${temperature} ${tempDamp} ${seed}
fix             3 all temp/csvr 246.97 246.97 ${tempDamp} ${seed}
fix             3 all temp/csvr 246.97 246.97 100 ${seed}
fix             3 all temp/csvr 246.97 246.97 100 745823

run             250000
PPPM initialization ...
  extracting TIP4P info from pair style
  using 12-bit tables for long-range coulomb (../kspace.cpp:340)
  G vector (1/distance) = 0.37382478
  grid = 24 24 24
  stencil order = 5
  estimated absolute RMS force accuracy = 0.0032112021
  estimated relative force accuracy = 9.6704396e-06
  using double precision FFTW3
  3d grid and FFT values/proc = 2535 216
Last active /omp style is kspace_style pppm/tip4p/omp
Neighbor list info ...
  update every 1 steps, delay 7 steps, check yes
  max neighbors/atom: 2000, page size: 100000
  master list distance cutoff = 10.8154
  ghost atom cutoff = 10.8154
  binsize = 5.4077, bins = 4 4 4
  1 neighbor lists, perpetual/occasional/extra = 1 0 0
  (1) pair lj/cut/tip4p/long/omp, perpetual
      attributes: half, newton on, omp
      pair build: half/bin/newton/omp
      stencil: half/bin/3d
      bin: standard
Per MPI rank memory allocation (min/avg/max) = 9.236 | 9.238 | 9.240 Mbytes
Step Temp PotEng TotEng E_pair E_mol Press Lx Ly Lz Volume Pxx Pyy Pzz Pxy Pxz Pyz Enthalpy 
13750000    259.24823     -3930.47   -3486.1275     -3930.47            0    5516.8189    17.065033    20.100354      20.8193    7141.2948    5216.4578    5244.4137    6089.5854    2845.3522   -206.05861    82.988003   -2911.5593 
13751000    251.28171   -3971.9259   -3541.2376   -3971.9259            0    6025.3365    17.082511    20.120941    20.840623    7163.2599    6473.6212    4836.8824    6765.5057   -698.90598   -673.81655    580.90313    -2911.778 
13752000    238.04866   -3934.6744   -3526.6672   -3934.6744            0    5484.6811    17.081106    20.119287     20.83891    7161.4931    4180.1225    5446.3583    6827.5623    370.61906    183.51998   -1307.7562   -2953.8305 
13753000    258.53517   -3962.0786   -3518.9581   -3962.0786            0    8131.9197    16.996416    20.019534    20.735588    7055.4981    8504.5237    9123.2673    6767.9683   -293.71633   -646.49857   -1564.0492   -2682.2063 
13754000      232.199   -3955.3326   -3557.3515   -3955.3326            0    6206.9198    17.066932    20.102592    20.821618    7143.6799    6393.8595    6419.4665    5807.4334    147.03297    42.912119    457.48766   -2910.6944 
13755000    249.12715   -3937.0465   -3510.0511   -3937.0465            0    8067.3056    17.022592    20.050365    20.767523    7088.1465    8183.9701     7653.166    8364.7808   -1512.3773    689.95321    432.09775   -2676.1067 
13756000     254.4629   -3950.0569   -3513.9162   -3950.0569            0    6999.8301    17.044838    20.076568    20.794663    7115.9724    7384.2691    5487.8862    8127.3352   -829.48189   -270.57749     1102.832   -2787.4797 
13757000    240.47027   -3935.9954   -3523.8376   -3935.9954            0    5793.1193    17.083298    20.121869    20.841584    7164.2504    7300.8075    3161.9035    6916.6468    90.469592   -1816.2034    110.91971   -2918.5537 
13758000     246.3511   -3927.3047   -3505.0673   -3927.3047            0    5280.4661    17.069912    20.106101    20.825253    7147.4219    5219.6147    6318.0159    4303.7675     63.59196   -1290.3868   -415.68501    -2954.643 
13759000    260.67205   -3948.3021   -3501.5191   -3948.3021            0    6433.0004    17.101435    20.143232    20.863711    7187.0934    7286.1244    5259.1449    6753.7321   -326.54255    1973.6078    1397.6025   -2827.2353 
13760000    247.97333   -3938.8234   -3513.8056   -3938.8234            0    8713.4034    17.025455    20.053737    20.771015    7091.7227    10417.706    7445.4726    8277.0317    767.08223    783.52578   -500.30828   -2612.6175 
13761000    244.18837   -3936.8188   -3518.2883   -3936.8188            0    8262.3296    16.989125    20.010945    20.726693    7046.4218    8722.9926    9248.5241    6815.4722   -472.82603   -321.99291   -571.75545   -2669.2114 
13762000    252.18274   -3913.1235   -3480.8909   -3913.1235            0    6180.6618    17.074776    20.111831    20.831187    7153.5343    7401.2815    4449.3446    6691.3593    308.06841   -1290.9157    912.10491   -2836.0812 
13763000    255.20706   -3917.9556   -3480.5395   -3917.9556            0    7272.4193    17.058008    20.092081     20.81073    7132.4798    8664.1589    4719.4722    8433.6269   -628.60798   -1567.7012   -279.50433   -2724.0631 
13764000    237.45605   -3934.0263   -3527.0347   -3934.0263            0    8511.0154    16.989725    20.011652    20.727425    7047.1681    8656.0924    7970.6369    8906.3169   -150.71811   -1302.0756    593.39284    -2652.309 
13765000    247.73487   -3934.2488   -3509.6397   -3934.2488            0    5215.9693    17.101071    20.142802    20.863266    7186.6334    3121.1168    5906.1015    6620.6896    98.329199    621.93071     911.0623   -2962.9557 
13766000    251.47588   -3920.3339   -3489.3129   -3920.3339            0    7934.1115    16.994698    20.017509    20.733492    7053.3582    7604.0054    7479.3844    8718.9447   -781.66575    742.00601    1038.6474   -2673.1626 
13767000    240.59916   -3891.3838   -3479.0051   -3891.3838            0    8449.2303    17.055639     20.08929     20.80784    7129.5088    8337.0249    8182.5942    8828.0719    726.88982    1144.4615   -13.769912   -2600.4831 
13768000    238.98591   -3955.0658   -3545.4521   -3955.0658            0    6205.9134    17.078026    20.115659    20.835152    7157.6196    5123.3503    8325.8552    5168.5349    108.35377   -399.15007    528.65425   -2897.6383 
13769000    253.53776   -3944.1931   -3509.6381   -3944.1931            0    6093.7629    17.050646    20.083409    20.801749     7123.249    7274.8387    5952.8817    5053.5684   -392.95991   -961.51666   -880.93605   -2876.5858 
13770000    232.00345   -3938.5872   -3540.9412   -3938.5872            0    5518.1446    17.050576    20.083326    20.801663     7123.161    4490.4651    4774.9439    7289.0247    679.29725    872.45491    228.17714   -2967.6943 
13771000    242.90064    -3939.622   -3523.2987    -3939.622            0     8697.242    17.004545    20.029108    20.745506    7065.6262    9893.7485    7748.5781    8449.3993    -1302.604   -901.16804    1181.4274   -2627.0921 
13772000    255.73158   -3924.3983   -3486.0831   -3924.3983            0    6844.6725    17.078979    20.116781    20.836314    7158.8176    7634.2443    4234.4667    8665.3066   -1158.7048    295.93446   -245.64747   -2771.4718 
13773000    244.61571   -3929.5334   -3510.2705   -3929.5334            0    6330.1577    17.062043    20.096833    20.815653    7137.5424    5681.8154    6978.6228    6330.0349    952.61441    1739.4175    346.61113   -2851.3407 
13774000    250.77494   -3860.1367   -3430.3171   -3860.1367            0    7670.3639    17.029667    20.058698    20.776153    7096.9873     7300.371    7763.6534    7947.0673    23.088616    923.49748    895.64455   -2636.4169 
13775000    256.07556   -3930.5706   -3491.6658   -3930.5706            0    5204.7088    17.075922    20.113181    20.832585    7154.9743      3198.76    7409.6282    5005.7381   -658.11141   -523.94172   -1000.5003   -2948.5651 
13776000    267.05877   -3921.6178   -3463.8882   -3921.6178            0    5532.5854     17.06485     20.10014    20.819077    7141.0658    5042.4277    5501.5811    6053.7475   -1019.8429    423.03477    1157.3129   -2887.6964 
13777000    264.45299    -3901.093   -3447.8296    -3901.093            0    7626.0629    17.070617    20.106933    20.826113    7148.3084    7651.9934    6989.0396    8237.1556    256.09403   0.24177803    568.06378   -2652.8069 
13778000    237.16782   -3923.4407   -3516.9432   -3923.4407            0    6049.0374    17.119634    20.164668    20.885914    7210.0628    6346.4058    6256.8423    5543.8642   -280.80627    471.12461   -1122.4818   -2880.8786 
13779000    241.75877   -3947.0956   -3532.7293   -3947.0956            0    3424.2258    17.116886    20.161431    20.882561     7206.591     4515.304    3340.0106    2417.3629    764.27477    728.67681   -665.37929   -3172.8406 
13780000    252.92734   -3899.8753   -3466.3665   -3899.8753            0    6704.0416    17.084514    20.123301    20.843068    7165.7806    5070.9865    7870.0003    7171.1381   -386.51692   -520.55698   -772.93658   -2765.7569 
13781000    251.28132   -3899.9766   -3469.2891   -3899.9766            0    4712.0284    17.079394     20.11727    20.836821    7159.3394     4381.234    4819.6699    4935.1814   -237.80501    1443.5074     246.5328   -2977.2985 
13782000    250.78433   -3920.9459   -3491.1101   -3920.9459            0    5839.7638    17.094539     20.13511    20.855298    7178.4025    7936.0605    4021.9566    5561.2742    347.70504    1105.7815   -1167.8776   -2879.7473 
13783000    247.92133    -3937.279   -3512.3503    -3937.279            0    7266.4098    17.078605    20.116341    20.835859    7158.3479    7151.7467    7361.9643    7285.5185      2208.91    35.295264   -805.50495   -2753.7577 
13784000    248.37767   -3978.5826   -3552.8717   -3978.5826            0    5703.7164    17.022572    20.050341    20.767498    7088.1213    5798.5605    5773.5616    5539.0271   -1293.2248    395.74758    53.524147   -2963.2616 
13785000    234.34304   -3963.7577   -3562.1018   -3963.7577            0    6727.5568    17.103111    20.145205    20.865755    7189.2055    7964.9902    7306.7197    4910.9604   -1326.7285   -905.64042    451.68125   -2856.7364 
13786000     243.5667   -3969.6037   -3552.1387   -3969.6037            0    6405.8413    17.053753    20.087068    20.805539    7127.1433    5147.8557    6876.6402    7193.0279   -115.20837   -797.83642   -37.936569   -2886.3023 
13787000    254.08082   -3950.7763   -3515.2904   -3950.7763            0    5931.4754    17.068023    20.103877    20.822949    7145.0501    5039.2811    6863.8803    5891.2648   -1233.3546     554.2037     81.84328   -2897.2115 
13788000    248.85782   -3933.1284   -3506.5946   -3933.1284            0    7500.5866    17.008262    20.033486     20.75004    7070.2604    7651.7444    7023.0929    7826.9226    1080.9243   -4.9983965    1431.2391   -2733.1904 
13789000    247.91583   -3923.4794   -3498.5601   -3923.4794            0    5279.4431      17.0892    20.128821    20.848784    7171.6783    4637.0943    5590.0823    5611.1528   -755.31131    554.06427    1116.4233   -2946.3749 
13790000    255.06385   -3954.7956   -3517.6249   -3954.7956            0    6583.7129    17.037501    20.067926    20.785712    7106.7868     5992.889    6823.1816     6935.068   -214.81102     590.2896     687.3374   -2835.2547 
13791000    243.06223   -3949.9968   -3533.3964   -3949.9968            0    7129.4962    17.097504    20.138602    20.858915    7182.1381    6667.9819    7477.3693    7243.1373   -461.01475    579.40576   -603.13141   -2786.6237 
13792000    249.03938    -3949.557    -3522.712    -3949.557            0    7549.7237    17.106554    20.149261    20.869956    7193.5489    7009.7835    7551.0477    8088.3397   -728.45079   -570.81395   -141.10816   -2730.6665 
13793000    250.87909   -3916.7425   -3486.7443   -3916.7425            0    6168.0099     17.10641    20.149091     20.86978    7193.3668    5295.1229    9474.2559    3734.6508    198.06952   -632.37877    203.73187   -2839.6715 
13794000      242.331   -3915.1802   -3499.8331   -3915.1802            0    6670.1189     17.07056    20.106865    20.826044    7148.2366    7280.1038    7068.3124    5661.9404    975.46014    802.18768    1210.5518   -2804.4752 
13795000    233.67377   -3926.8902   -3526.3814   -3926.8902            0    5332.6927    17.116376     20.16083    20.881939    7205.9471    5891.4651    6738.2592    3368.3537    679.36579    1167.1658   -360.13375   -2965.9615 
13796000    252.44696   -3902.7101   -3470.0246   -3902.7101            0    6887.9863    17.057223    20.091156    20.809772     7131.495    5715.0331    8031.8675    6917.0583    1939.8466    926.34685   -396.17214   -2753.6359 
13797000    254.91546   -3923.5984    -3486.682   -3923.5984            0    6122.0748    17.103309    20.145439    20.865997    7189.4559    5893.4546    7329.1531    5143.6168   -86.947296    162.67901   -905.41136   -2844.7773 
13798000    251.45009   -3914.5439    -3483.567   -3914.5439            0    6838.6832    17.083547    20.122162    20.841888    7164.5637    6113.6274    6822.6713    7579.7508   -1579.1823   -19.736973    344.64581    -2769.008 
13799000    254.31647   -3901.6706   -3465.7809   -3901.6706            0     6562.854    17.121671    20.167066    20.888398    7212.6357    8738.8451    5210.9807    5738.7361    2690.0549    -561.3959    1061.5001   -2775.4415 
13800000    249.60506   -3930.8048   -3502.9903   -3930.8048            0    8032.0454    17.128076    20.174611    20.896213    7220.7336     7460.591    8331.0357    8304.5094    1624.2834   -66.346975   -370.01483   -2657.1597 
13801000    249.26942   -3906.0045   -3478.7652   -3906.0045            0    4103.1152    17.219133    20.281864    21.007301     7336.508    5179.8303    2650.2906    4479.2246     529.4161    362.98136   -743.23805   -3039.7506 
13802000    253.76391   -3949.2052   -3514.2626   -3949.2052            0    6749.4991    17.071023     20.10741    20.826608    7148.8172    6433.0703     6475.345    7340.0821   -1788.6719    719.38115    -93.46439   -2810.5722 
13803000    245.18371   -3934.6651   -3514.4286   -3934.6651            0    6700.5539     17.11265    20.156442    20.877394    7201.2424    7221.3216    7755.7413    5124.5989    216.52877     1189.452   -682.14652   -2810.7181 
13804000    251.84284   -3908.7064   -3477.0564   -3908.7064            0    5097.5234     17.11771    20.162401    20.883566    7207.6313    4987.6477    5550.4198    4754.5027     -398.774   -829.67184    295.87571   -2941.2256 
13805000    249.75889   -3922.9562    -3494.878   -3922.9562            0    5208.7123    17.099898    20.141422    20.861836    7185.1557    5285.0488     6344.998    3996.0901    99.547913   -213.19451    -1431.395   -2949.0668 
13806000    249.46413   -3866.5266   -3438.9536   -3866.5266            0    6422.1317    17.039637    20.070442    20.788317    7109.4599    5676.5088    7185.4967    6404.3897   -283.75991    35.148997    16.002259   -2773.0801 
13807000    257.23758    -3932.699   -3491.8026    -3932.699            0    7443.3302    17.035628    20.065719    20.783426    7104.4428    7334.6865    6865.4194    8129.8847    411.10858    522.55827    625.96989   -2720.5916 
13808000    249.58478   -3920.7245   -3492.9447   -3920.7245            0    5226.0962    17.095755    20.136541    20.856781    7179.9341    5067.7626    5524.1967    5086.3291    119.87267    367.50811    774.91063   -2945.7099 
13809000     251.9967   -3902.0966   -3470.1829   -3902.0966            0    8478.9582    17.044083    20.075678    20.793741    7115.0257     7601.533    9035.3111    8800.0305    140.88784    764.06078   -1541.4441   -2590.3608 
13810000    229.79426   -3920.5779   -3526.7184   -3920.5779            0    6096.5067    17.085021    20.123898    20.843685    7166.4177     5733.632    6207.4673    6348.4206     106.3949     1658.954    524.72288   -2889.5429 
13811000    239.27379   -3892.0068   -3481.8997   -3892.0068            0    4847.6911    17.099435    20.140876    20.861271    7184.5719     4173.902     6106.601    4262.5702   -1227.7616   -974.68211    226.44983   -2973.9605 
13812000    242.45255   -3878.7865   -3463.2312   -3878.7865            0    7851.1619     17.09064    20.130517    20.850541    7173.4914    8314.3138    7076.4881    8162.6838    375.02071   -1779.8188    491.29345   -2641.8582 
13813000    258.54602   -3884.9841   -3441.8451   -3884.9841            0    7038.5477    17.128879    20.175557    20.897192    7221.7492    7013.8728    6616.9896    7484.7805    1551.2094   -601.33829   -1546.6767   -2700.5326 
13814000    237.54345   -3892.4819   -3485.3405   -3892.4819            0    7134.3629    17.109578    20.152823    20.873645    7197.3645    7385.2801    5925.3791    8092.4296     1257.687   -921.70068    -283.2627   -2736.4737 
13815000    233.32376   -3916.4749   -3516.5659   -3916.4749            0      6418.13    17.196565    20.255282    20.979769    7307.6998    5647.2634    6010.1517    7596.9749    -1521.407   -127.39707   -396.00849   -2832.5518 
13816000    245.52759    -3890.234   -3469.4082    -3890.234            0    6415.1119    17.219619    20.282437    21.007895    7337.1299    5133.9781      5813.22    8298.1376    1124.4462   -291.44073   -1168.4586   -2782.9622 
13817000    235.37357   -3935.0112   -3531.5889   -3935.0112            0    7230.9575    17.141973    20.190979    20.913167    7238.3234    6211.3432    7731.7786    7749.7509    167.03595   -23.800169   -1209.9979   -2768.2636 
13818000    250.95702   -3914.7302   -3484.5985   -3914.7302            0    6685.6172    17.177171    20.232438    20.956108    7283.0032    5843.0089    6345.4469    7868.3959    583.47069    699.33703   -355.84651   -2774.4847 
13819000    234.82438   -3947.9809      -3545.5   -3947.9809            0    5656.2369    17.149697    20.200078    20.922591    7248.1132    6458.3777    4536.6721    5973.6609    284.46129    25.125908    102.30799   -2947.6001 
13820000    244.90355   -3906.5549   -3486.7985   -3906.5549            0      7579.19    17.030018    20.059112    20.776583     7097.427    7226.3108    7875.3795    7635.8797   -427.01478    989.00613    438.54475   -2702.2865 
13821000    243.63234   -3925.3158   -3507.7383   -3925.3158            0    6148.0639     17.10171    20.143556    20.864046    7187.4396    6668.6201    7561.5295     4214.042    -176.0226   -546.15359    1087.7985   -2863.2894 
13822000    262.16272   -3887.5497   -3438.2118   -3887.5497            0    5561.9329    17.108396    20.151431    20.872203    7195.8729    5832.1746    6594.5405    4259.0836   -1213.0491    1038.1799     42.53999    -2854.518 
13823000    232.90323   -3930.3438   -3531.1557   -3930.3438            0    6097.8368    17.043171    20.074605    20.792629    7113.8847    4617.2523     6578.316    7097.9422    735.33928   -277.72279    894.95341    -2898.513 
13824000    249.59745   -3918.5223   -3490.7209   -3918.5223            0    7666.0786    16.975416    19.994797    20.709967     7029.377    6075.8355    8563.9423    8358.4578   -1192.2704    1216.9612    1934.4617   -2704.8232 
13825000    243.25178   -3930.0413    -3513.116   -3930.0413            0    6941.7408    17.031369    20.060703     20.77823     7099.116    5746.5801    6621.6382    8457.0041   -302.75659   -297.21998    1423.5609   -2794.4145 
13826000    245.72124   -3924.8731   -3503.7153   -3924.8731            0    5967.9189    17.032306    20.061807    20.779374    7100.2879    5155.1251    7375.6264    5373.0052   -1698.4721    646.10661     179.8059   -2885.7348 
13827000    243.58366   -3946.0117   -3528.5176   -3946.0117            0    6664.1241    16.995217    20.018121    20.734126     7054.005    7211.8667    4860.4595     7920.046    -591.3071    1192.3446     83.30933    -2842.943 
13828000    254.04834   -3897.2861    -3461.856   -3897.2861            0     7636.323    17.064829    20.100114    20.819051    7141.0388    6915.2312    8573.4726    7420.2652   -210.30533    1583.4466   -632.69848   -2666.5732 
13829000    256.21701   -3954.1627   -3515.0155   -3954.1627            0     6629.837    17.096864    20.137848    20.858135    7181.3317    5600.6416     7402.131    6886.7384    1072.0054   -820.68215   -553.13939   -2820.6571 
13830000    259.14537    -3923.366   -3479.1997    -3923.366            0    6943.2414     17.08047    20.118537    20.838133    7160.6925    6058.0656    7866.7733    6904.8852    9.5682872    436.18413    -652.4221   -2754.1076 
13831000    249.16512   -3944.3126   -3517.2521   -3944.3126            0    6636.5853    17.071846    20.108379    20.827612    7149.8515    5950.2186    8282.6814    5676.8558    290.63322    1178.5731    123.06971   -2825.2338 
13832000    246.99206    -3950.943   -3527.6071    -3950.943            0    6870.3938    17.060589    20.095121    20.813879    7135.7179    4962.6096    6154.5319    9494.0398   -1542.0835    699.18964    949.11605   -2812.6249 
13833000    241.02259    -3949.507   -3536.4025    -3949.507            0    6302.4124    17.062454    20.097317    20.816154    7138.0578    5640.6961    7082.3428    6184.1982    393.55037     782.3895   -1561.9071   -2880.3135 
13834000    265.57011    -3894.016   -3438.8379    -3894.016            0    6371.8468    17.100348    20.141951    20.862384    7185.7219     5394.262    7170.1497    6551.1287    1079.0494     948.6301    925.25055   -2771.0914 
13835000    250.26363   -3923.0673    -3494.124   -3923.0673            0    6339.9239    17.143058    20.192258    20.914491    7239.6986    5457.5736    7574.8689    5987.3292    589.77209   -922.11331    290.70967   -2824.7322 
13836000    243.32388   -3909.5867   -3492.5379   -3909.5867            0    6857.4456    17.065778    20.101233     20.82021     7142.231    6549.0974    9047.3175    4975.9217    -732.7201   -878.17434    371.60665   -2778.2519 
13837000    244.20502   -3939.9209   -3521.3618   -3939.9209            0    7047.4975    17.066053    20.101556    20.820545    7142.5757    7060.8519    8411.7356    5669.9049    528.72128    -446.4404    1186.1817   -2787.2442 
13838000    254.31906   -3914.7961    -3478.902   -3914.7961            0    7415.3484    17.053479    20.086745    20.805204    7126.7994    8198.9136    7296.0368    6751.0946   -499.10949    -42.80038     596.5452   -2708.1725 
13839000     240.8207   -3928.4325   -3515.6741   -3928.4325            0    5157.6497     17.11755    20.162212    20.883371    7207.4291    4463.4342    4885.9898     6123.525    20.370265    140.96945   -980.15999   -2973.5383 
13840000    252.84286   -3908.5384   -3475.1744   -3908.5384            0     6801.768    17.081883    20.120202    20.839857      7162.47    6385.4861    6365.7432    7654.0746   -1254.0161   -482.73497   -7.7198032   -2764.6803 
13841000    244.05174   -3939.2931   -3520.9968   -3939.2931            0    7510.1252    17.003675    20.028084    20.744444     7064.542    9006.5762    8249.0669    5274.7325   -2194.3534    630.02345   -115.29937   -2747.2354 
13842000    239.97298   -3881.2631   -3469.9576   -3881.2631            0    6325.6625     17.10391    20.146147    20.866731     7190.214    6835.7972    7493.2541    4647.9362   -449.04276    494.67088   -1422.1267   -2806.6367 
13843000    248.03588   -3941.0054   -3515.8804   -3941.0054            0    6196.0244    17.135116    20.182903    20.904802    7229.6411    6600.0625    7828.7868     4159.224   -121.09723    1733.7194     982.0528   -2862.5908 
13844000    240.96564   -3908.7068   -3495.6999   -3908.7068            0    6542.9262    17.083073    20.121603    20.841309    7163.9667    6334.6087    6693.2401    6600.9298    601.45496   -1566.4669    709.55666   -2812.1008 
13845000    243.09106   -3929.6058    -3512.956   -3929.6058            0    5609.2369    17.075375    20.112536    20.831917    7154.2861    5006.2851    7108.7435     4712.682    795.88436    -787.4326    1068.6515   -2927.6999 
13846000    256.77619   -3923.0994   -3482.9938   -3923.0994            0    6132.3644    17.126763    20.173064     20.89461    7219.0728    6344.6008    6376.2526    5676.2399    228.57756   -642.96792   -437.58064   -2837.3614 
13847000    243.35725   -3925.3409   -3508.2349   -3925.3409            0    6421.8234    17.159509    20.211635    20.934561    7260.5608    4312.1154    6764.9817     8188.373   -295.22315    123.66264    1295.3314   -2828.2419 
13848000    241.40799   -3943.3961   -3529.6311   -3943.3961            0    4910.8657    17.133845    20.181406    20.903251    7228.0323    4378.9866    4499.8479    5853.7627   -427.00028   -175.06017    841.29715   -3011.9599 
13849000    244.93203   -3913.7924   -3493.9872   -3913.7924            0    7097.2201    17.077754    20.115338     20.83482    7157.2773    7670.0747      6375.43    7246.1554    210.17859   -113.15738   -330.65235   -2753.1684 
13850000    248.79099   -3945.2968   -3518.8775   -3945.2968            0    6705.2071    17.180634    20.236518    20.960333    7287.4092    3623.3537    8800.6032    7691.6646   -1507.1058    640.30276    749.88524   -2806.2522 
13851000    240.92183   -3937.3255   -3524.3937   -3937.3255            0    5946.5454    17.177466    20.232786    20.956469    7283.3791    5305.1544    6592.5638    5941.9178   -210.11239     66.72796   -534.52462    -2892.748 
13852000    245.81593   -3915.4199   -3494.0998   -3915.4199            0    5716.3729    17.126967    20.173305     20.89486    7219.3316    4782.3838     5399.235    6967.5001    299.60241   -1094.6512    1498.6604   -2892.2426 
13853000    251.92339   -3934.9546   -3503.1665   -3934.9546            0    5917.0061    17.131796    20.178993    20.900751    7225.4394    5605.4814    5874.1163    6271.4207    524.56098   -128.01763     480.8262   -2879.6583 
13854000    242.96092   -3893.1958   -3476.7691   -3893.1958            0    7140.4724    17.064663    20.099919    20.818849    7140.8312    8162.3286    7831.3867    5427.7018   -1369.9559   -305.29401    401.88196   -2733.1482 
13855000     251.3474   -3900.6526   -3469.8518   -3900.6526            0    3275.8544    17.186193    20.243065    20.967115    7294.4846    2582.1775    4506.4461    2738.9398   -543.37172     202.9466    592.14004    -3121.358 
13856000    236.92118   -3920.6803   -3514.6055   -3920.6803            0    6756.6652    17.117547     20.16221    20.883368    7207.4262    5504.7309    7223.3466    7541.9181    54.782603   -1567.4653     1058.615   -2804.3927 
13857000    248.12252   -3919.4385    -3494.165   -3919.4385            0    5964.1118    17.106965    20.149745    20.870457    7194.0673    3885.1006    8495.0509     5512.184   -65.797508    -2548.909    1733.7011   -2868.4217 
13858000    245.40221   -3905.8839   -3485.2729   -3905.8839            0    5712.3608    17.151897    20.202669    20.925275    7250.9029    4973.0441    5520.9792    6643.0591    428.99657    551.70723    1590.9691    -2881.208 
13859000    257.05604   -3945.6047   -3505.0194   -3945.6047            0    5628.7732    17.133102    20.180531    20.902344    7227.0917    5540.9243    5990.2207    5355.1746    214.08834    2130.4013    780.79484   -2911.7483 
13860000    242.76767    -3933.975   -3517.8795    -3933.975            0    5618.2445    17.117241    20.161849    20.882995    7207.0398    6182.9295    4328.7055    6343.0986   -2.8013486   -180.47203    2319.3597   -2927.3611 
13861000    253.83443   -3941.9039   -3506.8404   -3941.9039            0    6854.1922    17.082528    20.120961    20.840644    7163.2811    6505.3804    6739.2216    7317.9747    1404.6474    437.76278   -797.94582    -2790.789 
13862000    251.57268   -3944.1436   -3512.9567   -3944.1436            0    5211.5084    17.161731    20.214253    20.937272    7263.3819    4736.9602    4497.3934    6400.1717    1155.0085    86.154527    958.63799   -2960.9069 
13863000    262.87004   -3968.7793   -3518.2291   -3968.7793            0    7798.2198    17.053027    20.086213    20.804653    7126.2329    7996.2027    7866.0154    7532.4412   -2067.0286    1089.1268    889.49921   -2707.7695 
13864000    254.68073   -3892.9429   -3456.4288   -3892.9429            0    7173.2692    17.113018    20.156875    20.877842    7201.7063    6309.0088     7995.162    7215.6368    527.27731    3392.2545   -731.20167    -2703.024 
13865000     258.9435   -3931.9311   -3488.1108   -3931.9311            0    6803.9489    17.100807    20.142492    20.862945    7186.3016    6739.2396    8321.0882     5351.519   -821.47886   -1470.2341    562.76853    -2775.024 
13866000    249.97862   -3961.4822   -3533.0274   -3961.4822            0    6364.8717    17.056497      20.0903    20.808886    7130.5837    4473.1448     6566.493    8054.9772   -778.86705    -531.0253   -361.15584   -2871.1301 
13867000    235.31433   -3940.6289   -3537.3081   -3940.6289            0     6515.013    17.073867     20.11076    20.830078    7152.3911    5682.3616    8358.8794     5503.798   -165.43504   -20.785253   -1598.1097   -2857.7253 
13868000    244.77012   -3943.1279   -3523.6003   -3943.1279            0    6822.3526    17.100236    20.141819    20.862248     7185.581    7564.4435     8696.417    4206.1974   -997.55886    934.78109    13.004302   -2808.6564 
13869000    248.23941   -3930.9092   -3505.4353   -3930.9092            0    8000.1659    17.076133    20.113429    20.832842    7155.2392    9461.5192    5667.5108    8871.4676    744.09681   -838.16138    512.59107   -2670.6034 
13870000    246.16238   -3959.8168   -3537.9029   -3959.8168            0    5455.7987    17.156399    20.207972    20.930767    7256.6135    5802.2196    7330.8668    3234.3097     95.25151    1174.7738   -694.82916   -2960.5143 
13871000     242.5212   -3938.0642   -3522.3912   -3938.0642            0    5945.3573    17.117871    20.162591    20.883762    7207.8346    4270.8529      7763.64     5801.579   -1329.4997    -1236.941   -476.55928   -2897.4219 
13872000    257.08541   -3942.2296    -3501.594   -3942.2296            0    5430.5532    17.177061    20.232309    20.955974    7282.8629    6802.3045    5823.9466    3665.4084    1842.7622   -243.52696    53.536449   -2924.7982 
13873000     235.9896   -3957.7844   -3553.3064   -3957.7844            0    6465.4356    17.130527    20.177498    20.899203     7223.834    5501.2199    8094.3177    5800.7692   -669.85247   -798.98071   -1143.2081   -2872.1584 
13874000    264.48509   -3943.1119   -3489.7936   -3943.1119            0    7023.0622    17.118694     20.16356    20.884766    7208.8745    6589.8446    7444.1946    7035.1474   -71.488161   -19.695023    95.977009   -2751.4307 
13875000    259.59169   -3917.4102    -3472.479   -3917.4102            0    6235.9547     17.14873    20.198939     20.92141    7246.8867    6313.9854    5764.1642    6629.7144   -599.36602     504.2475   -469.28664   -2813.4108 
13876000    243.87481   -3903.6852   -3485.6921   -3903.6852            0     6255.389    17.134777    20.182504    20.904388     7229.212    6156.1233    4258.9373    8351.1063    294.42785    -130.3993    49.348111   -2826.1824 
13877000    254.90867   -3927.6543   -3490.7495   -3927.6543            0    6819.6402    17.140344    20.189061     20.91118    7236.2606    7709.1863    6424.8863    6324.8479    1147.9475   -1321.9865   -697.58478   -2771.0495 
13878000    243.69493   -3895.6663   -3477.9816   -3895.6663            0     8172.162    17.171337    20.225567    20.948991    7275.5855    6143.3432    9640.9157     8732.227    1518.1182   -251.36542    792.20559   -2610.8584 
13879000    249.68897   -3892.1367   -3464.1784   -3892.1367            0     6683.341    17.122087    20.167557    20.888906     7213.162    6808.0311    7092.3526    6149.6393    533.49017    1622.5253   -1343.9201   -2761.1138 
13880000     241.9288   -3949.5062   -3534.8485   -3949.5062            0     6909.043    17.144446    20.193893    20.916184     7241.457    6875.1576    5400.9163    8451.0552     958.4011   -171.18845   -434.04535   -2805.1898 
13881000    241.88584   -3948.3614   -3533.7773   -3948.3614            0     5314.872    17.131507    20.178652    20.900398    7225.0735    4720.9992    5570.7718    5652.8451   -369.67723   -11.198366   -1173.1699   -2973.7477 
13882000    252.17465   -3920.5307    -3488.312   -3920.5307            0    4854.6593     17.18938     20.24682    20.971004    7298.5445     4815.731    4181.4737    5566.7732     153.1875   -21.038741   -1064.4204   -2971.5734 
13883000    247.69511   -3943.6105   -3519.0696   -3943.6105            0    6489.5016     17.13446    20.182131    20.904002    7228.8111    8256.2242    6733.1647    4479.1159    471.59362    49.788177    75.157291   -2834.9152 
13884000    243.36496    -3949.306   -3532.1868    -3949.306            0    6816.0131    17.114942    20.159141    20.880189    7204.1355    8684.1888    4980.5605    6783.2899   -1261.9997    125.64285   -587.76968   -2816.0629 
13885000     242.5826    -3963.548   -3547.7697    -3963.548            0    4797.9379    17.180543     20.23641    20.960222    7287.2934    4017.4129    4815.2249    5561.1758   -298.78045   -1072.5352    840.04063   -3037.8559 
13886000    240.62274   -3902.3532   -3489.9341   -3902.3532            0    6773.4234    17.114866    20.159051    20.880097    7204.0398    6679.8598    6385.0792    7255.3313   -1522.4533   -626.06617   -277.02496   -2778.2943 
13887000    244.03391   -3939.6161   -3521.3503   -3939.6161            0    5728.8686    17.120197    20.165331      20.8866    7210.7735    4502.5864    6142.5858    6541.4336   -595.97093    106.94415   -722.48083   -2918.8925 
13888000    245.77192   -3920.9882   -3499.7435   -3920.9882            0    8366.1431    17.138019    20.186323    20.908343    7233.3165    8829.0396    8433.2652    7836.1244   -575.03429   -64.647796    -124.9501   -2617.1949 
13889000    225.61391   -3938.6607   -3551.9661   -3938.6607            0    7768.8526    17.099587    20.141055    20.861456    7184.7634    7442.8757    8955.2133    6908.4689   -636.88033     303.7588     366.0021   -2737.9271 
13890000    249.29072    -3923.047   -3495.7712    -3923.047            0    5549.5154     17.17728    20.232567    20.956242    7283.1423    4218.3196    4659.4473    7770.7794    -425.3511   -626.39286   -14.939568   -2906.3174 
13891000    243.00523   -3942.5747   -3526.0721   -3942.5747            0    8241.3959    17.132435    20.179746    20.901531    7226.2487    7685.1626    9273.1567    7765.8683   -2046.8634   -241.61449   -636.79923   -2657.5326 
13892000    236.07027   -3911.5158   -3506.8994   -3911.5158            0    5228.0735    17.156157    20.207686    20.930471    7256.3062    5883.9144    4549.6809    5250.6252   -375.80527    1058.9475   -1555.0013   -2953.6344 
13893000    228.91167   -3904.6933   -3512.3466   -3904.6933            0    10197.052    17.089012    20.128598    20.848554    7171.4409    10440.373    7923.3332    12227.449   -317.15126    152.03217   -195.94529   -2445.8562 
13894000    240.99677   -3923.0533   -3509.9931   -3923.0533            0    8755.1632     17.10744    20.150304    20.871037    7194.6662    8871.4744    7370.0186    10023.997   -1630.3307    1249.1803    -1167.778   -2591.3416 
13895000    260.29368   -3931.1845   -3485.0501   -3931.1845            0    6662.6779     17.16852    20.222249    20.945554     7272.005    6374.8557    6390.9496    7222.2284    1272.6412   -890.13847    1004.2404   -2778.4415 
13896000    239.46251   -3937.1212   -3526.6907   -3937.1212            0    5533.1497     17.18756    20.244675    20.968783    7296.2257    4667.2861    6655.3186    5276.8443   -301.75696    260.77314   -609.92012   -2937.9195 
13897000    244.96639   -3948.4807   -3528.6167   -3948.4807            0    5608.9356      17.1831    20.239422    20.963342    7290.5479    5022.4336    5804.2442     6000.129   -110.80609    671.63853   -1307.0384   -2932.2458 
13898000     238.0143   -3940.9559   -3533.0075   -3940.9559            0    6769.3502    17.094058    20.134543    20.854711    7177.7964    6720.4025    6730.4617    6857.1865   -1209.7902    542.68898   -709.45313   -2824.3865 
13899000    259.02813   -3923.1872   -3479.2218   -3923.1872            0    5528.8874    17.216068    20.278254    21.003563    7332.5915    5639.7379    5637.0486    5309.8758   -94.133026   -266.50616    664.17558   -2887.9719 
13900000    243.43831   -3950.2387   -3532.9938   -3950.2387            0    5845.5622     17.16994    20.223921    20.947286    7273.8089    5675.2857    6255.8095    5605.5913   -100.52714    77.637689    909.71909   -2912.8905 
13901000    242.91334   -3897.6925   -3481.3473   -3897.6925            0    5482.7925    17.159916    20.212115    20.935058    7261.0777    5775.4153    5442.7683    5230.1938    -891.0593    47.420945   -463.36419    -2900.745 
13902000    234.67917   -3958.4028   -3556.1708   -3958.4028            0    6616.9729    17.181628    20.237689    20.961546    7288.6744    7589.2929    5080.6308    7180.9949   -1049.1517   -501.74988    274.49928   -2852.8008 
13903000    248.81099   -3932.0821   -3505.6286   -3932.0821            0    6836.4134    17.050673     20.08344    20.801781    7123.2823    7867.5395    7199.5804    5442.1203   -119.96123    1677.2713    912.43121   -2795.4225 
13904000    232.34994   -3940.1876   -3541.9477   -3940.1876            0    6600.0603    17.048853    20.081297    20.799561    7121.0018     6402.324    6745.6493    6652.2074   -186.03561   -1222.0467    567.24028   -2856.5149 
13905000    251.38896     -3934.81    -3503.938     -3934.81            0    6427.4729    17.008089    20.033283    20.749829     7070.045    9893.2252    4704.3702    4684.8233   -149.44784   -238.34592   -717.39137   -2841.2054 
13906000    223.24726   -3935.8659   -3553.2277   -3935.8659            0    5172.3206    17.102575    20.144575    20.865102    7188.5305    5983.8965    4198.6461    5334.4192   -74.946347    368.47788   -259.95591   -3010.9754 
13907000    234.99627   -3928.7071   -3525.9315   -3928.7071            0    7540.8683    17.060135    20.094585    20.813324    7135.1474    6661.7589    8005.1186    7955.7274    -1739.159   -1507.4521   -430.98958   -2741.2378 
13908000    234.76731   -3925.8315   -3523.4484   -3925.8315            0    6410.6523    17.082782    20.121261    20.840954    7163.6011    5431.9895     6966.963    6833.0044    204.05634    451.84039   -950.04255   -2853.7034 
13909000    252.24389   -3953.9357   -3521.5983   -3953.9357            0    6152.0667    17.100492    20.142121    20.862561    7185.9043    5225.8062    6333.9828    6896.4111   -1311.9471   -29.431813   -1775.0706   -2876.8676 
13910000    265.48605   -3948.7035   -3493.6694   -3948.7035            0    7021.6317    17.057765    20.091794    20.810433    7132.1741    7847.7406     6560.846    6656.3087    261.04052    152.00287    -879.8444   -2763.3113 
13911000    234.43607   -3939.4007   -3537.5853   -3939.4007            0    7395.9605    17.058215    20.092324    20.810983    7132.7393    8590.3303    8038.5404    5559.0108    175.94749   -731.90527     -113.798   -2768.2302 
13912000    247.41621    -3952.537   -3528.4741    -3952.537            0    4269.9743    17.094182    20.134688    20.854862    7177.9521    2971.0915    5408.9957    4429.8357    470.57097   -891.51855    655.29762     -3081.48 
13913000    258.84743     -3933.16   -3489.5044     -3933.16            0    7708.4063    17.000366    20.024186    20.740407    7060.4183    7977.2065     8701.503    6446.5093    18.842846   -1057.6105     665.5213   -2695.7778 
13914000    239.77326   -3939.4768   -3528.5137   -3939.4768            0    7202.0586    17.018677    20.045753    20.762746    7083.2564    9074.1454    6210.1972    6321.8331    -966.5787    1434.2206    275.95539   -2784.5264 
13915000    235.00364   -3923.3003   -3520.5121   -3923.3003            0    5364.4126     17.11574    20.160081    20.881163    7205.1439    5913.4841    4964.8044    5214.9494    1401.4626    456.49649    1546.3204   -2956.8216 
13916000    251.10671   -3916.1312   -3485.7429   -3916.1312            0    7892.9035    17.032189    20.061669    20.779231    7100.1413    9319.4642    6561.2715    7797.9749    998.08904   -108.43083    810.79504   -2668.4464 
13917000      245.564   -3944.7771   -3523.8889   -3944.7771            0    6543.6707     17.00448    20.029032    20.745426     7065.545    6742.7834    6750.9346     6137.294    1130.7675    678.99874   -56.444938   -2849.6046 
13918000    262.13829    -3913.412    -3464.116    -3913.412            0     7690.975    17.051517    20.084434    20.802811    7124.3401    7903.2117    7463.2427    7706.4707   -481.89667    1328.1634   -735.49114   -2665.0145 
13919000    246.59112   -3902.5928    -3479.944   -3902.5928            0    6511.6773    17.064005    20.099144    20.818046    7140.0043    5616.9934    6502.4472    7415.5912    137.13619    786.12945    -1181.823   -2801.8854 
13920000    246.51365   -3927.9217   -3505.4057   -3927.9217            0    6385.3884     17.07229    20.108903    20.828154    7150.4101    5940.7241    5479.7793    7735.6617   -804.67287    1683.2034    43.255601   -2839.5285 
13921000    242.82045   -3937.4197   -3521.2338   -3937.4197            0    6124.5356    17.041276    20.072372    20.790317    7111.5113    6258.5209    6722.0828    5393.0033   -912.85817    472.28985   -236.72829   -2886.0331 
13922000    245.35542   -3935.0565   -3514.5257   -3935.0565            0    7210.4921    17.018744    20.045833    20.762828    7083.3407    7140.6045    8083.7633    6407.1084   -716.96145   -153.24729   -1087.4821   -2769.6584 
13923000    250.73482   -3942.9498   -3513.1989   -3942.9498            0    7707.6897    16.998602    20.022107    20.738254    7058.2197    9274.8764    7746.1162    6102.0765   -1407.0853   -958.45181    1135.6126   -2719.7933 
13924000    237.87453   -3935.3409   -3527.6321   -3935.3409            0    5570.4501    17.130073    20.176964    20.898649    7223.2599    7189.0724     5551.457    3970.8209   -706.60715    458.90811    -131.0659   -2940.8195 
13925000    250.10151   -3915.8898   -3487.2244   -3915.8898            0    6861.1119    17.044167    20.075778    20.793844    7115.1317    5395.1693    6849.8486    8338.3177    134.10116    856.62174    140.36767   -2775.2681 
13926000    248.95014   -3936.0821   -3509.3901   -3936.0821            0    7617.8444    17.014332    20.040635    20.757445    7077.8323    7924.0009    8439.7164     6489.816    562.81841    1275.9442    187.82108   -2723.0539 
13927000     257.8892   -3914.2207   -3472.2075   -3914.2207            0    6611.8423    17.031499    20.060857    20.778389    7099.2788    8223.9262    5086.5986    6525.0022   -13.393013    22.096366   -1692.2262   -2787.6457 
13928000    251.66452   -3931.1421   -3499.7977   -3931.1421            0    8787.7453     17.01628    20.042931    20.759822    7080.2646    9745.8701    8151.1141    8466.2516     20.45487      1089.15   -770.03332   -2592.3892 
13929000     234.3691   -3914.3741   -3512.6735   -3914.3741            0     5001.181     17.09979    20.141293    20.861703    7185.0185    5006.5782    5017.3558    4979.6089    89.259942    187.41714    1071.3175   -2988.6191 
13930000    237.32351   -3907.8248   -3501.0604   -3907.8248            0     7939.134    17.031223    20.060531    20.778052    7098.9333    5419.0596    9934.7811    8463.5613      1714.78    86.391244   -947.43612   -2679.1166 
13931000    247.49512   -3923.6838   -3499.4856   -3923.6838            0    10408.515    17.031017    20.060288    20.777801    7098.6756    10997.317    8547.1645    11681.065    511.64127     -890.022   -92.372532   -2421.9242 
13932000    249.53729   -3895.1043   -3467.4059   -3895.1043            0    7771.3713    17.056222    20.089976    20.808551    7130.2392    7279.3768    8109.2183    7925.5188    546.90708    1899.7755   -154.29379   -2659.2826 
13933000    237.07497   -3932.8063   -3526.4679   -3932.8063            0    6548.4241    17.143146    20.192362    20.914598    7239.8102    7511.1615    5138.3315    6995.7794    346.26859    500.46037    454.44603   -2835.0512 
13934000    240.73515   -3928.8908    -3516.279   -3928.8908            0    6806.5105    17.044186      20.0758    20.793868    7115.1558    7299.6379    7154.7528    5965.1407   -293.40322    469.54714   -848.30422   -2809.9861 
13935000    257.97942   -3914.5528   -3472.3849   -3914.5528            0    5291.3806    17.064611    20.099858    20.818786     7140.766    4712.4194    6764.2843    4397.4381    950.26185    1155.8867    1158.0664   -2921.3365 
13936000    263.06665   -3921.5148   -3470.6276   -3921.5148            0    7367.8704    17.070018    20.106226    20.825382    7147.5552    7227.9178    7300.3887    7575.3048    -708.4791   -204.96997    835.65493   -2702.6025 
13937000      245.273   -3936.5978   -3516.2082   -3936.5978            0    4298.2705    17.132503    20.179825    20.901613    7226.3339    3545.2607    5213.1914    4136.3593   -1170.4869   -171.88865    -620.9337   -3063.2192 
13938000    258.44756    -3925.308   -3482.3378    -3925.308            0    7295.8871     17.11862    20.163473    20.884677    7208.7814    9213.6023    5571.5764    7102.4826    300.67384   -886.27654   -437.55438   -2715.3016 
13939000    248.33594   -3943.0776   -3517.4383   -3943.0776            0    8399.7269    17.044764    20.076481    20.794573    7115.8796    8461.3034    8927.0229    7810.8543   -1007.2868   -192.62649   -498.94761   -2645.7331 
13940000    249.19659   -3891.0502   -3463.9358   -3891.0502            0    5428.4919    17.100304    20.141899    20.862331    7185.6665    5652.1665    5935.0101    4698.2992    197.85672   -385.18161   -782.40802   -2895.0539 
13941000    246.89944   -3893.6005   -3470.4233   -3893.6005            0    6664.1313    17.073932    20.110837    20.830157    7152.4732    6748.8138    7271.4055    5972.1745    -568.3509    607.17629    1584.1245   -2775.2778 
13942000    244.20283   -3919.4542   -3500.8989   -3919.4542            0    4536.4349    17.185662    20.242439    20.966467    7293.8087    3154.9283    5636.7471    4817.6293    357.78662   -777.56244    63.866807    -3018.346 
13943000     246.9385   -3911.8298   -3488.5857   -3911.8298            0    7964.2823    17.111174    20.154703    20.875592    7199.3784    9045.7074    7572.3361    7274.8036   -1701.4269   -366.53718   -949.85183   -2652.3715 
13944000    265.34293   -3953.6408   -3498.8521   -3953.6408            0      6455.81    17.129914    20.176776    20.898455    7223.0586    6740.0736    6467.9631    6159.3934   -297.45852   -502.54685    111.40709   -2818.7912 
13945000    250.82796   -3958.9158   -3529.0053   -3958.9158            0    8060.6118    17.035997    20.066154    20.783876    7104.9041    9625.9589    8158.1893    6397.6873    -10.81146   -691.42542    -936.1275   -2693.7829 
13946000    250.02661   -3951.1274   -3522.5903   -3951.1274            0    4585.9983    17.136588    20.184637    20.906598    7231.5047    7012.4139    2990.0751    3755.5059   -912.19542    31.695573   -699.95251   -3038.9322 
13947000    252.27003   -3922.8539   -3490.4717   -3922.8539            0    6082.2485    17.081484    20.119732    20.839371    7161.9688     8514.711     4071.174    5660.8606    64.754675    566.15239   -164.85566    -2855.181 
13948000     239.4273   -3893.0662    -3482.696   -3893.0662            0    5630.6181    17.146445    20.196247    20.918623    7243.9905     6506.955    6595.7853     3789.114    736.14382    447.13446   -17.165318   -2887.8428 
13949000    259.83642   -3904.5668   -3459.2161   -3904.5668            0      6406.95      17.0746    20.111623    20.830972    7153.3127    7831.4497    5101.3515    6288.0487    1004.7406    1791.1779    -1093.773   -2790.8192 
13950000    245.11951    -3919.158   -3499.0316    -3919.158            0    6110.9067    17.132545    20.179875    20.901664    7226.3868    7666.6233     4935.589    5730.5079    774.84249   -139.28001   -501.81639   -2855.0065 
13951000    237.57072   -3909.8918   -3502.7037   -3909.8918            0    6255.4388    17.132079    20.179326    20.901097    7225.7979    8489.8637    5682.7752    4593.6774    -398.6016   -606.16313   -1115.9187   -2843.5003 
13952000     252.4225   -3929.8505    -3497.207   -3929.8505            0    7867.0133    17.093034    20.133336    20.853461     7176.506    8512.1063    7363.6253    7725.3083    793.93898     779.9108   -909.57869   -2673.8298 
13953000    253.19085   -3968.7918   -3534.8313   -3968.7918            0    6031.8602    17.115218    20.159466    20.880526    7204.4844    5652.1178    4097.9566    8345.5063   -655.19066   -421.31201    671.62789   -2901.0637 
13954000    241.98353   -3954.8694   -3540.1179   -3954.8694            0    6817.7098    17.131799    20.178996    20.900754    7225.4431    6716.1756    5936.0103    7800.9434     618.2773    901.89358   -140.42327   -2821.6971 
13955000    241.07601   -3961.5715   -3548.3755   -3961.5715            0    6288.5798    17.134197     20.18182     20.90368    7228.4775    6315.4327    5385.5391    7164.7675   -211.17719   -1093.3139   -1121.5042   -2885.4339 
13956000    239.61457    -3935.034   -3524.3429    -3935.034            0    8537.8861    17.011401    20.037183     20.75387    7074.1757    7759.1121    8873.0095    8981.5367    814.66034    1221.1485    362.03395   -2643.4926 
13957000    257.21245   -3957.7449   -3516.8916   -3957.7449            0    5392.0914    17.109141    20.152308    20.873112    7196.8131    5988.2191    5778.5382    4409.5169    1672.6493    577.31592    2411.4596   -2950.9477 
13958000    238.75727   -3915.4474   -3506.2256   -3915.4474            0    7519.3795    17.069534    20.105656    20.824791    7146.9471    8322.5645    7685.5614    6550.0124   -223.93957    824.25453    1115.6555    -2722.474 
13959000    246.91651   -3928.5447   -3505.3383   -3928.5447            0    7786.9641    16.993862    20.016524    20.732471    7052.3168    8449.5567    6809.1298    8102.2059    2509.6032    123.25243   -965.37494   -2704.4427 
13960000    252.75975   -3909.0114   -3475.7899   -3909.0114            0    7310.9322    17.006144    20.030991    20.747456    7067.6192    6637.5665    7755.4907    7539.7395     309.1163    -1631.823   -202.98721    -2722.223 
13961000    240.68232   -3936.0474   -3523.5261   -3936.0474            0    6083.5661    17.049812    20.082427    20.800731     7122.204    4831.2146    7083.7049    6335.7789    483.51428    1068.5533   -378.20829   -2891.6259 
13962000    247.73911   -3927.3187   -3502.7024   -3927.3187            0    5465.9195    17.107757    20.150678    20.871423    7195.0661    4034.2645    6535.3747    5828.1195    823.16214   -331.69812   -952.33019   -2929.1489 
13963000    254.79972   -3916.5354   -3479.8174   -3916.5354            0    8304.5819    17.039009    20.069702    20.787551    7108.6734    7799.6965    6874.0074    10240.042   -821.87092   -279.44377   -90.027697   -2618.8589 
13964000    248.62196   -3921.8925    -3495.763   -3921.8925            0     7774.806    17.064609    20.099855    20.818783    7140.7624    7332.7097    8240.0986    7751.6098    936.16961   -819.25318   -947.89942   -2686.0893 
13965000    240.07623   -3969.6992   -3558.2167   -3969.6992            0    6042.1646    17.136191    20.184169    20.906112    7231.0012    5069.3283    5640.3296     7416.836    635.85934    5.2754967   -329.13236   -2921.0298 
13966000    239.87354   -3919.4424   -3508.3073   -3919.4424            0    8070.0701    17.084166    20.122891    20.842642    7165.3419    7646.5729    7694.4087    8869.2287     538.1839    1137.5534   -503.29575   -2664.9918 
13967000    237.41001   -3931.5639   -3524.6512   -3931.5639            0    6514.8231    17.061632    20.096349    20.815152    7137.0267    7698.3791    5463.7004    6382.3897   -450.80359    153.29749   -431.72425    -2846.548 
13968000    248.23832   -3912.1649   -3486.6929   -3912.1649            0    5225.1166    17.101388    20.143176    20.863653    7187.0334    6510.7364    6195.5565    2969.0568   -616.04022    1309.6975      557.583   -2939.0196 
13969000    263.95786    -3927.727   -3475.3122    -3927.727            0    7628.7659    17.056213    20.089966     20.80854    7130.2277     6685.693    8446.3829    7754.2218   -593.41151   -722.52294   -364.78714   -2682.0193 
13970000    243.79567   -3939.8918   -3522.0343   -3939.8918            0    6497.8479    17.068741    20.104722    20.823824    7145.9512     6293.481    5829.7076    7370.3552     726.0434   -1499.9592    -701.8434   -2844.8522 
13971000    246.40301   -3910.6013    -3488.275   -3910.6013            0    6648.0649    17.064398    20.099607    20.818526    7140.4981    4965.1008    8090.1108     6888.983    366.03913   -189.55274    174.81092   -2795.9665 
13972000    230.45381   -3901.1482   -3506.1583   -3901.1482            0    6736.4219     17.08363    20.122259    20.841988    7164.6674    5785.0877    6020.2152    8403.9629    1143.6613    123.14756    693.15394   -2802.2741 
13973000    235.96325   -3925.5929   -3521.1599   -3925.5929            0     7706.069    17.003097    20.027402    20.743739    7063.8212    7302.1158     8950.471    6865.6201   -546.24621    945.00432      -577.77   -2727.2916 
13974000    249.79066   -3935.2835   -3507.1509   -3935.2835            0    6980.9921     17.09291     20.13319     20.85331    7176.3495    6960.9318    7208.9423    6773.1022    284.26995     2181.981    856.57325   -2776.5224 
13975000    236.47445   -3915.5183   -3510.2092   -3915.5183            0     8354.882    17.089318    20.128959    20.848928    7171.8262    7507.2581    10285.717     7271.671   -1577.9771    318.54547   -308.77429   -2636.3409 
13976000    248.94603   -3943.8875   -3517.2025   -3943.8875            0    6876.9297     17.07635    20.113684    20.833107     7155.512    7276.0845    7341.6035    6013.1011   -631.30155    504.51924    164.52902    -2799.555 
13977000    260.30351    -3917.291   -3471.1397    -3917.291            0    6195.5694    17.082916    20.121418    20.841117    7163.7694    4669.0599    7122.1228    6795.5253   -4.2776778    305.08153   -300.36106     -2823.85 
13978000    250.01416   -3903.7235   -3475.2078   -3903.7235            0      7759.61    17.036053     20.06622    20.783945     7104.975    6656.6195     6419.704    10202.506   -693.68163    328.84812    92.608314   -2671.1665 
13979000    256.89546   -3921.5109   -3481.2008   -3921.5109            0    6839.7272    17.121235    20.166553    20.887866    7212.0848    8126.5532    6572.2888    5820.3395   -538.57125    1229.6089   -32.357068   -2761.7925 
13980000    248.97675   -3884.3621   -3457.6245   -3884.3621            0    8005.7364    17.028514     20.05734    20.774747    7095.5462    8521.0539    7626.5191    7869.6363   -926.89534    1236.0989    98.319014   -2629.1808 
13981000     252.9726   -3907.9278   -3474.3414   -3907.9278            0    6616.2198    17.068978    20.105001    20.824113    7146.2489    7530.0793    6035.6562    6282.9238     7.912715   -2421.7339   -924.26583   -2784.7943 
13982000    237.81808   -3899.8845   -3492.2725   -3899.8845            0    4792.5928    17.122899    20.168513    20.889896     7214.188    3811.8852    5912.2331    4653.6601     569.6393    802.64231    -72.49471   -2988.0364 
13983000    243.10327   -3929.3831   -3512.7124   -3929.3831            0    6121.1045    17.100684    20.142346    20.862794    7186.1454    5642.2642    6810.6206    5910.4287   -91.915611   -324.63774    277.53519    -2871.205 
13984000    252.12447    -3896.146   -3464.0132    -3896.146            0    7210.6279    16.969739    19.988111    20.703042    7022.3275    5829.8866    8644.4529    7157.5443   -188.52345   -559.82831    203.45917    -2725.548 
13985000    258.96939   -3948.5891   -3504.7244   -3948.5891            0    7528.9481    16.994001    20.016689    20.732642     7052.491    5550.5789    7630.8657    9405.3997   -1355.6204    908.49138    523.98427   -2730.3469 
13986000     249.3089   -3925.7369     -3498.43   -3925.7369            0    8311.0642    17.010587    20.036224    20.752876    7073.1596    8215.9607    7736.7871    8980.4448   -831.78059    795.87702   -177.65017    -2641.104 
13987000    241.68881   -3922.5621   -3508.3157   -3922.5621            0    7682.8238    17.004528    20.029088    20.745485    7065.6051    5694.4465    7622.3447    9731.6803   -652.83419   -953.32599    2139.3943   -2716.6422 
13988000    250.00796   -3927.5251     -3499.02   -3927.5251            0    5937.1112     17.09853     20.13981    20.860166    7183.4306    5276.0982    6816.9971    5718.2382   -585.00865   -123.96931    753.19248   -2877.0306 
13989000    259.11791   -3943.9088   -3499.7896   -3943.9088            0    6709.8982    17.002514    20.026716    20.743027    7063.0944    6770.7433    7601.8598    5757.0913    297.14117   -907.19983   -1232.7614   -2808.6165 
13990000    256.06861   -3937.3298    -3498.437   -3937.3298            0    7362.1549    17.042725    20.074079    20.792084    7113.3254    7850.0504    7291.1423    6945.2721    848.81634    78.802604   -985.03568    -2734.683 
13991000    245.29577   -3964.9901   -3544.5615   -3964.9901            0       5931.5    17.039981    20.070847    20.788737    7109.8903    4367.3033    7226.0615    6201.1351    619.19706    660.89347    395.54493   -2929.5216 
13992000    256.60576   -3936.1593   -3496.3458   -3936.1593            0    6973.2564    17.029133     20.05807    20.775503    7096.3205     6638.726    7446.8292     6834.214   -103.23174   -2325.2653   -26.459014   -2774.6657 
13993000    247.36275   -3891.7305   -3467.7592   -3891.7305            0    7254.2369    17.082618    20.121067    20.840754    7163.3943    8008.7498     7466.502    6287.4588   -1082.9621   -589.59381    206.76467   -2709.9036 
13994000    249.65293   -3914.8758   -3486.9793   -3914.8758            0    6466.0561    17.005588    20.030336    20.746777    7066.9258    7381.6724    6131.6952    5884.8008    382.71379   -1141.0273   -1244.3357   -2820.5625 
13995000    254.08751   -3895.0518   -3459.5545   -3895.0518            0    8778.4033       17.009    20.034355     20.75094    7071.1807    11167.933     9398.803    5768.4741   -133.80723   -517.95767    -106.8584   -2554.2736 
13996000    241.33784   -3930.4424   -3516.7976   -3930.4424            0    6964.3028    17.012446    20.038414    20.755144    7075.4794    7679.0514    7660.4073    5553.4497    468.99278    -992.1916   -853.38108   -2798.1608 
13997000    244.65596   -3942.8259    -3523.494   -3942.8259            0    5433.7553    17.046563    20.078599    20.796766     7118.132    6323.9598    5386.2478    4591.0585    421.49687   -277.97785    1145.6647   -2959.4123 
13998000    244.56593   -3929.2453   -3510.0677   -3929.2453            0      5952.43    17.124221     20.17007     20.89151    7215.8594     6158.966    5849.7294    5848.5945    -807.2204    154.65551    343.81283   -2883.6583 
13999000    241.10244   -3963.8867   -3550.6454   -3963.8867            0    6822.1023    17.092337    20.132516    20.852612    7175.6288    7970.3619    6303.8511    6192.0939    477.87915    292.62639    1926.9515   -2836.7179 
14000000    250.02822   -3917.2821   -3488.7423   -3917.2821            0    7578.7293    17.061478    20.096168    20.814964    7136.8333    8436.6975    7743.5605    6555.9298   -1285.8564    2406.2327    1420.1029   -2699.9224 
Loop time of 467.818 on 64 procs for 250000 steps with 864 atoms

Performance: 92.344 ns/day, 0.260 hours/ns, 534.395 timesteps/s
99.0% CPU use with 64 MPI tasks x 1 OpenMP threads

MPI task timing breakdown:
Section |  min time  |  avg time  |  max time  |%varavg| %total
---------------------------------------------------------------
Pair    | 21.512     | 26.135     | 32.569     |  45.3 |  5.59
Bond    | 0.27552    | 0.28413    | 0.30148    |   0.9 |  0.06
Kspace  | 203.53     | 213.36     | 223.08     |  31.7 | 45.61
Neigh   | 4.979      | 5.5117     | 6.6002     |  20.3 |  1.18
Comm    | 96.09      | 106.64     | 115.96     |  46.8 | 22.80
Output  | 1.7242     | 1.7294     | 1.7509     |   0.5 |  0.37
Modify  | 106.31     | 108.9      | 111.05     |  12.5 | 23.28
Other   |            | 5.253      |            |       |  1.12

Nlocal:        13.5000 ave          18 max           8 min
Histogram: 1 1 2 1 16 11 13 11 3 5
Nghost:        2231.80 ave        2261 max        2205 min
Histogram: 4 2 9 12 6 13 8 3 5 2
Neighs:        4321.23 ave        6487 max        2845 min
Histogram: 3 7 9 14 11 13 1 5 0 1

Total # of neighbors = 276559
Ave neighs/atom = 320.09144
Ave special neighs/atom = 2.0000000
Neighbor list builds = 12457
Dangerous builds = 0

unfix		3
unfix		2
unfix		1

write_data	data.final.${pid}
write_data	data.final.0
System init for write_data ...
PPPM initialization ...
  extracting TIP4P info from pair style
  using 12-bit tables for long-range coulomb (../kspace.cpp:340)
  G vector (1/distance) = 0.373842
  grid = 24 24 24
  stencil order = 5
  estimated absolute RMS force accuracy = 0.0032092099
  estimated relative force accuracy = 9.6644403e-06
  using double precision FFTW3
  3d grid and FFT values/proc = 2535 216
Last active /omp style is kspace_style pppm/tip4p/omp
WARNING: Not all mixed pair coeffs generated from mixing. Use write_data with 'pair ij' option to store all pair coeffs. (../write_data.cpp:312)

write_restart   restart.lmp.${pid}
write_restart   restart.lmp.0
System init for write_restart ...
PPPM initialization ...
  extracting TIP4P info from pair style
  using 12-bit tables for long-range coulomb (../kspace.cpp:340)
  G vector (1/distance) = 0.373842
  grid = 24 24 24
  stencil order = 5
  estimated absolute RMS force accuracy = 0.0032092099
  estimated relative force accuracy = 9.6644403e-06
  using double precision FFTW3
  3d grid and FFT values/proc = 2535 216
Last active /omp style is kspace_style pppm/tip4p/omp
Total wall time: 0:07:50
