#include		in.partitions
include		in.temp
variable        temperature equal 225.22
variable	tempDamp equal 100.0
include		in.pressure
variable        pressure equal 1580.6
variable        pressureDamp equal 1000.0 # This is 1 ps
include		in.seed
variable        seed equal 745823

units		real
atom_style	full

read_restart	restart.lmp.${pid}
read_restart	restart.lmp.1
Reading restart file ...
  restart file = 30 Jul 2021, LAMMPS = 30 Jul 2021
  restoring atom style full from restart
  orthogonal box = (-0.078485240 -0.081368628 -0.14978925) to (20.078486 20.081370 20.849787)
  2 by 4 by 4 MPI processor grid
  restoring pair style lj/cut/tip4p/long/omp from restart
  restoring bond style harmonic/omp from restart
  restoring angle style harmonic/omp from restart
  972 atoms
  648 bonds
  324 angles
Finding 1-2 1-3 1-4 neighbors ...
  special bond factors lj:    0        0        0       
  special bond factors coul:  0        0        0       
     2 = max # of 1-2 neighbors
     1 = max # of 1-3 neighbors
     1 = max # of 1-4 neighbors
     2 = max # of special neighbors
  special bonds CPU = 0.002 seconds
  read_restart CPU = 0.007 seconds
include 	in.setup
variable	out_freq equal 1000
variable	out_freq2 equal 10000
variable	out_freq3 equal 1000

timestep	2.0

neigh_modify    delay 7 every 1

include		in.tip4p
# This is TIP4P/Ice

# create groups ###
group ox type 2
324 atoms in group ox
group hy type 1
648 atoms in group hy

# set charges - beside manually ###
set group ox charge -1.1794
Setting atom values ...
  324 settings made for charge
set group hy charge 0.5897
Setting atom values ...
  648 settings made for charge

# ### TIP3P Potential Parameters ###
pair_style lj/cut/tip4p/long/omp 2 1 1 1 0.1577 8.5
pair_coeff 1 1*2 0.000 0.000
pair_coeff 2 2 0.21084 3.1668
bond_style  harmonic
bond_coeff  1 450 0.9572
angle_style harmonic
angle_coeff 1 55 104.52
kspace_style pppm/tip4p/omp 1.0e-5
pair_modify tail yes

thermo          ${out_freq}
thermo          1000
thermo_style    custom step temp pe etotal epair emol press lx ly lz vol pxx pyy pzz pxy pxz pyz enthalpy

restart 	${out_freq3} restart.lmp.${pid} restart2.lmp.${pid}
restart 	1000 restart.lmp.${pid} restart2.lmp.${pid}
restart 	1000 restart.lmp.1 restart2.lmp.${pid}
restart 	1000 restart.lmp.1 restart2.lmp.1


include         in.dump
dump            myDump all atom ${out_freq2} dump.water.${pid}
dump            myDump all atom 10000 dump.water.${pid}
dump            myDump all atom 10000 dump.water.1
dump            myDump2 all dcd ${out_freq2} dump.dcd
dump            myDump2 all dcd 10000 dump.dcd
dump_modify     myDump append yes
dump_modify     myDump2 append yes


variable natoms 	equal  "count(all)"                        # NUMBER ATOMS
variable H      	equal  "enthalpy/v_natoms"                 # ENTHALPY-per-atom
variable Vol      	equal  "vol/v_natoms"                 # volume-per-atom
fix AVG all 		ave/time ${out_freq} 1 ${out_freq} v_Vol v_H file vol_enthalpy.dat
fix AVG all 		ave/time 1000 1 ${out_freq} v_Vol v_H file vol_enthalpy.dat
fix AVG all 		ave/time 1000 1 1000 v_Vol v_H file vol_enthalpy.dat


timer           timeout 02:55:00 every 1000
New timer settings: style=normal  mode=nosync  timeout=02:55:00

fix 		1 all shake 1e-6 200 0 b 1 a 1
       0 = # of size 2 clusters
       0 = # of size 3 clusters
       0 = # of size 4 clusters
     324 = # of frozen angles
  find clusters CPU = 0.000 seconds
fix             2 all nph aniso ${pressure} ${pressure} ${pressureDamp}
fix             2 all nph aniso 1580.6 ${pressure} ${pressureDamp}
fix             2 all nph aniso 1580.6 1580.6 ${pressureDamp}
fix             2 all nph aniso 1580.6 1580.6 1000
fix             3 all temp/csvr ${temperature} ${temperature} ${tempDamp} ${seed}
fix             3 all temp/csvr 225.22 ${temperature} ${tempDamp} ${seed}
fix             3 all temp/csvr 225.22 225.22 ${tempDamp} ${seed}
fix             3 all temp/csvr 225.22 225.22 100 ${seed}
fix             3 all temp/csvr 225.22 225.22 100 745823


run             250000
PPPM initialization ...
  extracting TIP4P info from pair style
  using 12-bit tables for long-range coulomb (../kspace.cpp:340)
  G vector (1/distance) = 0.37169262
  grid = 24 24 25
  stencil order = 5
  estimated absolute RMS force accuracy = 0.0034957711
  estimated relative force accuracy = 1.0527411e-05
  using double precision FFTW3
  3d grid and FFT values/proc = 3458 576
Last active /omp style is kspace_style pppm/tip4p/omp
Neighbor list info ...
  update every 1 steps, delay 7 steps, check yes
  max neighbors/atom: 2000, page size: 100000
  master list distance cutoff = 10.8154
  ghost atom cutoff = 10.8154
  binsize = 5.4077, bins = 4 4 4
  1 neighbor lists, perpetual/occasional/extra = 1 0 0
  (1) pair lj/cut/tip4p/long/omp, perpetual
      attributes: half, newton on, omp
      pair build: half/bin/newton/omp
      stencil: half/bin/3d
      bin: standard
Per MPI rank memory allocation (min/avg/max) = 10.19 | 10.19 | 10.20 Mbytes
Step Temp PotEng TotEng E_pair E_mol Press Lx Ly Lz Volume Pxx Pyy Pzz Pxy Pxz Pyz Enthalpy 
 5500000    233.28214   -4738.5864   -4288.6821   -4738.5864            0    1847.8305    20.156971    20.162738    20.999576    8534.6424    541.12178    2324.2528     2678.117    167.55465   -645.06971    148.85757   -4058.6845 
 5501000     220.5959   -4769.4513   -4344.0136   -4769.4513            0    960.21717    20.091705    20.285255    21.062293    8584.2613    885.53955    1148.8287    846.28328     145.6621    349.33211   -200.44533   -4223.8014 
 5502000    223.98217   -4761.1269   -4329.1584   -4761.1269            0    1487.6363    20.230499    19.973621      20.9491    8465.0349   -179.64031    2947.2611    1695.2881   -489.28688    1488.5766   -448.38417    -4145.504 
 5503000    222.92077   -4773.7773   -4343.8558   -4773.7773            0    775.08574    20.347065    20.200434    20.758361     8532.092    412.05525    318.21113    1594.9908   -392.81353    722.10543    1670.1577   -4247.4105 
 5504000    214.32034   -4782.2356   -4368.9008   -4782.2356            0    2476.3816    20.085922     20.04267    20.956321    8436.5016    3784.0485    2114.1078    1530.9886   -600.00282    -981.4814    -569.8872   -4064.2125 
 5505000    217.31254   -4748.6129   -4329.5074   -4748.6129            0    2228.7326    19.897337    20.221473    21.006653    8452.0995     3049.946    1643.3656    1992.8863   -446.42089   -58.680841   -619.86387   -4054.7822 
 5506000    230.03779   -4761.7339   -4318.0867   -4761.7339            0    1315.4391    19.927782    20.133274     21.21673    8512.3958     1303.023       2413.8    229.49433    30.251111   -378.29275   -275.78595   -4154.7821 
 5507000    221.45594   -4759.8691   -4332.7727   -4759.8691            0    1842.0129    20.160019    20.047415    21.005805    8489.6276    862.21931    2103.7506    2560.0688    389.30522   -430.39923    223.24712   -4104.7084 
 5508000    224.53655    -4765.009   -4331.9714    -4765.009            0    624.34595    20.160328    20.231698    21.030437    8577.8456    794.88445   -98.827242    1176.9806   -16.868373    -633.0684   -728.29136   -4253.8663 
 5509000    233.78736   -4760.7104   -4309.8319   -4760.7104            0    1309.2108      20.2512    20.123916    20.808398    8480.1183     780.1545    1947.5643    1199.9136    82.549075    589.42063   -393.36737   -4147.9167 
 5510000    240.50626   -4781.5887   -4317.7521   -4781.5887            0    3195.1161    20.029292    19.897763    21.186969    8443.8145    4440.3296     3462.928    1682.0907    -173.8661   -744.32802   -1222.4016   -3924.2916 
 5511000    226.14478   -4778.1928   -4342.0536   -4778.1928            0    684.89738    20.221053    20.101757    21.015304    8542.2733    1293.6975    39.631079    721.36353    488.17456   -1400.7485    1114.5715   -4256.7288 
 5512000    233.19309   -4746.5237   -4296.7912   -4746.5237            0    3643.2023    20.188505    20.200926     20.69554    8440.1893    3378.9517    3248.8264    4301.8287   -215.05401   -377.96459   -264.84269   -3848.3439 
 5513000    229.55561   -4739.8463    -4297.129   -4739.8463            0    1631.2108    20.203851    19.995382    21.145733    8542.5319    1711.2363    2468.0565    714.33978    678.95579    1034.0754   -242.21845   -4093.9061 
 5514000    227.78372   -4785.8456   -4346.5456   -4785.8456            0     966.9777    20.015702    20.049519     21.18523    8501.7428     1508.566    651.01755    741.34951   -1133.1797    332.54232   -71.092656   -4226.6508 
 5515000    226.77921   -4774.6707   -4337.3079   -4774.6707            0    2583.7416    20.104051    20.236322    20.773388    8451.2803    4305.6793    645.52615    2800.0193    512.88877    657.18535   -199.84019   -4018.8534 
 5516000    227.45445   -4774.6222   -4335.9572   -4774.6222            0    2531.8132    20.008824    20.106645     21.15546    8511.0596    2856.7781    828.09293    3910.5685    587.13423     40.83684    1011.9468   -4021.6957 
 5517000    224.45953   -4771.1503   -4338.2613   -4771.1503            0    903.47025    20.306838    19.949394    21.027332    8518.3639    874.43038    902.94965    933.03071   -236.40171    414.31541   -112.02777   -4226.0217 
 5518000    219.54778   -4780.1926   -4356.7763   -4780.1926            0   -495.21798    20.158817    20.223892    20.931633    8533.6121   -271.33907   -1988.9328     774.6179   -173.01243    281.74886    938.50839   -4418.4081 
 5519000    211.78144   -4747.3572   -4338.9189   -4747.3572            0    1976.5336     20.24963    20.035323    21.053247    8541.4679    1666.4631    1503.1197     2760.018    169.83259    148.57171   -244.32142    -4092.705 
 5520000    217.11212   -4754.0612   -4335.3422   -4754.0612            0    1928.2405    20.189801    19.939032    21.216003    8540.8222    1471.4861    3454.4768    858.75874    209.37113    915.95024    939.61491   -4095.1622 
 5521000    224.90926   -4789.3253   -4355.5688   -4789.3253            0    1808.9736    20.096358    20.125527    21.107773    8537.0346    1405.1485    1493.8324    2527.9398   -375.04574   -503.48951   -951.12104   -4130.3446 
 5522000    231.27505   -4774.1459   -4328.1125   -4774.1459            0    1296.9104    20.265261    20.104856    20.788828    8469.9951    25.432718    2165.2378    1700.0608   -437.58691   -1161.6584    1581.6994   -4167.9101 
 5523000    221.22203   -4780.7563   -4354.1111   -4780.7563            0    682.78607    20.169239    20.003687     21.24316    8570.7473    1283.0348    2049.3029   -1283.9795    343.26501   -1016.9327    153.88706   -4268.7658 
 5524000    237.24823   -4750.4532      -4292.9   -4750.4532            0    209.99193    20.211456    20.173106    21.135992    8617.7323    461.59247    516.45024   -348.06691   -239.08856    201.99487    1381.2659   -4266.5081 
 5525000    231.80528   -4751.6703   -4304.6143   -4751.6703            0    1793.3248    20.193574    20.106207    20.978158    8517.4715    563.98525    3027.7509    1788.2383   -9.8148997   -580.30032   -879.70373     -4081.85 
 5526000    233.63752   -4756.0646    -4305.475   -4756.0646            0    1903.8926    19.977752    20.238143    21.143361    8548.5274    1772.0691    2000.2087    1939.3999   -227.62449   -511.07407    -602.3985   -4068.1138 
 5527000    239.44192   -4761.2893   -4299.5054   -4761.2893            0    1530.7963    20.287193    20.026735    20.971279    8520.3421    1105.1082    1875.6426    1611.6381    839.09695   -536.59798    1316.9272    -4109.288 
 5528000    222.34001   -4778.1865   -4349.3851   -4778.1865            0    1312.6941    20.502276     19.95204    20.896649    8548.0297   -870.20047    2132.2795    2676.0032   -664.32335    641.38712   -342.48397   -4185.7391 
 5529000    232.37089   -4769.2294   -4321.0825   -4769.2294            0    1521.4566    20.111497    20.134236    20.987898    8498.6216    2477.2051     1213.252     873.9126    552.49805    1434.0888   -981.25219   -4132.5076 
 5530000    227.28304   -4747.5249   -4309.1904   -4747.5249            0    3760.0604    20.002364    20.196302    20.961403    8467.8576    3898.9621    4066.7152    3314.5037    146.73957   -366.23338   -284.43761   -3844.8417 
 5531000    229.90403   -4750.7558   -4307.3665   -4750.7558            0    2282.9035    20.209106    20.090599    20.980411    8518.3203    662.68205     3811.763    2374.2656   -1089.2063    262.07947   -416.09299   -4023.7592 
 5532000    227.79826   -4763.4388   -4324.1107   -4763.4388            0    840.26127    20.001026     20.07069    21.274297    8540.2343    1343.6874    1963.2536   -786.15717    25.854225    154.93723    14.569987   -4219.4557 
 5533000    228.03208   -4766.8408   -4327.0618   -4766.8408            0    1842.9685    20.172495    20.070523    20.996409    8500.8691    3361.7256    979.02158    1188.1583    276.33782    1742.3712   -166.22946   -4098.5771 
 5534000    221.08741   -4784.4695   -4358.0838   -4784.4695            0    2309.1478    20.187405    20.147435    21.048557    8560.9626       1179.7    2590.0274     3157.716    289.39235   -1105.1817   -1039.5517   -4069.7801 
 5535000    227.52893    -4811.704   -4372.8953    -4811.704            0    2821.5345    20.097698    20.083068    20.846388     8414.091    4662.1485    855.70292    2946.7519    786.02388     533.2581   -41.172504   -4026.6623 
 5536000    219.45674   -4781.2314   -4357.9906   -4781.2314            0    989.83778    20.025984    20.293684    21.005188    8536.5291    2475.9833    404.67216    88.857883   -392.26604   -1077.1416   -1066.2389   -4234.7593 
 5537000    224.57964   -4774.0059   -4340.8851   -4774.0059            0    1080.4156     20.20925    20.073178    21.105804    8561.8623    2213.6865    -168.0171    1195.5773   -513.26855   -60.692441    898.55347    -4205.978 
 5538000    223.37934    -4747.235   -4316.4291    -4747.235            0    1296.2978     20.16244    20.202355    20.952519    8534.5642    1169.4569    1672.3938    1047.0428   -184.25987    51.133552    299.22489   -4155.0817 
 5539000    222.05653   -4779.5516   -4351.2969   -4779.5516            0    1384.3281    20.284865    20.291015    20.850408    8582.0382    674.91045    1701.1108    1776.9632    158.64935    1698.7817   -165.73879   -4178.0341 
 5540000    222.05045   -4767.8563   -4339.6134   -4767.8563            0    2284.4897    20.062515    20.035278    20.963189    8426.3229    1711.6614    3524.5077    1617.2998    264.13176    96.299642   -258.59642   -4058.8741 
 5541000    229.22423   -4768.9361   -4326.8579   -4768.9361            0    511.53414    20.082181    20.429006    20.899849    8574.3511    1882.8886   -989.13335     640.8472   -721.14472    335.06721   -225.09959   -4262.8915 
 5542000     222.3717    -4774.096   -4345.2335    -4774.096            0    567.36149     20.19429    20.092634    20.937138    8495.3795   -1217.7062     2673.002    246.78869   -226.73265    640.44228   -606.35404   -4274.9394 
 5543000    226.20478    -4754.049    -4317.794    -4754.049            0    2709.7179    20.191463    20.049656    20.975584     8491.585    2831.1908    2312.4419    2985.5212    483.96703   -676.72367   -1028.6494   -3982.2197 
 5544000    215.93905   -4776.4049   -4359.9483   -4776.4049            0    2561.5845    20.005545     20.05657    21.063189    8451.4487    3780.5833    2070.6407    1833.5295    82.045067    1453.5134   -1131.9403   -4044.2184 
 5545000    217.46757   -4786.3064   -4366.9019   -4786.3064            0    713.32077    20.027095    20.201183    21.077616    8527.3922    2550.0255    179.41564   -589.47878    785.09036   -460.47682    1410.4953    -4278.191 
 5546000    231.12665    -4800.196   -4354.4488    -4800.196            0    1120.7569    20.305478    20.075965    20.863529    8505.0611    195.08307    1656.0048    1511.1827    447.30884    1040.6192   -934.93373   -4215.4328 
 5547000    230.36123   -4775.1719   -4330.9009   -4775.1719            0    1504.5129    20.109711    20.083491    21.104471    8523.5303   -178.31818    4350.7651     341.0919    -291.2984     1150.673   -160.38451   -4143.8795 
 5548000    218.99515   -4782.1862   -4359.8356   -4782.1862            0    2137.7968    19.984096     20.16048    20.973837    8450.1272    3543.2073    1832.2142    1037.9689    718.05173    863.83468   -919.76382   -4096.3812 
 5549000     230.1574   -4768.1917   -4324.3138   -4768.1917            0    280.97049    20.168537    20.163274    21.091007     8576.948   -133.58724    154.53932     821.9594   -389.45498    1068.8452   -1157.9673   -4289.1683 
 5550000    219.71509   -4782.9889   -4359.2499   -4782.9889            0    1513.9415     20.12004    20.062305    21.163129    8542.5897    1747.0678    1348.6049    1446.1519   -734.00306    1157.8917   -426.93439   -4170.6356 
 5551000    236.28124   -4724.6339   -4268.9457   -4724.6339            0    821.64254    20.335985    20.108932    20.984568     8581.323    7.2651266    1061.4605     1396.202   -480.88299   -530.27907    1101.1452   -4166.1173 
 5552000    215.36533    -4775.721   -4360.3708    -4775.721            0    1740.6812    20.023039     20.15168    21.124033    8523.5026    2104.4774    1747.5715    1369.9947    809.64904    652.85687   -1050.1493   -4143.9928 
 5553000    212.15021   -4775.9739   -4366.8244   -4775.9739            0    167.95266    20.294894    20.217494    21.028519    8628.2515   -25.898084   -145.14359    674.89965   -592.83303   -268.70088    646.55659   -4345.6902 
 5554000    229.68173    -4753.982   -4311.0215    -4753.982            0    -184.8248     20.39718    20.105289    20.737305    8504.1865   -1638.7994     303.9028    780.42222   -562.00222    628.83456   -23.562427   -4333.9443 
 5555000    242.10479   -4795.6211   -4328.7016   -4795.6211            0    1825.8252    20.142489    20.031366    21.028787    8484.7283     1891.628    853.05273    2732.7948    64.339775    1346.0976    153.48679   -4102.7721 
 5556000    236.43749   -4748.6909   -4292.7014   -4748.6909            0    536.74721    20.095732    20.033401    21.408075    8618.5886    836.04744    1039.0876    -264.8934   -479.41077   -389.24842   -315.34257   -4225.2358 
 5557000    219.37112   -4787.1857     -4364.11   -4787.1857            0    660.76649    19.986668     20.11738    21.163106     8509.249    2322.8704   -201.23134   -139.33957    482.65514    151.86953   -431.96087   -4282.1098 
 5558000    227.64098   -4771.0695   -4332.0447   -4771.0695            0    1586.0739    20.149533    20.245097    20.874786    8515.4356    1494.8098    1519.8532    1743.5587   -542.68715    827.74654    522.86653    -4135.072 
 5559000    223.33036    -4774.735   -4344.0236    -4774.735            0    814.86468    20.102369    20.212818    21.090396     8569.566     2755.487   -837.84522    526.95221    133.37851   -3.3697168   -324.44813   -4242.1832 
 5560000    224.72725   -4767.9757   -4334.5703   -4767.9757            0    1974.6762    20.185833    19.896275    21.106414    8476.8188    748.13094     4259.839     916.0586    241.42774    136.66046   -303.37064   -4090.4496 
 5561000    225.32772   -4761.2438   -4326.6803   -4761.2438            0    926.64683    20.160803    19.966182    21.090806    8489.7721    1076.7417    1242.7323    460.46645   -553.55676     208.7354   -1233.4533   -4211.9479 
 5562000    241.76773   -4770.5048   -4304.2354   -4770.5048            0    1221.6088    20.309534    20.144375    20.891548    8547.2104    972.95639    1387.4283    1304.4419    110.91943   -1675.4353    1498.8808    -4151.959 
 5563000    236.21431   -4767.5209   -4311.9618   -4767.5209            0    2189.9098    20.207758    20.095479    20.951745    8508.1804     2374.265     1916.724    2278.7403   -126.57971   -249.31649    945.89609    -4040.231 
 5564000    227.51374   -4770.9855   -4332.2061   -4770.9855            0    1717.2559    20.126054    19.987415    21.235649    8542.4182    2733.8066    721.17849    1696.7826    28.901398    639.00852   -434.32646   -4118.2662 
 5565000    223.65954   -4778.6507   -4347.3044   -4778.6507            0    2391.3881    20.076834    20.052443    20.943364    8431.5801    3359.0276    2057.2081    1757.9287    27.105686   -1042.4364    773.80356   -4053.2451 
 5566000    225.28085   -4726.6959   -4292.2228   -4726.6959            0    1066.6269    20.172445    20.214906    20.934801    8536.8788     1045.557    641.41236    1512.9113     831.3013    366.01307   -336.08456   -4159.4261 
 5567000    218.80547   -4773.3453   -4351.3605   -4773.3453            0    1040.1504    20.079596    20.211069    21.007597    8525.5153    2054.9499    798.30065    267.20062   -274.58582    310.85365     591.9813   -4222.0325 
 5568000    222.38038   -4768.8608   -4339.9815   -4768.8608            0    1520.6013    20.085645    20.217404    20.846095    8465.1739    720.93032     1904.484    1936.3894      383.934    615.48984    150.74561   -4152.2544 
 5569000    212.23848   -4777.4895   -4368.1697   -4777.4895            0    1590.6572    20.030068    20.169475    21.098555    8523.7307    1794.7421    2031.0107    946.21899   -243.86262   -92.706285   -101.68963   -4170.4353 
 5570000    232.09121   -4773.6474     -4326.04   -4773.6474            0    927.80125      20.1622    20.071417     20.96557    8484.4287   -290.66512    1530.4451    1543.6238   -177.25369    743.31756   -1267.1132   -4211.2369 
 5571000    224.30253   -4757.1195   -4324.5332   -4757.1195            0    1179.7959    20.188975    19.938029    21.013253    8458.4301    2026.1361    869.98019    643.27148   -314.05941   -1763.8934    1192.3973   -4178.9965 
 5572000    242.57256   -4751.1643   -4283.3427   -4751.1643            0    612.26116    20.144157    20.116209     21.11204    8555.1071   -712.58244    1104.2451    1445.1208   -459.81345    -29.49065    621.87654   -4206.9525 
 5573000    209.63853   -4769.3569   -4365.0514   -4769.3569            0    2259.0006    19.990888    20.086756    21.180797    8505.1935    3613.5897    579.31841    2584.0936   -806.16387    371.52871    145.56783    -4084.846 
 5574000    219.06268   -4781.7904   -4359.3096   -4781.7904            0     751.5466     20.26332     20.18298    20.964652    8574.0016    471.08532    402.31612    1381.2384    -510.0632     576.7513   -500.57407   -4265.3339 
 5575000     233.1764   -4798.8648   -4349.1645   -4798.8648            0    1546.6383    20.263933    19.967392    21.126888    8548.3174     2476.458    1128.0766    1035.3801    -89.31357    648.28694    312.70619   -4156.3475 
 5576000     225.9755   -4775.4971   -4339.6844   -4775.4971            0    1590.1202    19.973662    20.031687    21.313885    8527.8163    1679.9354    1832.7714    1257.6538    21.508733   -198.46637    1162.4003    -4141.922 
 5577000    215.13281   -4785.3212   -4370.4195   -4785.3212            0    1788.1363    20.166978    20.239412    20.838535    8505.6185    3860.1862   -85.808712    1590.0314    -134.7797   -330.52319   -41.749344   -4148.6088 
 5578000    224.35756   -4733.0877   -4300.3953   -4733.0877            0    2723.2747    20.167949    20.001631    21.061702    8496.1194    1239.2905    3597.3562    3333.1775    851.69755    -835.3795    1196.2867    -3962.962 
 5579000    220.07338   -4772.4787   -4348.0487   -4772.4787            0    1397.3319     20.22669    19.716549    21.088415     8410.071   -1040.5851     3600.075    1632.5059    394.21791   -504.49805   -206.02184   -4176.6628 
 5580000    222.28335    -4745.713   -4317.0209    -4745.713            0    1292.3313    20.318062    20.181144    20.960426    8594.6493    1543.3952    165.81374     2167.785   -916.46548    569.42761   -40.641317   -4155.0348 
 5581000    234.97239   -4783.8356   -4330.6716   -4783.8356            0     2277.368    19.969429    20.030544    21.145926    8458.3392    655.14706    4321.6947    1855.2622   -166.11969     1846.868    243.10183   -4049.7442 
 5582000    226.66233   -4798.2135   -4361.0762   -4798.2135            0    1450.7094     20.06712    20.169456    21.035766    8514.0772      546.772    1728.8808    2076.4754   -259.93029    -586.2234   -225.67782   -4180.9429 
 5583000    220.03755   -4752.4907   -4328.1297   -4752.4907            0    1387.8021    20.269387    20.115685    20.945625    8540.2145    1709.0642    321.89661    2132.4456    222.45026    855.35119    526.50743   -4155.2786 
 5584000    220.86899   -4720.9958   -4295.0314   -4720.9958            0    707.62787    20.098881    20.274553     21.01212    8562.3513    1534.8749    119.68141    468.32732   -283.43384   -57.509399   -636.60383   -4206.6677 
 5585000    220.70388   -4780.2366   -4354.5906   -4780.2366            0    1577.2431    20.067366    19.959897    21.022885      8420.56     3236.118    431.33464    1064.2767   -476.03767    125.73241    -161.1141   -4160.8969 
 5586000     228.5546   -4789.7758    -4348.989   -4789.7758            0    404.58883    20.089481    20.056057    21.120906    8509.9458    926.19399    751.96014   -464.38763    265.56727    664.73345    613.32868    -4298.776 
 5587000    216.64654   -4770.0726   -4352.2515   -4770.0726            0    2365.8916    20.221538    20.099865    20.938572    8510.4864    1038.9605    3450.6144    2608.0999    1361.8041   -276.52267   -353.86636   -4058.6048 
 5588000    223.13353   -4765.2452   -4334.9134   -4765.2452            0    2428.3329    20.076575    20.057643    21.189281    8532.6855    3419.6154    1393.4643     2471.919   -424.71195   -458.84669    538.34993   -4032.7305 
 5589000    216.54677   -4798.1992   -4380.5705   -4798.1992            0    501.71328    20.148897    20.193766    20.941201    8520.6001    1036.1701    866.40341   -397.43371      112.282   -2.0336175   -1232.5719   -4318.2255 
 5590000    222.59321   -4768.5173   -4339.2276   -4768.5173            0     3220.391    20.151974    19.988924     20.85432    8400.4593    2000.0537    5022.1669    2638.9523   -116.95118   -205.90752   -760.63384   -3944.6908 
 5591000    227.54307   -4784.0187   -4345.1827   -4784.0187            0    2633.6854    20.061409    19.908277    21.058758    8410.6169    4525.1465    1775.2194    1600.6903    140.25056   -761.42886     177.2098   -4022.1343 
 5592000     224.7744    -4774.333   -4340.8367    -4774.333            0    1123.8396    19.957437    20.195966    21.144373    8522.4453    2061.2368    193.72225    1116.5597   -602.77365    259.06833    625.35883   -4201.1534 
 5593000    230.60719   -4754.7065   -4309.9611   -4754.7065            0    1813.2839    20.264902    20.131976     20.85475    8508.1646    1242.0704    1584.9781    2612.8033   -29.193162    547.37801    129.26417   -4084.9636 
 5594000    218.36009   -4760.0498    -4338.924   -4760.0498            0    2297.0853    20.143225    20.087773    21.016656    8504.0229    1404.9081    3233.5578      2252.79    573.75725   -516.03337    843.22973   -4054.0338 
 5595000    222.59326   -4805.1575   -4375.8677   -4805.1575            0    2229.9203    20.108552    20.041075    21.079518    8494.9825    2791.9349    2507.6169    1390.2091    341.14418    345.96612   -444.43431   -4099.6015 
 5596000    231.10388   -4770.4003    -4324.697   -4770.4003            0    1651.6921    19.895981    20.086378    21.296552    8510.9157    2651.1795    1243.6292    1060.2674    435.67461   -534.63933   -460.68363   -4119.6841 
 5597000     228.8503   -4780.7882   -4339.4311   -4780.7882            0    1845.7907    20.334879    19.979832    20.879337    8483.0133    1103.8065    3050.1953    1383.3703   -309.83699   -752.68543    735.68468   -4111.0772 
 5598000    227.39485   -4773.9671    -4335.417   -4773.9671            0    1969.1427    20.126288    20.012985    20.994934    8456.4888    2586.9331    2391.4554    929.03966   -542.91998   -289.03406    307.28151   -4092.5642 
 5599000     222.7272    -4764.583   -4335.0349    -4764.583            0     4155.805    19.971417    20.156948    21.157879    8517.3756    5065.7007    2965.4642    4436.2501    972.70824    93.128585   -687.14569   -3818.8125 
 5600000    226.50388   -4764.7873   -4327.9555   -4764.7873            0    2064.7551    20.102391    20.136642    21.106591    8543.8355    2410.0335    1339.2107    2445.0209   -39.751496    19.239739   -366.97839   -4070.6806 
 5601000    212.92607   -4776.9114   -4366.2656   -4776.9114            0    523.55523      20.3475    20.069828     20.90303    8536.1875   -1482.9945    271.92825    2781.7319    268.13931    316.42993   -792.94263   -4301.0874 
 5602000    213.82558   -4745.1241   -4332.7435   -4745.1241            0    1844.1548    19.973861     20.12194    21.149048    8500.0735    3439.7966    776.11843    1316.5494   -135.52903   -541.55018   -781.26978   -4104.1331 
 5603000    231.95577   -4768.8647   -4321.5185   -4768.8647            0    1348.9877    20.105257    20.002649    21.149265    8505.3544    789.13785     3384.021    -126.1958   -726.73853    -733.3507    317.34232   -4154.1875 
 5604000    221.67844   -4749.6131   -4322.0876   -4749.6131            0    1895.3988    20.240726    20.213277    20.751277    8489.9992    2245.5401    1090.5626    2350.0936    147.45575    658.31997    425.21667   -4087.4033 
 5605000    236.20501   -4752.5645   -4297.0233   -4752.5645            0    3427.3553    19.976906    20.271492    20.970398    8492.2078    3332.3107    4462.8865    2486.8688   -93.364033    808.72539     74.61251   -3872.5449 
 5606000    210.62989   -4766.6298   -4360.4123   -4766.6298            0     2134.633    20.053232    19.982552    21.139143    8470.7662    2741.2912    2493.5487    1169.0592    771.97434   -545.16532   -576.49731   -4096.7052 
 5607000    222.83082   -4760.5709    -4330.823   -4760.5709            0    1295.7415    19.999215    20.231117     20.98069    8488.9227    1484.7117    782.54607    1619.9668    323.56263    216.16298    234.94219   -4170.4073 
 5608000    225.91868   -4751.9608   -4316.2577   -4751.9608            0    2094.9115    20.183527    20.031818    21.076201    8521.3765    1489.1912    2591.6515    2203.8919     285.1721    137.95812   -86.373613   -4055.9114 
 5609000     233.0355     -4782.09   -4332.6615     -4782.09            0    1375.2475    20.258866    19.867738    21.077947    8483.8283     1350.293    2347.6164    427.83294   -490.04247   -186.22533    282.06248   -4162.5049 
 5610000     230.2987   -4754.7171   -4310.5667   -4754.7171            0    1064.1852    20.029785    20.172086    21.107228     8528.218    2957.7783    109.55857    125.21868    287.29612   -679.78315   -1339.3512   -4178.2083 
 5611000    240.39198   -4773.1702   -4309.5541   -4773.1702            0    624.05381    20.204283    20.117322     21.08473    8570.0162   -331.65577    1126.2177    1077.5995   -150.73614   -190.50147    259.24903   -4231.5568 
 5612000    231.18747   -4766.9891   -4321.1247   -4766.9891            0    1239.0961    19.989535     20.23082    21.070838    8521.1453    1150.0574    1965.6238    601.60716   -618.63966    901.14322    -540.9235   -4167.1395 
 5613000    226.45765   -4795.3998   -4358.6572   -4795.3998            0    2599.6719    20.030887    20.160883    20.899192    8439.9373    2212.7636    3180.2773    2405.9748    210.13346    950.58016    1507.7492   -4038.6692 
 5614000    226.69163   -4763.9779    -4326.784   -4763.9779            0    1860.9169     20.25464    19.866294    20.960844    8434.3215    1057.0932    2809.2644    1716.3932    404.45246    604.82098   -146.59103   -4097.8802 
 5615000    219.12122   -4760.3379   -4337.7442   -4760.3379            0    3837.3566    20.103505    20.017271    21.019064    8458.4352    2652.9188     4015.543     4843.608    -209.1666    1019.8742   -753.56763   -3864.3771 
 5616000    220.27314   -4784.3724   -4359.5571   -4784.3724            0    3066.0307    19.929456    20.057281    20.994641    8392.2024    4355.8465    1847.0507    2995.1949   -214.68869    566.14348    645.75001   -3984.3005 
 5617000    215.26615   -4772.2678   -4357.1089   -4772.2678            0    1964.8728    20.238041    20.126383    21.028664    8565.3652    3663.1425    501.12643    1730.3496   -507.84364    -217.8428    810.96183   -4111.6627 
 5618000    218.67112   -4776.2415   -4354.5159   -4776.2415            0    1233.3226    20.217678    20.074161    21.142719    8580.8344   -547.27384    3284.8823    962.35946   -256.81583    384.07338   -240.12139   -4200.1746 
 5619000    219.15627   -4781.3061   -4358.6448   -4781.3061            0    2454.7643    20.138667    20.108661    20.871274     8452.065    2632.4478     2238.313    2493.5321   -130.82131    1608.2453   -558.29061    -4056.059 
 5620000    225.74578   -4762.2939   -4326.9242   -4762.2939            0    1994.2327    20.132705    20.197252    21.040655    8555.6631    2135.6532    2193.9288    1653.1162    668.93626     727.5949   -962.79103   -4078.0926 
 5621000    216.57787   -4781.5283   -4363.8397   -4781.5283            0    1019.1552    20.305043    19.992006    21.174248    8595.4437   -238.72612    2050.5132    1245.6787   -572.45884    44.984534    1069.8942   -4236.0828 
 5622000    225.83099   -4748.7205   -4313.1864   -4748.7205            0    1453.6268    20.015266    20.285153    20.996522    8524.8552    3117.5636   -118.82276    1362.1396     607.4897    1050.6007    21.229972   -4132.4624 
 5623000    231.12268   -4780.2306    -4334.491   -4780.2306            0    1425.7928    20.131509     20.25891      20.8313    8495.8882    2985.8936   -561.87835    1853.3631    754.51441    539.93577   -193.31086   -4157.8299 
 5624000    225.08537   -4765.5802   -4331.4841   -4765.5802            0    991.98488    20.271473    20.059447    21.108448    8583.4239    174.58501    1792.7373    1008.6323    -76.97748   -482.61454   -188.39848    -4207.307 
 5625000    233.48377   -4757.1766   -4306.8835   -4757.1766            0    843.92493    20.369277    20.071875    21.008463    8589.3013    383.78835     739.7408    1408.2456    216.54239   -1162.3428   -793.37721   -4201.1683 
 5626000    219.75903   -4783.8813   -4360.0575   -4783.8813            0    328.94025     19.91411    20.229968    21.085822    8494.6723    705.48333     910.4389   -629.10148    65.140789    -48.92346    386.63157   -4319.3064 
 5627000    229.62571   -4793.7771   -4350.9246   -4793.7771            0    548.37263     20.08848    20.246705     21.14547    8600.4022    280.55908    910.02481      454.534   -606.62207    780.17283   -81.307071   -4282.1433 
 5628000    223.64558   -4776.7268   -4345.4075   -4776.7268            0    1960.6525    20.022531    20.126165    21.025185     8472.661    4005.9957    208.58825    1667.3736   -974.69474   -733.66085    1251.9338   -4103.1393 
 5629000    235.98059   -4749.0041   -4293.8957   -4749.0041            0    1167.0345    20.200573    20.091412    21.204255     8605.917    613.39586    2018.2121    869.49559    777.96547   -284.19382   -315.39681    -4147.423 
 5630000    211.68269   -4785.3484   -4377.1005   -4785.3484            0    -488.8381    20.238509     20.16745     21.00698    8574.1902   -329.57592   -509.52348   -627.41489    408.47706     1022.758    423.08845   -4438.2276 
 5631000    216.58097   -4790.4588   -4372.7642   -4790.4588            0    525.94994    20.053317    19.999203    21.301196    8542.8523     1125.311    818.09818   -365.55936    -238.6054    688.50781      411.723   -4307.2367 
 5632000    225.44313   -4746.2478   -4311.4618   -4746.2478            0    762.39782    20.252752    20.058356    20.896745    8489.0293    128.53117    1594.4533    564.20899      21.9862    1501.0508    651.95695    -4217.074 
 5633000    236.44984    -4757.575   -4301.5616    -4757.575            0    2258.1617    20.161735    20.027186    21.031643     8492.216    3251.4791    1915.5957    1607.4103   -517.00125   -737.16915   -1126.8644   -4021.8877 
 5634000    222.28771    -4788.666   -4359.9654    -4788.666            0    1282.6279    20.220898    20.057856    21.102234    8558.8097    2412.6535    643.89615    791.33417    -66.39577   -44.508363    639.03582   -4199.8659 
 5635000    215.04762   -4760.5418   -4345.8043   -4760.5418            0     1818.239    20.106199    19.950792    21.069699    8451.7853    2536.8564    2415.4744     502.3862    231.01568   -669.61699   -201.54684   -4121.6871 
 5636000    225.63324   -4761.0839   -4325.9312   -4761.0839            0    2436.0646    20.329894    19.954335    20.903144    8479.7682     944.1025    3096.0359    3268.0555   -286.04453   -840.87675   -567.45246   -4024.6662 
 5637000    219.64143   -4775.5745   -4351.9776   -4775.5745            0    2025.3116    20.167848    20.116416    20.962021     8504.393    989.86158    3085.8752    2000.1981   -255.28154    1727.7833    1444.7209   -4100.7825 
 5638000     224.1891   -4780.5663   -4348.1988   -4780.5663            0    805.86803    20.054134    20.166604    21.299055     8613.844    750.07241    868.92253    798.60916    804.74061    630.12928   -572.69348   -4246.9623 
 5639000    221.50746   -4806.9244   -4379.7286   -4806.9244            0    1254.3989    20.101934    20.168242    21.177362    8585.7406    509.45429    1649.5133    1604.2293   -768.44002    -1552.629   -1412.0729   -4222.6601 
 5640000    230.08585   -4769.5504   -4325.8105   -4769.5504            0    2014.3461    20.054574    20.192808    20.892579    8460.6205    2763.1877    1552.0974    1727.7532   -558.77531    31.197803   -583.69075   -4077.2614 
 5641000    226.74703   -4779.8645   -4342.5638   -4779.8645            0    2728.5015    19.986563     20.05688    21.115432    8464.5028    3684.7435    2089.2785    2411.4825    -360.4734    938.81348    459.76094   -4005.7409 
 5642000      223.515   -4769.8428   -4338.7753   -4769.8428            0    1414.4484    20.059013    20.083038    21.379592    8612.6812    2110.3961    1529.5879     603.3611    279.45582     107.3701    528.81565   -4161.1106 
 5643000    222.50109   -4771.4024   -4342.2904   -4771.4024            0    1735.0965    20.106469     20.10111    20.924754    8456.9978    2255.2871    463.71834     2486.284   -316.23079   -474.43135   -717.77714   -4128.2894 
 5644000    224.68722   -4771.3907   -4338.0625   -4771.3907            0    771.80663    20.171492    20.194328    20.949441    8533.7493    578.02836    117.75603    1619.6355   -420.98223   -176.99164    56.721893   -4242.0066 
 5645000     221.1271   -4765.8078   -4339.3456   -4765.8078            0    2494.4917    20.238019    20.048381    20.961955    8505.0937    3618.0016    2137.3623    1728.1111   -425.42413   -830.33622    988.72063   -4029.9337 
 5646000    221.12828   -4787.3821   -4360.9177   -4787.3821            0    1458.0389     19.99791    20.061076    21.258303    8528.3976    1686.5862    1425.9501    1261.5804   -175.13872    540.81281    1054.5906   -4179.5698 
 5647000    215.13477   -4778.2831   -4363.3776   -4778.2831            0    944.12903    20.013445    20.396378    20.925958    8542.0136    1622.7288   -1639.0992    2848.7575    355.08683    444.17684     2064.364   -4245.7613 
 5648000    218.31294    -4776.173   -4355.1381    -4776.173            0     1620.521    20.236151    20.149264    20.864134     8507.216    235.30997    2938.0397    1688.2133   -336.70063    50.565188    -216.4382   -4154.0817 
 5649000    233.28869   -4767.4281   -4317.5112   -4767.4281            0    1896.5156    20.194165       20.002     21.02218    8491.3566    1045.3001     2715.331    1928.9157   -173.16941    331.68716   -162.49785   -4082.6511 
 5650000     231.0726   -4786.2066   -4340.5637   -4786.2066            0    1455.3746    20.101686    20.198868    20.877934    8477.0946     1614.446    852.90054    1898.7772   -221.34093   -374.04641    192.53355   -4160.6361 
 5651000    223.92755   -4733.0839   -4301.2208   -4733.0839            0    1475.2635    20.018516    19.933534    21.352802    8520.6172    1165.3626    3217.0148     43.41308    284.05664     269.3861    530.54109    -4117.898 
 5652000     233.2137   -4774.2824   -4324.5101   -4774.2824            0    2117.6484    20.218826    19.930841    21.032947    8475.8194     2412.334    2644.9314    1295.6797    360.40735    -471.6258   -533.94451   -4062.7452 
 5653000    226.32389   -4779.1785   -4342.6939   -4779.1785            0    2187.5489    20.193351    20.201021    20.926318    8536.3956    1093.0597    1733.5764    3736.0106    641.73641    327.13796   -874.38484   -4070.3559 
 5654000     231.4773    -4786.129   -4339.7056    -4786.129            0    1165.6303    20.052627     20.19794    21.065033    8531.7966    1754.8843   -535.16635     2277.173    642.42577   -197.34082    364.52289   -4194.6691 
 5655000    226.32057   -4782.0925   -4345.6142   -4782.0925            0    765.51445    20.168995    19.988582    21.208973    8550.3894   -213.27513    1345.5914    1164.2271   -242.99429   -717.09602    62.180914   -4250.1556 
 5656000    218.19274   -4779.4594   -4358.6563   -4779.4594            0     2000.371      20.2066    20.071306    21.024629    8527.0186    3136.9344    854.28669    2009.8918   -389.25923   -897.33853    292.14877   -4109.8946 
 5657000    234.28724   -4783.5759   -4331.7332   -4783.5759            0    1581.6704    20.090722     20.16762     21.04301    8526.2499    2128.1406    1111.8018    1505.0688   -888.03368    944.26068    396.52156   -4135.0579 
 5658000    218.56519   -4786.8892   -4365.3678   -4786.8892            0   -501.39574     20.27208    20.074634    21.107059    8589.6145   -791.17828   -573.69608   -139.31287   -18.882848    756.22393   -561.76712    -4428.178 
 5659000    222.48118   -4790.0288   -4360.9551   -4790.0288            0    1117.2195    20.040706    20.147961    21.093783    8517.2339    550.81802    1473.2929    1327.5477    -7.507986   -438.76495   -719.41886   -4222.1795 
 5660000    225.21348   -4759.9386   -4325.5955   -4759.9386            0    1027.9594    20.277205    20.279409    20.747013    8531.3739    1071.4445    14.734617    1997.6991   -550.98278    199.34878   -586.06141   -4197.6954 
 5661000    216.53131   -4773.8402   -4356.2414   -4773.8402            0      2596.47    19.956593    20.154312    21.081933    8479.3939    2263.1938    3511.4491     2014.767    248.91905    476.02491    910.03214   -4035.1534 
 5662000    230.22868   -4779.5495   -4335.5341   -4779.5495            0    1997.3277    20.177196    20.087192    21.051847    8532.3809    519.90596    2428.9746    3043.1024    48.260141    461.22526    969.11292   -4086.9946 
 5663000    227.11939   -4773.1746   -4335.1558   -4773.1746            0      1279.69    20.082713    19.946019    21.287289     8527.053    1193.9979    2514.9672    130.10472   -738.38668    1289.9353   -188.68792   -4176.0157 
 5664000    223.84155    -4782.499   -4350.8017    -4782.499            0    1683.3369     20.21142    20.216953     20.83351    8512.8499    1511.8696    1231.3464    2306.7945   -239.97225    33.602801    1179.6464   -4141.8135 
 5665000    234.65066    -4791.356   -4338.8125    -4791.356            0    2796.5808    20.153724    19.933526    20.995098    8434.4609    3128.7619    3041.1537    2219.8268   -663.00009   -1026.1252     344.0435   -3994.8108 
 5666000    233.56462   -4768.7395   -4318.2905   -4768.7395            0    2222.4207    20.123273    20.051061    20.893855    8430.5237     3418.984    1208.2517    2040.0266    -508.6913    1608.6088    1271.8045   -4045.0426 
 5667000    224.44406    -4767.608   -4334.7488    -4767.608            0    791.25317    20.221855    20.014317    21.093978    8537.2944    582.07987    1107.7659    683.91375   -517.22106   -306.57373    222.41069   -4236.2317 
 5668000    221.35237   -4741.6426    -4314.746   -4741.6426            0    650.97803    20.144496    20.257247    20.951116    8549.5642    1281.9544   -725.20405    1396.1837    321.93126    1809.9505    1165.7846   -4233.5777 
 5669000    236.44126   -4770.2207   -4314.2239   -4770.2207            0    1944.1027    19.986432    20.116015    21.204524    8525.2231    2338.0425    1923.0967     1571.169    690.75239   -888.94976   -532.15884   -4072.5104 
 5670000    235.68433   -4779.1344   -4324.5973   -4779.1344            0    1891.3796    20.268855    19.990717    21.233628    8603.6315    3133.0361    880.45483     1660.648    454.09122    1642.3394    412.15072   -4087.2762 
 5671000    223.02926   -4758.8767    -4328.746   -4758.8767            0    453.93335    20.296482     20.17795     21.09561    8639.5262    1283.5362   -872.32371    950.58752   -383.12433   -478.99346    -411.6578   -4271.5511 
 5672000    224.17445   -4777.6021   -4345.2628   -4777.6021            0    2692.2147    20.027705    20.103569     20.98092    8447.5133    3125.6692    3036.5989    1914.3759   -697.65206   -198.59459    1513.4808   -4013.5865 
 5673000    218.16811   -4776.8199   -4356.0644   -4776.8199            0    2049.8634    20.219455    20.062488    20.916633    8484.8857   -32.179804    3041.1966    3140.5735   -214.69656    1156.0062    475.90441   -4102.4074 
 5674000    230.32355   -4784.9639   -4340.7656   -4784.9639            0     436.0271    20.179709    20.234217    20.962206    8559.3012   -55.317062    434.46233    928.93603   -508.85339    424.16966    127.66247   -4286.3369 
 5675000    222.60015   -4773.9384   -4344.6353   -4773.9384            0    1215.3596    20.190872    20.092118    20.934636    8492.7084    1413.2465    1457.8364    774.99595   -665.54094    637.41651   -994.13937   -4194.1039 
 5676000    217.41869   -4782.1641   -4362.8539   -4782.1641            0    1594.0951     20.06829    19.922115    21.230735    8488.1072    1488.3889    1874.5381    1419.3582   -260.04809   -364.38569   -608.96324   -4165.5203 
 5677000    223.27577   -4758.7358   -4328.1297   -4758.7358            0    1406.4585    20.230266    20.076658    20.809534    8451.9199     1722.474    333.27583    2163.6257   -230.65291    360.36405    411.78925    -4154.766 
 5678000    222.16356   -4759.3557   -4330.8946   -4759.3557            0    116.24791    20.446366    20.136211    20.868662    8591.8858    114.80808   -658.23813    892.17379    569.85129    1088.7485    923.48169   -4316.3283 
 5679000    230.15822    -4747.753   -4303.8735    -4747.753            0    3086.2297    20.118771    19.960332    20.966838    8419.8073    2842.4342    3983.2881    2432.9668   -245.40415    50.812205    914.12221   -3924.9022 
 5680000     229.0951   -4761.2495   -4319.4203   -4761.2495            0   -38.372339    20.166402    20.332336    20.850157    8549.1912    678.04146     -908.806    115.64752   -261.31098   -866.35821    441.18312   -4324.2046 
 5681000    225.31725   -4776.9853    -4342.442   -4776.9853            0    1436.9425    19.921578    20.205229    21.133648    8506.7168     1817.172    1116.3756    1377.2798   -721.19447   -989.65932   -114.01279   -4164.1724 
 5682000     225.7881   -4770.5625   -4335.1111   -4770.5625            0    690.91826    19.954899    20.109144     21.12967    8478.8282    1338.8717    -248.8567    982.73981   -928.52733    109.48829    368.15188   -4249.6756 
 5683000    219.58746   -4792.3173   -4368.8244   -4792.3173            0   -4.4325939    20.300793    20.064811     21.00713    8556.8673   -357.26951   -108.33722    452.30894   -545.53916   -571.01684     123.4464   -4369.3775 
 5684000    224.84877   -4791.0445   -4357.4048   -4791.0445            0    1896.1112    20.084769    20.078636     21.09919    8508.7709    765.33996    1952.3639    2970.6298     181.8742    724.29769    595.65625   -4122.1131 
 5685000    233.68594   -4770.9443   -4320.2613   -4770.9443            0    1972.7561    20.109054    20.331165    21.019383    8593.5746    2001.5472    1505.8845    2410.8365    382.44618    300.55738    -73.99545   -4073.0188 
 5686000    231.33428   -4759.8779   -4313.7303   -4759.8779            0    3552.5175     20.09454    19.971992    21.002635    8428.9451    5429.1532    2303.9868    2924.4124   -959.57751   -805.37032    615.30462   -3877.0282 
 5687000    222.73104   -4774.9984   -4345.4429   -4774.9984            0    624.18171    20.121864    19.963853    21.118196    8483.3894   -151.97628     1809.431    215.09035    524.18692    956.85443    -664.7482   -4268.2181 
 5688000     226.2274   -4757.6948   -4321.3962   -4757.6948            0    1351.6346    19.851306    20.370831    20.903319    8453.0432    3273.5553    306.09448    475.25402    388.12133   -15.107958   -558.35241   -4154.7681 
 5689000    214.88946   -4779.9866   -4365.5542   -4779.9866            0    1878.3829    20.025282    20.196131    20.828244    8423.6335    2279.2676    1982.4853    1373.3958   -165.43405    881.18141    411.85848   -4134.7947 
 5690000    242.22428   -4773.3465   -4306.1966   -4773.3465            0    1335.9667    20.039228    20.091178    21.173627    8524.7497     2408.077    1579.4154    20.407917    18.262083    -427.9628    789.84743   -4140.1029 
 5691000      224.046   -4768.7186   -4336.6271   -4768.7186            0    347.41229    20.156077    20.076839     21.17067    8567.1417   -355.88248    1862.1728   -464.05344   -44.608114   -598.20111     319.8831   -4293.2204 
 5692000     236.2998   -4784.2252   -4328.5011   -4784.2252            0    1925.9148    20.206361    20.173143    20.919941    8527.5079    1717.1905    1082.3875    2978.1665    448.27098   -37.309174   -302.10358   -4088.9848 
 5693000    235.33243   -4784.2621   -4330.4037   -4784.2621            0    1607.9187    20.151834    20.248973    20.796434    8486.0667    2290.6399    307.98377    2225.1325   -33.710171      968.963   -936.31784   -4131.4067 
 5694000    234.32974   -4773.1224   -4321.1978   -4773.1224            0    118.60684    20.094826    20.140375    21.284164    8614.0698    752.27746   -1388.0041    991.54713   -399.70786   -448.45512    358.11136   -4306.2975 
 5695000    226.37639   -4773.9214   -4337.3355   -4773.9214            0    840.33602    20.230625    20.064465    21.163704    8590.6999    153.91182    1056.4672     1310.629    354.27939    605.97768    101.84517   -4232.0527 
 5696000    222.54742   -4762.3841   -4333.1827   -4762.3841            0    1604.8252    20.192243    20.153461    20.829865    8476.5803    1340.3444     2216.525    1257.6063   -183.92485   -861.96377    586.23481   -4134.7906 
 5697000    219.54312   -4760.2052   -4336.7978   -4760.2052            0    1723.6701    20.180349    20.206497    21.029371    8575.2341    1801.8411     651.3811    2717.7881    167.77548     546.8499   -184.27642    -4121.234 
 5698000    225.90913   -4770.0067    -4334.322   -4770.0067            0    1494.3833    20.122962    20.149147    20.936789    8489.0413    3228.7957    64.238214     1190.116   -671.01342     382.7148    664.09485   -4149.3114 
 5699000    236.69285   -4768.3721     -4311.89   -4768.3721            0    1303.7447    20.252316    20.047333    20.913987    8491.1813    1027.6413    1711.3779     1172.215   -1132.7054   -646.39157   -512.32496   -4150.4406 
 5700000    226.87309   -4789.6433   -4352.0995   -4789.6433            0    28.560421    20.158088    20.154343    21.162515    8597.7587   -1057.0547    646.86981    495.86611   -349.65793   -9.4419989    63.222639   -4348.5183 
 5701000    222.03856     -4769.18     -4340.96     -4769.18            0    869.87847    20.204671    20.172892    21.121442    8608.8172    1745.9515    451.11251    412.57135   -228.98059   -365.92576    255.95069   -4231.7461 
 5702000    228.86322   -4775.9294   -4334.5475   -4775.9294            0    393.89067    20.166743    20.305096    20.927228    8569.4413   -768.08836    736.96035       1212.8     812.5222    1117.3918    227.39085   -4285.3204 
 5703000    214.02308   -4771.7278   -4358.9663   -4771.7278            0    3003.0966    19.879606    20.152463    20.937273    8387.9535    3858.3635    2979.0419    2171.8844    197.29528   -1248.8873   -428.76091   -3991.5984 
 5704000    223.85547   -4793.0428   -4361.3187   -4793.0428            0    2088.2587    20.018825    20.053223    21.154843     8492.442     694.0661    3043.8572    2526.8527    7.0859905   -125.88212    1171.2559   -4102.6805 
 5705000    215.57553   -4780.9228   -4365.1673   -4780.9228            0    1492.2511    20.271864    20.061266    20.820716    8467.3532    373.43451    2217.7109    1885.6079    304.12645   -154.42877   -225.41358   -4180.8927 
 5706000    223.92768   -4795.5886   -4363.7253   -4795.5886            0    2282.8601    19.925463    20.189084    21.080933    8480.3717    4056.3968    221.94589    2570.2375    205.00677    348.49409    439.34353   -4081.3868 
 5707000    232.92395   -4788.9341   -4339.7207   -4788.9341            0    820.63641    20.104321    20.207107    21.029656    8543.3015     1344.533   -155.69937    1273.0756   -101.12121    1420.3488    441.94808   -4237.4733 
 5708000    227.77435   -4770.6696   -4331.3876   -4770.6696            0    1598.0426    20.297673     20.00251    20.868691    8472.7806     2067.632    434.48204    2292.0138   -899.04967    34.356439    76.640146   -4133.9226 
 5709000    223.97832   -4776.1022   -4344.1412   -4776.1022            0    2192.6064    20.291083    20.075762    20.844348     8491.132    3883.0409    226.23597    2468.5423   -316.11537    606.77918   -1101.4323    -4072.621 
 5710000     235.2081   -4759.4277   -4305.8091   -4759.4277            0    1609.0494    20.143286    20.037737    21.119517    8524.3835    1531.5417    2069.2961    1226.3104   -291.60145   -553.90794    985.92076    -4105.773 
 5711000    224.47598   -4773.3346   -4340.4138   -4773.3346            0     2271.869    20.141894    20.053415    21.224383    8572.8204    1508.5078    3145.0645    2162.0349   -76.976863   -656.60741    837.51682   -4056.3715 
 5712000    228.32015   -4784.9444   -4344.6097   -4784.9444            0    932.77495    20.178023    20.171341    21.010824    8551.7791     1963.997    281.76094    552.56687   -161.46688    1084.2723    -1016.285   -4228.2751 
 5713000    231.20658   -4764.7323    -4318.831   -4764.7323            0    850.45077    20.078782    20.233033    21.118912    8579.6564    1677.7085   -328.87267    1202.5165   -273.94972   -599.75987   -331.76509   -4212.4179 
 5714000    225.73411   -4768.4719   -4333.1247   -4768.4719            0    596.10929    20.084571    20.067699    21.263423    8570.2468    891.76455    1074.7266   -178.16324    32.977942    506.10973      190.121    -4258.618 
 5715000    221.81886   -4810.5528   -4382.7565   -4810.5528            0    2294.3254    20.102342    20.120701    20.868553    8440.7704    1972.8166    3374.9186     1535.241   -949.83671     368.8682   -139.46374   -4100.3251 
 5716000     215.7536   -4766.8566   -4350.7576   -4766.8566            0    1173.5739    20.239001     20.21283     20.93988     8566.243    1211.3384    920.77586    1388.6075    417.75918    316.52524    149.91512   -4204.1432 
 5717000    213.86178   -4778.8199   -4366.3695   -4778.8199            0    2116.0744    20.341778    20.002246    20.816121    8469.6894    1674.1002    1926.1071    2748.0159    555.59552    135.45708   -45.577492   -4104.9883 
 5718000    225.73332   -4759.9415   -4324.5958   -4759.9415            0    1475.3859    20.177251    20.139287    21.171549    8603.1745    902.32353    1434.9656    2088.8686    -863.1573    125.09767   -267.81155   -4139.4814 
 5719000    234.75974   -4782.7812   -4330.0273   -4782.7812            0    1835.3242    20.135945    20.041231    20.955547    8456.5931   -631.82154    3905.6458    2232.1483   -500.14201    745.28134   -309.69696   -4103.6754 
 5720000    220.50455    -4784.614   -4359.3525    -4784.614            0    2985.6054    19.912487    20.399754    20.722924    8417.8555    4664.8764    936.13386     3355.806   -584.08349   -213.20698    939.78813   -3992.8223 
 5721000    228.74816    -4788.562   -4347.4019    -4788.562            0    475.93411    20.114972    20.019604    21.269415    8565.0609    97.781579    676.89102    653.12973    335.38898    -74.86644   -404.22067   -4287.9517 
 5722000    226.73801   -4793.3845   -4356.1011   -4793.3845            0    1055.7137    20.167147    19.975923    21.205085    8542.6251    509.97771    2422.9259    234.23751     248.3311    664.17487    1458.4908   -4224.5746 
 5723000    227.52989   -4792.5048   -4353.6942   -4792.5048            0    1961.4685    20.107921    20.280113    20.791692    8478.6629    2539.0497    1375.8091    1969.5467    14.237887    598.15489    146.75571   -4111.1535 
 5724000    220.13289   -4760.7387   -4336.1939   -4760.7387            0    444.19543    20.168306    20.074857    21.080949    8535.1671    781.42361    704.32917   -153.16647     354.5786   -1438.4873    -120.9186    -4280.902 
 5725000    227.46521   -4795.2336   -4356.5479   -4795.2336            0     353.1232    20.120833    19.985013    21.193582    8522.2592    438.88238    440.53489    179.95233     743.4501   -198.00923   -435.07599   -4312.6587 
 5726000    229.17296   -4784.6832   -4342.7039   -4784.6832            0    1197.9659    20.259553    20.078471    21.022676     8551.622    1818.1462    359.23154    1416.5199    657.56826    953.24998    1031.5797   -4193.2976 
 5727000    237.17498   -4744.8454   -4287.4335   -4744.8454            0    295.96356    20.322441    20.114098    21.119321    8632.8936   -1255.2967    1252.7979    890.38941    517.26879    72.572767    1012.3455   -4250.1711 
 5728000    235.86655   -4769.7975    -4314.909   -4769.7975            0    4089.4432    19.954317     20.09236    21.054666     8441.433    4387.1885    4753.0987    3128.0424    328.90144   -312.85587      469.341   -3811.4591 
 5729000    240.17573   -4783.6107   -4320.4116   -4783.6107            0    1107.6007    19.965108    20.246013    20.889327    8443.7548    1854.6191    1042.2289    425.95419   -66.959076   -101.78811    -171.4983   -4184.0178 
 5730000    230.83256   -4751.3005   -4306.1205   -4751.3005            0    1825.4491    20.219061    20.022458    21.007702    8504.6591    1974.6453    2351.2574    1150.4447   -298.40879    356.87205   -974.32435   -4079.7068 
 5731000    235.63528   -4775.5701   -4321.1276   -4775.5701            0    1769.8242    20.105965    19.945001    21.194609    8499.3242    1046.1257    3827.6614    435.68555   -192.58911   -2249.5052   -1248.8165   -4101.7509 
 5732000    222.02201   -4761.9753   -4333.7872   -4761.9753            0    719.30143    20.160492     20.21986    20.873849    8509.0643    1300.4696    154.14426    703.29044    300.16801    779.95254   -1330.7476   -4244.5248 
 5733000     227.0136   -4783.4431   -4345.6283   -4783.4431            0    2659.9874    20.008545    20.168532    20.869641    8421.7971    2112.2038    3793.3113    2074.4472   -187.68125   -179.56079    696.37665   -4018.9199 
 5734000    225.13265   -4748.8251   -4314.6378   -4748.8251            0    1379.6475    19.912151    20.189779    21.321963    8571.8968    4176.0541   -998.43647    961.32477   -603.31888   -796.21656    1357.6965   -4142.1649 
 5735000    224.73864   -4796.0495   -4362.6222   -4796.0495            0    992.56923    20.130022    20.197584    20.923336    8506.9642    822.38744    545.34924     1609.971    266.45901    598.79119    215.84375   -4239.4787 
 5736000     221.2449   -4775.4816   -4348.7922   -4775.4816            0    791.98825    20.360383    20.085823    20.662314    8449.9576     450.4136    1237.9885    687.56262   -235.38616    1106.3738    1069.1988   -4251.1923 
 5737000    221.68495   -4762.0693   -4334.5312   -4762.0693            0    1645.0067    20.044931    20.123665    21.088941    8506.8039    2306.3067    1875.1227    753.59067    249.77968   -585.86641    716.97834   -4130.4467 
 5738000    229.84444    -4764.776   -4321.5017    -4764.776            0       1548.9    20.088894    20.053567    21.196604     8539.136    871.14534    3093.4846    682.07008   -293.90418   -627.75352   -630.04814   -4128.6101 
 5739000    226.51514   -4783.0161   -4346.1626   -4783.0161            0    2531.7073    20.181774    20.048324    20.786427    8410.4119     2148.084    2406.4342    3040.6038    216.54625   -189.26725    634.57075   -4035.6304 
 5740000    214.02244   -4741.8458   -4329.0856   -4741.8458            0   -240.13138    19.997533    20.354239    21.044084    8565.6695    -261.6152   -724.71859    265.93966    58.323966   -589.50275    61.322848   -4359.0831 
 5741000    215.12685   -4773.9197   -4359.0294   -4773.9197            0    143.08336    20.208034    20.140003    21.023097    8556.1871    75.222821   -41.334964    395.36223    485.94185    621.81195    74.142301    -4341.175 
 5742000    216.56252   -4750.0654   -4332.4064   -4750.0654            0    1572.0794    20.024394    20.167742    21.043331    8498.2819    2318.0164    453.53296    1944.6887   -578.93708   -239.00232   -645.74605   -4137.5649 
 5743000    228.87443   -4763.4452   -4322.0416   -4763.4452            0    804.79077    20.062249    20.279103    21.145131    8602.7786    1400.0604   -619.89265    1634.2046   -562.31459    927.34603   -7.5012357   -4221.0704 
 5744000    229.92591   -4770.6002   -4327.1687   -4770.6002            0    3013.8277    20.055691    19.938872    21.117812    8444.7564    4117.7616    2572.3263    2351.3953   -308.66813    1342.1543    454.97917   -3955.9914 
 5745000    241.43047   -4757.4856   -4291.8666   -4757.4856            0    1836.3224    20.295715    20.136194    20.863089     8526.295    2115.5281    1154.9136    2238.5255   -153.67355    1123.5434   -1482.0699   -4063.5249 
 5746000    232.64578   -4777.2324   -4328.5555   -4777.2324            0    1825.5067    20.320036    19.974327     20.96321    8508.5276    1246.7462    1513.8758    2715.8982    -432.6324    1034.9959    1453.3382   -4102.0317 
 5747000    223.32568     -4773.32   -4342.6176     -4773.32            0    1491.4268    20.044102    20.121677    21.019233    8477.4972    3050.1661   -335.70985    1759.8242    -395.0738   -952.46097   -1159.4118   -4158.2242 
 5748000    228.37088   -4751.8373   -4311.4049   -4751.8373            0    2900.8854    20.062014     20.04825    21.100503    8486.7969    5215.3721    1028.2051     2459.079    216.02896    827.77337   -501.98562   -3952.3587 
 5749000    213.23033   -4767.4357    -4356.203   -4767.4357            0    1692.8865     20.21593    20.148169    21.036501    8568.4609   -370.85438    2672.4362    2777.0777     948.4744    581.15517    626.29362   -4144.6562 
 5750000    228.00811   -4739.7967   -4300.0639   -4739.7967            0    2141.8324    20.218758    20.007687    20.897202     8453.557    612.28392    2783.8408    3029.3723   -98.767697    9.7486014    1698.0041   -4036.0049 
Loop time of 334.198 on 64 procs for 250000 steps with 972 atoms

Performance: 129.265 ns/day, 0.186 hours/ns, 748.060 timesteps/s
194.1% CPU use with 32 MPI tasks x 2 OpenMP threads

MPI task timing breakdown:
Section |  min time  |  avg time  |  max time  |%varavg| %total
---------------------------------------------------------------
Pair    | 28.725     | 34.521     | 43.808     |  62.9 | 10.33
Bond    | 0.93275    | 1.2166     | 1.9429     |  16.3 |  0.36
Kspace  | 142.6      | 155.19     | 162.69     |  33.7 | 46.44
Neigh   | 1.7478     | 1.9227     | 2.0289     |   5.8 |  0.58
Comm    | 60.116     | 62.337     | 65.71      |  18.2 | 18.65
Output  | 0.72551    | 0.72582    | 0.72748    |   0.0 |  0.22
Modify  | 64.005     | 65.749     | 68.728     |  15.7 | 19.67
Other   |            | 12.53      |            |       |  3.75

Nlocal:        30.3750 ave          37 max          26 min
Histogram: 7 3 2 5 4 2 4 3 1 1
Nghost:        2570.50 ave        2593 max        2553 min
Histogram: 5 3 6 3 1 4 1 2 4 3
Neighs:        9324.03 ave       11296 max        7396 min
Histogram: 4 1 3 4 5 4 3 3 0 5

Total # of neighbors = 298369
Ave neighs/atom = 306.96399
Ave special neighs/atom = 2.0000000
Neighbor list builds = 6233
Dangerous builds = 0

unfix		3
unfix		2
unfix		1

write_data	data.final.${pid}
write_data	data.final.1
System init for write_data ...
PPPM initialization ...
  extracting TIP4P info from pair style
  using 12-bit tables for long-range coulomb (../kspace.cpp:340)
  G vector (1/distance) = 0.3719466
  grid = 24 24 25
  stencil order = 5
  estimated absolute RMS force accuracy = 0.0034648214
  estimated relative force accuracy = 1.0434207e-05
  using double precision FFTW3
  3d grid and FFT values/proc = 3458 576
Last active /omp style is kspace_style pppm/tip4p/omp
WARNING: Not all mixed pair coeffs generated from mixing. Use write_data with 'pair ij' option to store all pair coeffs. (../write_data.cpp:312)

write_restart   restart.lmp.${pid}
write_restart   restart.lmp.1
System init for write_restart ...
PPPM initialization ...
  extracting TIP4P info from pair style
  using 12-bit tables for long-range coulomb (../kspace.cpp:340)
  G vector (1/distance) = 0.3719466
  grid = 24 24 25
  stencil order = 5
  estimated absolute RMS force accuracy = 0.0034648214
  estimated relative force accuracy = 1.0434207e-05
  using double precision FFTW3
  3d grid and FFT values/proc = 3458 576
Last active /omp style is kspace_style pppm/tip4p/omp
Total wall time: 0:05:34
