LAMMPS (30 Jul 2021)
Processor partition = 1
  using 2 OpenMP thread(s) per MPI task
using multi-threaded neighbor list subroutines
variable        pid world 0 1
variable        phase world IceII IceIh

shell cd ${phase}
shell cd IceIh
include Restart.lmp
echo both
log log.lammps
#include		in.partitions
include		in.temp
variable        temperature equal 177.60
variable	tempDamp equal 100.0
include		in.pressure
variable        pressure equal 2091.9
variable        pressureDamp equal 1000.0 # This is 1 ps
include		in.seed
variable        seed equal 745823

units		real
atom_style	full
#include		in.box
read_restart	restart.lmp.${pid}
read_restart	restart.lmp.1
Reading restart file ...
  restart file = 30 Jul 2021, LAMMPS = 30 Jul 2021
  restoring atom style full from restart
  orthogonal box = (0.078242256 0.13886232 0.065289107) to (18.129330 23.490315 22.147907)
  2 by 4 by 4 MPI processor grid
  restoring pair style lj/cut/tip4p/long/omp from restart
  restoring bond style harmonic/omp from restart
  restoring angle style harmonic/omp from restart
  864 atoms
  576 bonds
  288 angles
Finding 1-2 1-3 1-4 neighbors ...
  special bond factors lj:    0        0        0       
  special bond factors coul:  0        0        0       
     2 = max # of 1-2 neighbors
     1 = max # of 1-3 neighbors
     1 = max # of 1-4 neighbors
     2 = max # of special neighbors
  special bonds CPU = 0.002 seconds
  read_restart CPU = 0.007 seconds
include 	in.setup
variable	out_freq equal 1000
variable	out_freq2 equal 10000
variable	out_freq3 equal 1000

timestep	2.0

neigh_modify    delay 7 every 1

include		in.tip4p
# This is TIP4P/Ice

# create groups ###
group ox type 2
288 atoms in group ox
group hy type 1
576 atoms in group hy

# set charges - beside manually ###
set group ox charge -1.1794
Setting atom values ...
  288 settings made for charge
set group hy charge 0.5897
Setting atom values ...
  576 settings made for charge

# ### TIP3P Potential Parameters ###
pair_style lj/cut/tip4p/long/omp 2 1 1 1 0.1577 8.5
pair_coeff 1 1*2 0.000 0.000
pair_coeff 2 2 0.21084 3.1668
bond_style  harmonic
bond_coeff  1 450 0.9572
angle_style harmonic
angle_coeff 1 55 104.52
kspace_style pppm/tip4p/omp 1.0e-5
pair_modify tail yes

thermo          ${out_freq}
thermo          1000
thermo_style    custom step temp pe etotal epair emol press lx ly lz vol pxx pyy pzz pxy pxz pyz enthalpy

restart 	${out_freq3} restart.lmp.${pid} restart2.lmp.${pid}
restart 	1000 restart.lmp.${pid} restart2.lmp.${pid}
restart 	1000 restart.lmp.1 restart2.lmp.${pid}
restart 	1000 restart.lmp.1 restart2.lmp.1


include         in.dump
dump            myDump all atom ${out_freq2} dump.water.${pid}
dump            myDump all atom 10000 dump.water.${pid}
dump            myDump all atom 10000 dump.water.1
dump            myDump2 all dcd ${out_freq2} dump.dcd
dump            myDump2 all dcd 10000 dump.dcd
dump_modify     myDump append yes
dump_modify     myDump2 append yes


variable natoms 	equal  "count(all)"                        # NUMBER ATOMS
variable H      	equal  "enthalpy/v_natoms"                 # ENTHALPY-per-atom
variable Vol      	equal  "vol/v_natoms"                 # volume-per-atom
fix AVG all 		ave/time ${out_freq} 1 ${out_freq} v_Vol v_H file vol_enthalpy.dat
fix AVG all 		ave/time 1000 1 ${out_freq} v_Vol v_H file vol_enthalpy.dat
fix AVG all 		ave/time 1000 1 1000 v_Vol v_H file vol_enthalpy.dat


timer           timeout 23:50:00 every 1000
New timer settings: style=normal  mode=nosync  timeout=23:50:00

fix 		1 all shake 1e-6 200 0 b 1 a 1
Finding SHAKE clusters ...
       0 = # of size 2 clusters
       0 = # of size 3 clusters
       0 = # of size 4 clusters
     288 = # of frozen angles
  find clusters CPU = 0.001 seconds
fix             2 all nph aniso ${pressure} ${pressure} ${pressureDamp}
fix             2 all nph aniso 2091.9 ${pressure} ${pressureDamp}
fix             2 all nph aniso 2091.9 2091.9 ${pressureDamp}
fix             2 all nph aniso 2091.9 2091.9 1000
fix             3 all temp/csvr ${temperature} ${temperature} ${tempDamp} ${seed}
fix             3 all temp/csvr 177.6 ${temperature} ${tempDamp} ${seed}
fix             3 all temp/csvr 177.6 177.6 ${tempDamp} ${seed}
fix             3 all temp/csvr 177.6 177.6 100 ${seed}
fix             3 all temp/csvr 177.6 177.6 100 745823


run             250000
PPPM initialization ...
  extracting TIP4P info from pair style
  using 12-bit tables for long-range coulomb (../kspace.cpp:340)
  G vector (1/distance) = 0.37159972
  grid = 24 27 25
  stencil order = 5
  estimated absolute RMS force accuracy = 0.0031705072
  estimated relative force accuracy = 9.5478883e-06
  using double precision FFTW3
  3d grid and FFT values/proc = 4410 672
Last active /omp style is kspace_style pppm/tip4p/omp
Neighbor list info ...
  update every 1 steps, delay 7 steps, check yes
  max neighbors/atom: 2000, page size: 100000
  master list distance cutoff = 10.8154
  ghost atom cutoff = 10.8154
  binsize = 5.4077, bins = 4 5 5
  1 neighbor lists, perpetual/occasional/extra = 1 0 0
  (1) pair lj/cut/tip4p/long/omp, perpetual
      attributes: half, newton on, omp
      pair build: half/bin/newton/omp
      stencil: half/bin/3d
      bin: standard
Setting up Verlet run ...
  Unit style    : real
  Current step  : 12750000
  Time step     : 2
  Walltime left : 23:49:59.94
Per MPI rank memory allocation (min/avg/max) = 10.19 | 10.21 | 10.23 Mbytes
Step Temp PotEng TotEng E_pair E_mol Press Lx Ly Lz Volume Pxx Pyy Pzz Pxy Pxz Pyz Enthalpy 
12750000    184.62884   -4398.6967   -4082.2492   -4398.6967            0    1061.0037    18.051088    23.351453    22.082618    9308.2458     1033.178   -430.93666    2580.7696   -517.90822    287.23848    488.42625   -3938.2167 
12751000    175.62804   -4407.5701   -4106.5496   -4407.5701            0    2734.4483    17.941895     23.55561    21.822038    9222.6974    2077.8139    2048.2541    4077.2768    378.03846    -147.0123    540.59646   -3738.7565 
12752000    181.74285   -4416.4416   -4104.9406   -4416.4416            0    1912.4819    17.928173     23.35235    22.053183    9232.8951    1234.7146    2220.4616    2282.2695   -447.72665   -257.97827    45.927981   -3847.4205 
12753000    181.62189   -4423.1668   -4111.8731   -4423.1668            0    2184.7973    18.081243    23.315832    21.996739    9273.3682    2142.6244    1625.4285     2786.339   -196.16301   -326.41112    41.135508   -3816.3955 
12754000     167.6554   -4424.0402   -4136.6846   -4424.0402            0    1201.6791    17.892516    23.692365    21.911713    9288.7262    2016.1331    351.27505    1237.6293    260.16647    177.53216   -186.65517   -3973.8972 
12755000    177.66817   -4400.9746   -4096.4574   -4400.9746            0    2811.4814    18.000697    23.180987    22.036058    9195.0722    2259.1627    4069.9779    2105.3035    602.44296    -567.3758    -416.8272   -3719.4358 
12756000      174.706    -4392.128   -4092.6879    -4392.128            0    2059.9927    17.799244    23.612321    21.932427    9217.7925    2859.1866    1563.2869    1757.5045   -881.96856   -189.83322   -566.38633   -3815.7589 
12757000    174.97391    -4400.545   -4100.6457    -4400.545            0    1433.4319    18.279987    23.019129     22.00251    9258.4227     1268.332    1669.6023    1362.3613   -682.69631   -487.85388   -249.77096   -3907.0971 
12758000    182.25246   -4407.6327   -4095.2582   -4407.6327            0    1725.3552    17.919302     23.43333     22.10753    9283.1494    1332.1235    3469.0923    374.84981    -680.4556    58.583998    240.53269   -3861.6706 
12759000    178.58566   -4388.3803   -4082.2906   -4388.3803            0    1749.8524    18.203648    23.327553    21.862615    9283.8843    2133.8856     1087.232    2028.4394   -308.45622   -73.885954    659.89309   -3845.3677 
12760000    180.80294    -4409.363   -4099.4729    -4409.363            0    1577.7206    17.952585    23.249297       22.159    9248.8333     253.3487    3302.1109    1177.7022   -1162.2346    339.99068   -44.162561   -3886.6625 
12761000    180.55509   -4419.6909   -4110.2256   -4419.6909            0     1905.771     18.02852    23.484192    21.930446    9285.0265    1587.4805    2286.7992    1843.0333   -319.81511   -36.160341    1114.1332   -3852.1602 
12762000    185.49383   -4391.9941    -4074.064   -4391.9941            0    2111.4864    18.032782    23.284064    21.959185    9220.1447    1759.9266    2773.8306    1800.7021     -778.354   -334.50509   -174.50347   -3790.1401 
12763000    180.78879   -4396.8157   -4086.9499   -4396.8157            0    2052.3053    17.937732    23.416522     22.02548    9251.5671    1433.8184    1722.5704    3000.5272   -453.60337    398.56504    -207.7352   -3810.0434 
12764000     172.2342   -4412.2761   -4117.0726   -4412.2761            0    1533.4799    18.236358    23.126104    21.873098    9224.6706    1549.6317    1744.5615    1306.2466   -220.80723   -587.46643   -465.85813   -3910.7699 
12765000    173.66015   -4402.6337   -4104.9862   -4402.6337            0    2958.7916     17.80543    23.423132    22.088453    9212.1863     3986.554    2919.3574    1970.4636    105.87875    793.53588    341.37264   -3707.4717 
12766000    182.59238   -4416.3277   -4103.3706   -4416.3277            0    2503.6644    17.999873      23.3811    21.944085    9235.3179    1948.3305    3623.8701    1938.7926    1077.1612    80.684094    -305.8498   -3766.1579 
12767000    182.05078   -4413.6749   -4101.6461   -4413.6749            0    3532.3283     17.86596    23.387002    21.991108    9188.5725    3922.9344    3708.3532    2965.6974   -457.69963   -73.643718    327.43905   -3628.2933 
12768000    175.58905   -4426.7715   -4125.8179   -4426.7715            0    2218.9261    18.051481    23.296945     21.98057    9243.8045    1335.5095    3011.0884    2310.1803    402.84412   -118.72835   -30.371116   -3826.6813 
12769000     174.6968   -4404.5791   -4105.1548   -4404.5791            0    1264.8951    18.030934    23.516686    21.883189    9279.0805     812.9303    752.22107     2229.534     315.8931    32.802261   -335.11425   -3933.9818 
12770000    177.78216   -4424.7217   -4120.0092   -4424.7217            0    2473.9577    17.886701    23.448412    22.002929    9228.3527     3925.663    1921.7362    1574.4738     1147.601   -418.62817    84.233814   -3787.0489 
12771000    177.43544   -4423.8791   -4119.7608   -4423.8791            0     1369.125    18.197656    23.178241     22.02286     9289.015    1341.1408   -16.270468    2782.5047    614.80954   -423.02094    406.32519   -3934.2844 
12772000     183.7862   -4404.5271   -4089.5238   -4404.5271            0    1725.2311     17.66141    23.698996    22.080287    9241.8738    3750.3827    1978.5879   -553.27716   -313.12165   -741.64716    297.01191   -3856.9915 
12773000    175.40705   -4422.0951   -4121.4534   -4422.0951            0    1534.5308    18.044647     23.29927    21.948538    9227.7602    2431.3142    715.21098    1457.0673   -453.97217   -333.75007   -244.24069   -3914.9402 
12774000    181.10172   -4376.6669   -4066.2648   -4376.6669            0    3274.4661    17.910742    23.363415    21.932576    9177.8203    4009.8659    4032.2723    1781.2601    187.54233   -784.28884    -45.83454   -3627.9804 
12775000    175.96641   -4402.8712   -4101.2708   -4402.8712            0    2820.9091    17.901606    23.401825    22.036939    9231.9406    2174.2959    2807.1585    3481.2729   -631.21556   -108.78862     111.1273   -3721.4682 
12776000    189.97385   -4408.0423   -4082.4337   -4408.0423            0     1757.781    18.100298     23.29632    21.895627    9232.7363         2257    1947.2335    1069.1096    664.93362   -99.154177     126.4284   -3845.7485 
12777000    183.23391   -4402.0443   -4087.9877   -4402.0443            0    3769.8474    17.869355    23.424299    21.895716    9165.0456    3567.7099    3752.9313    3988.9011    863.74724    340.10878    78.265674   -3584.0993 
12778000    173.29242   -4409.1485   -4112.1312   -4409.1485            0    1842.7347    18.139253    23.149229    22.024445    9248.2785    1109.0364    2970.5495    1448.6184   -1552.1137   -92.824353    723.14189   -3863.5893 
12779000    170.31163    -4419.291   -4127.3827    -4419.291            0    1676.2905    18.021804    23.517972    21.805521    9241.9709    723.53277    1006.2973    3299.0414    206.28033   -49.861777    201.91897   -3901.4445 
12780000    182.78956   -4397.1481    -4083.853   -4397.1481            0    2759.9998    17.828656    23.404973    22.048073    9200.2027    2692.3624    2911.1259     2676.511    24.374855   -389.42476    645.85327   -3713.5286 
12781000    171.79665    -4376.546   -4082.0924    -4376.546            0    1657.1316    18.171131    23.337298    21.809457    9248.6292    1792.5175    1387.9195    1790.9577    768.12544    168.30627    776.79157   -3858.5756 
12782000    179.56718   -4406.5707   -4098.7987   -4406.5707            0    1957.5618    17.994821    23.434723    21.907316    9238.3948    1111.9188    1857.4847     2903.282   -460.73423    -446.8642    55.617886   -3835.0515 
12783000    183.40093   -4410.2499    -4095.907   -4410.2499            0    3320.1612    17.964189    23.307274    21.846202    9146.9231    3010.2965    3055.2602    3894.9269    360.53179    -597.2293    16.245764   -3653.0025 
12784000    168.38207   -4411.9854   -4123.3843   -4411.9854            0    2590.9189    17.897427    23.487585    21.896123    9204.4145    2426.6716    1174.4618    4171.6234    200.25459    -74.47338   -206.86878   -3775.5873 
12785000    168.28531   -4413.5775   -4125.1422   -4413.5775            0    2301.8707    18.118655    23.175297    21.917446      9203.25    1236.0154     3165.307    2504.2899   -842.88524   -2.7664276   -343.71524   -3816.1852 
12786000    183.00402   -4431.3881   -4117.7254   -4431.3881            0    2675.1909    17.856774    23.388014     21.96823    9174.6904     3119.518    3356.7628    1549.2918    82.327369    175.26358    255.55523   -3759.7757 
12787000    181.42531   -4407.3636   -4096.4069   -4407.3636            0    2234.7862    17.966064    23.363261    21.893712    9189.7945    1140.8016    2143.2458    3420.3112    589.13595   -104.06945   -703.88983   -3796.8925 
12788000    184.38809   -4419.8449     -4103.81   -4419.8449            0    1972.1296    18.011582    23.255805    22.032246    9228.7316    2385.0453    1483.8637    2047.4798    497.15683   -10.079723   -173.08775   -3838.3779 
12789000    183.35446   -4411.5298   -4097.2665   -4411.5298            0    2662.7758    17.813308    23.704354    21.786835    9199.5554    2525.8782    1463.0113    3999.4379    835.62619   -222.26873    76.630679   -3740.0123 
12790000     175.6888   -4414.8381   -4113.7135   -4414.8381            0    2345.0146    18.071398    23.295923     21.87923    9210.9345    740.81656    1635.8973    4658.3301    490.95196    107.04091    482.06442   -3798.7029 
12791000    182.08216   -4417.9585   -4105.8759   -4417.9585            0    1644.9204    17.731222    23.582719    22.071898    9229.3733    2189.5967    1630.0144      1115.15   -101.36158   -69.537424   -86.581874    -3884.468 
12792000     177.2366   -4415.7647   -4111.9872   -4415.7647            0    2766.2852    18.075087    23.239834    21.945534    9218.4856    1890.9407    3822.3938    2585.5212    245.79563    182.32183    479.84935   -3740.0819 
12793000    174.18452   -4392.3786   -4093.8323   -4392.3786            0    1000.0138    17.906028    23.588954    22.021852    9301.6878    2015.3265   -99.775328    1084.4901    556.80546   -7.2586625    247.62328   -3958.1749 
12794000    174.79776   -4398.1209   -4098.5235   -4398.1209            0    1531.3382    18.087961    23.170204     22.06065    9245.6567    1514.9025    1888.9179    1190.1941   -216.05573   -704.09468   -917.22929   -3892.0403 
12795000    173.47509   -4436.7171   -4139.3867   -4436.7171            0     2021.859    18.026187    23.475365    21.860207    9250.6126    2391.0018    1796.1208    1878.4543   -691.67169   -28.968616    673.58619   -3866.6163 
12796000    182.71174   -4403.0599   -4089.8982   -4403.0599            0     2768.999    17.891906     23.36122    22.067503     9223.703    2838.2523    3016.4513    2452.2934    656.68653   -1078.0368   -197.93519   -3717.4173 
12797000    173.19547    -4411.651   -4114.7999    -4411.651            0     2114.718    18.152971    23.346648    21.840372    9256.1902    1093.0442    3975.4004    1275.7093   -484.87257    87.693195   -276.57204   -3829.3298 
12798000    174.03898   -4402.6463   -4104.3494   -4402.6463            0    1193.3318    17.914851    23.447239     22.12716    9294.5978    1246.1657     2161.198    172.63171   -8.5175603   -178.97945   -50.481284   -3942.5907 
12799000     181.9932   -4403.8054   -4091.8753   -4403.8054            0     2661.701    18.025303    23.231794    21.956703    9194.5911    3481.2184    3044.7443    1459.1404    -15.94707    44.341024    -463.7533    -3734.958 
12800000    180.68975   -4423.1802   -4113.4841   -4423.1802            0       2580.4    17.832989     23.66564     21.81155    9205.1092    1044.7372    2622.0611    4074.4017      150.291   -88.477758    154.63219    -3767.073 
12801000    183.25839   -4399.8129   -4085.7143   -4399.8129            0    1892.4508     18.00423     23.25198    21.983869    9203.1949    1542.5042    2090.5531    2044.2951    180.66696    107.16023    124.61414   -3831.7111 
12802000    175.33363   -4408.3731   -4107.8573   -4408.3731            0    3192.4076    17.893557    23.322148    22.017406    9188.2197    2151.3172     4215.662    3210.2434   -934.91711    401.45611   -563.57616   -3680.0722 
12803000    170.34998   -4407.9371   -4115.9631   -4407.9371            0    2043.9186    17.930042    23.450573     21.88705    9202.8426    2404.3066    1555.8238    2171.6253   -343.13175   -330.82769   -671.40376   -3841.6406 
12804000    183.92093   -4405.5846   -4090.3504   -4405.5846            0     1752.093    18.102204    23.279973    22.032524    9284.9201    667.11631    1933.7564    2655.4064    339.42415    285.82021    496.69897   -3853.0977 
12805000    177.65225   -4408.3793   -4103.8894   -4408.3793            0    2421.6401    17.801047    23.643168    21.840358    9192.0201    2964.1296    1174.5701    3126.2207   -659.72651   -615.13399     1033.638   -3779.2536 
12806000    182.86689    -4395.362   -4081.9344    -4395.362            0    2756.5572    18.112737    23.084699    22.016943    9205.8801    1025.2988    5062.6448    2181.7278   -529.39169   -513.16661   -222.58106   -3711.8437 
12807000    172.89041   -4396.4792   -4100.1509   -4396.4792            0    3222.3052    17.771666    23.637527    21.858571    9182.3099    3497.7118    2127.6759     4041.528   -148.86769   -163.73511    380.91495   -3668.6373 
12808000    166.84041    -4390.366   -4104.4072    -4390.366            0    2660.8337    18.018396    23.204462    22.055015    9221.3604    2117.5168    3579.7643    2285.2201   -633.50506   -83.896669    259.79143   -3746.5674 
12809000    173.62495   -4400.8939   -4103.3067   -4400.8939            0    1810.5551    17.863026    23.520332    22.030403    9255.9484    2768.8705    2125.1305    537.66433   -166.47352   -552.32034    266.06087   -3858.9026 
12810000    165.85939   -4411.3514   -4127.0741   -4411.3514            0    1738.0435    18.201812    23.116361    21.945925      9233.96    1570.5828    2289.6994    1353.8483   -753.67258    -277.7447    543.57281   -3893.0155 
12811000    183.38518   -4425.9409    -4111.625   -4425.9409            0    1766.0501    18.003058    23.437657    21.932891    9254.5724     1427.827    1885.9971    1984.3261    49.660802    -434.0702    182.96827    -3873.264 
12812000    172.03429   -4387.5491   -4092.6882   -4387.5491            0    2124.8584     17.90477    23.358646    22.010189    9205.3471    3271.2513    2415.9264     687.3976   -668.68638   -180.04677   -677.64363   -3807.4248 
12813000    184.84104   -4395.1498   -4078.3385   -4395.1498            0    1369.9293    18.114723    23.289428    21.962551    9265.5944     697.7619     2242.481    1169.5449     180.4566   -84.337665    1076.5289   -3893.2211 
12814000    180.33769   -4410.6851   -4101.5925   -4410.6851            0    2341.1209    17.970802    23.400602    21.852514    9189.5851    3149.5909    2261.7808    1611.9909   -26.866247   -74.568881    185.46212   -3787.8339 
12815000    171.24234   -4416.9157   -4123.4122   -4416.9157            0    1563.7739    18.023546    23.350083    22.109105    9304.6452    2028.6648    1699.7897    962.86723   -8.0923949    365.12117    369.75835   -3911.2101 
12816000    179.69075   -4389.2275   -4081.2437   -4389.2275            0    2103.3018    17.856165    23.475586    22.013484     9227.699    1376.6397    2138.9834    2794.2824   -574.78179    554.80724    55.863824   -3798.1886 
12817000    166.56586   -4421.4166   -4135.9285   -4421.4166            0    1248.6835    18.047982    23.396788    21.957838    9272.0226    1360.0305    744.77234    1641.2477    243.62456   -629.93386    34.582309   -3967.0778 
12818000    177.40144   -4406.8067   -4102.7467   -4406.8067            0     3231.471    18.021865     23.36341    21.729029    9149.0559     2634.961    3568.0868     3491.365    565.41343   -158.62438    50.531189   -3671.5728 
12819000    167.91922   -4420.4749   -4132.6671   -4420.4749            0     1455.722    17.991321    23.336323    21.991052    9232.9712    917.97416    2012.6047    1436.5872    -547.2466   -293.72263     205.8254   -3936.6492 
12820000    178.29564   -4408.7303   -4103.1377   -4408.7303            0    1948.3273    17.885494    23.251605    22.097946    9189.7941    2391.5254    3745.0671   -291.61047    839.45073   -105.53828    1298.3568   -3842.0156 
12821000    180.96618   -4415.8987   -4105.7289   -4415.8987            0    2316.2853    18.070043    23.380957    21.800908    9210.7722    1717.7797    615.52489    4615.5514   -1021.1389    114.23649    55.991521   -3794.5831 
12822000    182.05015   -4375.0655   -4063.0378   -4375.0655            0    3029.7588    17.768347     23.26655    22.221936     9186.729    4057.1101    3844.0561    1188.1101    571.54698    571.21565    272.04388   -3657.1137 
12823000    167.87842   -4418.4346   -4130.6967   -4418.4346            0    1993.5727    17.994993    23.399931    21.927547    9233.2865    2548.0747    1791.7779    1640.8655   -184.06267    111.46119   -372.38074   -3862.2461 
12824000    176.22602   -4411.5855   -4109.5401   -4411.5855            0    2318.7303    18.236431    23.189885    21.834138    9233.6731     1451.518    2695.8323    2808.8408   -539.52635   -110.38709   -782.58101   -3797.2915 
12825000    178.31215   -4416.4688   -4110.8478   -4416.4688            0    1693.4486    17.723681    23.478956    22.266664    9265.9054    3332.6065    1111.8242    635.91504   -605.63559   -377.27893    194.60176   -3882.0058 
12826000    177.23923   -4417.3951   -4113.6131   -4417.3951            0    1853.5805    17.967869    23.243824     22.07239    9218.3565    2706.2824    2384.8537    469.60539   -144.85078   -833.51521    64.512368   -3864.4172 
12827000    167.49396   -4406.6064   -4119.5275   -4406.6064            0    1631.7691     17.98527    23.453257    21.964546    9264.9344    2077.8334    48.383403    2769.0906   -658.60266    28.884868      113.096   -3899.0435 
12828000    190.01065   -4403.5268    -4077.855   -4403.5268            0    2055.6696    18.012709    23.441125    21.915465    9253.5457    2823.3002    1216.7334    2126.9753   -187.99625    659.96715    337.07851   -3800.4353 
12829000    178.41769    -4415.526   -4109.7242    -4415.526            0    2087.5895    17.950017    23.254724    22.084314    9218.4936     2048.479    2326.2594    1888.0301    -910.3962   -243.14191    590.27093    -3829.064 
12830000    184.99973   -4396.8573   -4079.7741   -4396.8573            0    2307.1828    17.952397    23.406011    21.964982    9229.5538    1867.5251    2982.8434    2071.1799    366.48834    532.60389   -126.95935    -3769.219 
12831000    175.58663   -4408.8633   -4107.9138   -4408.8633            0    1607.2734    18.073814     23.27264    22.048225    9274.0427    1499.5367    2002.3003    1319.9832    373.16787    209.82936   -471.91629   -3890.5262 
12832000    171.80392   -4417.4389   -4122.9728   -4417.4389            0    2678.2514    17.989511    23.329882    22.026903    9244.5407     3191.727    2753.8768    2089.1505    20.925545     367.1746   -211.29993   -3761.8852 
12833000    176.99308    -4428.333   -4124.9729    -4428.333            0    1726.5054    17.987085    23.455297     21.91532    9245.9075     1996.379    469.79439    2713.3427   -334.13136    783.28708    499.77805   -3892.1673 
12834000    189.25578   -4405.7367   -4081.3588   -4405.7367            0     1831.972    18.058013    23.198705    22.146612    9277.7143    1665.9169     1737.085    2092.9141   -593.83831   -450.51895   -158.91819   -3833.4821 
12835000    179.27732   -4410.3903   -4103.1151   -4410.3903            0    2517.5283     17.92738    23.439361    21.937133    9218.1225    1129.3109    3335.9884    3087.2855    244.25508     610.4827    66.588578   -3764.6665 
12836000    185.60804    -4419.858   -4101.7322    -4419.858            0    3687.2789    17.993177    23.207966    21.976636    9177.1142    3441.4496     3753.071    3867.3162   -112.28279    597.26342    144.37906   -3608.2312 
12837000    173.56316   -4418.2215   -4120.7402   -4418.2215            0    2058.5968    17.755471    23.572759    22.060526    9233.3323    2180.3505    1583.3471    2412.0929    472.37498   -444.56558   -609.31678   -3843.5322 
12838000    179.55898   -4390.0316   -4082.2737   -4390.0316            0    2602.0009     18.13025    23.332807    21.806545    9224.8149    2240.2682     2482.666    3083.0684   -1209.8339   -14.786037   -111.61732   -3732.2149 
12839000    178.15303   -4435.7976   -4130.4494   -4435.7976            0    1282.0548    17.888642    23.445083    22.193176    9307.8333    2567.5114    1632.1118   -353.45896    652.20255   -649.15848   -79.530854   -3956.4167 
12840000    176.50202   -4407.4517   -4104.9333   -4407.4517            0    2143.8987    18.016393    23.336575    22.032489    9263.3601    2481.2882    2857.4415    1092.9664   -785.45444   -83.183436    397.80985   -3815.2999 
12841000    174.21995   -4428.7953   -4130.1882   -4428.7953            0    2260.9113    18.121902    23.309645    21.844449    9227.4251    512.34846    3882.4225    2387.9631   -117.44454   -538.66791    461.58215   -3825.9317 
12842000     180.2957   -4401.8393   -4092.8186   -4401.8393            0    1383.8967     17.75853    23.530853    22.141467    9252.3293    1790.1533     2851.064   -489.52714    17.564748    784.34285     37.43794   -3906.0815 
12843000    171.84132   -4416.4407   -4121.9105   -4416.4407            0    1687.1326    18.167362    23.244324    21.939261    9264.6876    2304.1043    939.51477    1817.7787    171.12998    450.86402    552.09209    -3893.952 
12844000    178.25692   -4415.4131   -4109.8868   -4415.4131            0     1223.324    17.962215    23.483075    21.952284      9259.65    584.04837     1482.205    1603.7187    237.00394    392.81354   -126.53182   -3944.6861 
12845000    178.25459   -4425.2884   -4119.7662   -4425.2884            0    2651.8836    18.018507    23.243616    21.972984     9202.621     2543.465    2122.3062    3289.8796    102.94102    310.28265   -406.52634   -3763.8548 
12846000    189.50689   -4418.2622   -4093.4539   -4418.2622            0    2005.2394    17.931262    23.536042    21.882315    9235.0141    919.31037    1044.8498    4051.5581   -236.79859   -130.27496    579.61123   -3823.3818 
12847000    180.34958   -4414.8047   -4105.6917   -4414.8047            0    1976.2989    18.128064    23.396076    21.724021    9213.7131    784.30949    2185.7484     2958.839   -665.81876    478.06511    355.92584   -3840.1314 
12848000     168.6724   -4415.8482   -4126.7495   -4415.8482            0    2250.2332    17.957316    23.224423    22.113856    9222.5459    1022.1529    2276.4767    3452.0699    298.26475    227.25324    138.44638     -3824.09 
12849000    184.21374   -4415.8702   -4100.1342   -4415.8702            0    2294.3061    17.953718    23.561809    21.823955    9232.0148    1418.6361    1611.1141    3853.1682    -393.4645   -510.49477    315.71258     -3791.23 
12850000    174.17713   -4423.9487    -4125.415   -4423.9487            0    1925.0639    18.240936    22.995136    22.130426    9282.6691    708.19026    2837.0541    2229.9473    493.84638   -308.03349   -228.08745   -3864.8033 
12851000     185.6358   -4447.7463   -4129.5729   -4447.7463            0    2282.5839    17.859874    23.498854    22.034269    9247.4865    3232.2946    1438.3786    2177.0787    114.81817     408.1905   -272.43737   -3821.7319 
12852000    176.83991   -4400.4125   -4097.3149   -4400.4125            0    1308.5618    18.195981    23.345502     21.91043    9307.4262    665.84924    1027.6185    2232.2176   -416.11949    125.28465   -519.11256   -3919.6917 
12853000    171.42368   -4394.7256   -4100.9113   -4394.7256            0    1552.3962     17.83843    23.511773      22.0881    9264.0389    1892.1235    812.09502    1952.9701   -94.604797    80.209521    656.21013   -3891.1725 
12854000    169.61503   -4398.0561   -4107.3418   -4398.0561            0    1034.9916    18.043268    23.359067    22.014249    9278.4321     1067.216    1450.2549    587.50384   -383.22931   -136.38981    85.519017   -3967.2904 
12855000    181.50389   -4403.1013   -4092.0098   -4403.1013            0    1942.3843    18.102487    23.437783    21.846849    9269.2284    1582.9244    2540.3908    1703.8378   -1326.5806   -177.98837   -890.28648    -3829.434 
12856000    169.96196   -4416.0737   -4124.7648   -4416.0737            0    2471.5117    17.818898    23.544362     22.00175    9230.4948    3647.0188    1572.9419    2194.5745    292.16244   -88.692964   -853.32113   -3792.0565 
12857000    166.52476   -4405.9512   -4120.5334   -4405.9512            0    2372.7196    18.085941    23.192385    21.979164    9219.2949    1221.9607    2546.3939    3349.8041    427.39915    474.41751   -35.561719   -3801.5119 
12858000    170.96124   -4395.5726   -4102.5509   -4395.5726            0    753.04233    18.034434    23.387316    22.039133    9295.5995     171.4811    604.35001    1483.2959    136.42521   -1234.4119   -177.10575   -4000.4634 
12859000    179.57445    -4419.506   -4111.7215    -4419.506            0    3065.5173    18.034794    23.304463    21.831124    9175.4293    1881.3349    3932.0738    3383.1432   -567.56472   -263.26473    531.28581   -3701.5117 
12860000    179.81541   -4416.4252   -4108.2277   -4416.4252            0    3196.1797    17.792551     23.32248     22.06532    9156.3668    3842.9718    2437.9602     3307.607   -745.31622   -652.84368    410.79526    -3681.422 
12861000    186.61225   -4421.6862   -4101.8391   -4421.6862            0    2532.9547    18.089299     23.31554    21.832047    9207.9226    2470.2965    2930.2935    2198.2741   -603.24979   -62.717665   -73.541143   -3761.6934 
12862000    186.39354   -4425.9547   -4106.4825   -4425.9547            0    1581.4941     17.91485    23.493011    22.005242    9261.4292    2765.2695     939.8517    1039.3611    53.493084   -411.62201   -51.623187   -3892.8726 
12863000    175.21869   -4412.1068   -4111.7879   -4412.1068            0    2343.2157    17.932379    23.388524    21.997308    9225.9323    2956.1927    2347.0673    1726.3871   -774.70384   -21.281238    421.57337   -3796.5065 
12864000    183.05842   -4392.5372   -4078.7813   -4392.5372            0     2473.988    18.089986     23.30457    21.913146    9238.1299    2416.4822    3161.2389    1844.2428     -45.5469   -38.956847   -204.21604   -3745.4643 
12865000    189.66441    -4417.692   -4092.6137    -4417.692            0    2014.8116    17.925645    23.441059    21.990702    9240.4072    1696.7397    1785.7735    2561.9217    725.47935    -507.4771    530.98361    -3821.094 
12866000    172.99569   -4415.9037    -4119.395   -4415.9037            0    1455.3176     18.09917    23.537115    21.760324    9269.9468    1184.3877     49.94377    3131.6213   -142.78015     4.615389    212.84595   -3922.6467 
12867000    175.07149   -4424.3553   -4124.2887   -4424.3553            0    4372.2188    17.953118    23.173508    21.939221    9127.5217    2970.2715    6071.4221    4074.9629   -235.58849    83.837712    439.82337   -3542.2785 
12868000    180.23314   -4430.9286   -4122.0151   -4430.9286            0    1478.5712    17.948529    23.405827    22.086956    9278.7335    1973.0391    1930.3971    532.27725    48.464416   -209.57992    532.88109   -3921.9337 
12869000    182.65528   -4409.7134   -4096.6485   -4409.7134            0    3214.5578    17.941708    23.428196    21.771583    9151.5081    2595.3155    3017.9052    4030.4526   -774.10448    47.594455   -299.45245   -3667.6164 
12870000     179.0868   -4429.2676    -4122.319   -4429.2676            0    1394.7991    18.036444    23.342951    22.027373    9274.0486    1171.7089    1416.0536    1596.6348   -849.79587   -15.930025   -263.56421   -3933.6689 
12871000    171.41799   -4408.8972   -4115.0926   -4408.8972            0    2711.5653    17.925405    23.353357    21.904641    9169.6855    2492.8221    3504.5468    2137.3271   -669.71107    51.482822    229.44271   -3752.4738 
12872000    190.34973     -4412.55   -4086.2971     -4412.55            0    1960.1881    17.820393    23.426113    22.069646    9213.2503    2911.0562    2182.9988    786.50939    318.74022    -488.6367    140.27323   -3822.9149 
12873000    176.71174   -4430.4459    -4127.568   -4430.4459            0    2410.5017    18.126034    23.075845    21.945081    9179.0467    1830.3489     3276.851    2124.3052    515.33748    227.03916   -164.11111   -3804.8814 
12874000    186.27603   -4410.7607   -4091.4899   -4410.7607            0    1447.3263    17.758113    23.761089    21.942024    9258.4834    1687.7589    1167.6349    1486.5852    317.80531    503.64391   -7.8413936    -3896.064 
12875000    196.25234   -4421.7047   -4085.3349   -4421.7047            0    1661.6501    18.128223    23.208328     22.04337    9274.2133    765.89633    2891.7276    1327.3264     -609.021   -242.40857    147.85585   -3860.5886 
12876000    181.68045   -4410.0171    -4098.623   -4410.0171            0    3274.3191    17.808988    23.474746    21.901815    9156.3048    3352.6792    2450.0833    4020.1946   -465.97374   -162.78169    137.84449   -3661.3858 
12877000     179.1593   -4408.5477   -4101.4748   -4408.5477            0    2530.5461    18.036627    23.135783    22.045692    9199.4799    2317.3621    3225.7432     2048.533    560.42458   -38.050242   -92.696687   -3761.9642 
12878000    180.04183   -4412.8455   -4104.2599   -4412.8455            0    1704.5661    17.963619    23.425891    21.955109    9239.0125    2081.9582    1630.4855    1401.2547    1228.5239    542.41526    915.85313   -3874.5841 
12879000     189.5154    -4416.646   -4091.8231    -4416.646            0    880.50892    17.958825      23.3363    22.197503    9302.8081    2209.9714    266.92969    164.62567    -186.8803   -230.47125   -583.53156   -3972.3628 
12880000    174.51525   -4421.8641   -4122.7509   -4421.8641            0    2757.9078    18.012742    23.325004    21.873362     9190.034    1882.5619     2576.645    3814.5164   -307.96004    75.923772    322.05269   -3753.1162 
12881000    167.67534   -4418.5007   -4131.1109   -4418.5007            0    2296.9035    17.867984    23.480115     21.98422    9223.3105    3408.0325    1633.6232    1849.0547   -538.51291   -291.07583    5.8245926   -3822.1486 
12882000      184.901    -4403.919    -4087.005    -4403.919            0    2364.3003    18.048815    23.185212    22.029539    9218.6043    3298.6791     3162.267    631.95487    291.68555    -812.8666    466.61013   -3769.1393 
12883000    179.15086   -4422.2137   -4115.1552   -4422.2137            0    2817.2327    17.771992    23.710832    21.833524    9200.4005    3815.7935    2234.1188    2401.7858    318.67557   -137.86184   -220.53072   -3737.1434 
12884000    169.39574    -4416.061   -4125.7225    -4416.061            0    1683.4615    18.082333    23.353609    21.919844     9256.481    2180.6938    1615.4229    1254.2676   -131.84093   -699.96744    127.15844   -3898.4615 
12885000    168.00022   -4425.7368   -4137.7902   -4425.7368            0    772.41083    18.090783    23.492603     21.92162    9316.6793    1211.8224    1300.4694   -195.05934    -467.9551    260.61491    681.82423   -4032.8394 
12886000    171.90191   -4399.6854   -4105.0514   -4399.6854            0    1440.4337    17.947085    23.444412     22.06454    9283.8505    542.33357     2304.245    1474.7226   -731.60808   -464.72653   -593.31068   -3910.0232 
12887000    166.80241   -4408.4702   -4122.5766   -4408.4702            0    1901.6305    18.226178    23.071755    21.943771    9227.5729    1470.7821    2031.5334    2202.5759    115.71984    166.33266    715.26133   -3866.6653 
12888000    175.92617   -4409.3705   -4107.8391   -4409.3705            0    1536.2638     17.89704    23.638371    21.890068    9260.7436     790.0199    1193.4465    2625.3249      836.583   -530.82646   -293.37269   -3900.3537 
12889000    162.96786   -4422.5222   -4143.2009   -4422.5222            0    1330.0038    18.132939    23.176891    22.098932    9287.4109    206.87699    1615.5038    2167.6308   -7.3773144   -303.84488   -164.56584   -3963.0554 
12890000     178.1393   -4415.9106   -4110.5859   -4415.9106            0    657.94748    18.015414      23.4831    21.998243    9306.5271    256.30579   -167.08935     1884.626    124.42471   -712.09288    881.85581   -4021.2852 
12891000    185.81434   -4448.0884    -4129.609   -4448.0884            0    1711.4475    17.969286    23.314255    22.060731    9242.1338    1247.8468    3023.4329    863.06283   -988.41068   -690.83918    596.40746    -3898.928 
12892000    178.55917   -4424.2064   -4118.1621   -4424.2064            0    883.09757    18.110219    23.430638    21.850679    9271.9855    1280.0246    -310.0107    1679.2788   -67.706191   -138.64977   -234.93654   -3998.7476 
12893000    174.63754   -4417.5462   -4118.2234   -4417.5462            0     3377.348    17.950909    23.413577    21.883348    9197.4617    3762.2666    2953.8703     3415.907    734.14179    72.850724      613.325    -3665.201 
12894000    171.09853   -4400.7775   -4107.5205   -4400.7775            0    3063.2291    18.112674    22.942591    22.086363    9178.0248    2887.4274     2718.919    3583.3408   -172.92825    310.86272    188.34771   -3697.5009 
12895000    178.74617   -4398.9719   -4092.6071   -4398.9719            0    2376.1344    17.844465    23.639619    21.936367    9253.5572    1694.8429    1155.2884    4278.2719   -213.36562    97.658043   -1069.9376   -3771.9391 
12896000    172.51554   -4410.1941   -4114.5083   -4410.1941            0    1561.3412    18.113376    23.214282    22.020212    9259.2569    677.11632    1821.7874    2185.1197    964.33168    385.32441    417.51243   -3903.6699 
12897000    168.48414   -4419.9704   -4131.1944   -4419.9704            0    1308.6594    17.863004    23.678314    21.887387    9257.6168    1620.0596    864.44409    1441.4744   -260.11387    77.500272    530.51135   -3954.5085 
12898000    169.56918   -4420.0744   -4129.4386   -4420.0744            0    3179.7112     18.03345    23.235717    21.898737     9176.012    2635.2049     3646.366    3257.5628    46.081374   -54.915564    -263.1743    -3703.921 
12899000    183.88936   -4395.8588   -4080.6787   -4395.8588            0    3137.4836    17.900823    23.296555    22.005446    9176.8763    3404.6142    2178.0265    3829.8101    602.73448    -488.8289   -315.23015   -3660.7726 
12900000    174.07857    -4409.313   -4110.9483    -4409.313            0    2041.0884    17.890648    23.480141    21.985339    9235.4898    3806.4583     1394.655    922.15195    60.373706    106.60923    -37.54115   -3836.0338 
12901000    178.15467    -4396.692    -4091.341    -4396.692            0    2185.1203    18.068391    23.274238    21.980767    9243.5287    1671.1583    2274.6477    2609.5549   -1649.1943    442.22946    304.30068   -3796.7706 
12902000    164.58261   -4412.6748   -4130.5859   -4412.6748            0    1434.3783    17.795773    23.568437    22.007209    9230.2323    2134.3199    1807.9598    360.85512    245.98355   -250.62211    157.13086   -3937.4993 
12903000    178.06916   -4408.3125   -4103.1081   -4408.3125            0    1381.8396    18.307325    23.124848    21.923069    9281.2209     718.1647    2432.7849    994.56934   -858.85007    258.58437    129.28863   -3916.0663 
12904000    171.52195   -4416.1703   -4122.1876   -4416.1703            0    2902.4905     17.84437    23.438814    21.982553    9194.2221    3463.0094    2999.0407    2245.4215    215.25802    90.448978     321.0579   -3732.9976 
12905000    178.45976   -4414.8372   -4108.9633   -4414.8372            0     3071.272    18.164645    23.227492     21.71818    9163.3158    3122.7655    2884.4903    3206.5601   -822.60663   -634.36576   -24.098972    -3698.526 
12906000     172.8367    -4442.016   -4145.7798    -4442.016            0    2353.1373    17.935491    23.383837    22.042652    9244.7018    2308.3125    3074.0908    1677.0086    7.0180265   -785.64695   -241.73606   -3828.5193 
12907000    174.34347   -4415.9851   -4117.1664   -4415.9851            0    1485.4492    18.001041    23.357364    22.014074    9255.9684    661.61433    1544.6913    2250.0418    544.60829     12.45282    466.55541   -3916.6474 
12908000    170.61518   -4410.8514   -4118.4228   -4410.8514            0    2675.2653    17.952011    23.228831    22.065058    9201.2221    4031.0112       1618.5    2376.2849   -1018.7147    237.99561   -3.7455748   -3759.4279 
12909000    177.09584   -4415.0011   -4111.4649   -4415.0011            0    2764.3918    17.784239    23.520852    22.012364    9207.7822    2697.1624    2437.6341    3158.3789    843.08728   -8.8265283    55.442633   -3740.2456 
12910000    187.40045   -4411.5391   -4090.3411   -4411.5391            0    1773.9736    18.100546    23.381383    21.873357    9257.1501    1673.4918    1992.5382    1655.8909   -263.22963   -74.694498    490.03075   -3850.8439 
12911000    168.81688   -4419.0966   -4129.7502   -4419.0966            0    924.18087    17.952499    23.350357    22.117888    9271.7578     647.4301    2862.2937   -737.18125   -328.97046   -220.06789    219.08703   -4004.7833 
12912000     170.1414   -4409.4678   -4117.8513   -4409.4678            0    1973.5351    18.037944    23.493414    21.825268    9248.9567    1173.3067    2094.3397     2652.959    178.00502   -324.35529    434.81883   -3851.6479 
12913000     179.6247   -4414.1358   -4106.2652   -4414.1358            0    1924.4151    17.999085    23.287069    22.058706    9245.8172    2255.4835    1645.0039     1872.758    753.64445   -28.768304    217.79433   -3846.7756 
12914000    176.46074   -4416.4971   -4114.0495   -4416.4971            0    2608.4487    17.944911      23.1478    22.045734    9157.4718     2589.425    3201.8812      2034.04    -1729.168    -5.667124     497.6451    -3765.685 
12915000    170.17337   -4401.3198   -4109.6485   -4401.3198            0    2885.5185    17.956863    23.346472    21.922605    9190.6005     2621.874    2854.5794    3180.1021    218.80221    424.27777    35.205721   -3722.8866 
12916000    182.12133   -4411.7103   -4099.5606   -4411.7103            0    1787.4818    17.917473    23.190173    22.219148    9232.2627    1185.1472    2426.3504    1750.9478    923.21182   -269.94421    419.27624   -3858.8885 
12917000    168.51705   -4420.5494    -4131.717   -4420.5494            0    1778.0513    18.002274    23.437412    21.916134    9247.0024    753.71958    1411.3203    3169.1141    169.61879   -237.65742    272.20869   -3891.9324 
12918000    185.24892   -4399.8646   -4082.3543   -4399.8646            0    1516.3246    17.979732    23.329914    22.074531    9259.5065    2133.5507    2054.6762    360.74686    370.00887   0.91333635    327.74094   -3877.5892 
12919000    180.45278   -4392.3593   -4083.0694   -4392.3593            0    3314.8725    17.993933    23.390832    21.782722    9168.1967    4221.7521     2370.466    3352.3995    155.51768     1198.031   -556.06479    -3639.842 
12920000    175.19588   -4409.8942   -4109.6144   -4409.8942            0    2327.5932    17.878132    23.499318    21.940597    9217.7689    2958.6098    1954.3296    2069.8403   -14.044243   -529.10506   -524.09603   -3796.7121 
12921000    171.46503   -4405.8919   -4112.0067   -4405.8919            0    1427.5708    18.112953    23.131238    22.090598    9255.4094   -319.81229    3644.5484    957.97637   -458.57982   -278.75565   -170.36341   -3919.3122 
12922000    178.94619   -4425.0179   -4118.3103   -4425.0179            0    2392.8793    17.960189    23.502502    21.866249    9229.9486    2678.1457    2375.7192    2124.7729   -138.87656    252.77894    509.48282   -3796.2064 
12923000    177.85536   -4422.2895   -4117.4515   -4422.2895            0     1764.149    17.924503    23.299659    22.054046    9210.5374    2021.7173    1972.9227     1297.807   -245.67947   -1116.4652    252.41979     -3880.48 
12924000    167.83812   -4412.3289   -4124.6601   -4412.3289            0    1773.1231    17.965393    23.383072    22.040546    9258.9268    1890.4611     1375.788      2053.12   -354.42531    617.94568    393.64283   -3885.2319 
12925000    183.21972   -4414.6986   -4100.6663   -4414.6986            0    1088.4985    18.010932     23.51408    21.923272    9284.7355    1045.5448    1442.4716    777.47898    376.88427   -465.44794   -424.98295   -3953.2745 
12926000    181.40832   -4427.2207   -4116.2931   -4427.2207            0    1753.4299    18.076299    23.190571    22.031409    9235.5598    1894.2701    1605.0568    1760.9627    33.342832    67.381745   -661.17901   -3880.1215 
12927000    180.19447   -4396.1359   -4087.2887   -4396.1359            0    2048.6651    17.931846    23.563668     21.73953    9185.8225    609.96063    1754.3129    3781.7217   -365.40059   -519.62438    -608.3937   -3812.8377 
12928000    183.05092   -4407.0143   -4093.2713   -4407.0143            0     1918.123    18.052022    23.082199    22.181271    9242.5006    2069.6054    2542.0933    1142.6701   -966.98511   -323.22176    150.86931   -3834.7229 
12929000    175.39155   -4411.5179   -4110.9028   -4411.5179            0    1849.4531    17.850568    23.548399    21.954051    9228.4356    2248.1715    1733.1873    1567.0004    495.67338    689.22741   -130.37639     -3861.99 
12930000    170.06779   -4407.1329   -4115.6425   -4407.1329            0    2315.6975    18.019079    23.343063    21.896315    9210.0392     1876.667    1608.5183    3461.9072    201.16058   -312.13998    686.29283   -3804.6004 
12931000    180.30609   -4411.9992   -4102.9608   -4411.9992            0    3541.4239     17.88231    23.192827    22.186515    9201.6643    4050.9528    3153.0653    3420.2537    942.81357   -969.95557   -866.96556   -3627.7129 
12932000    188.45288   -4407.9161   -4084.9143   -4407.9161            0    3186.4887    18.004885     23.42078    21.854402     9215.749    2853.7594    2736.7764    3968.9303    198.47975   -638.26849    393.01971   -3656.6431 
12933000      172.821   -4416.2065   -4119.9973   -4416.2065            0    3086.2584     17.91331    23.317062    21.988426    9184.2525    1944.2766    4289.5634    3024.9353  -0.78191187   -220.64122     244.8275   -3706.6148 
12934000    172.87259    -4421.267   -4124.9693    -4421.267            0    1358.1624    17.942143    23.487665    21.960748    9254.6776    1411.4505    1326.1153    1336.9214   -337.09732    708.74996    530.04629   -3941.6582 
12935000    179.69094   -4401.9154   -4093.9313   -4401.9154            0    2757.3512    18.090706    23.247439     21.90012     9210.371    2249.9617    2649.1514    3372.9403   -1475.5477    85.491071    190.79534   -3723.5534 
12936000    180.53726   -4405.3372   -4095.9025   -4405.3372            0    2519.7224    17.773212    23.569575    22.093126    9254.9662     4805.016    1931.3902    822.76086   -816.98098    352.78801    205.89829    -3755.805 
12937000    177.24781   -4419.8257    -4116.029   -4419.8257            0    1341.1102    18.104223    23.270116    21.997332     9267.198    414.37932    1221.4179    2387.5334    125.65208    533.16056     557.7529   -3934.7745 
12938000    187.17291   -4407.0175   -4086.2096   -4407.0175            0    1001.6478    18.007286    23.476001     22.10949    9346.5451    3493.5968    -503.5086    14.855194    213.46756   -535.45984     560.6068   -3949.6752 
12939000    167.13871   -4413.0854   -4126.6154   -4413.0854            0    1820.5256    17.991448    23.615241    21.743057    9238.0244    2063.1887    516.09283    2882.2951   -109.19056    122.03113    -226.6992   -3881.3412 
12940000    182.73267   -4394.3472   -4081.1497   -4394.3472            0    1861.5182    18.119938    23.258796    22.040915    9289.0981    2735.8922    2671.3795     177.2828    484.37179   -562.74273   -500.04179   -3828.9662 
12941000    174.82642   -4399.7773   -4100.1308   -4399.7773            0    2306.6742    17.730943    23.667558    22.034042    9246.5441    2533.5538    2099.7297    2286.7391   -801.97294   -547.13552    388.22798   -3789.0727 
12942000    174.01219   -4401.5133   -4103.2623   -4401.5133            0    1730.9897    18.112814    23.308573    21.953823    9268.5491     1769.841    1850.2219    1572.9063    767.74184    164.59595   -350.42634   -3869.2805 
12943000    173.61575   -4397.9645   -4100.3931   -4397.9645            0    2645.4663    17.794991    23.558646    21.925476    9191.7272    2291.5233    1937.7026    3707.1731    298.80968    65.910842   -563.30472   -3745.7633 
12944000    180.39457   -4397.4577   -4088.2676   -4397.4577            0    1386.4377    18.205613    23.155708    21.922625    9241.7861    884.80569    1726.8352    1547.6721   -243.78993   -54.589048    380.32782   -3901.4008 
12945000    171.01995   -4406.1896   -4113.0672   -4406.1896            0    2299.5702     17.99919    23.426243    21.908748    9237.8978    1993.5207    2001.4358    2903.7539   -1040.3772   -576.92927    987.24015    -3803.257 
12946000    177.80629   -4415.6094   -4110.8555   -4415.6094            0    446.79176    17.930866    23.439772    22.120373    9297.0914    1109.5416   -409.70571     640.5394     55.32453    141.49148   -73.882134   -4050.2756 
12947000    177.19165   -4410.5003   -4106.7999   -4410.5003            0    2102.8813     18.00762    23.347668    21.975237    9239.1794    2308.2319    1147.8561    2852.5559   -103.48371    97.049493   -503.98829   -3823.4494 
12948000    175.22797   -4398.2841   -4097.9494   -4398.2841            0    3308.5011    17.830859    23.331513     21.93342    9124.7618    3794.5147    3771.2495    2359.7392    584.84169    448.82634   -339.93192   -3657.6696 
12949000    189.06509   -4415.5392   -4091.4881   -4415.5392            0    2102.7195    18.065488    23.341314    21.947957    9254.8443    1845.6558    2401.0072    2061.4955   -248.48794   -186.68569    353.57019    -3807.679 
12950000    180.22005   -4420.9421   -4112.0511   -4420.9421            0    1907.1413    17.933614    23.478983    21.959337    9246.2645    2588.0086     1480.115    1653.3002   -250.93499   -325.44171    69.081469   -3854.8783 
12951000    179.01244    -4414.994   -4108.1728    -4414.994            0    1774.3403    18.041562    23.193951    22.105932      9250.34    1918.3452    2459.5958    945.07976   -455.92477    652.16822    106.90737   -3868.8024 
12952000    178.52924   -4410.2101   -4104.2171   -4410.2101            0    2261.4179    18.082534    23.383215    21.866707    9245.8512    2215.9533    1598.2522    2970.0482   -288.29982    993.63601   -385.41724   -3799.2846 
12953000    173.09481   -4419.6215   -4122.9429   -4419.6215            0    1498.8433     17.88061    23.452983    22.080016    9259.3351    2646.6574    1321.5136    528.35872    124.37248   -1.3466674   -651.94562   -3920.5422 
12954000    172.59574   -4417.7551   -4121.9319   -4417.7551            0    2839.0131    18.046613    23.243419    21.941662    9203.7593    2927.8134    2401.8836    3187.3424   -783.10616   -140.63596    586.30715   -3740.8586 
12955000    174.35637   -4427.8355   -4128.9946   -4427.8355            0    3749.6062     17.94373    23.136589    22.002397    9134.4426    2357.9542    4877.4436    4013.4206   -254.62921    446.00817    -125.4383   -3629.4853 
12956000    172.41743   -4419.2535    -4123.736   -4419.2535            0    2077.4105    18.112888    23.292562    21.884476    9232.9635     1915.813    2453.2911    1863.1275   -284.38194   -140.42849    114.44469   -3844.0058 
12957000    179.71201   -4421.5218   -4113.5016   -4421.5218            0    2724.3097    17.922757    23.508681    21.833307    9199.2537    1867.0137    3239.5495    3066.3659   -385.56482   -472.70837    1177.5466   -3748.0036 
12958000    178.52775   -4401.9291   -4095.9387   -4401.9291            0    3096.1374    17.922558    23.155636    22.200252    9213.2875    2050.5672    3775.3714    3462.4735    253.92214    71.295493    319.21261    -3679.922 
12959000     169.7815   -4397.9098   -4106.9101   -4397.9098            0    2464.7054    17.990409    23.407614    21.883331    9215.3454    2335.6407    1555.5776    3502.8981   -380.69127    284.45182    331.90362   -3775.6627 
12960000    178.17479    -4393.608   -4088.2225    -4393.608            0    2691.1664    17.898646    23.280024    22.127611    9220.1531    3676.3041    3118.1244    1279.0707    87.828693    236.81219   -279.75057   -3726.3509 
12961000    183.13792   -4429.1634   -4115.2713   -4429.1634            0    1622.8458    18.019361     23.43292    21.877813    9237.8246    963.10287    1640.8035    2264.6311   -407.68511    -215.4157    347.98228   -3896.6347 
12962000    179.33049   -4412.8436   -4105.4773   -4412.8436            0    2743.6454    18.000864    23.300507    21.958725    9210.1315    1530.0231    3492.1087    3208.8043   -250.06152    60.004811   -640.25427   -3736.9499 
12963000    187.31105   -4415.5364   -4094.4917   -4415.5364            0    3057.8543    17.873071    23.325061    22.106171    9215.8521    4175.4805    1781.7226    3216.3597    243.76699    1454.5462   -250.54174   -3683.5046 
12964000    174.59338   -4414.6023   -4115.3553   -4414.6023            0     1109.592    18.014186     23.55938    21.894609    9292.1389    847.97159    241.27322    2239.5311   -201.32337   -111.99133   -280.10547   -3964.9875 
12965000    175.29245   -4442.7847   -4142.3395   -4442.7847            0    2605.1083     18.08471    23.045763    22.111347    9215.4773    2775.3932    2724.1259    2315.8058   -154.96087   -235.86737   -75.368082   -3792.2174 
12966000    176.18674   -4425.1599   -4123.1818   -4425.1599            0    1065.1429    17.972036    23.542574    21.954941    9289.3107     1685.879    941.96649    567.58309    942.36706   -749.09796    354.09488   -3978.8815 
12967000    179.14088   -4434.7654    -4127.724   -4434.7654            0    2321.7368    17.981176    23.417952    21.934808    9236.3602     2357.215    1124.7179    3483.2777    253.30504    193.88629   -487.47314   -3814.9795 
12968000    178.70335   -4408.1935    -4101.902   -4408.1935            0     2639.935    17.913325    23.318928    22.072011    9219.9101    3420.6458     2248.874    2250.2853    574.76372   -330.24003    627.52025   -3746.9286 
12969000      177.558   -4399.7403    -4095.412   -4399.7403            0    3719.9244    18.262206    23.206594    21.563462    9138.6727    2705.8461    2935.2382    5518.6889   -166.49889   -172.15322     67.13402   -3599.6273 
12970000    181.49987   -4434.5431   -4123.4585   -4434.5431            0     1884.112    17.873443    23.505626    21.975609    9232.5352    2314.0583    763.79043    2574.4873    134.58982    557.54293   -456.09858   -3869.7684 
12971000    171.57582   -4405.0803   -4111.0052   -4405.0803            0     1263.275    18.173821    23.263419    21.941215    9276.4215    1640.3029     696.9685    1452.5535     133.2933    667.98735   -215.42296   -3940.1004 
12972000    173.63894   -4415.8489   -4118.2377   -4415.8489            0    3421.1245    17.925322     23.33735    21.862622    9145.7797    3061.9486    3941.5015    3259.9235    -669.4662    973.44503    557.77446   -3661.9219 
12973000    177.92807   -4425.5156   -4120.5529   -4425.5156            0    1402.4733    17.782066    23.456102    22.234212    9273.8445    2048.4797    1853.7745    305.16587   -215.65501    167.45265    746.00566   -3930.8691 
12974000    177.01308   -4412.4995   -4109.1051   -4412.4995            0    2732.3912    18.085079    23.360339    21.851599    9231.7229    2170.1329    2152.7967     3874.244   -278.19806    185.51883   -124.86663    -3741.229 
12975000    166.43956   -4407.9813   -4122.7096   -4407.9813            0    2576.7024    17.911917    23.358384    22.052109    9226.4573    2006.2452    3465.2061     2258.656    102.20821   -333.14913    79.962558   -3775.9926 
12976000    180.13164   -4417.1426   -4108.4032   -4417.1426            0     1758.998    18.009545    23.302869      22.1165    9281.7218    1781.4814    2056.8885    1438.6241    418.77433   -191.97373     352.5298   -3870.2975 
12977000    192.34332   -4395.7354   -4066.0656   -4395.7354            0    1944.3472    18.091534    23.389031    21.883982     9260.064   -129.00254    2366.6457    3595.3984    417.98384    188.48079    -293.2757   -3803.4843 
12978000    175.94999    -4390.378   -4088.8057    -4390.378            0     2922.609    17.828422    23.323707    22.174387     9220.662    2810.6347    4605.0333    1352.1592    329.49223    504.98641      141.665   -3695.7911 
12979000    181.10631   -4411.6044   -4101.1944   -4411.6044            0    2107.5564    18.080677    23.384345     21.90833    9262.9468     2714.603    946.57154    2661.4946   -301.38545     173.7148   -631.35627   -3816.4834 
12980000    187.97418   -4406.7497   -4084.5684   -4406.7497            0    2408.7834    17.751858    23.598331    22.123301    9267.7654    3622.0543    1690.2592    1914.0369    1.4028652    301.45794    1235.3226   -3758.9951 
12981000     176.3559   -4396.9309   -4094.6629   -4396.9309            0    2617.5582    18.024095    23.189373    22.126209    9248.0354    3322.8445    3521.4861    1008.3438   -480.36979    245.68859    509.16201   -3741.6247 
12982000    177.03733   -4412.5214   -4109.0855   -4412.5214            0    2477.1028    18.090205    23.565882    21.665539    9236.2714    3665.3546    1644.0693    2121.8847   -156.02968    -41.28283   -27.193264   -3775.4159 
12983000    167.22552   -4405.9235   -4119.3047   -4405.9235            0    2199.2903    17.968884    23.245296    22.117517    9238.3106    1388.2279    3094.8805    2114.7624    346.61288   -734.16284    228.83272   -3822.9915 
12984000     180.1906   -4397.9651   -4089.1246   -4397.9651            0    3075.1342    17.971113    23.419491    21.848858    9195.6233    3966.5346    2058.2475    3200.6205    1264.8865   -375.77042   -332.61232   -3676.7222 
12985000    177.98365   -4428.5157   -4123.4578   -4428.5157            0    1906.1024    18.042525    23.296956    22.002716    9248.5316    1630.9981    1526.5906    2560.7186    294.26996   -295.35242    304.12355   -3866.3621 
12986000     173.6506   -4408.4365   -4110.8053   -4408.4365            0    2253.5691    17.945387     23.25338     22.13793     9237.957    2404.2036    2399.0346    1957.4692   -120.58842   -207.16009    127.32973   -3807.1907 
12987000    183.26574   -4424.1728   -4110.0616   -4424.1728            0    1331.4287    18.063541     23.54478     21.86651    9299.8725    1088.8485   -52.893146    2958.3308    -518.4311    650.76478    35.703737   -3929.4811 
12988000    177.41155   -4401.4849   -4097.4075   -4401.4849            0    1564.3021    17.967583    23.203112    22.285415     9290.875    1656.5771    174.83043    2861.4988   -152.91022    56.896888    405.98009   -3885.4479 
12989000    177.00887   -4411.7517   -4108.3646   -4411.7517            0    1705.3261    18.037381    23.506494    21.846705    9262.9066    566.05595    1280.2642    3269.6581    119.93105     737.3432   -171.73271   -3877.9921 
12990000    169.94711   -4395.2488   -4103.9653   -4395.2488            0    2142.6013    17.990943    23.278322    22.029498    9225.9313    2398.4703     2248.724    1780.6094   -185.50066   -37.403341    505.36956   -3815.6767 
12991000    180.51779   -4435.7976   -4126.3963   -4435.7976            0     2242.751    17.844175     23.43159    22.132512    9253.9882    3039.7324    1203.4379    2485.0826    719.44458   -75.476998   -79.542813   -3823.7147 
12992000    184.25707   -4418.6762   -4102.8659   -4418.6762            0    1803.0917    18.058561    23.334842    21.807575    9189.5742    749.51152    1719.5264    2940.2373     800.0277   -388.65568   -14.287751   -3861.2146 
12993000    178.82531   -4396.5861   -4090.0857   -4396.5861            0    3207.1014    17.789858    23.340432    22.185945    9212.1141    2736.5569    4817.5273      2067.22   -471.60546   -324.30513    695.32581   -3659.2141 
12994000    183.03515     -4412.31   -4098.5941     -4412.31            0    1271.4651    18.041651    23.412869    21.910521    9255.1531    1617.0115    942.90931    1254.4744   -691.61805   -181.36239   -292.39253   -3926.9756 
12995000    189.65617   -4415.4295   -4090.3653   -4415.4295            0     1401.601    17.995152    23.370234    22.097287    9293.0341     1732.858    1194.6629     1277.282    606.02646   -331.94475    266.61547   -3900.4072 
12996000    178.51952   -4417.6191   -4111.6427   -4417.6191            0    2507.5017     17.90014    23.359397    21.990391    9194.9842     1646.142    2694.7515    3181.6116    69.690491   -776.47425   -246.69855   -3775.3882 
12997000    175.00744   -4411.1997   -4111.2429   -4411.1997            0    2011.8268    18.202682    23.245717    21.798566    9223.7231     631.0997    2624.7982    2779.5825    -83.15028   -177.76588   -551.94203   -3840.6149 
12998000    187.00736   -4410.8852    -4090.361   -4410.8852            0    1121.4018    17.817256     23.61687    22.063174    9283.9147    1794.6441   -23.568007    1593.1294   -745.12934   -729.86721    575.80788   -3938.5273 
12999000    171.83722   -4422.7909   -4128.2678   -4422.7909            0    1282.3099    18.114191    23.278987    21.991247    9273.2696    1537.6693    2304.7984    4.4621255   -343.03348   -496.66997    246.76399   -3954.8468 
13000000    184.92308     -4398.45   -4081.4982     -4398.45            0    1458.8961    18.029415    23.406184    22.007648    9287.2231    738.56301     1957.683    1680.4424    318.17082   -100.40778   -23.583264   -3883.8985 
Loop time of 351.073 on 64 procs for 250000 steps with 864 atoms

Performance: 123.051 ns/day, 0.195 hours/ns, 712.102 timesteps/s
194.1% CPU use with 32 MPI tasks x 2 OpenMP threads

MPI task timing breakdown:
Section |  min time  |  avg time  |  max time  |%varavg| %total
---------------------------------------------------------------
Pair    | 16.793     | 24.757     | 32.918     | 100.1 |  7.05
Bond    | 0.78021    | 0.99156    | 1.1744     |  10.3 |  0.28
Kspace  | 174.41     | 184.73     | 193.01     |  40.5 | 52.62
Neigh   | 0.98545    | 1.0708     | 1.2111     |   5.8 |  0.31
Comm    | 51.191     | 56.793     | 60.932     |  29.7 | 16.18
Output  | 0.56133    | 0.5616     | 0.56329    |   0.0 |  0.16
Modify  | 62.984     | 65.588     | 70.226     |  20.0 | 18.68
Other   |            | 16.58      |            |       |  4.72

Nlocal:        27.0000 ave          37 max          18 min
Histogram: 4 5 5 2 0 3 3 2 5 3
Nghost:        2119.97 ave        2221 max        2026 min
Histogram: 13 3 0 0 0 0 0 0 11 5
Neighs:        6544.03 ave        8993 max        4473 min
Histogram: 6 5 3 2 0 3 3 4 4 2

Total # of neighbors = 209409
Ave neighs/atom = 242.37153
Ave special neighs/atom = 2.0000000
Neighbor list builds = 3786
Dangerous builds = 0

unfix		3
unfix		2
unfix		1

write_data	data.final.${pid} nocoeff
write_data	data.final.1 nocoeff
System init for write_data ...
PPPM initialization ...
  extracting TIP4P info from pair style
  using 12-bit tables for long-range coulomb (../kspace.cpp:340)
  G vector (1/distance) = 0.37168439
  grid = 24 27 25
  stencil order = 5
  estimated absolute RMS force accuracy = 0.0031596326
  estimated relative force accuracy = 9.5151396e-06
  using double precision FFTW3
  3d grid and FFT values/proc = 4410 672
Last active /omp style is kspace_style pppm/tip4p/omp

write_restart   restart.lmp.${pid}
write_restart   restart.lmp.1
System init for write_restart ...
PPPM initialization ...
  extracting TIP4P info from pair style
  using 12-bit tables for long-range coulomb (../kspace.cpp:340)
  G vector (1/distance) = 0.37168439
  grid = 24 27 25
  stencil order = 5
  estimated absolute RMS force accuracy = 0.0031596326
  estimated relative force accuracy = 9.5151396e-06
  using double precision FFTW3
  3d grid and FFT values/proc = 4410 672
Last active /omp style is kspace_style pppm/tip4p/omp
Total wall time: 0:05:51
