LAMMPS (30 Jul 2021)
  using 1 OpenMP thread(s) per MPI task
package omp 0
using multi-threaded neighbor list subroutines
echo both

include		in.partitions
variable        pid world 0
include		in.temp
variable        temperature equal 255.46
variable	tempDamp equal 100.0
include		in.pressure
variable        pressure equal 10000.0
variable        pressureDamp equal 1000.0 # This is 1 ps
include		in.seed
variable        seed world 745823

units		real
atom_style	full

read_restart	restart.lmp.${pid}
read_restart	restart.lmp.0
Reading restart file ...
  restart file = 30 Jul 2021, LAMMPS = 30 Jul 2021
  restoring atom style full from restart
  orthogonal box = (0.11176834 0.23201260 0.048649371) to (19.888233 19.767988 20.651349)
  4 by 4 by 4 MPI processor grid
  restoring pair style lj/cut/tip4p/long/omp from restart
  restoring bond style harmonic/omp from restart
  restoring angle style harmonic/omp from restart
  972 atoms
  648 bonds
  324 angles
Finding 1-2 1-3 1-4 neighbors ...
  special bond factors lj:    0        0        0       
  special bond factors coul:  0        0        0       
     2 = max # of 1-2 neighbors
     1 = max # of 1-3 neighbors
     1 = max # of 1-4 neighbors
     2 = max # of special neighbors
  special bonds CPU = 0.528 seconds
  read_restart CPU = 0.698 seconds
include 	in.setup
variable	out_freq equal 1000
variable	out_freq2 equal 10000
variable	out_freq3 equal 1000

timestep	2.0

neigh_modify    delay 7 every 1

include		in.tip4p
# This is TIP4P/Ice

# create groups ###
group ox type 2
324 atoms in group ox
group hy type 1
648 atoms in group hy

# set charges - beside manually ###
set group ox charge -1.1794
Setting atom values ...
  324 settings made for charge
set group hy charge 0.5897
Setting atom values ...
  648 settings made for charge

# ### TIP3P Potential Parameters ###
pair_style lj/cut/tip4p/long/omp 2 1 1 1 0.1577 8.5
pair_coeff 1 1*2 0.000 0.000
pair_coeff 2 2 0.21084 3.1668
bond_style  harmonic
bond_coeff  1 450 0.9572
angle_style harmonic
angle_coeff 1 55 104.52
kspace_style pppm/tip4p/omp 1.0e-5
pair_modify tail yes

thermo          ${out_freq}
thermo          1000
thermo_style    custom step temp pe etotal epair emol press lx ly lz vol pxx pyy pzz pxy pxz pyz enthalpy

restart 	${out_freq3} restart.lmp.${pid} restart2.lmp.${pid}
restart 	1000 restart.lmp.${pid} restart2.lmp.${pid}
restart 	1000 restart.lmp.0 restart2.lmp.${pid}
restart 	1000 restart.lmp.0 restart2.lmp.0


include         in.dump
dump            myDump all atom ${out_freq2} dump.water.${pid}
dump            myDump all atom 10000 dump.water.${pid}
dump            myDump all atom 10000 dump.water.0
dump            myDump2 all dcd ${out_freq2} dump.dcd
dump            myDump2 all dcd 10000 dump.dcd
dump_modify     myDump append yes
dump_modify     myDump2 append yes


variable natoms 	equal  "count(all)"                        # NUMBER ATOMS
variable H      	equal  "enthalpy/v_natoms"                 # ENTHALPY-per-atom
variable Vol      	equal  "vol/v_natoms"                 # volume-per-atom
fix AVG all 		ave/time ${out_freq} 1 ${out_freq} v_Vol v_H file vol_enthalpy.dat
fix AVG all 		ave/time 1000 1 ${out_freq} v_Vol v_H file vol_enthalpy.dat
fix AVG all 		ave/time 1000 1 1000 v_Vol v_H file vol_enthalpy.dat


timer           timeout 02:55:00 every 1000
New timer settings: style=normal  mode=nosync  timeout=02:55:00

fix 		1 all shake 1e-6 200 0 b 1 a 1
       0 = # of size 2 clusters
       0 = # of size 3 clusters
       0 = # of size 4 clusters
     324 = # of frozen angles
  find clusters CPU = 0.065 seconds
fix             2 all nph aniso ${pressure} ${pressure} ${pressureDamp}
fix             2 all nph aniso 10000 ${pressure} ${pressureDamp}
fix             2 all nph aniso 10000 10000 ${pressureDamp}
fix             2 all nph aniso 10000 10000 1000
fix             3 all temp/csvr ${temperature} ${temperature} ${tempDamp} ${seed}
fix             3 all temp/csvr 255.46 ${temperature} ${tempDamp} ${seed}
fix             3 all temp/csvr 255.46 255.46 ${tempDamp} ${seed}
fix             3 all temp/csvr 255.46 255.46 100 ${seed}
fix             3 all temp/csvr 255.46 255.46 100 745823


run             250000
PPPM initialization ...
  extracting TIP4P info from pair style
  using 12-bit tables for long-range coulomb (../kspace.cpp:340)
  G vector (1/distance) = 0.37235396
  grid = 24 24 24
  stencil order = 5
  estimated absolute RMS force accuracy = 0.0034933612
  estimated relative force accuracy = 1.0520154e-05
  using double precision FFTW3
  3d grid and FFT values/proc = 2197 216
Last active /omp style is kspace_style pppm/tip4p/omp
Neighbor list info ...
  update every 1 steps, delay 7 steps, check yes
  max neighbors/atom: 2000, page size: 100000
  master list distance cutoff = 10.8154
  ghost atom cutoff = 10.8154
  binsize = 5.4077, bins = 4 4 4
  1 neighbor lists, perpetual/occasional/extra = 1 0 0
  (1) pair lj/cut/tip4p/long/omp, perpetual
      attributes: half, newton on, omp
      pair build: half/bin/newton/omp
      stencil: half/bin/3d
      bin: standard
Per MPI rank memory allocation (min/avg/max) = 9.226 | 9.229 | 9.231 Mbytes
Step Temp PotEng TotEng E_pair E_mol Press Lx Ly Lz Volume Pxx Pyy Pzz Pxy Pxz Pyz Enthalpy 
24250000    270.33628   -4687.9348   -4166.5686   -4687.9348            0    11284.904    19.776464    19.535976    20.602699    7959.9049     12696.89    11981.903    9175.9178    944.03871    99.373886   -1253.0166   -2856.5374 
24251000     247.9352    -4700.052   -4221.8881    -4700.052            0    9684.1354    19.692271    19.963692    20.433326    8032.9626    8032.6074    10436.041    10583.758    35.650982    127.87366   -836.12982   -3087.3673 
24252000    266.91724   -4721.3465   -4206.5741   -4721.3465            0    9190.9502    19.905489    19.742666    20.359313     8000.954    6614.7319    12149.146    8808.9724   -789.24654    208.85315    316.33931   -3134.1216 
24253000    255.73978   -4718.9079   -4225.6922   -4718.9079            0    8818.9281    19.668752    19.904382    20.545789    8043.5605    9119.6521    8352.6246    8984.5078    -286.7444     373.8997   -687.27476   -3191.1695 
24254000    248.03121    -4733.663    -4255.314    -4733.663            0    9510.9372    19.934501    19.695197    20.355304    7991.7758    7071.2304    11330.941     10130.64   -41.643182   -419.99769    857.18352   -3146.7966 
24255000    265.51102   -4727.0273   -4214.9669   -4727.0273            0    8682.7155    19.863201    20.082619    20.138828    8033.4811    8721.3846    7570.9045    9755.8573   -745.28059    1958.1251    1275.1056   -3197.6993 
24256000    250.76818   -4678.4833   -4194.8558   -4678.4833            0    11400.721    19.681796    19.790809    20.531537    7997.4168    10796.315    12723.596    10682.252    322.43106    1254.3954    314.30604   -2865.1427 
24257000     252.8079   -4699.7706   -4212.2093   -4699.7706            0    9796.3472    19.888133    19.669933    20.505701     8021.794    8164.0784    11412.991    9811.9723     233.7794    891.91044    238.44369   -3066.1382 
24258000     254.7791    -4699.074    -4207.711    -4699.074            0    9187.9031    20.023389    19.725405    20.395244    8055.4982     8084.052    10418.917    9060.7407    609.16839    35.350608    844.68481   -3128.3053 
24259000     261.9256   -4683.5529   -4178.4074   -4683.5529            0    11346.734    19.673793    19.743443    20.508463    7966.0695    12748.292    10745.007    10546.901   -85.242392    -952.6629   -270.21946   -2860.1784 
24260000    265.41234   -4704.7885   -4192.9185   -4704.7885            0    8936.8791    19.950242    19.896692    20.301812    8058.6788     10594.14    7073.1373    9143.3596    28.436656   -374.87165    365.33439   -3142.5889 
24261000    258.09141   -4712.1272   -4214.3762   -4712.1272            0    11267.532     19.83877    19.601914    20.428229    7944.0858    10015.926    11749.359    12037.311    184.26411   -501.31875    1421.3018   -2908.9611 
24262000    264.98256   -4672.0423   -4161.0011   -4672.0423            0    11827.833    20.024753    19.467369    20.422958    7961.4664    9489.9807    13628.895    12364.623   -12.942509    370.92698     615.7863   -2787.6736 
24263000    262.21357   -4685.6396   -4179.9387   -4685.6396            0    8647.2431     19.76857    20.084575    20.267921    8047.2424    8242.4297    8528.4209    9170.8788   -677.93147   -774.39517    267.19364   -3165.0915 
24264000    248.09876   -4706.0992   -4227.6199   -4706.0992            0    10690.956    19.917956    19.677549    20.424309    8005.0335    9926.7087    12331.844    9814.3159    681.56872   -938.28814    409.11243    -2979.502 
24265000     260.2761   -4726.4316   -4224.4672   -4726.4316            0    7594.0224    19.708181    20.004572     20.47321    8071.6393    6306.3197    8077.5768    8398.1706    168.55075     678.6044   -168.77878   -3330.5249 
24266000     255.6272   -4694.4272   -4201.4287   -4694.4272            0    11463.974    19.869523    19.599125    20.412242    7949.0428    10457.505    11800.359    12134.057    145.27134   -622.63418    194.49837   -2872.4258 
24267000    252.82927   -4696.5411   -4208.9386   -4696.5411            0    8963.3577    19.796644    19.549145    20.584207    7966.2419    9578.8168    9332.6302    7978.6261    203.25098     256.0157   -616.25468   -3167.5805 
24268000    244.98505   -4729.9994   -4257.5251   -4729.9994            0    8601.7103    19.730753    20.035962    20.428934    8076.0605    10065.641    6940.3654     8799.125    160.57298    856.12995    631.04867   -3244.4066 
24269000    248.48905   -4694.7724   -4215.5404   -4694.7724            0    10841.591    19.791019    19.615879    20.560633    7982.0129    12030.877    10296.782    10197.112   -732.19983    818.07699   -1975.3064   -2953.4766 
24270000    265.03414   -4731.4685   -4220.3279   -4731.4685            0    9512.3912    19.564528    19.831385    20.610415    7996.6701    6643.8414    10550.179    11343.153   -913.37362    29.723634    263.29065   -3110.9621 
24271000    242.57358   -4712.3009   -4244.4773   -4712.3009            0    9362.6996     19.88617    19.401291    20.715715    7992.4826    8971.3453    9685.0639    9431.6895   -48.599322    637.97225   -567.98532   -3153.1409 
24272000    259.77863   -4705.7338   -4204.7288   -4705.7338            0    10484.951     19.67666    19.615086    20.609669    7954.4946    13554.881    9169.2327    8730.7403    854.89845    685.55351   -899.07382   -2988.3891 
24273000    241.19322   -4698.6836   -4233.5222   -4698.6836            0    12180.032    19.810553    19.670912    20.334493    7924.1822    10278.872    12983.684    13277.539   -272.63835   -602.57355    39.805151   -2825.9238 
24274000    263.89934   -4675.9749   -4167.0229   -4675.9749            0    10247.555     19.58712    19.914289    20.555644    8018.0077    10481.642    9628.3045    10632.717    235.19881   -1256.5215    208.73958    -2968.731 
24275000    260.75815   -4680.8229   -4177.9289   -4680.8229            0    10909.694     19.88178    19.640682    20.447905    7984.7372    8759.1658    13187.039    10782.879    35.095619   -268.51501   -57.007122   -2907.5037 
24276000    269.09004   -4702.9721   -4184.0094   -4702.9721            0    10106.665    19.663636    19.842765    20.504652    8000.5238     10378.37    10060.634    9880.9897    1235.2788   -397.69394   -429.81352   -3004.7695 
24277000    267.51348   -4690.5449   -4174.6226   -4690.5449            0    11773.908    19.836154    19.731054    20.427567    7995.1089    10780.173    12174.716    12366.834    85.939884   -405.80282    31.990869   -2801.7795 
24278000    253.57697   -4711.2538   -4222.2093   -4711.2538            0    10861.912    19.686218    20.038148    20.204807    7970.2987    11486.789    9219.9931    11878.956   -946.71009    346.72696    156.47415   -2959.6355 
24279000    261.40122   -4704.4763   -4200.3421   -4704.4763            0    10119.819    19.800389    19.848811    20.421642    8025.9951    10408.084    9005.6097    10945.763   -280.87275    478.72311    2531.5046   -3015.8081 
24280000    258.78101   -4697.4324   -4198.3515   -4697.4324            0    7994.5557    19.740633    19.810242    20.642326    8072.5264    9095.0466    8089.6834    6798.9372   -65.295503   -250.73226    310.05195   -3257.1563 
24281000    265.55157   -4700.2204   -4188.0818   -4700.2204            0    9733.9786    19.789605    19.893351    20.415608    8037.2485    10288.212    9696.9095    9216.8139    531.05455    1391.2266    473.85607   -3047.1133 
24282000    264.74747    -4725.237   -4214.6492    -4725.237            0    7708.4174    20.032772    19.705853    20.497337    8091.5875    7439.9015    8643.3017    7042.0491    198.81032    306.17145   -1300.5555   -3304.9981 
24283000    268.02513   -4738.1472   -4221.2382   -4738.1472            0    7351.2543    19.863074    19.920324    20.493967    8109.0295    7651.5167    7086.4043    7315.8419   -7.8458036    138.76107   -125.95899    -3351.865 
24284000    242.91351   -4708.7591     -4240.28   -4708.7591            0    11119.559    19.827505    19.696878    20.470672    7994.6152    10408.511    12002.925    10947.241   -206.51563    1135.0576   -398.56988   -2943.8143 
24285000    248.90672   -4741.2141   -4261.1766   -4741.2141            0    8536.0249     19.94288    19.625673    20.495241    8021.6825    9177.2343    7727.3141    8703.5262    385.10628    903.98672   -1045.4352    -3262.564 
24286000      252.781   -4741.1573   -4253.6479   -4741.1573            0    8039.5153    19.853907    19.979148    20.399898     8091.908     6385.076    8474.9336    9258.5364    -594.7527    1278.1966   -438.63795   -3304.8872 
24287000    250.22597   -4695.5418   -4212.9599   -4695.5418            0    11047.674    19.814148    19.809711    20.363478    7992.9205    10636.901    11769.941    10736.181   -67.796352    708.00459   -1356.5893   -2925.1486 
24288000    268.38147   -4720.6242    -4203.028   -4720.6242            0    7280.6651    19.992315    19.521916    20.568866    8027.7878    8215.9031     5873.211    7752.8811    432.39974    413.63141   -74.164853   -3350.6292 
24289000    261.12021   -4732.8893    -4229.297   -4732.8893            0    10762.302    19.849322    19.802896    20.275981    7969.9618    9903.3978     11637.29     10746.22    240.41672   -355.58764   -168.32222   -2978.3546 
24290000    252.27405   -4713.8974   -4227.3657   -4713.8974            0    8270.6636    19.952642    19.610275    20.637114     8074.824    6711.0339    10688.602    7412.3553   -236.11875     677.7165    1271.3093   -3253.3873 
24291000    260.91541   -4713.6067   -4210.4094   -4713.6067            0    11671.934    19.620727    19.888526    20.465932    7986.3664    13381.499    10934.631    10699.671    216.50516    452.65211    -487.7613   -2850.9447 
24292000    265.14048   -4739.8385   -4228.4928   -4739.8385            0    9208.0333    19.798953    19.928584    20.348489    8028.8035    9352.3501    9243.7579    9027.9918    428.57058   -27.311732    993.76593    -3150.307 
24293000    247.27773   -4665.6337   -4188.7378   -4665.6337            0    11033.278    19.879186    19.761103    20.340342    7990.3908    9980.9211    11511.784     11607.13   -12.488865   -826.49738    -28.14695   -2903.0117 
24294000    259.33914   -4742.6159   -4242.4586   -4742.6159            0    9798.2705    19.812484     19.75917    20.384027    7979.9033    9348.9252    10177.064    9868.8226    685.13303    498.93858    408.05409   -3102.1486 
24295000    248.03402   -4723.0541   -4244.6996   -4723.0541            0    10793.813    19.812615    19.926577    20.053573    7917.1027    9195.3175    10739.463    12446.657    288.10903    19.569603    1055.5927   -2998.4156 
24296000     251.9696   -4720.2724   -4234.3278   -4720.2724            0    9847.9697    19.722154    19.792976    20.471559    7991.2804    9336.2359    8933.1795    11274.494   -323.84363    1142.7212   -1270.5543   -3086.5999 
24297000    254.76853   -4711.1764   -4219.8339   -4711.1764            0    10138.641     19.56601    19.911548    20.536186    8000.6835    11027.504    8995.1024    10393.316   -418.68893    1837.0123    916.37817   -3036.8394 
24298000    248.49173   -4719.3065   -4240.0694   -4719.3065            0     10984.69      19.8383    19.907236    20.158215    7960.9973    10498.276    11562.502    10893.293   -787.41663   -350.70411    386.52607   -2964.7141 
24299000    255.10626   -4695.6632   -4203.6693   -4695.6632            0    9288.9452      19.7103    19.927262    20.418129    8019.6759     9794.758    9052.6205    9019.4571    174.60498    1280.9075    203.76283   -3117.2459 
24300000    245.86059   -4726.7448    -4252.582   -4726.7448            0    9496.6169    19.919967    19.644532    20.660222    8084.7257    8844.3169     10152.13    9493.4034    145.38802    704.06975   -609.52688   -3132.8603 
24301000    280.06793   -4686.7019   -4146.5673   -4686.7019            0    9249.8573    19.679629    19.875552    20.477753    8009.7397    9910.6802    7977.1385    9861.7531   -366.15404    1640.2638    2242.1911    -3066.056 
24302000    250.80374   -4722.4518   -4238.7557   -4722.4518            0    10184.094    19.832324    19.607196    20.556718    7993.6083    8895.6046    12833.916    8822.7601     -594.427    234.99394   -61.534164   -3051.5085 
24303000    258.36745   -4750.0551   -4251.7718   -4750.0551            0     11015.89    19.593903    19.887437    20.506383    7990.7734    11416.008    11132.657    10499.006   -1005.8698    395.18164    1559.6953   -2968.0104 
24304000    267.75564   -4703.1044   -4186.7151   -4703.1044            0    9220.3556    19.898772    20.056195    20.162183    8046.5991     7762.674    9105.2172    10793.176    197.88743   -598.65958      55.2027   -3104.6935 
24305000    265.57557   -4719.5404   -4207.3555   -4719.5404            0    10549.594    19.839747    19.803658     20.33893    7991.1567    9609.6598    12191.391    9847.7323   -68.128985    216.65351   -1407.0828    -2977.876 
24306000     256.3688   -4639.5993   -4145.1705   -4639.5993            0    11517.398    19.705016    19.400705     20.71978    7920.9897    11867.187    12353.687    10331.321   -172.65885    45.558377   -1077.6676   -2814.6863 
24307000    246.56063   -4716.7193   -4241.2064   -4716.7193            0    9819.1739    19.502356    19.899846    20.618848    8002.0488    10336.495    9579.4136    9541.6134    1657.8122    456.53013   -174.14684   -3095.2924 
24308000    247.43708   -4691.2818   -4214.0786   -4691.2818            0    9417.8373    20.006347    19.543145    20.477823    8006.5612    9330.7019    9821.7312    9101.0789     -850.582    55.278353    149.82478   -3114.3815 
24309000    256.34798   -4724.3438   -4229.9552   -4724.3438            0    9334.1217    19.818363    19.909891    20.362145    8034.5243    8558.6417    10233.475    9210.2483    79.305995    212.71511    1487.6908   -3136.2267 
24310000    262.61623   -4716.8902   -4210.4127   -4716.8902            0     10285.91    19.816619    19.812145    20.249605    7950.1919    8457.7856    11558.443    10841.503   -6.8735388    151.74831    725.55841   -3017.8087 
24311000    251.77133   -4685.6968   -4200.1346   -4685.6968            0    11220.841    19.775305    19.652965    20.490062    7963.3272    9389.4299     12818.96    11454.134   -547.15021     471.5213   -976.83515   -2896.9802 
24312000    279.84176   -4719.6932   -4179.9948   -4719.6932            0    8275.9093    19.830488    19.910254    20.523151    8103.1569    8079.3642    8683.3825     8064.981   -531.41671    280.05567   -239.41517   -3201.9791 
24313000    266.61918   -4700.2988   -4186.1013   -4700.2988            0    9163.1855    19.847634    19.749292    20.356535    7979.2878    8115.9427    10392.614    8980.9999    -68.49987   -1598.3159    1065.3631   -3119.7839 
24314000    253.99653    -4707.817   -4217.9633    -4707.817            0     9737.926    19.678392    20.002912    20.397566    8028.9946    12455.553    8304.5516    8453.6735   -290.81104    75.975702    928.78006   -3077.7043 
24315000    258.89328   -4713.7848   -4214.4874   -4713.7848            0    10413.217    19.518441    19.824719    20.465563    7919.1002     11679.69    10588.542    8971.4187    116.87189    640.24717    892.18347   -3011.8446 
24316000    266.09742   -4682.2368   -4169.0455   -4682.2368            0    9430.0331    19.698008    19.741271    20.646372    8028.6248    7543.2752    12491.797    8255.0274    343.52803   -656.84008    640.73812     -3064.89 
24317000    240.68193   -4691.0995   -4226.9241   -4691.0995            0     10926.42    19.799852    19.995881    20.229502    8009.1728    10269.287    10804.238    11705.735     303.4163    113.86057    312.71996   -2950.6574 
24318000    256.30365   -4715.8893   -4221.5861   -4715.8893            0    9554.4586    19.849301    19.926392    20.262291    8014.2414    9255.1711    8752.8107    10655.394    237.51053    -106.9388   -381.77154   -3104.8659 
24319000    246.40451   -4724.4689    -4249.257   -4724.4689            0    11041.013    19.854059    19.719341    20.396111      7985.26    11430.217    10062.375    11630.447   -131.77012    911.34298   -1526.4468   -2963.4557 
24320000    254.89588   -4696.0857   -4204.4976   -4696.0857            0     10469.08    19.799601    19.769273    20.491896    8021.0142    9897.6389    11743.052    9766.5496    -324.0632    880.36376   -1664.1953   -2979.8428 
24321000    258.43965   -4704.5243   -4206.1017   -4704.5243            0    9693.4755    19.863742    19.724851     20.36591    7979.5538    11605.716    8946.4033    8528.3071    275.49636    839.96332     85.12779    -3078.037 
24322000    263.57607   -4664.2767   -4155.9481   -4664.2767            0    8277.4507    20.136174     19.60893    20.433757    8068.2446    7077.9729     8879.114    8875.2653     898.0779    698.72399   -1503.5767   -3181.9647 
24323000    250.68024   -4732.9715   -4249.5136   -4732.9715            0     9357.911    19.627292    19.898116    20.513111    8011.3162    10043.807    9326.6924    8703.2341   -311.83821    450.56916   -639.73635   -3156.1649 
24324000      258.308   -4741.5583   -4243.3896   -4741.5583            0    9453.4224    20.100869    19.811148    20.205852    8046.4002    7872.4012    9570.8402    10917.026    147.43962   -159.80523     546.5626   -3134.0447 
24325000    243.80902     -4700.34   -4230.1338     -4700.34            0    9417.6884    19.750365    19.967281    20.385515    8039.2538    7453.7044    11640.751    9158.6097   -103.62956    1225.0249   -41.072874   -3125.9638 
24326000    263.60961   -4728.3152   -4219.9219   -4728.3152            0    9918.2954    19.811987    19.659741    20.540556    8000.5164    8120.5746    11721.425     9912.887    310.48788    171.11076   -206.85601   -3062.6619 
24327000    241.61518   -4737.9512    -4271.976   -4737.9512            0    8055.4037     19.82736    19.876883    20.531085    8091.4259    6696.6281    9500.6268    7968.9561    -273.9285   -869.25554    1573.2634   -3321.3969 
24328000    271.07595   -4698.5311   -4175.7384   -4698.5311            0    9345.7816    19.927184    19.810442    20.261956     7998.738    8482.0784    8772.3589    10782.908    1241.6613   -534.73832   -896.79878   -3085.5213 
24329000    257.18595   -4726.7297    -4230.725   -4726.7297            0    10143.732    19.744793    19.991144    20.264325    7998.7545     12474.59     7105.951    10850.656   -36.859548    1486.5921    877.97898   -3047.4218 
24330000    266.12452   -4703.5247   -4190.2812   -4703.5247            0    10246.263    19.702931     19.65714    20.631123    7990.5016    9529.3522    12788.787    8420.6495   -330.63515    1146.0673    821.72556   -2996.2507 
24331000    269.76861   -4729.9429   -4209.6715   -4729.9429            0    9418.2954    19.637413    19.942699    20.479646    8020.3008    9587.9672    8365.5058    10301.413    254.14963   -160.60991   -610.57687   -3108.0336 
24332000    239.26618   -4695.1227   -4233.6778   -4695.1227            0    12249.399    19.866359    19.781942    20.233978    7951.8556    15211.929    10734.705    10801.564    1296.9733    912.06035   -234.42829   -2813.1191 
24333000    259.05896   -4703.4173   -4203.8003   -4703.4173            0    10579.756    19.926804      19.8525    20.253766    8012.3268    8448.0316    12516.363    10774.872    481.76397   -40.118689    307.47421   -2967.5393 
24334000     272.5808   -4684.1417   -4158.4467   -4684.1417            0    10632.684    19.529302    19.968631    20.315251    7922.4079    12098.187    8358.2982    11441.566   -646.07955    2110.8902   -78.932155   -2929.9444 
24335000    253.09317   -4710.9571   -4222.8456   -4710.9571            0    9746.2041    19.871878     19.55733    20.433013    7941.1042    10874.646     9248.664    9115.3023    801.98089    463.28858   -844.71156   -3094.1098 
24336000     257.2861   -4717.1902   -4220.9923   -4717.1902            0    10626.734    19.404762     19.84167    20.649473    7950.5196    13205.316    7877.1295    10797.756   -66.890553   -716.82388   -748.86585   -2988.8207 
24337000    251.36589   -4712.7329   -4227.9526   -4712.7329            0    10348.967    19.816014    19.849622    20.315727    7990.9957    9731.5061    10349.807    10965.587   -341.01461    -808.1684    2017.1458   -3021.8791 
24338000    252.62937   -4712.6789   -4225.4619   -4712.6789            0    10067.602     19.72645    19.877015    20.557039    8060.4755    10311.155    10350.873    9540.7769   -118.92891    43.209989    901.93789   -3041.9774 
24339000     252.1049   -4744.5084   -4258.3029   -4744.5084            0     11184.34    19.600413    19.659225    20.585007    7931.9984    11162.325    11497.138    10893.556    165.19602   -194.86282    1118.7281   -2964.4978 
24340000    265.35575   -4736.1125   -4224.3516   -4736.1125            0    10878.445    19.723697    19.914722    20.346791    7992.0553    8837.1038    11096.725    12701.505    773.22127    103.80726    1795.9373   -2956.4044 
24341000     242.4535     -4700.34   -4232.7481     -4700.34            0    10827.122    19.985458    19.544933    20.473868    7997.3886    11460.845    10512.758    10507.763    848.31618   -728.32884    1193.3695   -2969.9407 
24342000    256.73285   -4721.2679    -4226.137   -4721.2679            0    10687.674    19.791474    19.823988    20.393396    8001.2662    9758.6808    11620.352    10683.991    -118.1295   -1845.6749   -1458.4779   -2978.9895 
24343000    262.42181   -4706.2468   -4200.1443   -4706.2468            0    8833.0257     19.87957    20.027262    20.174961     8032.325    7125.6788    9805.2906    9568.1076   -1020.9101    1613.2892    414.02689   -3165.4152 
24344000    254.99896   -4712.3564   -4220.5695   -4712.3564            0    9426.3605    19.724734    19.795467    20.456637    7987.5051    10189.043    10176.114    7913.9249    621.33155    35.162007   -701.15376   -3122.4968 
24345000    248.50084   -4738.7179   -4259.4632   -4738.7179            0    8567.0684    19.522439    19.780386    20.701658    7994.1806     10886.84    7389.0843    7425.2812   -281.47608   -21.663741    868.41208    -3260.655 
24346000    258.00055   -4704.7164   -4207.1406   -4704.7164            0    11134.021    19.856128    19.816847    20.309356    7991.4441    10289.254    10510.972    12601.837   -207.37073    1282.6379    506.52437   -2909.5037 
24347000     256.6336   -4723.0165    -4228.077   -4723.0165            0    9680.6649    19.768537    20.013062    20.305927    8033.6125    9352.8622    9819.0259    9870.1067   -1214.0743   -1008.0842    1272.4658   -3093.8709 
24348000    256.42044   -4716.0407   -4221.5123   -4716.0407            0    9057.7559    19.813309    19.619566    20.544015    7986.0444    8158.2324     10582.61    8432.4253   -325.41739    1651.8231   -469.66694   -3166.5712 
24349000    247.47368   -4699.1094   -4221.8356   -4699.1094            0    9590.6159    19.816461    19.657798    20.438445    7961.7552    9820.6795     9647.554    9303.6142    479.38778    899.02789    918.31521   -3108.2305 
24350000    249.73497   -4709.4108   -4227.7759   -4709.4108            0    8085.6673    20.194839    19.902814    20.212171    8123.9614    7288.6006    8052.4693    8915.9319   -298.77276    -719.1747    1205.2488   -3269.7889 
24351000    247.09476   -4723.5229   -4246.9799   -4723.5229            0    9805.9667    19.857638    19.743812    20.307012    7961.6783    10862.142    8023.5818    10532.177   -377.40938    421.37876    625.38078   -3108.3805 
24352000    260.85253   -4717.3964   -4214.3203   -4717.3964            0    10344.424    19.816942    19.635357     20.53337    7989.7955    11139.432    10322.172    9571.6681    274.75368    564.67853    -151.2659   -3008.9573 
24353000    248.42612   -4681.9273   -4202.8166   -4681.9273            0    10276.609    19.749191     20.03626     20.34647    8051.0968    9366.4023    11118.327    10345.098   -941.22253    340.12342   -214.78817   -2996.1681 
24354000    269.07106   -4714.3333   -4195.4071   -4714.3333            0     10810.99    19.763203    20.139916    20.109142    8004.0268     11467.09    9921.3003    11044.581   -801.99937    321.53395   -227.90189   -2933.4346 
24355000    272.77349   -4691.8859   -4165.8192   -4691.8859            0    10423.316    19.647386    19.769592    20.541427    7978.7176     10617.66    11331.463    9320.8241   -121.36997   -323.14636    -2276.537   -2952.9475 
24356000    245.19334   -4728.8543   -4255.9784   -4728.8543            0    8364.2032    19.807844    19.893708    20.537945    8093.0074    8343.9632    8049.7918    8698.8546   -225.64111    -790.1182    1152.5011   -3268.7664 
24357000    246.63304   -4680.5077   -4204.8551   -4680.5077            0        10812     19.97321    19.773263    20.207655    7980.7212    9729.8432    11317.075    11389.081    31.913643   -334.52601    -1144.251   -2946.4396 
24358000    267.86796   -4714.5646   -4197.9587   -4714.5646            0    10413.579     19.68923    19.923606    20.449547    8021.9574    12168.676    8668.5453    10403.516    454.60286    82.006217    475.68998    -2979.653 
24359000    266.85227   -4725.8197   -4211.1726   -4725.8197            0    9460.8146     19.99772    19.678143    20.327373    7999.1871    10364.091    9526.9459    8491.4069   -133.95569   -533.46425   -1244.5947   -3107.4746 
24360000    257.36421   -4691.9096   -4195.5611   -4691.9096            0    6966.0142    19.899925    19.864291     20.45574    8086.1111    8487.7064    5469.1033     6941.233   -484.05605    123.31978    -2101.096   -3374.0755 
24361000    272.07382   -4696.0734   -4171.3561   -4696.0734            0    9907.0427    19.891138    19.565922    20.473365    7967.9974    9802.4792    8973.3808    10945.268   -518.73736    343.82105   -1337.5312   -3020.1075 
24362000    256.27729   -4700.2866   -4206.0343   -4700.2866            0    10238.471    19.847857    20.100481    20.178325    8050.1724    8968.5852    10860.542    10886.285    520.72861   -1623.0904    184.24043   -3004.0019 
24363000    252.59364   -4731.2227   -4244.0746   -4731.2227            0    9146.2273    19.703209    19.957548     20.32225    7991.2724    9525.0554    8049.7473    9863.8791   -1153.8058    712.57862    431.04051    -3178.132 
24364000    262.36145    -4723.006   -4217.0198    -4723.006            0    9009.2079    19.975158    19.680954    20.583746    8092.0913    9348.1077    8787.7606    8891.7554    162.01014      364.869    653.25542   -3153.7995 
24365000    252.07236   -4709.0383   -4222.8956   -4709.0383            0     7465.716    19.822415    19.855762    20.521101    8076.8829    6414.2691    7444.6556    8538.2233   -1476.1551   -556.16158   -753.41109   -3343.4861 
24366000    251.91531   -4737.0148    -4251.175   -4737.0148            0     9119.538    19.761013     19.77188    20.616259    8055.0278    9939.8937    9868.2856    7550.4349    170.45184     1224.978   -145.66738   -3179.8634 
24367000    247.94118    -4728.621   -4250.4456    -4728.621            0    9839.6143    19.876861    19.954045    20.259139    8035.2564    12217.446    7187.9882    10113.408   -813.45722    578.62444    167.50071   -3097.3808 
24368000    254.06861   -4721.7064   -4231.7137   -4721.7064            0    9449.7443    19.673766    20.018285    20.302231    7995.7299    12208.941    7367.1073    8773.1849   -192.73151   -618.58524    346.84172   -3129.7836 
24369000    251.93375   -4724.6039   -4238.7284   -4724.6039            0    11081.869    19.576342    19.706001    20.618633    7954.0789    9589.1625    12589.689    11066.755    445.46412    488.76491    2364.8832   -2953.2086 
24370000    252.68618   -4690.3133   -4202.9867   -4690.3133            0    9651.7637    19.783636    19.555809    20.543276    7947.8855    8898.0137    10037.756    10019.521   -1099.0609    988.09789    -539.9025   -3084.2338 
24371000    252.27752   -4733.0264   -4246.4879   -4733.0264            0    12719.787    19.734958    19.765493    20.354645    7939.7601    12771.431    12092.414    13295.515   -463.73394   -630.57284   -1023.7205   -2773.6224 
24372000    263.76286   -4702.3217   -4193.6329   -4702.3217            0    8364.6009     19.57908    19.953733    20.520956    8017.0392     10862.76    7608.4566    6622.5856   -731.99741    1145.7561    226.17684   -3215.6413 
24373000    243.72222   -4682.4476   -4212.4088   -4682.4476            0     9357.776    19.756872    19.715159    20.563382    8009.6405    8735.3245    10604.361    8733.6424    335.62299   -1076.8549   -135.49834   -3119.3046 
24374000    250.76208   -4691.8395   -4208.2237   -4691.8395            0    12826.866    19.617303    19.891618    20.440841    7976.4229    13002.763    11508.442    13969.393    35.371169    1693.3204   -70.165797   -2716.1007 
24375000    274.75775   -4731.0945    -4201.201   -4731.0945            0    7232.6756    19.937566    19.589455    20.762674     8109.196    7751.5381    7590.2374    6356.2514   -6.6936923    644.07057   -479.76858   -3345.8337 
24376000    246.82789   -4724.9758   -4248.9475   -4724.9758            0    8011.1642    19.839833    19.777883    20.434613    8018.3358    8312.9683    7005.1902    8715.3341    1064.9348    786.96856     393.9661   -3312.1283 
24377000    253.23264   -4713.0744    -4224.694   -4713.0744            0    8119.4448    19.939103    19.983183    20.117273    8015.6621    6307.6521    8845.6645    9205.0179   -338.43978    83.932132     465.1259   -3275.5292 
24378000    263.73362   -4743.5063   -4234.8739   -4743.5063            0     9773.071    19.863594    19.823709    20.403976     8034.476    9196.5899    10190.058     9932.565    73.410983    122.24084   -463.72171   -3089.7183 
24379000    258.11949   -4665.9789   -4168.1738   -4665.9789            0    10934.266    19.693547    19.785809    20.504419    7989.6032    10286.844    11929.267    10586.688    340.10267    974.83705    168.60517   -2894.1113 
24380000     246.2205     -4735.78    -4260.923     -4735.78            0    10219.582    19.838422    19.866634     20.30656    8003.2756    10029.779    9886.7828    10742.184   -295.31881    203.93829    34.128668   -3068.0979 
24381000    243.09316   -4706.3112   -4237.4856   -4706.3112            0    13207.612    19.634697    19.631386    20.470155    7890.3506    13042.168    13863.883    12716.787   -112.68817    286.41515   -611.75939   -2717.6504 
24382000     269.5865   -4701.0765   -4181.1563   -4701.0765            0    10050.053    19.933099    19.582149    20.565144    8027.2526    12497.129    8894.0517     8758.979   -434.63011    1440.3551    -615.4509   -3004.6041 
24383000    258.58189   -4674.9222   -4176.2253   -4674.9222            0    11116.868    19.762604    19.896893    20.284569     7976.185    10039.356    11820.587    11490.662    209.98507    284.01049   -1270.7179   -2883.0614 
24384000    248.21848   -4713.4568   -4234.7466   -4713.4568            0    9721.7909    19.867047     19.57957    20.513319      7979.44    10014.996    11017.016    8133.3599    1061.1754    2146.5047    295.88344   -3103.4029 
24385000    255.19512   -4704.2225   -4212.0572   -4704.2225            0    10502.961    19.377433     19.79028    20.621215    7907.9231    9938.7004    11470.995    10099.189   -1326.5533   -462.95636   -600.71125   -3000.7617 
24386000    267.99225   -4747.2555   -4230.4099   -4747.2555            0    9587.6989    19.956757    19.724151    20.510019    8073.3606    8788.2936    10580.167    9394.6362   -29.473257    393.58012    1392.6437   -3101.5381 
24387000    255.48328   -4725.8977   -4233.1767   -4725.8977            0    11093.756    19.923769    19.750184    20.242712    7965.4687    12248.388    8696.0684    12336.811    350.83844    304.67986   -2079.1938   -2944.4351 
24388000    253.37375   -4725.2066    -4236.554   -4725.2066            0    8740.0301    19.723311    19.787999    20.623638    8049.0932     10187.29    8415.4104    7617.3904   -111.69125    68.868251    449.23757   -3210.5814 
24389000     238.6926   -4723.4128    -4263.074   -4723.4128            0     10265.64     19.66919    19.771553    20.515887    7978.4322    11926.833    9883.6985    8986.3867    304.86777     192.9554   -1064.7774   -3068.5924 
24390000    264.25591   -4707.3106   -4197.6708   -4707.3106            0    10255.974     19.82851    19.794099    20.270501    7955.9184    9790.0266    10911.828    10066.068     272.3998   -196.29673    1330.7514   -3007.6813 
24391000    249.16358   -4699.9793   -4219.4464   -4699.9793            0    10729.232    19.680201    19.991189    20.275974    7977.1892    11885.349    11127.814    9174.5316    64.557693    639.51349   -364.72914    -2971.217 
24392000    252.12295   -4719.2011   -4232.9608   -4719.2011            0    8690.6847    19.768811       19.798    20.546197    8041.4306     7543.646    9583.8854    8944.5227   -682.79325   -51.095009   -362.20717   -3213.7519 
24393000    254.19941   -4718.5084   -4228.2635   -4718.5084            0    9099.9089    19.803642    19.779717    20.468814     8017.848    8195.1382    8717.2586     10387.33   -456.33982    -280.2717    222.71931   -3164.1921 
24394000    265.33492   -4732.0166   -4220.2959   -4732.0166            0    8952.6936    19.675817     19.72812    20.667672    8022.5056    8311.2524    9821.7177    8725.1106   -19.133611    1182.3634   -1493.6212   -3172.8306 
24395000    258.96976   -4703.5343   -4204.0894   -4703.5343            0    12707.997     19.80682    19.871413    20.125946     7921.361    12297.545    12187.814    13638.632    152.86028    863.46555   -722.57614    -2735.999 
24396000    257.50837   -4745.5134   -4248.8869   -4745.5134            0      8659.79    19.799554    19.744814    20.574689    8043.4383    7765.3152    9995.4574    8218.5973    274.62603   -410.11125    345.63603   -3233.0476 
24397000    257.63531   -4737.0936   -4240.2223   -4737.0936            0    9748.6363    19.638655    19.731899    20.637515    7997.2014    9762.7659    11083.801    8399.3424    28.095931   -419.20471    504.26854   -3103.2293 
24398000    245.63739   -4710.7084    -4236.976   -4710.7084            0    10174.997    19.928454    19.821268    20.310699    8022.8728    8820.9963    11944.064    9759.9301   -225.31238    5.7264164     906.9747   -3046.4468 
24399000    265.18274   -4699.4967   -4188.0695   -4699.4967            0    11639.416    19.725318    19.821565    20.286731    7931.8414    12070.484    10358.882    12488.883    19.135259    2120.0604   -517.35448   -2841.6477 
24400000    253.19945   -4714.6719   -4226.3555   -4714.6719            0      9965.76    19.777443     19.85413     20.35725    7993.5579    11318.947    8309.4501    10268.883     59.30462    536.89732    291.90504   -3064.5687 
24401000    252.32625   -4661.3193   -4174.6869   -4661.3193            0    9646.4883    19.513201    19.911224    20.606854    8006.4167    10034.418    8496.8933    10408.153   -166.10339    1376.5336    1195.2723   -3048.3111 
24402000    259.63585   -4682.2289   -4181.4994   -4682.2289            0     13458.61    19.868189    19.395104     20.52472    7909.1108    13144.578    14240.437    12990.816    576.10882   -1520.8483   -862.83223   -2629.0989 
24403000     245.7434   -4696.5644   -4222.6276   -4696.5644            0    8728.4831     19.60589     19.96099     20.39938     7983.358    10626.193    7067.5035    8491.7526   -226.68412   -372.25511   -150.15181   -3206.3783 
24404000    257.94242   -4706.6155   -4209.1518   -4706.6155            0    10582.125    19.909177    19.596736    20.265841    7906.8167    10385.114    10485.198    10876.063   -312.28458   -268.36852    1002.1971   -2988.8972 
24405000    264.13142    -4736.525   -4227.1253    -4736.525            0    9465.5589    19.786661    19.813166     20.44079    8013.5338    10312.845    9392.3209    8691.5108    300.08344    248.42892    1013.4222   -3120.8933 
24406000    252.82416   -4716.1829   -4228.5902   -4716.1829            0     9918.459    20.015198    19.570577    20.429153    8002.2828    9391.5922    11088.869    9274.9162   -324.99453    -488.5769   -1189.1361   -3071.0556 
24407000    261.63673   -4718.9935    -4214.405   -4718.9935            0    9440.0311    19.769138    19.766259    20.529169    8022.0173    9503.1566    10034.648    8782.2885    1104.6098    465.58819   -237.12784   -3109.9885 
24408000    249.62412   -4726.0449   -4244.6238   -4726.0449            0    10201.084    19.617935     19.79144    20.469254    7947.5395    8636.9777    10679.139    11287.135   -503.18109     824.4758   -1062.0999   -3062.2497 
24409000    254.84053   -4742.2568   -4250.7755   -4742.2568            0    8425.3735     19.60514    19.728163    20.812831    8049.8493    11901.443    5563.5156    7811.1614   -541.51948    1415.0695     806.5061   -3261.6468 
24410000    266.06436   -4731.2286   -4218.1011   -4731.2286            0    9729.6021    19.758309    19.753351    20.636569    8054.3045    10330.426    9993.3726    8865.0075    858.45248   -31.819194     136.8441   -3075.2253 
24411000    245.56358   -4696.2098   -4222.6198   -4696.2098            0    10223.427    19.596479    20.090917    20.177715    7944.1934    10928.622    8667.8954    11073.765    448.87464   -537.97155   -339.43009   -3038.1549 
24412000    249.75815   -4703.5521   -4221.8725   -4703.5521            0    7668.9405    19.870765    19.900186    20.430764    8078.9762    8712.6423    7061.0948    7233.0844   -455.83311    957.70932    354.98529   -3318.2905 
24413000    251.05015   -4683.5917   -4199.4204   -4683.5917            0    11378.739    19.796308     19.84199    20.327051    7984.4279    13252.258    8803.0386     12080.92    72.542582    18.118063    735.86044   -2874.4266 
24414000    254.08025   -4713.4873   -4223.4722   -4713.4873            0    10617.756    19.598408    19.943368    20.296822    7933.1808    11312.451    10335.634    10205.184    820.76514   -816.36077    520.12877   -2995.0264 
24415000    263.01147   -4729.2672   -4222.0275   -4729.2672            0    9477.9653    19.718465    20.108562    20.263199    8034.5605    12511.699    8510.4148    7411.7817   -69.138457    588.93026    59.297447   -3111.4391 
24416000     256.3909   -4689.0341   -4194.5627   -4689.0341            0    10536.399    19.790511    19.842472    20.349104    7990.9439    10972.625    9726.5654    10910.008    182.60539    1356.1326    521.75484   -2966.6536 
24417000    260.86078   -4706.1789   -4203.0869   -4706.1789            0    11955.128    19.616093    19.700513    20.422988    7892.4045    11571.982    12722.934    11570.467    116.58743    737.38723    774.16383   -2827.0203 
24418000    259.11163   -4690.7436    -4191.025   -4690.7436            0    9779.9354    19.760517    19.865483    20.415413    8014.1155    10691.169    8771.1504    9877.4874   -502.42656    335.58104    410.89733   -3047.9691 
24419000    258.10226   -4693.4187   -4195.6468   -4693.4187            0    9505.2352    19.749892    19.772608    20.601393    8044.9859    10675.575    9984.3537    7855.7771   -377.28059    506.88479   -1071.8348   -3080.4178 
24420000    261.98202    -4705.344   -4200.0896    -4705.344            0    11101.703    19.630915    19.917215    20.345538    7954.9662    12298.227    10514.184    10492.697   -95.133472    1498.5251    101.91309   -2912.1253 
24421000    262.99925   -4705.0089   -4197.7927   -4705.0089            0    9330.4924    19.765829    19.888402    20.347831    7998.9513    8558.1971    9813.5643    9619.7157    410.45632      115.579     884.4101   -3109.3301 
24422000    259.97866   -4742.8992   -4241.5085   -4742.8992            0    7882.9455    19.804963    19.820653     20.61828    8093.6502    8515.2551    8635.8145    6497.7669    309.93271   -197.15067   -557.08201   -3311.0246 
24423000    256.66785   -4739.2276    -4244.222   -4739.2276            0    9890.9632    19.635189    20.044268    20.270223    7977.8124    8225.7688    12271.185    9175.9357   -920.58365    111.74898    960.00462   -3093.4261 
24424000    253.95003   -4711.5441   -4221.7801   -4711.5441            0    9135.3626    19.717988    19.941779    20.546756    8079.2263    8323.0234    9167.6074     9915.457   -69.758314    1280.3418    278.88567   -3145.3856 
24425000    246.20689   -4700.5862   -4225.7555   -4700.5862            0    10256.799    19.577912    19.806366    20.679347    8018.7743    11961.678    9622.5231    9186.1962    -493.6001   -60.659506    547.72542    -3026.268 
24426000    252.14788   -4736.2386   -4249.9502   -4736.2386            0    9377.5741    19.723273    19.898238    20.348204    7985.8232    7926.6315    9855.6833    10350.408    731.37594    288.76934    532.77403   -3157.7906 
24427000    257.43334    -4716.778   -4220.2961    -4716.778            0    7962.6073    19.668276     19.99207    20.463998    8046.6395    9348.7912    6301.6925    8237.3383     425.5044   -439.42261   -646.12881   -3285.8683 
24428000    256.81096   -4711.1046    -4215.823   -4711.1046            0    10828.303    19.772147    19.676725    20.432264    7949.1944    11474.556    9722.6488    11287.703   -479.53103    877.88735   -529.54088   -2960.4887 
24429000    275.09143   -4724.4368   -4193.8998   -4724.4368            0    8487.6582    19.677142    19.933902    20.516097    8047.2798    8522.0264    7960.1652    8980.7829   -365.92693   -514.22382    228.28332    -3197.777 
24430000    259.27647   -4704.1874   -4204.1509   -4704.1874            0    8495.8539    19.589466    19.761339    20.804169    8053.5865    10197.144    8463.3861    6827.0316   -1177.5588    637.79329    148.88917   -3206.2849 
24431000    252.27904   -4703.6239   -4217.0826   -4703.6239            0    12468.331    19.616655    19.819538     20.30595    7894.8118    13322.739    11263.224    12819.032   -257.84953    16.346877    291.18779   -2781.5072 
24432000    260.15673   -4726.2333   -4224.4991   -4726.2333            0    10127.682     19.79093    19.524287    20.731432    8010.7042    9979.2714    9883.7864    10519.987    69.276201    1434.6066   -946.57221   -3041.3033 
24433000    242.32973   -4708.3396   -4240.9863   -4708.3396            0    9344.7409    19.385689     19.83927    20.626645    7932.9646    9937.0896    7751.4138    10345.719   -885.20851    281.52634   -1191.6591   -3159.8545 
24434000    248.89925   -4730.6797   -4250.6565   -4730.6797            0    9744.1528    19.800982    19.905638    20.349243    8020.6783    8298.7864    10594.097    10339.575    937.02672   -126.64076    439.70673   -3110.8502 
24435000    256.23339   -4691.5412   -4197.3736   -4691.5412            0    10954.143      19.7111    19.892678    20.443908    8016.1905     13086.78    11244.204    8531.4465    394.59351   -625.78756   -852.79464   -2916.7475 
24436000     266.2773     -4698.95   -4185.4119     -4698.95            0    10346.632    19.834851    19.687611    20.450392    7985.8953    10024.184    10410.505    10605.206    863.74697   -1536.9902   -504.27851   -2980.3802 
24437000    255.55544   -4720.9953   -4228.1352   -4720.9953            0    10237.021    19.774026    19.808065    20.406878    7993.0719    9805.3353    11715.986    9189.7422   -335.37622   -315.03633    1346.8516   -3034.7978 
24438000    252.46792   -4693.0437   -4206.1381   -4693.0437            0    12067.561    19.985785    19.727146    20.237652    7978.9474     10075.73    12393.726    13733.226   -509.80167    1230.8537   -395.24211   -2801.8993 
24439000    245.61531   -4716.1976   -4242.5079   -4716.1976            0    11159.605    19.547696    19.885927    20.482861    7962.1806    11608.541    11056.755    10813.519    206.97773    2080.5851    1543.0887   -2946.6519 
24440000    261.77222   -4690.7715   -4185.9218   -4690.7715            0    10655.097    19.810768    19.748877    20.382667    7974.5229    7307.6013    14386.523    10271.168    403.67396    831.36823   -574.60081   -2946.7315 
24441000    254.18987   -4704.5081   -4214.2815   -4704.5081            0    11525.648    19.762198     19.80682    20.409648    7988.8728    11165.194    11653.906    11757.844     501.6753    866.08272    554.95625   -2871.4338 
24442000     273.6861   -4730.9954   -4203.1687   -4730.9954            0    11795.725    19.628695    19.829715    20.402477    7941.2853    12063.337    11279.823    12044.014   -210.04608    862.17818    1190.8116    -2837.041 
24443000    254.77239   -4695.8343   -4204.4843   -4695.8343            0     10817.45    19.708856    20.064583    20.055909    7931.1087    9503.9987    10864.469    12083.882    411.97538     -75.4512    1549.9723   -2953.2614 
24444000    264.68793   -4716.5897   -4206.1167   -4716.5897            0    9958.4832    19.913942     19.90994    20.314871    8054.5492    9665.4553    9158.0679    11051.927    40.782681   -42.476645    258.70192   -3036.3202 
24445000    253.26186   -4695.4544   -4207.0176   -4695.4544            0    11992.218    19.607613    19.803128    20.488222    7955.4141    11878.058    13420.718    10677.879    -471.0312    -732.3165    493.83303   -2815.6618 
24446000     256.9423   -4715.6415   -4220.1067   -4715.6415            0    7580.0306    19.757912    19.843261    20.481656    8030.0669    8955.3435    6168.9746    7615.7735    707.45902   -1513.1315   -746.98469   -3332.4071 
24447000    257.87959   -4703.0995   -4205.7571   -4703.0995            0      9668.32    19.898215    19.361539    20.658398     7958.856    8086.8912    10047.565    10870.503   -336.24369    1178.7641    922.45012   -3083.5382 
24448000    250.57847   -4694.0615   -4210.7998   -4694.0615            0    9445.9213    19.838012    19.736131    20.464171    8012.2467    10875.743    7104.3943    10357.627   -220.24447   -179.80457    1118.3908   -3107.0402 
24449000    276.80129   -4721.7822   -4187.9476   -4721.7822            0    11094.848    20.112819    19.579861     20.34014    8010.0733    11602.718    10898.892    10782.933     819.2502   -298.29305    127.59466   -2891.8618 
24450000    248.74749   -4708.4223   -4228.6918   -4708.4223            0     10071.87    19.549135    19.967109     20.45115    7982.8958    10086.092     9616.561    10512.957    679.05611   -217.07911    315.99766   -3056.1011 
24451000    240.38075   -4692.8695    -4229.275   -4692.8695            0    9399.5314    19.852966    19.768383    20.468925    8033.2556    8099.5717    11343.392    8755.6304   -479.65974    265.56461      249.388    -3128.056 
24452000    260.11956   -4722.1623   -4220.4998   -4722.1623            0    7900.3428    19.825072    20.033731    20.348526    8081.8275     9723.522    5424.0981    8553.4083    96.572886   -748.79548    748.65846   -3289.3246 
24453000    249.98601   -4723.0202   -4240.9012   -4723.0202            0     10515.19    19.944446    19.360427    20.608681    7957.6917    10458.656    11129.692    9957.2209    83.196241   -749.47337   -393.83923   -3020.5632 
24454000    242.29527   -4710.1549   -4242.8681   -4710.1549            0    9449.5157    19.493633    19.972805    20.473356    7971.1486    8862.9588    9172.6526    10312.936   -335.15984   -987.86502   -956.30629   -3144.3522 
24455000    238.24114   -4709.5271    -4250.059   -4709.5271            0    10585.902    19.878769     19.71588    20.450646    8015.1691    11460.717    10677.271    9619.7185   -57.317858    62.555484   -398.56485   -3012.6409 
24456000    257.60307   -4741.5041   -4244.6949   -4741.5041            0    9239.4459    19.687886    19.810889    20.467409    7982.9963    9943.0262    9246.8636    8528.4477    783.59972    260.28448    494.74478   -3169.0034 
24457000    252.59313   -4709.1305   -4221.9834   -4709.1305            0    9086.1288    19.941979    19.578459    20.568796    8030.7412    9055.5136    8033.6056    10169.267    135.93179    1511.4884    327.03756   -3157.8149 
24458000    264.07186   -4721.4234   -4212.1386   -4721.4234            0    9759.3597    19.556657    19.797338    20.591649    7972.4633    12770.552    7904.4238    8603.1035   -85.226378    541.88011    543.74451   -3077.4159 
24459000    261.10184   -4719.9211   -4216.3643   -4719.9211            0    11003.791    20.059273    19.603593     20.23632    7957.6056    11203.451    10638.153     11169.77    104.28716    289.94876    1404.4048   -2939.3356 
24460000    258.01056   -4677.9793   -4180.3842   -4677.9793            0    11621.497    19.656738    19.946214    20.407753    8001.4208    11046.018    12418.441    11400.033   -489.19622   -243.34251   -565.95342   -2824.2424 
24461000    259.16899   -4700.1734   -4200.3442   -4700.1734            0    11571.428    19.869268    19.601891    20.366233    7932.1433    9798.7432    13491.869    11423.671    626.03944   -1091.5203    517.68527   -2861.7363 
24462000    251.33536   -4688.8446   -4204.1232   -4688.8446            0     11633.55    19.571615    19.947385    20.387757    7959.4321     13146.03    10769.468    10985.151   -933.88366     9.939174    414.62702    -2853.699 
24463000    263.32302   -4704.1005   -4196.2599   -4704.1005            0    9571.0717    19.655354    19.795856    20.562207    8000.6429    9012.4153    9846.5924    9854.2074   -539.53825   -375.65552    440.85774    -3079.496 
24464000    264.74024    -4723.396   -4212.8222    -4723.396            0    9798.2573    19.736847    19.568314    20.763133    8019.0713    10596.234    9298.1925    9500.3455     381.0994    747.57458     151.1198   -3066.9167 
24465000     250.9132   -4751.4816   -4267.5744   -4751.4816            0     10534.06    19.910337      19.6419    20.432845    7990.8124    9000.1805    10723.024    11878.977    257.29067    848.82235    978.05273   -3039.9581 
24466000    244.36425   -4706.7633   -4235.4863   -4706.7633            0    8532.9853    19.528656    19.742375    20.702455    7981.6668     10004.17    7113.4267    8481.3589    992.18628   -102.60751     978.6808   -3242.2091 
24467000    247.64642   -4732.7087   -4255.1017   -4732.7087            0    10709.103    19.629212    19.781037    20.507922    7962.9424    11124.132    10187.714    10815.462   -155.56905   -136.24962    1347.6823   -3011.4392 
24468000    274.46431   -4728.9375   -4199.6099   -4728.9375            0    9946.1512    19.637706     19.85759    20.613129    8038.2445    9902.0094    9947.4746    9988.9695    38.240799    245.09386    773.55279   -3033.6271 
24469000    259.24433   -4704.7447   -4204.7702   -4704.7447            0    10237.392    19.949171    19.757431    20.358481    8024.1806    9006.0761    11394.581     10311.52    544.51895    944.45748    3425.9666   -3006.7451 
24470000    246.39728   -4707.1265   -4231.9286   -4707.1265            0    12083.886    19.634721    19.844301    20.261162    7894.5046    13126.708    11468.146    11656.805   -55.806129    690.56983   -475.93298   -2840.6715 
24471000    254.38185   -4711.3483   -4220.7515   -4711.3483            0    9052.6705    19.868637    19.725836    20.514975    8040.3411    9596.5367    8604.4502    8957.0245   -107.65031    180.16026    320.15707   -3159.2342 
24472000    253.87117   -4730.8513   -4241.2394   -4730.8513            0    10417.148    19.762908    19.661306     20.63498    8018.0223    10679.936    10636.047    9935.4626   -64.850228   -1063.1755    1571.3438   -3023.1139 
24473000    254.50554   -4723.7818   -4232.9465   -4723.7818            0    10025.415    19.847345    19.497894    20.610201    7975.7649    9972.9575    11486.357    8616.9304    79.408423    578.41049   -1355.1084   -3066.8067 
24474000    251.85314   -4700.5323   -4214.8123   -4700.5323            0    8964.3052    19.665435    19.889442    20.477219     8009.347    8846.1715    8043.9888    10002.755   -563.06832   -262.44443   -681.85098   -3167.7088 
24475000    257.52649   -4734.4308   -4237.7693   -4734.4308            0    10764.256    19.820021    20.026199    20.075065    7968.1882    10140.689    10111.846    12040.232   -532.98252    -1402.802   -1299.1907   -2986.8783 
24476000     249.6938   -4701.5574   -4220.0019   -4701.5574            0     9710.306    19.650414     19.78574     20.60141    8009.7865     9394.638    10762.757    8973.5227    545.11174   -90.749129    1442.9127   -3085.6972 
24477000     270.6622   -4691.2657   -4169.2709   -4691.2657            0    7086.5416    19.871945    19.652141    20.826754    8133.3944    5859.2551       8925.3    6475.0697   -67.620856    -1279.152    217.11973   -3328.6851 
24478000    261.86277    -4694.032   -4189.0076    -4694.032            0    9698.0478    19.653913    19.917227    20.489181    8020.5194    9615.3188    8904.9661    10573.859    580.12109    1376.5987   -414.57629   -3054.6168 
24479000    261.10285   -4711.0053   -4207.4465   -4711.0053            0     9081.923    19.690939    19.909197    20.496811    8035.3807    9003.7923    10143.599    8098.3782    644.80563    1288.9564   -277.31734   -3143.1561 
24480000    264.63471   -4691.1275   -4180.7572   -4691.1275            0    10321.998    19.842743    19.875134    20.278946    7997.5534    10305.688    9924.9457     10735.36   -102.85643    229.27442    252.09387   -2976.8394 
24481000    267.61234   -4713.1772   -4197.0643   -4713.1772            0    10569.343     19.86877    19.827802     20.28161    7990.0223    8626.7245    12695.008    10386.296    599.17663    900.61872    329.71315   -2965.4581 
24482000    254.20707    -4717.484   -4227.2243    -4717.484            0    8386.3635     19.82146    19.895228    20.600179    8123.7317    8752.9654    7316.6312    9089.4938   -87.418573   -78.542788   -1484.6642   -3233.6391 
24483000    256.12955   -4717.2325   -4223.2652   -4717.2325            0    9503.4562    19.889264    19.534137     20.53618    7978.7085    11602.659    8813.5357    8094.1736    686.22648    -305.0354    2379.4057   -3117.4308 
24484000     263.3111   -4702.4349   -4194.6173   -4702.4349            0    10156.389    19.565185     19.93281    20.486772    7989.6182    10643.679    10258.966    9566.5203   -343.12442    512.23837    89.694041    -3011.191 
24485000    244.60804   -4729.2972     -4257.55   -4729.2972            0    8124.6137    19.881497     20.01996    20.429133    8131.3422    8502.1951    8707.7458    7163.9002    537.35938   -994.19204   -248.16264   -3294.0741 
24486000    244.13277   -4708.6935   -4237.8629   -4708.6935            0    9152.9362    19.921161      19.6551    20.507241    8029.6592    9174.1953    7537.7453    10746.868    522.78689   -273.47337   -327.92911   -3166.0144 
24487000    254.11434   -4718.6696   -4228.5887   -4718.6696            0    9598.8536    19.937151     19.51755    20.681678    8047.7442    9356.3773     10609.78    8830.4032    560.21506   -952.91778   -285.77918   -3101.9895 
24488000    257.81798    -4684.567   -4187.3433    -4684.567            0    12304.638    19.644412     19.75851    20.567845    7983.2919    12272.043    12880.976    11760.895   -2.6877453    693.83879   -1479.6453   -2754.7374 
24489000    251.07117   -4712.9306   -4228.7187   -4712.9306            0    10076.333    19.875333    19.631602    20.454109    7980.8785    8807.1861    10570.292    10851.521    962.86391   -444.64762   -953.11944   -3055.9049 
24490000    259.17561   -4686.5606   -4186.7186   -4686.5606            0    9189.9227    19.793166    19.647657    20.495926    7970.6473    10464.135    8028.5434    9077.0894    1017.0535    827.64856   -401.39296   -3118.4479 
24491000    240.23833    -4701.215   -4237.8951    -4701.215            0    9767.5558    19.874678    19.900063    20.235785    8003.4016    10569.263    8434.5868    10298.818    425.40103     918.3098     95.72892   -3097.8123 
24492000    261.42103   -4717.5195    -4213.347   -4717.5195            0     10704.09    19.895114    19.433264    20.700218    8003.2633    10034.907    13732.497    8344.8657    887.78972    453.86538    391.50036   -2963.9722 
24493000    257.28961   -4699.5811   -4203.3764   -4699.5811            0    8771.3035    19.864943    19.656776    20.623414    8053.0456    7441.7642    10602.008    8270.1385   -172.98449   -109.15615   -1419.0417   -3173.2271 
24494000    263.25351   -4702.7798   -4195.0733   -4702.7798            0    9627.6777    19.957294    19.528116    20.454783     7971.809    9960.5123    9571.6097     9350.911   -229.00294    1280.4057   -20.610091   -3075.7531 
24495000    265.91369   -4687.5214   -4174.6845   -4687.5214            0    7419.0799    19.963192    19.861175     20.35255    8069.6324    7315.1904      7036.73    7905.3194   -122.94491      -1118.5    826.03257    -3301.553 
24496000    257.69929   -4695.8468    -4198.852   -4695.8468            0    11206.173    19.577089      19.8846    20.533117    7993.1846    13155.643    10059.185    10403.689    313.37865    1370.0423     102.2631   -2892.5216 
24497000    258.91991   -4722.7553   -4223.4065   -4722.7553            0     10115.35     19.74981    19.585669    20.617625    7975.1706    10955.429    10429.834    8960.7857    313.29753   -474.85586    1352.4982   -3046.8934 
24498000    256.23597   -4702.0168   -4207.8442   -4702.0168            0     9891.399    19.694459    19.917279     20.55011    8060.9867    9911.1148    10370.122    9392.9602    27.012797     10.71861   -758.21896   -3044.9992 
24499000    249.12151    -4720.838   -4240.3862    -4720.838            0    9924.3363    19.768058    19.939396    20.290766    7997.8722    9428.8254    9747.4333     10596.75   -3.0028126   -1195.1238    1180.9694   -3082.8041 
24500000    267.83122   -4697.3276   -4180.7926   -4697.3276            0    8364.5058    19.747979    19.612491    20.700273    8017.3622    8616.2165    9473.9729    7003.3279      418.504    212.45212    105.69978   -3202.7727 
Loop time of 425.412 on 64 procs for 250000 steps with 972 atoms

Performance: 101.549 ns/day, 0.236 hours/ns, 587.665 timesteps/s
99.0% CPU use with 64 MPI tasks x 1 OpenMP threads

MPI task timing breakdown:
Section |  min time  |  avg time  |  max time  |%varavg| %total
---------------------------------------------------------------
Pair    | 20.861     | 28.957     | 38.14      |  80.1 |  6.81
Bond    | 0.25959    | 0.27912    | 0.28955    |   1.0 |  0.07
Kspace  | 166.75     | 180.99     | 196.48     |  53.0 | 42.55
Neigh   | 2.8632     | 3.4319     | 4.1903     |  22.6 |  0.81
Comm    | 83.776     | 95.715     | 106.36     |  60.1 | 22.50
Output  | 0.93137    | 0.93317    | 0.93838    |   0.1 |  0.22
Modify  | 106.7      | 109.17     | 111.99     |  12.9 | 25.66
Other   |            | 5.937      |            |       |  1.40

Nlocal:        15.1875 ave          20 max          10 min
Histogram: 1 1 6 5 14 6 11 11 7 2
Nghost:        2326.28 ave        2352 max        2294 min
Histogram: 1 4 6 9 9 4 11 8 6 6
Neighs:        4894.22 ave        6509 max        3311 min
Histogram: 3 11 4 6 9 4 9 11 3 4

Total # of neighbors = 313230
Ave neighs/atom = 322.25309
Ave special neighs/atom = 2.0000000
Neighbor list builds = 7437
Dangerous builds = 0

unfix		3
unfix		2
unfix		1

write_data	data.final.${pid}
write_data	data.final.0
System init for write_data ...
PPPM initialization ...
  extracting TIP4P info from pair style
  using 12-bit tables for long-range coulomb (../kspace.cpp:340)
  G vector (1/distance) = 0.37342437
  grid = 24 24 25
  stencil order = 5
  estimated absolute RMS force accuracy = 0.0032851044
  estimated relative force accuracy = 9.8929944e-06
  using double precision FFTW3
  3d grid and FFT values/proc = 2366 288
Last active /omp style is kspace_style pppm/tip4p/omp
WARNING: Not all mixed pair coeffs generated from mixing. Use write_data with 'pair ij' option to store all pair coeffs. (../write_data.cpp:312)

write_restart   restart.lmp.${pid}
write_restart   restart.lmp.0
System init for write_restart ...
PPPM initialization ...
  extracting TIP4P info from pair style
  using 12-bit tables for long-range coulomb (../kspace.cpp:340)
  G vector (1/distance) = 0.37342437
  grid = 24 24 25
  stencil order = 5
  estimated absolute RMS force accuracy = 0.0032851044
  estimated relative force accuracy = 9.8929944e-06
  using double precision FFTW3
  3d grid and FFT values/proc = 2366 288
Last active /omp style is kspace_style pppm/tip4p/omp
Total wall time: 0:07:06
