LAMMPS (30 Jul 2021)
  using 1 OpenMP thread(s) per MPI task
package omp 0
using multi-threaded neighbor list subroutines
echo both

include		in.partitions
variable        pid world 0
include		in.temp
variable        temperature equal 255.10
variable	tempDamp equal 100.0
include		in.pressure
variable        pressure equal 1750.0
variable        pressureDamp equal 1000.0 # This is 1 ps
include		in.seed
variable        seed world 745823

units		real
atom_style	full

read_restart	restart.lmp.${pid}
read_restart	restart.lmp.0
Reading restart file ...
  restart file = 30 Jul 2021, LAMMPS = 30 Jul 2021
  restoring atom style full from restart
  orthogonal box = (-0.17772312 -0.051987296 -0.10615955) to (20.177724 20.051988 20.806158)
  4 by 4 by 4 MPI processor grid
  restoring pair style lj/cut/tip4p/long/omp from restart
  restoring bond style harmonic/omp from restart
  restoring angle style harmonic/omp from restart
  972 atoms
  648 bonds
  324 angles
Finding 1-2 1-3 1-4 neighbors ...
  special bond factors lj:    0        0        0       
  special bond factors coul:  0        0        0       
     2 = max # of 1-2 neighbors
     1 = max # of 1-3 neighbors
     1 = max # of 1-4 neighbors
     2 = max # of special neighbors
  special bonds CPU = 1.596 seconds
  read_restart CPU = 1.916 seconds
include 	in.setup
variable	out_freq equal 1000
variable	out_freq2 equal 10000
variable	out_freq3 equal 1000

timestep	2.0

neigh_modify    delay 7 every 1

include		in.tip4p
# This is TIP4P/Ice

# create groups ###
group ox type 2
324 atoms in group ox
group hy type 1
648 atoms in group hy

# set charges - beside manually ###
set group ox charge -1.1794
Setting atom values ...
  324 settings made for charge
set group hy charge 0.5897
Setting atom values ...
  648 settings made for charge

# ### TIP3P Potential Parameters ###
pair_style lj/cut/tip4p/long/omp 2 1 1 1 0.1577 8.5
pair_coeff 1 1*2 0.000 0.000
pair_coeff 2 2 0.21084 3.1668
bond_style  harmonic
bond_coeff  1 450 0.9572
angle_style harmonic
angle_coeff 1 55 104.52
kspace_style pppm/tip4p/omp 1.0e-5
pair_modify tail yes

thermo          ${out_freq}
thermo          1000
thermo_style    custom step temp pe etotal epair emol press lx ly lz vol pxx pyy pzz pxy pxz pyz enthalpy

restart 	${out_freq3} restart.lmp.${pid} restart2.lmp.${pid}
restart 	1000 restart.lmp.${pid} restart2.lmp.${pid}
restart 	1000 restart.lmp.0 restart2.lmp.${pid}
restart 	1000 restart.lmp.0 restart2.lmp.0


include         in.dump
dump            myDump all atom ${out_freq2} dump.water.${pid}
dump            myDump all atom 10000 dump.water.${pid}
dump            myDump all atom 10000 dump.water.0
dump            myDump2 all dcd ${out_freq2} dump.dcd
dump            myDump2 all dcd 10000 dump.dcd
dump_modify     myDump append yes
dump_modify     myDump2 append yes


variable natoms 	equal  "count(all)"                        # NUMBER ATOMS
variable H      	equal  "enthalpy/v_natoms"                 # ENTHALPY-per-atom
variable Vol      	equal  "vol/v_natoms"                 # volume-per-atom
fix AVG all 		ave/time ${out_freq} 1 ${out_freq} v_Vol v_H file vol_enthalpy.dat
fix AVG all 		ave/time 1000 1 ${out_freq} v_Vol v_H file vol_enthalpy.dat
fix AVG all 		ave/time 1000 1 1000 v_Vol v_H file vol_enthalpy.dat


timer           timeout 02:55:00 every 1000
New timer settings: style=normal  mode=nosync  timeout=02:55:00

fix 		1 all shake 1e-6 200 0 b 1 a 1
       0 = # of size 2 clusters
       0 = # of size 3 clusters
       0 = # of size 4 clusters
     324 = # of frozen angles
  find clusters CPU = 0.399 seconds
fix             2 all nph aniso ${pressure} ${pressure} ${pressureDamp}
fix             2 all nph aniso 1750 ${pressure} ${pressureDamp}
fix             2 all nph aniso 1750 1750 ${pressureDamp}
fix             2 all nph aniso 1750 1750 1000
fix             3 all temp/csvr ${temperature} ${temperature} ${tempDamp} ${seed}
fix             3 all temp/csvr 255.1 ${temperature} ${tempDamp} ${seed}
fix             3 all temp/csvr 255.1 255.1 ${tempDamp} ${seed}
fix             3 all temp/csvr 255.1 255.1 100 ${seed}
fix             3 all temp/csvr 255.1 255.1 100 745823


run             250000
PPPM initialization ...
  extracting TIP4P info from pair style
  using 12-bit tables for long-range coulomb (../kspace.cpp:340)
  G vector (1/distance) = 0.37159376
  grid = 24 24 25
  stencil order = 5
  estimated absolute RMS force accuracy = 0.0035096403
  estimated relative force accuracy = 1.0569177e-05
  using double precision FFTW3
  3d grid and FFT values/proc = 2366 288
Last active /omp style is kspace_style pppm/tip4p/omp
Neighbor list info ...
  update every 1 steps, delay 7 steps, check yes
  max neighbors/atom: 2000, page size: 100000
  master list distance cutoff = 10.8154
  ghost atom cutoff = 10.8154
  binsize = 5.4077, bins = 4 4 4
  1 neighbor lists, perpetual/occasional/extra = 1 0 0
  (1) pair lj/cut/tip4p/long/omp, perpetual
      attributes: half, newton on, omp
      pair build: half/bin/newton/omp
      stencil: half/bin/3d
      bin: standard
Per MPI rank memory allocation (min/avg/max) = 9.224 | 9.228 | 9.234 Mbytes
Step Temp PotEng TotEng E_pair E_mol Press Lx Ly Lz Volume Pxx Pyy Pzz Pxy Pxz Pyz Enthalpy 
 9000000    260.67877   -4668.8091   -4166.0681   -4668.8091            0    74.314092    20.355447    20.103976    20.912317    8557.8516   -1556.1597    1378.8534    400.24853   -304.62417    -407.9378   -731.55347   -4156.7932 
 9001000    255.10563   -4707.8222   -4215.8296   -4707.8222            0    3208.7371    20.092388    20.087238    20.870755     8423.449    2735.4083     3515.843      3374.96     37.88604   -423.64171    834.15203   -3821.6447 
 9002000    252.22897   -4697.5042   -4211.0594   -4697.5042            0    1417.6456     20.19144    20.021731    21.297079    8609.7184    2382.3384    1001.8931    868.70527     131.2094   -2091.9146   -27.290771   -4033.0543 
 9003000    256.86882   -4717.5016   -4222.1085   -4717.5016            0    2328.7715    20.102671    20.072992     20.97268    8462.9114    4318.3647   -370.87348    3038.8234   -244.77579   -1074.4936   -435.91522   -3934.6848 
 9004000    248.26441   -4728.8857   -4250.0869   -4728.8857            0    3191.2616    20.344733     20.16877    20.601166    8453.2403    2469.8139    3747.1723    3356.7988   -23.655738    667.52522    566.17556   -3856.6623 
 9005000    256.68563   -4709.3195   -4214.2797   -4709.3195            0     1912.424    20.150137    20.204241    21.117489    8597.3147     3520.897    670.12691    1546.2479   -998.26984   -14.099082    10.424462   -3974.4942 
 9006000    268.07957   -4717.1042   -4200.0902   -4717.1042            0    1630.9697    20.164102     19.97841     21.14084    8516.5176    1066.1243    2555.5136    1271.2713   -705.49045    776.79392   -1010.4344   -3997.5161 
 9007000    265.89166   -4723.7316   -4210.9371   -4723.7316            0    659.73625    20.467791     20.04347    20.893492    8571.4623   -93.337598    1300.5153     772.0311    218.71839   -2079.5105    227.30805   -4128.4662 
 9008000    250.85894   -4690.5986   -4206.7961   -4690.5986            0    943.88084      20.1693    20.215637    20.772281    8469.5914    980.69865    235.03706    1615.9068    359.89459    389.73252    286.09195   -4090.2076 
 9009000    273.49005   -4709.2371   -4181.7885   -4709.2371            0    866.44154    20.030777     20.26424    21.091628    8561.2702    2471.7469   -1186.1391    1313.7168   -302.68238    796.01042   -140.77652    -4073.607 
 9010000    267.92095   -4714.3356   -4197.6275   -4714.3356            0    1951.8476    20.245511    20.051847    20.997686    8524.2185    1268.0153    3101.1589    1486.3685    571.70965   -46.949842   -675.02368   -3954.9797 
 9011000    255.90358   -4710.6275   -4217.0959   -4710.6275            0    3963.4787    20.011517    20.021049    21.071906    8442.4923    5719.9272    4247.7778    1922.7311   -629.15098   -707.97366    1459.8121   -3729.0922 
 9012000    256.53718   -4663.5217   -4168.7681   -4663.5217            0    2764.3376    20.335718    19.985719     20.91473     8500.247    1060.2011    4875.9858    2356.8259   -31.761877    339.74665   -1701.5197   -3826.0804 
 9013000    264.48963   -4686.3065    -4176.216   -4686.3065            0    1573.2136    20.261574    20.039807    21.027342    8537.9009     565.6949    2940.8815    1213.0645    153.64046    814.72033     -305.012   -3980.3249 
 9014000    244.08925   -4696.0698   -4225.3232   -4696.0698            0    2038.9444    20.139844    20.401104    20.757042    8528.5508    797.39878    2643.6993    2675.7353   -143.58674   -1143.4993    -1006.567   -3971.7189 
 9015000    263.94844   -4729.6978    -4220.651   -4729.6978            0    1804.3839    20.238245    19.988731    21.137006    8550.6975    1764.0331    3057.7657    591.35281   -213.01276    702.81129    1369.0842   -3995.6386 
 9016000    252.69465   -4700.5159    -4213.173   -4700.5159            0    2070.4897    20.144146    20.221143    20.955956    8536.1498    2178.0968    701.83001    3331.5422   -313.90582    202.40757     -212.116   -3955.4157 
 9017000    258.68403   -4713.4149    -4214.521   -4713.4149            0    2170.1607    20.206859    20.164451    20.853878    8497.1256    2389.4247    2537.4092     1583.648   -790.90202    923.74574   -55.564314   -3945.5907 
 9018000    243.48905   -4714.0778   -4244.4886   -4714.0778            0    2285.0858    20.173524    20.040861    21.181696    8563.6498    2496.5064    2779.9199    1578.8312    263.02659   -6.8475002    228.46861   -3959.0996 
 9019000    260.70892   -4709.3098   -4206.5107   -4709.3098            0     801.4403    20.232627    19.977534    21.084484    8522.3059    1439.6347    806.00188    158.68429   -8.7707369   -1032.2531    -96.96089   -4106.9004 
 9020000    249.85236     -4701.11   -4219.2487     -4701.11            0    2201.5857    20.005494    20.260321    21.021526    8520.3969     3059.239     1891.522     1653.996    56.610227   -289.13743    790.19545   -3945.6769 
 9021000    236.81989   -4705.5491    -4248.822   -4705.5491            0    911.20102     20.51627    20.024574    20.952716    8607.9952   -107.27836    1931.4554    909.42599    118.13529    34.894963    773.54588   -4134.4309 
 9022000    261.88946   -4718.5752   -4213.4994   -4718.5752            0    2475.6024    20.010937    20.110132    21.058782    8474.5293    3337.1973    2585.8694    1503.7403    72.579372   -34.217077    549.17263   -3907.5339 
 9023000    243.54001   -4702.2685   -4232.5811   -4702.2685            0    492.87366    20.203543    20.134825    21.176701    8614.5721   -698.45714    1676.9537    500.12437    -800.0842   -166.88976   -155.95979   -4170.6591 
 9024000    265.85767   -4677.3216   -4164.5927   -4677.3216            0    1737.7229    20.189695     20.31346    20.938829    8587.4865    2110.8039    867.65209    2234.7126   -73.536879    794.14977    2181.9077   -3946.9608 
 9025000    271.32084   -4710.9039   -4187.6389   -4710.9039            0    1755.7614    20.375882    20.171755    20.800301    8549.2836    2006.9146    683.15571    2577.2138   -1404.3239   -787.32822   -68.755488   -3968.7261 
 9026000    270.62337   -4705.7385   -4183.8185   -4705.7385            0    1148.2322    20.094396    20.111825    21.191336    8564.1603    2024.8092    1451.8915    -32.00405    315.19089    599.58998   -163.91827   -4040.4049 
 9027000    273.52543   -4700.0043   -4172.4875   -4700.0043            0    1090.5825      20.1073    20.105356    21.269535    8598.5164     407.3613    1787.3693     1077.017   -164.52308   -155.25542   -1181.2411   -4035.7279 
 9028000    251.17557   -4710.1222    -4225.709   -4710.1222            0     2010.987    20.263273    20.099527    20.784833    8465.2926    1728.3695     2312.971    1991.6206   -73.682076   -1322.9432   -404.60025   -3977.4374 
 9029000    261.92551   -4714.4246   -4209.2793   -4714.4246            0    540.56815    20.282273    20.176944    20.881036    8545.2359      1314.98   -710.71202    1017.4365   -1.1686043    7.4736321   -1404.2519   -4141.9118 
 9030000    259.20047   -4692.4812   -4192.5912   -4692.4812            0    2268.0136    19.993056    20.262373    20.953805    8488.5281    1406.3871    2985.6974    2411.9562    -771.6906    209.03651    34.481759   -3911.8192 
 9031000     262.5895   -4679.5813   -4173.1554   -4679.5813            0    720.97916     20.38144    20.359787    20.740676    8606.5876    1306.1968   -910.40268    1767.1433   -220.46136    514.20719    1064.3747   -4082.6593 
 9032000    254.10914    -4697.211   -4207.1402    -4697.211            0    632.00938    20.183751    20.200854    21.028514    8573.9352   -93.666789    1478.8204    510.87449    16.727179    207.82437    773.52067   -4128.1124 
 9033000    258.35557   -4708.7923   -4210.5319   -4708.7923            0    1631.6786    19.918817    20.256631    21.183987    8547.4876     5311.486   -1108.1597    691.70956   -190.68235    292.79662    528.81522   -4007.1328 
 9034000    255.58776   -4727.8224   -4234.8999   -4727.8224            0    1257.1506    20.243073    20.035289    20.972487    8505.9335    1820.9975     847.8166    1102.6376   -122.11666   -88.059936   -268.83072     -4078.95 
 9035000    244.03191   -4726.7738   -4256.1377   -4726.7738            0    2337.9816    20.282056    20.348792    20.656494    8525.2519    1927.3542    2068.6437    3017.9468    127.53004   -483.36893   -414.81641   -3965.4516 
 9036000    247.84526   -4725.4562   -4247.4658   -4725.4562            0    1696.4539    20.096735    20.133583    20.990366    8493.1068    2779.6105    462.62158    1847.1296    225.37375         -836    1627.7172   -4037.3375 
 9037000    261.78398   -4726.8139   -4221.9415   -4726.8139            0    114.26045    20.250579    20.017772    21.162938    8578.8515    1291.7472   -642.22322   -306.74263   -274.09515    77.442326   -470.42448   -4207.6459 
 9038000    269.68259    -4705.106   -4185.0005    -4705.106            0    3786.6326    19.997601    20.194883    20.922848    8449.6755    3093.1365    4405.9247    3860.8367   -189.79687   -184.23408    2.4462335   -3718.3743 
 9039000    257.01241   -4727.9383   -4232.2682   -4727.9383            0    2263.5954    19.998543    20.139888    20.950455    8438.1818    4793.5354    323.07791     1674.173   -161.61522    299.70785   -717.13056   -3953.7051 
 9040000    257.19306    -4708.546   -4212.5275    -4708.546            0    1321.3702    20.302505    20.141814    20.956774    8569.8384    2133.8852    1056.8111    773.41433    269.71722   -283.44468   -518.19318   -4047.3796 
 9041000    249.82812   -4690.6822   -4208.8676   -4690.6822            0    60.197758    20.078304    20.427398     20.94229    8589.4283   -81.565777   -325.15575     587.3148     166.0478   -624.57449   -908.54815   -4201.3268 
 9042000    248.11413   -4706.8071   -4228.2981   -4706.8071            0    2573.2066     20.13482    20.056387    21.114299    8526.6245    477.58886    4150.3355    3091.6954   -193.35487    1679.3432    132.74636   -3908.3145 
 9043000    260.32113    -4689.196   -4187.1448    -4689.196            0     1603.226    20.202877    20.090799    20.986432    8518.2238     840.6189    2924.2165    1044.8424    -475.2102   -300.60606   -506.78632   -3987.9767 
 9044000    251.31047   -4729.5189   -4244.8456   -4729.5189            0    2291.6495    20.019472    20.345885    20.907473    8515.9042    4540.9605    733.52906    1600.4588    4.3231005    357.57709    372.07422   -3960.2325 
 9045000    249.98248   -4733.8134   -4251.7012   -4733.8134            0     1458.282    20.312842    20.207031     20.89379    8576.1117    928.76542    1322.9717     2123.109    638.10171   -927.72077     596.4043   -4069.3083 
 9046000    241.65129   -4703.5808   -4237.5359   -4703.5808            0    2749.4407    20.127858    20.236074    20.938582    8528.4692     3290.904    2341.9256    2615.4925   -97.074927     308.6779    532.59094   -3895.5633 
 9047000     260.6755   -4715.2115   -4212.4769   -4715.2115            0    1501.2485    20.064412     20.11624    21.145468     8534.745     2534.871    1834.3353    134.53919    522.80943    912.28535    231.45338   -4025.6157 
 9048000    247.74149   -4725.4757   -4247.6854   -4725.4757            0    528.60633    20.162155    20.161878    21.023241    8546.0929    522.04685    1426.0108   -362.23868   -91.542286    1173.3236   -1084.4028   -4181.8021 
 9049000    249.01279   -4688.4091    -4208.167   -4688.4091            0    420.60605    20.314039    20.205248    20.812388    8542.4486    121.19113    704.70978    435.91724   -688.35295   -133.54886   -828.16768   -4155.7667 
 9050000    265.01347   -4750.3345   -4239.2337   -4750.3345            0    4207.2232    20.206589      20.1005    20.819732     8456.195    1867.7905    5444.8578    5309.0212   -522.71358   -217.46176    73.068749   -3720.3782 
 9051000    276.09302   -4674.5709   -4142.1023   -4674.5709            0    2577.8789    20.037322    20.400807    20.926279     8554.193    1399.8394    3441.2144    2892.5828   -903.42121    -529.9055    74.393791   -3820.5012 
 9052000    246.42422   -4715.1126   -4239.8627   -4715.1126            0    2082.6551    20.149271    20.317991    20.774489    8504.9246    2285.9208    2266.9467    1695.0977   -11.649535    348.25847    112.95785   -3981.5394 
 9053000    241.17215   -4718.4016   -4253.2808   -4718.4016            0    2001.1127    20.316137    20.122081    20.891067      8540.33     1593.767    2654.4803    1755.0908    -16.89562    682.68188   -325.19086   -4004.0383 
 9054000    266.80174   -4702.4565   -4187.9069   -4702.4565            0    1917.4313    20.028049    20.276525    20.777016    8437.5305    2587.8757    501.71215    2662.7061    725.06131   -1123.5416    -778.8248   -3951.9617 
 9055000    257.22979   -4705.1048   -4209.0156   -4705.1048            0    1005.9267    20.272543    20.249119    20.977206    8611.1665    827.15018    828.22626    1362.4038   -331.74661   -506.79033   -784.66114   -4082.6862 
 9056000    271.69388   -4688.7257   -4164.7412   -4688.7257            0    2588.7331     20.06934    20.072714    21.130912    8512.5059    3589.8741    2584.8223    1591.5028    149.85657    543.88294    842.77293   -3843.3599 
 9057000    249.09133   -4730.3326    -4249.939   -4730.3326            0    1787.4697    20.080157    20.138902    21.243804    8590.8314     1210.567    3250.8925    900.94946    -715.3848   -1406.9231     41.99918   -4025.9897 
 9058000     255.9952     -4704.65   -4210.9417     -4704.65            0    1941.8549    20.175933    20.153465    20.803216    8458.8987    2562.3095    1407.8406    1855.4146   -558.95654   -554.27462   -347.00074    -3971.386 
 9059000     254.3351   -4712.1931   -4221.6865   -4712.1931            0    2015.7754    20.290756    20.205171    20.723562    8496.2083    841.16094    2671.1335    2535.0317    900.83001   -83.863274    1192.6992   -3971.9148 
 9060000    262.01661   -4725.1334   -4219.8123   -4725.1334            0    1016.0244    20.149497    20.091438     21.13488    8556.0836    1964.0543    1115.8964    -31.87747    120.01279   -722.08993    135.89739    -4093.031 
 9061000    257.78468   -4701.7464    -4204.587   -4701.7464            0     1628.288    20.024082    20.024044    21.159834    8484.3125    2987.5044     1794.361    102.99846   -89.936933    1088.0538    678.21053   -4003.1108 
 9062000    260.26353   -4671.5773   -4169.6372   -4671.5773            0    629.18423    20.291927    20.226895     21.11497    8666.4846    581.92938   -38.421438    1344.0448    266.51661   -1427.7504    817.04648   -4090.1135 
 9063000    265.09218   -4697.9351   -4186.6826   -4697.9351            0    2827.7313    20.076368    20.142425    21.037747    8507.3858    2906.5258    1838.9987    3737.6695    -927.4221   -329.56768    257.88268   -3835.8417 
 9064000    253.71636   -4695.9651   -4206.6518   -4695.9651            0    466.87763    20.272666    20.067496    21.085181     8577.908    656.97308    1063.1967   -319.53684   -514.07694    75.858124    617.65945   -4148.2454 
 9065000    254.61229   -4716.9579   -4225.9167   -4716.9579            0    3074.5963     19.97285    20.212458    20.959967    8461.5471     3841.612    3350.0325    2032.1445   -576.62484    53.727072   -1187.5072   -3846.5023 
 9066000     264.1985   -4683.3848   -4173.8558   -4683.3848            0     802.1261    20.213802    20.428005    20.844778    8607.3855    1356.2404    10.524706    1039.6132    50.594151    552.65949   -93.963592    -4073.165 
 9067000     246.1057   -4709.5953   -4234.9597   -4709.5953            0     1892.738    20.239892    20.067663    21.089656    8565.9294    1571.4314    1515.8647    2590.9179    766.94638   -562.64661    564.59836   -3998.5089 
 9068000     253.3794    -4708.082   -4219.4186    -4708.082            0    1886.8693    20.166132    20.087503    20.975145    8496.7636    2430.5798    482.06739    2747.9608   -1165.1889    877.63384    939.67443   -3985.6042 
 9069000     248.0024   -4726.4917   -4248.1982   -4726.4917            0    2232.8571    20.147449    20.136849    20.902085    8480.1044     2465.185    1014.6546    3218.7317    67.092767   -839.93557    1574.3597   -3972.0527 
 9070000    256.64707   -4701.6097   -4206.6442   -4701.6097            0   -147.82489    20.282197    20.324284    20.931302     8628.325    490.30299   -587.90719   -345.87047    -740.9281   -684.34728   -1888.6422   -4225.2458 
 9071000    253.51164   -4691.1042   -4202.1857   -4691.1042            0    2056.3117    20.253399    19.975464    21.111758     8541.206    1419.2386    2764.8191    1984.8774    1035.2494     395.1753     955.9553   -3946.0418 
 9072000    278.15893   -4691.9774   -4155.5245   -4691.9774            0    1226.0667    20.275796    20.011587    21.223764    8611.5605    576.49814    2734.8588    366.84317   -791.58825    777.35191   -623.18116   -4001.5418 
 9073000    237.87387   -4700.8488    -4242.089   -4700.8488            0    1384.0708    20.166955    20.406794    20.775503    8550.0105    2144.7006    94.628847     1912.883    347.14589    804.88667    1161.4508   -4069.5049 
 9074000      256.877   -4734.4955   -4239.0866   -4734.4955            0    2846.5243    20.067124    20.067532    20.859524    8400.0813    3211.6112    2928.2471    2399.7147   -286.19202   -528.73325   -480.87202   -3890.3687 
 9075000    252.62647   -4715.9746   -4228.7632   -4715.9746            0    1956.6604     20.35759    20.199709    20.978446    8626.7014    1220.0464    2751.3184    1898.6162   -163.74278    955.93872     1535.989   -3982.5927 
 9076000     263.1941    -4724.077   -4216.4851    -4724.077            0    2670.8385     20.12655    20.161088    20.980612    8513.3691     3687.514    2476.8255    1848.1761    334.32672    364.66228    1780.9748   -3884.8771 
 9077000    247.30415   -4740.4856   -4263.5387   -4740.4856            0    738.14526    20.338772    20.067084     21.17193    8641.1081    197.96124    872.40855     1144.066    248.11419    438.52968    564.38413   -4170.5164 
 9078000    269.91922   -4695.9369    -4175.375   -4695.9369            0    3608.0297    20.101117    20.077354    20.838213    8409.8285    6228.3379    1377.8642    3217.8871   -118.13145    172.29774   -547.74802   -3732.8547 
 9079000    256.45448   -4731.8569   -4237.2629   -4731.8569            0    3504.7672    20.133022    20.161589    20.900663     8483.866    4007.3331    3652.5793    2854.3892   -289.76589   -914.12543   -592.60146   -3803.6233 
 9080000    254.06688   -4676.5026   -4186.5133   -4676.5026            0    2438.9588     20.05161    20.018061    21.292705    8546.7714    1974.9541    3536.0278    1805.8946   -77.818298   -259.20474    1484.4554   -3882.5071 
 9081000     257.9564   -4697.9936    -4200.503   -4697.9936            0    1791.4596    20.121886    20.097409    21.149846    8552.9503    2326.6231     1365.187    1682.5687   -207.11524    -684.2132    920.43069   -3977.0434 
 9082000    248.32954   -4722.4943   -4243.5699   -4722.4943            0    954.95495    20.354875    20.181909    20.806214    8547.1973    216.12459    742.57046    1906.1698   -400.60956   -544.58956   -286.00465   -4124.5328 
 9083000     253.0303   -4688.3874   -4200.3972   -4688.3874            0    2627.6433    20.325781    20.106791    20.791175    8497.0669    1848.1762    2678.9745    3355.7793   -320.51647    660.12743   -97.427871    -3874.777 
 9084000    265.64216   -4686.7058   -4174.3926   -4686.7058            0    1642.9293     19.96438    20.145838    21.203041    8527.8457    3604.5587    525.92352    798.30562   -350.96428   -1643.3721    2249.7486   -3970.0617 
 9085000    256.77025   -4730.9983   -4235.7953   -4730.9983            0    645.35421    20.032902    20.335464    20.913327    8519.6366    2093.3005   -427.50717    270.26932    156.66302    852.89392    699.22752   -4155.6099 
 9086000    246.82997   -4706.5533   -4230.5209   -4706.5533            0    1546.7764    20.240678    20.100961    20.960509    8527.9316    1655.1202     1148.673    1836.5361    3.2271107    816.11241   -262.08472   -4038.1466 
 9087000    260.63831   -4728.9655   -4226.3026   -4728.9655            0    2837.8095     20.16629     19.95279    21.089693     8485.939    3090.3152    3237.2514    2185.8618   -443.03576   -304.97943    361.75667    -3875.099 
 9088000    252.69149   -4698.0876   -4210.7508   -4698.0876            0    1717.4808    20.149561    20.268559    20.837077    8509.9157    1195.9591     2649.427    1307.0564    31.446681    117.79662   -497.90606    -3997.597 
 9089000     245.1098   -4736.5608   -4263.8459   -4736.5608            0    455.09271    20.158453    20.313511    20.982717    8592.1908    438.33549    1820.9501   -894.00742    260.23402   -583.80753   -24.020738    -4206.819 
 9090000    237.44917   -4681.7712   -4223.8305   -4681.7712            0    3961.2017    20.086929    19.961593    21.160278    8484.5751    3462.4127    5817.4455    2603.7469   -854.17656   -798.85883    602.01644    -3733.676 
 9091000    260.22322   -4728.3381   -4226.4757   -4728.3381            0    1875.5871    20.102274    20.057053    21.264889     8573.841    3247.0672    2308.7867     70.90751   -212.46488   -365.34169    235.52774    -3991.951 
 9092000    260.00274   -4725.3701   -4223.9329   -4725.3701            0    227.61764    20.208649    20.211409    20.961382    8561.5772    1391.9176   -1443.3172    734.25254   -581.60678    546.96438   -618.09055   -4195.5122 
 9093000    258.55719   -4690.8699   -4192.2206   -4690.8699            0    2131.4515    20.237151    20.232987    20.916691    8564.5066    418.67363    3617.2286    2358.4521    1037.3247    432.05834   -615.45417   -3925.9926 
 9094000    256.04867   -4711.9872   -4218.1758   -4711.9872            0    1681.8145      19.9832     20.25175    21.004642     8500.469    1700.6828    2003.1339    1341.6268     741.1624    316.23149    310.19885   -4009.6803 
 9095000     258.5002   -4756.6787   -4258.1393   -4756.6787            0    1955.3256    20.246329    19.969031     20.99263    8487.3115    1249.8814    3362.2809    1253.8145    292.20857    813.46224    305.87758   -4016.1116 
 9096000     258.3994   -4698.4467   -4200.1017   -4698.4467            0    1337.8787    20.201722    20.249545    20.901399    8550.2538    1305.6939    1426.6451    1281.2971    -505.7007    903.72317    227.01859   -4033.2727 
 9097000    265.69971   -4714.7381   -4202.3138   -4714.7381            0    2607.1167     20.27678    20.106603     20.61516    8404.7422    840.68458    3382.1911    3598.4743    529.32299    295.55413   -725.94965   -3882.7477 
 9098000    265.76987   -4742.7201   -4230.1606   -4742.7201            0    1964.1011    20.153769    20.071737    21.112851    8540.5943    631.63476     3364.663    1896.0054   -729.86695   -387.87188    831.79373   -3985.5204 
 9099000    254.85734   -4715.4079   -4223.8941   -4715.4079            0    195.09578    20.002145     20.35025    20.987931    8543.1089    1449.8725   -718.56565   -146.01956    51.848308   -31.183195   -1168.1498   -4199.5866 
 9100000    252.74859   -4702.3591   -4214.9122   -4702.3591            0    2307.7271    20.113956    20.386742    20.876693     8560.656    1206.6442     2178.179    3538.3582   -382.51294   -565.86664    674.51001   -3926.7962 
 9101000    250.26342   -4740.4903   -4257.8363   -4740.4903            0     1450.152    19.981323    20.275497    20.898019    8466.4409    308.28389    3640.4709    401.70125    55.142121    174.85899   -587.41495   -4078.7797 
 9102000    248.10423   -4695.9986   -4217.5087   -4695.9986            0    869.64175     20.30061    20.063996    20.982077    8546.2386    1125.7526    1605.7048   -122.53213     151.8735    1281.7222    536.92484   -4109.1182 
 9103000     252.9037   -4688.0131    -4200.267   -4688.0131            0    4130.1797    20.069126    20.115538    20.850243    8417.2695    6379.9031    3360.5533    2650.0828    467.54776   -1427.2367    1488.5043   -3693.2576 
 9104000    258.49237   -4698.3945   -4199.8703   -4698.3945            0    2529.2383    20.151415    20.151229    20.909671    8490.9105    4080.2253    1676.5552    1830.9343   -373.44969   -890.77868   -772.62272   -3886.6716 
 9105000    258.20368   -4681.9833   -4184.0158   -4681.9833            0    1130.3997    20.307601    20.221099    20.906237    8584.9791   -233.67526    1456.9992    2167.8751    422.90684   -219.26361    678.91292   -4042.4863 
 9106000    254.64376   -4738.8315   -4247.7296   -4738.8315            0    3100.8969    20.220038    20.105852    20.899598    8496.5456    1927.0167     3191.094    4184.5798    408.88891    407.62088    697.77604   -3863.4869 
 9107000    265.91308   -4725.2021   -4212.3663   -4725.2021            0    2670.5572    20.028997    20.117465     21.03171    8474.3623    3533.1479    1408.4178    3070.1058    286.21488    555.01594    839.16067   -3882.3125 
 9108000    263.25562   -4698.2442   -4190.5337   -4698.2442            0     1805.559    20.321449    20.068646    21.050541    8584.9153    2485.2137    970.89506    1960.5682   -663.03911   -676.21587    -530.6842   -3964.4737 
 9109000    257.53277   -4709.4715   -4212.7979   -4709.4715            0    2622.1034    20.303794    19.977428    20.916148    8483.9574    1733.1302    3761.6231    2371.5567   -522.26572    1763.5836   -1170.1701   -3888.3655 
 9110000    265.68986   -4696.1966   -4183.7913   -4696.1966            0    867.53405    20.221681    20.342125    21.022321    8647.5729    1889.9147   -1080.0555     1792.743    300.57112   -955.63053   -196.89815   -4074.3814 
 9111000    263.25937   -4694.0286   -4186.3108   -4694.0286            0     2143.173    20.115711    20.221166    20.874312    8490.9006    3241.9537    850.58188    2336.9833   -651.50336   -1418.5114   -1247.8811   -3920.9194 
 9112000    261.54838   -4707.3301   -4202.9121   -4707.3301            0    1117.2483    20.174991    20.089483    21.178233    8583.6465    1953.4037    1340.6167    57.724411   -789.77849   -500.62782    388.64576   -4063.0508 
 9113000     253.6171   -4731.6843   -4242.5624   -4731.6843            0     2635.653    20.051964    20.020263    21.047686    8449.5006    3615.3178    1646.9819    2644.6592   -105.83748   -929.63126    331.46994    -3917.778 
 9114000    256.84295   -4703.6865   -4208.3433   -4703.6865            0    526.41325    20.429613    20.214379    20.790416    8585.8584   -635.89228     -243.003     2458.135    17.803523   -1129.1895    779.96905    -4142.428 
 9115000     261.4235    -4730.518   -4226.3408    -4730.518            0     1932.988    20.147237    20.144687    20.874972    8472.3116    2308.5476    1605.1442     1885.272   -227.78429    680.95539   -1319.2267   -3987.5008 
 9116000    237.60033   -4701.1275   -4242.8952   -4701.1275            0    1682.5154    20.222401    20.111465    21.050502    8561.2833    2073.9626      1352.89    1620.6936   -504.35611    -727.2928   -115.17952   -4032.8205 
 9117000    248.75566   -4727.2185   -4247.4723   -4727.2185            0    20.527418    20.039319    20.300677    21.033129    8556.5238    830.73574   -378.35458   -390.79891    276.59372    560.89587    392.63846   -4244.9107 
 9118000    246.70052   -4712.5476   -4236.7649   -4712.5476            0    1332.5873    20.242928    20.155592    20.775348    8476.5124    481.03948    2277.3522    1239.3703   -17.170928   -42.423618   -509.81735   -4072.0288 
 9119000    251.19079   -4726.6517   -4242.2092   -4726.6517            0    3261.0517     20.16311    20.164799    20.764665    8442.6027    3182.1677    2851.8556    3749.1319    416.50156    177.26088    334.05486   -3840.6866 
 9120000    260.12635   -4714.1928   -4212.5173   -4714.1928            0    1424.1171    20.243438    20.055315     21.15319    8587.9526    2104.1597    385.81847    1782.3732   -693.02998    1287.5296    1549.7296   -4034.1516 
 9121000    248.68669   -4728.4499   -4248.8367   -4728.4499            0    1939.9619     20.14793    19.897504    21.248132    8518.2383    1168.3129    2643.6544    2007.9185    498.37943    1016.4754    668.63294   -4007.8356 
 9122000    267.95682   -4697.5235   -4180.7463   -4697.5235            0    3074.6984    20.169959    20.094231    20.942951    8488.1746    1262.8091    5048.6922    2912.5939   -223.56739    1576.1124   -1612.8445   -3800.1253 
 9123000    248.67561   -4688.1119   -4208.5201   -4688.1119            0    1837.8544    19.975782    20.385786    20.965904    8537.7776    1960.4216    1480.4108    2072.7306    -51.42232    599.29233    397.94598   -3979.6802 
 9124000    251.84052   -4692.8809   -4207.1853   -4692.8809            0    1519.5557    20.231866    20.322402    20.903919    8594.8576     984.6073    1586.3458    1987.7139   -1110.8075    1209.4791    222.67928   -4016.7133 
 9125000     258.8037   -4683.8724   -4184.7477   -4683.8724            0    2232.6101    20.222006    20.062921     20.89579    8477.6833    800.59405    3150.8282    2746.4081    245.04087   -186.91146   -888.59034   -3908.7115 
 9126000    239.78139   -4708.3552   -4245.9166   -4708.3552            0    743.53715    20.148967    20.149573    21.181533    8599.5558    2521.1376   -432.46072    141.93457    131.69923   -231.74653    823.05853   -4152.6654 
 9127000    254.41063   -4711.8103    -4221.158   -4711.8103            0    1455.6791    20.106645    20.161481    21.053855     8534.806    2262.8356    858.51302    1245.6887   -1318.0512   -61.506434   -2078.7382   -4039.9676 
 9128000    254.46525   -4726.7594   -4236.0018   -4726.7594            0    2246.7435    20.285377    20.303215    20.654639    8506.7862    1968.2473    968.65204     3803.331    403.13264   -876.79469   -1145.3828   -3957.2646 
 9129000    264.97143   -4689.9479   -4178.9282   -4689.9479            0    2011.7874    20.260184    20.097521    20.986104    8545.1103    2381.2887    1979.3539    1674.7197    358.82455   -168.49045   -725.56493   -3928.2159 
 9130000    244.67192   -4732.0391   -4260.1687   -4732.0391            0    801.78747    20.109321    20.062827    21.075143    8502.7631    837.36048    1720.7931   -152.79119     855.9291   -1013.5769   -1175.1145   -4160.7438 
 9131000    239.65103   -4720.6691   -4258.4819   -4720.6691            0    1121.9184    19.968516    20.276833    21.107471    8546.3783    2307.6232    225.63299    832.49903   -454.78699    659.69272   -368.61126   -4118.6458 
 9132000    257.38371   -4681.3421   -4184.9559   -4681.3421            0    2558.4999     20.29572    20.079779    20.905714    8519.7802    717.34561    3854.0785    3104.0756   -117.68005    669.00221   -998.39295   -3867.0566 
 9133000    266.65143   -4692.1695   -4177.9097   -4692.1695            0    2002.4652    20.263187    20.216637    20.700237    8479.9245    2935.2844    1175.2437    1896.8676   -212.36831    -866.8523   -312.66965   -3930.2629 
 9134000    240.42391   -4694.4282   -4230.7505   -4694.4282            0    1634.8098    20.079712    20.123494    21.036356    8500.2436    3530.3238    610.69205    763.41358   -158.77032    111.73168   -481.61077   -4028.0875 
 9135000    268.84819   -4737.1501   -4218.6538   -4737.1501            0    1578.8283    20.035577    20.367079    21.065978    8596.3131    1773.0626     1041.535    1921.8872   -587.21322   -327.42769     348.0715   -4020.7186 
 9136000    257.31731   -4704.1177   -4207.8597   -4704.1177            0    1598.9934    20.285332     20.11081    20.864033    8511.5755     1755.262    1691.7804    1349.9377   -111.65698   -409.05025    -2036.651   -4009.3725 
 9137000    250.35955   -4724.3356   -4241.4962   -4724.3356            0    770.18762    20.358379    20.142683    20.880401    8562.4757    156.35966    1496.9923     657.2109   -136.38079    148.11011    962.35039   -4145.3191 
 9138000    257.57816   -4722.0789   -4225.3178   -4722.0789            0    2799.0671    20.159064    20.036985    20.906964    8444.8847    3626.5695    2469.6044    2301.0276   -73.257797    811.85029    636.24995   -3880.5847 
 9139000     249.6451   -4749.4428   -4267.9812   -4749.4428            0    1663.9705    20.156529     20.21928    20.960514    8542.4684    2311.6524    1220.5933    1459.6657   -135.37979    579.21765    948.50088   -4060.6785 
 9140000    259.08306   -4704.0585    -4204.395   -4704.0585            0     2044.458    20.309937    20.134088     20.72399    8474.4967    2197.4546    1616.4821    2319.4373   -443.16398   -535.91247    724.03686   -3951.7167 
 9141000    248.39234   -4703.3649   -4224.3193   -4703.3649            0    1928.7454    20.141863    20.095071    20.995159    8497.8359    2330.7968    836.06035    2619.3792     32.17307    344.60942   -1004.3408   -3985.2856 
 9142000    249.91836   -4705.3538   -4223.3652   -4705.3538            0    2379.5635    20.109268    20.020292    21.168582    8522.3316     2548.123    3914.0303    676.53732    264.18429    -925.6302    943.63351   -3927.6105 
 9143000    254.33335   -4719.7653   -4229.2621   -4719.7653            0    411.85614    20.178035    20.135987    20.966148    8518.6433     1103.456     158.3239   -26.211442    530.93893   -693.98538     630.7973   -4178.0948 
 9144000    260.85381   -4712.2553   -4209.1768   -4712.2553            0    2957.3652    20.239842    20.205527    20.779765    8498.0234    1568.9522    3231.5726    4071.5707    380.82572     761.0728     621.8308   -3842.6559 
 9145000    251.36771   -4711.4498   -4226.6661   -4711.4498            0    1195.7216    20.179306     20.26253    20.928838    8557.4629    1636.6462   -363.73395    2314.2526   -514.21402   -1016.9065   -221.39795   -4077.4378 
 9146000    238.68997   -4698.5756   -4238.2419   -4698.5756            0    2079.9994    19.948458    20.124467    21.156097    8493.1591    3220.4413    1384.6152    1634.9416    754.17011   -216.86554    372.06809   -3980.6048 
 9147000    251.86364   -4735.7357   -4249.9955   -4735.7357            0    271.44685    20.141276    20.233992    21.102023    8599.8853    1836.4864   -1567.1761    545.03028    485.66273   -164.62734   -480.83085   -4215.9505 
 9148000    251.55568   -4726.5399   -4241.3936   -4726.5399            0    2326.9278    20.087235    20.187961    20.774342    8424.4177    2589.0964    1823.7975    2567.8894    611.70739   -422.86695    -723.4614   -3955.5038 
 9149000    258.85571   -4693.7934   -4194.5684   -4693.7934            0   -138.65967    20.357638    20.217785    20.948364    8622.0607   -2137.2114    482.16761    1239.0648    387.09771    813.68014   -264.89603    -4212.004 
 9150000    254.78024   -4722.2686   -4230.9035   -4722.2686            0     804.6964     20.18527     20.10635    21.004428    8524.6914    2331.9308    566.14532   -483.98693   -160.51042    561.99928    505.27997   -4130.8605 
 9151000    265.07478   -4692.1541   -4180.9351   -4692.1541            0    1689.2269    20.191948    20.218437    20.975096     8563.075    1743.3364    1820.2203     1504.124    53.527657    261.41484   -182.92588   -3969.9782 
 9152000    252.07821   -4687.7705   -4201.6165   -4687.7705            0    1329.0867    20.058574    20.292505    21.122831    8597.8098    1219.6012    203.98529    2563.6736    69.003559    1352.2735    1839.1215    -4034.962 
 9153000     256.6531   -4724.4903   -4229.5132   -4724.4903            0    3426.9087    20.020473    20.125167    20.950575    8441.3083    2398.7647    4383.9932    3497.9682   -154.36837   -419.35742    224.82681    -3807.634 
 9154000    254.06425   -4706.0359   -4216.0516   -4706.0359            0    1275.6311    20.212179    20.291615    20.853776    8552.9212    1909.3954    1360.0015    557.49628    679.69979    964.42176    1554.3148    -4056.935 
 9155000    244.90514   -4697.8935   -4225.5734   -4697.8935            0    2921.3594    20.171701    20.205507    20.882561    8511.3026    3927.4954    2748.0257    2088.5569    255.40782     85.03997   -2097.9587   -3862.9491 
 9156000    250.02898   -4718.7647   -4236.5627   -4718.7647            0    1329.5904    20.196894      20.0295    21.218063     8583.421    1472.2675    1669.4237    847.07995   -60.397751    289.76329   -576.41672   -4070.1241 
 9157000    267.73099   -4733.6407    -4217.299   -4733.6407            0    2891.1266    20.100521    20.074252    20.972877     8462.617    2916.3755     3082.137    2674.8673    -333.3726    1071.6805   -247.81679   -3860.4802 
 9158000    239.43238   -4717.3964   -4255.6309   -4717.3964            0     876.8641    20.284425    20.268441    20.978201    8624.8445   -786.92517    1790.9784    1626.5391     162.9799    1075.2298    54.358373    -4145.335 
 9159000    250.45386   -4720.4597   -4237.4383   -4720.4597            0    3433.7874    20.056618    20.112619    20.853245     8412.014    3591.8005    4482.1231    2227.4384   -336.79435    324.31739   -499.21478   -3816.1793 
 9160000    260.42285   -4719.8894    -4217.642   -4719.8894            0    9.7439361    20.279603    20.112974    21.168367    8634.2198    -1444.297    1357.9737    115.55515    67.163146   -1453.3642    555.63497    -4216.415 
 9161000    259.74199   -4737.1646   -4236.2303   -4737.1646            0    1808.8077    20.187673     20.22703    20.880856    8526.4195    1807.4032    495.32132    3123.6986   -579.93419    372.58037   -1542.8932   -4011.3067 
 9162000    251.63405   -4699.9361   -4214.6386   -4699.9361            0   -90.846722    20.392088    20.182964     20.82081    8569.2789   -156.63616   -289.03834    173.13433    -387.0877    435.88778   -439.73375   -4225.9921 
 9163000    270.50137    -4729.474   -4207.7894    -4729.474            0    2361.2533     20.02525    20.206962    20.975437    8487.6997     2063.378    2454.6473    2565.7348    364.79319    -208.4353     40.97395   -3915.5031 
 9164000    258.16051   -4727.6706   -4229.7864   -4727.6706            0    2781.1704    20.096067    20.161117    20.979144    8499.8925     3748.989    1991.5624    2602.9597   -496.60722   -254.14661   -148.97276   -3885.0263 
 9165000    253.40522    -4704.608   -4215.8947    -4704.608            0    2963.7325    20.347153    20.054699    20.873471    8517.5457    5172.9041    1456.3984     2261.895    48.869321   -365.82341    1195.2808   -3847.7409 
 9166000     258.8285   -4700.6035    -4201.431   -4700.6035            0    1508.0103     20.12038    20.245812    20.917909    8520.9821    2660.6017    1302.3638    561.06523    -224.2773    176.46743    18.908275   -4014.0309 
 9167000    257.41376   -4709.9821    -4213.538   -4709.9821            0    2080.4617    20.060492    20.134912    21.178104    8554.1801     1783.209    1986.6041     2471.572    235.04121   -422.09355    1233.1522   -3953.9922 
 9168000    266.33708    -4696.605   -4182.9515    -4696.605            0    2637.8529    20.220143    19.929503    21.012492    8467.5594    2304.2943    4592.7362     1016.528   -3.6671561    13.164116   -798.50173   -3857.2013 
 9169000    261.53709   -4690.7049   -4186.3087   -4690.7049            0    2301.9992    20.151731    20.261641    20.882802    8526.5971    2517.7434    2299.2891    2088.9651   -1289.8241   -336.06579   -138.36264   -3900.0512 
 9170000    249.94131   -4682.1468   -4200.1139   -4682.1468            0    1886.5014     20.38969    20.095352    20.772698    8511.3638    700.85354    2209.4943    2749.1563     -100.878    -658.6433    226.07932   -3965.9434 
 9171000    261.76813   -4704.8219   -4199.9801   -4704.8219            0    627.44339    20.193017    20.109263    21.029687    8539.4553   -906.42031    2646.1366    142.61383   -174.23034   -947.66021   -257.25981   -4121.8388 
 9172000    255.55674   -4726.6355   -4233.7728   -4726.6355            0    1622.0839    20.045551    20.266994    21.050858    8552.1858    2741.9978     312.3768     1811.877    59.047055   -194.54339   -899.67212   -4031.4586 
 9173000    234.83608   -4696.1902   -4243.2891   -4696.1902            0    1775.5514    20.080589    19.999429    21.186748    8508.6044    2716.4001    2006.3775    603.87668    284.30333    -778.4667    644.98256   -4022.9622 
 9174000     261.8095   -4723.3158   -4218.3942   -4723.3158            0    2731.0524    20.252054    20.160949    20.848153    8512.3142    2219.8325    2486.9558    3486.3689   -89.782552   -608.99878   -133.89885   -3879.3521 
 9175000    252.91918   -4717.5179    -4229.742   -4717.5179            0    2210.8511    20.154819    20.372551    20.812312    8545.6409    2595.3116    607.24508    3429.9966   -284.35098   -1103.5773   -464.65235    -3954.205 
 9176000    255.75817   -4738.5746   -4245.3234   -4738.5746            0    2063.3893    20.031712    20.244235    20.790475    8431.0921    3441.2184    465.53996    2283.4095   -512.15717   -489.24782   -396.33938   -3991.6115 
 9177000    252.53872   -4698.1855   -4211.1433   -4698.1855            0    1288.2524    20.031548    20.316337    21.099059    8586.6349    1003.4341    1679.1803    1182.1427    548.82278    422.09405    84.620849    -4049.819 
 9178000     253.7739   -4713.0186   -4223.5943   -4713.0186            0    2228.0402     20.03264    20.270747    21.031269    8540.3055    2055.3825    3965.5987    663.13947   -369.49092     251.1423    5.3262194   -3946.0883 
 9179000    257.15908   -4681.7109    -4185.758   -4681.7109            0    2498.7615    20.367451    20.003567     20.86931    8502.6093    824.29976    4391.6392    2280.3455   -45.781208    192.13783    -1248.757    -3875.907 
 9180000    264.72725   -4702.3725   -4191.8237   -4702.3725            0    4127.3058    19.929916    20.067867    20.983067    8392.1966    2761.1818    5597.6253    4023.1103   -233.53411   -794.16954    283.73767   -3686.6762 
 9181000    251.40643   -4714.5073   -4229.6489   -4714.5073            0    1835.0742    20.175576     20.17326    21.104368    8589.6285     2669.091    993.12287    1843.0086    244.67376    527.59282   -174.14332   -3999.7675 
 9182000    267.18251   -4735.7928   -4220.5089   -4735.7928            0    1701.3313    20.353414    19.999167    20.897611    8506.4002    138.91528    3631.1137    1333.9649   -363.74661    621.65331    -574.4671   -4009.4466 
 9183000    243.44451   -4715.8486   -4246.3454   -4715.8486            0    1642.9197      20.1543    20.254646    20.887922    8526.8298    1693.2623    1573.9023    1661.5945    249.20195   -260.11473    1681.2082     -4042.04 
 9184000     253.2543   -4721.5968   -4233.1746   -4721.5968            0    1250.2749     20.10045    20.194074    21.017764    8531.3199    698.49603    1614.2041    1438.1247   -664.89717    468.03048    462.07963   -4077.6147 
 9185000    268.33633   -4711.0618   -4193.5526   -4711.0618            0    2946.9147    20.326284    20.269921    20.747684    8548.2987    2570.4172    1972.5542    4297.7728    298.77571   -205.59088   -265.59085   -3826.1661 
 9186000    249.89362   -4674.7751   -4192.8342   -4674.7751            0    1199.4313     20.06966    20.255951    20.974031    8526.5738    2508.2013    67.098334    1022.9942   -952.55191    47.811126    736.46882   -4043.6833 
 9187000    253.68432   -4715.3744   -4226.1229   -4715.3744            0    1599.6958    20.208081    20.086296    20.834956    8457.0231    2730.1033    1488.7615    580.22267    546.87031   -310.04018    89.018804   -4028.8212 
 9188000     253.2018   -4692.6285   -4204.3075   -4692.6285            0    954.02613    20.431679    20.275869    20.607741    8537.1697     330.5843    1019.8501     1511.644   -292.53463    715.84137   -1575.8797   -4085.5256 
 9189000    239.15629   -4712.7245   -4251.4914   -4712.7245            0    1649.6869    20.069395    20.171838    21.080711    8534.2429    2874.6832    788.67177    1285.7057    343.75986    479.78402    43.652665   -4046.1662 
 9190000    267.55994   -4694.7979   -4178.7861   -4694.7979            0    2250.7672    20.423053    20.034623    20.972231    8581.1691    385.54459    2535.7227    3831.0343    471.63959    -332.8381   -553.07277   -3897.1081 
 9191000    257.59895   -4710.6146   -4213.8134   -4710.6146            0     1685.426    20.165116    20.142611    20.846727    8467.4839    1249.6947     2057.391    1749.1922   -873.83411    -220.4497     -715.265   -4005.6809 
 9192000    264.35392   -4715.7553   -4205.9265   -4715.7553            0    985.17651    20.257931    20.173232    21.018459    8589.5703    764.22779   -236.89758    2428.1993   -681.60362    242.54343   -956.02529   -4082.5134 
 9193000    250.23772   -4691.9468   -4209.3424   -4691.9468            0    2381.7158    20.250775    20.153944    20.917937    8537.3001    1730.2629    3734.4376    1680.4468   -188.86446   -554.08147   -615.75011   -3912.8003 
 9194000    266.12445   -4705.9493   -4192.7059   -4705.9493            0    2347.7052    19.978982    20.360385    20.850143    8481.4163    4511.0618    627.66256    1904.3911   -801.92715    1240.3139    758.47381   -3902.3118 
 9195000    254.82139   -4707.9321   -4216.4876   -4707.9321            0     1649.736    20.241221    20.173718     20.97256    8563.9495    745.89799     2237.513    1965.7969   -1008.9152    621.54564    411.10335   -4010.4415 
 9196000    249.73845   -4703.9702   -4222.3286   -4703.9702            0    1782.6421    20.200482    20.215269    20.893595    8532.0702    654.58141    2698.9971    1994.3479   -77.213955   -152.00046   -57.941168   -4000.5118 
 9197000    257.70271   -4713.4805   -4216.4792   -4713.4805            0    2013.6467    20.182352    20.015838    20.996369    8481.8336    2718.1448    744.51815    2578.2771    212.39924    285.32868   -741.32696   -3967.3934 
 9198000    257.14306   -4702.1329   -4206.2109   -4702.1329            0    1320.3129    19.980486    20.428933    20.985576    8565.8926    3231.1792   -1205.5435     1935.303    550.47746    350.80557   -722.80739   -4041.2711 
 9199000    263.46981   -4691.1677    -4183.044   -4691.1677            0    2556.7752     20.23177    20.302176    20.709351    8506.3445    3405.5902    500.45516    3764.2801    37.483165      513.773   -1100.9127   -3865.8599 
 9200000    247.95142   -4706.1552     -4227.96   -4706.1552            0    1624.0976    20.410386    20.128168    20.767263    8531.6833    2144.0391    803.25441    1924.9993     671.4325    669.27817    72.232707   -4025.8803 
 9201000    236.14167   -4678.8999   -4223.4808   -4678.8999            0    1013.8037    20.197424    20.228022    20.989293     8575.258    1359.4175     115.2001    1566.7935    -665.9406   -547.23038   -319.00289   -4096.6932 
 9202000    247.19445   -4683.0887   -4206.3534   -4683.0887            0    2728.1873    20.217964     19.95633     21.01388    8478.6039    1461.4895    3338.5336    3384.5387   -205.76043   -548.29935     467.8642   -3869.0083 
 9203000    248.28398   -4723.4214   -4244.5849   -4723.4214            0    1841.9917    20.061875    19.985452     21.23927    8515.7929    3383.1478     2487.955   -345.12755    505.94068    687.66739   -612.52528   -4015.8203 
 9204000    240.60092   -4701.0959   -4237.0768   -4701.0959            0     2102.387    20.233031    20.253422    20.964629    8591.0561    2317.4572    1518.4568    2471.2472   -185.66796    2318.5988   -1444.6587   -3973.6651 
 9205000    242.66105   -4719.7463    -4251.754   -4719.7463            0    3216.6686    20.041183    20.125958    20.881248    8422.4096    3984.2965    3846.1295    1819.5799    169.46364    999.07088   -94.972133   -3856.6435 
 9206000    260.56096   -4748.2789   -4245.7652   -4748.2789            0    1260.9116    19.959432    20.273136    21.261258    8603.1614    1400.0385    1937.2802    445.41612   -509.79255   -1005.7416    103.05455   -4087.5608 
 9207000    254.60369    -4720.976   -4229.9514    -4720.976            0    1792.4891    20.203794    20.135591    20.943048    8519.9534    2112.4638    2844.3936    420.60984    84.653022    634.98762    881.43071   -4007.2261 
 9208000    258.48713   -4696.7924   -4198.2782   -4696.7924            0    3309.5457    20.256873    20.063196     20.79919    8453.1573    3801.6844    1801.1403    4325.8125    262.84663   -991.47385   -281.44434   -3790.2754 
 9209000    255.62604   -4713.3994   -4220.4031   -4713.3994            0    2206.8475    20.247251    20.204516    20.747432    8487.4822    3567.7808    443.49616    2609.2656    -487.7115   -94.403799   -325.39953   -3947.2368 
 9210000    256.82645   -4681.1955   -4185.8841   -4681.1955            0    1570.7194    20.072045    20.157523    21.316606    8624.7567    3756.1185    155.64828    800.39143    194.42868   -772.12111   -765.80918   -3988.3139 
 9211000    258.98228   -4714.2215   -4214.7524   -4714.2215            0    2476.9897    20.061136    20.060386    21.102994    8492.5651    3550.0603    2420.6639    1460.2447   -213.33295    1092.2368   -312.92813   -3907.9639 
 9212000    254.06746   -4700.8083   -4210.8178   -4700.8083            0    3554.2525    20.162471    20.188929    20.710149    8430.2462    2081.6861    3192.2847    5388.7868     205.8378    3.9690771    516.20726   -3773.8349 
 9213000    264.62808   -4698.9186    -4188.561   -4698.9186            0    1307.4471    20.219417    20.102086    21.096563    8574.7496    1244.9534    3698.1752   -1020.7874   -591.11099   -707.86972   -1013.7376   -4025.0596 
 9214000    255.24552   -4697.8138   -4205.5513   -4697.8138            0    450.83266    20.155167    20.200625     21.27778    8663.1837    1523.2771    76.218415   -246.99752   -544.12726   -836.11046    338.01958   -4148.5915 
 9215000    245.61828    -4739.466   -4265.7705    -4739.466            0    3951.3359    19.943768    20.043775     21.20648    8477.2568    6133.2538    3282.1606    2438.5933    -439.9157    155.29776    494.38817   -3777.2586 
 9216000    252.38894   -4718.9095   -4232.1563   -4718.9095            0    1669.5371    20.194747    20.228837    20.917156    8544.9977    1008.5154    1632.3844    2367.7114   -939.31509   -603.08859    1818.7798   -4024.0985 
 9217000    250.44885   -4735.1174   -4252.1057   -4735.1174            0    1431.5665    20.178811    20.334817    20.693366    8491.1591    704.21575    1624.4593    1966.0244    41.993699    899.67403    877.64433   -4074.8279 
 9218000    266.73383   -4717.9363   -4203.5177   -4717.9363            0    357.00306    20.201192      20.1955    21.014164    8573.2155   -584.41419    915.99293    739.43045   -22.796366     1760.017   -28.556485    -4158.881 
 9219000    261.59799   -4705.2917    -4200.778   -4705.2917            0    2833.0827    19.985409    20.044693    21.134512    8466.5153    1879.6226    4000.6958    2618.9298    147.37996    900.49601   -444.06999   -3850.9618 
 9220000    250.63496   -4728.6356   -4245.2651   -4728.6356            0    1879.3703    20.203803    20.093155    20.860637    8468.5453    1293.4358    1294.5305    3050.1447   -114.30935    -645.7437   -861.88896   -4013.1533 
 9221000    256.40717   -4720.0197    -4225.517   -4720.0197            0    2159.0108     19.95675    20.225954    21.049184    8496.3833    1401.3014    4179.2272    896.50365   -193.55813   -870.83873   -1071.7254   -3957.9917 
 9222000    251.92717   -4726.8176   -4240.9549   -4726.8176            0    275.72762    20.147737    20.135779     21.05756    8542.8499   -148.11542    1481.6491   -506.35085   -179.64221    33.598677   -14.414557   -4206.6023 
 9223000      248.737   -4712.1867   -4232.4764   -4712.1867            0    2501.5824    20.390084    20.074757    20.748358    8492.8422    187.95742    4172.1436    3144.6463    610.25417    162.74111    373.43901    -3922.632 
 9224000    251.09618   -4701.6667   -4217.4066   -4701.6667            0    2416.4626    20.172301    20.200576    20.841374    8492.6954    1082.6214     2873.121    3293.6454   -212.57626    991.81396   -1393.2315   -3918.1102 
 9225000    254.24976   -4735.6418   -4245.2998   -4735.6418            0    800.88985    20.033586    20.175088    21.132348    8541.2588    440.03748     1113.868    848.76411   -53.659956   -1654.2888    790.28924   -4145.5366 
 9226000    252.62139   -4702.5708   -4215.3692   -4702.5708            0    1490.1831    19.890277    20.339982     21.19563     8575.071    3031.9592     282.4444    1156.1457   -870.48591   -99.321438   -39.867614    -4029.009 
 9227000    258.88195   -4650.7013   -4151.4256   -4650.7013            0    1990.9718    20.214835    20.188164    20.883869    8522.7148     1640.153    947.65105    3385.1114     569.1912    -124.7364    -558.5778   -3903.9577 
 9228000    253.10721   -4678.8553   -4190.7168   -4678.8553            0    2234.5606    20.248699     20.16032    20.782591    8483.8747    1656.9025    1372.9877    3673.7917    574.40646    -162.0023    1078.5557   -3914.2377 
 9229000    264.54339   -4711.4136   -4201.2194   -4711.4136            0    2498.7438    20.181074    20.092791    20.920393     8483.096    841.72435     5341.555    1312.9521    406.26809    1772.6125    1426.8855   -3892.0817 
 9230000    258.19635   -4674.1207   -4176.1673   -4674.1207            0    2979.9362    20.170705    20.127941    20.858076    8468.2696    2760.2781    4018.1646    2161.3658    1.9181699   -105.98532    -1617.975   -3808.1421 
 9231000    268.51579   -4713.4184   -4195.5631   -4713.4184            0    2407.1722     20.12385    20.097775     21.08222    8526.5897    2815.5897    2743.1964    1662.7306   -798.00646    1157.0692    -408.2853   -3896.2275 
 9232000    263.62671   -4712.1129   -4203.6866   -4712.1129            0    3623.8902    19.913437    20.022926    21.317353    8499.7673    5473.9299    2122.5304    3275.2101   -418.36253   -411.04485   -646.91969   -3754.4678 
 9233000     254.3352   -4717.4161   -4226.9093   -4717.4161            0     2881.572     20.32483    19.976977    20.883739    8479.3968     3850.584    2500.7263    2293.4056   -934.66855    -1562.471    949.35298   -3870.5646 
 9234000    255.08528   -4691.0135   -4199.0601   -4691.0135            0    2000.0741    20.337524    20.222982    20.773506    8543.8391    1768.3547    1416.0883    2815.7794   -133.11415    407.65712    263.18004   -3949.8446 
 9235000    244.81351   -4715.5082   -4243.3647   -4715.5082            0    1722.8472    20.042652    20.223207    21.202647    8593.9992    1493.2011    2758.9555    916.38521    678.87968    131.05017   -778.57356   -4027.4323 
 9236000    254.23041   -4725.2898   -4234.9851   -4725.2898            0    2485.4976    20.111566    20.135638    20.985158    8498.1332    2384.3551    2045.4089    3026.7286   -47.666841   -789.33439    403.16977   -3926.9411 
 9237000    248.18228   -4691.7273   -4213.0869   -4691.7273            0    3307.0535    20.217566     20.09419    20.840705    8466.6531    4403.2816    1813.0164    3704.8624    293.83951   -233.40395    1323.0281   -3804.7404 
 9238000    258.11753   -4695.8126   -4198.0113   -4695.8126            0       1991.4    20.110731    20.178342    21.102684    8563.4949    1081.3536    3378.9092    1513.9373   -31.919994   -454.35136   -1411.0445   -3949.3058 
 9239000    249.71593   -4706.0722   -4224.4741   -4706.0722            0    366.11275    20.151945    20.186534    21.124175    8593.2702   -543.06153    1215.4681    425.93163    177.41455    470.47719    820.68823   -4178.5913 
 9240000    260.15391    -4700.634   -4198.9053    -4700.634            0    2170.3001    20.246488    19.970979    20.874343    8440.3772     1606.718    3031.9986    1872.1838    -716.0219   -80.073638    289.65701   -3931.7538 
 9241000    240.56621   -4705.9247   -4241.9726   -4705.9247            0    305.15232    20.223083    20.334708    20.832319    8566.8846     450.1396   -170.09854    635.41589   -652.19546    -401.7911   -587.80413   -4203.8471 
 9242000    257.33188   -4719.7013   -4223.4151   -4719.7013            0    2290.5675    20.308966    20.123576    20.894212    8539.2351    19.289124     3388.715    3463.6985    611.52741    1531.4221   -1221.2322    -3938.157 
 9243000    263.29404   -4698.7243   -4190.9396   -4698.7243            0    1677.2905    20.135936    19.926426    21.142593    8483.1956    1147.4246     3558.934    325.51295   -315.90996   -326.26984    559.31645   -3983.4274 
 9244000    254.90981   -4683.3587   -4191.7437   -4683.3587            0    3725.1323     20.17931    20.015789    20.924462    8451.4906    3664.9233    3718.5036      3791.97   -764.22267   -810.92936    554.76989   -3732.5976 
 9245000    264.12283   -4686.0576   -4176.6746   -4686.0576            0    588.51317    20.371617    20.146834    21.015541    8625.2738    481.71634   -149.92059    1433.7437   -575.98323     1002.906    211.68063    -4102.645 
 9246000    262.32435   -4713.8769   -4207.9623   -4713.8769            0    1646.6955    20.194666    20.029878    21.135408    8549.2023    1572.6437     2335.163    1032.2797   -175.03163   -315.76459     1028.063   -4002.6501 
 9247000    262.62322   -4726.5183   -4220.0273   -4726.5183            0     1550.377    20.184085    20.030214    21.321396    8620.0604     1342.759    2603.8322    704.53965   -519.83298   -265.66054    470.09722   -4025.1221 
 9248000    265.42003    -4705.244   -4193.3591    -4705.244            0    2778.7499    20.108758    20.260312    20.971182    8543.8631    3145.9848    1138.3486    4051.9164   -482.47325   -106.56768    1017.7754   -3847.1172 
 9249000    256.34163   -4733.5053   -4239.1289   -4733.5053            0    2788.4777    20.439539    20.029972    20.852859    8537.2309    1411.9486     4383.089    2570.3956    199.61885   -287.63946     400.4146   -3891.9445 
 9250000    259.86503   -4674.7198   -4173.5482   -4674.7198            0    1367.2363    20.341211    20.055346    20.943686    8543.9774    1149.8566    1638.3289    1313.5233   -545.27497    420.69547     480.4858   -4003.1836 
Loop time of 445.035 on 64 procs for 250000 steps with 972 atoms

Performance: 97.071 ns/day, 0.247 hours/ns, 561.753 timesteps/s
99.1% CPU use with 64 MPI tasks x 1 OpenMP threads

MPI task timing breakdown:
Section |  min time  |  avg time  |  max time  |%varavg| %total
---------------------------------------------------------------
Pair    | 19.043     | 27.284     | 35.387     |  76.5 |  6.13
Bond    | 0.25608    | 0.27677    | 0.28989    |   1.1 |  0.06
Kspace  | 185.78     | 199.99     | 212.42     |  44.0 | 44.94
Neigh   | 2.9632     | 3.3462     | 4.0988     |  18.5 |  0.75
Comm    | 88.75      | 99.338     | 107.6      |  47.0 | 22.32
Output  | 1.0403     | 1.0431     | 1.0537     |   0.4 |  0.23
Modify  | 104.12     | 105.95     | 109.59     |  13.2 | 23.81
Other   |            | 7.801      |            |       |  1.75

Nlocal:        15.1875 ave          19 max          10 min
Histogram: 1 1 6 6 11 9 11 10 5 4
Nghost:        2158.05 ave        2189 max        2122 min
Histogram: 1 4 1 8 7 20 11 8 0 4
Neighs:        4613.84 ave        6106 max        3167 min
Histogram: 5 5 3 9 14 8 8 3 5 4

Total # of neighbors = 295286
Ave neighs/atom = 303.79218
Ave special neighs/atom = 2.0000000
Neighbor list builds = 7879
Dangerous builds = 0

unfix		3
unfix		2
unfix		1

write_data	data.final.${pid}
write_data	data.final.0
System init for write_data ...
PPPM initialization ...
  extracting TIP4P info from pair style
  using 12-bit tables for long-range coulomb (../kspace.cpp:340)
  G vector (1/distance) = 0.37164372
  grid = 24 24 25
  stencil order = 5
  estimated absolute RMS force accuracy = 0.0035030642
  estimated relative force accuracy = 1.0549374e-05
  using double precision FFTW3
  3d grid and FFT values/proc = 2366 288
Last active /omp style is kspace_style pppm/tip4p/omp
WARNING: Not all mixed pair coeffs generated from mixing. Use write_data with 'pair ij' option to store all pair coeffs. (../write_data.cpp:312)

write_restart   restart.lmp.${pid}
write_restart   restart.lmp.0
System init for write_restart ...
PPPM initialization ...
  extracting TIP4P info from pair style
  using 12-bit tables for long-range coulomb (../kspace.cpp:340)
  G vector (1/distance) = 0.37164372
  grid = 24 24 25
  stencil order = 5
  estimated absolute RMS force accuracy = 0.0035030642
  estimated relative force accuracy = 1.0549374e-05
  using double precision FFTW3
  3d grid and FFT values/proc = 2366 288
Last active /omp style is kspace_style pppm/tip4p/omp
Total wall time: 0:07:28
