#include		in.partitions
include		in.temp
variable        temperature equal 252.72
variable	tempDamp equal 100.0
include		in.pressure
variable        pressure equal 1412.2
variable        pressureDamp equal 1000.0 # This is 1 ps
include		in.seed
variable        seed equal 745823

units		real
atom_style	full
#include		in.box
read_restart	restart.lmp.${pid}
read_restart	restart.lmp.0
Reading restart file ...
  restart file = 30 Jul 2021, LAMMPS = 30 Jul 2021
  restoring atom style full from restart
  orthogonal box = (0.19956057 0.16923440 -0.17656302) to (18.008012 23.459943 22.389759)
  2 by 4 by 4 MPI processor grid
  restoring pair style lj/cut/tip4p/long/omp from restart
  restoring bond style harmonic/omp from restart
  restoring angle style harmonic/omp from restart
  864 atoms
  576 bonds
  288 angles
Finding 1-2 1-3 1-4 neighbors ...
  special bond factors lj:    0        0        0       
  special bond factors coul:  0        0        0       
     2 = max # of 1-2 neighbors
     1 = max # of 1-3 neighbors
     1 = max # of 1-4 neighbors
     2 = max # of special neighbors
  special bonds CPU = 0.002 seconds
  read_restart CPU = 0.010 seconds
include 	in.setup
variable	out_freq equal 1000
variable	out_freq2 equal 10000
variable	out_freq3 equal 1000

timestep	2.0

neigh_modify    delay 7 every 1

include		in.tip4p
# This is TIP4P/Ice

# create groups ###
group ox type 2
288 atoms in group ox
group hy type 1
576 atoms in group hy

# set charges - beside manually ###
set group ox charge -1.1794
Setting atom values ...
  288 settings made for charge
set group hy charge 0.5897
Setting atom values ...
  576 settings made for charge

# ### TIP3P Potential Parameters ###
pair_style lj/cut/tip4p/long/omp 2 1 1 1 0.1577 8.5
pair_coeff 1 1*2 0.000 0.000
pair_coeff 2 2 0.21084 3.1668
bond_style  harmonic
bond_coeff  1 450 0.9572
angle_style harmonic
angle_coeff 1 55 104.52
kspace_style pppm/tip4p/omp 1.0e-5
pair_modify tail yes

thermo          ${out_freq}
thermo          1000
thermo_style    custom step temp pe etotal epair emol press lx ly lz vol pxx pyy pzz pxy pxz pyz enthalpy

restart 	${out_freq3} restart.lmp.${pid} restart2.lmp.${pid}
restart 	1000 restart.lmp.${pid} restart2.lmp.${pid}
restart 	1000 restart.lmp.0 restart2.lmp.${pid}
restart 	1000 restart.lmp.0 restart2.lmp.0


include         in.dump
dump            myDump all atom ${out_freq2} dump.water.${pid}
dump            myDump all atom 10000 dump.water.${pid}
dump            myDump all atom 10000 dump.water.0
dump            myDump2 all dcd ${out_freq2} dump.dcd
dump            myDump2 all dcd 10000 dump.dcd
dump_modify     myDump append yes
dump_modify     myDump2 append yes


variable natoms 	equal  "count(all)"                        # NUMBER ATOMS
variable H      	equal  "enthalpy/v_natoms"                 # ENTHALPY-per-atom
variable Vol      	equal  "vol/v_natoms"                 # volume-per-atom
fix AVG all 		ave/time ${out_freq} 1 ${out_freq} v_Vol v_H file vol_enthalpy.dat
fix AVG all 		ave/time 1000 1 ${out_freq} v_Vol v_H file vol_enthalpy.dat
fix AVG all 		ave/time 1000 1 1000 v_Vol v_H file vol_enthalpy.dat


timer           timeout 23:50:00 every 1000
New timer settings: style=normal  mode=nosync  timeout=23:50:00

fix 		1 all shake 1e-6 200 0 b 1 a 1
       0 = # of size 2 clusters
       0 = # of size 3 clusters
       0 = # of size 4 clusters
     288 = # of frozen angles
  find clusters CPU = 0.000 seconds
fix             2 all nph aniso ${pressure} ${pressure} ${pressureDamp}
fix             2 all nph aniso 1412.2 ${pressure} ${pressureDamp}
fix             2 all nph aniso 1412.2 1412.2 ${pressureDamp}
fix             2 all nph aniso 1412.2 1412.2 1000
fix             3 all temp/csvr ${temperature} ${temperature} ${tempDamp} ${seed}
fix             3 all temp/csvr 252.72 ${temperature} ${tempDamp} ${seed}
fix             3 all temp/csvr 252.72 252.72 ${tempDamp} ${seed}
fix             3 all temp/csvr 252.72 252.72 100 ${seed}
fix             3 all temp/csvr 252.72 252.72 100 745823


run             250000
PPPM initialization ...
  extracting TIP4P info from pair style
  using 12-bit tables for long-range coulomb (../kspace.cpp:340)
  G vector (1/distance) = 0.37392735
  grid = 24 27 27
  stencil order = 5
  estimated absolute RMS force accuracy = 0.0027859435
  estimated relative force accuracy = 8.3897862e-06
  using double precision FFTW3
  3d grid and FFT values/proc = 4725 672
Last active /omp style is kspace_style pppm/tip4p/omp
Neighbor list info ...
  update every 1 steps, delay 7 steps, check yes
  max neighbors/atom: 2000, page size: 100000
  master list distance cutoff = 10.8154
  ghost atom cutoff = 10.8154
  binsize = 5.4077, bins = 4 5 5
  1 neighbor lists, perpetual/occasional/extra = 1 0 0
  (1) pair lj/cut/tip4p/long/omp, perpetual
      attributes: half, newton on, omp
      pair build: half/bin/newton/omp
      stencil: half/bin/3d
      bin: standard
Per MPI rank memory allocation (min/avg/max) = 10.19 | 10.21 | 10.23 Mbytes
Step Temp PotEng TotEng E_pair E_mol Press Lx Ly Lz Volume Pxx Pyy Pzz Pxy Pxz Pyz Enthalpy 
  500000    257.78695   -4212.0158   -3770.1778   -4212.0158            0    875.26493    17.808451    23.290709    22.566322    9359.8662    1294.7672    2022.5077   -691.48007    215.00381    674.10182   -62.003498   -3650.7006 
  501000    258.59626   -4248.1691   -3804.9439   -4248.1691            0    2912.6198    18.075694    23.451511    21.794877    9238.8994    3120.4477    1681.4427     3935.969    17.816407    139.69132    -1223.704   -3412.4979 
  502000      248.339   -4244.2376    -3818.593   -4244.2376            0    1524.1599    18.052213    23.488545    22.044619    9347.3646    1386.7028      1028.12    2157.6569   -676.44276   -257.28992    369.38666   -3610.8169 
  503000    257.02566   -4254.0538   -3813.5206   -4254.0538            0    823.31313     17.96586    23.512936    22.029596    9305.9646    1889.7357   -206.94849    787.15214   -589.15914   -671.89432   -142.38088   -3701.7822 
  504000    236.16678   -4264.6228    -3859.841   -4264.6228            0    2380.2377    18.140155    23.488649    21.771761    9276.6804    1736.2002    1986.2737    3418.2391   -601.95994    248.05255   -113.70933   -3537.8166 
  505000    252.97135   -4227.2714   -3793.6871   -4227.2714            0    1281.6981     17.90832    23.305449    22.269934    9294.6117    1911.8435    1397.1831    536.06773   -85.045808   -68.797717    397.36288   -3619.9499 
  506000    262.70524   -4241.9597    -3791.692   -4241.9597            0    1913.4801    18.025544    23.400097    22.064208    9306.6713    2185.1235    1675.2921    1880.0246    166.41827    265.65877    123.64555   -3531.9786 
  507000    245.01819   -4229.0346   -3809.0819   -4229.0346            0    894.40293    18.454461    23.469582    21.574796    9344.4432   -423.75932    1433.6377    1673.3304      -719.12    209.89117   -380.58269   -3687.1934 
  508000    252.72718   -4232.3309   -3799.1651   -4232.3309            0    1125.7232    18.016456    23.318141    22.329333    9380.7819      1592.33    1607.1055    177.73422   -52.741516    498.41527    733.47898    -3645.156 
  509000    265.02159   -4239.5033   -3785.2654   -4239.5033            0    1610.5426    18.008052    23.758109    21.903157    9370.9871    1678.5713    368.79408    2784.2625   -1563.0246    -301.9729    845.94571   -3565.1586 
  510000    247.73793   -4227.1497   -3802.5354   -4227.1497            0    1858.8553    18.035788    23.612419    21.972779    9357.5162    3105.6365    909.19666    1561.7327   -490.49302    274.86567    636.59374   -3548.8578 
  511000    256.07776   -4259.2858   -3820.3772   -4259.2858            0    886.20688    18.082975    23.307499    22.294838    9396.5812    826.60315    1187.5539    644.46359    54.215018   -73.661694    814.63875   -3698.9319 
  512000    256.22013   -4216.6472   -3777.4947   -4216.6472            0   -81.102244    18.296099    23.571421    22.023302    9497.8809   -845.13953    628.87978   -27.046987    582.08513    1491.8523   -229.59818   -3788.7287 
  513000    257.57607   -4225.4621   -3783.9855   -4225.4621            0    1892.3186    18.008226    23.480453    22.049644    9323.4999    2942.3434    2878.0129   -143.40069    424.31275   -153.55734    452.77658     -3526.68 
  514000    244.11244   -4256.6366   -3838.2362   -4256.6366            0    1914.3185    17.902662    23.515592    22.096548    9302.4632    2907.4383   -13.112672    2848.6299    1551.1449   -369.52231    377.88947   -3578.5266 
  515000    242.26236   -4225.8374    -3810.608   -4225.8374            0    2450.3468    18.241887    23.214206    22.043367    9334.7249    1419.4889    3860.8135     2070.738   -504.76022   -404.29417    143.41282   -3477.0242 
  516000    248.46398    -4242.274   -3816.4152    -4242.274            0    1292.7231    18.184361    23.206035    22.209937    9372.3032    1171.0409    645.90835      2061.22    74.186584    495.87659    664.29496   -3639.7188 
  517000    258.64703   -4248.5811   -3805.2689   -4248.5811            0    1038.3675    18.039816    23.690044    22.037172    9417.8947    1384.4569    1939.8817   -209.23611   -937.08367   -623.03327    437.44477   -3662.6488 
  518000    244.47376   -4258.6976    -3839.678   -4258.6976            0    711.37489    17.873592    23.871225    22.061687    9412.9394    1569.7405   -968.49441    1532.8785   -890.41188    -22.16028    13.647549   -3742.0218 
  519000    255.36647   -4252.5669   -3814.8775   -4252.5669            0    1947.1832    18.180749    23.379605    22.083186     9386.651    2260.0737  -0.77366593    3582.2496   -432.27647   -520.35813    663.48502   -3548.3185 
  520000     245.2034   -4254.4054   -3834.1352   -4254.4054            0   -261.62165    18.379717    23.271285    22.055885    9433.7345   -585.08423   -555.76125    355.98055    426.01407    8.3423283    19.808555   -3870.1294 
  521000    245.07037   -4261.2065   -3841.1643   -4261.2065            0    1140.5694    18.173804     23.55536    21.996072    9416.3097    733.76485    709.02616    1978.9172     -315.944   -705.55387   -590.18419   -3684.5331 
  522000    251.42826   -4225.6605    -3794.721   -4225.6605            0    2530.7168    17.958048    23.521721     22.10097    9335.5427    2220.3895    3702.1566    1669.6044    340.27288   -101.04704   -44.755595   -3450.1657 
  523000    253.76363   -4276.9814   -3842.0393   -4276.9814            0   -650.68434    18.076075    23.749457    22.061364    9470.8764   -419.76291   -491.12016   -1041.1699   -312.28031   -204.18564    476.33357   -3931.9137 
  524000    262.91401   -4217.4044   -3766.7788   -4217.4044            0    1913.6052    18.058956    23.428398    22.022204    9317.4271    2126.8603    1407.0831    2206.8723   -278.85148   -324.90189   -304.47142   -3506.7484 
  525000    255.75552   -4234.9202    -3796.564   -4234.9202            0    1579.1275    18.024124     23.26028    22.197713    9306.3064    2403.7709    2441.4641   -107.85256   -526.06033    138.26258    660.32678   -3582.2401 
  526000    258.41783   -4218.0879   -3775.1686   -4218.0879            0    1125.5118    18.175549    23.451967    22.008643    9381.2367    1402.1781    1569.1614    405.19603    513.76241    454.27762   -171.32469   -3621.1809 
  527000    267.50746   -4242.6388   -3784.1401   -4242.6388            0    2482.0802    17.887223    23.450221    22.156459    9293.7336    2246.0333    3416.6125    1783.5948   -54.270459   -98.078618   -489.34393   -3447.7201 
  528000    249.34688   -4257.4066   -3830.0345   -4257.4066            0    644.16018    17.948965    23.643503    22.047263    9356.3383     414.9251    278.51927    1239.0362   -621.80958   -134.62428    212.87693   -3742.1372 
  529000    244.88429   -4267.9486   -3848.2253   -4267.9486            0    1640.3622    18.147849    23.438742    21.887367    9310.0709    1987.2573    1832.0899    1101.7396   -589.70653    14.197369     955.4879   -3625.5005 
  530000    265.49222   -4244.7095   -3789.6649   -4244.7095            0    1711.1221      18.2126    23.305696     22.09611    9378.8556    1354.4496    2725.6141    1053.3027    213.97843   -333.12168   -158.47074   -3555.6159 
  531000    260.67501   -4223.3275   -3776.5394   -4223.3275            0    2267.6336    18.349851    23.216039    21.892933    9326.6271    987.16046    1002.0136    4813.7268    -46.37666    375.67235   -705.43455   -3468.0975 
  532000    261.99708    -4252.577   -3803.5229    -4252.577            0    1386.3314    18.024258    23.595921    22.055817    9380.3162    1183.6197    794.42042    2180.9543    -151.8189   -226.55774    93.379728   -3613.8696 
  533000    255.15217   -4242.5629   -3805.2409   -4242.5629            0    1475.7703    17.929524    23.675033     22.17629    9413.4378    1260.1471    158.46782     3008.696    40.870181    11.161488   -252.60873   -3602.6393 
  534000    246.31255   -4268.3575   -3846.1862   -4268.3575            0    1299.8789     18.12414    23.411759    22.179617    9411.2106     883.7766    2054.7481    961.11197   -198.84599     48.73684    456.15414   -3667.7742 
  535000    245.41929   -4270.4358   -3849.7955   -4270.4358            0    1848.3994    18.076457    23.367469    22.119399    9343.2578    3758.3476    1241.4209    545.42985   -4.4532489   -1068.1321   -348.94424   -3597.9292 
  536000    234.41881   -4242.9626   -3841.1767   -4242.9626            0    1799.7395    18.025646    23.773665    21.870299    9372.2029     1814.191    2101.5069    1483.5206   -276.11377   -159.91674     62.32732   -3595.1812 
  537000     252.4237   -4244.7239   -3812.0784   -4244.7239            0    1350.6714    17.953601    23.756066    22.045996    9402.7697    2740.2227   -810.78141    2122.5728    -154.9062    -1115.807    318.96561   -3626.8611 
  538000     249.0768   -4242.5018   -3815.5927   -4242.5018            0     1882.919    18.100598    23.357538    22.181509    9378.0182    2072.4395    3488.9816    87.335804    33.268594   -61.693232     326.7491   -3558.0682 
  539000    249.16524   -4238.2963   -3811.2356   -4238.2963            0     1126.232    18.139979    23.441635    22.118511     9405.471   -307.75692    921.42312    2765.0299    474.96638    253.27256    1095.6407   -3656.7513 
  540000    246.11026   -4244.9742   -3823.1496   -4244.9742            0    673.78084    17.987541    23.400973    22.437429    9444.4967    1946.3211    603.01154   -527.99016    144.35471    31.483876   -109.84654   -3730.3442 
  541000    240.21708   -4228.7049   -3816.9811   -4228.7049            0    1346.9656    17.979533    23.679608    21.979498    9357.7337    2225.8464    124.61489    1690.4356     420.6519   -723.09067   -400.20595   -3633.1567 
  542000    256.95269   -4263.1885   -3822.7804   -4263.1885            0    1281.3468     17.89495    23.822168    22.029018    9390.8931    1049.0658    725.78008    2069.1945   -394.71928   -380.36947   -409.80632   -3647.2915 
  543000    246.62215   -4222.6978   -3799.9958   -4222.6978            0    744.53541    18.120731    23.489902    22.217198    9456.8434    571.44331    632.34443    1029.8185      -873.01     -298.383    521.03261   -3697.3107 
  544000    260.15653   -4256.9884    -3811.089   -4256.9884            0    563.36171    18.500933    23.212689    21.946428    9425.0341    105.10861    1614.0704   -29.093867    198.80578   -542.73922    468.45729   -3733.6524 
  545000    242.96521   -4283.2319   -3866.7979   -4283.2319            0     1336.622     18.03928    23.456861    22.070198    9338.8916    2829.0674    2029.3343   -848.53569    375.73866   -507.44474   -311.54278   -3684.7524 
  546000    262.79026   -4253.8811   -3803.4676   -4253.8811            0    856.01789    17.846062    23.734242    22.232355    9416.7977    1870.0804    576.45703    121.51621    753.89861    -307.7646   -12.425508   -3685.9069 
  547000    248.57149   -4261.2476   -3835.2046   -4261.2476            0    1574.9278    18.009793      23.7524    22.000599     9411.324    2270.7412    823.29535    1630.7469   -59.230387    -715.0624   -493.35253   -3619.0387 
  548000    250.52467   -4238.6336   -3809.2429   -4238.6336            0    1001.9031    18.108938    23.403696    22.222452    9418.2327    1220.0163     2410.269   -624.57616    381.39127    184.30287    68.453162   -3671.6262 
  549000    254.21966   -4233.2611   -3797.5373   -4233.2611            0    1845.5165    18.332862    23.239772    21.973247    9361.7351    1110.4068    2898.8803    1527.2623    348.91499    364.10957    178.53461   -3545.5665 
  550000    254.15842   -4260.3593   -3824.7405   -4260.3593            0    1370.7247    18.126533    23.389994    22.082351    9362.4643   -308.35241    2687.4038    1733.1228   -740.26599   -667.14114     34.18174   -3637.5791 
  551000    250.43957   -4220.1979    -3790.953   -4220.1979            0    1797.5495    18.061824    23.545299    21.988058    9350.8845    1414.2552     1382.289    2596.1044   -554.84792    672.58214    1103.9468   -3545.8157 
  552000    252.92955   -4256.7576    -3823.245   -4256.7576            0    2500.2673    17.893627    23.747901     21.98592    9342.6109    3024.7945    1547.1607    2928.8467    169.09373    171.33446   -595.12153   -3482.5776 
  553000    248.74869   -4265.7887    -3839.442   -4265.7887            0    1344.9072    18.019446    23.572856    22.177403    9420.2915    1571.9845   -138.64761    2601.3847   -425.16915    235.27715   -434.18087   -3654.6715 
  554000    261.59142   -4249.7409   -3801.3822   -4249.7409            0    1202.1771    18.306403    23.486174     21.94046     9433.243   -478.18955    1052.1136    3032.6072   -993.85921   -980.57065    155.53423   -3635.9936 
  555000    245.75125   -4236.2498   -3815.0406   -4236.2498            0    2150.6965    18.027325     23.26111     22.22169    9318.3456    2658.8352    1441.3786    2351.8757    832.56924    184.62432   -118.85312   -3522.7641 
  556000    260.67109   -4221.0234   -3774.2421   -4221.0234            0   -140.26238    18.208657    23.627284    22.018488     9472.818   -1204.0304   -28.020614    811.26388    681.36095   -623.85864    -146.8736   -3793.6195 
  557000    256.00671   -4250.1224   -3811.3357   -4250.1224            0    2377.2382    18.038769    23.503207    21.976824    9317.4901     2241.302     2347.945    2542.4675    85.671655    753.70426    -131.5368   -3488.3022 
  558000    255.82654   -4248.7402   -3810.2623   -4248.7402            0    1484.9131    17.898901    23.333249    22.333256    9327.2501       3043.5     560.3077    850.93151   -524.58883   -61.106142    270.88476    -3608.272 
  559000    257.21212   -4254.3615   -3813.5087   -4254.3615            0    818.13807    18.144039    23.591506    21.956485    9398.3681    1458.9838    -342.9206     1338.351     -1034.54   -107.62346    927.70996   -3701.3702 
  560000     233.1957   -4251.9772   -3852.2877   -4251.9772            0    545.17186    18.085589    23.285378     22.29368    9388.5331    574.44341    454.06718    607.00497    9.3463552    139.43169   -13.112108   -3777.6417 
  561000    245.43078   -4241.1631   -3820.5031   -4241.1631            0    1820.4477    18.062563    23.330695    22.074524    9302.4729    1687.5682    1714.5545    2059.2202   -738.52304   -1194.8689    74.871012   -3573.5284 
  562000    257.55141   -4234.9464   -3793.5121   -4234.9464            0   -165.02137    18.131421    23.675853    21.973605    9432.7603   -2117.4707   -919.28773    2541.6943   -519.50439   -225.92296   -564.88672   -3816.2136 
  563000    261.30936   -4221.9682   -3774.0929   -4221.9682            0    1279.0192    18.098513    23.475313    22.138107     9405.779    1545.5221    348.47162    1943.0638   -442.72768    -1052.607   -25.694826   -3598.6452 
  564000    253.23278   -4250.4499   -3816.4175   -4250.4499            0     1187.743    18.218366    23.431413    22.020199    9400.0278    1610.6559    1889.6323    62.940853   -470.27652    537.71466   -109.62744   -3653.5901 
  565000    232.39668   -4244.0533   -3845.7333   -4244.0533            0    945.42709    18.223478    23.468352     21.97088    9396.3963   -46.174789    1261.7758    1620.6802   -780.84804    7.7058549   -635.46632    -3716.175 
  566000    270.37627   -4251.0515   -3787.6358   -4251.0515            0      2230.09    17.913078    23.456378    22.216256    9334.7357    2848.7365    1745.8144    2095.7191    264.33167    59.858288   -629.63015   -3484.0368 
  567000    242.42196   -4273.8312   -3858.3283   -4273.8312            0    1361.8039    18.108053    23.674768    21.934481    9403.3989    2747.1231    336.27647    1002.0122   -1071.3669   -491.33239    315.29935    -3671.572 
  568000    255.61181   -4257.9115   -3819.8016   -4257.9115            0    756.00181    18.112295    23.495971    22.045183    9381.6794    453.85502    731.93869    1082.2117     573.6025   -277.15664   -259.32551   -3716.3638 
  569000    248.76854   -4283.8857   -3857.5049   -4283.8857            0    1212.6279    18.101679    23.044519    22.409681    9348.0752     1680.125    1449.9291    507.82951   -19.302814    320.28301    288.19924   -3692.1848 
  570000    249.15233   -4241.4575   -3814.4189   -4241.4575            0    2157.2834     18.08515    23.551158    21.810605    9289.7086    727.76803    2831.2601     2912.822    747.53474    394.24035    1227.7823   -3522.1483 
  571000    255.89529    -4257.495   -3818.8992    -4257.495            0    1422.3507    17.848684    23.396596    22.320212    9320.8856    1934.4194    2193.7554    138.87728   -498.74067   -248.10243    894.67895   -3625.5512 
  572000    276.78228    -4224.773   -3750.3776    -4224.773            0    3668.0361    17.995986    23.430918    21.986191    9270.7513    4140.7591    4125.4599    2737.8894    721.36762    51.888336   -145.11274    -3254.443 
  573000    240.88504   -4262.3873   -3849.5186   -4262.3873            0    1653.6577    18.096393    23.641118    21.876669    9359.2539     2013.462   -668.86885    3616.3799   -391.58071     375.0314    -205.4699   -3623.8024 
  574000    254.82359   -4264.4748   -3827.7159   -4264.4748            0    2658.9184    17.962599    23.282775     22.25778    9308.6298     2462.035    3839.5627    1675.1575   -657.37509    352.11697    943.28339   -3466.7496 
  575000    249.29048   -4240.0875   -3812.8121   -4240.0875            0    1664.1768     18.10865    23.570802    21.774015    9293.9207    863.82389    2844.2497    1284.4569    534.95991     -72.6525   -143.08095   -3587.2458 
  576000    249.62991   -4251.8504   -3823.9933   -4251.8504            0   -366.45645    18.094297    23.372934    22.292901    9428.0424    753.88539   -1018.7462   -834.50851    1352.3307    66.989432   -288.49058   -3874.3805 
  577000    247.84125   -4264.3839   -3839.5925   -4264.3839            0    741.14525    18.060856    23.519308    22.092364    9384.3684    2483.3188   -865.07471    605.19165    326.37404   -23.892011   -108.53453   -3738.1584 
  578000    260.95747   -4218.0951   -3770.8229   -4218.0951            0    1839.3468    18.130658    23.528813    21.762526    9283.7381    1535.8943     1755.936    2226.2099   -871.00654    45.708298    1456.7163   -3521.7868 
  579000    251.05652   -4252.8292   -3822.5269   -4252.8292            0    1436.4132    17.993344    23.287987    22.272632    9332.8733    725.24227    1635.2487    1948.7488   -198.18459     911.0379   -527.84918   -3627.0162 
  580000    253.91646   -4209.5556   -3774.3515   -4209.5556            0     -205.118    18.313856     23.53244    21.974788    9470.4678   -1367.3849    499.90168    252.12916    573.58878    630.71769    772.85557   -3802.6818 
  581000    255.70796   -4258.9354   -3820.6607   -4258.9354            0     749.0981     18.11208    23.465003     22.09804    9391.6675    223.68838    608.82801    1414.7779   -665.30133   -440.10851    121.40468   -3718.0583 
  582000    246.25272   -4257.8536   -3835.7848   -4257.8536            0    2589.7988    17.999776    23.413111    22.108902    9317.3708    916.34477    2887.7117    3965.3401      303.904   -497.34047    535.22053   -3483.8718 
  583000    239.22078   -4245.4575   -3835.4413   -4245.4575            0    533.67481    18.138443    23.865027    21.814927    9443.1241    348.96965   -936.57429    2188.6291    598.86955    15.433227    102.89006   -3761.9445 
  584000    259.75435   -4225.1744   -3779.9643   -4225.1744            0    973.41279    18.007856    23.536497    22.237403     9425.142    621.62862    1716.5065    582.10321    -667.5192    70.770914     568.5792   -3646.1628 
  585000    245.39826   -4240.2002    -3819.596   -4240.2002            0     739.9529    18.180227     23.42607    22.171126    9442.4891    265.34162    1757.4017    197.11539    513.82398   -156.00354     572.4748   -3717.6978 
  586000    246.85012   -4239.6169   -3816.5242   -4239.6169            0     2505.353     18.23634     23.36779    21.859982    9315.4772    2647.3762   -265.87002     5134.553   -564.28765   -340.17917   -102.47153   -3476.1553 
  587000    245.12045   -4252.0167   -3831.8886   -4252.0167            0     1560.361    18.055089    23.320944    22.192832    9344.5522    254.04946    1962.2191    2464.8145   -444.11378    -711.3625    93.238616   -3619.2415 
  588000    267.44352   -4237.0815   -3778.6925   -4237.0815            0    2991.9281    17.860113    23.554102    22.051421    9276.5679    3833.1415    2426.0122    2716.6305   -334.99099    932.33116    330.19058   -3373.9169 
  589000    244.38429   -4273.2272   -3854.3609   -4273.2272            0    1127.3263    18.034083    23.609392     22.11718    9416.9144    1815.8088    1617.6338   -51.463728     304.7815   -385.06253    160.56903   -3699.5384 
  590000    254.83347   -4254.3077   -3817.5319   -4254.3077            0     1280.351    18.015472    23.644847    22.129594    9426.6115    1805.6437    856.35375    1179.0554    -409.3963     576.8641   -100.22861   -3641.5125 
  591000     247.3299   -4264.7365   -3840.8215   -4264.7365            0    2554.7233    18.165381    23.341598    21.919328     9293.993    1824.5806    4432.7892    1406.8002   -695.83223   -657.84004   -660.71213   -3494.5458 
  592000    259.58289    -4241.256   -3796.3398    -4241.256            0    2840.9876    18.015869    23.341189    22.126566    9304.4822    4699.4988     2980.472      842.992     698.0874   -966.68811   -520.40715   -3410.8282 
  593000    238.71928   -4248.2925   -3839.1358   -4248.2925            0    1187.8758    18.120627    23.471488    22.150589     9421.046    1989.3877    1284.3537    289.88586    454.54998   -17.593191    368.68545   -3675.9261 
  594000    243.89771    -4244.116   -3826.0836    -4244.116            0     1670.676    18.125988     23.38332    22.023455     9334.548    250.86179    2072.1828    2688.9835    335.12939    614.61601    163.93292   -3598.6465 
  595000    255.31862   -4274.3011   -3836.6937   -4274.3011            0    1120.2106    17.901192    23.426999    22.320608    9360.6201    2469.5464    977.52179   -86.436518   -412.22543    -452.5507    247.37554   -3683.7681 
  596000    255.64277   -4232.9279   -3794.7649   -4232.9279            0    2005.5603    18.074421     23.59013    21.955822    9361.4782    1922.7298    2215.7035    1878.2477   -352.14302   -375.52692   -870.41101   -3520.9507 
  597000       250.96   -4239.1756   -3809.0387   -4239.1756            0    3007.5617    18.046476     23.39639    21.997403    9287.7959    2183.1651    4342.2128    2497.3071   -19.997745    120.00403    -341.0749   -3401.6555 
  598000     253.9933    -4285.032   -3849.6962    -4285.032            0     3170.807    17.996924    23.433423    22.029302    9290.4075    2386.1578     2813.891    4312.3723   -759.15235    323.20298    235.90462   -3420.0802 
  599000    265.74075   -4262.3074   -3806.8368   -4262.3074            0    147.73263    18.053621    23.665396    22.116227    9449.0716    946.44989   -76.828316   -426.42367    -1160.088    283.47379    258.64728   -3786.4785 
  600000    248.64279   -4260.9263   -3834.7611   -4260.9263            0    3583.7534    17.879995    23.487222     21.96671    9224.9508    4331.3112    2260.6649    4159.2842     652.2094   -1402.5577    -448.0526   -3352.6157 
  601000      237.448   -4257.7255   -3850.7478   -4257.7255            0     872.2389    18.194908     23.38412    22.063466    9387.3855   -172.15476    1607.7634     1181.108   -654.28929   -434.58409    26.937429   -3731.3336 
  602000    253.05834   -4239.7482   -3806.0149   -4239.7482            0    1201.3761    18.310155    23.175887    22.068982    9365.0624    910.97454    2018.0959    675.05796   -261.52917    791.66691    476.00878   -3641.9312 
  603000    258.92522   -4246.9348   -3803.1458   -4246.9348            0    792.51112    18.083357    23.432945     22.15119    9386.4851    573.24361    216.87572     1587.414    509.78422    -59.81991    249.31799   -3694.6572 
  604000    243.91089   -4243.2267   -3825.1718   -4243.2267            0    1062.2907    18.059586    23.632696    22.053171    9412.2209    1374.3331    692.95654    1119.5824   -658.70861   -744.32853    586.09086   -3679.3537 
  605000    251.56398   -4220.9271   -3789.7551   -4220.9271            0    1147.7781    17.787629    23.829187    22.180001      9401.32    3268.0135    128.09143    47.229256    53.928587   -384.96941    199.54606   -3632.3848 
  606000    240.01983   -4256.6124   -3845.2266   -4256.6124            0    2069.6457    18.026126      23.5669    22.007714    9349.3148    2490.5737    1888.1702    1830.1931    1422.4936    6.5177435   -286.51411   -3563.0301 
  607000    243.04846    -4252.765   -3836.1882    -4252.765            0    1085.4311    18.193855    23.223862    22.142479    9355.8969    1326.3653    1807.2821    122.64585    159.43436   -288.44068   -1256.6151   -3688.0853 
  608000    247.08433    -4238.396   -3814.9019    -4238.396            0    1476.3154    18.155275    23.236926    22.085068    9317.0887    1438.8246    828.47828    2161.6434   -44.750259    117.22266   -4.0703489   -3614.2999 
  609000    261.04465   -4277.4586    -3830.037   -4277.4586            0    951.46505    18.011213    23.639624    22.028456    9379.2386    2061.8397     569.3282    223.22727   -1128.6694   -545.07862   -64.613518   -3699.8894 
  610000    247.34093   -4248.8975   -3824.9636   -4248.8975            0    65.967176     18.05413    23.655126    22.132408    9452.1478    1372.3012    -1672.653    498.25335   -294.93963   -471.15185   -695.37213     -3815.87 
  611000    259.59236   -4256.2128   -3811.2804   -4256.2128            0    3761.7054    17.975585    23.184852    22.140112    9227.1414    3344.4202    5378.0144    2562.6815   -368.36041   -428.93498    485.10397   -3305.0737 
  612000    246.49293   -4231.2326   -3808.7522   -4231.2326            0    714.42091    18.352731    23.427318    21.819777    9381.5277    -686.0013    55.570107    2773.6939    509.46478   -101.18467   -624.08855   -3711.0052 
  613000    256.29456   -4266.8002   -3827.5201   -4266.8002            0    240.93533    18.065755    23.558749    22.162246    9432.3977    966.45395   -226.61442   -17.033532    -104.6712   -85.095788   -742.69815   -3794.3766 
  614000    256.39783    -4213.143   -3773.6859    -4213.143            0    3165.7057    17.984322    23.278701    22.134517    9266.6521    2545.5309    3946.3843    3005.2019   -366.66377    159.04462     276.6847   -3345.8578 
  615000    254.95953     -4229.73   -3792.7381     -4229.73            0    1917.7001    18.222851    23.530568    21.921984     9400.016    1592.5258    1560.4366    2600.1379    792.92759   -340.31856    340.50107   -3529.8413 
  616000    254.59539   -4275.1429   -3838.7751   -4275.1429            0    1068.0845    17.894557    23.453655    22.376698    9391.3384    2399.6947    1471.9695   -667.41073   -573.84716    140.35483    314.94445    -3692.487 
  617000    239.33707   -4271.1173   -3860.9017   -4271.1173            0    1291.2658    18.117444    23.409062    22.048735    9351.1409    1783.0053    905.20314     1185.589   -399.61351   -346.25379    733.08862    -3684.803 
  618000    254.70899   -4276.4476   -3839.8851   -4276.4476            0    2326.0969    18.070696    23.323371    22.025967    9283.2744    3141.5127    2482.9793    1353.7987    1302.0554   -946.79595    716.17445   -3524.9617 
  619000     257.6999   -4242.9716   -3801.2828   -4242.9716            0     1626.251    17.973542    23.397307     22.11444    9299.8402    1999.6381    1575.4996    1303.6153    378.11051    270.12921   -400.20747   -3580.7166 
  620000    249.59431   -4258.9386   -3831.1425   -4258.9386            0   -532.01159    18.144052    23.824266    21.996198    9508.2686   -1613.1698   -1228.7507    1245.8858    900.55626   -114.54304    585.92653   -3904.9157 
  621000    252.64976    -4264.784    -3831.751    -4264.784            0     2806.992    18.056372    23.147643    22.152279    9258.8208    3035.8048    1103.4087    4281.7626   -289.77405   -256.58651    84.684784   -3452.7217 
  622000    265.57336   -4239.9765   -3784.7928   -4239.9765            0    1102.5459    18.316567    23.246484    21.927631    9336.6926    1459.0236    1874.4289   -25.814956    -916.1439   -219.18989   -268.45683   -3634.6635 
  623000    247.04803    -4272.194   -3848.7621    -4272.194            0    1036.2197    18.109911    23.450333    22.038864     9359.541    330.79116    2026.9992    750.86883     320.7553    33.324548    666.60392   -3707.3189 
  624000    259.73112    -4243.417   -3798.2468    -4243.417            0    855.17871    18.008958     23.52464    22.255709    9428.7259    1973.7558    624.84837   -33.068085    -493.2312   -254.25644    60.287674   -3680.6526 
  625000    257.52126   -4219.4609   -3778.0783   -4219.4609            0     861.3439    18.203385    23.674146    21.838127     9411.132    352.65658   -94.702841     2326.078   -160.98276   -328.61607   -104.91052   -3659.8573 
  626000    249.84148   -4249.0857   -3820.8659   -4249.0857            0    1111.2527    18.178109    23.456171    22.095469    9421.2614    1977.9421    2163.5264   -807.71038    288.51758    260.76053   -8.7916202   -3668.1804 
  627000    260.20742   -4255.9778   -3809.9912   -4255.9778            0    1762.6657    18.137444    23.279282    22.080562    9323.0023    1331.4347    2067.2309    1889.3316   -643.01368    757.70424    403.18197   -3570.3279 
  628000    259.77375   -4260.4241   -3815.1808   -4260.4241            0    2116.9807    17.970921    23.467949    22.110605    9324.9412    4411.4288   -119.26947    2058.7828    666.15947   -776.03391   -78.884393   -3527.2827 
  629000    260.62227   -4237.0065   -3790.3089   -4237.0065            0    1372.9788    17.862582    23.734953    22.164362    9396.9705    1974.8275    1325.5796    818.52918    215.73408   -231.40103    -320.1752   -3602.1488 
  630000    247.60607   -4268.7594    -3844.371   -4268.7594            0    992.15969    18.056341    23.524406    22.114362    9393.4003   -281.47361    1923.8519    1334.1008   -351.96406    135.31839    370.50394    -3708.452 
  631000    244.65924   -4270.0901   -3850.7525   -4270.0901            0    1031.0022    18.261561    23.284377    21.977142    9344.8801    47.946518    940.90341    2104.1566    -354.8695    864.55942       196.51   -3710.2419 
  632000    260.11142   -4235.8796   -3790.0575   -4235.8796            0    1177.2528    18.117463    23.480664    22.165784    9429.5476     1672.062    1935.1631   -75.466786   -766.50406    656.40769    769.58097   -3628.1614 
  633000    255.67823   -4272.6003   -3834.3765   -4272.6003            0    2059.1439    17.864565    23.697013    22.067344    9341.9197    4500.1204    1711.8341   -34.522846     -366.294   -1.9890691   -159.86335    -3553.834 
  634000    247.94728   -4270.7579   -3845.7848   -4270.7579            0    2834.8947    18.076442    23.497735    21.962366    9328.6345    999.61312    2543.3491    4961.7219   -491.47684   -575.48543    936.07924   -3460.1014 
  635000    243.03486   -4277.1126   -3860.5591   -4277.1126            0    1534.8839    18.070772     23.30173    22.234195    9362.3801    338.51404     1929.092    2337.0457    644.42153   -351.18635    883.95969    -3650.985 
  636000    249.68235   -4246.0244   -3818.0774   -4246.0244            0     817.5188    18.180831    23.331123    22.168974    9403.6178     466.9747    1172.1319    813.44978     254.9721   -688.25624    673.07769   -3705.9611 
  637000    240.96281   -4249.3309   -3836.3288   -4249.3309            0    2733.5563    18.299144    23.238178    21.863125    9297.0486    3187.0883    1912.1487     3101.432   -471.69968    458.28761   -410.00632   -3465.6916 
  638000    260.19089   -4259.9476   -3813.9893   -4259.9476            0    1466.6185    17.951929     23.51083    22.203555    9371.3378    1363.4111    1800.9387    1235.5057    437.03549   -157.89154   -524.44045   -3613.5446 
  639000    240.69498   -4278.1267   -3865.5837   -4278.1267            0    1477.2143    17.760068    23.805611    22.061871    9327.5225    2711.2956    519.43169    1200.9156    167.68747   -798.29619   -571.72122   -3664.6348 
  640000    238.83649   -4231.3248   -3821.9672   -4231.3248            0    2033.8953    18.043618    23.556125    22.088893    9388.6129    1706.1637    3007.4869    1388.0352   -59.223691   -78.388993   -462.16697   -3543.4796 
  641000    247.57316   -4270.0272   -3845.6952   -4270.0272            0    1265.3976    18.321871    23.167446    22.082428     9373.349    2655.4433    1344.5468   -203.79743    51.128427    -2.302005    -38.84815   -3672.7145 
  642000     252.4054   -4266.4574   -3833.8431   -4266.4574            0    1348.4801    18.239328    23.345672    22.066818    9396.2573    1116.3775     1399.059    1530.0037    337.21445    530.63899     313.0586   -3649.0545 
  643000    233.75792   -4232.5031     -3831.85   -4232.5031            0    3060.2116    17.834767    23.489922    22.264721    9327.5216    4647.6918    2615.6936    1917.2495   -40.248628   -932.21496   -787.10138   -3415.5622 
  644000    245.94182   -4245.7908    -3824.255   -4245.7908            0    340.91085    18.022482    23.692036    22.057879    9418.4778   -87.615492   -369.05133    1479.3994    1418.2351    12.320983    172.62328   -3777.4279 
  645000    257.15326    -4236.311   -3795.5591    -4236.311            0    2854.2289    17.974368    23.552352    21.961502    9297.1522    3847.4574    3785.7721     929.4572    391.68054   -626.34484    303.64061   -3408.5559 
  646000    238.00866   -4240.5553   -3832.6166   -4240.5553            0    1419.4788    18.210363    23.101184    22.264198    9366.1237   -427.35995    3477.5027    1208.2935    606.24163   -133.77901    797.05657   -3638.7224 
  647000    239.50595   -4264.4734   -3853.9684   -4264.4734            0    1469.0827    18.263976    23.352245    21.825718    9308.7741    1345.8385    2224.9198    836.48964    83.732284   -692.58913   -195.97567   -3654.5273 
  648000    235.89974   -4255.4907   -3851.1666   -4255.4907            0    1137.6028    17.995768    23.480549    22.184903    9374.2419    858.95617    1461.7737    1092.0786    388.56631    724.91341   -368.37388   -3695.6407 
  649000    277.58113   -4256.8712   -3781.1066   -4256.8712            0    696.73516    17.988896    23.543056    22.216885    9409.1523    2038.8877    195.55225   -144.23451   -545.96003   -587.80022    232.27258   -3685.4986 
  650000    247.72775   -4251.7092   -3827.1123   -4251.7092            0    2726.5397    18.003168    23.442573    21.990921    9281.0612    3942.9339    1313.2378    2923.4474    507.50925    101.79201   -19.824222   -3458.0622 
  651000    257.68298   -4238.5202   -3796.8604   -4238.5202            0    1705.7194    17.977295    23.454862    22.064209    9303.4832    1524.7241    735.30721    2857.1271    540.33159   -312.14842    679.59564   -3565.4254 
  652000    245.58123   -4272.5494   -3851.6316   -4272.5494            0    143.21933    18.280757    23.304457    22.101495    9415.7475    1137.5926   -900.89212     192.9575   -380.66627   -666.44701    382.18933   -3831.9648 
  653000     251.2431   -4244.0165   -3813.3944   -4244.0165            0    2214.1829    18.163039    23.274969    22.055582    9323.8688     466.5022    3491.9008    2684.1457   -369.22075    289.48886    1110.9517   -3512.3119 
  654000    242.64232   -4263.2956    -3847.415   -4263.2956            0    211.48301    18.113894    23.569829    22.105482     9437.745    1825.7137   -1792.2289    600.96427    492.61032    376.41903    915.32432   -3818.3065 
  655000    249.73879   -4254.8539   -3826.8102   -4254.8539            0    3591.3373    18.064748    23.352484    21.968069    9267.3778    4271.7175    3092.5835    3409.7109   -798.96062   -717.78637    1167.2683   -3341.4223 
  656000      234.436    -4272.105   -3870.2897    -4272.105            0    1018.4084    18.207171    23.469604    22.019826    9409.4038    797.86759    1083.3092    1174.0484   -1058.6093     244.3641     85.02802   -3730.5371 
  657000    250.04397   -4261.4066   -3832.8398   -4261.4066            0    2230.1012    17.900846    23.419348    22.197558    9305.7964     3089.162    3162.7895    438.35205   -473.58792    126.68106     157.5262   -3530.1805 
  658000    250.26044   -4262.9627   -3834.0249   -4262.9627            0    853.75196    18.089247    23.542579    22.118739    9419.6528    1434.6624    56.179326    1070.4141   -338.55581    489.92607    67.488171   -3716.7399 
  659000      250.356   -4255.7897   -3826.6881   -4255.7897            0     2217.213    18.201352    23.290866    22.001654    9327.0566    1868.9745    1047.4811    3735.1833   -74.529937    748.95596     32.16588   -3525.0905 
  660000    257.10728   -4229.4074   -3788.7343   -4229.4074            0    2371.8436    18.297075    23.131218    22.015424    9317.6677    1373.1922    2893.3452    2848.9934    1285.0903    591.53324    639.48487   -3466.4277 
  661000    244.88174   -4275.3714   -3855.6524   -4275.3714            0    773.95179     18.03552    23.470182    22.315779    9446.2011    1040.1106    469.99066    811.75411   -153.49912   -346.84934   -20.471871   -3749.0304 
  662000    246.82764   -4259.8683   -3836.8141   -4259.8683            0   -354.37942    18.021601    23.745629    22.162087    9483.9159    923.80401    -1205.116   -781.82627    1107.7779   -213.10376    900.17244   -3885.8295 
  663000    254.34281    -4262.452   -3826.5171    -4262.452            0    843.62826    18.038771    23.741212    22.000765    9422.0978   -228.60069    938.04005    1821.4454   -320.50453    -336.6046    616.48361   -3710.5928 
  664000    240.00397   -4240.5301   -3829.1715   -4240.5301            0     2468.429    17.966844    23.310017    22.152998    9277.8404    1893.6776    3441.0038    2070.6056   -209.35876   -344.48721    155.24314   -3495.1739 
  665000    260.42135   -4272.8195   -3826.4662   -4272.8195            0     1391.659    18.171311    23.387725    22.067512    9378.3753    1349.3161    1876.6833    948.97757    532.26268     768.3766    695.52372   -3636.1235 
  666000    251.49444   -4236.7955   -3805.7426   -4236.7955            0    440.64398    18.431735    23.193829    22.187469    9485.1988    381.87348    619.91226    320.14621   -306.75585   -6.0715164    31.216519   -3744.7875 
  667000    249.78439   -4276.5165   -3848.3946   -4276.5165            0     2291.145    18.057512    23.457912      22.0166    9326.0453    1908.2392    1602.5086    3362.6873   -45.354602   -76.053875   -110.37997   -3536.7741 
  668000    265.22313   -4239.5351   -3784.9518   -4239.5351            0    434.89041     18.00387    23.767165    22.068626    9443.1863    1378.0885   -602.53994     529.1227   -803.83421    754.96511     980.2671    -3725.059 
  669000    258.40363   -4228.4557   -3785.5607   -4228.4557            0    324.08006    18.018286     23.50029     22.28537    9436.4045   -669.47989    1898.2603   -256.54021   -290.09385   -323.04669   -605.21435   -3740.9607 
  670000    263.06192   -4269.8112    -3818.932   -4269.8112            0    1068.6698    18.320092    23.293048    22.126621    9442.1104    302.01807    2804.1511    99.840172    401.63642    103.13952   -233.27885   -3671.7725 
  671000    236.71073   -4230.3053   -3824.5912   -4230.3053            0    1933.4519     18.09502    23.349415    22.111602    9342.3317    1328.4437    2546.7939    1925.1181   -10.811622    590.21838    433.34725   -3561.1616 
  672000    254.47572   -4266.0488   -3829.8861   -4266.0488            0    434.38538    18.035089    23.563823    22.162524    9418.5324    1534.4896    685.89169   -917.22521    750.40507   -1058.4995   -693.82433   -3770.2191 
  673000    256.09245   -4267.5301   -3828.5964   -4267.5301            0     1402.171    18.093863    23.773108    21.766863    9362.9587    1886.2623    475.83888    1844.4119    162.00244    942.72656   -462.88379   -3637.1312 
  674000    242.38481   -4259.5275   -3844.0882   -4259.5275            0    1437.8641    18.065072    23.413428    22.183607    9382.8952    1490.7031    1749.4652     1073.424    355.91132   -96.985635    110.64856    -3647.331 
  675000    258.31858   -4256.2272    -3813.478   -4256.2272            0    1803.4666    18.091191    23.375338    22.169846    9375.3556    896.36913    1562.8838    2951.1468   -600.95615    680.80914   -662.18574   -3566.8901 
  676000    245.66225   -4254.3916   -3833.3349   -4254.3916            0    2692.8827    18.287033    23.329683    21.832991    9314.6239    1536.1564     3671.617    2870.8746     1.281633   -40.039811   -132.10312   -3467.5223 
  677000     259.0262   -4237.9281   -3793.9661   -4237.9281            0    346.23526    18.090784    23.466856    22.270897    9454.7489    304.82699    511.76197    222.11683    214.91976    223.57476   -397.75602   -3746.2244 
  678000    251.44772   -4224.4703   -3793.4975   -4224.4703            0    1458.0189    18.008585    23.438662    22.203313    9371.9548    1117.9502    2486.3043    769.80204    -316.5777   -362.40064    5.4613189    -3594.215 
  679000    243.62822   -4241.2074    -3823.637   -4241.2074            0    2317.5155    17.989571    23.578778    21.895093    9287.2877    3267.4492    -351.4781    4036.5753   -1209.4937   -766.40813   -117.84691   -3509.7398 
  680000    247.12662   -4252.1763   -3828.6098   -4252.1763            0    654.84045    17.977079    23.572821    22.254985    9431.0055    509.08528    865.60764    589.82842    -8.861907   -28.904035   -545.31514    -3738.542 
  681000    255.65482   -4244.1516    -3805.968   -4244.1516            0    1155.4422    18.245432    23.318235    21.968201    9346.3986    757.84383    1473.8214    1234.6615    696.54625   -604.93781   -313.53579   -3648.4724 
  682000    257.44826   -4227.2761   -3786.0186   -4227.2761            0    852.19488    18.145992    23.428849    22.105545    9397.9447    1116.2813    1721.1238   -280.82037    379.90357   -388.23823    92.948182   -3669.2173 
  683000    238.85053   -4249.6635   -3840.2819   -4249.6635            0    1535.9386    18.120067    23.567787    21.979534    9386.3572    1265.2235    2992.0713    350.52093    -673.1645   -842.64828   -57.736405   -3630.0267 
  684000    250.38916   -4271.9932   -3842.8347   -4271.9932            0     2183.574    17.851033     23.65523    22.093938    9329.6139    1368.9791    2621.1408     2560.602   -259.08708   -56.148471    34.366769   -3545.7315 
  685000    257.64575   -4240.4198   -3798.8238   -4240.4198            0    1507.3927    17.936125    23.935117    22.054954     9468.264     3007.307    901.56739    613.30378   -914.12587   -426.58438   -324.01555   -3590.6756 
  686000    262.57273   -4250.3277    -3800.287   -4250.3277            0    322.01025    18.148106    23.557914    22.138097    9464.7339    1464.5064    256.91882   -755.39451    311.26078    232.86054    87.086909   -3755.8389 
  687000    244.37119   -4250.4148   -3831.5709   -4250.4148            0    844.40092    18.156781    23.347021    22.205246    9412.9534    16.191534    1026.2296    1490.7817    865.15945   -343.66519   -29.368987    -3715.653 
  688000    272.93614    -4250.216   -3782.4128    -4250.216            0    2561.2472    18.242132    23.431145    21.734708    9290.1544    2124.5246    1853.7892    3705.4277   -1367.8258    768.46381    555.42904   -3435.3962 
  689000    235.79867   -4249.4731   -3845.3222   -4249.4731            0    967.29267    18.029373     23.57612    22.142998    9412.1613    1510.9555    574.84565    816.07687   -183.65696   -210.19907    473.30647   -3712.5451 
  690000    266.49127   -4229.1832   -3772.4262   -4229.1832            0    2015.4547    17.746467    23.642841    22.245544    9333.7163    4134.6639   -415.49617    2327.1964    39.814018   -789.02852   -444.39671   -3498.0772 
  691000    246.82785   -4238.5221   -3815.4676   -4238.5221            0    322.27043    18.135426    23.613873    22.103993    9465.9828    2068.1071   -573.86882     -527.427    91.685592   -32.504073     306.3338   -3770.9776 
  692000    262.81402   -4263.3642     -3812.91   -4263.3642            0    1921.7607    18.367445    23.189103    21.971328    9358.1286    1080.1999    2152.0145    2533.0676    944.44739    1061.0963   -891.99746   -3550.6305 
  693000    245.78537   -4226.6257    -3805.358   -4226.6257            0    1210.8047    18.169642    23.090472    22.278016    9346.6439    1563.6072    1978.4046    90.402427      9.74184   -67.792412    639.62297   -3640.3117 
  694000    262.84131   -4239.7678   -3789.2668   -4239.7678            0    1113.7772    18.031421    23.520882    22.035904    9345.7559    324.44104    928.31405    2088.5765   -170.81521    1171.9914   -536.69392   -3637.4609 
  695000    241.01794   -4241.5486   -3828.4521   -4241.5486            0    735.14079     17.77188    23.781451    22.156976    9364.4485    2358.0461   -985.50941    832.88567   -487.76951    404.63246   -162.55052   -3728.0533 
  696000    252.83194   -4250.1252   -3816.7799   -4250.1252            0    2524.2813    18.035293    23.390013    22.109125    9326.6403    2845.0935    2153.5748    2574.1755   -415.18325     827.2357   -29.752571   -3473.4285 
  697000    249.30256   -4234.5464   -3807.2503   -4234.5464            0    2269.2175    18.209301     23.32076    21.862848     9284.162    722.99129    1187.1207    4897.5405   -57.625104    170.65077   -24.361745   -3499.9983 
  698000    251.93106   -4243.1549   -3811.3537   -4243.1549            0    1727.4397    18.114532    23.239728    22.271757     9375.893    3104.3585     1842.048    235.91263   -522.10519    -270.1966   -492.31003   -3575.1474 
  699000    266.70823   -4255.1974   -3798.0687   -4255.1974            0    2074.8998     18.04023    23.596345    21.941684    9340.2126    2738.4977     727.8004    2758.4014    72.710894    366.59622    358.50609   -3515.4312 
  700000    258.54567   -4261.4617   -3818.3232   -4261.4617            0    1611.6645     17.94317    23.599633    22.122554    9367.8449     1083.347    1636.3782    2115.2682   -340.08137    37.982159    676.49771    -3598.137 
  701000    245.89621   -4237.0879   -3815.6302   -4237.0879            0    1202.1462    17.999915    23.346012    22.269821    9358.3625    905.78355    1242.7468    1457.9084    1683.0069    48.779643    30.041522   -3651.5587 
  702000    252.52301   -4239.2067   -3806.3908   -4239.2067            0    66.380717    18.209216    23.494055    21.990155    9407.5718   -1194.7208    513.45353    880.40939    606.24149    464.21849    610.46198   -3797.2834 
  703000    253.29064   -4279.1462   -3845.0148   -4279.1462            0   -56.552323    18.335363    23.324977    22.118025    9459.2583   -1128.3383    287.15518    671.52616     423.7172    298.31209   -228.02658   -3852.8163 
  704000    243.25509   -4254.3318   -3837.4009   -4254.3318            0    2550.8956    18.000672    23.215203     22.23677    9292.5072    3302.6237    3557.4871    792.57605    16.282749     617.1628     439.5601   -3491.6993 
  705000    247.95223   -4271.2109   -3846.2293   -4271.2109            0    2275.4093    18.104878    23.572307    21.863817    9330.9028    1112.1747    1695.8514    4018.2019   -702.55385    263.60318    437.34875   -3536.5879 
  706000    241.87453   -4260.8851   -3846.3204   -4260.8851            0    1507.7336    17.926645    23.603592    22.180742    9385.4086    1512.2187    2426.6533    584.32888   -106.01724   -832.20056   -68.556955   -3639.9471 
  707000    244.73254   -4243.2592    -3823.796   -4243.2592            0    643.37015    18.017615    23.362083    22.294997    9384.6113    1605.7198    293.24588    31.144824   -1067.0206   -510.95608   -416.71119   -3735.7412 
  708000    257.58896   -4243.4965   -3801.9979   -4243.4965            0    1735.5234    18.188574    23.376902    22.031855    9367.7798    824.56356    2139.4708     2242.536    142.55736    56.834779    427.34814   -3564.8916 
  709000     248.6965   -4248.0155   -3821.7582   -4248.0155            0    249.56463    18.072948    23.654897    22.179457    9482.0223    1754.5982     62.55012   -1068.4545   -115.39378   -588.83164    -91.97406    -3787.247 
  710000    266.76983   -4255.2151   -3797.9807   -4255.2151            0    838.04303    17.949517    23.768657    22.123688    9438.7599    536.09082    522.35362    1455.6846   -444.86171    433.58368   -549.05487   -3682.6202 
  711000    252.20042   -4274.9003   -3842.6375   -4274.9003            0    379.29871    18.183006    23.574293    22.051602    9452.4525     1098.133   -1086.7706    1126.5337   -138.89598   -699.16831    394.93499   -3790.3495 
  712000    246.30827   -4240.7215   -3818.5575   -4240.7215            0    1865.5641    18.318325    23.155506    21.977113    9322.0338    994.51653    2540.8055    2061.3701   -1592.5237    635.01612    -173.7539   -3564.9298 
  713000    254.34357   -4236.6619   -3800.7258   -4236.6619            0     1527.324    18.150543    23.356368    22.107013    9371.8428    1267.4898    1236.5065    2077.9758   -128.57496    162.70103    351.64412   -3591.9731 
  714000    267.56212   -4285.8466   -3827.2542   -4285.8466            0    725.36319    17.858635    23.598048      22.1019    9314.3798     1706.113   -610.88805    1080.8646   -126.79991   -543.39265   -876.88938   -3728.7204 
  715000    235.46556     -4280.25   -3876.6701     -4280.25            0    1440.8881    17.851218    23.762029    22.023688    9342.0336    2456.5836    457.72121    1408.3596   -485.30143    212.63535   -337.23902   -3680.3577 
  716000     242.3702   -4248.7898   -3833.3756   -4248.7898            0    1541.1968    18.018809    23.237689    22.156813    9277.4004   -399.01039    2490.9386    2531.6622    51.087218    29.252958     248.0179   -3624.8496 
  717000    236.55863   -4252.0809   -3846.6275   -4252.0809            0    2167.9207    18.189631    23.223371    22.031239    9306.5362     2990.936    1400.7195    2112.1065   -991.52894   -295.45227   -61.220011   -3552.3837 
  718000    246.71465   -4232.9115    -3810.051   -4232.9115            0    1608.7973     18.22879    23.507666    21.868934    9371.1947    474.47935    1069.7715    3282.1412   -262.42056   -493.55249   -811.02346   -3590.1779 
  719000    263.37805   -4250.8041   -3799.3831   -4250.8041            0     1563.074    17.913206    23.405853    22.312299    9354.9636    1618.0355    2509.2754    561.91116    354.72556   -848.52138   -105.71695   -3586.1289 
  720000    256.50803   -4286.1002   -3846.4543   -4286.1002            0    2264.5648    18.129042    23.552283    21.829174    9320.6278    1346.9311    2502.3763     2944.387    713.02109    145.34338    459.97628   -3538.6279 
  721000    252.98841   -4256.6149   -3823.0015   -4256.6149            0    2488.8142    18.100792    23.473505    22.019862    9355.9979    2370.5543    1223.0755    3872.8128     752.2401   -1593.5023   -18.576489   -3483.4087 
  722000    265.33663   -4289.7747   -3834.9968   -4289.7747            0    716.71788    17.983155    23.633036    22.149716    9413.5528    1046.9069   -30.858973    1134.1057      -552.11   -918.36853     734.3891   -3736.6007 
  723000    247.24682   -4257.2712   -3833.4986   -4257.2712            0    58.885153     18.10357     23.64799     22.07826    9451.9912    941.87332    309.33707   -1074.5549    132.34445   -660.95893   -177.91963   -3825.3814 
  724000    244.26768   -4240.6898   -3822.0234   -4240.6898            0    657.48146     18.21745     23.23367     22.21948    9404.5777   -220.03713    2308.2897   -115.80818   -226.43819   -306.93876   -698.98097   -3731.8458 
  725000    252.61416   -4268.0778   -3835.1058   -4268.0778            0    1150.1533    18.133607    23.303742    22.118395    9346.8117    1231.8868    1311.0265    907.54651   -135.73452   -368.15522   -243.87775   -3678.3242 
  726000    260.65098   -4259.9532   -3813.2063   -4259.9532            0    2538.8289    18.061738    23.472784    21.949412    9305.6565    3051.7364    2698.9256    1865.8246    142.46556    -1025.896   -276.46948   -3468.6531 
  727000    259.52601   -4206.9882   -3762.1695   -4206.9882            0    1753.4569    17.973363    23.497558    22.251312    9397.3999    2712.8274    343.62509    2203.9181   -302.35411   -310.56907   -351.72076   -3521.8557 
  728000    258.73719   -4237.3783   -3793.9116   -4237.3783            0    2065.4935    18.088605    23.585623    21.959373    9368.5499     586.0168     1874.083    3736.3807   -687.28435   -50.972153    103.03882   -3511.7018 
  729000     263.6868    -4256.872   -3804.9219    -4256.872            0    1767.9009    17.832612    23.734271    22.106117    9356.2822    1682.9829    1000.4317    2620.2883    716.72665    -272.6174    724.81636   -3563.6887 
  730000    259.08686   -4223.6827   -3779.6167   -4223.6827            0   -356.99442    18.064693    23.544214    22.160733    9425.3805    290.63627    -1080.041   -281.57855   -1442.4829    -180.4476    2.5416831    -3828.689 
  731000    268.39118   -4260.6449   -3800.6316   -4260.6449            0    3886.0385    18.239185    23.118922    21.907483     9237.735    1312.2377    4494.6712    5851.2066    346.95761    110.25418   -513.55439   -3277.0932 
  732000    246.41538   -4235.0269   -3812.6794   -4235.0269            0    2306.2712     18.07674    23.325375    22.221268     9369.525    1661.7351    1839.7821    3417.2964    172.09633    533.29773    59.775788   -3497.5392 
  733000    250.12484   -4266.2987   -3837.5933   -4266.2987            0    1872.2106    17.819891    23.735953    22.014844    9311.6651    1497.1086    1626.6807    2492.8426    1046.8186    228.16652   -311.59857    -3583.345 
  734000    259.60142   -4242.5916   -3797.6436   -4242.5916            0    1344.3781    18.136537    23.551613    22.036368    9412.7178   -47.254905    1516.8151    2563.5741   -808.10016    430.25788   -166.30377   -3613.0944 
  735000    249.11256   -4264.8844    -3837.914   -4264.8844            0    565.89179    18.320674    23.093573    22.248222    9412.9964   -6.8497566    564.12398    1140.4012    552.26293    437.91259    654.29839    -3760.229 
  736000     255.2349   -4263.2936   -3825.8297   -4263.2936            0    1681.6278     18.15095    23.526794    21.978045    9385.3652    2054.8902   -302.39615    3292.3892   -43.525386    610.43129    320.61255   -3595.6554 
  737000    251.52693   -4251.6629   -3820.5543   -4251.6629            0     869.5019    17.870662    23.816371    22.119043    9414.1808    1793.1795   -967.51368    1782.8399   -759.27627    22.893908   -88.235854    -3701.175 
  738000    250.43126   -4225.3614   -3796.1308   -4225.3614            0    3175.5044    17.923422    23.306425    22.139356    9248.2928    2685.7015    4383.7578    2457.0541    788.74128    405.59661   -30.053585   -3367.8287 
  739000     251.6324   -4247.0286   -3815.7393   -4247.0286            0    208.62487    18.131746    23.653229    21.911125    9397.1191    283.79831    733.67352   -391.59722    -477.9962   -344.95154    256.95495   -3787.1478 
  740000    254.82059   -4248.8793   -3812.1255   -4248.8793            0    2380.4984    18.157452    23.300437    22.073232    9338.6674    2680.8436    1427.3796     3033.272     349.7733   -19.615094   -702.93839   -3487.9138 
  741000    242.98969   -4266.1823   -3849.7062   -4266.1823            0    1936.8522    18.114957    23.403629     22.11077    9373.9878    702.08546    2276.3223    2832.1488    -1388.726    152.37084   -373.47562   -3584.9192 
  742000    258.93405   -4265.0592   -3821.2551   -4265.0592            0    2177.3286    18.051506    23.487223    22.095933    9368.2284    2668.9584    1834.5882    2028.4392   -226.42849   -530.97361    1299.8466   -3523.7754 
  743000    268.27617   -4249.4087   -3789.5925   -4249.4087            0     2366.308    17.745007    23.755158    22.054554    9296.7766    2863.5954    1952.1302    2283.1982   -390.74344   -1260.3825    -687.4905   -3468.7591 
  744000    249.38459   -4228.2638   -3800.8272   -4228.2638            0    2016.6866    17.931773     23.56286    21.991852    9292.0819    2681.4092     2332.542    1036.1086    -637.3441    282.00506    350.66463   -3527.5349 
  745000    254.86686   -4219.3952   -3782.5622   -4219.3952            0    2018.3531    18.120882    23.401474    22.150234    9392.9253    1369.6796     4030.749    654.63072     476.3949   -366.54452   -524.03958   -3506.0757 
  746000    249.35285   -4256.2019   -3828.8196   -4256.2019            0   -1077.9754    18.203974    23.560127    22.229709     9534.054    -995.3858   -2038.0325   -200.50785    926.33426    268.28382    167.47742   -3978.7061 
  747000    248.11518   -4248.1535   -3822.8925   -4248.1535            0    2597.7857     18.21568    23.213674    21.954768    9283.6364    1118.5484    3420.1059    3254.7029   -739.52792    854.28512   -432.74669   -3471.1723 
  748000    264.01312   -4238.7765   -3786.2671   -4238.7765            0    2213.1019    18.062444    23.213355    22.207717    9311.4718    1484.8613    2620.1089    2534.3356    272.11017    -851.2645   -315.12697   -3485.7317 
  749000    243.85892   -4258.2699   -3840.3041   -4258.2699            0    2114.1845    18.029593    23.434761    22.082117    9330.1189    1168.9773    3452.6161    1720.9601   -645.54892    306.32758    778.02895   -3552.6266 
  750000     272.2393    -4244.465   -3777.8562    -4244.465            0    34.693264    18.215583    23.623191    22.048742    9487.7988    657.42955   -1175.0202    621.67041    287.61576   -86.525761    388.12216   -3773.0557 
Loop time of 357.443 on 64 procs for 250000 steps with 864 atoms

Performance: 120.858 ns/day, 0.199 hours/ns, 699.412 timesteps/s
195.0% CPU use with 32 MPI tasks x 2 OpenMP threads

MPI task timing breakdown:
Section |  min time  |  avg time  |  max time  |%varavg| %total
---------------------------------------------------------------
Pair    | 16.92      | 25.175     | 33.568     | 104.1 |  7.04
Bond    | 0.99682    | 1.2731     | 2.2058     |  23.0 |  0.36
Kspace  | 179.36     | 191.2      | 201.31     |  41.0 | 53.49
Neigh   | 1.436      | 1.5913     | 1.8376     |   9.6 |  0.45
Comm    | 51.42      | 56.276     | 60.706     |  32.5 | 15.74
Output  | 0.65853    | 0.65877    | 0.66046    |   0.0 |  0.18
Modify  | 62.587     | 65.573     | 72.291     |  26.0 | 18.35
Other   |            | 15.7       |            |       |  4.39

Nlocal:        27.0000 ave          39 max          16 min
Histogram: 1 4 4 8 1 3 3 1 3 4
Nghost:        2083.53 ave        2182 max        1969 min
Histogram: 2 8 6 0 0 0 0 1 6 9
Neighs:        6419.19 ave        9184 max        3802 min
Histogram: 2 3 4 7 3 2 3 0 5 3

Total # of neighbors = 205414
Ave neighs/atom = 237.74769
Ave special neighs/atom = 2.0000000
Neighbor list builds = 6072
Dangerous builds = 0

unfix		3
unfix		2
unfix		1

write_data	data.final.${pid} nocoeff
write_data	data.final.0 nocoeff
System init for write_data ...
PPPM initialization ...
  extracting TIP4P info from pair style
  using 12-bit tables for long-range coulomb (../kspace.cpp:340)
  G vector (1/distance) = 0.37118166
  grid = 24 27 25
  stencil order = 5
  estimated absolute RMS force accuracy = 0.0032118298
  estimated relative force accuracy = 9.6723302e-06
  using double precision FFTW3
  3d grid and FFT values/proc = 4410 672
Last active /omp style is kspace_style pppm/tip4p/omp

write_restart   restart.lmp.${pid}
write_restart   restart.lmp.0
System init for write_restart ...
PPPM initialization ...
  extracting TIP4P info from pair style
  using 12-bit tables for long-range coulomb (../kspace.cpp:340)
  G vector (1/distance) = 0.37118166
  grid = 24 27 25
  stencil order = 5
  estimated absolute RMS force accuracy = 0.0032118298
  estimated relative force accuracy = 9.6723302e-06
  using double precision FFTW3
  3d grid and FFT values/proc = 4410 672
Last active /omp style is kspace_style pppm/tip4p/omp
Total wall time: 0:05:57
