LAMMPS (30 Jul 2021)
Processor partition = 1
  using 2 OpenMP thread(s) per MPI task
using multi-threaded neighbor list subroutines
variable        pid world 0 1
variable        phase world IceVI Liquid

shell cd ${phase}
shell cd Liquid
include Restart.lmp
echo both
log log.lammps
#include		in.partitions
include		in.temp
variable        temperature equal 289.85
variable	tempDamp equal 100.0
include		in.pressure
variable        pressure equal 12750.0
variable        pressureDamp equal 1000.0 # This is 1 ps
include		in.seed
variable        seed equal 745823

units		real
atom_style	full
read_restart	restart.lmp.${pid}
read_restart	restart.lmp.1
Reading restart file ...
  restart file = 30 Jul 2021, LAMMPS = 30 Jul 2021
  restoring atom style full from restart
  orthogonal box = (0.70924522 1.9269285 0.86527751) to (17.498327 21.702249 21.347918)
  2 by 4 by 4 MPI processor grid
  restoring pair style lj/cut/tip4p/long/omp from restart
  restoring bond style harmonic/omp from restart
  restoring angle style harmonic/omp from restart
  864 atoms
  576 bonds
  288 angles
Finding 1-2 1-3 1-4 neighbors ...
  special bond factors lj:    0        0        0       
  special bond factors coul:  0        0        0       
     2 = max # of 1-2 neighbors
     1 = max # of 1-3 neighbors
     1 = max # of 1-4 neighbors
     2 = max # of special neighbors
  special bonds CPU = 0.002 seconds
  read_restart CPU = 0.009 seconds
include 	in.setup
variable	out_freq equal 1000
variable	out_freq2 equal 10000
variable	out_freq3 equal 1000

timestep	2.0

neigh_modify    delay 7 every 1

include		in.tip4p
# This is TIP4P/Ice

# create groups ###
group ox type 2
288 atoms in group ox
group hy type 1
576 atoms in group hy

# set charges - beside manually ###
set group ox charge -1.1794
Setting atom values ...
  288 settings made for charge
set group hy charge 0.5897
Setting atom values ...
  576 settings made for charge

# ### TIP3P Potential Parameters ###
pair_style lj/cut/tip4p/long/omp 2 1 1 1 0.1577 8.5
pair_coeff 1 1*2 0.000 0.000
pair_coeff 2 2 0.21084 3.1668
bond_style  harmonic
bond_coeff  1 450 0.9572
angle_style harmonic
angle_coeff 1 55 104.52
kspace_style pppm/tip4p/omp 1.0e-5
pair_modify tail yes

thermo          ${out_freq}
thermo          1000
thermo_style    custom step temp pe etotal epair emol press lx ly lz vol pxx pyy pzz pxy pxz pyz enthalpy

restart 	${out_freq3} restart.lmp.${pid} restart2.lmp.${pid}
restart 	1000 restart.lmp.${pid} restart2.lmp.${pid}
restart 	1000 restart.lmp.1 restart2.lmp.${pid}
restart 	1000 restart.lmp.1 restart2.lmp.1


include         in.dump
dump            myDump all atom ${out_freq2} dump.water.${pid}
dump            myDump all atom 10000 dump.water.${pid}
dump            myDump all atom 10000 dump.water.1
dump            myDump2 all dcd ${out_freq2} dump.dcd
dump            myDump2 all dcd 10000 dump.dcd
dump_modify     myDump append yes
dump_modify     myDump2 append yes


variable natoms 	equal  "count(all)"                        # NUMBER ATOMS
variable H      	equal  "enthalpy/v_natoms"                 # ENTHALPY-per-atom
variable Vol      	equal  "vol/v_natoms"                 # volume-per-atom
fix AVG all 		ave/time ${out_freq} 1 ${out_freq} v_Vol v_H file vol_enthalpy.dat
fix AVG all 		ave/time 1000 1 ${out_freq} v_Vol v_H file vol_enthalpy.dat
fix AVG all 		ave/time 1000 1 1000 v_Vol v_H file vol_enthalpy.dat


timer           timeout 23:50:00 every 1000
New timer settings: style=normal  mode=nosync  timeout=23:50:00

fix 		1 all shake 1e-6 200 0 b 1 a 1
Finding SHAKE clusters ...
       0 = # of size 2 clusters
       0 = # of size 3 clusters
       0 = # of size 4 clusters
     288 = # of frozen angles
  find clusters CPU = 0.000 seconds
fix             2 all nph iso ${pressure} ${pressure} ${pressureDamp}
fix             2 all nph iso 12750 ${pressure} ${pressureDamp}
fix             2 all nph iso 12750 12750 ${pressureDamp}
fix             2 all nph iso 12750 12750 1000
fix             3 all temp/csvr ${temperature} ${temperature} ${tempDamp} ${seed}
fix             3 all temp/csvr 289.85 ${temperature} ${tempDamp} ${seed}
fix             3 all temp/csvr 289.85 289.85 ${tempDamp} ${seed}
fix             3 all temp/csvr 289.85 289.85 100 ${seed}
fix             3 all temp/csvr 289.85 289.85 100 745823

run             250000
PPPM initialization ...
  extracting TIP4P info from pair style
  using 12-bit tables for long-range coulomb (../kspace.cpp:340)
  G vector (1/distance) = 0.37516777
  grid = 24 24 24
  stencil order = 5
  estimated absolute RMS force accuracy = 0.0030591381
  estimated relative force accuracy = 9.2125036e-06
  using double precision FFTW3
  3d grid and FFT values/proc = 3549 432
Last active /omp style is kspace_style pppm/tip4p/omp
Neighbor list info ...
  update every 1 steps, delay 7 steps, check yes
  max neighbors/atom: 2000, page size: 100000
  master list distance cutoff = 10.8154
  ghost atom cutoff = 10.8154
  binsize = 5.4077, bins = 4 4 4
  1 neighbor lists, perpetual/occasional/extra = 1 0 0
  (1) pair lj/cut/tip4p/long/omp, perpetual
      attributes: half, newton on, omp
      pair build: half/bin/newton/omp
      stencil: half/bin/3d
      bin: standard
Setting up Verlet run ...
  Unit style    : real
  Current step  : 11000000
  Time step     : 2
  Walltime left : 23:49:59.93
Per MPI rank memory allocation (min/avg/max) = 10.20 | 10.20 | 10.20 Mbytes
Step Temp PotEng TotEng E_pair E_mol Press Lx Ly Lz Volume Pxx Pyy Pzz Pxy Pxz Pyz Enthalpy 
11000000    304.25292    -3745.785   -3224.3059    -3745.785            0    14279.425    16.789082    19.775321    20.482641     6800.431    12364.407    15423.381    15050.486   -831.45101    275.98363   -1252.2381   -1808.1109 
11001000    291.64089   -3731.5905    -3231.728   -3731.5905            0    12997.219    16.766177    19.748342    20.454697    6772.6363    13074.891    13067.106    12849.659   -1389.2748    188.13279    1626.9768   -1947.9673 
11002000    296.81884    -3749.389   -3240.6517    -3749.389            0    11847.276    16.773832    19.757358    20.464035    6781.9163    11091.791    13699.326    10750.712   -323.62244    1173.0714   -1415.9738   -2068.8697 
11003000    289.96437   -3770.1076   -3273.1186   -3770.1076            0    12483.486    16.861932    19.861129    20.571518    6889.3395    13419.889     12392.24     11638.33    206.84951    1017.4974    669.80795   -2018.8534 
11004000    272.17145    -3778.178   -3311.6855    -3778.178            0    12787.192    16.791329    19.777968    20.485382    6803.1619    12155.965    12363.269    13842.341      518.284    1030.0634   -712.55943   -2042.9769 
11005000    294.99092    -3739.354   -3233.7497    -3739.354            0    15448.987    16.752902    19.732706    20.438502    6756.5618    15196.184     14778.17    16372.607   -197.08654   -1688.0751   -84.082519   -1711.4447 
11006000    301.29471   -3769.4634   -3253.0546   -3769.4634            0    11895.718    16.819645     19.81132    20.519928    6837.6377    13861.304    10623.732    11202.118    3168.3013    1854.5152   -43.813553   -2066.8144 
11007000    286.38657   -3768.9168     -3278.06   -3768.9168            0    14066.304    16.760692    19.741882    20.448005    6765.9915    15832.117    13136.868    13229.927   -22.669511   -893.58557   -605.24156   -1890.0669 
11008000    299.13748   -3783.8721   -3271.1607   -3783.8721            0      12860.6    16.751922    19.731551    20.437305    6755.3754    13341.779    12874.361    12365.659   -188.53402    217.30653   -249.51648   -2004.1316 
11009000    301.00369   -3786.2575   -3270.3475   -3786.2575            0      13164.1    16.796992    19.784638    20.492292    6810.0479    13737.983    12444.106    13310.209   -605.44474    -438.2405    464.93965   -1962.9212 
11010000    276.26057   -3742.3982   -3268.8971   -3742.3982            0    12648.858    16.807867    19.797447    20.505558    6823.2832    13988.993    11438.406    12519.174   -628.72712   -1242.0765    512.55202   -2010.2018 
11011000     300.4493   -3782.7734   -3267.8136   -3782.7734            0    12841.339    16.777687      19.7619     20.46874    6786.5943    11625.577    12285.647    14612.792    153.61171    156.19033   -1258.4881   -1996.8354 
11012000    310.45016   -3754.2445   -3222.1435   -3754.2445            0    12524.801     16.77977    19.764352     20.47128    6789.1217    14556.607    12723.985    10293.813    495.14276   -1031.5011    341.71775   -1982.0332 
11013000     305.3814   -3758.8797   -3235.4664   -3758.8797            0     11534.48    16.813394    19.803957    20.512301    6830.0161    12452.822    10927.877    11222.743    1299.3546   -1126.9099   -781.78291   -2086.5309 
11014000    276.31875   -3760.5814   -3286.9805   -3760.5814            0    13175.605    16.769412    19.752152    20.458643    6776.5569    13663.529    11163.638    14699.649   -373.57314     770.4321    966.23487   -1984.8469 
11015000     298.7177   -3765.8649   -3253.8729   -3765.8649            0    12139.333    16.787704    19.773698    20.480959    6798.7564    12468.107    11739.338    12210.554   -470.70009     546.7915    355.08694    -2050.223 
11016000    287.42714   -3758.5364   -3265.8961   -3758.5364            0     12107.77    16.768855    19.751497    20.457964    6775.8823    12503.357     13831.94    9988.0121    -2011.383   -485.93212   -1940.9166   -2069.4149 
11017000    287.14527   -3737.7868   -3245.6296   -3737.7868            0    13974.236    16.753674    19.733615    20.439443    6757.4955    13661.011    14276.764    13984.931   -328.79447   -392.91003    761.82896   -1868.4527 
11018000    276.43139   -3794.4528   -3320.6589   -3794.4528            0    12646.721    16.784341    19.769736    20.476856    6794.6713    13028.176    10587.936    14324.052    -2099.474    376.23744    2200.6631   -2067.4534 
11019000    296.08914   -3784.0668   -3276.5801   -3784.0668            0    12925.124    16.801937    19.790463    20.498324    6816.0642    15756.437    7455.9658     15562.97    1581.0705    434.62964    -120.8582   -1991.7542 
11020000    291.62715   -3807.8317   -3307.9927   -3807.8317            0    12830.308    16.817723    19.809056    20.517583    6835.2938    13421.823      12743.8    12325.302     45.66719   -402.56252    -2220.174   -2028.9938 
11021000    277.86836   -3788.4787   -3312.2218   -3788.4787            0    13291.961    16.792779    19.779675    20.487151    6804.9239    12470.653    14464.854    12940.375     51.90808    1639.6831   -894.63767   -1993.0899 
11022000    308.78201   -3798.9481   -3269.7063   -3798.9481            0     12576.97    16.794205    19.781355     20.48889    6806.6577    15478.427    8902.2565    13350.227   -437.77928   -173.59776   -508.78769   -2021.2141 
11023000    268.79568   -3777.6503   -3316.9436   -3777.6503            0     14264.37    16.726621     19.70175    20.406438    6724.8131    15566.701    12843.216    14383.194    482.50259   -1764.7427    20.932428   -1917.9726 
11024000    321.24733   -3768.9593   -3218.3524   -3768.9593            0    13510.617    16.790412    19.776887    20.484263    6802.0467    14527.711    14316.306    11687.834    267.60465   -325.79057    1366.8395   -1878.0874 
11025000     287.6272   -3768.6995   -3275.7164   -3768.6995            0    10930.264    16.824144     19.81662    20.525417     6843.126    10575.606    10229.536    11985.649   -865.80169   -292.00918    2438.8965   -2184.8763 
11026000    302.93871   -3749.8461   -3230.6195   -3749.8461            0    10725.385    16.801097    19.789473      20.4973    6815.0419    10071.667    10854.078    11250.411   -762.03555   -1213.2505    378.18537   -2164.6192 
11027000    290.78101   -3747.6369   -3249.2482   -3747.6369            0    13009.676    16.778937    19.763371    20.470264    6788.1108    13702.686    11913.733    13412.609     -1746.37     1837.726    1121.4815   -1961.3211 
11028000    276.53809   -3771.9788    -3298.002   -3771.9788            0    11504.086    16.812626    19.803052    20.511364    6829.0805    11989.441    12816.037    9706.7819    -766.9772    427.85866   -436.52749    -2152.251 
11029000    269.86866   -3756.7745   -3294.2288   -3756.7745            0    12980.018    16.743399    19.721512    20.426907    6745.0695    10517.679    14622.672    13799.703   -1340.3285    1677.6558    -329.4511   -2017.3855 
11030000    295.12505   -3746.7172    -3240.883   -3746.7172            0    13411.478    16.784314    19.769705    20.476824    6794.6393    13661.652    13776.835    12795.946    -295.8425   -568.87138    746.78903   -1911.9015 
11031000    296.16387   -3753.6062   -3245.9915   -3753.6062            0    12348.986    16.821019    19.812938    20.521604    6839.3132    12681.966    12691.944    11673.049    -806.4321   -1984.4022   -513.10472   -2014.2497 
11032000    293.17961   -3750.3756   -3247.8758   -3750.3756            0    12862.677    16.762566    19.744088    20.450291    6768.2604    14065.603    12830.973    11691.456   -859.87142   -725.84141     1838.429   -1978.2249 
11033000    299.65819   -3747.2138   -3233.6099   -3747.2138            0    14138.781    16.780059    19.764693    20.471632    6789.4722    14906.602    14080.569    13429.173    1188.2884   -401.59949    2078.8507   -1833.6233 
11034000    285.03106   -3783.9578   -3295.4243   -3783.9578            0     13392.97    16.790449    19.776931    20.484308    6802.0918    12296.145    15821.725    12061.041   -264.34855   -743.95047     206.4689   -1966.8212 
11035000     293.2816   -3799.7414   -3297.0668   -3799.7414            0    11936.539    16.763004    19.744605    20.450826     6768.792    11765.342    12793.364    11250.912    332.64079    1181.7568   -617.58198   -2118.7407 
11036000    284.36315   -3769.8364   -3282.4477   -3769.8364            0    12992.706    16.809618     19.79951    20.507695    6825.4165    11189.105     13041.18    14747.832   -993.27662    -106.7307    1497.5956   -1989.1317 
11037000    306.80352   -3782.7193   -3256.8686   -3782.7193            0    13142.987    16.797433    19.785157    20.492829    6810.5836    15011.266    12265.967    12151.729   -511.90258   -534.19757    -1543.153   -1951.4365 
11038000    296.39892    -3761.656   -3253.6384    -3761.656            0    13659.024    16.731192    19.707134    20.412015    6730.3281    14585.425    14338.994    12052.652   -20.666384    155.51701    204.53942   -1912.9379 
11039000    288.57091   -3735.2866   -3240.6859   -3735.2866            0    11061.174    16.754778    19.734916     20.44079    6758.8319    11512.149     9471.394    12199.978   -1316.1369    -557.6895    552.44321    -2150.379 
11040000    290.47093   -3764.9999   -3267.1426   -3764.9999            0    11467.386    16.738709    19.715989    20.421186     6739.404    11454.315    10609.598    12338.245   -1627.0196    1377.1995   -303.57619   -2140.0443 
11041000    290.44043   -3760.7079    -3262.903   -3760.7079            0    12481.067    16.791295    19.777927     20.48534    6803.1203    14512.772    9630.8534    13299.575    774.47796    1060.7871    103.94438   -2024.5748 
11042000    293.03945   -3740.6592   -3238.3996   -3740.6592            0     14693.79    16.702101    19.672869    20.376525    6695.2829    14005.867    15314.175    14761.328    294.79531   -650.70453    1540.8114   -1803.6416 
11043000    298.58833   -3735.8843   -3224.1141   -3735.8843            0    12403.725    16.871029    19.871844    20.582616    6900.4963    14147.335    10794.193    12269.646    274.10531   -772.68647   -1597.0057   -1975.8447 
11044000     284.7014   -3734.6794    -3246.711   -3734.6794            0    15427.428    16.720078    19.694044    20.398456    6716.9252     14626.83    16365.386     15290.07   -117.38977    -109.2748    817.52106   -1735.4484 
11045000    273.40635   -3785.5278   -3316.9186   -3785.5278            0    13140.074    16.781487    19.766375    20.473375    6791.2062    13755.195    14891.358    10773.668   -1359.7104   -501.45039   -1200.8208   -2015.4892 
11046000    303.86949   -3771.7296   -3250.9077   -3771.7296            0    12350.314    16.752784    19.732567    20.438357    6756.4186    12446.723    10602.025    14002.193    106.03442    2326.4819    -959.5509   -2033.9642 
11047000     287.1528   -3785.7521    -3293.582   -3785.7521            0    12296.964    16.802313    19.790905    20.498782     6816.521    11642.711    12237.514    13010.666   -60.044101  -0.09647799    729.42204   -2071.1167 
11048000    306.50114   -3788.7989   -3263.4665   -3788.7989            0    12526.479    16.746237    19.724855     20.43037    6748.5003     13323.02    13679.464    10576.952    1970.6031   -1794.1702   -798.46824    -2030.611 
11049000    290.90046   -3748.1179   -3249.5244   -3748.1179            0     13261.32    16.738679    19.715953     20.42115    6739.3679    15538.784    12955.059    11290.117    -488.2334     1030.625    176.59958   -1946.1122 
11050000    302.40111   -3783.2157   -3264.9105   -3783.2157            0    13503.182    16.753316    19.733193    20.439007    6757.0626    14310.587    13870.708    12328.251    678.83224    750.06769     989.6556   -1934.2418 
11051000    290.25317    -3730.671    -3233.187    -3730.671            0    11057.967    16.870579    19.871313    20.582066    6899.9433    10681.227    11600.349    10892.325   -543.49072    286.91161    1106.4428   -2120.4393 
11052000    297.90818    -3747.521   -3236.9166    -3747.521            0    13226.253    16.759586    19.740579    20.446656    6764.6519    12822.954     13858.71    12997.095    298.90762   -2358.5111   -920.40918   -1932.0739 
11053000    297.33525   -3781.2455   -3271.6231   -3781.2455            0    12234.733    16.756209    19.736601    20.442536     6760.564    14326.137    12225.969    10152.095    1072.5672    306.91122    1161.0349   -2065.3286 
11054000    288.85073   -3746.9766   -3251.8963   -3746.9766            0    10111.661     16.85575    19.853848    20.563976    6881.7655    10728.662    8638.3386    10967.983   -964.68364   -46.991621   -492.73003   -2237.0547 
11055000    291.39436   -3771.8063   -3272.3663   -3771.8063            0    14001.117    16.759735    19.740754    20.446837    6764.8317    14033.693    15268.131    12701.529   -459.41004   -152.61571    2337.3679   -1891.0422 
11056000      306.682   -3766.6227   -3240.9802   -3766.6227            0    12444.578     16.77669    19.760725    20.467523    6785.3842    12647.019    11881.299    12805.415    1686.5603   -1419.1789    728.69824   -2009.4914 
11057000    299.42326   -3792.7159   -3279.5147   -3792.7159            0    13581.423    16.718152    19.691774    20.396106    6714.6033    14747.833    14022.169    11974.267    2204.8185     1084.094   -423.97569   -1949.5456 
11058000    292.90842    -3762.615     -3260.58    -3762.615            0    12633.437    16.820342    19.812141    20.520778    6838.4871    12317.969    12985.445    12596.898    -263.1363    569.96979   -846.44653    -2000.618 
11059000    285.81493   -3749.5401   -3259.6631   -3749.5401            0    10742.191    16.844039    19.840053    20.549688    6867.4305    10728.928    13242.237    8255.4086    1266.2111    -1308.134    547.64968   -2183.7851 
11060000    274.28249   -3755.1073   -3284.9965   -3755.1073            0    14064.221    16.792056    19.778824    20.486269    6804.0458    15858.437    12510.525    13823.702   -1049.3802    605.06048    514.75334   -1889.4034 
11061000    286.94024   -3742.5009   -3250.6952   -3742.5009            0    12827.665    16.777005    19.761096    20.467907    6785.7659    12108.558    12312.666    14061.771   -138.89664   -997.91482    1817.4391   -1981.2254 
11062000    296.33946   -3742.9504   -3235.0347   -3742.9504            0    12787.238    16.785694    19.771331    20.478508    6796.3155    12895.702    13146.394    12319.619   -826.09941    1469.2754   -1520.8326   -1967.5983 
11063000    303.07505   -3733.1956   -3213.7353   -3733.1956            0    12531.262    16.790259    19.776707    20.484076    6801.8608    12953.149    14443.142    10197.496   -454.13662    822.49771    414.78124   -1970.6571 
11064000    292.63379   -3756.8829   -3255.3186   -3756.8829            0    13323.657     16.74931    19.728474    20.434119    6752.2159    11453.239    14248.958    14268.774   -366.10772    1177.3648    16.058701   -1943.2829 
11065000    284.88757   -3786.9398   -3298.6523   -3786.9398            0    15329.961    16.710909    19.683244     20.38727    6705.8809    14158.533    16761.878     15069.47   -429.15663   -513.58413   -387.97021   -1799.4068 
11066000    299.49397   -3763.6292   -3250.3068   -3763.6292            0    11498.668    16.817728    19.809063    20.517589    6835.3003    10077.512    11047.201    13371.291    908.67101       200.93    720.61667   -2104.0524 
11067000    278.50545   -3791.1781   -3313.8293   -3791.1781            0    11618.058    16.836516    19.831192     20.54051    6858.2332    12165.564    10517.482    12171.127    340.73482    -1272.178   -908.91892   -2151.7877 
11068000    285.83885   -3744.0368   -3254.1188   -3744.0368            0    14161.449    16.752689    19.732455    20.438242     6756.304    14216.064    14395.686    13872.598    -710.5005   -629.60632    1734.5479   -1858.7379 
11069000    269.73865   -3795.4033   -3333.0805   -3795.4033            0    14274.513    16.707963    19.679774    20.383676    6702.3348     14874.96    14519.102    13429.476    332.06529     2080.261   -207.47714   -1937.7943 
11070000    298.78381   -3809.1752     -3297.07   -3809.1752            0    9938.6016    16.801015    19.789377    20.497199    6814.9419    9758.4082    10245.895    9811.5019   -1835.3406    225.62897    707.82345    -2309.283 
11071000    282.74707   -3768.7395   -3284.1207   -3768.7395            0    9230.7709    16.842747    19.838532    20.548112    6865.8512    7694.1055    8380.6067    11617.601    -637.8506    549.15008   -375.63964   -2359.8307 
11072000    309.44693   -3738.9576   -3208.5762   -3738.9576            0     11310.17    16.793402     19.78041    20.487912    6805.6822    10215.891    12194.394    11520.224   -618.35039   -1092.2234    791.62665   -2085.9978 
11073000    283.12971   -3792.9312   -3307.6566   -3792.9312            0    11534.971    16.757384    19.737985    20.443969    6761.9857    10529.696    11190.992    12884.225    -2456.069   -292.92932    52.668701   -2170.1167 
11074000    293.39371   -3781.0681   -3278.2014   -3781.0681            0    13552.293    16.727175    19.702403    20.407114    6725.4816    14726.314    12824.312    13106.254    770.38691   -151.88565    375.00992   -1948.9348 
11075000    289.55635   -3759.1489   -3262.8592   -3759.1489            0    12334.963    16.769753    19.752553    20.459059    6776.9699    11904.628    13517.936    11582.324   -101.75215    730.58348    492.18016   -2043.7313 
11076000    276.55586   -3739.9932   -3265.9859   -3739.9932            0    14175.682    16.789234      19.7755    20.482826    6800.6155    15809.921    11290.328    15426.795   -552.63158    918.40849   -577.98324   -1860.0417 
11077000     295.9193   -3791.6598   -3284.4643   -3791.6598            0    13371.603     16.70096    19.671524    20.375132      6693.91    12327.893    15199.392    12587.524    507.70887    1318.5061   -792.94255   -1979.0775 
11078000    313.29884   -3754.1461   -3217.1626   -3754.1461            0    12081.804    16.806972    19.796393    20.504466    6822.1929    13028.581    9968.1707    13248.661   -571.39153   -1169.2396     438.5848   -2015.0873 
11079000    293.61513   -3801.2834   -3298.0372   -3801.2834            0    12110.416    16.796109    19.783598    20.491214    6808.9736    12289.662    10660.967    13380.619    1034.5127   -598.20669    -1909.795   -2095.4499 
11080000    293.96423   -3710.0811   -3206.2365   -3710.0811            0    14208.726    16.793651    19.780703    20.488215    6805.9845    18498.155    12815.368    11312.654    1152.4866    140.71606   -271.80528   -1795.9025 
11081000    287.35275   -3732.2342   -3239.7214   -3732.2342            0     13942.82    16.770974    19.753992    20.460549    6778.4506     14449.42    13783.163    13595.877    260.08294     81.55874   -1403.5185   -1861.3795 
11082000    284.67282   -3794.5599   -3306.6404   -3794.5599            0    11564.642     16.77877    19.763175    20.470061    6787.9084    10709.058    11865.378    12119.491   -457.58156    626.50821   -905.52078   -2161.8024 
11083000    275.32895    -3766.424   -3294.5196    -3766.424            0    12296.569    16.794261    19.781422     20.48896    6806.7268    10755.382    12640.301    13494.023   -1573.8608    2631.3033   -1822.0228     -2073.85 
11084000    298.42554   -3726.4186   -3214.9274   -3726.4186            0    12590.668    16.773293    19.756724    20.463379    6781.2636    13101.991    11398.866    13271.148    507.14269    678.37734   -117.15148   -1969.7384 
11085000    295.11707   -3758.9827   -3253.1622   -3758.9827            0     12774.06    16.755319    19.735553     20.44145    6759.4863    14345.267        11675    12301.915    -201.7051    886.64076   -1048.2948    -1993.893 
11086000    278.72819   -3752.6929   -3274.9623   -3752.6929            0     11820.06    16.765871    19.747981    20.454323     6772.265    10907.444    12044.017    12508.718    151.09286    411.40927   -1206.9602   -2107.5359 
11087000    293.80991   -3793.1102   -3289.5301   -3793.1102            0     11740.17    16.762098    19.743537     20.44972    6767.6935    13236.097    11139.521    10844.893    423.93335    -1966.657     451.1012   -2130.7768 
11088000    305.96672   -3774.5567   -3250.1402   -3774.5567            0    11352.543      16.7978     19.78559    20.493277    6811.0304     10600.56    14341.774    9115.2955    1104.5013   -16.889206   -1413.0746   -2122.4706 
11089000    283.20808   -3782.9351   -3297.5262   -3782.9351            0    11457.292    16.779105     19.76357    20.470469    6788.3152    13144.253     11398.44    9829.1822    981.49097   -472.25236   -1762.2313   -2163.2473 
11090000    290.42455   -3736.6623   -3238.8846   -3736.6623            0    13034.677    16.731232    19.707181    20.412064    6730.3761    13723.175    12471.967    12908.889   -218.80252    2423.0424   -2857.8333   -1959.4576 
11091000    277.16881   -3779.8404   -3304.7826   -3779.8404            0    12586.677    16.805145    19.794241    20.502237    6819.9683    11696.171    12539.604    13524.257   -809.10067   -501.84379    -1019.032   -2052.8834 
11092000    291.63868   -3738.9597    -3239.101   -3738.9597            0    13066.331    16.751011    19.730478    20.436194    6754.2732     13718.02     12525.36    12955.614   -476.40707   -2083.7149     299.0214   -1952.0131 
11093000    274.59488   -3736.7195   -3266.0732   -3736.7195            0    16254.547    16.665185    19.629386    20.331486    6650.9851    16051.678    14564.993    18146.971    81.031139    748.05474    1233.0233    -1689.418 
11094000    280.39157    -3743.991   -3263.4095    -3743.991            0    14010.524    16.676895    19.643179    20.345772    6665.0151     12471.11    14591.497    14968.966   -883.72939   -475.96573    258.59304   -1901.5528 
11095000    272.16763   -3770.1388   -3303.6528   -3770.1388            0    11937.561    16.793897    19.780993    20.488515     6806.284    11199.418    13282.776     11330.49    1036.9247    386.66238    1361.7812   -2118.6986 
11096000    292.86056   -3743.4931   -3241.5401   -3743.4931            0    13068.234    16.782935    19.768081    20.475142    6792.9643    12577.195    12388.554    14238.953    528.11737   -587.59987    1331.6432   -1946.8909 
11097000    301.45652   -3765.1359   -3248.4497   -3765.1359            0    11838.555    16.838287    19.833278    20.542671    6860.3985    10911.461    12581.604    12022.601   -2068.6909    -445.5799    432.95468     -2063.98 
11098000    294.01832    -3809.115   -3305.1777    -3809.115            0    13346.009    16.812728    19.803172    20.511488    6829.2044    15014.634    12440.984    12582.409    811.29354    1398.4551    212.68504    -1975.956 
11099000    296.85354   -3761.3068     -3252.51   -3761.3068            0    10493.573    16.806623    19.795982    20.504041    6821.7682    8210.7565    11215.191    12054.771    686.78773   -206.14003   -262.02264   -2208.5202 
11100000    275.10385   -3755.5323   -3284.0138   -3755.5323            0    13903.503    16.806959    19.796378    20.504451    6822.1777    13100.189    15344.237    13266.083   -676.56673    2314.7576   -942.44057   -1900.6922 
11101000    287.47038   -3762.0651   -3269.3507   -3762.0651            0    16079.215    16.729918    19.705634    20.410461    6728.7909    15714.615    15514.473    17008.557    1526.7837    1897.0946   -12.750769   -1691.4569 
11102000    302.99188   -3738.9831   -3219.6654   -3738.9831            0    12709.239     16.83925    19.834412    20.543845    6861.5745    12470.239    11556.825    14100.653    -1561.207   -974.13286   -12.057883   -1947.8642 
11103000    296.54342   -3757.0234   -3248.7582   -3757.0234            0    12613.442    16.762494    19.744004    20.450204     6768.174    11604.816    12514.522    13720.987    1703.3449    838.14679    920.74394   -2003.7247 
11104000    290.44105   -3762.5845   -3264.7785   -3762.5845            0    13735.843    16.819926    19.811651     20.52027    6837.9798    10334.001    17904.191    12969.337    2876.9516    534.49041   -5.4608123   -1894.9726 
11105000    300.93463   -3767.1426    -3251.351   -3767.1426            0    8689.5501    16.876047    19.877755    20.588738    6906.6554     9174.942    8744.4771    8149.2311    632.63944    -1357.285    755.27408   -2376.0831 
11106000    282.40809   -3746.5261   -3262.4883   -3746.5261            0    14376.767    16.764459    19.746318      20.4526    6770.5538     15197.75    15086.884    12845.666    925.10528   -209.22261   -496.34744   -1842.9037 
11107000    291.45868   -3800.2161   -3300.6659   -3800.2161            0    11937.157     16.79712    19.784788    20.492447    6810.2025     12113.54    11874.645    11823.285   -296.00278   -144.61972   -507.56711   -2115.0697 
11108000    297.46771   -3783.5806   -3273.7311   -3783.5806            0    11009.517    16.809401    19.799254     20.50743    6825.1514    10309.547    10129.473    12589.532     104.8126   -172.04191   -441.48528   -2177.8676 
11109000    268.70104   -3722.0501   -3261.5057   -3722.0501            0    13346.528    16.825961    19.818759    20.527633    6845.3428    15574.788     11882.55    12582.247   -902.65321    1131.5615   -861.60609    -1929.091 
11110000    284.34828   -3751.6771   -3264.3138   -3751.6771            0    11311.506    16.791271      19.7779    20.485312    6803.0917    10903.516    10719.731    12311.271    158.49441   -949.10455    62.531485   -2142.0302 
11111000    290.10397   -3729.0517   -3231.8234   -3729.0517            0    12358.495    16.812072      19.8024    20.510689    6828.4059    14205.028    12607.882    10262.574   -1833.2954    356.32418   -733.81213    -2001.099 
11112000    284.34628   -3757.1993   -3269.8395   -3757.1993            0    14214.776    16.776385    19.760366    20.467151    6785.0141    14244.766    14949.951    13449.611    309.24744    1815.7073   -218.42293   -1863.2522 
11113000    280.63672   -3768.7529   -3287.7512   -3768.7529            0    12825.531     16.81203    19.802351    20.510637    6828.3543     12753.77    11988.758    13734.066    1646.7279   -488.96617   -300.92119   -2010.5265 
11114000    308.01836   -3771.6025   -3243.6695   -3771.6025            0    12922.309    16.814629    19.805412    20.513808    6831.5216    12325.778    13622.046    12819.102   -313.82439    633.08835   -2479.1927   -1956.2104 
11115000    292.07042   -3761.9307    -3261.332   -3761.9307            0    12409.239    16.840132    19.835451    20.544922    6862.6534    11234.601    11512.311    14480.804   -343.39835   -2052.3304     32.17777   -2019.3563 
11116000    282.91709   -3761.5101   -3276.5998   -3761.5101            0    14514.253    16.683841    19.651361    20.354247    6673.3474    15833.696    14146.235    13562.829    1406.0982   -147.22767    2430.9151   -1864.0157 
11117000    279.75932   -3791.5936   -3312.0957   -3791.5936            0    12635.302    16.692913    19.662047    20.365315    6684.2396    11258.459    14328.282    12319.166   -638.73196   -560.04211    913.67199   -2080.3713 
11118000    279.33852   -3786.8937    -3308.117   -3786.8937            0    11556.281    16.768656    19.751262    20.457722    6775.6409    9911.7919    12724.714    12032.339   -923.22475    59.289891    350.19155   -2166.1741 
11119000    279.49825   -3733.0022   -3253.9518   -3733.0022            0    11710.751     16.74985     19.72911    20.434777    6752.8689    13121.506    11636.516    10374.232    1737.7003    90.806838   -535.56614   -2100.6341 
11120000    265.75431   -3728.2255   -3272.7317   -3728.2255            0    13150.041    16.822354    19.814511    20.523232    6840.9414    16884.332    12175.767    10390.025    123.51365      769.888    1269.7343   -1960.7769 
11121000    271.46521   -3743.9972   -3278.7152   -3743.9972            0    12331.857    16.878127    19.880204    20.591275    6909.2091    12704.814    12679.893    11610.865    1488.3911    129.51262    401.75772   -2036.1113 
11122000      300.598   -3743.2001   -3227.9854   -3743.2001            0    11141.764     16.85515     19.85314    20.563244    6881.0301    7624.4062    13475.779    12325.107   -477.60435    57.518476   -195.77167   -2109.8786 
11123000    275.72862   -3754.8295   -3282.2401   -3754.8295            0    15968.391    16.697041    19.666909    20.370351    6689.1993    15150.482    16659.274    16095.415   -592.77009   -704.51335    -265.3704    -1724.442 
11124000    299.95574   -3763.1022   -3248.9883   -3763.1022            0     11051.83    16.843677    19.839626    20.549246    6866.9877    11982.841    10386.772    10785.877   -1197.0364   -1107.7748    2790.9113   -2142.1699 
11125000    303.61206   -3750.1191   -3229.7384   -3750.1191            0    13074.117    16.802245    19.790826      20.4987     6816.439    12725.617    14354.119    12142.615    490.93007    702.14547    1568.9528   -1930.0303 
11126000    287.13083   -3774.2833   -3282.1508   -3774.2833            0    11710.362    16.832254    19.826172    20.535311    6853.0271    12366.822    12593.717    10170.546   -56.915534    629.50567    1147.3491   -2111.7661 
11127000    290.08194   -3743.3834   -3246.1929   -3743.3834            0    14577.418     16.73153    19.707532    20.412427    6730.7354    12775.243    16993.125    13963.886    853.15467    1305.7497    735.41974   -1815.2608 
11128000    291.18064   -3751.6632   -3252.5895   -3751.6632            0    14638.067    16.739889    19.717378    20.422626    6740.8292    12795.361    16100.813    15018.026    780.24838   -108.24073    2421.2331   -1813.5493 
11129000    307.28096   -3772.3238   -3245.6547   -3772.3238            0    12367.165    16.785744     19.77139    20.478569    6796.3761    12993.728      11458.8    12648.967    628.43535    729.31301   -2215.8801   -2019.8439 
11130000    267.93524   -3753.2899    -3294.058   -3753.2899            0    15273.508    16.742539    19.720499    20.425858    6744.0303    14851.439    17148.702    13820.382   -788.41674   -493.43951   -4.4430207   -1791.8358 
11131000    277.06268   -3775.1718   -3300.2958   -3775.1718            0    13404.325    16.719048     19.69283      20.3972    6715.6837    14375.332    14388.737    11448.905   -264.47536   -279.62866   -780.37848   -1987.4581 
11132000    295.02173   -3738.8717   -3233.2146   -3738.8717            0     14194.78    16.742223    19.720127    20.425473    6743.6489        13564    15459.592    13560.746   -278.86043    1630.5544    491.23734   -1837.1693 
11133000    275.38542   -3752.7235   -3280.7224   -3752.7235            0    11822.976    16.775618    19.759463    20.466215    6784.0838     11730.09    12572.515    11166.322    940.50101    1442.6682   -548.46429   -2110.9701 
11134000    290.82034   -3802.9073   -3304.4512   -3802.9073            0     12526.14    16.800515    19.788787    20.496589    6814.3331    13225.576     12733.88    11618.966   -214.33944    440.50047    869.35746   -2059.6026 
11135000     281.4738    -3788.548   -3306.1115    -3788.548            0    12455.917    16.749455    19.728645    20.434295    6752.3913    11543.095    11676.068    14148.588   -578.27191    818.20035     126.9395   -2079.4939 
11136000    272.15026   -3766.7842   -3300.3279   -3766.7842            0    10709.075    16.852153     19.84961    20.559587      6877.36    8248.5021    12708.441    11170.282   -1151.5126   -114.70307   -574.06933   -2226.2158 
11137000    280.67592   -3750.0624   -3268.9935   -3750.0624            0    13716.195    16.736874    19.713827    20.418947    6737.1873     13842.54    15726.775    11579.268    407.65959   -516.08257     1079.815   -1921.3092 
11138000    287.63864   -3760.5962   -3267.5934   -3760.5962            0    13232.111    16.880854    19.883416    20.594602    6912.5587    13978.196    15463.081    10255.055    662.31697    469.66944    1085.4153   -1933.6302 
11139000    274.28243   -3780.0834   -3309.9727   -3780.0834            0    13246.233    16.792503     19.77935    20.486814    6804.5888    13083.992    13560.451    13094.257   -135.51677   -1782.7984   -1429.7892   -1995.4437 
11140000     290.6747    -3748.773   -3250.5665    -3748.773            0    11049.736    16.820389    19.812196    20.520835    6838.5442    7589.0868    13079.025    12481.096    883.46618   -641.84018   -139.17293   -2148.5415 
11141000     298.9858   -3794.5973   -3282.1459   -3794.5973            0    13423.247    16.707296    19.678987    20.382862    6701.5316    15369.482    11032.837    13867.422    1619.9016   -195.65189   -1469.4878   -1970.2253 
11142000    286.34935   -3774.4179    -3283.625   -3774.4179            0    10801.847    16.762047    19.743477    20.449658     6767.632    12000.423    8569.3117    11835.805   -339.33739    56.660988   -666.32194   -2217.4938 
11143000    288.75619   -3788.8766   -3293.9584   -3788.8766            0    13337.697    16.732258     19.70839    20.413316    6731.6151    13602.254    14012.455    12398.383    393.20162    623.21408    595.58335   -1984.5473 
11144000    284.59855   -3765.2406   -3277.4484   -3765.2406            0    12974.892    16.773014    19.756395    20.463037    6780.9242    12995.537    13452.665    12476.472    26.198286    1409.9543    652.62933   -1994.3248 
11145000    300.48499     -3750.95    -3235.929     -3750.95            0    12300.722    16.756277    19.736681    20.442619    6760.6461    13165.154    9770.9902    13966.023    141.71672   -1743.6281    400.84791   -2023.1136 
11146000    292.71347   -3776.5239   -3274.8231   -3776.5239            0     13131.66    16.725732    19.700703    20.405354    6723.7414    13802.341    13058.069     12534.57     142.4908    282.97861   -5.5010654   -1987.1473 
11147000     278.3725   -3788.8824   -3311.7614   -3788.8824            0    13720.076    16.721124    19.695275    20.399732    6718.1853    14326.377     12780.16    14053.691    2746.0608    814.70305     -855.869    -1967.498 
11148000    269.01224   -3775.2143   -3314.1365   -3775.2143            0    10796.745    16.823981    19.816427    20.525217    6842.9263    12168.088    11204.657    9017.4892    2166.1283   -1420.3541   -1335.4205   -2236.6531 
11149000    293.19696   -3751.9213   -3249.3917   -3751.9213            0    12859.497     16.78791     19.77394    20.481211    6799.0069    10522.712    14389.578    13666.201    408.53177   -570.48972   -409.27679   -1974.2884 
11150000    298.19224   -3780.9225   -3269.8312   -3780.9225            0    15403.567    16.676658      19.6429    20.345484    6664.7314    12965.762    15269.398    17975.542     105.7152    260.75361    79.926735   -1772.6311 
11151000    298.08092     -3750.68   -3239.7795     -3750.68            0    12556.595    16.721419    19.695622    20.400092    6718.5406     12839.23    11332.549    13498.004    -54.32576    21.391283    66.471689   -2009.4464 
11152000    279.90714   -3778.7398   -3298.9886   -3778.7398            0    12275.457    16.797071    19.784731    20.492387    6810.1435    12969.423    12146.666    11710.283    927.24503   -1154.2703    51.363789   -2079.8029 
11153000    304.04653    -3758.871   -3237.7456    -3758.871            0    13694.517      16.6779    19.644363    20.346999    6666.2204    13464.836    12502.539    15116.177      151.846   -659.26249   -1455.6547   -1906.3648 
11154000    285.35609   -3762.8032   -3273.7126   -3762.8032            0    12739.464     16.73106    19.706979    20.411855    6730.1693    12913.814    9683.5944    15620.985    2197.6533   -702.53866   -956.42739   -2023.3008 
11155000    284.18333   -3748.5584   -3261.4779   -3748.5584            0    12308.114    16.811235    19.801414    20.509667    6827.3856    12562.132    12075.148    12287.061   -352.46966   -1636.9813   -2754.5976   -2035.9539 
11156000    268.15249    -3761.593   -3301.9888    -3761.593            0    11218.968    16.755211    19.735425    20.441318    6759.3552    11341.589    11171.549    11143.766    149.72985   -453.57084   -178.86783   -2196.0424 
11157000    297.87579    -3778.195   -3267.6461    -3778.195            0    12603.839    16.759747    19.740768    20.446852    6764.8468    11281.841    12535.382    13994.295     1396.692    200.40271   -163.54092    -2024.172 
11158000    289.61204   -3784.9505   -3288.5653   -3784.9505            0    10473.547    16.854238    19.852066     20.56213    6879.9126      8820.29    9846.4065    12753.945   -415.65662     301.4293   -1062.6031   -2237.6866 
11159000    276.21826   -3778.2646    -3304.836   -3778.2646            0    12197.866    16.814931    19.805768    20.514176    6831.8897    11706.243    13290.271    11597.083   -648.80941     1240.132     325.2619   -2089.4881 
11160000    289.62812   -3728.0188   -3231.6061   -3728.0188            0    14160.082    16.764652    19.746546    20.452836    6770.7882    14057.959    11953.359    16468.929   -580.37353     2421.072    485.57245   -1833.3687 
11161000     281.7751   -3811.3144   -3328.3615   -3811.3144            0    11429.862    16.837327    19.832147      20.5415    6859.2248    11385.171      10565.6    12338.814   -668.19847   -394.81387    442.65101    -2184.978 
11162000     282.1168   -3769.1508   -3285.6122   -3769.1508            0    11399.044     16.79993    19.788099    20.495875    6813.6216    10570.326    11293.161    12333.646    681.52429     181.8936    62.186073   -2152.8928 
11163000    286.18513   -3792.2706    -3301.759   -3792.2706            0    13340.172    16.795735    19.783158    20.490758     6808.519    12624.178    14484.774    12911.563    168.63001   -863.84538    356.39176   -1977.1432 
11164000    274.17971   -3773.5738   -3303.6391   -3773.5738            0    12018.996    16.803776    19.792628    20.500567     6818.302    13564.812    10279.873    12212.303    66.355205    327.34157    1129.7381   -2108.4949 
11165000    292.13036   -3764.4179   -3263.7165   -3764.4179            0    12266.455    16.788133    19.774203    20.481483    6799.2779    11326.856    12166.816    13305.692   -149.77987    223.05114   -65.703622   -2047.3687 
11166000    303.40093   -3789.5319   -3269.5131   -3789.5319            0    13769.751    16.781514    19.766406    20.473407    6791.2385    13875.882    15850.306    11583.063    1433.6081   -171.71453    865.84968   -1905.7123 
11167000    287.56576   -3844.0561   -3351.1783   -3844.0561            0    12302.641    16.758536    19.739342    20.445375     6763.381    14211.672    11568.886    11127.367     1775.472   -551.57527    33.729753   -2137.6829 
11168000    290.60251   -3733.5469   -3235.4641   -3733.5469            0    13566.031    16.763471    19.745155    20.451396    6769.3574    14780.006    12548.019    13370.068   -1210.1095    -2230.893   -1491.5882   -1896.1695 
11169000    311.44863   -3766.8034   -3232.9911   -3766.8034            0     12890.63    16.832647    19.826635    20.535791    6853.5072    11244.564    12094.113    15333.214    -1527.235   -1725.9562   -1800.6302   -1944.5549 
11170000    303.25548   -3789.6445   -3269.8749   -3789.6445            0    14363.903    16.790244     19.77669    20.484058    6801.8431    14106.428    14483.842    14501.439    1842.1828   -12.639808   -857.31559   -1845.0059 
11171000    299.06286   -3786.9264   -3274.3429   -3786.9264            0    11978.749    16.833596    19.827752    20.536948    6854.6657    13203.742    9636.1577    13096.346    265.84722    -1540.717   -58.091404   -2076.8481 
11172000    288.38018   -3790.0356   -3295.7618   -3790.0356            0      10509.9    16.848088    19.844822    20.554628    6872.3842    8929.6131    11714.151    10885.936    634.62148   -1672.3919   -1062.2114   -2242.3895 
11173000     281.7619   -3781.4963   -3298.5661   -3781.4963            0    13881.694     16.79308     19.78003    20.487518    6805.2901    14063.158    14465.407    13116.518   -438.32068   -677.97753    1050.6453   -1920.8333 
11174000    291.99795   -3791.0068   -3290.5323   -3791.0068            0    12201.917    16.780755    19.765513    20.472482    6790.3178    11850.173    11634.671    13120.907   -1483.1003   -1047.9217     400.0539   -2082.1786 
11175000    299.94604   -3773.3364   -3259.2391   -3773.3364            0    13020.724    16.757337     19.73793    20.443912    6761.9293    14803.788    11598.037    12660.346   -90.515671    469.91384     732.2539     -1975.19 
11176000    290.97708    -3775.612   -3276.8872    -3775.612            0    13423.882    16.786187     19.77191    20.479108    6796.9132    15097.753      12905.7    12268.194   -1263.8475    445.18595   -33.724815   -1946.2314 
11177000    294.87682   -3738.5585   -3233.1497   -3738.5585            0     12767.32    16.825322    19.818007    20.526853    6844.5632    12206.017    13403.564    12692.379   -786.25308    77.312156   -1463.6367   -1958.7039 
11178000    300.54356   -3771.2638   -3256.1424   -3771.2638            0    12761.328    16.808514     19.79821    20.506348    6824.0715    9868.2193    14855.105    13560.659    1410.9924    -220.6792   -560.42225   -1986.1085 
11179000    286.07721   -3750.7554   -3260.4289   -3750.7554            0     9725.342    16.812318    19.802689    20.510988    6828.7049    8449.4383    9203.5569    11523.031   -2022.9557    384.37126    530.50726   -2291.8854 
11180000    286.02101   -3777.5201   -3287.2899   -3777.5201            0    12312.022    16.774781    19.758476    20.465193    6783.0677    11757.042    13005.896    12173.127    557.56055    1351.2381    246.50551   -2069.3344 
11181000    286.07167   -3736.8574   -3246.5403   -3736.8574            0    12822.003    16.744912    19.723295    20.428754    6746.8994    12446.782    12789.344    13229.885   -479.27268   -1521.7373   -68.101299   -1984.8987 
11182000    286.96468   -3708.8661   -3217.0184   -3708.8661            0    12229.555    16.792756    19.779648    20.487123    6804.8965    12204.324    12590.141      11894.2   -1229.8852   -723.37489   -386.74891   -2003.3276 
11183000     287.6626   -3773.6566   -3280.6128   -3773.6566            0    13387.279    16.763422    19.745097    20.451335    6769.2977    13447.505    14689.743     12024.59    1740.6115   -206.94271    740.39723   -1958.9769 
11184000    282.73429   -3787.4438   -3302.8469   -3787.4438            0    11899.964    16.811612    19.801858    20.510127     6827.845    9596.9193    12802.951    13300.022    501.76859    1354.2697    194.05771   -2117.8828 
11185000    297.24301   -3726.0902   -3216.6259   -3726.0902            0    11415.686    16.804907    19.793961    20.501948    6819.6794    9402.7675    13418.773    11425.518   -312.31447   -1225.9302    810.29873   -2081.2442 
11186000    295.02759   -3722.6858   -3217.0186   -3722.6858            0    14327.204    16.738206    19.715396    20.420572     6738.796     13182.39    14040.374    15758.847    473.55281   -1543.0988    1324.6678   -1808.9636 
11187000    286.14934   -3787.5669   -3297.1167   -3787.5669            0    11946.148    16.806662    19.796028    20.504089    6821.8162    11780.734    12744.797    11312.914   -173.59692   -190.70838    215.92781    -2108.604 
11188000    310.44485   -3765.3895   -3233.2976   -3765.3895            0     13779.71    16.754193    19.734227    20.440077    6758.1242    13445.598    13954.538    13938.995    490.28375   -3051.5709    415.58937   -1875.1651 
11189000    291.74013   -3804.9917   -3304.9591   -3804.9917            0    11360.687     16.78395    19.769276     20.47638     6794.197    12502.326    11732.668    9847.0673    491.52119   -1531.7092   -63.651563   -2179.2696 
11190000    294.13016   -3720.6995   -3216.5705   -3720.6995            0    13806.755    16.754084    19.734098    20.439943    6757.9918    13567.426     14551.55    13301.289   -693.00972    1684.2517   -377.82828   -1855.7991 
11191000    297.91547   -3750.9905   -3240.3736   -3750.9905            0    13557.605     16.74851    19.727532    20.433143    6751.2488    13017.873     14272.24    13382.703    182.95613   -2263.5655   -681.95132   -1905.4912 
11192000     286.7808   -3751.5057   -3259.9732   -3751.5057            0    12020.989    16.818061    19.809454    20.517995    6835.7052    12767.848    12075.502    11219.618    145.77771    1126.4487     1105.846   -2061.5797 
11193000    284.83104   -3748.4975   -3260.3069   -3748.4975            0    12405.383    16.830141    19.823684    20.532733    6850.4466    12477.546    13299.005    11439.599    263.72731   -1508.2929   -1126.6788   -2020.9255 
11194000    291.91891    -3718.223    -3217.884    -3718.223            0    14201.246    16.796702    19.784296    20.491937    6809.6944    12948.331    13151.016    16504.392   -199.11585   -307.78984   -60.045247    -1807.524 
11195000    294.48549    -3766.752   -3262.0139    -3766.752            0    12382.871    16.799129    19.787155    20.494899    6812.6474    11629.078    11947.382    13572.153   -1273.0891    402.29029   -711.25398   -2031.7079 
11196000    280.55781   -3747.4489   -3266.5824   -3747.4489            0    11264.199     16.82921    19.822587    20.531597    6849.3099    11454.992    11404.912    10932.692    1787.5754   -452.96683    782.22692   -2141.3998 
11197000    295.20516    -3780.927   -3274.9555    -3780.927            0     15532.33     16.80047    19.788734    20.496534    6814.2781    16615.655    15301.265    14680.071    460.26962    763.46568   -675.05761   -1731.3641 
11198000    278.49703   -3728.0289   -3250.6945   -3728.0289            0    11664.724    16.757417    19.738023    20.444009    6762.0252    11394.414     12555.99    11043.769   -372.49818   -703.21269    285.29111   -2100.3521 
11199000    291.20513   -3739.0043   -3239.8886   -3739.0043            0    13357.384    16.773888    19.757425    20.464104    6781.9849    10862.407    14607.806    14601.939    426.58821    232.03005   -308.45239   -1918.7326 
11200000    285.33263   -3761.5323    -3272.482   -3761.5323            0    9837.2618    16.748034    19.726972    20.432563    6750.6738    11228.894    7580.5941    10702.297   -109.45371    505.55866    1079.7652   -2303.9873 
11201000    285.42052   -3755.5905   -3266.3895   -3755.5905            0    12718.284    16.755621    19.735909    20.441819    6759.8522    10959.607    16774.231    10421.015   -362.46232   -2414.0491    1813.3326    -2012.551 
11202000     276.9622   -3714.3084   -3239.6047   -3714.3084            0    16118.392    16.723686    19.698293    20.402858    6721.2742    13724.242    17205.235    17425.698    2087.3589   -1135.4783    13.940431   -1659.6334 
11203000    290.06062   -3812.1686   -3315.0146   -3812.1686            0    14160.602    16.701387    19.672028    20.375653    6694.4242    13595.487    15360.337    13525.981    -911.9028   -791.44399    240.77799   -1932.4965 
11204000    289.68027   -3808.2514   -3311.7493   -3808.2514            0    12574.173    16.780322    19.765003    20.471954    6789.7917    12844.927    10594.507    14283.086   -141.51984   -735.36388     210.0727   -2066.6276 
11205000    284.98577   -3796.0642   -3307.6083   -3796.0642            0    12935.944    16.749906    19.729177    20.434847    6752.9376    11354.023    15046.376    12407.433    1394.1409    693.63037    440.08936   -2033.6162 
11206000    280.91393   -3800.3277   -3318.8509   -3800.3277            0     10216.43    16.822448    19.814622    20.523348    6841.0567    8307.3238    10013.192    12328.775    897.36004   -1028.2526    77.187587   -2299.5597 
11207000    289.97357   -3760.6434   -3263.6386   -3760.6434            0    10504.085     16.82256    19.814754    20.523484    6841.1934    10085.872    10348.227    11078.157    109.73908    114.76495   -689.24876   -2215.6273 
11208000     283.9111   -3712.3243   -3225.7104   -3712.3243            0    13450.488    16.750294    19.729634    20.435319    6753.4063    10871.255    15325.621    14154.589    1227.2643    195.49838   -587.53002   -1900.9516 
11209000    288.28197   -3781.2248   -3287.1194   -3781.2248            0    10834.796    16.758367    19.739143    20.445169     6763.176    10202.246    11332.703    10969.439   -2057.5256   -518.18829   -546.47241   -2218.4402 
11210000    298.67549   -3760.2105    -3248.291   -3760.2105            0    13200.298    16.771161    19.754212    20.460777     6778.677     13791.04    13092.456    12717.397   -1136.5241    276.03089   -350.93389   -1943.3089 
11211000    283.15182   -3776.9754   -3291.6629   -3776.9754            0    11542.335    16.779541    19.764083    20.471001    6788.8436    10212.422    12644.831    11769.753    183.36791     2713.988   -1625.7739   -2148.8756 
11212000    295.07529    -3774.604   -3268.8551    -3774.604            0    12520.815    16.718523    19.692212     20.39656    6715.0515     12071.59    12615.414    12875.442    54.580711   -266.33844    1533.3973   -2042.6649 
11213000    293.74339   -3745.3202   -3241.8541   -3745.3202            0    13900.272     16.71057    19.682844    20.386856    6705.4725    12816.377    12791.429     16093.01   -435.50971    916.59611    384.00402   -1882.5126 
11214000    290.19533   -3775.9093   -3278.5245   -3775.9093            0    11753.003    16.745624    19.724134    20.429623      6747.76    10486.217    15180.566    9592.2248   -290.73462    112.93492    779.88508   -2121.9214 
11215000    283.43452   -3828.3313   -3342.5342   -3828.3313            0    12600.666    16.747199    19.725989    20.431544    6749.6639     12244.14    12479.412    13078.446    1197.8859   -1190.0793   -1430.0149   -2102.1634 
11216000    283.97043     -3791.51   -3304.7944     -3791.51            0    14570.841    16.676464    19.642672    20.345248    6664.4993     15280.27     13010.66    15421.594   -53.164765    891.85192    1328.2557   -1888.5832 
11217000    282.81912   -3764.7613    -3280.019   -3764.7613            0    13494.003    16.687795    19.656019    20.359072    6678.0935    12201.939    12727.832    15552.237   -482.96748   -120.56772   -633.42319   -1965.7956 
11218000    291.74944   -3736.6809   -3236.6323   -3736.6809            0    12019.881    16.815646     19.80661    20.515049    6832.7619    12261.495    13094.714    10703.434     167.4175   -897.62685    150.16674   -2038.8653 
11219000    285.75648   -3729.7312   -3239.9544   -3729.7312            0    14449.449     16.74338    19.721491    20.426885    6745.0477    15103.954    14748.687    13495.705    1247.8796    56.671445   -1044.0933   -1818.5679 
11220000    278.41047   -3778.9999   -3301.8139   -3778.9999            0    14302.819    16.787174    19.773073    20.480313    6798.1127    12589.697    16032.911     14285.85    1128.6417   -221.41269    1040.6444   -1883.7823 
11221000    296.89162   -3771.9552   -3263.0932   -3771.9552            0    13433.916    16.721807     19.69608    20.400566    6719.0091    12281.377    14728.659    13291.712    1635.3921    434.01709   -1042.0081   -1946.7057 
11222000    277.62541    -3754.559   -3278.7186    -3754.559            0    13288.189    16.728321    19.703753    20.408513    6726.8641    14545.207     12262.56      13056.8   -225.45973    1187.6884    487.48312   -1975.0886 
11223000    288.62861   -3794.2455   -3299.5459   -3794.2455            0    10857.276    16.818157    19.809568    20.518113    6835.8231    11201.233    9411.7518    11958.843    482.00836    834.67425    180.91557   -2217.1464 
11224000    279.76011   -3751.7432    -3272.244   -3751.7432            0     11745.64    16.778888    19.763313    20.470204     6788.051    11648.705    11853.897     11734.32   -96.553137   -848.03657    617.19737   -2109.4636 
11225000    277.44942   -3758.7493   -3283.2105   -3758.7493            0    9651.6572    16.793166    19.780132    20.487624    6805.3954    8750.2227    11211.068    8993.6813   -1225.6259    603.22361   -2481.0522   -2325.2863 
11226000    280.14677   -3717.8855   -3237.7235   -3717.8855            0    12281.942    16.748279     19.72726    20.432861    6750.9696    11975.262    12514.192    12356.371    568.33307   -2088.2751     303.9403    -2028.493 
11227000    301.09059    -3710.554    -3194.495    -3710.554            0    11838.942    16.815014    19.805865    20.514278    6831.9911    10278.605     13703.09     11535.13    -611.4845   -242.49787    479.55938   -2014.8915 
11228000    296.10063   -3741.0403    -3233.534   -3741.0403            0     12838.47    16.804596    19.793594    20.501568    6819.3004    11863.447    15115.706    11536.256    694.30318   -2.2408862   -272.71085   -1956.7161 
11229000    297.74046   -3788.3819   -3278.0649   -3788.3819            0    10967.218     16.81282    19.803281    20.511601    6829.3174    12453.674    11493.055     8954.924     28.70243   -1201.0625   -1737.2099   -2185.7455 
11230000    294.43861   -3759.1753   -3254.5176   -3759.1753            0     11923.15    16.816618    19.807754    20.516234     6833.946    14676.493    10418.402    10674.555    891.36706    -174.5795    865.39133   -2066.1838 
11231000    302.12842   -3743.2379   -3225.4001   -3743.2379            0    15346.091    16.708812    19.680774    20.384712    6703.3569    16342.813     16617.27    13078.189   -1855.0075   -1695.9494    1274.1589   -1725.1419 
11232000    297.56517   -3786.8849   -3276.8684   -3786.8849            0    10785.001    16.766886    19.749177    20.455562    6773.4953    13239.302     10587.92    8527.7817    1080.4188    745.14218   -190.81973   -2211.4776 
11233000    284.31014   -3777.5373   -3290.2395   -3777.5373            0    10999.782    16.766683    19.748938    20.455315    6773.2496    12028.369    11181.744    9789.2319   -1278.5797    653.57411    190.87148   -2203.6712 
11234000    301.85124   -3753.1306   -3235.7679   -3753.1306            0    13833.827    16.747314    19.726124    20.431684    6749.8026    15312.002    12671.716    13517.762     112.4875   -1599.0741    1454.3117   -1873.9805 
11235000    290.76612   -3797.8448   -3299.4817   -3797.8448            0    13221.541    16.789446     19.77575    20.483085    6800.8732    11718.848    13138.376      14807.4    -575.0145    120.08911    1192.7859   -1988.1195 
11236000    284.36672   -3763.0031   -3275.6083   -3763.0031            0    13172.141    16.777439    19.761607    20.468436    6786.2929    14995.086    13378.714    11142.623   -646.98847   -265.67362   -729.81454   -1971.9467 
11237000    293.22538   -3750.8358   -3248.2575   -3750.8358            0    14252.489    16.736709    19.713633    20.418746    6736.9887    14253.957    13852.642    14650.867    27.649279    454.54938   -396.84007   -1847.9209 
11238000    301.93323   -3776.3999   -3258.8966   -3776.3999            0    13360.464     16.74951    19.728711    20.434363    6752.4587    13082.776    15730.026     11268.59   -2109.5833     1729.263   -281.39493   -1943.1891 
11239000    278.01689   -3764.6143   -3288.1029   -3764.6143            0    12567.095    16.775994    19.759906    20.466674    6784.5401    14133.431    11693.255      11874.6   -1766.4968   -480.20332   -355.01632   -2044.6447 
11240000     287.8166   -3762.4804   -3269.1726   -3762.4804            0    13163.319    16.795918    19.783373    20.490981    6808.7413    13861.132    10918.901    14709.925   -2257.0331    1248.1984    1119.2223   -1962.0746 
11241000    286.61572   -3787.3499   -3296.1004   -3787.3499            0    11728.587    16.752945    19.732756    20.438553    6756.6129    11226.976    13050.754    10908.032   -1110.3844    -1099.687   -151.16374   -2140.3857 
11242000    282.51318   -3738.8508   -3254.6329   -3738.8508            0    10315.596    16.781989    19.766967    20.473988     6791.816    9994.2154    11075.964    9876.6087    954.57325   -7.6144552    997.95736   -2232.8559 
11243000    302.79837   -3752.9037   -3233.9177   -3752.9037            0    12410.218    16.779402    19.763919    20.470831     6788.675     12241.58    14235.095    10753.979    117.61709    1258.0002    161.85308   -2005.2334 
11244000    279.53999   -3725.9543   -3246.8323   -3725.9543            0    11569.852    16.795649    19.783056    20.490653    6808.4146    11796.346    12079.048    10834.162   -1329.5512    346.20243    522.06718   -2098.0184 
11245000    290.77048   -3709.5908   -3211.2201   -3709.5908            0    14280.078    16.806134    19.795405    20.503444    6821.1723     15378.98    14461.516    12999.738    1059.2394    1066.7499   -1620.8947   -1790.6408 
11246000    298.83795   -3771.1788   -3258.9808   -3771.1788            0    12737.526    16.793742     19.78081    20.488326    6806.0954    15056.037    10606.526    12550.014    1181.5081   -218.06169   -709.21045   -1994.6549 
11247000    295.51046     -3751.67   -3245.1752     -3751.67            0    14429.217    16.700135    19.670554    20.374126     6692.919    14952.316    16079.351    12255.986   -1271.1012    187.39387   -63.973338   -1836.7485 
11248000    292.80994   -3703.9485   -3202.0823   -3703.9485            0    13278.139    16.787791      19.7738    20.481066    6798.8622    12873.601      12726.9    14233.914    290.55889   -518.99265   -1181.6626    -1885.496 
11249000    279.19301     -3743.63   -3265.1028     -3743.63            0    11564.472    16.826307    19.819167    20.528055    6845.7651    13005.075    11571.654    10116.687   -520.83683   -706.51391    464.20385   -2110.5237 
11250000    300.17207   -3745.0133   -3230.5287   -3745.0133            0    11694.048     16.81081    19.800914    20.509149    6826.8682    12651.959    9465.2814    12964.905    1458.5434   -799.75675   -353.84852   -2066.2357 
Loop time of 380.86 on 64 procs for 250000 steps with 864 atoms

Performance: 113.428 ns/day, 0.212 hours/ns, 656.409 timesteps/s
190.8% CPU use with 32 MPI tasks x 2 OpenMP threads

MPI task timing breakdown:
Section |  min time  |  avg time  |  max time  |%varavg| %total
---------------------------------------------------------------
Pair    | 26.922     | 35.003     | 41.32      |  53.4 |  9.19
Bond    | 0.92592    | 1.1627     | 1.6775     |  14.8 |  0.31
Kspace  | 163.2      | 172.75     | 181.45     |  29.9 | 45.36
Neigh   | 4.8203     | 5.2197     | 5.4452     |   7.7 |  1.37
Comm    | 76.636     | 80.963     | 86.269     |  24.0 | 21.26
Output  | 0.47873    | 0.47904    | 0.48057    |   0.0 |  0.13
Modify  | 69.556     | 72.512     | 75.019     |  19.4 | 19.04
Other   |            | 12.77      |            |       |  3.35

Nlocal:        27.0000 ave          33 max          21 min
Histogram: 2 1 3 4 2 13 1 3 2 1
Nghost:        2692.72 ave        2710 max        2659 min
Histogram: 1 0 1 2 4 5 4 4 4 7
Neighs:        9024.97 ave       11396 max        6794 min
Histogram: 3 3 1 5 3 6 3 5 1 2

Total # of neighbors = 288799
Ave neighs/atom = 334.25810
Ave special neighs/atom = 2.0000000
Neighbor list builds = 16667
Dangerous builds = 0

unfix		3
unfix		2
unfix		1

write_data	data.final.${pid}
write_data	data.final.1
System init for write_data ...
PPPM initialization ...
  extracting TIP4P info from pair style
  using 12-bit tables for long-range coulomb (../kspace.cpp:340)
  G vector (1/distance) = 0.37506156
  grid = 24 24 24
  stencil order = 5
  estimated absolute RMS force accuracy = 0.0030709215
  estimated relative force accuracy = 9.2479888e-06
  using double precision FFTW3
  3d grid and FFT values/proc = 3549 432
Last active /omp style is kspace_style pppm/tip4p/omp
WARNING: Not all mixed pair coeffs generated from mixing. Use write_data with 'pair ij' option to store all pair coeffs. (../write_data.cpp:312)

write_restart   restart.lmp.${pid}
write_restart   restart.lmp.1
System init for write_restart ...
PPPM initialization ...
  extracting TIP4P info from pair style
  using 12-bit tables for long-range coulomb (../kspace.cpp:340)
  G vector (1/distance) = 0.37506156
  grid = 24 24 24
  stencil order = 5
  estimated absolute RMS force accuracy = 0.0030709215
  estimated relative force accuracy = 9.2479888e-06
  using double precision FFTW3
  3d grid and FFT values/proc = 3549 432
Last active /omp style is kspace_style pppm/tip4p/omp
Total wall time: 0:06:20
