LAMMPS (30 Jul 2021)
Processor partition = 1
  using 4 OpenMP thread(s) per MPI task
using multi-threaded neighbor list subroutines
variable        pid world 0 1
variable        phase world IceII IceIh

shell cd ${phase}
shell cd IceIh
include Restart.lmp
echo both
log log.lammps
#include		in.partitions
include		in.temp
variable        temperature equal 115.10
variable	tempDamp equal 100.0
include		in.pressure
variable        pressure equal 2055.4
variable        pressureDamp equal 1000.0 # This is 1 ps
include		in.seed
variable        seed equal 745823

units		real
atom_style	full
#include		in.box
read_restart	restart.lmp.${pid}
read_restart	restart.lmp.1
Reading restart file ...
  restart file = 30 Jul 2021, LAMMPS = 30 Jul 2021
  restoring atom style full from restart
  orthogonal box = (0.14361563 0.20771919 0.068063521) to (18.063957 23.421459 22.145132)
  2 by 4 by 2 MPI processor grid
  restoring pair style lj/cut/tip4p/long/omp from restart
  restoring bond style harmonic/omp from restart
  restoring angle style harmonic/omp from restart
  864 atoms
  576 bonds
  288 angles
Finding 1-2 1-3 1-4 neighbors ...
  special bond factors lj:    0        0        0       
  special bond factors coul:  0        0        0       
     2 = max # of 1-2 neighbors
     1 = max # of 1-3 neighbors
     1 = max # of 1-4 neighbors
     2 = max # of special neighbors
  special bonds CPU = 0.001 seconds
  read_restart CPU = 0.005 seconds
include 	in.setup
variable	out_freq equal 1000
variable	out_freq2 equal 10000
variable	out_freq3 equal 1000

timestep	2.0

neigh_modify    delay 7 every 1

include		in.tip4p
# This is TIP4P/Ice

# create groups ###
group ox type 2
288 atoms in group ox
group hy type 1
576 atoms in group hy

# set charges - beside manually ###
set group ox charge -1.1794
Setting atom values ...
  288 settings made for charge
set group hy charge 0.5897
Setting atom values ...
  576 settings made for charge

# ### TIP3P Potential Parameters ###
pair_style lj/cut/tip4p/long/omp 2 1 1 1 0.1577 8.5
pair_coeff 1 1*2 0.000 0.000
pair_coeff 2 2 0.21084 3.1668
bond_style  harmonic
bond_coeff  1 450 0.9572
angle_style harmonic
angle_coeff 1 55 104.52
kspace_style pppm/tip4p/omp 1.0e-5
pair_modify tail yes

thermo          ${out_freq}
thermo          1000
thermo_style    custom step temp pe etotal epair emol press lx ly lz vol pxx pyy pzz pxy pxz pyz enthalpy

restart 	${out_freq3} restart.lmp.${pid} restart2.lmp.${pid}
restart 	1000 restart.lmp.${pid} restart2.lmp.${pid}
restart 	1000 restart.lmp.1 restart2.lmp.${pid}
restart 	1000 restart.lmp.1 restart2.lmp.1


include         in.dump
dump            myDump all atom ${out_freq2} dump.water.${pid}
dump            myDump all atom 10000 dump.water.${pid}
dump            myDump all atom 10000 dump.water.1
dump            myDump2 all dcd ${out_freq2} dump.dcd
dump            myDump2 all dcd 10000 dump.dcd
dump_modify     myDump append yes
dump_modify     myDump2 append yes


variable natoms 	equal  "count(all)"                        # NUMBER ATOMS
variable H      	equal  "enthalpy/v_natoms"                 # ENTHALPY-per-atom
variable Vol      	equal  "vol/v_natoms"                 # volume-per-atom
fix AVG all 		ave/time ${out_freq} 1 ${out_freq} v_Vol v_H file vol_enthalpy.dat
fix AVG all 		ave/time 1000 1 ${out_freq} v_Vol v_H file vol_enthalpy.dat
fix AVG all 		ave/time 1000 1 1000 v_Vol v_H file vol_enthalpy.dat


timer           timeout 23:50:00 every 1000
New timer settings: style=normal  mode=nosync  timeout=23:50:00

fix 		1 all shake 1e-6 200 0 b 1 a 1
Finding SHAKE clusters ...
       0 = # of size 2 clusters
       0 = # of size 3 clusters
       0 = # of size 4 clusters
     288 = # of frozen angles
  find clusters CPU = 0.000 seconds
fix             2 all nph aniso ${pressure} ${pressure} ${pressureDamp}
fix             2 all nph aniso 2055.4 ${pressure} ${pressureDamp}
fix             2 all nph aniso 2055.4 2055.4 ${pressureDamp}
fix             2 all nph aniso 2055.4 2055.4 1000
fix             3 all temp/csvr ${temperature} ${temperature} ${tempDamp} ${seed}
fix             3 all temp/csvr 115.1 ${temperature} ${tempDamp} ${seed}
fix             3 all temp/csvr 115.1 115.1 ${tempDamp} ${seed}
fix             3 all temp/csvr 115.1 115.1 100 ${seed}
fix             3 all temp/csvr 115.1 115.1 100 745823


run             250000
PPPM initialization ...
  extracting TIP4P info from pair style
  using 12-bit tables for long-range coulomb (../kspace.cpp:340)
  G vector (1/distance) = 0.3718867
  grid = 24 27 25
  stencil order = 5
  estimated absolute RMS force accuracy = 0.0031428968
  estimated relative force accuracy = 9.4647403e-06
  using double precision FFTW3
  3d grid and FFT values/proc = 6300 1296
Last active /omp style is kspace_style pppm/tip4p/omp
Neighbor list info ...
  update every 1 steps, delay 7 steps, check yes
  max neighbors/atom: 2000, page size: 100000
  master list distance cutoff = 10.8154
  ghost atom cutoff = 10.8154
  binsize = 5.4077, bins = 4 5 5
  1 neighbor lists, perpetual/occasional/extra = 1 0 0
  (1) pair lj/cut/tip4p/long/omp, perpetual
      attributes: half, newton on, omp
      pair build: half/bin/newton/omp
      stencil: half/bin/3d
      bin: standard
Setting up Verlet run ...
  Unit style    : real
  Current step  : 25250000
  Time step     : 2
  Walltime left : 23:49:59.94
Per MPI rank memory allocation (min/avg/max) = 12.26 | 12.29 | 12.31 Mbytes
Step Temp PotEng TotEng E_pair E_mol Press Lx Ly Lz Volume Pxx Pyy Pzz Pxy Pxz Pyz Enthalpy 
25250000     117.1373   -4520.7929   -4320.0236   -4520.7929            0    1827.8229    17.920341    23.213739    22.077069    9184.0193    1988.9358    1555.9302    1938.6027   -335.91655   -53.800987   -339.69285   -4075.2059 
25251000    121.84874   -4543.4627   -4334.6182   -4543.4627            0    1854.5314    17.905396    23.334757    22.012984    9197.4227    1623.2791    2458.1889    1482.1261   -15.143482    308.08882    655.90493   -4085.8606 
25252000     117.0589   -4535.9124   -4335.2774   -4535.9124            0    1384.7441    17.892322    23.388898    21.995583    9204.7488    908.94559     2345.977     899.3098    246.21494    386.88585    -277.4972   -4149.3869 
25253000    114.10005    -4533.631   -4338.0675    -4533.631            0    2323.5805    17.908503    23.221242    22.079224    9181.8148    1825.9695    2285.1871     2859.585   -195.50344   -323.70276     -173.493   -4026.9229 
25254000    107.55657   -4540.5822   -4356.2339   -4540.5822            0    1229.9286    18.136618    23.171189    21.995584    9243.5784    869.94459    1755.9936    1063.8477    20.814891   -297.68091   -168.95508   -4190.4295 
25255000    113.15301   -4524.5625   -4330.6221   -4524.5625            0    1413.8973    17.974522    23.456042    21.920201    9241.8013    1089.5296    815.62317    2336.5391     447.8702   -268.20809     40.20547   -4140.0539 
25256000    115.62755   -4525.3844   -4327.2028   -4525.3844            0    2195.3134    17.886427    23.375846     21.93832    9172.6391    2063.7681    1867.2609    2654.9113   -825.49949    162.38953    15.422574   -4033.5279 
25257000    114.27133   -4528.4874   -4332.6302   -4528.4874            0    2579.8972    17.874825    23.432673    21.893952    9170.3895    2801.7944     1691.648    3246.2492    441.64098     411.0272    278.57072   -3987.5929 
25258000    111.28298   -4517.1233   -4326.3881   -4517.1233            0    2310.8015     18.00938    23.169972    22.045964      9199.27    2509.7929    3257.9977    1164.6138   -625.49327    168.44354   -279.64967   -4016.3666 
25259000    115.02927   -4519.5945   -4322.4383   -4519.5945            0    2055.4137    17.988437    23.279441    21.987022     9207.302    2486.4289    2609.0975    1070.7147    1196.2977    534.88941   -309.94328   -4046.4393 
25260000    115.80861   -4527.0308   -4328.5388   -4527.0308            0    2998.0323    17.752317    23.578006    21.861371    9150.3882    4032.0532    2773.1908    2188.8528    34.610003    301.06416   -395.38049   -3928.4543 
25261000    113.29444   -4531.9958    -4337.813   -4531.9958            0    1452.2912    17.986735    23.302396     22.00421    9222.7134    995.52499    2831.6875     529.6612   -983.80855    840.89877    173.02252   -4142.4742 
25262000    118.62862    -4519.137   -4315.8116    -4519.137            0    1544.2071    18.131637    23.133807    21.972902    9216.6166   -857.58543    1811.9455    3678.2611   -97.685833   -259.58634   -32.071086   -4108.2472 
25263000    118.55772   -4528.0731   -4324.8693   -4528.0731            0    1619.0023    18.019809    23.366011    21.869616     9208.225    690.20872     2311.354    1855.4441    52.779803   -27.952467   -427.81296   -4107.4494 
25264000    109.14318   -4533.1203   -4346.0527   -4533.1203            0    1452.2943    18.075099    23.452063    21.774256    9230.0715    457.99464    1257.9442     2640.944   -24.548158   -3.1942491   -690.64871   -4150.5577 
25265000     117.1192   -4532.3047   -4331.5664   -4532.3047            0    2349.4158    18.124407    23.312464    21.752105    9190.7993    1979.0378    2188.3645    2880.8451   -558.99706   -210.81379    391.05126   -4016.6545 
25266000     112.6342   -4527.5115   -4334.4603   -4527.5115            0     1601.885    18.024817    23.381801    21.888038    9224.7723    1182.3626    2313.1453     1310.147   -123.10626    238.64607    233.77907   -4118.9526 
25267000    115.41865   -4528.9799   -4331.1562   -4528.9799            0    2617.9584    17.945417    23.370565    21.881099    9176.8134    2639.0913    2686.7368    2528.0473   -2.3426634   -13.804376    666.58832   -3980.7833 
25268000    108.16201   -4536.0112   -4350.6252   -4536.0112            0    1637.1293    17.868376     23.50542    21.907998    9201.4402     2208.702    992.59603      1710.09    517.04878    193.92194   -652.70351    -4130.933 
25269000    112.61245   -4526.4909   -4333.4771   -4526.4909            0    2090.2442    18.012379    23.458019    21.751019    9190.5605    910.49855    2305.1558    3055.0783    741.58997     276.0949    211.63926   -4053.3114 
25270000    111.00199   -4534.4318   -4344.1782   -4534.4318            0    2274.7141     18.02284    23.346349    21.806952    9175.6567    2038.9664    2673.3241    2111.8519   -107.70388   -84.132984    192.06559   -4039.7815 
25271000    113.25684   -4538.8765   -4344.7582   -4538.8765            0    2739.7885    18.093755    23.395205    21.648401    9163.9222    3002.8961     2770.898    2445.5715    442.22185    -301.8773    270.96497   -3978.5953 
25272000    118.42184   -4528.3498   -4325.3788   -4528.3498            0    1819.5816    17.940275    23.412622    21.961682    9224.5409    1129.4528    1594.6359    2734.6561   -586.03244   -537.24616    231.23978   -4080.5897 
25273000    110.67333   -4537.3296   -4347.6393   -4537.3296            0    2345.8182    17.995223    23.397257    21.846928    9198.4055    1833.1461    2059.8598    3144.4488   -1015.2471    257.89978   -223.83205   -4032.9494 
25274000    121.44981   -4519.5592   -4311.3983   -4519.5592            0      2099.53    17.947654    23.338285    21.944197    9191.7099    2942.3072    1436.1373    1920.1454    321.56284    225.60362     622.9398   -4029.9529 
25275000     116.7407   -4531.7209   -4331.6314   -4531.7209            0    2537.1561    17.876753    23.246809     22.09394    9181.7432    3037.3567    2950.6048    1623.5067    539.58022   -195.95195   -640.86766   -3991.8902 
25276000    117.10777   -4521.9677    -4321.249   -4521.9677            0    2687.6394    17.879048    23.168243    22.083273    9147.4682    2568.4179    3202.5268    2291.9734   -420.02147   -390.80732    -442.8613   -3962.7006 
25277000     119.9258    -4530.861   -4325.3123    -4530.861            0    1621.6484    18.227072    23.221454    21.713396    9190.3928    1519.0328    1259.1877    2086.7248    469.63054   -374.41191   -43.022889   -4107.9588 
25278000    117.33614   -4542.5909   -4341.4807   -4542.5909            0    1929.3424    17.989604    23.331017    21.904172    9193.5263    1959.9884    2595.4075    1232.6314     292.7352   -246.74667    227.71369   -4082.7981 
25279000    114.01177   -4545.4981   -4350.0858   -4545.4981            0    2115.0845    17.922993     23.31726    21.891049    9148.5997    1790.1891    2522.2296    2032.8349   -19.929172     233.5961     266.1618    -4067.885 
25280000    119.37713   -4531.4632   -4326.8549   -4531.4632            0    2105.4159    18.124333    23.223915    21.848697    9196.5093    1269.5594    2043.1471    3003.5413   -33.208805    -307.4773   -163.31594    -4044.473 
25281000     120.2406   -4527.3027   -4321.2144   -4527.3027            0    1354.8047    18.081711    23.357196    21.835999    9222.1734    1574.8136    870.33207    1619.2685   -968.52187    107.37747   -174.61192   -4138.9987 
25282000    120.81808   -4534.9854   -4327.9074   -4534.9854            0     2207.235    17.903039    23.365144    21.901261    9161.4526    2265.7761    2576.4284    1779.5006   -463.15365    168.33713   -827.03056   -4032.9979 
25283000    122.29315   -4538.4037   -4328.7974   -4538.4037            0     2028.409     17.90647    23.412057    21.938252    9197.1138    2620.7396    1892.6401    1571.8472   -1485.9778    389.11619    488.29536    -4056.726 
25284000     108.7001   -4532.1805   -4345.8723   -4532.1805            0    1720.8672    18.038182    23.245091    21.923505    9192.5079    2947.8085    1660.9421     553.8511   -183.44415    179.30295   -499.12837   -4115.1672 
25285000    113.59478   -4545.5535   -4350.8559   -4545.5535            0    2982.6166    17.945005    23.395118    21.753275      9132.58    3329.0408    2476.5035    3142.3054    3.8715239   -434.00831    629.39195   -3953.6033 
25286000    113.45031   -4541.4453   -4346.9954   -4541.4453            0     1405.717    17.957734    23.368929    22.002275    9233.3207    973.00659    1060.3866    2183.7577    54.968671   -493.60128    724.61555   -4157.7036 
25287000    120.49431   -4535.1203   -4328.5972   -4535.1203            0    2441.5111    17.914939    23.190723    22.070543     9169.436    3389.0913     2992.119      943.323    60.577951    103.48694    105.99926   -4002.1017 
25288000    113.18272   -4526.4752   -4332.4839   -4526.4752            0    1870.8048    17.936343    23.148209    22.104059    9177.4771    2061.3299    1964.7318    1586.3527   -742.79618    300.57612    442.70265   -4082.0877 
25289000    115.76407   -4534.2035   -4335.7879   -4534.2035            0    1431.4521    17.951495    23.358162    22.004053    9226.6058    895.02054    1749.3144    1650.0214   -51.829968    3.1069143   -134.16436   -4143.1709 
25290000    113.96058   -4534.9485   -4339.6239   -4534.9485            0     1432.057    18.018463    23.309227    21.953737    9220.4914     1154.183    1905.4419    1236.5462   -392.80785   -159.27593   -82.795758   -4147.0532 
25291000     111.2147   -4531.2655   -4340.6474   -4531.2655            0    798.03317    17.989308    23.409324    21.943289    9240.7038    281.74505    962.02462    1150.3299    273.01616    64.926628    473.16059   -4233.0995 
25292000    113.07017   -4532.7691   -4338.9707   -4532.7691            0    2422.8359    18.003897    23.211103    21.947682    9171.7234    1309.4771    3602.7607      2356.27    24.593077    236.35891    154.91809   -4014.8918 
25293000    114.33796   -4525.3553    -4329.384   -4525.3553            0    848.50732    18.055073    23.353121    21.895699    9232.1533    1288.9937    643.72986    612.79836   -1336.6703   -33.329194   -426.82615   -4215.1397 
25294000    119.55488   -4537.3102   -4332.3972   -4537.3102            0    1857.6334    17.922986    23.405667    21.957806    9211.2873    1131.9799    815.07228    3625.8481    1011.6722   -532.12019   -353.22975    -4082.848 
25295000    106.59856   -4540.0514   -4357.3451   -4540.0514            0    2238.5782    17.882143    23.403371    21.954639    9188.0701    2752.8176    1716.0106    2246.9064    536.98013   -19.881332    227.62471   -4057.3788 
25296000    113.98559   -4520.2924    -4324.925   -4520.2924            0    3114.4057    17.953841    23.302936    21.861484    9146.3466     4164.932    2595.1158    2583.1693    386.85797    26.753576    151.52783   -3909.4942 
25297000    116.47842   -4543.0056   -4343.3656   -4543.0056            0    2079.0333    18.035463    23.321632    21.852242    9191.4121    1633.3469    1957.3981    2646.3548    -3.976384   -180.86506   -44.064517   -4064.6768 
25298000     111.2271   -4516.7376   -4326.0981   -4516.7376            0    3958.6554    17.788242     23.53348    21.745273    9102.9896    4721.5312     3619.248    3535.1871    482.60146     125.2082    582.82488   -3800.5559 
25299000    118.07115   -4527.4752   -4325.1053   -4527.4752            0    2309.1844    17.891745    23.404722     21.91187    9175.6246    2952.7186    1394.9115    2579.9233    11.380638   -515.64112   -180.05625    -4016.097 
25300000     114.1277   -4535.5715   -4339.9605   -4535.5715            0    2381.5759    17.996812    23.305095    21.853021    9165.5375    2095.0551    2378.0311    2671.6414   -372.29811   -204.83679   -227.72482   -4021.6154 
25301000    115.51285   -4524.2808   -4326.2957   -4524.2808            0    1433.3516    18.096507    23.165435    21.969526    9209.9208    648.09512    2767.5579    884.40163    196.47002    93.974191   -346.38363   -4133.7719 
25302000    120.01956   -4542.2365   -4336.5271   -4542.2365            0    2343.0857    17.881356     23.42299    21.871632    9160.6008    3027.2379    2251.9812    1750.0379    251.18034    423.38523    295.31757   -4023.4956 
25303000    114.54538   -4538.4888   -4342.1619   -4538.4888            0    1891.3791    17.835987    23.549927    21.889874     9194.539    2434.3982     852.8734    2386.8657    199.92933    -833.3766   -590.05066   -4088.5414 
25304000      113.749   -4519.5124   -4324.5505   -4519.5124            0    2674.6184    18.016018    23.212048    21.903077    9159.6188     1847.012    4198.5934    1978.2498    111.35859    -82.97151   -157.15018   -3967.2653 
25305000    116.08928   -4537.1435   -4338.1704   -4537.1435            0    1646.8818    18.121039    23.203721    21.895265     9206.423    1438.1225    2133.3041    1369.2187    506.83741    473.28586   -298.26661   -4117.0498 
25306000    123.39776   -4530.1496   -4318.6501   -4530.1496            0    2599.3585    17.849975    23.501744    21.822929      9154.84    2787.0552      2747.64    2263.3804   -542.77315   -50.291414    133.15732   -3971.5995 
25307000    115.66024   -4531.4346   -4333.1969   -4531.4346            0    2786.0729    17.915938    23.342674    21.939196    9175.1015    3129.7826    2832.1648    2396.2713    128.58203   -211.20362    360.89387   -3960.3941 
25308000    116.87581   -4537.3054   -4336.9843   -4537.3054            0    1874.0463    18.123689     23.27253    21.823541    9204.8229    1378.5528    2290.0597    1953.5264    -429.7578   -456.98838    372.93906   -4085.4069 
25309000    110.36283   -4521.9504   -4332.7922   -4521.9504            0     2494.169    17.998408    23.268029     21.91246     9176.664    2205.6192    2591.7738     2685.114   -57.690859    370.33989   -168.76821    -3998.992 
25310000    114.48149   -4546.7137   -4350.4963   -4546.7137            0    2277.3285    17.966066    23.336217    21.837769    9155.7037    2761.3324    1614.0755    2456.5776    26.807349    -480.2144   -563.19725   -4046.4125 
25311000    111.94153    -4525.996    -4334.132    -4525.996            0    2178.9845    17.901139    23.341881    21.932042    9164.2212    1657.4715    2527.9976    2351.4843    396.56702   -848.03251   -40.125788   -4042.9091 
25312000    121.74292   -4540.0994   -4331.4362   -4540.0994            0     1325.409    17.957578    23.496882    21.889039    9236.0164    1222.3491    950.22736    1803.6505    279.81411    93.438147    439.92134   -4152.9065 
25313000    120.84136   -4525.3819   -4318.2639   -4525.3819            0    1937.9131    18.016747    23.383977    21.826589    9195.6115    2342.2186    1547.0582    1924.4625   -1289.7106   -44.584141    346.78059   -4058.3732 
25314000     111.6446    -4529.625     -4338.27    -4529.625            0    1384.1835    17.881161    23.512769    21.895842    9205.7916    1698.9605    747.21572    1706.3741   -431.73894    269.60313    10.747968   -4152.4336 
25315000    106.78889   -4532.4731   -4349.4406   -4532.4731            0     1458.355    18.030199    23.474703     21.74327    9202.9165    1067.9371     1153.882    2153.2459    760.03703    549.15124   -89.791739   -4153.7073 
25316000    116.94098   -4526.0138    -4325.581   -4526.0138            0     1958.736    18.002181    23.298055    21.927032    9196.5436    2123.7123    2283.1668    1469.3288   -678.99771     403.1303    10.614743   -4062.8711 
25317000    110.01347   -4539.2553    -4350.696   -4539.2553            0    1705.9899    17.850062     23.52871    21.877497    9188.3064    2114.2735    235.22312     2768.473   -470.37443    8.0412065    -523.8519   -4122.0899 
25318000    116.60248    -4538.461   -4338.6083    -4538.461            0    2142.1885    17.954812    23.346452    21.930873     9193.009    2024.3233    2234.1237    2168.1186   -143.66837    270.37315    310.88855   -4051.4038 
25319000    107.72584   -4537.6233   -4352.9849   -4537.6233            0    2489.9068    18.027366     23.14152    21.916831    9143.2779    1764.1247    2781.8512    2923.7445     698.7584    212.08262   -574.84964   -4020.9674 
25320000    116.23924   -4533.4394   -4334.2093   -4533.4394            0    2863.6153    18.017644    23.088382    21.999746     9151.856    3175.4171    3326.4376     2088.991    47.627451    88.316496    504.92811   -3952.0013 
25321000    115.74362   -4535.7346    -4337.354   -4535.7346            0     2496.409    17.897982    23.274624    21.940163    9139.5873    2612.7546    2535.3041    2341.1682    679.14702   -736.21605    118.16153   -4004.6039 
25322000    122.66988   -4522.9079   -4312.6559   -4522.9079            0    2040.9318    17.927119     23.29923    21.990919    9185.3441    3769.5257    1839.9261    513.34359   -348.05738   -81.690124    447.95541   -4039.2551 
25323000    114.67135   -4545.7734   -4349.2306   -4545.7734            0    2661.1124    17.942067    23.339182    21.903665    9172.2288    2153.5064    3903.4711    1926.3597   -522.07231   -658.84826     270.5167   -3993.2601 
25324000    112.25095   -4529.8723   -4337.4781   -4529.8723            0    1915.9963    17.938647    23.439104     21.80565    9168.5303    1337.2865     817.3961    3593.3064   -751.78625    220.87963    143.84823   -4081.2833 
25325000    115.78989   -4534.6234   -4336.1635   -4534.6234            0    2037.0401    18.040564    23.368267    21.788216    9185.4044    2472.5486    1984.8369    1653.7347   -854.80913     -341.729    847.86928   -4063.2822 
25326000     113.9782   -4533.3448     -4337.99   -4533.3448            0    2320.8342    18.074501    23.261766    21.831029    9178.7429    2293.3469     3424.061    1245.0946   -568.54835    112.14525   -466.12624   -4027.3173 
25327000    114.60173   -4539.1461   -4342.7227   -4539.1461            0    2407.0136    17.922914    23.356014    21.877191    9157.9636    3123.2008    951.32409    3146.5161    96.096664   -471.61482    433.00267   -4021.2431 
25328000    122.10853   -4526.0822   -4316.7924   -4526.0822            0    1820.7779    17.952746    23.317121    21.954163    9190.1519    1943.6164    1827.4004     1691.317    -64.51193   -194.70756    135.66666   -4072.7555 
25329000    110.79296   -4527.6019   -4337.7066   -4527.6019            0    2402.0638    18.112157    23.073203    21.935719    9167.0568    1285.7433    3095.1978    2825.2503   -229.11209   -1.2618991    356.27393   -4016.5696 
25330000    122.12457   -4526.4877   -4317.1704   -4526.4877            0    1789.8264    18.042521    23.333371    21.866066    9205.4571    1127.3775    1424.3824    2817.7194    1395.7522    -83.63376     518.4924   -4076.8823 
25331000    116.86061   -4538.4855   -4338.1904   -4538.4855            0    1887.5559    17.917388    23.461788    21.914701      9212.37    2310.2096    1975.1589    1377.2991   -168.40518   -413.68246   -333.16396   -4084.5917 
25332000    119.31451    -4548.542    -4344.041    -4548.542            0    2924.1473     17.82832    23.404422    21.919673    9146.2364     2941.139    3044.1363    2787.1666    307.35491    354.82063   -482.98257   -3953.9934 
25333000    113.79438   -4544.2373   -4349.1976   -4544.2373            0    1497.9646    18.022875    23.277317    21.958971    9212.3191    1328.3105    1375.8888    1789.6943    252.81238   -329.67971    531.80954   -4147.9428 
25334000    119.01923   -4521.3354   -4317.3405   -4521.3354            0    2127.5577    18.047474    23.420715    21.806442    9217.2501    2071.4924    1843.8297     2467.351    -93.43227    156.65701   -226.79424   -4031.3454 
25335000    117.46679   -4538.3836   -4337.0495   -4538.3836            0    2145.3484    17.877637    23.524155    21.853253     9190.523     2750.844     1213.269    2471.9323   -832.10579     115.2489   -692.85511   -4049.4992 
25336000     114.4521   -4530.5909   -4334.4239   -4530.5909            0     2421.817    17.995062    23.357599     21.82712    9174.4064    2629.6567    2026.6253    2609.1689    66.972545    174.17257    140.31604   -4010.3865 
25337000    110.40794   -4531.7542   -4342.5187   -4531.7542            0    1753.0932    17.903094    23.464698    21.889511      9195.58    2239.4656    1448.6807    1571.1334   -344.03612     542.5233     19.90757   -4107.4147 
25338000    116.02562    -4520.148   -4321.2841    -4520.148            0    2261.7502    17.900354    23.415541    21.959919    9204.4229     2150.896     1851.473    2782.8815    -70.85041      268.227   -234.75826   -4017.6734 
25339000     110.6473   -4539.4807    -4349.835   -4539.4807            0     1824.774    17.993977    23.310566    21.940364    9202.8808    1212.0434    1394.5871    2867.6916    391.24356   -265.96787   -309.52955   -4104.9237 
25340000    117.44021   -4534.0445    -4332.756   -4534.0445            0    2825.4131    17.933241    23.346744    21.894218    9166.7324    2309.8335    2845.1247    3321.2809   -501.31857    574.07629    946.67946   -3955.0339 
25341000    106.83404   -4529.4276   -4346.3177   -4529.4276            0    3002.6681    18.011434    23.182377    21.847597    9122.4176    2744.1888     2648.508    3615.3074    -141.7061   -254.66982   -565.60977   -3946.8394 
25342000    121.41899   -4534.7911   -4326.6832   -4534.7911            0     1970.643    18.056531    23.188707    21.968145    9198.2296    2313.5716    1883.5133    1714.8442    487.86052     63.57684    402.72885   -4062.3278 
25343000    110.02241   -4535.0425   -4346.4678   -4535.0425            0    2631.0049    17.920083    23.271614    21.993103    9171.7676    2765.1009    1856.9838      3270.93   -254.82931   -49.312889   -125.05171   -3994.5424 
25344000    110.51765    -4528.382   -4338.9585    -4528.382            0    995.70065    18.041879    23.271411    21.980793    9228.8557    160.74549    1141.2085    1685.1479    33.689006    280.15352    -280.2929   -4204.9438 
25345000    117.34401   -4546.6215   -4345.4978   -4546.6215            0    1885.3223    17.909312     23.41009    21.889897    9177.5273    2475.3979     384.8997    2795.6692    254.03172    303.22685   -222.63756   -4093.1572 
25346000    114.40366   -4523.9262   -4327.8423   -4523.9262            0    1894.8793    17.795762     23.53306    21.948116    9191.6236    1736.2514    929.51078    3018.8757     497.1636    161.75692   -460.30909   -4073.8329 
25347000    119.21865   -4538.2408   -4333.9041   -4538.2408            0     1512.078    17.821176    23.409662    22.070972    9207.7384    2511.7118    109.03133    1915.4909    -66.45099    306.18937   -8.7226783   -4130.8541 
25348000    109.74023    -4538.791      -4350.7    -4538.791            0    1965.6582    18.016294    23.165876     22.02542    9192.6007    2193.5328    1673.7674    2029.6744    28.713174   -88.362969   -27.008331   -4087.1748 
25349000    114.88705   -4528.9529   -4332.0404   -4528.9529            0    1717.1342    18.054813     23.23723    21.950364    9209.1403    596.16593    2291.5564    2263.6801    647.29739    405.54886    542.65717   -4101.4192 
25350000    116.62853   -4545.0648   -4345.1675   -4545.0648            0    2701.2586    17.898995    23.472337    21.796953    9157.5811    2848.8662    1533.7063    3721.2034    453.95583   -9.1523385   -105.93513   -3984.4038 
25351000      114.247   -4542.4577   -4346.6422   -4542.4577            0    3749.3224    17.873974    23.287268    21.865852     9101.355    3476.8572     3761.155    4009.9549    565.84666   -582.30807    320.24119     -3848.98 
25352000    116.10572   -4527.9371   -4328.9359   -4527.9371            0    2426.8356    17.857668    23.324343     21.99106    9159.6804    1610.9757    1850.2846    3819.2464   -400.26547   -9.0826588     170.1895   -4004.7482 
25353000    112.31417   -4524.7352   -4332.2325   -4524.7352            0    1031.2982    17.937995    23.261109    22.127384    9232.8206    1001.1535    1559.6816    533.05946    575.17302    73.372569   -523.23832    -4193.367 
25354000    113.63944   -4527.8157   -4333.0416   -4527.8157            0    3618.5249    17.922417    23.124072    21.953951    9098.5792    3755.3708    3822.8526    3277.3511    -198.5402   -538.04781   -119.98348   -3852.8871 
25355000    117.18309   -4525.0667   -4324.2189   -4525.0667            0    1024.9853    17.960598     23.27842    22.087119    9234.4994    668.04369    1630.4626    776.44957    97.142812   -646.99779    343.66349   -4186.1782 
25356000    108.41012   -4533.5692   -4347.7579   -4533.5692            0    1911.8689    17.952254    23.280477    21.947224    9172.5579    3002.0207    2617.9615    115.62433   -154.42411   -400.17087   -43.902844   -4092.0027 
25357000    116.68133   -4547.4101   -4347.4222   -4547.4101            0    2749.7133    17.926706    23.267164    21.947001    9154.1735    1780.2011    3380.5724    3088.3662    24.368201    33.854614     63.91253   -3980.3239 
25358000    115.60727   -4532.4744   -4334.3275   -4532.4744            0    2048.6384    17.875133    23.362076    21.958229     9169.761    2294.2464     2055.761    1795.9078    279.46219    524.51326    361.90323   -4060.3599 
25359000    113.28194   -4534.3659   -4340.2046   -4534.3659            0    1784.0154    17.897701    23.330703    21.943659    9162.9242    1071.0602    2177.0759    2103.9103    311.80132   -155.42865   -288.50305   -4101.8033 
25360000    115.41981   -4534.1571   -4336.3315   -4534.1571            0    2006.4331    17.876946    23.349632    21.943967    9159.8528    2276.0009     1708.824    2034.4744    52.970218   -297.04961   -777.70362    -4068.298 
25361000    120.11713   -4538.6289   -4332.7522   -4538.6289            0    2225.4779      17.8099    23.446762    21.942119    9162.6884    2402.7219    2672.5857    1601.1261   -125.70693    419.18339    85.872401   -4035.3651 
25362000    114.50637     -4531.81     -4335.55     -4531.81            0    2216.6868     17.86768    23.279767    21.997851    9150.1258    2778.2193    2233.7381    1638.1029    230.95032     897.8948    509.30914   -4039.7438 
25363000    108.14123    -4524.807   -4339.4566    -4524.807            0    1767.2397     17.96657    23.257787    21.970677    9180.7257    1922.2659    1922.0015    1457.4516    287.57969     -735.078    471.33492   -4102.8383 
25364000     117.9322   -4519.4529   -4317.3211   -4519.4529            0    2765.1769    18.145379    23.112774    21.801371    9143.2775     2403.205     3418.191    2474.1348    458.22339    67.750992    495.30058   -3948.5977 
25365000    116.70519   -4526.7663   -4326.7376   -4526.7663            0    2370.7359    17.950796    23.405841    21.856277    9182.9911    1804.9578    2563.6252    2743.6247   -833.41895    335.22341    762.78318    -4009.238 
25366000     107.7099   -4528.3156   -4343.7045   -4528.3156            0    2222.9684    17.816286    23.400653    22.011897    9177.0398    2655.8964    2423.5575    1589.4512    855.48081    -316.6137    158.21315   -4046.1875 
25367000    110.00668   -4540.7834   -4352.2357   -4540.7834            0    1556.6226    17.858997    23.325922    22.091225     9202.709    1649.6455    2204.4155     815.8069   -405.06342    382.26132     331.1849   -4143.3181 
25368000    112.41481   -4539.4229   -4346.7478   -4539.4229            0    2458.5235    17.934033    23.241595    21.982061    9162.4648    1416.2322    2629.6824    3329.6557    48.983095   -150.62828   -185.70859   -4018.2272 
25369000    115.08518   -4530.4847   -4333.2327   -4530.4847            0    1308.8543    18.182087    23.088069    21.960065    9218.5996    1236.6201     1303.938    1386.0048     255.6334    80.158421   -366.75514   -4157.2653 
25370000    110.68514   -4529.8799   -4340.1694   -4529.8799            0     2992.509    18.003552    23.269201    21.840515    9149.6088    1623.0074    4005.8215     3348.698   -35.688403   -81.884075    339.88488    -3940.856 
25371000    117.30031   -4543.6426   -4342.5939   -4543.6426            0    1709.7804    18.012743    23.400802    21.830896    9201.9986     1758.919    1301.3728    2069.0493    123.27533     255.7809    733.34021   -4113.1384 
25372000    116.75439   -4524.3352   -4324.2222   -4524.3352            0    1445.6018    17.994739    23.397143    21.894926    9218.3214    2066.9373    1030.1676    1239.7007    304.49896    97.250967    956.67977   -4129.8758 
25373000    114.06914   -4547.0568   -4351.5461   -4547.0568            0    1297.5889    17.941676    23.385079    21.940211    9205.3995    1281.0779    1342.0172    1269.6717    209.14277   -175.99777   -189.98577   -4177.3431 
25374000    113.79105   -4521.2486   -4326.2146   -4521.2486            0    1392.5228    17.984816    23.489638    21.797782    9208.6214    1856.9597    725.61963    1594.9891   -483.26526    48.349785   -179.76434   -4139.2012 
25375000    121.14484   -4528.8354   -4321.1973   -4528.8354            0    1671.9111    17.977585     23.44599    21.850952    9210.2262    985.67022     1541.383      2488.68    672.64681   -267.94069    197.63795   -4096.6233 
25376000    115.76686   -4536.3302   -4337.9098   -4536.3302            0    2555.7909    17.987042    23.359844     21.78471    9153.3793    2623.3687    2255.2438    2788.7603    331.86536    95.107049    32.201852   -3996.7305 
25377000    121.96169   -4537.4813   -4328.4432   -4537.4813            0    2935.9235     18.02159    23.165462     21.89618    9141.1836    3410.5261    2910.6416    2486.6029   -556.69254   -26.772769     606.5364   -3937.0411 
25378000    121.46571   -4543.1457   -4334.9576   -4543.1457            0    1715.9924    17.984168    23.276382    21.956474    9191.1194    1211.4237    2401.1794    1535.3741    241.20011   -251.16971   -146.19887   -4104.9408 
25379000    115.74936   -4518.0457   -4319.6552   -4518.0457            0    2692.3549    17.950652    23.446241     21.74054     9150.057    2215.2757    2444.1747    3417.6143     62.77471   -230.34213    103.18219   -3960.3761 
25380000    110.07837   -4536.0159   -4347.3453   -4536.0159            0    1449.1843    18.035648    23.386968    21.842905    9213.3179    239.86286    2282.0053    1825.6847   -458.26664   -219.72465   -3.8296251   -4152.6231 
25381000    114.11305   -4546.1721   -4350.5863   -4546.1721            0    465.20339    18.078083    23.434063    21.808482    9239.0098    189.46576     506.8961     699.2483      264.975   -179.20509    555.03259   -4287.9041 
25382000    114.35429   -4518.9093     -4322.91   -4518.9093            0     2414.875    17.986536    23.365981    21.789505    9157.5422    3103.5935    1458.8551    2682.1764    122.61289   -102.28857    489.46966   -4000.3953 
25383000    106.23747   -4525.4209   -4343.3335   -4525.4209            0    1682.4833    18.045742    23.349518    21.819932    9194.0328    2187.2937    1387.0854    1473.0709   -378.61216   -130.83885    523.25791   -4117.7368 
25384000    111.29936   -4540.6681   -4349.9048   -4540.6681            0     1527.315    18.020434    23.401418    21.830263    9205.9032    2319.5124     682.8392    1579.5935   -653.02266    47.111997    290.43017   -4144.8495 
25385000    105.42073   -4534.7601   -4354.0726   -4534.7601            0    2207.5404    17.940199    23.405384     21.80756    9156.9342    2032.6332    2564.4062     2025.582   -143.15273    -519.1803    231.49823   -4059.2677 
25386000     114.4395   -4532.8803   -4336.7349   -4532.8803            0    1877.3336    17.939768    23.395578    21.888167    9186.7093    2315.8033    943.70714    2372.4903    -136.0887   -231.61192    105.40158   -4085.2122 
25387000     112.1873    -4538.931   -4346.6458    -4538.931            0    1519.2931    18.068409     23.27353    21.879406    9200.6331    1091.5931     1116.713    2349.5731   -736.77404   -97.984573    204.50721   -4142.7843 
25388000    111.04175   -4525.6146   -4335.2928   -4525.6146            0    2089.0467    17.972412    23.401039    21.791263     9164.819    1709.0603     794.7087    3763.3712   -350.80642   -16.416357    172.29303   -4056.0719 
25389000    109.83766   -4546.9677   -4358.7097   -4546.9677            0    1504.2085    17.950771    23.393015    21.882165    9188.8165    2002.5464    2295.6842    214.39476    314.04668    458.03094   -526.80005   -4157.1315 
25390000    114.10627   -4533.4984   -4337.9242   -4533.4984            0    1759.3148    17.939234    23.283969    22.018169    9196.9133    1540.0881    1216.0814     2521.775    287.02984   -279.24468    516.36204   -4101.9516 
25391000    109.82378   -4537.7024   -4349.4682   -4537.7024            0    1421.5416      17.9465    23.294877    22.018584    9205.1221    1542.8937      1738.87      982.861   -45.772292   -629.55187   -95.809376   -4158.6302 
25392000    114.67094   -4538.0538   -4341.5117   -4538.0538            0    2530.4387    17.980265    23.116945    22.019863    9152.5295    1860.1873    2647.1521    3083.9765   -572.45127    385.01257   -614.31733   -4003.7481 
25393000    109.01712   -4529.4542   -4342.6026   -4529.4542            0    2739.5369     18.00458    23.165992    21.955869    9157.6601    1275.7746    3851.5805    3091.2558   -25.838237    540.20354   -119.37191   -3976.7235 
25394000    110.84211   -4530.4748   -4340.4953   -4530.4748            0    1893.6039    17.899925    23.513863    21.856947      9199.51    2063.0894    1305.6429    2312.0793    -354.1678   -557.13964    167.59899   -4086.4391 
25395000    116.40741   -4525.2999   -4325.7816   -4525.2999            0    2062.7527    17.904063    23.379351    22.006735    9211.6969    2924.5229    750.65648    2513.0786   -42.017375    258.10179   -299.37999   -4048.6649 
25396000    112.08841   -4537.1494   -4345.0337   -4537.1494            0    1566.1754    18.041314    23.217694    22.033647    9229.4037    1265.9512    1509.7465    1922.8285   -748.27253    165.20027   -96.782588   -4134.2243 
25397000    108.38925   -4536.6073   -4350.8319   -4536.6073            0    2808.7256    17.905607     23.26756    21.960401    9149.1379    3399.7233    1907.2454     3119.208   -1550.7843   -902.47984    53.610944   -3976.0614 
25398000    109.28205   -4540.7546   -4353.4489   -4540.7546            0     2296.919     17.86172    23.596219    21.796738    9186.6507    2410.5004    2400.0905     2080.166   -188.27128    273.85644   -132.31762   -4045.7126 
25399000     120.2332   -4529.0275   -4322.9519   -4529.0275            0    1186.5232    17.967977    23.392233     22.01074    9251.3582    84.187034    1631.2384    1844.1442   -180.82713    31.307585    136.52939   -4162.8643 
25400000    109.84456   -4527.9968   -4339.7269   -4527.9968            0    3157.7931    17.867304    23.234316    22.020154    9141.3278    4022.9022    3238.5916    2211.8856   -580.76032    409.87627   -309.10541   -3918.7398 
25401000    116.77314   -4530.0864   -4329.9413   -4530.0864            0     1591.229    17.906861    23.205755    22.173135    9213.8738    2069.8371    2102.7719    601.07806   -107.95289    -188.8553    -660.3962   -4116.1201 
25402000    109.34179   -4537.9423   -4350.5343   -4537.9423            0    1692.8689    17.884317    23.411131      21.9737    9200.2145    2138.1124    1371.9291    1568.5651    148.11704    147.01531   -549.25026   -4123.3924 
25403000    115.09335   -4530.8842   -4333.6182   -4530.8842            0    1814.4231    17.909041    23.509053     21.89142    9216.8263      1669.87    1219.4962    2553.9031    72.923157   -442.20558    493.54268   -4089.7271 
25404000    109.74713   -4534.4316   -4346.3287   -4534.4316            0    2135.5827     17.94208     23.33325    21.937919    9184.2448    2772.4213    2069.0643    1565.2625   -411.41542    464.55181    4.4913054   -4060.2828 
25405000    116.83782   -4539.9621   -4339.7061   -4539.9621            0    1752.3214    17.899095    23.336172    22.003725    9190.8756    1941.0391    2265.4029    1050.5222   -551.35891    28.741913   -831.84324   -4104.8259 
25406000     109.8444   -4546.9576    -4358.688   -4546.9576            0    2823.1452    17.874169    23.406692    21.888365    9157.5485     3297.143    2116.6954     3055.597    934.80986   -88.769125   -323.17245   -3981.6472 
25407000    112.90812   -4538.5095   -4344.9888   -4538.5095            0    2339.0799    18.040398    23.271608    21.843409    9170.4981    1563.4973    2583.0109    2870.7317   -601.82002    275.81094   -17.275775   -4032.1549 
25408000    115.87389     -4543.68   -4345.0762     -4543.68            0    2470.2991    17.975853    23.338615    21.836872    9161.2561    2195.5343    1912.4306    3302.9323   -154.53832    724.73079    276.14891   -4015.0256 
25409000    116.34082   -4540.0184   -4340.6142   -4540.0184            0    1748.8512    17.886992    23.327633    22.032313    9193.2291    1379.4663    2612.6214    1254.4658      636.968     378.5453    306.44312   -4106.1391 
25410000    125.61259    -4538.028   -4322.7324    -4538.028            0    1885.2033    17.858492    23.357411    22.017674     9184.191    2291.7241    2090.3721    1273.5136   -439.98626    246.35583   -353.69671   -4070.2245 
25411000    114.47107   -4549.0166   -4352.8171   -4549.0166            0    1750.7968    17.869721    23.522979    21.840612    9180.6814    2335.1193    1325.3329    1591.9382   -48.982984   -336.15596    122.21757   -4118.4014 
25412000    114.60023   -4539.2553   -4342.8344   -4539.2553            0    1881.7526    18.053055    23.300399     21.80745    9173.1593     829.1935    2899.6988    1916.3655   -566.41393   -204.95251    150.66293   -4091.0915 
25413000      115.357   -4531.5142   -4333.7962   -4531.5142            0    2541.1547    17.917825    23.390688    21.845341    9155.6063    3510.4066    2235.4836    1877.5738   -215.53411    30.242996   -237.56628   -3994.4882 
25414000     117.8913   -4544.4818   -4342.4201   -4544.4818            0    2735.6777    17.757327    23.358311    22.075686    9156.5788    3040.4933     2899.991    2266.5488   -144.81987    394.44911    206.86791   -3977.0996 
25415000    117.17499   -4538.0679    -4337.234   -4538.0679            0    2315.8157    17.921951    23.275227     21.98705    9171.6222    2511.4001    3098.6489    1337.3981   -831.94453   -156.02543     183.6148   -4027.4735 
25416000    112.24414   -4521.6975   -4329.3149   -4521.6975            0    2168.9649    18.070582    23.255892    21.862782    9187.7794    822.06731    2561.9719    3122.8554    595.59269   -312.89917    245.38371   -4038.6858 
25417000    110.77391   -4540.6052   -4350.7425   -4540.6052            0     1803.919     17.94479    23.263636    21.987478    9178.9159    3310.8981    3002.6284   -901.76967   -456.20533     -179.195     459.5442   -4109.2607 
25418000    116.67565   -4519.7582   -4319.7801   -4519.7582            0    2324.1543    17.848076    23.377836    21.952305     9159.586    3342.1351    2104.5916    1525.7363   -178.45532   -700.04597   -52.106112   -4009.3122 
25419000    120.73215   -4529.5255   -4322.5947   -4529.5255            0    1193.1686    17.946693      23.4263    21.940146    9224.1778    969.36218    1491.2521    1118.8914     405.6751    284.69172   -59.417854   -4162.0835 
25420000    113.86851   -4532.3766   -4337.2099   -4532.3766            0    1309.6248    18.274889    23.177489    21.771617    9221.7178   -928.64902     2402.407    2455.1164   -836.45824     79.16759    147.17358   -4161.0794 
25421000    118.07931   -4543.1948   -4340.8109   -4543.1948            0    2553.5602    17.995343    23.221927    21.971134    9181.4411    1844.6684     3896.949    1919.0633   -691.46561   -404.58872    359.46369   -3998.8844 
25422000    113.89994   -4538.4945   -4343.2739   -4538.4945            0    1229.8998    17.800422    23.540957    22.055263    9242.0148    1996.7086    816.15308    876.83764    27.538671    467.84866     405.4989   -4177.5014 
25423000    114.53477   -4540.8361   -4344.5274   -4540.8361            0    1593.9776    17.897745    23.433469     22.00739    9230.0375    2136.7777     1873.406    771.74894    608.72672    -272.7272    180.62301   -4129.9611 
25424000    108.03682   -4531.8597   -4346.6882   -4531.8597            0    3282.5164    17.983839    23.239665    21.895976    9151.1689    3095.9929    2696.5046    4055.0517    187.59267   -45.213817     312.1852   -3908.6023 
25425000    118.68012   -4534.7128   -4331.2991   -4534.7128            0    2205.2893    17.993055    23.286742    21.961691    9201.9408    2968.6687     1838.953     1808.246    248.10633   -598.68272   -12.589676   -4035.3474 
25426000    112.98206   -4536.5853   -4342.9379   -4536.5853            0    1110.9359    18.044765    23.337146    21.937192    9238.0438    249.04112    853.24803    2230.5186   -301.37388     760.2524    563.69583   -4193.2644 
25427000    118.05638   -4527.0409   -4324.6963   -4527.0409            0    1718.1623     18.05727    23.502195     21.72634    9220.3432    1407.9054    1714.6162    2031.9653    65.861293    136.44627    46.156842   -4093.6563 
25428000    115.60843   -4524.6838   -4326.5349   -4524.6838            0    2521.3851    17.980676    23.409276    21.771268    9163.8451    1233.8589    2405.6556    3924.6409   -165.76632   -867.37541   -444.79582   -3989.5637 
25429000    116.42648   -4537.0742   -4337.5232   -4537.0742            0    3146.9376    17.951321    23.383777    21.716274    9115.8336    3037.1032     3599.433    2804.2768   -389.17243   -206.76076      115.193   -3919.1534 
25430000    112.90798   -4533.0671   -4339.5467   -4533.0671            0    1679.3887    18.107997    23.370886    21.752008    9205.4478    1155.2348    1621.0815    2261.8497    46.186387     59.85381    -54.72053   -4114.0854 
25431000    117.10565   -4535.1943   -4334.4793   -4535.1943            0    2042.8442    18.093292    23.384949    21.749975    9202.6475     1501.548     2139.006    2487.9786    90.738694   -250.65185    83.457095   -4060.3067 
25432000    119.11989   -4527.6029   -4323.4355   -4527.6029            0     1098.147    18.083118    23.483743    21.716895    9222.2815      1042.29    120.16986    2131.9811   -1062.4208    140.83391    478.65428   -4175.7374 
25433000    107.18061   -4529.5592   -4345.8553   -4529.5592            0    2698.1531    17.934745     23.36453     21.86579    9162.5728    1861.9484    3254.5986    2977.9124    59.701123    71.709973   -623.56922   -3985.3099 
25434000    116.33802   -4544.3701   -4344.9708   -4544.3701            0    2523.7071    17.958887    23.191614      21.9465    9140.6201    3396.8423     2058.384    2115.8951   -1135.4514    302.47764     37.11263    -4008.544 
25435000    117.17072   -4526.7498   -4325.9232   -4526.7498            0    2212.0887    18.034936    23.133007    22.046403    9197.8104    2727.0169    3330.4835    578.76561    107.92675    36.391328      219.529   -4029.1923 
25436000    117.21939   -4524.2832   -4323.3732   -4524.2832            0     3304.462    17.906209     23.39946    21.781518    9126.3606    3431.6452    2956.4674    3525.2733   -780.06896    291.66689   -277.54801   -3883.5539 
25437000    115.65659    -4542.223   -4343.9916    -4542.223            0    1299.1877    18.009086    23.255679    21.996504    9212.4338    1603.8392    1095.1763    1198.5474    561.61671   -296.29953   -441.68562   -4169.4407 
25438000    117.24861   -4522.3827   -4321.4226   -4522.3827            0    1703.6924    18.081296    23.168744    21.975812    9206.1273    1176.6174    2328.9355    1605.5244   -938.59975    106.83318    760.89088   -4092.6816 
25439000    111.64043   -4543.4498   -4352.1019   -4543.4498            0    1328.4394    18.064984    23.324032    21.870788    9215.2184   -367.01853    1259.6756    3092.6613   -186.96795   -323.11893    845.31083   -4173.5669 
25440000    121.96153   -4527.9057   -4318.8678   -4527.9057            0    2158.0194    17.940716    23.352557    21.902604    9176.3501    2186.6249    1234.3451    3053.0881   -380.53429    334.79613   -264.38218   -4030.0651 
25441000    117.29696   -4533.6085   -4332.5655   -4533.6085            0    2448.7742    18.123717    23.178998    21.787121    9152.5428    1668.9012    2500.5469    3176.8745   -661.23431   0.57646321    621.60281    -4005.702 
25442000    115.18615   -4531.8915   -4334.4664   -4531.8915            0    1916.4037     18.03125    23.311034    21.824674    9173.5012    1975.0094    2750.9204    1023.2814   -45.166452    56.531034    96.710152   -4078.0782 
25443000    115.35716   -4531.1852    -4333.467   -4531.1852            0    1744.2151    17.871959    23.590579     21.82536    9201.7871    2018.4944    1365.3743    1848.7764   -525.76122    461.85828    245.50023   -4099.3957 
25444000    115.53106   -4523.3558   -4325.3396   -4523.3558            0     1787.951    18.055842    23.361687    21.841866    9213.2253    627.36275    1606.3066    3130.1837   -560.84369   -234.51748      184.721   -4085.1007 
25445000    118.50665    -4543.649   -4340.5327    -4543.649            0    1818.2192    18.087636    23.291813    21.846476    9203.7858    1711.0436    1831.6347    1911.9794    456.93129    202.67971    4.1369928   -4096.4772 
25446000    112.84368   -4527.8858   -4334.4756   -4527.8858            0    2184.0488    17.987542    23.335868    21.858466    9175.1981    3016.7043    1401.2757    2134.1663   -428.63036   -2.0811137   -57.761678   -4042.2262 
25447000    112.32434   -4525.8974   -4333.3774   -4525.8974            0    2347.1515    17.930784     23.35851     21.87421    9161.7152    2128.2077    1253.6605    3659.5862    441.68772   -343.78523    -156.4786   -4019.7646 
25448000    114.09012   -4527.7788   -4332.2323   -4527.7788            0     1695.598    18.041542    23.177324    21.937104    9173.1023    789.69803    2246.6368    2050.4592    932.98305    140.35852    469.94735   -4105.3947 
25449000    119.28782   -4531.6914   -4327.2362   -4531.6914            0    1932.5005    17.971496    23.296483    21.939394    9185.4242    2455.6376    1509.6344    1832.2294   -200.88444    102.58188     45.06998   -4068.3584 
25450000    112.20964   -4530.4675    -4338.144   -4530.4675            0    2209.4258    17.938856    23.314892    21.919583    9167.7011    2417.4568    2284.4834     1926.337   -776.94832   -281.25056    106.18832   -4042.7405 
25451000    114.17163   -4531.2922   -4335.6059   -4531.2922            0    777.59151    17.993746    23.498085    21.799025    9217.0327    732.81313    1232.5899    367.37148    476.83382    252.26749   -111.07369   -4231.0813 
25452000    114.62449   -4529.0803   -4332.6179   -4529.0803            0    2260.0079    17.991585    23.425259    21.770877    9175.5001    1120.4871    2002.3231    3657.2136   -274.71958   -164.57127   -348.70874   -4030.1943 
25453000    112.32911   -4538.0441   -4345.5159   -4538.0441            0    1675.1124    18.037614    23.217229    21.927859    9183.0235    1377.5439    2138.1207    1509.6725   -31.612993   -119.95764   -73.691631   -4121.1765 
25454000    113.13822   -4542.2611   -4348.3461   -4542.2611            0    1719.2301    17.985756    23.254873    22.021123    9210.4766    1746.8043    2841.4555    569.43029    404.11212    373.02735    276.72754   -4117.4099 
25455000    113.61833   -4546.0641   -4351.3262   -4546.0641            0    1959.1816    17.816438    23.577267    21.870564    9187.0128    1111.5288    1428.6556    3337.3604   -189.00113   -487.30222    495.59424   -4088.8288 
25456000    112.66755    -4540.581   -4347.4726    -4540.581            0    1524.6524    17.918881    23.471533    21.894951    9208.6575    1836.2966    1519.9855    1217.6751    -904.4808    83.798341   -764.40463   -4142.7136 
25457000    108.15067   -4525.8374   -4340.4709   -4525.8374            0    1932.2884     17.98658    23.310523    21.865845    9167.8374    1737.7126    2111.2142    1947.9385    134.22349   -68.990378   -205.03007   -4082.1172 
25458000    118.49612   -4531.3594   -4328.2611   -4531.3594            0    2087.2848    17.923808    23.364486    21.956951    9195.1443    3147.4549    1225.3681    1889.0314   -766.51668   -635.85671    273.18199   -4048.3526 
25459000     117.4426   -4540.3414   -4339.0488   -4540.3414            0    2094.9232     17.90814    23.353094    21.958296    9183.1893    2505.6189     2038.645    1740.5057    343.09029   -427.67009   -23.790219   -4058.4812 
25460000    113.78322   -4519.8293   -4324.8088   -4519.8293            0    2439.3333    18.092266    23.284362    21.792931      9180.64    1542.5626    2770.6117    3004.8255    56.808302   -39.844179    192.01658   -3998.2059 
25461000    112.52096   -4535.5901    -4342.733   -4535.5901            0    2242.2239    17.997155    23.249307    21.924504    9173.6808    1072.3947    2490.5096    3163.7672   -123.31275    166.94419    387.49797   -4042.7488 
25462000    109.67603   -4522.7263   -4334.7454   -4522.7263            0     2057.374     17.88768    23.330706    21.987257    9175.9903    2117.5682    1658.4086    2396.1451    37.830297    506.03994    177.24372   -4059.4226 
25463000    117.40863    -4529.198   -4327.9636    -4529.198            0    1711.0943    17.930862    23.395948    21.926152    9198.2297    1164.2373    2303.0127     1666.033   -617.99545   -513.75412   -215.99902   -4098.4259 
25464000    116.01124    -4539.743   -4340.9037    -4539.743            0     2156.396    17.985006    23.338225    21.822965    9159.9299    3143.2329    1988.2334    1337.7219    6.5348747    279.55409    208.00919   -4052.8347 
25465000    108.22984   -4547.1663   -4361.6641   -4547.1663            0    1171.0796    18.105931    23.269701     21.87871    9217.9297    480.16311    2409.5521    623.52358    333.64811   -82.711812   -212.47953   -4204.2311 
25466000    115.32017   -4539.6106   -4341.9558   -4539.6106            0    1993.7351    17.963911     23.18543    22.002804    9164.1894    1547.0799      2812.57    1621.5554   -413.72804   -75.449921   -187.55498   -4075.4925 
25467000    116.27765   -4550.1899    -4350.894   -4550.1899            0    1493.9101    18.052919    23.204989    21.919287    9182.3796    1189.2763    1720.5865    1571.8674   -848.39776   -308.31928   -194.28072   -4150.8361 
25468000    112.05403   -4526.7628    -4334.706   -4526.7628            0    2450.6623    17.960841    23.397313    21.863552    9187.8388    3287.6117    1937.5101    2126.8651   -758.24495    118.79319    366.29219    -4006.329 
25469000    114.84719   -4525.5384   -4328.6943   -4525.5384            0    2287.4124    17.784105    23.491643    21.941181     9166.539    2813.3749    1323.1694    2725.6929    530.59804   -372.31505   -367.51325   -4022.9025 
25470000    112.34385    -4540.199   -4347.6455    -4540.199            0    2957.2715    17.959122    23.325317    21.844448    9150.6877    3285.3531    2580.2726    3006.1888   -697.68749   -201.25744    594.02932   -3952.9876 
25471000    113.33313   -4535.0065   -4340.7573   -4535.0065            0    1607.3698    18.075497    23.333154    21.899331    9236.2259    344.01368    3236.2311    1241.8648    57.030016   -606.15642   -733.17888   -4124.2432 
25472000     118.5304   -4547.0246   -4343.8675   -4547.0246            0    1964.5691    18.012475     23.43318    21.732723    9173.1555    1076.1809    1869.1651    2948.3613    700.49168   -413.45594    97.284345   -4081.0454 
25473000    109.39685   -4529.8619   -4342.3594   -4529.8619            0    2341.9635    18.054269     23.24287     21.86645    9175.8848    1877.1237    2736.9293    2411.8375   -663.38798   -315.09209   -126.93174   -4028.9558 
25474000    116.48887   -4541.3945   -4341.7366   -4541.3945            0    1395.7069    17.923325    23.363117    22.042414    9230.1452    1436.6441    1457.9445    1292.5321   -488.13138    376.45699    326.76247   -4153.8574 
25475000    120.21608   -4552.1773    -4346.131   -4552.1773            0    2340.8786    17.861154    23.300418    22.050226    9176.6945    2314.4371    2504.8087      2203.39   -185.94702   -610.84738   -536.90298    -4032.845 
25476000     112.3784   -4528.2749   -4335.6622   -4528.2749            0    2594.5159    17.877279    23.304777    21.967373    9152.1787    2948.2035    3467.3798    1367.9646   -137.13614   -59.131408    63.460477   -3989.3588 
25477000    121.44465     -4518.74    -4310.588     -4518.74            0    2165.1827    17.929562    23.336137    21.961783    9188.9574    2321.9582    1682.0385    2491.5512   -241.49111   -60.343829   -167.29212   -4020.4286 
25478000    120.26439    -4531.879   -4325.7499    -4531.879            0    2950.7958    17.898553    23.245235    22.013733    9158.9472    3730.1924    2310.5975    2811.5976    316.51899   -272.06606   -436.16298   -3931.6007 
25479000    123.61959   -4540.6747   -4328.7949   -4540.6747            0    2513.1175    17.896516    23.294183    21.951227    9151.1309     3433.406    3001.1089    1104.8375    78.920896    254.62149    524.18651   -3993.3946 
25480000    116.06599    -4520.762   -4321.8288    -4520.762            0    1368.5594    17.747608    23.559657     22.04496     9217.605    2595.1252    1235.2301    275.32285    60.878345    127.88999    284.92491   -4137.8543 
25481000     117.8192   -4529.0892   -4327.1511   -4529.0892            0    2147.5679    17.922212    23.269145    21.991097    9171.0474    2330.3373    2417.9123    1694.4542   -385.70545    294.84167    468.06972   -4039.9132 
25482000    117.59807   -4537.1223   -4335.5633   -4537.1223            0    1919.7522    18.020658      23.1686    21.972732    9173.9106    1137.1377    2751.5596    1870.5594    79.090282   -186.61816    126.68228   -4078.7156 
25483000     110.5323   -4532.9268   -4343.4782   -4532.9268            0    1618.1863    17.998262    23.289979    21.911521    9184.8528      1382.01    2027.7836    1444.7653   -276.97861   -108.54972    210.94781   -4126.7195 
25484000    116.23383   -4527.3336   -4328.1127   -4527.3336            0    2928.0925    17.902122    23.361356    21.889228    9154.4659    2506.3215    2782.7924    3495.1635    244.78548   -570.79137    615.58463   -3937.1875 
25485000    116.71865   -4543.0337   -4342.9819   -4543.0337            0    2587.9313    17.845203    23.421015    21.864303    9138.2463    2439.7608    2046.8991    3277.1341   -1054.2366   -99.597738    303.83921   -3998.0832 
25486000    115.26279   -4537.7836   -4340.2271   -4537.7836            0    2739.6556    17.919041    23.353045    21.885782    9158.4154    2605.3765    2572.1882     3041.402   -589.05756   -277.67023   -511.62785    -3974.302 
25487000    117.15608   -4540.7099   -4339.9084   -4540.7099            0    2290.3811    17.940081    23.317062    21.927528    9172.5039    1610.1176    2504.7667     2756.259    85.364436    73.710974    602.68478   -4033.5206 
25488000     119.1652   -4536.3289   -4332.0839   -4536.3289            0    1254.9036    17.880597    23.436979    21.976286    9209.5403    1734.5311     909.2583    1120.9214   -635.36084    453.07803    -240.4513   -4163.5356 
25489000      115.233    -4530.726   -4333.2205    -4530.726            0    2849.0636    17.802577    23.437163    21.894251    9135.1991    2773.2213    3144.6854    2629.2842   -438.06734   -331.09718    321.49709   -3953.6469 
25490000    113.90542   -4530.3094   -4335.0794   -4530.3094            0    1807.4114    17.953613    23.307172    22.017614    9213.2256    2910.0863    1631.8501    880.29785     1059.027   -181.36637    59.578302   -4092.2258 
25491000     113.4883   -4541.6485   -4347.1334   -4541.6485            0    1907.6591    17.952895    23.037997    22.181445    9174.2179    1954.0782    2096.8453    1672.0537   -116.07179   -14.644739   -150.67602   -4091.8952 
25492000    115.56259   -4536.8255   -4338.7552   -4536.8255            0    2096.9971    17.900432    23.327172    21.967915    9173.0645    2001.9426    1569.5725    2719.4761    337.49485   -867.64964    102.55789   -4058.2195 
25493000    118.70689   -4527.9196     -4324.46   -4527.9196            0    2049.9041    17.838958    23.402961    22.016098    9191.3781    2960.3563    1170.4564    2018.8995   -81.714099   -163.22032    325.23936   -4049.6769 
25494000    118.12054   -4531.0297   -4328.5752   -4531.0297            0    2465.9462    17.887549    23.161635    22.108475    9159.6488    2209.4416     2615.145     2573.252   -78.740955      7.81044    393.78767    -3999.164 
25495000    116.68996   -4524.7694   -4324.7669   -4524.7694            0    1811.2768    17.963622    23.355362    21.946455    9207.5669    1986.4501    2098.0562    1349.3239   -576.08184    167.22403   -47.152445   -4081.5433 
25496000    116.00478   -4537.0112    -4338.183   -4537.0112            0    1381.4754    17.911339    23.369143    22.019343    9216.6943    1467.8413    1427.4795    1249.1052    86.464943    76.528805    140.23002   -4152.4905 
25497000    109.96601   -4527.2387   -4338.7607   -4527.2387            0     2354.393    17.867977    23.318212    22.048791    9186.6129    3195.0416    2173.4042    1694.7331     -160.236    253.83232   -434.10951   -4023.3254 
25498000     122.6353   -4534.4221   -4324.2294   -4534.4221            0    1824.6697     17.78654    23.447153    22.040724    9191.9461    2673.8822    1487.9073    1312.2196    -601.3346    160.75817    197.61716   -4079.6231 
25499000    110.91689   -4536.2423   -4346.1345   -4536.2423            0    2306.8355    17.945144    23.290406    21.957684    9177.2072    2098.7831    1358.4973     3463.226   -527.72565   -521.12129   -187.47286   -4037.3873 
25500000    127.12966   -4537.3446   -4319.4487   -4537.3446            0    1161.3201    17.841935    23.600241    21.916867    9228.6224    1250.5041   0.31592904    2233.1402   -282.85694    228.97573    135.77222   -4163.1467 
Loop time of 312.355 on 64 procs for 250000 steps with 864 atoms

Performance: 138.304 ns/day, 0.174 hours/ns, 800.372 timesteps/s
390.7% CPU use with 16 MPI tasks x 4 OpenMP threads

MPI task timing breakdown:
Section |  min time  |  avg time  |  max time  |%varavg| %total
---------------------------------------------------------------
Pair    | 24.322     | 27.414     | 34.064     |  49.9 |  8.78
Bond    | 1.5198     | 1.7915     | 2.8013     |  21.9 |  0.57
Kspace  | 164.48     | 172.07     | 176.91     |  26.0 | 55.09
Neigh   | 0.55556    | 0.58467    | 0.64506    |   3.8 |  0.19
Comm    | 37.895     | 41.223     | 44.149     |  27.6 | 13.20
Output  | 0.53454    | 0.53482    | 0.53627    |   0.1 |  0.17
Modify  | 49.231     | 54.814     | 63.655     |  60.1 | 17.55
Other   |            | 13.92      |            |       |  4.46

Nlocal:        54.0000 ave          60 max          48 min
Histogram: 5 2 1 0 0 0 0 2 1 5
Nghost:        2550.62 ave        2565 max        2542 min
Histogram: 4 0 2 3 3 1 1 0 1 1
Neighs:        13164.4 ave       14963 max       11696 min
Histogram: 5 2 1 0 0 1 1 1 4 1

Total # of neighbors = 210631
Ave neighs/atom = 243.78588
Ave special neighs/atom = 2.0000000
Neighbor list builds = 2457
Dangerous builds = 0

unfix		3
unfix		2
unfix		1

write_data	data.final.${pid} nocoeff
write_data	data.final.1 nocoeff
System init for write_data ...
PPPM initialization ...
  extracting TIP4P info from pair style
  using 12-bit tables for long-range coulomb (../kspace.cpp:340)
  G vector (1/distance) = 0.37175575
  grid = 24 27 25
  stencil order = 5
  estimated absolute RMS force accuracy = 0.0031575137
  estimated relative force accuracy = 9.5087586e-06
  using double precision FFTW3
  3d grid and FFT values/proc = 6300 1296
Last active /omp style is kspace_style pppm/tip4p/omp

write_restart   restart.lmp.${pid}
write_restart   restart.lmp.1
System init for write_restart ...
PPPM initialization ...
  extracting TIP4P info from pair style
  using 12-bit tables for long-range coulomb (../kspace.cpp:340)
  G vector (1/distance) = 0.37175575
  grid = 24 27 25
  stencil order = 5
  estimated absolute RMS force accuracy = 0.0031575137
  estimated relative force accuracy = 9.5087586e-06
  using double precision FFTW3
  3d grid and FFT values/proc = 6300 1296
Last active /omp style is kspace_style pppm/tip4p/omp
Total wall time: 0:05:12
