#include		in.partitions
include		in.temp
variable        temperature equal 90.22
variable	tempDamp equal 100.0
include		in.pressure
variable        pressure equal 2060.9
variable        pressureDamp equal 1000.0 # This is 1 ps
include		in.seed
variable        seed equal 745823

units		real
atom_style	full

read_restart	restart.lmp.${pid}
read_restart	restart.lmp.1
Reading restart file ...
  restart file = 30 Jul 2021, LAMMPS = 30 Jul 2021
  restoring atom style full from restart
  orthogonal box = (-9.1695200e-05 0.020257509 0.039886383) to (20.000093 19.979743 20.660112)
  4 by 2 by 4 MPI processor grid
  restoring pair style lj/cut/tip4p/long/omp from restart
  restoring bond style harmonic/omp from restart
  restoring angle style harmonic/omp from restart
  972 atoms
  648 bonds
  324 angles
Finding 1-2 1-3 1-4 neighbors ...
  special bond factors lj:    0        0        0       
  special bond factors coul:  0        0        0       
     2 = max # of 1-2 neighbors
     1 = max # of 1-3 neighbors
     1 = max # of 1-4 neighbors
     2 = max # of special neighbors
  special bonds CPU = 0.003 seconds
  read_restart CPU = 0.008 seconds
include 	in.setup
variable	out_freq equal 1000
variable	out_freq2 equal 10000
variable	out_freq3 equal 1000

timestep	2.0

neigh_modify    delay 7 every 1

include		in.tip4p
# This is TIP4P/Ice

# create groups ###
group ox type 2
324 atoms in group ox
group hy type 1
648 atoms in group hy

# set charges - beside manually ###
set group ox charge -1.1794
Setting atom values ...
  324 settings made for charge
set group hy charge 0.5897
Setting atom values ...
  648 settings made for charge

# ### TIP3P Potential Parameters ###
pair_style lj/cut/tip4p/long/omp 2 1 1 1 0.1577 8.5
pair_coeff 1 1*2 0.000 0.000
pair_coeff 2 2 0.21084 3.1668
bond_style  harmonic
bond_coeff  1 450 0.9572
angle_style harmonic
angle_coeff 1 55 104.52
kspace_style pppm/tip4p/omp 1.0e-5
pair_modify tail yes

thermo          ${out_freq}
thermo          1000
thermo_style    custom step temp pe etotal epair emol press lx ly lz vol pxx pyy pzz pxy pxz pyz enthalpy

restart 	${out_freq3} restart.lmp.${pid} restart2.lmp.${pid}
restart 	1000 restart.lmp.${pid} restart2.lmp.${pid}
restart 	1000 restart.lmp.1 restart2.lmp.${pid}
restart 	1000 restart.lmp.1 restart2.lmp.1


include         in.dump
dump            myDump all atom ${out_freq2} dump.water.${pid}
dump            myDump all atom 10000 dump.water.${pid}
dump            myDump all atom 10000 dump.water.1
dump            myDump2 all dcd ${out_freq2} dump.dcd
dump            myDump2 all dcd 10000 dump.dcd
dump_modify     myDump append yes
dump_modify     myDump2 append yes


variable natoms 	equal  "count(all)"                        # NUMBER ATOMS
variable H      	equal  "enthalpy/v_natoms"                 # ENTHALPY-per-atom
variable Vol      	equal  "vol/v_natoms"                 # volume-per-atom
fix AVG all 		ave/time ${out_freq} 1 ${out_freq} v_Vol v_H file vol_enthalpy.dat
fix AVG all 		ave/time 1000 1 ${out_freq} v_Vol v_H file vol_enthalpy.dat
fix AVG all 		ave/time 1000 1 1000 v_Vol v_H file vol_enthalpy.dat


timer           timeout 02:55:00 every 1000
New timer settings: style=normal  mode=nosync  timeout=02:55:00

fix 		1 all shake 1e-6 200 0 b 1 a 1
       0 = # of size 2 clusters
       0 = # of size 3 clusters
       0 = # of size 4 clusters
     324 = # of frozen angles
  find clusters CPU = 0.001 seconds
fix             2 all nph aniso ${pressure} ${pressure} ${pressureDamp}
fix             2 all nph aniso 2060.9 ${pressure} ${pressureDamp}
fix             2 all nph aniso 2060.9 2060.9 ${pressureDamp}
fix             2 all nph aniso 2060.9 2060.9 1000
fix             3 all temp/csvr ${temperature} ${temperature} ${tempDamp} ${seed}
fix             3 all temp/csvr 90.22 ${temperature} ${tempDamp} ${seed}
fix             3 all temp/csvr 90.22 90.22 ${tempDamp} ${seed}
fix             3 all temp/csvr 90.22 90.22 100 ${seed}
fix             3 all temp/csvr 90.22 90.22 100 745823


run             250000
PPPM initialization ...
  extracting TIP4P info from pair style
  using 12-bit tables for long-range coulomb (../kspace.cpp:340)
  G vector (1/distance) = 0.37151198
  grid = 24 24 24
  stencil order = 5
  estimated absolute RMS force accuracy = 0.0035944649
  estimated relative force accuracy = 1.0824624e-05
  using double precision FFTW3
  3d grid and FFT values/proc = 3211 432
Last active /omp style is kspace_style pppm/tip4p/omp
Neighbor list info ...
  update every 1 steps, delay 7 steps, check yes
  max neighbors/atom: 2000, page size: 100000
  master list distance cutoff = 10.8154
  ghost atom cutoff = 10.8154
  binsize = 5.4077, bins = 4 4 4
  1 neighbor lists, perpetual/occasional/extra = 1 0 0
  (1) pair lj/cut/tip4p/long/omp, perpetual
      attributes: half, newton on, omp
      pair build: half/bin/newton/omp
      stencil: half/bin/3d
      bin: standard
Per MPI rank memory allocation (min/avg/max) = 10.18 | 10.18 | 10.19 Mbytes
Step Temp PotEng TotEng E_pair E_mol Press Lx Ly Lz Volume Pxx Pyy Pzz Pxy Pxz Pyz Enthalpy 
32500000     92.29607   -5050.8483   -4872.8475   -5050.8483            0    1885.5539    20.000184    19.959486    20.620225    8231.4578    916.63894    2903.7173    1836.3056    -715.8519     1439.415   -597.43585   -4646.4917 
32501000    89.456681   -5074.1736   -4901.6488   -5074.1736            0    1488.4214    20.049625    19.975491    20.618293    8257.6491     22.96367    2278.7662    2163.5345    207.51429    326.19428   -993.03129   -4722.3992 
32502000    87.094149   -5063.8272   -4895.8588   -5063.8272            0    2255.7349    19.864549    20.008752    20.690267    8223.6533    2981.9737    1426.1201    2359.1108    91.145929    2.9843043   -183.52758   -4625.3205 
32503000    87.168142   -5068.9521    -4900.841   -5068.9521            0    3113.1642    20.012073    19.867712    20.649938    8210.2938    1587.0707    4400.7638    3351.6581    21.967221   -712.29737    876.14408   -4528.0747 
32504000    86.801562   -5078.1172   -4910.7131   -5078.1172            0    1460.5476    19.885684    19.899547    20.792592    8227.9636    2135.3968    1360.3347    885.91122    109.21989    817.69004    156.34313   -4735.4526 
32505000    88.524782   -5067.4289   -4896.7014   -5067.4289            0    1472.0254    20.050527    20.027842    20.595033    8270.3224    1211.4334    504.02549    2700.6175    267.82543    38.860594    781.95745   -4719.1543 
32506000     92.72627   -5070.3886   -4891.5582   -5070.3886            0    2968.6284    19.919283       20.085    20.569902    8229.5816    3052.8167    1700.0199    4153.0486    160.00876    95.329732    403.55295   -4535.2634 
32507000    89.205465   -5070.0093    -4897.969   -5070.0093            0    2098.8505    19.991774    19.832647    20.766131    8233.5595    2978.1994    2401.4887    916.86336   -23.080767    491.91824    348.10947   -4645.9432 
32508000    92.348789    -5074.242   -4896.1396    -5074.242            0    1834.3727    19.935017    19.936357    20.798664    8266.0467    1408.3736     2688.118    1406.6265   -21.010478   -159.54231    623.58211   -4675.0026 
32509000    95.891926   -5073.5454   -4888.6098   -5073.5454            0    2610.4507    19.972927    20.002804    20.626748    8240.6862    2670.3663    2289.3666    2871.6193   -83.198976    5.6079066   -104.19781   -4574.8807 
32510000    93.064148    -5073.451    -4893.969    -5073.451            0    1941.3833    19.895716    19.992517     20.76063    8257.8613    2525.9184    1934.9604    1363.2712   -159.99117    1257.6187     645.2454   -4660.1635 
32511000    88.836866   -5071.2443   -4899.9149   -5071.2443            0    2272.8484    19.942692    19.874116    20.788633    8239.4372    915.60768    3728.2938    2174.6438   -233.39929    24.509493     154.9633    -4626.801 
32512000    94.619052   -5062.9479   -4880.4671   -5062.9479            0    1652.9799    19.940634    20.030141    20.681657    8260.5373     2293.021    99.432303    2566.4865    13.616261   -184.34455     605.4331   -4681.3302 
32513000    94.063383    -5064.382   -4882.9729    -5064.382            0    3285.8805    19.892054    19.952301    20.714454    8221.4061    2382.9448    4148.1165    3326.5803    103.08458     1227.554   -232.33905   -4488.9933 
32514000    90.224848   -5076.5879   -4902.5817   -5076.5879            0    1834.9247    19.997311    19.868256     20.76247    8249.1721    1842.0789    2150.5194    1512.1757   -126.26467    78.901461   -872.52161   -4681.8298 
32515000    92.714516    -5080.588   -4901.7803    -5080.588            0    2629.7151    19.793637    20.032619    20.788905    8243.1829    3221.9785    1750.2908    2916.8761    137.50173   -250.68941   -485.19137   -4585.6402 
32516000    89.610673   -5073.0823   -4900.2606   -5073.0823            0     1156.187    19.939375    19.999808    20.750942    8275.1371    458.64684    1164.6478    1845.2664   -433.54297    1019.9375    309.64302   -4760.7269 
32517000    91.433532   -5073.6738   -4897.3365   -5073.6738            0    2102.5159    20.009639    19.887717    20.737832     8252.538     2213.703    2163.9989    1929.8458    92.788682    368.35138   -453.41037   -4644.2886 
32518000    85.409583   -5075.4529   -4910.7333   -5075.4529            0    1380.5136    19.902448     20.03784    20.823828    8304.5856    2370.1705    760.65041    1010.7199    181.23852    1048.6656   -286.89812    -4743.534 
32519000    88.322602   -5072.5335    -4902.196   -5072.5335            0    463.24302     20.04728    19.961456    20.810233    8327.6911   -58.847664    893.72661    554.85012    358.13688    471.48218   -56.184247   -4845.9347 
32520000    91.002039   -5072.6555   -4897.1504   -5072.6555            0    2932.6423    19.984127    19.919784    20.681292    8232.7986    2772.4083    2603.8548    3421.6637    -135.7944    546.02944     565.1707   -4545.0371 
32521000    88.120295   -5078.1561   -4908.2087   -5078.1561            0    1928.5675    20.063025    19.931805    20.781877    8310.5128    2056.5017    1222.3965    2506.8042   -144.69765     489.7491   -233.90933   -4674.4657 
32522000     92.08227   -5074.8722   -4897.2838   -5074.8722            0    1513.8335    19.970527    19.947186    20.897331    8324.5734    1229.6933    1823.1167    1488.6905   -755.56437   -430.68489    284.76093   -4713.4963 
32523000    85.860124   -5071.6867   -4906.0982   -5071.6867            0    2199.5205    19.864503    19.960555    20.822073    8256.0878    3067.6593    1974.2316    1556.6705    267.24834    -120.6998   -535.99808   -4641.2615 
32524000    92.828384   -5058.7685   -4879.7411   -5058.7685            0    3224.6125    20.031239    19.779499    20.776339    8231.7488    2774.7483    3899.1089    2999.9802   -455.78621    150.09512    747.30025   -4492.6212 
32525000     94.66421   -5072.8488   -4890.2809   -5072.8488            0    2292.1564    20.044902     20.00373    20.621264    8268.5659    1852.2296    1495.7621    3528.4774   -56.574418    291.83714    759.90233    -4613.873 
32526000    90.898038   -5061.9659   -4886.6614   -5061.9659            0    2289.3153    19.822802     19.95063    20.884758    8259.4496    1992.5598     2740.251     2135.135    100.86165     1445.618    791.37433   -4610.9006 
32527000    91.037589   -5063.3876   -4887.8139   -5063.3876            0      2438.88    19.926581    19.945226    20.812466    8271.7098    2833.7296    2259.8227    2223.0876   -558.34541    -959.0291   -527.27534   -4593.6011 
32528000    87.278059   -5072.2997   -4903.9766   -5072.2997            0    2009.7682    19.951978    19.923397    20.705358     8230.611    1918.0971    2073.9899    2037.2177   -183.07156     334.5131     913.7889   -4662.7341 
32529000    93.683486   -5074.2231   -4893.5466   -5074.2231            0    1661.4069    19.916944    19.909403    20.901172    8288.0349    2702.6176    1416.1582    865.44475   -250.00635   -83.366245    -421.7635   -4692.7283 
32530000     90.62838   -5067.0261   -4892.2417   -5067.0261            0    1364.7213    20.017126    19.936277    20.797828    8299.7265    1610.7092    858.32207    1625.1327   -385.32445    194.20296     1046.505   -4727.0517 
32531000    93.221169   -5068.2791   -4888.4942   -5068.2791            0    1809.5937    19.963798     20.02758    20.708274    8279.7181    2229.0557    1395.1837    1804.5418   -123.11426   -400.88092   -242.94515   -4669.9836 
32532000    90.574967   -5068.9192   -4894.2377   -5068.9192            0    1747.4131    19.953579    19.854567     20.84472    8258.0458    2156.9369    1631.9712    1453.3312   -527.90122    415.25414    274.01852   -4683.7878 
32533000    91.689212   -5071.3027   -4894.4723   -5071.3027            0    1619.2428    19.932679    19.956118    20.801257    8274.3011    2477.9315    709.40902     1670.388      292.511   -731.90165   -493.98019   -4699.0747 
32534000    86.761111   -5070.9293   -4903.6032   -5070.9293            0      2252.45    19.822504    19.981623    20.744758    8216.7042    2127.6409    2631.5625    1998.1466    23.104303    381.88849   -483.25548   -4633.6872 
32535000     85.30246   -5079.4364   -4914.9234   -5079.4364            0    1444.9528    20.080089    19.901462     20.78406    8305.7912    701.72954    2300.0959    1333.0328   -8.9919683    278.82917   -352.56944   -4739.8942 
32536000    88.320253   -5077.7285   -4907.3954   -5077.7285            0    1920.0606    20.047744    19.943435    20.669189    8263.9733    565.44322    2118.8193    3075.9193    125.15099   -448.32489    186.77424   -4675.9867 
32537000    91.401851   -5076.1805   -4899.9044   -5076.1805            0    2155.7809      19.8794    19.949187    20.800844    8249.1544    2312.8202    2314.2139    1840.3086   -221.24695    339.40587    1365.0623   -4640.5522 
32538000    91.982287   -5070.5743   -4893.1788   -5070.5743            0    1950.9118     20.02293    19.858327    20.728842    8242.2413    2680.3975    1225.4208    1946.9171    39.916439     726.5064    1077.1057   -4658.6701 
32539000    83.394498   -5065.5307   -4904.6974   -5065.5307            0    1437.4065    20.104253    19.907505    20.691963    8281.4513    1672.7428    602.77836    2036.6984    42.677335    779.30654    414.88281   -4731.0925 
32540000    90.123857   -5074.1185   -4900.3071   -5074.1185            0    2011.8624    19.924266     19.88509    20.846841    8259.4315    2249.4438    2005.6864    1780.4569   -728.76504    905.06144    166.19548   -4657.9675 
32541000    90.581947   -5073.0528   -4898.3579   -5073.0528            0    1826.0082    20.024054     19.96481    20.724908    8285.3296    1243.9392    2435.0838    1799.0015   -94.140471   -55.819095   -561.45926   -4677.7158 
32542000    90.167342    -5075.621   -4901.7257    -5075.621            0    1741.9356    20.045023    19.800347    20.797844    8254.6311    2105.7915    2372.6123    747.40296   -182.16288    94.650701   -582.34432   -4692.0222 
32543000    91.085781   -5067.4989   -4891.8323   -5067.4989            0    2350.4658    19.962095    19.828674    20.842039    8249.7351    2393.2171    2952.0993    1706.0809   -255.31741    401.43624   -279.28807   -4609.0385 
32544000    86.955483    -5076.225    -4908.524    -5076.225            0    2028.0769    19.985611    19.906894    20.742863    8252.5781    2116.4675    2645.2159    1322.5474   -204.69135   -499.16283    52.342767    -4664.434 
32545000    88.247594   -5082.1923   -4911.9994   -5082.1923            0     1617.992    19.940859    19.975881    20.815605    8291.6097      1315.68    1575.2761    1963.0199   -8.6582605    925.55233    291.64062   -4716.3443 
32546000    87.003908   -5072.6865   -4904.8922   -5072.6865            0    2297.7679    19.982812     19.92393    20.697657    8240.4854    2500.8595    1779.9887    2612.4557    73.799697    449.46456    240.74146   -4628.7487 
32547000    92.464611   -5077.2436   -4898.9178   -5077.2436            0     2169.869    19.911683    19.970991    20.682446    8224.4992    2387.0779    2002.0314    2120.4976   -85.035025   -801.70483   -370.80193    -4638.651 
32548000    83.425265   -5067.2301   -4906.3375   -5067.2301            0    3022.6679    19.909038    19.877784    20.705033    8193.9666     3497.151    3452.1709    2118.6819   -593.35019    69.923809    493.98251   -4545.1268 
32549000    95.101445   -5079.7638   -4896.3526   -5079.7638            0    1779.0759    19.981061    20.016505    20.696618     8277.633    851.03498    2429.6049    2056.5879   -525.15836   -325.12214   -452.10926   -4681.5812 
32550000    89.472575   -5078.9417   -4906.3863   -5078.9417            0    1478.3407    20.055206     20.05274    20.562388    8269.4079     2042.217    114.43623    2278.3688    -105.4746   -328.36551   -916.03524   -4728.0972 
32551000     95.08631   -5059.1069    -4875.725   -5059.1069            0    1155.3474    19.966618     19.92556    20.896769     8313.697    1477.4751    1423.8143    564.75277    213.31171    469.55973    53.519282   -4735.6429 
32552000    88.726149   -5078.5189   -4907.4031   -5078.5189            0    1877.2505    20.027021     19.98555    20.623558    8254.6002    1026.0912    1805.7007    2799.9596    160.14232    816.64165   -299.00001   -4681.4105 
32553000    87.499463   -5079.2529   -4910.5028   -5079.2529            0    1210.9071    19.956245    19.984037    20.704296    8257.0045    539.41151    1594.5762    1498.7336    126.44018    406.76821    730.82298   -4764.6855 
32554000    93.370928   -5068.4221   -4888.3484   -5068.4221            0    1507.5121     20.04571       19.913    20.727231    8273.6933    1958.6855    560.07424    2003.7766   -339.14611    1118.7718    834.77813    -4706.447 
32555000      88.9682   -5067.2151   -4895.6325   -5067.2151            0    1895.3434    19.965132    20.034972    20.643283    8257.3306    1201.0862    2533.1526    1951.7913    26.932966    156.32157    530.01667   -4667.3863 
32556000    92.126128   -5061.6732   -4884.0002   -5061.6732            0    1624.0154    20.028587    19.925313    20.707555    8263.8854    1926.6924    1777.1815    1168.1724    71.996612   -106.06599     1018.259   -4688.2734 
32557000    82.469594   -5067.6251   -4908.5756   -5067.6251            0    2093.2984    19.967409    20.033103    20.653908    8261.7528    2724.8015    529.01963    3026.0739    9.7520497    403.15947   -180.11109   -4656.3558 
32558000    88.875799   -5069.6735    -4898.269   -5069.6735            0    1660.6853    19.861344    20.008014    20.797535    8264.6505    557.19349    2823.7838    1601.0787    344.50645     -564.119    109.50363   -4698.1042 
32559000     88.82894   -5074.2831    -4902.969   -5074.2831            0    2288.6533     19.98074    19.939842    20.706136    8249.5898    2637.6676    1821.0565    2407.2359    108.56024   -273.71273   -209.67121    -4627.617 
32560000    91.549791   -5074.0688   -4897.5074   -5074.0688            0    1957.5328    19.961269    20.029576    20.600454     8236.386    1657.3439    1651.8774    2563.3769   -239.10732    107.26839    314.54299     -4662.37 
32561000    88.985028   -5064.8942   -4893.2791   -5064.8942            0    2303.8198    19.896374    20.016013    20.666625    8230.4023     2964.988    1476.3422    2470.1294    -214.7923    247.50685   -42.285845    -4616.747 
32562000    95.099709   -5067.5414   -4884.1336   -5067.5414            0    2375.8979    20.094547    19.838838    20.694733    8250.0062    1359.1547    2768.6397    2999.8993   -288.20005    464.46198   -602.73227   -4598.2706 
32563000    93.950495   -5071.4726   -4890.2812   -5071.4726            0    1906.2685    19.879121    20.068363    20.768774    8285.5243    3235.2225   -136.40901     2619.992    66.474001     793.6839    -245.9978   -4659.9356 
32564000    95.274069   -5081.7539   -4898.0098   -5081.7539            0    2344.1648    20.053663    19.918731      20.5803    8220.6676     1178.906    2506.4131    3347.1753    34.794852   -216.99787   -783.88759   -4616.9679 
32565000    91.335029   -5077.0993    -4900.952   -5077.0993            0    3437.4462     19.92658    19.878821     20.66759    8186.7817    2956.4349    3914.9722    3440.9316    116.97268    -1047.212    574.78034   -4490.5353 
32566000    94.737568   -5066.5972   -4883.8878   -5066.5972            0    1891.2434    20.127708    19.990287    20.568801    8276.0351    1353.3302    1314.0274    3006.3725   -356.23435   -441.83696    190.20889   -4655.6195 
32567000    87.179614    -5070.378   -4902.2448    -5070.378            0    1486.7231    20.030854    19.995788    20.589799    8246.8882    1345.7014     770.9393    2343.5287   -19.845299    1057.7514    325.85028   -4723.4331 
32568000     89.89087   -5071.3876   -4898.0255   -5071.3876            0    2358.7024    19.784448    19.920546    20.875436    8227.3641    2238.8802    3156.1104    1681.1165    -565.8675    -6.464904   -479.94216   -4615.0103 
32569000    89.461936   -5082.8628   -4910.3279   -5082.8628            0    2887.7947     19.97046    19.816066    20.733416    8204.9584    4101.8955    1377.0553    3184.4332   -40.841245   -466.19263    378.53957   -4564.7718 
32570000    92.451426   -5075.7025   -4897.4021   -5075.7025            0    1023.7633    20.079379    19.972306    20.711462    8305.9491    372.61994    1806.6165    892.05337    121.28441    227.25726    104.26578   -4773.3899 
32571000    91.144438   -5071.4416   -4895.6619   -5071.4416            0     2939.504     19.89761      19.9219    20.776755    8235.8677    3429.6235    2740.3926    2648.4959   -313.57088    348.36386     127.9927   -4542.5931 
32572000    93.165263   -5055.9181   -4876.2411   -5055.9181            0    2443.9692     19.95318    19.940687    20.796223    8274.4036    2565.1768    2111.9269    2654.8038    429.86105     231.3154    -673.5333   -4581.3183 
32573000    89.936373   -5085.5329    -4912.083   -5085.5329            0    349.47774    19.955522    19.925767    20.854192    8292.2332    815.23372    609.82829   -376.62881   -488.13809    128.33369   -320.30894   -4869.8194 
32574000    89.841268   -5079.5885    -4906.322   -5079.5885            0      1871.37     19.88617    19.992989    20.767176    8256.6968    2138.4024    1318.2998     2157.408     18.89267    498.29573    452.12372   -4680.9802 
32575000    89.257888   -5075.0284    -4902.887   -5075.0284            0    1972.2326    19.956056    19.867518    20.841228     8263.074    1237.1975    2778.1921    1901.3083   -54.934164   -555.16693    30.275304   -4665.2163 
32576000     95.23967   -5083.5071   -4899.8294   -5083.5071            0    2089.1463    20.003686     19.82267    20.828035    8258.8673    2471.7192    1935.1165    1860.6032   -80.933157   -516.96194    535.41299   -4648.1978 
32577000    85.885661   -5079.4381   -4913.8004   -5079.4381            0    2253.5843    20.018515    19.948724    20.748093    8285.6229    1995.4307     2356.771    2408.5511    234.37725    302.99691    374.36856   -4641.4833 
32578000    95.496587   -5069.5804   -4885.4072   -5069.5804            0    2773.3917     19.97998    19.917364    20.753045    8258.6437    3702.3038    1975.5309    2642.3405   -371.53836   -254.05495    95.739073   -4551.3693 
32579000    88.308051   -5075.3871   -4905.0776   -5075.3871            0    2253.4746    19.934474    19.927597    20.731989     8235.703    1370.4815    3000.2494    2389.6929   -30.300474    460.16359    124.63386   -4634.4144 
32580000    95.159935   -5075.1781   -4891.6542   -5075.1781            0    2374.1986    19.982587    20.013876    20.623317    8247.8629    2045.2359    2251.2132    2826.1466   -27.104459    751.54194   -632.08985   -4606.0698 
32581000    93.868618   -5074.1034   -4893.0699   -5074.1034            0    1982.9357    20.017701    19.877289    20.617294    8203.5726     1348.094    2659.3052    1941.4081    362.99488    738.98992    127.39943   -4655.8301 
32582000    89.156324   -5077.9852   -4906.0397   -5077.9852            0    1880.6607    20.070924    19.914432    20.616463     8240.422    1713.1121    1311.8179    2617.0523    358.34628    1020.1493   -165.23558   -4680.0255 
32583000    91.282011   -5067.3778   -4891.3328   -5067.3778            0      3029.72     19.93458    20.015062    20.664268    8244.8743    2937.8504    3096.0651    3055.2444   -544.28895   -335.90616   -24.512798   -4527.0301 
32584000    93.735381   -5064.8354   -4884.0588   -5064.8354            0    2457.9291    19.938143    19.967761    20.745539    8259.2157    1681.5886    2820.6619    2871.5368   -607.49836    619.69304   -131.51402   -4587.9959 
32585000    88.865041   -5078.0024   -4906.6187   -5078.0024            0    1445.0383    19.978531    19.879889    20.835813    8275.3803    1759.7544    1486.8614     1088.499   -135.22438    408.23835     455.2101     -4732.22 
32586000    85.235704   -5068.3125   -4903.9283   -5068.3125            0    1006.1595     19.94398    20.056484     20.71346    8285.5109    694.69552    1149.3046    1174.4784    34.776901   -11.516078   -481.20237   -4782.3483 
32587000    89.713324   -5076.5808   -4903.5611   -5076.5808            0    2063.5117    19.849244    19.998903    20.705389    8219.2755     2767.821    858.45916     2564.255    -265.4704    656.24601    133.25265   -4656.2085 
32588000     91.55622   -5077.2141   -4900.6402   -5077.2141            0    1045.7101    20.078237    19.937308     20.77331    8315.6804    1859.2841    333.69151    944.15478    -28.34633    577.17445   -16.489741    -4773.821 
32589000    88.437435    -5087.192    -4916.633    -5087.192            0    2651.5186    19.960002    19.959637    20.662088    8231.6601    2699.6193    1700.5972    3554.3392   -15.947252    1169.8997    490.35945   -4598.3173 
32590000    91.112821   -5078.7024   -4902.9836   -5078.7024            0    1725.2069    20.043408    19.952545    20.585176    8232.3615    1415.1576    1602.6437    2157.8195    283.41244    910.45704   -358.16797   -4695.8543 
32591000    88.109856   -5071.0125   -4901.0853   -5071.0125            0    3008.7631    20.033408    19.748283    20.724833    8199.2704    2459.1821    3462.5126    3104.5947   -468.31145    702.17917    354.42033   -4541.3035 
32592000    88.836242   -5073.4036   -4902.0754   -5073.4036            0     2184.775    19.918151    19.899591    20.819639    8252.1359    3662.2726    1349.7839    1542.2686    143.46931    123.68834    138.59801   -4639.1401 
32593000    97.762595   -5080.1323   -4891.5889   -5080.1323            0    996.90119    19.943873    19.865029     20.89316    8277.5696      1006.29    1546.5344    437.87915   -2.3722384   -448.25988   -68.736946   -4771.2432 
32594000    92.238398   -5076.8087   -4898.9192   -5076.8087            0    1810.0119    19.914791    19.937101    20.881085    8290.6927    3141.3547     786.6443    1502.0367    200.25938    110.98628    561.25301   -4680.0684 
32595000    88.553345   -5083.0166    -4912.234   -5083.0166            0    2158.6374    19.908747    19.825427     20.95269    8270.0148    1923.1752    3401.8471    1150.8897   -244.85637      -98.571    373.57412   -4651.8815 
32596000    96.345286   -5079.6486   -4893.8386   -5079.6486            0    1627.2175    19.850466    19.954446    20.824718    8248.7763    3214.0038    523.72355    1143.9251    164.67212    100.87168    39.539068   -4698.0844 
32597000    90.774025   -5075.2555   -4900.1901   -5075.2555            0    2932.4334     20.00149     19.88487    20.774417    8262.5471    2995.9481    2486.6477    3314.7045   -497.22124   -201.15613   -326.76918   -4546.8296 
32598000    92.306461   -5077.4284   -4899.4076   -5077.4284            0     2633.421     20.04477    19.840619    20.746329    8250.8286    1948.4481    3360.0801    2591.7349   -289.26163    441.39495    947.59307   -4582.5284 
32599000    88.069912   -5069.4676   -4899.6173   -5069.4676            0    2118.5246    19.883337    20.099519    20.635698    8246.9637    2948.2552    1413.0292    1994.2894   -198.81223    248.63809    -370.0299   -4644.8149 
32600000    86.039236   -5067.3082   -4901.3743   -5067.3082            0    2494.7347    19.949371    19.966759    20.706711    8247.9857    1847.4145    3422.5423    2214.2474   -315.08989    231.13299    424.92285   -4601.2867 
32601000    82.459879   -5072.9126   -4913.8818   -5072.9126            0    2736.7787    19.962711    19.985948    20.644384    8236.5663    3217.2849    2364.4661    2628.5851   -260.88455    851.20481   -71.007344   -4585.1348 
32602000    88.975443   -5070.3235   -4898.7268   -5070.3235            0    1947.7796     19.95839     20.07088    20.593243    8249.2917    1772.9572    2468.4586    1601.9229    -396.4803    687.02788    698.08598   -4664.3944 
32603000    93.099222   -5075.7146    -4896.165   -5075.7146            0    1528.5186    20.027677      19.9591    20.719312    8282.2219    1691.1152    1614.0841    1280.3564    188.39835    846.21952   -807.28566   -4711.5387 
32604000    91.695744   -5068.2554   -4891.4124   -5068.2554            0    3016.5913    19.968359     19.88437     20.64654     8197.879    2348.2854    3736.7322    2964.7563     10.92517    589.28366   -682.26778   -4530.7558 
32605000     90.96235   -5056.4725    -4881.044   -5056.4725            0    2684.6072    19.942089    19.918271    20.673451    8211.7414     2074.791    2906.8695     3072.161    -382.8319    877.91956   -800.04528   -4559.5359 
32606000    87.203563   -5077.0002   -4908.8207   -5077.0002            0    1358.1598    20.114134    19.898844     20.59693    8243.8806    115.60522     1485.568    2473.3063   -175.00006   -377.83968    795.80741   -4745.5312 
32607000    90.097747    -5069.187   -4895.4259    -5069.187            0     2088.252    20.114511     19.96355    20.571031    8260.4425    2216.2011    778.83981     3269.715   -284.66949    51.139556    83.409398    -4643.854 
32608000    90.302419   -5064.1321   -4889.9763   -5064.1321            0     2195.518    19.926552    19.947435    20.753419    8249.1436    2451.7087     2471.037    1663.8082   -104.78567    573.94056   -688.22686   -4625.8439 
32609000     89.40025    -5072.822   -4900.4061    -5072.822            0    1143.5358    20.028815    20.013875    20.702722    8298.7733    1281.5632    506.62352    1642.4206    21.373504    570.35934    24.399253    -4762.005 
32610000    92.326117   -5068.9858   -4890.9271   -5068.9858            0    1675.4207    19.992435    20.176509    20.565712    8295.7465    2715.7655   -567.35699    2877.8537   -138.53662    248.13321     741.1311   -4688.2264 
32611000    95.879788   -5073.4597   -4888.5474   -5073.4597            0    2222.7369    19.991678    20.041834    20.571456     8242.363    3597.2326    756.96028    2314.0178   -321.60716    -339.6213   -442.15363   -4621.3602 
32612000    91.418031   -5070.1088   -4893.8014   -5070.1088            0    1778.0071    20.125307    19.959066    20.601675    8275.3286    1992.5187    875.05008    2466.4526   -284.00409    697.70612   -13.729855   -4679.2187 
32613000     89.18688   -5077.8131   -4905.8087   -5077.8131            0    2748.5466    19.958662     19.86487    20.671577    8195.7892    1849.6657    3863.3882     2532.586   -81.608273    780.94039    -242.4529   -4577.2827 
32614000    91.345417    -5069.355   -4893.1877    -5069.355            0    2685.5024    20.082534     19.85582    20.612349     8219.281     1799.824    3155.2641    3101.4192   -282.27131    1630.2135     197.6516   -4571.2771 
32615000     91.77879   -5076.2096   -4899.2065   -5076.2096            0    1922.3225    19.972337    19.921021     20.74681    8254.5201    1342.7302    1729.6638    2694.5736   -112.97316    46.904346   -370.93819   -4667.7901 
32616000    84.502899    -5071.504    -4908.533    -5071.504            0    1730.2563    19.892018     19.83371    20.867406    8232.8702    2158.8444    1647.6844    1384.2401   -201.89162    -763.6701     367.4238   -4700.7846 
32617000    88.186533   -5081.7431    -4911.668   -5081.7431            0    887.65004    19.945996    20.043158     20.78031    8307.5677    602.25898    591.37177    1469.3194    317.46047   -425.76639   -507.86173   -4804.1226 
32618000    83.547563   -5064.1251   -4902.9966   -5064.1251            0    3388.5352     19.95285    19.896474    20.694406    8215.5006    3199.4096    3360.7537    3605.4422   -322.49348    156.61612    11.608463   -4497.0004 
32619000    88.279812   -5076.3587   -4906.1037   -5076.3587            0    2428.3788    19.937383     19.90007     20.76546    8238.8068    1484.1392    3590.0453    2210.9519    241.63829    1113.3451    692.14209   -4614.3229 
32620000    86.973947   -5065.1688   -4897.4322   -5065.1688            0    2164.1921    20.016253    19.964297    20.738496    8287.3192    2485.8852    1540.3586    2466.3324    176.44239    216.08559    697.18955   -4635.8635 
32621000    86.261094    -5078.601   -4912.2393    -5078.601            0    2630.9852    20.066304    19.831826    20.753692    8258.9621     2138.895    3555.4257    2198.6351   -326.22578   -62.773772    190.10685   -4595.3411 
32622000    88.271569   -5058.8014   -4888.5623   -5058.8014            0    2261.6269    19.938669    19.959655    20.770044    8265.8332    2075.5634    2212.7051    2496.6121   -347.93144    -61.56802    475.87537   -4615.9261 
32623000    89.469783   -5069.9117   -4897.3617   -5069.9117            0    2303.8604    19.922443    19.969459    20.685786    8229.6419    2674.2776    2251.1579    1986.1458   -111.54659    149.50411    182.47954   -4620.8503 
32624000     88.76301   -5068.8857   -4897.6987   -5068.8857            0    1238.3558    20.081459    19.990755    20.654522    8291.6241    1015.8881    1393.5212     1305.658   -734.13347   -250.70208   -402.03679   -4747.9508 
32625000    91.474713   -5065.9542   -4889.5375   -5065.9542            0    1746.1049    19.957737    19.791325    20.840709    8231.8729    2139.5432     2139.094    959.67746    17.544531    220.41239   -289.37733   -4679.9116 
32626000    88.176062   -5083.4852   -4913.4303   -5083.4852            0    2248.4147    19.968315    19.952103    20.669222    8234.8219    3950.2323     717.1055    2077.9062   -61.474441    503.69513   -202.61771   -4643.4037 
32627000    90.079153   -5074.4321   -4900.7069   -5074.4321            0    2160.9071    19.955218    19.914159    20.743245    8243.1871    1460.5476    3400.1176    1622.0562   -151.03668   -26.576672   -257.33965    -4640.926 
32628000    91.056399    -5077.571   -4901.9611    -5077.571            0    3446.7651    20.011793    19.977663    20.556593     8218.297    2533.9059    3981.6404    3824.7489   -312.37547   -577.65441   -519.94052   -4488.8476 
32629000    96.034915   -5069.4978   -4884.2864   -5069.4978            0    1700.0902    19.962916    20.021205    20.744306    8291.1181    1614.6963    1605.4102     1880.164   -122.34444    98.953094    192.45485   -4678.7158 
32630000    84.900204     -5077.52   -4913.7828     -5077.52            0    1894.2332    19.995307    19.812527    20.862123    8264.6876    2647.9932    2453.1793    581.52693   -75.324089   -145.45455    654.47631   -4685.4671 
32631000    86.879176   -5081.2234   -4913.6696   -5081.2234            0    2947.2634    19.991168    19.951727    20.677141      8247.25    2108.1502    3597.3186    3136.3215   -76.672589     160.6028     300.8233   -4559.1796 
32632000    93.259888   -5065.6364   -4885.7769   -5065.6364            0    2927.5418    19.981189    19.854993     20.74152    8228.7078    2570.5717    3544.4141    2667.6395   -142.06181   -316.89025    297.91421   -4534.4506 
32633000    93.683007   -5068.8086    -4888.133   -5068.8086            0     1259.369    20.201371    19.804076    20.736147       8295.9   -571.72161    2676.1299    1673.6988   -63.974766    371.07241    300.88474   -4735.7655 
32634000     88.61089   -5074.0075    -4903.114   -5074.0075            0    2619.8593     19.88399    19.920212    20.759967    8222.8838    2521.5634    2249.1403    3088.8741    -389.1429    252.20399    37.719998   -4588.9344 
32635000    90.840441   -5079.1204    -4903.927   -5079.1204            0    1976.2176    19.892516    19.884811    20.853743    8248.8838     2695.542    1977.4222    1255.6886   -550.89945   -222.69488    128.98856    -4666.185 
32636000     92.52057   -5074.0305   -4895.5968   -5074.0305            0    2395.7956    19.834809    19.922561    20.857647    8242.1118     3593.465     2056.031    1537.8908   -46.884573   -505.74589    84.874707   -4607.6156 
32637000    88.304169   -5075.6258   -4905.3238   -5075.6258            0    2239.0099    19.894086    19.837524    20.872168    8237.1887    2197.9899    2497.5013    2021.5386   -249.16549   -167.93123   -141.24779   -4636.3494 
32638000    86.728895   -5073.9688   -4906.7048   -5073.9688            0    1620.4288    20.015593    19.855378    20.867229    8292.9954    178.72259    3180.9307     1501.633   -193.40183   -106.87323    582.03566   -4710.7223 
32639000    86.717695   -5083.1965   -4915.9542   -5083.1965            0    2766.4424    19.902824    19.984335    20.678216    8224.6509      2544.07    2650.7637    3104.4935   -37.873339    141.91594   -449.83229   -4584.1247 
32640000    88.853156   -5067.1358    -4895.775   -5067.1358            0    1857.4822    19.926513    20.011492    20.664668    8240.2275    1849.3386    1449.0114    2274.0966    336.87486    50.764714   -776.53917   -4672.5516 
32641000    90.815062   -5078.4033   -4903.2588   -5078.4033            0    1975.0192    20.038076    19.960356    20.635771      8253.63    795.83132    3096.8652    2032.3611   -181.07958    658.18878   -23.797102   -4665.5243 
32642000    90.685347   -5076.0191   -4901.1248   -5076.0191            0    2040.1146    19.972258    19.940384    20.692035    8240.6958    1507.0073     2348.643    2264.6935   -113.22282   -844.33145    80.504122   -4655.9396 
32643000    88.442081   -5072.8194   -4902.2515   -5072.8194            0     2667.213    19.976503    19.928325    20.682985    8233.8598    2114.6686    3310.0335    2576.9369    40.212971   -235.89436    53.526427   -4581.9661 
32644000    94.007996   -5083.2516   -4901.9492   -5083.2516            0    1998.3842    20.107517    19.898865    20.691992    8279.2133    2839.4666    712.08967    2443.5965    90.207307   -499.75205    219.39264   -4660.6567 
32645000    89.142986   -5071.3797   -4899.4599   -5071.3797            0    2392.1882    19.960499     19.95023    20.676626    8233.7748       2105.3    2474.7705    2596.4941    39.143378    49.647562    805.39603   -4612.2032 
32646000    86.020116   -5072.7345   -4906.8374   -5072.7345            0    724.52823    20.017298    20.037578    20.734008    8316.3727   -22.888944    705.07578    1491.3979   -283.41188    303.37279    256.82159   -4818.9625 
32647000    84.002886   -5071.6708   -4909.6642   -5071.6708            0    2896.8205    19.924897    19.842298     20.77862    8214.9467    2667.0097    3959.4358    2064.0161   -250.19336    536.84412    840.73479   -4562.6061 
32648000    85.986542   -5070.5157   -4904.6834   -5070.5157            0    2597.8716    19.933934     19.80078    20.925962     8259.633    2035.9255    3848.6246    1909.0648     58.79502   -861.50643    33.096611   -4591.7483 
32649000    91.586689   -5070.2096    -4893.577   -5070.2096            0    2383.6175    19.967616    19.935329    20.734374    8253.5454    1966.3404    3022.6402    2161.8718    36.433261    204.45072    207.61574   -4606.6622 
32650000    93.354557    -5083.332   -4903.2898    -5083.332            0    1944.9362     19.95103    19.906402    20.756377    8243.4621    1295.3104    2226.5476    2312.9506   -69.372738    1213.2084   -407.04031   -4669.4649 
32651000    93.596343   -5068.8785     -4888.37   -5068.8785            0    1325.8221    19.981124    19.964478    20.777157    8288.2718    1102.0846    2200.8047    674.57693   -345.98227    155.01008    370.20295   -4728.1101 
32652000    90.910564   -5067.6079   -4892.2792   -5067.6079            0    2476.2566    19.943275    20.054384     20.55687    8221.7224    3784.1901    621.35884    3023.2209    26.508876     56.45615   -46.608749   -4595.3627 
32653000    90.742101   -5075.4364   -4900.4326   -5075.4364            0    1819.6415    19.945955    19.988088     20.68334    8246.0648    2026.5627    1181.5125    2250.8493   -188.30021   -72.588973    735.32281   -4681.6018 
32654000    93.288514   -5077.8903   -4897.9755   -5077.8903            0    2590.9615    19.862741    20.009013     20.66023    8211.0747    2079.9002    2631.7157    3061.2685    270.21973   -399.14329    616.01824   -4587.7076 
32655000    89.415984    -5074.685   -4902.2387    -5074.685            0     1689.253    20.012957    19.902899    20.842991     8302.094    988.31026    2537.8656    1541.5832   -74.396816     139.7804    66.429083   -4697.7081 
32656000    85.330705   -5070.6264    -4906.059   -5070.6264            0    2301.0303    19.851137    19.929468     20.80208    8229.7729     2852.046    2246.8413    1804.2034   -380.12389    745.84941   -283.88778   -4629.8829 
32657000    91.469157    -5072.711   -4896.3051    -5072.711            0    2039.1521    19.842413    20.060718    20.734616    8253.4774    3312.2391    715.46401    2089.7531    442.98885    -47.68373   -150.72576   -4650.8554 
32658000    84.233384   -5074.2744   -4911.8232   -5074.2744            0     2346.493    19.943612    19.984344    20.684627    8244.0647    1682.1148    3087.7342    2269.6302   -261.64255    349.68597    334.37619   -4629.7015 
32659000    89.207374   -5080.0467   -4908.0028   -5080.0467            0    1549.0223    20.046783     19.82985    20.874079    8297.9621    1301.2528    2235.7128    1110.1014     -329.723   -400.19289     76.73337   -4720.5443 
32660000    92.633829   -5075.4675   -4896.8154   -5075.4675            0    2802.9585    19.923392    19.927986    20.776115    8248.8047    3303.5894    2647.8734    2457.4126   -600.15908    250.36396    741.17131   -4559.6185 
32661000    87.998845   -5075.2361   -4905.5229   -5075.2361            0    1883.3823    19.937863     19.91174    20.806094    8259.9679    2225.9951    1986.5545    1437.5972   -124.09829    181.22677    1384.0249   -4678.6448 
32662000    87.609397   -5067.9013   -4898.9392   -5067.9013            0    1910.5427    19.967997     19.84971    20.909158    8287.5321    1030.0723     3189.256    1512.2997   -123.14095   -168.60575   -1680.1562   -4668.0212 
32663000    93.304648    -5077.455   -4897.5092    -5077.455            0    1836.5025    20.020058    19.989082     20.72203    8292.5958    1647.6605    2002.8328    1859.0142   -81.518347     143.5319   -775.93863   -4675.4044 
32664000    91.397233    -5084.733   -4908.4657    -5084.733            0    1463.3586    20.042943    19.943942    20.747456    8293.4905    1381.9228    1256.7446    1751.4083   -365.07731    192.27878   -893.53063   -4731.4695 
32665000     90.32523   -5076.5394   -4902.3396   -5076.5394            0    1186.5832    20.031108    19.972604    20.771704    8310.2059    629.89037    1705.4844    1224.3748     457.8052    289.42999    411.59978   -4758.5307 
32666000    90.670028   -5068.7751   -4893.9104   -5068.7751            0    1786.1326    19.849321    19.949378    20.778462     8227.889    1982.3191    1827.2117     1548.867   -303.66427   -23.370593    776.44782   -4679.5828 
32667000    92.084228   -5077.1094   -4899.5173   -5077.1094            0     1842.955    20.013834    19.923376    20.685293    8248.1185    1510.9142    2594.7025    1423.2483   -257.90489    903.99153   -298.05696   -4677.8276 
32668000    92.534455   -5066.3038   -4887.8434   -5066.3038            0    1708.9206    19.920091    19.984201    20.822783    8289.2812    1862.2417    1564.9567    1699.5635   -34.536508    256.96889     696.9049   -4681.2508 
32669000    94.066954   -5068.7489   -4887.3329   -5068.7489            0    2186.7449    19.957008    19.815885    20.895606    8263.4972    2754.8392     1990.019    1815.3764   -59.799117   -1205.7261   -76.369991   -4623.7981 
32670000    93.737042   -5076.6487   -4895.8689   -5076.6487            0    3036.3216    19.898414    19.946483    20.766937    8242.4669    3427.4382    3040.9498    2640.5767   -188.96223    151.00775    210.14282    -4530.879 
32671000    93.141887   -5073.0775   -4893.4456   -5073.0775            0    2280.3147    19.928595    19.905366    20.782698    8244.2045    2139.7391    2813.0318    1888.1733   -103.68224    -156.1228    82.944726   -4619.2759 
32672000     90.41494   -5077.1328     -4902.76   -5077.1328            0    2523.8909    19.961172    19.893369    20.773203    8248.9341    2040.6358    3184.0856    2346.9512    263.33476   -133.25333     271.4664   -4599.1303 
32673000    87.767508    -5077.386    -4908.119    -5077.386            0     2525.357    19.850094    19.974934    20.818967    8254.8108    2843.3969     2694.126    2038.5482   -290.55876    187.51914   -530.58731   -4604.0964 
32674000    91.355897   -5077.4119   -4901.2243   -5077.4119            0    1381.3174    20.079846    19.917073    20.667962    8265.7741    564.22785    1998.6901    1581.0344    12.855224    1144.0501     124.3341   -4734.7095 
32675000    86.717199   -5068.8899   -4901.6485   -5068.8899            0    732.66539    20.035151    19.898218    20.790918    8288.5865    70.290848    1549.7905    577.91479    52.926732   -944.85974   -470.23749   -4813.0835 
32676000    91.579096   -5086.2547   -4909.6367   -5086.2547            0    971.87947    20.010365    20.000342    20.681692    8277.1055    1583.5575    529.23778    802.84313    192.45655    288.95006    215.13115   -4792.3181 
32677000    90.599743    -5072.462   -4897.7328    -5072.462            0    2130.5506    20.013014    19.859913    20.827791    8278.1451     1200.993    2577.3531    2613.3058    49.755741     51.34104   -181.58837   -4640.5152 
32678000    89.583322   -5069.6479   -4896.8789   -5069.6479            0    2489.5219    19.903857     19.88117    20.790414    8227.0153    3173.7024    2219.6712     2075.192   -393.36394   -173.25973   -129.21157   -4598.1796 
32679000    91.025729   -5065.7738    -4890.223   -5065.7738            0    1385.3115    19.962807    20.084191     20.73826    8314.7322    1603.3218    1100.1156    1452.4971    260.95105    294.15839    103.63501   -4722.2376 
32680000     90.20787   -5068.0138   -4894.0404   -5068.0138            0    2026.5317    19.945043    19.941184    20.755014    8254.8456    2632.9796    1159.7053    2286.9102    1.0720542   -22.267663    366.57421   -4650.0693 
32681000    87.064755   -5069.2803   -4901.3686   -5069.2803            0    2278.2086    19.899692     19.84667    20.918884    8261.7585    2096.5106    3165.2545    1572.8607    4.6611558   -330.82015    313.95685   -4626.8689 
32682000    87.978027   -5071.6125   -4901.9395   -5071.6125            0     1865.144    19.892327    20.066678    20.759487    8286.6247    1417.7191    2057.5571    2120.1557   -566.61764   -127.17054   -459.86934   -4676.5333 
32683000    84.678629   -5071.8415   -4908.5316   -5071.8415            0    2835.9161    19.872058    19.871194    20.849355    8233.0246    4517.3863    1592.6283    2397.7336   -197.96922    705.85459   -242.18496   -4568.0225 
32684000    88.215264   -5079.8208   -4909.6902   -5079.8208            0    1807.5236    19.860001    19.975895    20.828038    8262.9263    2344.4243    1902.8149    1175.3316    230.42188    430.00813    607.47108   -4691.8722 
32685000    93.813389   -5072.0136   -4891.0866   -5072.0136            0     1640.238     19.95014    20.048716    20.737758    8294.5784    721.00496    1912.6705    2287.0385    288.47219    868.87461    570.18617   -4692.6704 
32686000    92.274978   -5068.0452   -4890.0851   -5068.0452            0     2638.869    19.868554    19.876096     20.88888    8249.2128    3748.4979    2458.1146    1709.9944    350.83283   -328.08716   -159.04326   -4572.6125 
32687000     88.35021    -5075.357   -4904.9662    -5075.357            0    1829.0216    19.840596    20.009046    20.780958    8249.8616    2685.6648    1470.2328    1331.1671   -90.959826    1116.8053   -807.90965   -4684.9061 
32688000    94.090543   -5071.7629   -4890.3014   -5071.7629            0    3183.9917    19.907884    19.816495    20.722535    8175.1329    2612.4884    4242.6963    2696.7905    176.83772    650.95014    664.78681    -4510.687 
32689000    90.538015   -5085.3172   -4910.7071   -5085.3172            0    2099.5862    19.939453     19.88217    20.880338    8277.7928    2226.5726    2265.4465    1806.7394    447.50333    748.83059   -179.80494   -4657.2385 
32690000    94.622632   -5068.8814   -4886.3937   -5068.8814            0    3002.9427    19.819165    19.966452    20.758545    8214.5385    3282.5748    3179.9571    2546.2962    358.21187    798.31935   -142.83633   -4526.6393 
32691000     89.02328   -5071.4703   -4899.7815   -5071.4703            0    1334.1026    20.099262    19.937688    20.717093    8302.0191    1377.0032    852.57685    1772.7279   -23.087783    726.94675    421.56301   -4738.2531 
32692000    88.997207   -5068.1718   -4896.5332   -5068.1718            0    2602.3335    19.924887    19.912718    20.742886    8229.9198    3663.4513    1903.7224    2239.8269   -197.69023    71.250701    -164.2681   -4584.1883 
32693000    89.907064   -5070.8131   -4897.4198   -5070.8131            0    2872.4967    19.864705    19.936719    20.725458     8208.049    3076.2878    2877.3229    2663.8795   -142.15683    -160.0993    36.517976   -4553.5648 
32694000    91.781359   -5066.9364   -4889.9284   -5066.9364            0    2262.3056     19.93218    19.906251    20.828889    8264.3819    2265.5021    2681.6889    1839.7257   -197.65903    1043.5421    658.26355   -4617.2582 
32695000    91.276658   -5072.2284   -4896.1937   -5072.2284            0    3303.3943    19.898237    19.977599    20.720159    8236.6569    3126.9341    3385.1699    3398.0789   -313.53195     781.1276    28.823547   -4499.3794 
32696000    91.784403   -5078.4058   -4901.3918   -5078.4058            0    2300.7585    19.897854    19.991928    20.725514    8244.5359    2974.0918    1339.1509    2589.0328   0.37139951    239.36614   -37.248751    -4624.753 
32697000    87.516566   -5068.6716   -4899.8885   -5068.6716            0    2175.4383    19.877525    19.918946    20.849034    8254.9525    2379.4066    2307.9289    1838.9793    208.43637   -156.98831   -636.60799   -4637.9875 
32698000    92.131745   -5075.7898    -4898.106   -5075.7898            0    2026.1865    19.881951    19.987551    20.822283    8274.5982    2369.0538    2411.7105    1297.7952   -47.434972    913.74502    832.87976   -4653.5928 
32699000    93.318053   -5069.1555   -4889.1838   -5069.1555            0    2880.0479    19.898415     19.92305    20.710823     8210.539    3376.4728    2181.3701    3082.3009   -288.10759     855.1805    433.03476   -4544.3203 
32700000     89.55964   -5073.6986   -4900.9753   -5073.6986            0    3950.8955    19.848361    19.903551    20.781479    8209.7829    4312.9495    4521.3307    3018.4061    39.757164    1167.6886     649.6587   -4427.9296 
32701000    88.778082   -5072.2006   -4900.9846   -5072.2006            0    2753.8944     19.89567    19.927114    20.786823    8241.2125    4291.1109    1935.0941    2035.4781   -418.26874   -474.70341   -44.822143    -4569.995 
32702000    90.107405   -5071.5973   -4897.8176   -5071.5973            0    1183.0744    20.000474    19.863543    20.760824    8247.8659    522.35194    1828.6992    1198.1722   -197.65332   -344.78993   -101.07802   -4755.5095 
32703000    86.126968    -5073.311   -4907.2079    -5073.311            0    1265.3359      19.9316    20.031577    20.778198    8295.9322    1085.3791    1506.2232    1204.4054   -87.425222    127.47373   -580.42836   -4754.1179 
32704000    84.701612   -5070.5557   -4907.2015   -5070.5557            0    2004.7705     19.97515    19.995443    20.657799    8250.9722     2394.162    1373.2322    2246.9172   -21.759809    54.667231    1021.7186   -4665.9635 
32705000    86.874776   -5082.5866   -4915.0413   -5082.5866            0    1368.8501    20.012815    19.892373    20.881987    8313.1688    1053.5312    2364.1893    688.82985   -230.84878    44.041397   -746.76675   -4749.0832 
32706000    90.910471   -5084.3064   -4908.9779   -5084.3064            0    1976.7535    19.978467    19.991778    20.634975    8241.7142    1023.9028    2758.7667     2147.591   -368.02428    287.19857    698.44626   -4671.3782 
32707000    90.954048   -5074.9979   -4899.5854   -5074.9979            0    2359.8475    19.923426    19.845672    20.832887    8237.1941    1867.2174    3425.1129    1787.2121    83.297114    96.962929    873.46741   -4616.0945 
32708000     88.55063   -5068.7569   -4897.9796   -5068.7569            0    1401.8137    19.989646    19.905154    20.872669    8305.1719    2458.4804    333.50668     1413.454     67.23234    430.96599    10.244087   -4728.1885 
32709000    93.062117   -5080.2441    -4900.766   -5080.2441            0    1152.3032    20.094436    19.924639    20.725666    8298.0259    10.542309    1827.2947    1619.0726   -239.63868    973.98231   -349.36434   -4761.3163 
32710000    97.016563   -5075.0947   -4887.9901   -5075.0947            0    2599.1956    19.871898    19.943548    20.844647    8261.0705    3821.7417    2461.7945    1514.0506    38.835979   -7.2217997   -276.27568    -4574.841 
32711000    89.447508   -5073.8772   -4901.3702   -5073.8772            0    917.85834    20.088395    19.861112     20.82924    8310.4056    845.78413       1957.5   -49.709082   -525.20237    433.49498     379.0221   -4790.1269 
32712000     87.92402   -5067.1237   -4897.5548   -5067.1237            0    1385.9997    19.892365    19.941706    20.855087    8272.9564    1831.4326    1926.4265    400.14011   -225.87484   -142.74128   -21.288351   -4730.3304 
32713000    99.178384   -5083.4066   -4892.1327   -5083.4066            0    2403.1055    19.931771    19.911236    20.802056    8255.6327    2306.1875     2370.534    2532.5951   -341.32969   -674.57233    1221.1964    -4602.799 
32714000    94.135877   -5078.6555   -4897.1066   -5078.6555            0    2088.1719    20.020787    19.844712    20.817263    8270.8392    1526.8095    2682.9476    2054.7588   -45.143412   -73.192507    150.61361   -4645.2277 
32715000    87.278342   -5086.2841   -4917.9605   -5086.2841            0    1942.9507    19.866175    20.046081     20.83473    8297.2006     1790.381    2144.1653    1894.3059    29.235298    -149.8527   -83.667407   -4682.8515 
32716000    88.300944   -5074.3878    -4904.092   -5074.3878            0    2307.2418    19.969296    19.932624    20.737225    8254.2547    2261.7933    2202.6433    2457.2887   -247.54759    1670.2595   -825.74639   -4626.3467 
32717000    85.632641   -5077.9232   -4912.7735   -5077.9232            0    2101.2823    20.015312    19.916998    20.705469    8254.1306    1509.7872    2660.8941    2133.1656   -538.56275   -118.74654   -75.778729   -4659.8253 
32718000    91.797756   -5070.1545   -4893.1148   -5070.1545            0    1880.8766    20.101229    19.935685    20.622223    8263.9799    2639.6463    1048.3375    1954.6461   -45.691276    778.02543   -823.89979   -4666.4284 
32719000    90.782409   -5069.6948   -4894.6133   -5069.6948            0    3087.5828    19.967667    19.975487    20.657015    8239.3366    4262.3651    2099.5223    2900.8609    67.717392    453.33498    1112.5298   -4523.6023 
32720000    91.384025   -5082.8493   -4906.6076   -5082.8493            0    1282.1221    19.965942    19.996799    20.709662    8268.4346    1428.6979    880.19327    1537.4751   -526.88742    576.21933   -412.53722   -4752.0008 
32721000    91.379143   -5079.5343   -4903.3019   -5079.5343            0     2123.445    20.008991    20.008658     20.59055    8243.4894    1843.2246    1683.0026    2844.1077   -4.9574369    448.96957   -277.78963   -4648.0153 
32722000    88.290478   -5077.9158   -4907.6402   -5077.9158            0    1688.7663    19.987294    20.065745    20.609678    8265.7161    2442.6765    929.88794    1693.7345    -70.01327     778.5241   -911.79524   -4704.0645 
32723000    89.172064   -5079.1478    -4907.172   -5079.1478            0    2254.9892    19.936271    19.934194    20.730462    8238.5654    1954.7214     2174.571    2635.6751   -16.441161   -135.76981   -426.83312   -4636.2327 
32724000    88.791255   -5073.1615   -4901.9201   -5073.1615            0    1458.9481    20.074924    19.960114    20.651147    8274.8686    764.86273     1569.665    2042.3167     36.27077    100.61081   -945.22228   -4725.8536 
32725000     89.66312   -5078.1884   -4905.2656   -5078.1884            0    3122.9042    19.877456      19.9984    20.640172     8204.826    3515.3947    2789.8933    3063.4245   -419.67902   -650.19537    53.071144   -4531.5821 
32726000    88.633305    -5070.409   -4899.4722    -5070.409            0    2227.5685    19.927839    19.995239    20.653838    8229.7678    2482.9762    2152.0271    2047.7023   -300.21446   -154.69421   -199.17627   -4632.1134 
32727000    94.697945   -5062.1003   -4879.4674   -5062.1003            0    968.75148    19.920008     19.99924    20.802174    8287.2742    1406.2871    635.46374    864.50362    157.90816   -786.14093   -1214.0202   -4762.3827 
32728000     89.96986   -5062.9717   -4889.4573   -5062.9717            0    1491.2534    19.918675     20.04139    20.718563    8270.8074    2040.6146     1274.096    1159.0495   -314.56806   -318.63499   -8.1964119   -4709.5804 
32729000    92.089058   -5072.0729   -4894.4714   -5072.0729            0    2420.4409    19.999346    20.006857    20.614626    8248.4077    2193.3242     3051.477    2016.5215    280.86133    -12.55955    79.306029   -4603.3055 
32730000    94.666007   -5067.8324    -4885.261   -5067.8324            0    2055.5159    20.013719    19.968249    20.613013    8237.7624    1120.7304     2591.577    2454.2404   -236.49383    1118.1478    -214.8627   -4638.3128 
32731000    89.282148   -5063.0862   -4890.8981   -5063.0862            0    2695.9602    20.023671    19.984647     20.55798    8226.6047     1055.395    3383.3838    3649.1019     193.2512    1562.1141   -35.965521   -4567.4459 
32732000    87.713483   -5065.5983   -4896.4355   -5065.5983            0    1972.4466    19.921301    19.933778     20.66012    8204.2739    2242.5713    2215.1758    1459.5928      192.773    427.64284   -1118.6701   -4660.4304 
32733000    89.026472   -5076.8864   -4905.1914   -5076.8864            0    1485.2676    19.867276    20.039409    20.847935    8300.1568    2471.7821    988.49915    995.52166   -363.52637   -91.941966   -1053.7629   -4725.4008 
32734000    92.232761   -5074.5684   -4896.6897   -5074.5684            0    1838.4853    19.948931     19.88469    20.833212    8264.0833    964.63378    2383.6376    2167.1846    52.116892   -91.837378    663.35107   -4675.1097 
32735000    88.174754   -5077.8285    -4907.776   -5077.8285            0    2290.5915    19.982163    19.837606    20.773642    8234.6361    882.80444    3279.8882    2709.0818    253.92715    360.11158   -795.56593   -4632.6904 
32736000    85.474613   -5072.7555   -4907.9106   -5072.7555            0    2113.6382    19.948851    19.953669    20.844347    8297.1504    2085.5805    2048.8226    2206.5115   -43.205156    126.90189   -697.23012   -4652.1489 
32737000    89.323003   -5074.0762   -4901.8093   -5074.0762            0    1226.2137    20.107338    19.899983    20.711308    8287.3335    1037.1612    2013.2992    628.18069    113.26586    437.27897    211.77138   -4753.6063 
32738000    91.508297   -5070.0253   -4893.5438   -5070.0253            0    2070.0505    19.875247    20.083298     20.75426    8284.2806      3110.16    959.18757    2140.8038   -489.19005     216.9356   -1021.2522    -4643.445 
32739000    89.359314   -5070.6063   -4898.2693   -5070.6063            0     2544.984    20.024408    19.849679    20.721945    8236.5185    1730.0115    3004.1105    2900.8298   -323.02143    562.33667    132.56319   -4592.5629 
32740000    92.628209   -5075.0067   -4896.3654   -5075.0067            0    2523.0973     19.85032    20.020973    20.767066    8253.3037    3516.4302     1021.293    3031.5686   -120.54351    707.57609   -8.1042187   -4592.6704 
32741000     88.12745   -5079.7199   -4909.7587   -5079.7199            0    1338.8918    19.907952    19.997293    20.819069    8288.1787    1652.4321    1362.1608    1002.0825    321.14642    -542.4742   -619.75745   -4747.9207 
32742000    88.514064   -5070.7544   -4900.0476   -5070.7544            0    2141.5146    19.987948    19.872461    20.732787    8235.2644    2410.6787    2688.4946    1325.3706   -278.50235    16.151343   -795.98009   -4642.8455 
32743000    92.792741    -5072.342   -4893.3834    -5072.342            0    2282.5972    19.917788    20.035139    20.698124    8259.7035    2528.4071    1815.5181    2503.8665   -267.42653    1349.8594   -212.41873   -4618.4234 
32744000    93.622029   -5072.7358   -4892.1779   -5072.7358            0     2751.184    19.867256    19.995647    20.724781    8233.0987    4186.6421    1375.3937    2691.5163   -532.31666    94.731084    251.84188   -4561.8397 
32745000    95.950187   -5068.4933   -4883.4453   -5068.4933            0    2147.3167    19.978321     19.95925     20.69924    8253.8695    2725.3428     1711.998    2004.6094    395.16724   -174.03693    264.78054   -4624.9637 
32746000    96.507834   -5083.8178   -4897.6943   -5083.8178            0    496.48113     20.00236    19.842697    20.947031    8313.8929     163.8698    1168.5819    156.99171    59.421918   -465.87582   -237.57165   -4837.4961 
32747000    93.869564   -5083.7576   -4902.7223   -5083.7576            0    1618.6295    19.868502      19.9714    20.842124    8270.1923    2712.2693    521.07459    1622.5447   -189.30921    475.20431   -182.89659   -4707.4957 
32748000    90.328289   -5065.6073   -4891.4016   -5065.6073            0    2156.9546    19.936767     20.01553    20.687204    8255.1241    2064.0677    2140.6548    2266.1412   -236.09258    41.503267   -889.32242   -4631.7205 
32749000    83.964363   -5068.7242   -4906.7919   -5068.7242            0    2967.7177    19.917636    19.910022    20.752588    8229.6583    2368.1016     4026.023    2509.0284    32.722624   -25.004526    848.80454   -4550.6031 
32750000    91.042007   -5059.1645   -4883.5824   -5059.1645            0    2802.0692     19.86006    19.993933    20.769328    8247.0996    1376.9399    3417.8886    3611.3791   -87.139536   -635.24541   -506.38034   -4546.5621 
Loop time of 358.408 on 64 procs for 250000 steps with 972 atoms

Performance: 120.533 ns/day, 0.199 hours/ns, 697.530 timesteps/s
192.7% CPU use with 32 MPI tasks x 2 OpenMP threads

MPI task timing breakdown:
Section |  min time  |  avg time  |  max time  |%varavg| %total
---------------------------------------------------------------
Pair    | 26.263     | 34.277     | 42.534     |  73.4 |  9.56
Bond    | 1.0343     | 1.2219     | 1.631      |  11.4 |  0.34
Kspace  | 154.68     | 165.68     | 175.22     |  41.4 | 46.23
Neigh   | 0.30653    | 0.31978    | 0.35469    |   2.5 |  0.09
Comm    | 60.159     | 66.118     | 69.942     |  25.8 | 18.45
Output  | 0.48482    | 0.48513    | 0.48673    |   0.0 |  0.14
Modify  | 70.652     | 72.559     | 74.616     |  10.8 | 20.24
Other   |            | 17.74      |            |       |  4.95

Nlocal:        30.3750 ave          36 max          25 min
Histogram: 4 1 3 4 3 6 3 5 0 3
Nghost:        2657.22 ave        2685 max        2630 min
Histogram: 3 0 4 2 5 3 10 2 2 1
Neighs:        9556.81 ave       12528 max        7363 min
Histogram: 4 3 2 3 6 8 3 2 0 1

Total # of neighbors = 305818
Ave neighs/atom = 314.62757
Ave special neighs/atom = 2.0000000
Neighbor list builds = 999
Dangerous builds = 0

unfix		3
unfix		2
unfix		1

write_data	data.final.${pid}
write_data	data.final.1
System init for write_data ...
PPPM initialization ...
  extracting TIP4P info from pair style
  using 12-bit tables for long-range coulomb (../kspace.cpp:340)
  G vector (1/distance) = 0.37263781
  grid = 24 24 25
  stencil order = 5
  estimated absolute RMS force accuracy = 0.0033796462
  estimated relative force accuracy = 1.0177704e-05
  using double precision FFTW3
  3d grid and FFT values/proc = 3458 576
Last active /omp style is kspace_style pppm/tip4p/omp
WARNING: Not all mixed pair coeffs generated from mixing. Use write_data with 'pair ij' option to store all pair coeffs. (../write_data.cpp:312)

write_restart   restart.lmp.${pid}
write_restart   restart.lmp.1
System init for write_restart ...
PPPM initialization ...
  extracting TIP4P info from pair style
  using 12-bit tables for long-range coulomb (../kspace.cpp:340)
  G vector (1/distance) = 0.37263781
  grid = 24 24 25
  stencil order = 5
  estimated absolute RMS force accuracy = 0.0033796462
  estimated relative force accuracy = 1.0177704e-05
  using double precision FFTW3
  3d grid and FFT values/proc = 3458 576
Last active /omp style is kspace_style pppm/tip4p/omp
Total wall time: 0:05:58
