LAMMPS (30 Jul 2021)
Processor partition = 1
  using 2 OpenMP thread(s) per MPI task
using multi-threaded neighbor list subroutines
variable        pid world 0 1
variable        phase world IceIh IceIII

shell cd ${phase}
shell cd IceIII
include Restart.lmp
echo both
log log.lammps
#include		in.partitions
include		in.temp
variable        temperature equal 177.72
variable	tempDamp equal 100.0
include		in.pressure
variable        pressure equal 1771.7
variable        pressureDamp equal 1000.0 # This is 1 ps
include		in.seed
variable        seed equal 745823

units		real
atom_style	full

read_restart	restart.lmp.${pid}
read_restart	restart.lmp.1
Reading restart file ...
  restart file = 30 Jul 2021, LAMMPS = 30 Jul 2021
  restoring atom style full from restart
  orthogonal box = (0.040826727 -0.038783114 -0.11106198) to (19.959174 20.038784 20.811060)
  2 by 4 by 4 MPI processor grid
  restoring pair style lj/cut/tip4p/long/omp from restart
  restoring bond style harmonic/omp from restart
  restoring angle style harmonic/omp from restart
  972 atoms
  648 bonds
  324 angles
Finding 1-2 1-3 1-4 neighbors ...
  special bond factors lj:    0        0        0       
  special bond factors coul:  0        0        0       
     2 = max # of 1-2 neighbors
     1 = max # of 1-3 neighbors
     1 = max # of 1-4 neighbors
     2 = max # of special neighbors
  special bonds CPU = 0.003 seconds
  read_restart CPU = 0.008 seconds
include 	in.setup
variable	out_freq equal 1000
variable	out_freq2 equal 10000
variable	out_freq3 equal 1000

timestep	2.0

neigh_modify    delay 7 every 1

include		in.tip4p
# This is TIP4P/Ice

# create groups ###
group ox type 2
324 atoms in group ox
group hy type 1
648 atoms in group hy

# set charges - beside manually ###
set group ox charge -1.1794
Setting atom values ...
  324 settings made for charge
set group hy charge 0.5897
Setting atom values ...
  648 settings made for charge

# ### TIP3P Potential Parameters ###
pair_style lj/cut/tip4p/long/omp 2 1 1 1 0.1577 8.5
pair_coeff 1 1*2 0.000 0.000
pair_coeff 2 2 0.21084 3.1668
bond_style  harmonic
bond_coeff  1 450 0.9572
angle_style harmonic
angle_coeff 1 55 104.52
kspace_style pppm/tip4p/omp 1.0e-5
pair_modify tail yes

thermo          ${out_freq}
thermo          1000
thermo_style    custom step temp pe etotal epair emol press lx ly lz vol pxx pyy pzz pxy pxz pyz enthalpy

restart 	${out_freq3} restart.lmp.${pid} restart2.lmp.${pid}
restart 	1000 restart.lmp.${pid} restart2.lmp.${pid}
restart 	1000 restart.lmp.1 restart2.lmp.${pid}
restart 	1000 restart.lmp.1 restart2.lmp.1


include         in.dump
dump            myDump all atom ${out_freq2} dump.water.${pid}
dump            myDump all atom 10000 dump.water.${pid}
dump            myDump all atom 10000 dump.water.1
dump            myDump2 all dcd ${out_freq2} dump.dcd
dump            myDump2 all dcd 10000 dump.dcd
dump_modify     myDump append yes
dump_modify     myDump2 append yes


variable natoms 	equal  "count(all)"                        # NUMBER ATOMS
variable H      	equal  "enthalpy/v_natoms"                 # ENTHALPY-per-atom
variable Vol      	equal  "vol/v_natoms"                 # volume-per-atom
fix AVG all 		ave/time ${out_freq} 1 ${out_freq} v_Vol v_H file vol_enthalpy.dat
fix AVG all 		ave/time 1000 1 ${out_freq} v_Vol v_H file vol_enthalpy.dat
fix AVG all 		ave/time 1000 1 1000 v_Vol v_H file vol_enthalpy.dat


timer           timeout 02:55:00 every 1000
New timer settings: style=normal  mode=nosync  timeout=02:55:00

fix 		1 all shake 1e-6 200 0 b 1 a 1
Finding SHAKE clusters ...
       0 = # of size 2 clusters
       0 = # of size 3 clusters
       0 = # of size 4 clusters
     324 = # of frozen angles
  find clusters CPU = 0.001 seconds
fix             2 all nph aniso ${pressure} ${pressure} ${pressureDamp}
fix             2 all nph aniso 1771.7 ${pressure} ${pressureDamp}
fix             2 all nph aniso 1771.7 1771.7 ${pressureDamp}
fix             2 all nph aniso 1771.7 1771.7 1000
fix             3 all temp/csvr ${temperature} ${temperature} ${tempDamp} ${seed}
fix             3 all temp/csvr 177.72 ${temperature} ${tempDamp} ${seed}
fix             3 all temp/csvr 177.72 177.72 ${tempDamp} ${seed}
fix             3 all temp/csvr 177.72 177.72 100 ${seed}
fix             3 all temp/csvr 177.72 177.72 100 745823


run             250000
PPPM initialization ...
  extracting TIP4P info from pair style
  using 12-bit tables for long-range coulomb (../kspace.cpp:340)
  G vector (1/distance) = 0.37224388
  grid = 24 24 25
  stencil order = 5
  estimated absolute RMS force accuracy = 0.0034273756
  estimated relative force accuracy = 1.032144e-05
  using double precision FFTW3
  3d grid and FFT values/proc = 3458 576
Last active /omp style is kspace_style pppm/tip4p/omp
Neighbor list info ...
  update every 1 steps, delay 7 steps, check yes
  max neighbors/atom: 2000, page size: 100000
  master list distance cutoff = 10.8154
  ghost atom cutoff = 10.8154
  binsize = 5.4077, bins = 4 4 4
  1 neighbor lists, perpetual/occasional/extra = 1 0 0
  (1) pair lj/cut/tip4p/long/omp, perpetual
      attributes: half, newton on, omp
      pair build: half/bin/newton/omp
      stencil: half/bin/3d
      bin: standard
Setting up Verlet run ...
  Unit style    : real
  Current step  : 15250000
  Time step     : 2
  Walltime left : 2:54:59.93
Per MPI rank memory allocation (min/avg/max) = 10.19 | 10.19 | 10.20 Mbytes
Step Temp PotEng TotEng E_pair E_mol Press Lx Ly Lz Volume Pxx Pyy Pzz Pxy Pxz Pyz Enthalpy 
15250000    181.64543   -4857.4447   -4507.1262   -4857.4447            0    1317.4172    19.918348    20.077567    20.922122    8367.0068    1916.9388    1691.5198    343.79282     276.3743    217.62586   -219.51237   -4346.3694 
15251000    177.75534   -4879.8101   -4536.9939   -4879.8101            0    1964.1839    20.020541    20.278311    20.744252    8421.8088    3824.9942   -871.35839    2938.9158   -588.04304    303.57933    730.79076   -4295.7461 
15252000    179.33669   -4882.5064   -4536.6406   -4882.5064            0    711.65624    20.065832    20.027428    21.037887    8454.4322    3.9616461    2017.4938    113.51324   -444.09799    59.006735   -104.68329   -4448.8939 
15253000    175.48103    -4881.886   -4543.4561    -4881.886            0    1252.2118    20.040018    20.052468    20.859019    8382.2351    1421.4902    782.56326     1552.582    203.30748   -283.25031    381.33434   -4390.3778 
15254000    169.15481   -4889.0406   -4562.8113   -4889.0406            0    1119.1031    19.890425    20.178197    21.050805    8448.8018    2066.8964    524.84815    765.56461   -247.21765    57.428036   -267.21421   -4424.9187 
15255000    175.02418   -4879.6098   -4542.0609   -4879.6098            0    274.51332     20.05547    20.187885     20.92329    8471.3697    1367.0958   -2120.8236    1577.2678   -15.467824    1384.4002    401.93243   -4508.1458 
15256000     183.8373    -4883.662   -4529.1164    -4883.662            0    934.04066    20.114022    19.995849    20.970173    8434.1395    280.59777     314.8056    2206.7186   -653.95148   -383.58397   -263.45758   -4414.2263 
15257000    179.69056   -4882.9672   -4536.4189   -4882.9672            0    1496.1505    19.895787    19.934828    21.211083      8412.72    1793.2947    2027.1136    668.04337    380.50993    2033.9243   -816.14288   -4352.8548 
15258000    180.36488   -4881.2095   -4533.3606   -4881.2095            0    2481.3013    20.073998    20.014866    20.776272    8347.4571    2063.1183     4009.429    1371.3565    356.06939   -464.58073   -796.37955   -4231.2893 
15259000    187.69336   -4882.8015    -4520.819   -4882.8015            0     3123.113     20.08209    19.871922    20.973775    8369.9983     3182.857    3592.1139     2594.368   -180.02208    1156.8748    -468.3849   -4139.5874 
15260000    175.77297   -4865.3033   -4526.3103   -4865.3033            0    1794.2258    20.041085     20.05683     20.88573    8395.2413    3148.4313      1092.81     1141.436    -373.2315   -80.308253   -1469.0985   -4306.6325 
15261000    184.44383   -4896.1496   -4540.4342   -4896.1496            0    1723.8165    20.035438     19.99847    20.932781     8387.307    1672.6275    968.43599    2530.3862    424.85654   -36.553453    179.64098   -4329.5765 
15262000    182.01839   -4856.1282   -4505.0904   -4856.1282            0    1553.3334    20.111259      20.0888    20.905677     8446.125    349.14398    2419.4748    1891.3815   -313.45893   -551.67888    76.033295   -4313.7538 
15263000    184.55149   -4864.2437   -4508.3206   -4864.2437            0    1775.1893     20.07896     20.01967    20.863312    8386.5121    909.94742    2550.7313    1864.8891   -115.02222    518.41975    263.14439   -4291.1995 
15264000    169.76491   -4869.7163   -4542.3104   -4869.7163            0    2255.9647    20.183454    19.728673     20.92027    8330.2999    2353.1247    2170.3579    2244.4115    19.088296   -291.50969    256.30817   -4268.2358 
15265000    175.54966   -4881.4814   -4542.9191   -4881.4814            0    1048.5716    20.164332    20.016917      20.8698    8423.6304    165.02688    1432.6573    1548.0307   -439.04167   -1069.0906    864.15223   -4414.1021 
15266000    170.23831    -4869.319   -4541.0001    -4869.319            0     1645.786    20.136679    19.935249    21.087942    8465.3264    989.74987    2506.6765    1440.9318    219.35564   -1037.4071    340.09066   -4337.8144 
15267000    176.75073   -4878.3178   -4537.4391   -4878.3178            0    2079.5512    20.058357    20.039383    20.776216    8351.1476    2049.9588    1016.7876    3171.9073    306.30947   -628.33461    257.71569   -4284.1645 
15268000    174.38683   -4891.7563   -4555.4366   -4891.7563            0    1728.3016    19.873182    19.914187     21.23633     8404.453    2561.8934    2914.8887    -291.8772   -425.85839   -972.28148   -1295.7218   -4343.5981 
15269000    172.77122   -4873.8454   -4540.6416   -4873.8454            0    575.29183    20.173335     20.12539    20.806338     8447.295   -78.500523    1471.5412    332.83484   -708.87588    -433.2793   -548.94765   -4469.7684 
15270000    179.36875   -4890.0321   -4544.1044   -4890.0321            0    2889.8184    19.928016    19.943872    20.997734    8345.3771    3323.4137    4955.8893    390.15213   -463.05891   -195.85672   -365.70057   -4192.3881 
15271000    179.41853   -4902.9931   -4556.9694   -4902.9931            0    1234.6949     20.10017    20.130934    20.922706    8466.0631    1821.0525    644.30159    1238.7307   -121.78952    592.82309   -533.98898    -4404.523 
15272000     178.7659   -4877.7608   -4532.9958   -4877.7608            0    1207.9845    20.205822    20.037192    20.837561    8436.4601    1590.6627    590.47993     1442.811    240.01741   -409.70022    408.70628   -4384.3688 
15273000    178.58284    -4899.024   -4554.6119    -4899.024            0    685.94882    20.134319    19.803014    21.088916    8408.5766      2.84889     1079.275     975.7226   -22.791677   -360.30548   -456.57896   -4470.4937 
15274000    190.27958   -4871.9194   -4504.9493   -4871.9194            0    3151.2592    20.115787    19.870572     20.81217    8318.8779    1997.3435    4316.7978    3139.6364   -28.248205   -974.29824   -161.48804   -4122.6312 
15275000     183.4502   -4874.1385   -4520.3394   -4874.1385            0    1976.8083     20.08847    19.968739    20.974683    8413.8139    3203.5688     949.9403    1776.9159    871.47845    910.36729   -592.63573   -4277.7715 
15276000    183.64529   -4870.9613   -4516.7859   -4870.9613            0    2018.5756    20.118527    19.984548    21.000164    8443.3191    2211.8846    2008.5099    1835.3323    27.804302     1012.973   -138.53478   -4268.2242 
15277000    178.77948   -4858.8275   -4514.0363   -4858.8275            0     2919.733     20.11528    20.084226    20.680426    8354.8888    1993.0094    3608.5355    3157.6541    262.89244   -141.36516   -60.399684   -4158.2742 
15278000    180.33142   -4898.9254    -4551.141   -4898.9254            0    1514.9767    20.157855    19.983978    21.033806     8473.135    771.64077    2174.8069    1598.4826    233.95625    -851.3068     -124.664   -4363.9324 
15279000    176.79927    -4876.257   -4535.2847    -4876.257            0    1019.6173    20.247034    20.082189    20.761438    8441.6994    2754.1434   -984.02902    1288.7376    598.94178   -595.63664    943.52138   -4409.7561 
15280000    178.00295    -4868.275   -4524.9814    -4868.275            0    2115.3702    20.016798     20.04659    21.075562    8456.9602    2408.8105    1393.2086    2544.0915    146.79043   -43.380401    28.859526   -4264.0799 
15281000    177.50615   -4862.2096   -4519.8741   -4862.2096            0    919.02336    20.041684    20.202666    20.842901    8439.1958    938.91809    874.44044    943.71156   -717.14433    833.04367   -66.901743   -4406.7634 
15282000    178.61983   -4870.3473    -4525.864   -4870.3473            0    2087.7916    19.970609    19.882429    21.178214    8409.1107    2482.1471    2688.0732    1093.1544   -321.85215    400.29141   -953.16953   -4269.8208 
15283000    181.26957   -4882.5692   -4532.9755   -4882.5692            0     2913.217    20.111492    20.006075    20.862495    8394.0668    1774.7347    3733.8277    3231.0888   -231.65124   -318.24398    215.28929   -4176.3428 
15284000    179.02364    -4899.614   -4554.3519    -4899.614            0    533.59014    20.337994    19.910433    21.050404    8524.1142   -1244.5122    1715.9494    1129.3333   -691.17537   -354.00044   -579.41304   -4488.0184 
15285000    173.89584   -4907.6389   -4572.2661   -4907.6389            0    2923.8263    19.995779    19.999945    20.971354    8386.7481    4430.1767    2231.6546    2109.6475    125.58439    629.64074    217.80757   -4214.6467 
15286000    175.47309   -4901.2121   -4562.7974   -4901.2121            0    2482.2185    20.150945    19.900799    20.811128    8345.6768     2161.382    2728.1979    2557.0756    211.90577   -686.40548    1004.5146   -4260.6788 
15287000    180.58386   -4892.1938   -4543.9226   -4892.1938            0    2936.7468    20.063449    19.965168    21.054463    8433.7888    3938.0744    2357.3239    2514.8422   -550.13545   -157.26398   -42.108891   -4182.7082 
15288000    177.49441   -4870.4443   -4528.1314   -4870.4443            0    2643.0119    20.147213    20.126044    20.697849    8392.6403    2859.6098    1534.7719    3534.6541    377.21176    721.38571   -531.97141   -4204.6319 
15289000    173.74879   -4888.1435   -4553.0544   -4888.1435            0     639.6838    20.076845    20.107973    20.976049    8468.1288    863.26434    1219.4285   -163.64148   -294.66145     311.6038   -462.41011   -4474.0541 
15290000     171.5806   -4872.0685   -4541.1609   -4872.0685            0    2441.3062    20.103777    20.076093    20.860138     8419.262    2234.3623    2110.6336    2978.9228   -408.85828    1907.7271    816.71923   -4241.4019 
15291000    178.52968   -4878.3392   -4534.0297   -4878.3392            0    609.55217    20.034586    20.079146    21.013156    8453.1172    608.14207      608.145    612.36943     202.9594   -75.003671   -756.13086   -4458.8841 
15292000    169.09017   -4873.9752   -4547.8706   -4873.9752            0    947.79021    20.063126     20.14314    20.861738    8430.9451    2414.7111   -666.66727    1095.3268    95.779801    472.94789    91.921335   -4431.3335 
15293000    179.51042   -4870.2486   -4524.0476   -4870.2486            0    2205.1808    19.919019    20.096241    21.041322    8422.7869    3236.5965    715.18883    2663.7571    337.10173    828.41212    222.22475   -4253.1683 
15294000    172.50152   -4895.6526   -4562.9689   -4895.6526            0    2392.3516    20.018797     20.04676    20.850903    8367.7182    3204.3552    943.53704    3029.1625    168.52298     321.3684    142.38853   -4271.0193 
15295000     167.8079   -4889.1143   -4565.4826   -4889.1143            0    1037.1769    20.082391    20.022563    20.959683    8427.9083    729.63026    1325.4588    1056.4417   -101.05514    -926.0935     261.4545   -4438.0007 
15296000    172.13325   -4880.1088   -4548.1354   -4880.1088            0    753.93653    20.177458    19.968322    21.018051    8468.3821    449.40379    1618.7474    193.65842    497.62053    13.993309    554.91369   -4455.0222 
15297000    174.75458   -4883.3391   -4546.3102   -4883.3391            0    1513.0423    20.098244    19.988797    20.917007    8403.1925    1777.3148    1282.0269    1479.7851    92.911162    438.16353   -1061.3664   -4360.8839 
15298000    169.17472   -4887.3732   -4561.1055   -4887.3732            0    389.33796    20.127031    20.158333    20.900758    8480.0099   -423.96385    491.12985    1100.8479    7.9776448   -249.65657   -294.15193   -4512.9552 
15299000    172.88827   -4864.7153   -4531.2857   -4864.7153            0    1746.0125    20.003128     20.04726    21.000324    8421.2958    2352.0288    1207.0026    1679.0061   -357.84716   -372.89831    224.15975   -4316.8475 
15300000    172.94025   -4891.9958    -4558.466   -4891.9958            0     2885.396    19.966122    20.188522    20.859918    8408.3514    3237.6473    2222.6251    3195.9157   -401.19034    783.79873    513.51912    -4204.638 
15301000    180.64652   -4842.9401   -4494.5481   -4842.9401            0     1534.026    19.979887    20.099737    21.073743    8463.0144    2107.0105    1021.3728    1473.6946    481.29202    437.42179    312.47976   -4305.2119 
15302000    172.59827   -4891.2606   -4558.3903   -4891.2606            0    873.83753    20.151549    20.108761    20.849913    8448.8577    1268.3993     682.0007    671.11255    401.80461   -124.55895    738.58823   -4450.7178 
15303000    175.77432   -4903.1612   -4564.1657   -4903.1612            0    2343.4563    20.059785     19.79403    21.113492    8383.4076    1893.7307    3874.9091    1261.7293   -57.146827    196.27289    16.867093   -4277.6467 
15304000    179.61122    -4866.663   -4520.2676    -4866.663            0    2828.3239    20.091548    19.985487     20.83658    8366.7073    3097.1255    2529.4065    2858.4396   -73.325703    -283.3267    667.62333    -4175.156 
15305000    177.45852   -4878.7034   -4536.4598   -4878.7034            0    1293.2421     20.01752    20.099251    21.041988    8465.9734    1302.2636    443.84078     2133.622    84.892455    52.324904   -823.77344   -4376.7863 
15306000    186.42416    -4865.444   -4505.9093    -4865.444            0    2709.5927    20.092053    20.121345    20.776463    8399.4909     2846.031    2640.9618    2641.7852    261.52481   -758.20357    -240.1935   -4173.9898 
15307000    167.79323   -4888.3818   -4564.7785   -4888.3818            0    2971.2926    19.966014    20.102519    20.858934    8372.0918    2258.4675    2839.1019    3816.3083    119.93421    1109.5882   -1192.8159   -4201.9885 
15308000    176.58488   -4881.8334   -4541.2747   -4881.8334            0    810.19498    19.961757    20.124747    21.064124    8461.9918    353.27248    1833.0814    244.23105     815.9916   -184.57883    455.09936   -4441.2889 
15309000    173.75213   -4877.7695   -4542.6739   -4877.7695            0    2303.1143     20.00251    20.200462    20.713024    8369.3036    4373.8451    1137.7571    1397.7407    448.13296    11.519649  -0.97399348    -4261.561 
15310000     176.4825   -4880.9237   -4540.5623   -4880.9237            0    2959.2859    19.783878     20.05784    21.191494    8409.2481    3224.9111    3625.2091    2027.7374   -471.30332    317.23916    678.47142   -4177.6347 
15311000    172.64609   -4865.5572   -4532.5947   -4865.5572            0    2963.6598    20.127748    20.042622    20.766383    8377.4255    1926.8607    3906.7111    3057.4077    147.31917    521.44443   -1248.8762   -4170.5061 
15312000    185.87932   -4867.6232   -4509.1393   -4867.6232            0    2400.9803    19.887098    20.089985    21.106838    8432.8467    3898.8625    1606.2144     1697.864    -247.8302   -260.86896    35.745823   -4213.8561 
15313000    181.43658   -4867.9606   -4518.0449   -4867.9606            0    3738.8606     20.03771    20.102891    20.721262    8346.8539    2799.3224    3152.4361    5264.8233   -368.25507   -1290.3472   -854.77401   -4062.9122 
15314000    179.82072   -4886.5466   -4539.7472   -4886.5466            0    2460.8173    19.939864    20.162261    20.880271    8394.5525    3596.2209    1062.3706    2723.8604    194.58006   -1156.8744    274.60655   -4238.4794 
15315000    180.67042   -4893.9112   -4545.4731   -4893.9112            0    3059.1895    19.976635    20.129399    20.843075    8381.3686    3229.0548    2517.0295    3431.4842    160.77557    605.48106    63.145565   -4171.5371 
15316000    179.71221   -4858.1831    -4511.593   -4858.1831            0    619.75502    20.127812    19.928274    21.117841    8470.6314    1114.0771    1474.7197   -729.53179   -388.25176   -509.59539   -467.18038   -4435.0313 
15317000    174.84719   -4887.0913   -4549.8837   -4887.0913            0    2574.4871    20.152739    19.959278    20.609916    8290.0112    1949.6096    2351.2737    3422.5781   -96.529469    1327.0041   -89.137083   -4238.6249 
15318000    178.02795   -4882.0834   -4538.7415   -4882.0834            0    1318.4504    20.094033    19.908443    21.056281    8423.3736    888.14698    2266.9383    800.26596   -622.94887   -546.76947   -668.34106   -4376.7748 
15319000    172.85786   -4893.9664   -4560.5955   -4893.9664            0    1858.1941    20.092267    20.100704    20.740468     8376.426     1551.552    2283.7028    1739.3274   -352.71085    522.27052    521.81645   -4333.5956 
15320000    170.79056   -4861.5709   -4532.1869   -4861.5709            0    2508.7653    19.949095    20.047451       21.027    8409.2969     2444.669     3593.794    1487.8329   -161.21968    137.16674   -395.65474   -4224.5095 
15321000    176.25286   -4872.9468   -4533.0284   -4872.9468            0    2345.7579    20.147472    20.028891     20.82631    8404.0723    1877.8627    2010.6064    3148.8045    40.310146    1.2400396    346.28991   -4245.5211 
15322000    182.79193   -4854.2409   -4501.7113   -4854.2409            0    1773.4738    20.167576    19.914043    20.943725    8411.3764    1539.4932    2196.8538    1584.0743    495.91241    329.77646   -27.818491   -4284.1569 
15323000    168.12925   -4888.9865   -4564.7351   -4888.9865            0    1704.3788    20.109812    19.872916    20.992927    8389.6258    785.76926    2404.7376    1922.6296    57.553333   -242.61088    875.86243   -4356.1974 
15324000    170.85819   -4891.1893   -4561.6749   -4891.1893            0    1811.5449    20.160043    20.028648    20.874718    8428.7605    -192.9601    2433.8895    3193.7052   -433.29346    776.72996   -169.32456   -4338.9911 
15325000    174.45301   -4888.2262   -4551.7789   -4888.2262            0    2966.7648    19.946688    19.996239    21.028578    8387.4317    3230.2629    2879.8276    2790.2038    244.88946    960.28756    467.95208    -4188.878 
15326000    175.00891   -4883.5811   -4546.0617   -4883.5811            0    588.78648    20.079099    20.116266     20.82538    8411.7146      657.585     726.7734    382.00103    186.91314    -899.9822    308.74925   -4473.8316 
15327000    168.13765   -4889.8249   -4565.5573   -4889.8249            0    2180.1816    19.897491    20.162838    20.881322    8377.3749    1786.6616    2002.2347    2751.6484   -362.79564    911.70042   -1114.4669   -4299.1927 
15328000    181.33307   -4861.1981   -4511.4821   -4861.1981            0    2696.6945    19.944877    20.009666     21.04616     8399.319    3597.0909    2489.9152    2003.0774   -625.43023    -91.04305   -198.57459   -4181.1493 
15329000    172.63055   -4884.7535   -4551.8209   -4884.7535            0    2241.5301    19.915271    20.212641    20.788432    8368.1801    2320.1374    1973.6479     2430.805   -124.21501    286.54461    -312.2157   -4278.2616 
15330000    181.44851   -4867.4337    -4517.495   -4867.4337            0    2130.7127    19.927063    19.989685    21.056557    8387.5786    2142.1639    2486.0298    1763.9445   -681.12097    584.87917    424.70919   -4256.8572 
15331000    188.30227   -4897.0587   -4533.9019   -4897.0587            0    2238.2202     20.05714    20.064814    20.780239    8362.8574    2026.6442    3174.1323    1513.8841   -390.46935   -708.20295    41.805298   -4260.9203 
15332000    183.63928   -4910.7932   -4556.6294   -4910.7932            0    1132.0674    20.093552    19.989521    20.990226    8430.9441    1063.1991    1896.8714    436.13173     49.99121    1900.8085    563.19644   -4417.4342 
15333000    175.86609   -4869.8711   -4530.6986   -4869.8711            0    1804.9856    20.055613    20.099319    20.774873    8374.4378    685.12152    1849.6133    2880.2219    388.57196    9.9574963    997.53128    -4310.251 
15334000     183.5655   -4866.3218   -4512.3003   -4866.3218            0    1031.1215    20.076658    20.044754    21.038957    8466.7423    -364.2117    1211.8683    2245.7079    60.679401   -1536.0851    1088.5787   -4384.9787 
15335000    172.50891   -4889.8506   -4557.1526   -4889.8506            0    1480.2906    20.149674    19.905684    20.907076    8385.6826    1518.0743    1830.3957    1092.4018    872.62565   -163.84252   -407.85274   -4376.1181 
15336000    179.42106   -4893.5452   -4547.5166   -4893.5452            0     210.2523    20.172755    19.983471    20.879912    8417.1448    287.35181    63.452249    279.95283     92.62258   -476.62126   -120.02124    -4521.707 
15337000    173.64686   -4885.2028   -4550.3102   -4885.2028            0     1860.526    20.083492    19.888854    21.098585    8427.5692    1031.0771    4267.7221    282.77869    454.05442    722.03068    187.47309   -4321.6377 
15338000    180.55605   -4888.6198   -4540.4023   -4888.6198            0    935.83177    20.159085    20.093534    20.865475    8451.9207    750.47519    1793.7635    263.25658   -87.181634    378.20381    -371.6731   -4425.0493 
15339000     169.2777   -4895.3934   -4568.9271   -4895.3934            0    1318.3161    19.942956    20.028582    20.992915    8385.1816    1281.8074    1091.6117    1581.5291   -206.14273    288.89891    728.42293   -4407.7112 
15340000    179.82665   -4888.9289    -4542.118   -4888.9289            0      1496.07    20.110726    20.081191    20.829822    8412.0679    1578.9955    1071.0822    1838.1322   -372.75088    355.31924    -82.71428   -4358.5781 
15341000    173.22699   -4885.4463   -4551.3634   -4885.4463            0    1881.3955    20.034941    19.941055    21.027172    8400.7306     1596.707     1910.607    2136.8724   -323.44718   -759.99013    811.07139   -4320.8623 
15342000    180.74189   -4891.6257   -4543.0498   -4891.6257            0    1864.7629     20.04849    20.208628    20.734791    8400.7517    2578.1379    1269.9268     1746.224     223.3314     1248.172    405.23824   -4314.5859 
15343000    181.26575    -4874.175   -4524.5888    -4874.175            0    1389.6172    20.063488     20.09242    20.932006    8438.1948    756.16698    1688.7152    1723.9696   -429.36725    387.51299   -238.39856   -4353.5791 
15344000     174.2626   -4882.4262   -4546.3462   -4882.4262            0    1080.3551    20.102588    19.959631    21.051151    8446.5688    41.328498       1684.7    1515.0368   -81.339525   -344.51834   -526.06451   -4413.2631 
15345000    173.61041   -4902.4955   -4567.6733   -4902.4955            0    1115.7842    20.287066    20.004777    20.620355    8368.5284    1078.0211    1125.3604    1143.9712   -213.66796    1402.2253   -599.19911   -4431.4958 
15346000    182.43097   -4885.3271   -4533.4936   -4885.3271            0    2088.0445    20.084786     19.89368    21.056847      8413.48      36.4722    4378.2617    1849.3996    370.94568    696.74325    98.228765   -4277.2864 
15347000    182.08797   -4889.0802   -4537.9082   -4889.0802            0    2182.7017     20.01362    20.093835    20.714119    8330.1909    1543.3526    3415.8955    1588.8569    -230.7792    354.50685     52.90503   -4272.7377 
15348000    179.52397   -4891.0289   -4544.8018   -4891.0289            0    1729.6723    19.971837    20.042938    21.108001    8449.4124    2378.6217    1031.4504    1778.9449   -355.51593     198.3165    83.946796   -4331.6612 
15349000    182.41091   -4894.6134   -4542.8186   -4894.6134            0    807.32293    20.022152     20.18531     20.80342    8407.7719    527.03097     994.7675    900.17031    138.00384   -455.94318    598.28819   -4443.8257 
15350000    180.44589   -4892.1038   -4544.0987   -4892.1038            0    2155.8986    20.034872    20.085954    20.946921    8429.4499    2444.1785    1430.1527    2593.3645   -238.32121    1056.8492    68.391521   -4279.0636 
15351000    172.39661   -4896.3544   -4563.8731   -4896.3544            0    2056.4704    19.966818    20.184258    20.819033    8390.3908    3072.9548    433.35908    2663.0972   -290.87764    62.675773   -96.966869   -4312.2326 
15352000     173.2921   -4871.1914    -4536.983   -4871.1914            0     1295.986    20.007683    20.020033    21.084727     8445.582     2364.747    223.68898    1299.5221   -343.32476   -673.48845    114.03173   -4377.3562 
15353000    186.02132   -4887.9408   -4529.1831   -4887.9408            0    2373.7028    19.915633    20.180388    20.814052    8365.2758     3491.259    871.25561    2758.5937   -83.890014    261.97872   -929.58363   -4239.5938 
15354000    191.76544   -4900.6005   -4530.7647   -4900.6005            0     2297.011    19.895459    20.042938    21.035206    8388.0717    2574.9525    2378.0047    1938.0758    359.86719   -406.00792   -561.22742   -4249.7681 
15355000    188.83172   -4871.8322   -4507.6543   -4871.8322            0    741.52934    20.147928    20.168405    20.859816     8476.419    20.873838    299.02563    1904.6886   -178.02421     1362.331   -645.16944   -4415.9866 
15356000     172.3009   -4890.6261   -4558.3293   -4890.6261            0    1887.4171    20.035284    19.947436    21.207127    8475.4823    2365.8731    2505.1183    791.25997    91.792812    277.75877    569.30754   -4325.0328 
15357000    177.95325   -4881.1527   -4537.9549   -4881.1527            0    3221.3792    20.132637    19.927595    20.760066    8328.8352    2739.6269    2684.0319    4240.4788   -814.80636    258.94191     250.7303    -4146.662 
15358000    174.94744   -4860.4423   -4523.0414   -4860.4423            0    1351.7733    20.127763    19.940102    21.080031     8460.463    77.851662     2744.509    1232.9593   -601.56571   -1640.0363    751.53141   -4356.2499 
15359000    179.38022    -4885.401   -4539.4512    -4885.401            0    1533.9677    20.087111    20.009771    20.765873    8346.6036     1888.622    700.78368    2012.4974   -263.08221   -850.02098   -7.0527621   -4352.7264 
15360000    175.01631   -4862.5788   -4525.0451   -4862.5788            0    1977.9759    19.959657    20.112044    20.920945    8398.2849    1569.2819    2229.5513    2135.0945    123.25235   -456.72121    2775.2643   -4282.7819 
15361000     186.3393   -4878.9218   -4519.5508   -4878.9218            0    1709.5399    20.010502    20.080357    20.973637    8427.5854    1275.1636    2344.9459    1508.5102   -704.52343    1452.2762    733.11453   -4309.4352 
15362000    171.32891   -4859.7068   -4529.2846   -4859.7068            0    3410.3833    19.917636    20.065106    20.621416    8241.3379    2218.0887    3609.9519    4403.1094     38.04427   -1074.5946    662.23966   -4119.3857 
15363000    172.99146   -4890.5965   -4556.9679   -4890.5965            0    3033.0735     19.86557    20.083929    20.918897    8346.1943    3932.7747    2503.9506     2662.495    73.937463   -220.72245   -128.49619   -4187.7802 
15364000    177.62947   -4875.3659   -4532.7925   -4875.3659            0    709.23036    19.965204    20.259786    20.750772    8393.4956    1145.4242   -385.40981    1367.6767   -445.58521   -266.06466   -1293.8999   -4445.9753 
15365000    181.58832   -4894.2899   -4544.0815   -4894.2899            0    2290.7597    19.988002    19.981714    21.039192    8402.9388    253.53788    3961.8573    2656.8839   -876.19052    27.934239   -310.59272    -4263.353 
15366000    167.46207   -4883.4111   -4560.4464   -4883.4111            0    3387.9357    19.941869    20.099358    20.956168    8399.6253     4876.678    2672.1802    2614.9491    636.76067    1078.2709    395.01158   -4145.4245 
15367000    173.04498   -4893.0325   -4559.3007   -4893.0325            0    1820.2204    20.070391      20.1323    20.701263    8364.6175    2381.9155    1126.0165    1952.7294   -15.756477   -237.76929    678.08923   -4337.2532 
15368000    169.17362   -4879.4357   -4553.1701   -4879.4357            0    1882.3362    20.101452    20.095176    20.967036    8469.4712    3448.2056    758.19352    1440.6094   -259.57863    121.20875    846.50526   -4320.6667 
15369000    173.14129   -4892.5967   -4558.6792   -4892.5967            0    643.86971    20.104921    20.159085     20.95888    8494.5674    880.78503   -491.99178    1542.8159   -509.13356    1847.3022    -233.4175   -4478.9137 
15370000    180.15597   -4885.2899    -4537.844   -4885.2899            0    2851.0118    20.004432    20.022032    20.851399    8351.5979    2757.9881    2365.1816    3429.8656    197.16241    523.75816   -649.55184   -4190.5922 
15371000    173.76714   -4900.4545     -4565.33   -4900.4545            0    882.66423     20.05431    20.035776    21.022633    8446.9713    748.77055    982.10054     917.1216   -236.13918    766.74695   -267.33285   -4456.5942 
15372000    177.76805   -4864.1122   -4521.2715   -4864.1122            0    740.41436     20.21429    19.995627     21.00171    8488.8367   -234.32366    1453.3833    1002.1835    -131.1229    296.64336     891.3254   -4429.6075 
15373000    178.57305   -4888.6277   -4544.2345   -4888.6277            0    2032.2351    20.056091    20.084147    20.804394    8380.2069    968.50627    2368.6516    2759.5473   -310.62565    268.84449    346.11872   -4295.8614 
15374000    173.15732   -4869.7037   -4535.7552   -4869.7037            0    4334.2621    19.886571    19.999069    20.876094    8302.6921    5830.3547    3423.4314    3749.0003   -58.331764    539.91171   -248.89424   -4010.9357 
15375000     187.5327   -4880.6678   -4518.9952   -4880.6678            0    2803.9799    20.281427    20.143136    20.609127    8419.4785    1903.7824    3408.1341    3100.0232   -319.80424   -233.41621   -1207.6238    -4174.696 
15376000    163.04305    -4875.399   -4560.9568    -4875.399            0    996.58691    19.980437    20.071214    20.970846    8409.9727    560.26936    972.41109    1457.0803     684.6968   -831.81024   -484.49307   -4438.7246 
15377000    181.94204   -4897.8412   -4546.9506   -4897.8412            0    2785.8449    20.000663    19.946501     20.98324    8371.1223    1646.0622    3235.9007    3475.5716     104.5303    449.53697   -1146.0482   -4206.8429 
15378000    175.10592   -4889.3389   -4551.6324   -4889.3389            0    2509.5171    20.209316    20.043653    20.715315    8391.1219    2457.5699    2584.9262    2486.0552   -446.55751   -1346.3114   -682.57313    -4244.528 
15379000    186.32179   -4869.5957   -4510.2585   -4869.5957            0    1160.2018    20.102287    20.086481    21.074002    8509.3489    1476.6139    305.79114    1698.2004    195.50373    1186.6515   -35.318578   -4366.2773 
15380000    172.16848   -4902.9175   -4570.8761   -4902.9175            0    534.77925    20.100349    20.155998    20.823185    8436.3594    300.57792    343.00593    960.75388     343.0069     229.3019   -917.56367   -4505.0792 
15381000    172.19507   -4902.8717    -4570.779   -4902.8717            0    1091.3742    20.050541    20.027438     20.97472    8422.6293    511.33906     1484.017    1278.7664    -214.1499   -473.75524   -549.23294   -4436.7196 
15382000    185.31246   -4875.3629   -4517.9722   -4875.3629            0    2437.8291    20.040341    20.081046    20.853333    8392.0274    2469.8527    3263.2609    1580.3737    85.400711    1174.3854    405.21213   -4219.6084 
15383000    176.31731   -4859.0511   -4519.0083   -4859.0511            0    1820.6828    20.061038    20.119754     20.92569    8446.0926    1892.9177    1540.0248    2029.1059    48.304389   -29.112027    1553.5915    -4294.741 
15384000    177.80135    -4896.076   -4553.1711    -4896.076            0    1901.5676    20.000815    19.985909     20.94786    8373.5818    1831.5596    2456.1069    1417.0363   -391.68046    589.46895    275.85422   -4320.9515 
15385000    179.03641   -4889.8305   -4544.5437   -4889.8305            0    1449.4643    20.064755    20.062739    20.800717    8373.4105    1549.4388    919.49852    1879.4555    194.75526    682.00033   -168.52606   -4367.5386 
15386000     174.0748    -4874.567   -4538.8492    -4874.567            0    2337.1371    19.958609    20.096027    20.979909    8414.8055    2568.9036     2725.257    1717.2507    59.202438     620.2849   -118.98694   -4252.0326 
15387000    178.46395   -4894.4085   -4550.2258   -4894.4085            0    1917.3136    19.996465    20.110795    20.998929    8444.6103    2719.2749      1796.95    1235.7158   -612.95314   -73.395442   -1108.1874   -4314.0971 
15388000    176.07927    -4889.971   -4550.3873    -4889.971            0     958.6929    19.903896     20.16151    20.989067    8422.7572    1482.2315    790.19605    603.65112     59.89834    748.35639   -1347.4159   -4432.6241 
15389000    166.42474   -4892.1795   -4571.2154   -4892.1795            0    2300.0275    19.980776    20.051376    20.871989    8362.1963     2444.218    2448.4861    2007.3785   -118.90892    41.511854    470.42309   -4290.7177 
15390000    180.33915   -4877.4941   -4529.6949   -4877.4941            0    2782.0078    20.009504    20.131664    20.993647    8456.7578    4444.2963    613.92826    3287.7988    471.91469   -398.46051    918.82734   -4186.5811 
15391000    180.42069   -4891.7986   -4543.8421   -4891.7986            0    2862.8541    19.883214    19.974752    21.183745    8413.3841    2811.4415    3651.6061    2125.5147   -182.20798   -645.60679   -187.86376   -4192.5682 
15392000    179.41786   -4892.6017   -4546.5793   -4892.6017            0    1487.4102    19.949839    20.119485    20.767985    8335.8643    1202.3287    1939.5619    1320.3401   -327.67609    -828.1776    222.92188   -4365.7548 
15393000    177.04164   -4890.1752   -4548.7355   -4890.1752            0    1458.4742    19.996844    19.997249    20.946305    8376.0478    1896.1902    1580.3391    898.89344   -652.30807   -412.90167    618.16414    -4370.574 
15394000    187.54086   -4900.3385   -4538.6502   -4900.3385            0    626.70726    20.113992    20.152774    20.851853    8452.3554    2072.2959   -1568.1179    1375.9438   -532.02758   -60.083635    322.52047   -4461.3967 
15395000    176.54905    -4882.963   -4542.4733    -4882.963            0     1939.942    19.956472    20.026479    20.988113    8388.0647    1005.0786    2301.4886    2513.2588   -355.94153    785.39556     369.9054   -4305.1576 
15396000    174.55095   -4892.7023   -4556.0661   -4892.7023            0    477.35198    20.087717    20.186123    20.777717    8425.2215    10.403861    -570.2216    1991.8737    50.560999   -63.113643     -529.407   -4497.4124 
15397000    171.41982   -4891.5241   -4560.9266   -4891.5241            0    1953.5441    19.946255    20.061543    21.061484    8427.8091    3219.9131     1385.811    1254.9082   -105.29205    1145.8613   -818.16736   -4320.8146 
15398000    174.00679   -4889.6797    -4554.093   -4889.6797            0    1948.8169    20.167081     20.14739    20.760567    8435.3098    3100.5732    922.09705    1823.7804     613.4664    348.22306   -348.12564   -4314.3489 
15399000    184.69129   -4884.4981   -4528.3054   -4884.4981            0    793.19346    20.086167    20.043693    20.986279    8449.0963    602.91904    87.843908    1688.8174   -301.85957    771.68606    1109.9128    -4430.567 
15400000    171.45356   -4878.2465   -4547.5839   -4878.2465            0    1426.5298    20.133671    20.027487    20.835199    8401.3113    2257.6825   -242.85193    2264.7588   -194.67063    316.34398    949.78359    -4372.799 
15401000    179.54704    -4856.886   -4510.6144    -4856.886            0    1954.4252    20.031263    19.961817     20.95037    8377.2233    4601.5789    286.87881    974.81781   -301.64721   -168.88087   -1275.5314    -4271.836 
15402000    185.92278   -4885.1604   -4526.5926   -4885.1604            0    380.52585    20.106537     20.04298    20.861596    8407.1176     174.2206    616.99848    350.35846   -23.483436    102.79167    1004.7696   -4479.9367 
15403000    186.76799   -4905.1925   -4544.9947   -4905.1925            0    1333.6884    19.978692    20.051883    20.978681    8404.2776    3484.0275    162.87566    354.16199   -388.96362     291.5408    463.24783   -4381.5275 
15404000    176.49883   -4885.0731   -4544.6802   -4885.0731            0    970.14856     20.04426    20.119114    20.951363    8449.1137    655.04967    300.65738    1954.7386    -45.15895   -729.29931    610.51733   -4425.1369 
15405000    177.55799   -4890.3586   -4547.9231   -4890.3586            0    846.54536    20.100478    19.949042    20.925412     8390.782   -333.17759    3034.4669   -161.65323    73.901378    80.473802   -219.40932   -4444.3306 
15406000    174.28437    -4894.243    -4558.121    -4894.243            0   -275.78806    20.142094    19.984049    21.147225    8512.1937   -1024.7381    41.771212    155.60274   -575.86076    450.97269   -1067.8144   -4592.3577 
15407000    179.49595   -4880.8034   -4534.6304   -4880.8034            0    590.34554    20.254767    20.013276    20.784449    8425.2728   -291.75937    300.99451    1761.8015   -131.66402    449.90286   -900.79159   -4462.0923 
15408000    173.00735   -4898.3906   -4564.7314   -4898.3906            0    1263.1132    20.101229    19.833446    21.242518    8468.8958    827.11482    2459.9525    502.27237   -63.156078    209.19234   -416.68194   -4408.7241 
15409000     171.4354     -4883.24   -4552.6124     -4883.24            0    2407.1713    20.106331    19.948789    20.802705    8343.9016    2014.7069    3015.9782    2190.8287   -100.24005     303.8249   -789.99327   -4259.6904 
15410000    175.41478   -4879.2128   -4540.9106   -4879.2128            0    632.12308    20.184273    19.912345    21.153469    8501.9224    681.45597    1098.9472    115.96611   -410.14064    270.57292   -503.19709   -4462.5325 
15411000    175.19744   -4895.7135   -4557.8305   -4895.7135            0     1078.473     20.17666     19.98556    20.982959    8461.2077    803.11359    1376.8898    1055.4157   -246.67311    421.77163    423.39124    -4424.749 
15412000    178.80311   -4879.7425   -4534.9056   -4879.7425            0     1879.968    20.216464    20.003659    20.738135    8386.5691   -747.17304    3579.4941    2807.5829    481.32587    247.12056   -320.18289   -4304.9677 
15413000    175.58611   -4876.9137   -4538.2811   -4876.9137            0    1918.6169    20.034192    19.969306    21.060785    8425.7655    2364.7094    1747.7273    1643.4139    680.67982    -170.5778   -819.85793   -4302.5193 
15414000    181.77568   -4903.5858   -4553.0161   -4903.5858            0    2775.1969     20.24713    19.907577    20.668443    8330.8563    2767.1709     2669.517    2888.9028    491.44228   -1581.5483   -1096.9461    -4215.838 
15415000    175.96706   -4885.5562   -4546.1889   -4885.5562            0    1193.0055    20.067142    19.973845    21.093613    8454.6992    1021.1186    1434.0871     1123.811   -351.43656    1176.6805   -1480.2326   -4399.0876 
15416000    181.43535   -4882.9511   -4533.0378   -4882.9511            0    898.79368    20.038904    20.176766    20.818658    8417.4056    504.49707     520.0607    1671.8233      578.053    31.246364    439.79188   -4422.7026 
15417000    179.31919    -4886.455   -4540.6229    -4886.455            0    2417.1786    19.981578    20.081869    20.853144    8367.6875      1322.07    2876.7661    3052.6998   -233.15311    546.23087    1265.0013   -4245.6446 
15418000    182.84484   -4870.8304   -4518.1987   -4870.8304            0    1818.8976    20.074462     19.93942    21.020579    8413.9727    1397.9861    2929.4675    1129.2391    113.93248     978.9065    610.09264   -4295.0033 
15419000    181.40366    -4869.805   -4519.9527    -4869.805            0    1465.8963    20.073927    20.158576    20.943301    8474.9536    700.99604     1158.284    2538.4088   -623.78765   -412.41155    1565.4794   -4338.7702 
15420000    175.61378   -4874.2614   -4535.5755   -4874.2614            0    1687.2446    20.002982    20.110016    20.934639     8421.174    2750.0329    1.8122584    2309.8885   -176.22753   -421.89361      782.924   -4328.3579 
15421000    175.86519   -4863.4884   -4524.3176   -4863.4884            0    1969.1696    19.952037    20.025836    21.007507    8393.6801    3438.8053    1132.8978    1335.8058   -247.67383    762.03667    148.44142   -4283.2652 
15422000    173.01329   -4882.8666   -4549.1959   -4882.8666            0    1663.1515    20.017834    20.173075    20.781516    8392.0183    2375.2356    1215.0916    1399.1271   -26.640666   -834.08653     -148.224   -4345.6445 
15423000     176.5471   -4897.5576   -4557.0717   -4897.5576            0    1306.0706     19.99864    20.070118    21.067896    8456.1281    3202.6231    404.39395     311.1947    291.04137   -161.55326   -1.1442823   -4396.0019 
15424000    181.94726   -4893.9806     -4543.08   -4893.9806            0    3301.6523    20.106964    20.151991    20.698217    8386.8213    4111.8114     1828.907    3964.2385   -163.02599    22.824794   -219.98717   -4139.2444 
15425000    177.98323   -4888.4219   -4545.1662   -4888.4219            0    1003.2634    20.045512    20.001301    20.950736    8399.9111    755.48603    1300.2483    954.05597   -17.208647   -272.27857    536.25383   -4422.2624 
15426000    168.50378   -4885.5424   -4560.5687   -4885.5424            0    2489.1798    20.044209    19.910483    21.024867    8390.8117    2985.6557    3039.4942    1442.3896    172.92064    414.28625   -900.44228   -4255.9643 
15427000    175.36596    -4875.601    -4537.393    -4875.601            0   -121.04933     20.30568    20.088122    20.768124    8471.3796   -996.54094    35.372316    598.02064    119.84039   -449.85377    671.54138   -4552.3482 
15428000    174.65338   -4875.5224   -4538.6887   -4875.5224            0    971.66497    20.074294    20.067767      21.0934    8497.3973     1260.839    1343.5622    310.59369   -631.20334   -573.63494   -87.042865   -4418.2743 
15429000    184.44196   -4878.3155   -4522.6036   -4878.3155            0    510.91468    20.130347    20.157907    20.837882    8455.7135    733.95586   -185.71841    984.50659   -121.88642   -184.49437   -200.89224   -4459.5987 
15430000    177.21998    -4869.439   -4527.6554    -4869.439            0    970.89453    20.080905    20.005605    20.946379    8414.8022    297.14344    1017.0891    1598.4511   -548.45281   -251.17571     694.9839    -4408.506 
15431000    180.04369   -4890.6617   -4543.4323   -4890.6617            0    2737.6157    19.959182    20.326164    20.627701    8368.5269     3769.928     1287.698     3155.221    26.728114   -540.16715    595.18099   -4209.3162 
15432000    177.56134   -4886.5052   -4544.0632   -4886.5052            0     2530.711    19.921611    20.007399    21.174772    8439.8324    3594.3338    2705.5136    1292.2856   -203.90396    1001.1169   -88.176965   -4232.5673 
15433000    172.64141    -4893.114   -4560.1606    -4893.114            0    2029.5636    20.163598    20.079965     20.76521    8407.5081    1498.6372    1510.3495    3079.7041   -505.15977    61.698649     1151.418   -4311.3059 
15434000    176.47795   -4899.9275   -4559.5749   -4899.9275            0     2684.978    20.061439    19.855171     21.06006    8388.7128    2065.6755    3514.1246     2475.134   -697.80597   -610.82285    937.19671   -4231.0926 
15435000    189.77585   -4898.5747    -4532.576   -4898.5747            0     2170.083    20.186527    19.985147    20.817282    8398.3311    1142.7856    2842.5362    2524.9271    -216.3747    701.83479   -106.61405    -4266.782 
15436000    182.09971   -4878.1134   -4526.9188   -4878.1134            0    1352.4481    20.084411    20.041758    21.003149    8454.3327    459.93294    2311.1413    1286.2701   -299.79917    147.85304    32.600693   -4360.1649 
15437000    175.97347   -4888.3427   -4548.9631   -4888.3427            0    1651.8997    20.057571      20.1436    20.782473    8396.7773    1362.7697    826.54695    2766.3824    128.00972   -455.38214   -1411.6365   -4346.6741 
15438000    182.10385   -4883.3224   -4532.1199   -4883.3224            0    1454.7609    20.085486    20.079691    21.000265    8469.6243    1204.5024    1454.4888    1705.2915    187.71872   -277.16058   -851.84207   -4352.4267 
15439000    168.35926   -4882.7316   -4558.0366   -4882.7316            0    3447.2691    20.071086    19.925387    20.844422    8336.1879    3382.5634     4108.259    2850.9849   -885.71664   -792.64986   -432.87268   -4138.9357 
15440000    183.20864   -4865.6411   -4512.3079   -4865.6411            0    3154.1779    20.129696    19.774811    21.054153    8380.8356    2842.3757    3647.4722    2972.6859   -309.74143    831.13209    397.19186   -4126.7857 
15441000    176.63853   -4878.3829   -4537.7207   -4878.3829            0    1054.6728    20.214968    20.046797    20.823629    8438.6793    1406.0603    189.49329    1568.4649   -990.46114    822.44274   -499.28472   -4407.9226 
15442000    187.14428   -4896.2731   -4535.3496   -4896.2731            0    1927.1895    20.189936    19.918445    20.969365    8432.8746    909.29073    3390.2196    1482.0581    389.97273   -151.96518   -18.773972   -4298.3345 
15443000    182.41942   -4890.2836   -4538.4724   -4890.2836            0    1799.2487    20.121505    19.992692    20.933737    8421.2877    1225.7067    1934.8412    2237.1982   -227.63021   -427.64556   -618.31208   -4317.4961 
15444000    184.74443   -4878.1023   -4521.8071   -4878.1023            0      2837.78    20.067187    20.151992    20.784959    8405.3083    2251.7635    2599.0231    3662.5535   -621.45828    1272.4495   -199.98252   -4173.9441 
15445000    177.76241   -4880.8532   -4538.0234   -4880.8532            0    3026.1927    20.101787    20.053287    20.911383    8429.5231    3273.4215     2878.669    2926.4875   -360.61128    1153.1617    770.41858   -4165.9956 
15446000    173.99976   -4880.4129   -4544.8398   -4880.4129            0   -704.24386    20.216868    20.016994    21.111516    8543.4277   -811.19809   -452.35018   -849.18332    573.03152    574.79485    941.97629   -4632.5865 
15447000    171.68702   -4868.9966   -4537.8838   -4868.9966            0    2374.1634       20.147    19.989232    20.743771    8353.9948     159.6115    3674.6195    3288.2592   -182.09219    472.15027   -108.89723   -4248.6289 
15448000    172.26761   -4866.9328   -4534.7002   -4866.9328            0    1541.7843    20.094667    20.056636    20.941999    8440.2834   -44.288929    2051.6516    2617.9903    -442.9673    74.631892   -1012.2092   -4344.9176 
15449000    177.84224   -4865.8371   -4522.8534   -4865.8371            0     2328.668    20.079507    20.056615    20.969983    8445.1772    939.89673    2884.0898    3162.0175    1194.8397    618.68092    180.57862   -4236.0448 
15450000    174.66859   -4886.5499   -4549.6868   -4886.5499            0    1990.1209    20.070725    20.080177    20.840107    8399.0574    819.78276    2728.7496    2421.8302   -281.00673   -578.17669    154.97551   -4305.9136 
15451000    177.30091   -4890.6498   -4548.7101   -4890.6498            0    2018.0324      19.9434    20.065001    21.047222    8422.3473    2305.5064    2034.7655    1713.8252    33.469986    506.09769    238.29407   -4300.8326 
15452000    172.81069   -4873.7398   -4540.4598   -4873.7398            0    2228.8605    20.119268    20.066382    20.834412    8411.2877     1090.133    3371.8418    2224.6068    20.540259    131.49814    1530.6559   -4267.0455 
15453000    166.80945   -4883.3362   -4561.6302   -4883.3362            0    3054.0985     20.11586    20.008854    20.906735    8414.8629    2459.0031    4218.1803    2485.1122   -792.84241    464.92938   -589.94035   -4186.8246 
15454000    176.45824   -4895.4199   -4555.1054   -4895.4199            0    2047.3852    20.068801    19.933021    20.926878    8371.4175    459.72947     3782.696    1899.7303   -403.64769    736.74871   -366.18464   -4305.1431 
15455000    168.86543   -4890.0916   -4564.4204   -4890.0916            0    1347.2065    20.099288     19.96526     20.90543    8389.0882    1651.2102    1676.6586     713.7507   -191.35456   -13.374352    258.59962   -4399.5948 
15456000    172.55438   -4891.0366    -4558.251   -4891.0366            0    3338.9613    19.928546    19.866775    21.063387    8339.3302    2932.2661    5381.3191    1703.2986    592.04854   -890.59594    -224.6797   -4152.1646 
15457000    177.78691   -4886.3715   -4543.4945   -4886.3715            0    1179.7896    20.070211    20.026907    20.777475    8351.3865    154.26824    1920.2768    1464.8237    83.753681    784.43187     1784.252   -4399.8003 
15458000    176.55357   -4876.0932   -4535.5948   -4876.0932            0    1743.2113    20.012433    20.108308    20.883856    8404.0012   -40.089968    2716.8647    2552.8591     409.2477   -178.32515   -620.08875   -4321.9403 
15459000    180.55803   -4892.4115   -4544.1902   -4892.4115            0    2197.7934    20.133695    19.889266     21.07695    8440.1466    2478.1863    3085.1343    1030.0596    10.586134    -1504.845    790.41431   -4273.6619 
15460000    185.44975   -4877.4098   -4519.7543   -4877.4098            0    1542.5218    20.167461    20.069595    20.792421      8415.79    1362.8799    301.76631    2962.9192   -501.09709     1405.835    320.25328   -4330.4319 
15461000    181.42896   -4893.5931   -4543.6921   -4893.5931            0    840.28755    20.020885     19.87584    21.279741    8467.8881    1073.5697    1689.4201   -242.12715    248.42857   -944.76303   -711.16414   -4439.9204 
15462000     184.3833    -4892.552   -4536.9533    -4892.552            0    3353.8057    20.109697    19.977331    20.744072    8333.6835     3868.827    2596.7888    3595.8012    242.37587   -469.48767    1393.2129   -4129.3377 
15463000    187.30386   -4889.7666   -4528.5353   -4889.7666            0    451.77868    20.169482    20.082212    20.980641    8498.1629   -1372.9682    2213.4859    514.81836    -12.51165    535.21151    36.017858   -4472.5432 
15464000    179.02733   -4884.8697   -4539.6004   -4884.8697            0    264.05604    20.062498    20.259623    20.825562    8464.7296    896.24897   -961.72525    857.64441    136.91998    -263.2626   -189.74914   -4507.0028 
15465000    170.22166   -4901.6482   -4573.3614   -4901.6482            0    845.92628    20.093705    19.965146    20.945689    8402.8606    1892.7499    439.34986    205.67911   -30.623741     704.6663   -260.65439   -4469.6956 
15466000    176.21438   -4891.6851   -4551.8409   -4891.6851            0    2221.5319    20.108555    20.045975    20.763354    8369.6161    1282.0651    2880.7232    2501.8076   -16.632575    162.74903    81.428906   -4280.6757 
15467000    166.31698    -4887.738   -4566.9817    -4887.738            0    1699.1368    20.034397    19.922068    20.922835    8350.8603    2292.7019    1058.0865     1746.622   -170.14811   -413.41483    558.19569    -4360.046 
15468000    177.15845   -4868.4818   -4526.8168   -4868.4818            0     2230.099    20.050914    20.015621    20.931505    8400.4723    3046.4216    1461.8737    2182.0018    683.61171    1066.7913    518.30505   -4253.6023 
15469000    180.97989   -4884.5478   -4535.5129   -4884.5478            0    80.347846    20.018133    20.255057    20.910929     8478.721    1472.1103   -2276.1173    1045.0505    555.28157    289.16172     73.55217   -4525.5776 
15470000    173.84396   -4895.7663   -4560.4936   -4895.7663            0      1223.79    20.030631    20.072175     21.00407    8444.8614    1010.3329    2739.3643   -78.327292    199.35013    321.16812   -175.62473   -4409.7721 
15471000    173.00445   -4880.8888   -4547.2351   -4880.8888            0    1272.1106    20.126006    20.245294    20.758511    8458.1989    227.07513    1217.9882    2371.2686    31.589335    352.68846    253.01094    -4390.315 
15472000    173.63367   -4893.5776   -4558.7105   -4893.5776            0    1205.5157    20.047227    20.066945    21.008204     8451.319     2086.732    428.57823    1101.2369    -489.9765    145.60983    5.2381151   -4410.1261 
15473000    169.68377   -4877.4104    -4550.161   -4877.4104            0    1728.5683    20.086497    20.183694    20.812221    8437.6842    1882.1269    212.30239    3091.2756    912.83844    131.83597   -944.53769   -4337.4521 
15474000    171.85647    -4875.424   -4543.9843    -4875.424            0    602.38733    19.998313    20.152228    21.006449    8465.8205    1439.5396    94.419417    273.20298    92.536856   -106.73369   -181.47932   -4469.6104 
15475000    176.35089   -4895.1851   -4555.0776   -4895.1851            0    1614.6054    20.092584    19.995542    20.842928    8373.8988    3297.3797    604.31273     942.1239   -48.455019   -19.104842    427.30039   -4357.8943 
15476000    180.22571    -4887.799   -4540.2185    -4887.799            0    3228.1457    20.026119    19.923212    21.047028    8397.4403    3334.9088    4441.5025    1908.0257   -721.57051   -468.58826   -634.72592   -4144.8738 
15477000    198.33031    -4879.253   -4496.7564    -4879.253            0    1473.3673    20.163608    20.086064    20.818519    8431.6564    1060.5948    1532.3877    1827.1193   -727.43326   -271.36919   -196.54574   -4315.5807 
15478000    187.48134   -4882.7187   -4521.1452   -4882.7187            0    2087.4142    20.019563    20.012091     20.91107    8377.6716    1551.9712    1488.2739    3221.9975    748.12278    976.37852   -793.35187   -4266.1055 
15479000    180.08838   -4881.9512   -4534.6356   -4881.9512            0    2254.4694    19.989492     20.12504    20.869893    8395.7351    3409.3303    974.19697    2379.8811   -829.67712   -49.116304   -874.99382   -4258.5912 
15480000    186.73562   -4872.9011   -4512.7657   -4872.9011            0    3152.6078    19.920812    20.151691      20.7914    8346.4588    4767.4193    2155.5382    2534.8658    -210.1331     303.1149   -568.95564    -4129.016 
15481000    179.40013     -4870.85   -4524.8617     -4870.85            0    3158.2883    19.913331    19.925484    20.959602    8316.4086    5068.0081    1935.1337    2471.7232    240.04809   -273.63168   -277.24174   -4141.8047 
15482000    181.99429   -4889.6053    -4538.614   -4889.6053            0     2759.258    19.963934    20.050498     20.79055    8322.1827    2032.4618    3503.3752    2741.9372   -265.71555    687.21422   -609.44423   -4203.7215 
15483000    184.48005   -4900.4652   -4544.6799   -4900.4652            0    2022.5742    19.790425    20.139453    20.827519    8301.1898     1675.946    2356.7111    2035.0654   -841.15577    -575.8256    467.91708   -4299.8183 
15484000    179.73548   -4873.2846   -4526.6496   -4873.2846            0    1535.4788    19.980718     20.03113    21.022327    8413.8997    1411.1701    1590.5262    1604.7399   -379.03577   -628.73318   -162.25759    -4338.234 
15485000    171.09411   -4888.1625   -4558.1931   -4888.1625            0    3448.0947    20.159385    20.043784     20.58548    8317.9826    3328.2732    2444.5338    4571.4772    374.98945     160.7034    110.68337   -4139.9073 
15486000    169.20564   -4884.0241   -4557.6968   -4884.0241            0    207.69771    20.032031    20.140786      20.9205    8440.6025    691.09467   -1173.4999    1105.4984     144.7674   -284.92054   -367.73416   -4532.1297 
15487000     171.2606   -4870.4349   -4540.1444   -4870.4349            0    2313.3619     19.94602    20.059422    20.943984    8379.8062    2659.5829    1883.2612    2397.2415   -227.10309    432.98411    284.37311   -4257.4264 
15488000    179.77612   -4880.0622   -4533.3488   -4880.0622            0    1024.3897    20.037053     20.13717    20.847499     8411.748    1960.0233   -317.79549    1430.9412    1136.1962    -276.7438    -419.8471   -4407.6801 
15489000    169.62267   -4874.3566    -4547.225   -4874.3566            0    1714.4928    20.099319    20.054687    20.854946    8406.3274    1976.7185     1225.687    1941.0731   -214.36517    317.86419   -104.07263   -4337.0322 
15490000    186.94197   -4894.8376   -4534.3043   -4894.8376            0    1384.2138    20.025043     20.02769    20.922357    8391.0234    303.36793    2678.1438    1171.1296   -34.529795    1760.3574   -606.58434   -4364.9119 
15491000    165.15135   -4876.6315   -4558.1232   -4876.6315            0    3761.3844    19.911585    20.160477    20.762413    8334.5939    4583.2962    2676.2012    4024.6559    291.66588    200.45842    183.09637   -4100.9213 
15492000    173.97421   -4877.8867   -4542.3628   -4877.8867            0    1310.2591    20.031663    20.047183    21.011002    8437.5649    1753.7089    914.18027     1262.888    69.309493   -409.51308   -275.45847   -4381.1312 
15493000    185.21482   -4883.4351   -4526.2327   -4883.4351            0    2225.8167    20.163637    20.072872    20.866448    8445.5304    2487.6367    1892.0889    2297.7245   -5.1057793    1526.3016    1061.9944   -4252.0802 
15494000    178.19215   -4872.1994   -4528.5408   -4872.1994            0    1546.7318    19.989186    20.038976    21.042258     8428.746    2371.1148    1676.3119    592.76855    140.73146    465.68999     1116.205   -4338.4094 
15495000     184.9853   -4868.4426   -4511.6829   -4868.4426            0    2321.4339    20.053739    19.951468    20.935914    8376.4913    3364.7135    1599.6079    1999.9805   -65.303958    25.153995    101.74299   -4228.0907 
15496000    188.04641   -4888.1489   -4525.4856   -4888.1489            0    798.13161    20.166103    20.007121    20.906977     8435.247   -480.51652    1946.0853    928.82599   -34.941534   -175.55782    509.26917   -4427.2999 
15497000    175.12897   -4884.3404   -4546.5894   -4884.3404            0    1538.8704    20.101343    20.055226    20.918581    8433.0536    2376.1498    933.79224     1306.669   -399.65583   -529.81428   -352.01723   -4357.3277 
15498000    182.52107   -4880.0163   -4528.0091   -4880.0163            0    2015.9033    20.115749    19.978701    20.879131    8391.0418    582.27045    3603.3955    1862.0439   -541.85633     196.8814    600.78614   -4281.3135 
15499000    176.15748   -4898.6986    -4558.964   -4898.6986            0    1623.5792    20.033792    20.034926    20.977776    8419.9662    490.59734    2748.6618    1631.4785    206.51945    431.32193    977.82181   -4359.5941 
15500000    184.62636   -4866.1424   -4510.0749   -4866.1424            0    2367.8825    19.990652    20.106525    20.704324    8321.9488    1066.6124    3200.9577    2836.0775   -492.07011    903.58769    -193.5315   -4222.6919 
Loop time of 347.339 on 64 procs for 250000 steps with 972 atoms

Performance: 124.374 ns/day, 0.193 hours/ns, 719.757 timesteps/s
195.7% CPU use with 32 MPI tasks x 2 OpenMP threads

MPI task timing breakdown:
Section |  min time  |  avg time  |  max time  |%varavg| %total
---------------------------------------------------------------
Pair    | 28.44      | 35.086     | 42.881     |  66.3 | 10.10
Bond    | 1.027      | 1.2686     | 1.5503     |  12.0 |  0.37
Kspace  | 152.95     | 161        | 169.7      |  33.2 | 46.35
Neigh   | 1.1994     | 1.2945     | 1.3576     |   4.1 |  0.37
Comm    | 62.458     | 65.616     | 70.654     |  24.7 | 18.89
Output  | 0.57698    | 0.57721    | 0.57879    |   0.0 |  0.17
Modify  | 67.472     | 69.923     | 73.449     |  15.2 | 20.13
Other   |            | 12.57      |            |       |  3.62

Nlocal:        30.3750 ave          37 max          24 min
Histogram: 3 3 1 7 3 4 5 0 3 3
Nghost:        2613.34 ave        2634 max        2596 min
Histogram: 3 6 2 3 3 4 3 5 2 1
Neighs:        9462.62 ave       12578 max        7273 min
Histogram: 2 7 4 3 6 2 3 0 4 1

Total # of neighbors = 302804
Ave neighs/atom = 311.52675
Ave special neighs/atom = 2.0000000
Neighbor list builds = 4222
Dangerous builds = 0

unfix		3
unfix		2
unfix		1

write_data	data.final.${pid}
write_data	data.final.1
System init for write_data ...
PPPM initialization ...
  extracting TIP4P info from pair style
  using 12-bit tables for long-range coulomb (../kspace.cpp:340)
  G vector (1/distance) = 0.37236969
  grid = 24 24 25
  stencil order = 5
  estimated absolute RMS force accuracy = 0.0034134214
  estimated relative force accuracy = 1.0279417e-05
  using double precision FFTW3
  3d grid and FFT values/proc = 3458 576
Last active /omp style is kspace_style pppm/tip4p/omp
WARNING: Not all mixed pair coeffs generated from mixing. Use write_data with 'pair ij' option to store all pair coeffs. (../write_data.cpp:312)

write_restart   restart.lmp.${pid}
write_restart   restart.lmp.1
System init for write_restart ...
PPPM initialization ...
  extracting TIP4P info from pair style
  using 12-bit tables for long-range coulomb (../kspace.cpp:340)
  G vector (1/distance) = 0.37236969
  grid = 24 24 25
  stencil order = 5
  estimated absolute RMS force accuracy = 0.0034134214
  estimated relative force accuracy = 1.0279417e-05
  using double precision FFTW3
  3d grid and FFT values/proc = 3458 576
Last active /omp style is kspace_style pppm/tip4p/omp
Total wall time: 0:05:47
