#include		in.partitions
include		in.temp
variable        temperature equal 130.10
variable	tempDamp equal 100.0
include		in.pressure
variable        pressure equal 2055.2
variable        pressureDamp equal 1000.0 # This is 1 ps
include		in.seed
variable        seed equal 745823

units		real
atom_style	full
box tilt large
read_restart	restart.lmp.${pid}
read_restart	restart.lmp.0
Reading restart file ...
  restart file = 30 Jul 2021, LAMMPS = 30 Jul 2021
  restoring atom style full from restart
  triclinic box = (-10.758351 -9.1340709 0.086467110) to (12.738351 12.124069 21.773532) with tilt (-9.3614702 1.8510347 2.7858971)
  2 by 2 by 4 MPI processor grid
  restoring pair style lj/cut/tip4p/long/omp from restart
  restoring bond style harmonic/omp from restart
  restoring angle style harmonic/omp from restart
  1296 atoms
  864 bonds
  432 angles
Finding 1-2 1-3 1-4 neighbors ...
  special bond factors lj:    0        0        0       
  special bond factors coul:  0        0        0       
     2 = max # of 1-2 neighbors
     1 = max # of 1-3 neighbors
     1 = max # of 1-4 neighbors
     2 = max # of special neighbors
  special bonds CPU = 0.001 seconds
  read_restart CPU = 0.006 seconds
include 	in.setup
variable	out_freq equal 1000
variable	out_freq2 equal 10000
variable	out_freq3 equal 1000

timestep	2.0

neigh_modify    delay 7 every 1

include		in.tip4p
# This is TIP4P/Ice

# create groups ###
group ox type 2
432 atoms in group ox
group hy type 1
864 atoms in group hy

# set charges - beside manually ###
set group ox charge -1.1794
Setting atom values ...
  432 settings made for charge
set group hy charge 0.5897
Setting atom values ...
  864 settings made for charge

# ### TIP3P Potential Parameters ###
pair_style lj/cut/tip4p/long/omp 2 1 1 1 0.1577 8.5
pair_coeff 1 1*2 0.000 0.000
pair_coeff 2 2 0.21084 3.1668
bond_style  harmonic
bond_coeff  1 450 0.9572
angle_style harmonic
angle_coeff 1 55 104.52
kspace_style pppm/tip4p/omp 1.0e-5
pair_modify tail yes

thermo          ${out_freq}
thermo          1000
thermo_style    custom step temp pe etotal epair emol press lx ly lz vol pxx pyy pzz pxy pxz pyz enthalpy

restart 	${out_freq3} restart.lmp.${pid} restart2.lmp.${pid}
restart 	1000 restart.lmp.${pid} restart2.lmp.${pid}
restart 	1000 restart.lmp.0 restart2.lmp.${pid}
restart 	1000 restart.lmp.0 restart2.lmp.0


include         in.dump
dump            myDump all atom ${out_freq2} dump.water.${pid}
dump            myDump all atom 10000 dump.water.${pid}
dump            myDump all atom 10000 dump.water.0
dump            myDump2 all dcd ${out_freq2} dump.dcd
dump            myDump2 all dcd 10000 dump.dcd
dump_modify     myDump append yes
dump_modify     myDump2 append yes


variable natoms 	equal  "count(all)"                        # NUMBER ATOMS
variable H      	equal  "enthalpy/v_natoms"                 # ENTHALPY-per-atom
variable Vol      	equal  "vol/v_natoms"                 # volume-per-atom
fix AVG all 		ave/time ${out_freq} 1 ${out_freq} v_Vol v_H file vol_enthalpy.dat
fix AVG all 		ave/time 1000 1 ${out_freq} v_Vol v_H file vol_enthalpy.dat
fix AVG all 		ave/time 1000 1 1000 v_Vol v_H file vol_enthalpy.dat


timer           timeout 10:00:00 every 1000
New timer settings: style=normal  mode=nosync  timeout=10:00:00

fix 		1 all shake 1e-6 200 0 b 1 a 1
       0 = # of size 2 clusters
       0 = # of size 3 clusters
       0 = # of size 4 clusters
     432 = # of frozen angles
  find clusters CPU = 0.000 seconds
fix             2 all nph tri ${pressure} ${pressure} ${pressureDamp}
fix             2 all nph tri 2055.2 ${pressure} ${pressureDamp}
fix             2 all nph tri 2055.2 2055.2 ${pressureDamp}
fix             2 all nph tri 2055.2 2055.2 1000
fix             3 all temp/csvr ${temperature} ${temperature} ${tempDamp} ${seed}
fix             3 all temp/csvr 130.1 ${temperature} ${tempDamp} ${seed}
fix             3 all temp/csvr 130.1 130.1 ${tempDamp} ${seed}
fix             3 all temp/csvr 130.1 130.1 100 ${seed}
fix             3 all temp/csvr 130.1 130.1 100 745823


run             250000
PPPM initialization ...
  extracting TIP4P info from pair style
  using 12-bit tables for long-range coulomb (../kspace.cpp:340)
  G vector (1/distance) = 0.36806463
  grid = 30 40 32
  stencil order = 5
  estimated absolute RMS force accuracy = 0.0043445381
  estimated relative force accuracy = 1.3083447e-05
  using double precision FFTW3
  3d grid and FFT values/proc = 11832 2400
Last active /omp style is kspace_style pppm/tip4p/omp
Neighbor list info ...
  update every 1 steps, delay 7 steps, check yes
  max neighbors/atom: 2000, page size: 100000
  master list distance cutoff = 10.8154
  ghost atom cutoff = 10.8154
  binsize = 5.4077, bins = 7 5 5
  1 neighbor lists, perpetual/occasional/extra = 1 0 0
  (1) pair lj/cut/tip4p/long/omp, perpetual
      attributes: half, newton on, omp
      pair build: half/bin/newton/tri/omp
      stencil: half/bin/3d/tri
      bin: standard
Per MPI rank memory allocation (min/avg/max) = 12.75 | 12.76 | 12.76 Mbytes
Step Temp PotEng TotEng E_pair E_mol Press Lx Ly Lz Volume Pxx Pyy Pzz Pxy Pxz Pyz Enthalpy 
22250000    136.78676   -6664.6579   -6312.7822   -6664.6579            0    1702.6439    23.496702     21.25814    21.687065    10832.606    305.36614    2678.9002    2123.6653    59.754181    427.48761    604.25106   -6043.7944 
22251000    130.23843   -6673.7897   -6338.7593   -6673.7897            0    1519.5501    23.429206    21.197711    21.844504    10848.975    1016.5382    2189.0656    1353.0467    43.896164   -684.63666    261.88218   -6098.3343 
22252000    133.88647    -6681.454   -6337.0393    -6681.454            0    2442.4961    23.405613    21.287445    21.692917    10808.403    1129.7752    4135.0861    2062.6271    -99.76889   -150.31767   -252.21889   -5952.0299 
22253000    133.44644   -6681.8853   -6338.6024   -6681.8853            0    2082.4763    23.416767    21.256085    21.719431     10810.82    2256.4389    2675.0903    1315.8996    72.398096   -581.02082   -72.224346   -6010.2694 
22254000    126.38747   -6682.8369   -6357.7128   -6682.8369            0    2146.6565    23.385484    21.117952    21.927432     10828.94    2113.3253     3563.677    762.96713     -25.2216   -674.02767   -254.43802   -6018.6935 
22255000    128.46246   -6673.8636   -6343.4018   -6673.8636            0    2283.6743    23.412255    21.302487     21.68262    10813.974    418.97167    2667.2025    3764.8487   -151.29691    354.24234    379.11193   -5983.2418 
22256000    134.30092   -6671.6194   -6326.1385   -6671.6194            0    2715.1633    23.377651    21.235121    21.714438    10779.639    2035.6003    3221.0674    2888.8221      -240.46    33.928096     305.0144   -5899.2877 
22257000    130.79815   -6682.2587   -6345.7885   -6682.2587            0    3161.7395    23.331593    21.243392    21.749522     10779.98    2160.5191    4003.6558    3321.0436    380.76047    381.13636   -289.69686   -5848.7157 
22258000    133.84022   -6679.8344   -6335.5386   -6679.8344            0     2149.463    23.357767    21.373109    21.672268    10819.405    1848.8891    1605.0176    2994.4822    84.249869    847.98114    265.59384    -5996.375 
22259000     139.8864   -6678.3958   -6318.5466   -6678.3958            0    2627.1593    23.341093    21.316114    21.744171    10818.625    2209.3671    2646.5008    3025.6101   -252.11592   -778.57687    558.63713   -5904.0372 
22260000    131.81812   -6671.6008   -6332.5067   -6671.6008            0    2323.8112    23.351831    21.304969    21.770592    10831.088     2261.312    2743.8579    1966.2637   -396.05926    210.71536   -280.95593   -5965.4368 
22261000    130.01573   -6674.8123   -6340.3548   -6674.8123            0     2611.304    23.359762    21.300441    21.705379    10800.016    2696.2625    2536.3803    2601.2692   -39.841173    148.61228   -265.71468   -5929.0557 
22262000    131.88279   -6657.9829   -6318.7225   -6657.9829            0     1314.369    23.358746    21.348159    21.812719    10877.266    1320.6995    2391.5737    230.83401    235.95191   -336.57416    240.44842   -6110.2192 
22263000    134.04007   -6666.4712   -6321.6613   -6666.4712            0    873.06856    23.485766    21.307449    21.772947    10895.657    1292.2627    1052.5898    274.35324   -292.47671   -270.03296    124.50037    -6182.929 
22264000    126.70024   -6679.1537   -6353.2251   -6679.1537            0    2218.6234    23.408947    21.325007    21.680179    10822.658    1965.4827    1704.0895    2986.2979   -229.58327   -1317.1867   -215.38506   -6003.0434 
22265000    135.15606   -6683.8299   -6336.1491   -6683.8299            0    3249.9813     23.26569    21.333258     21.73929    10789.927    4146.1504    3784.7883    1819.0051    309.66528   -590.80838    61.822248    -5824.732 
22266000    126.89396   -6667.8714   -6341.4444   -6667.8714            0      1292.21    23.383248    21.444175    21.666252    10864.206      1453.35    788.49406     1634.786   -577.93189   -570.50712    339.53126   -6136.7024 
22267000    131.85134   -6676.4888   -6337.3093   -6676.4888            0    2784.6851     23.25976    21.402116    21.725314    10815.037    2067.6618    3625.1463    2661.2473    466.72408    -646.3526   -480.46351   -5898.0914 
22268000    127.49647   -6683.5835   -6355.6066   -6683.5835            0    2893.7171    23.269456    21.362363    21.702264    10787.991    2412.1371    2991.3264    3277.6876   -46.896819    104.48916    413.61988   -5900.3329 
22269000    130.10344   -6676.4834   -6341.8002   -6676.4834            0    2486.3482    23.332166    21.362996    21.631019    10781.872    2822.4763    2577.0505    2059.5177   -1024.3104    -597.9564    79.929556   -5950.8405 
22270000    125.62292   -6670.6557   -6347.4984   -6670.6557            0    2101.6333    23.264265    21.305598    21.823227    10816.881     2842.361    1965.1028    1497.4361    88.179816    57.602595   -706.48067   -6015.9592 
22271000    125.95467   -6681.0834   -6357.0727   -6681.0834            0    2381.9969    23.287602    21.385883    21.668388    10791.419    2182.1813    1736.2773     3227.532    22.708707   -712.99132    798.86381   -5982.1898 
22272000    132.28538   -6677.4727   -6337.1767   -6677.4727            0    2901.6768    23.254726    21.325096    21.760039    10791.005    3175.5305    2944.0925    2585.4074    248.03143   -776.85796   -350.66141   -5880.5231 
22273000     131.9247   -6687.2164   -6347.8481   -6687.2164            0    1095.6664    23.333584    21.437937    21.712154    10860.939    1129.4181     1178.303    979.27828   -106.35803   -842.56205   -561.89516   -6174.2993 
22274000    141.94733   -6667.1494   -6301.9985   -6667.1494            0    1465.0233    23.349001    21.325956    21.791595    10850.901     1122.528    1802.2537    1470.2883    504.26344    29.944268    169.25794   -6070.1597 
22275000    133.86209   -6661.6201    -6317.268   -6661.6201            0    3490.0352    23.271719    21.336966    21.728707    10789.344    2693.9032    3562.8293    4213.3732    212.59198    651.49214    450.54831   -5768.1057 
22276000    136.34026   -6673.7521   -6323.0251   -6673.7521            0    2580.5999    23.313965    21.416593    21.655778    10812.853    3107.3233     2058.256    2576.2205   -1475.5785    13.455738     112.3197    -5916.079 
22277000    132.68652   -6670.8179   -6329.4899   -6670.8179            0    2215.2682    23.279908    21.354191    21.765532     10820.16    2016.5914    1972.0007    2657.2123    332.29146   -221.14528    511.40203   -5979.9185 
22278000    124.32679   -6675.6386   -6355.8155   -6675.6386            0    2309.6141    23.239067    21.350428    21.775602    10804.271    1517.4844    3164.1725    2247.1854    106.73289    445.61336    -148.3235   -5991.8914 
22279000    129.49829   -6684.0228   -6350.8963   -6684.0228            0     1074.507    23.459739     21.41345     21.62375    10862.776    563.34265    1095.6767    1564.5017    579.58711    89.773428   -1012.6299   -6180.6703 
22280000    135.07947   -6664.9541   -6317.4704   -6664.9541            0    2313.8806    23.288622    21.399356    21.762805    10845.745    2851.9449    1715.4051    2374.2918    352.41352   -370.58939    1222.5137   -5951.4745 
22281000    136.42465    -6676.593   -6325.6489    -6676.593            0    2275.0914    23.228204    21.369132    21.788716     10815.19    2801.4808     2336.388    1687.4055   -842.37616    768.54464   -215.23244   -5966.8022 
22282000    136.23355   -6681.0358   -6330.5833   -6681.0358            0    2270.3294    23.270182    21.447337    21.691314    10825.776    2323.8947    2707.5492    1779.5443   -830.71784   -400.01226    -22.86161   -5972.1372 
22283000    125.94288   -6661.8812   -6337.9008   -6661.8812            0    1910.3576    23.257378    21.486254    21.714962    10851.269    1147.8501    1836.4805    2746.7422   -793.96751   -119.35624    746.13312   -6035.5779 
22284000    130.81955   -6681.4422   -6344.9168   -6681.4422            0    2400.4163    23.254545    21.422543    21.686947    10803.819    2742.1378    2181.5374    2277.5736    1038.0444   -162.75688    469.08271   -5966.7009 
22285000    123.97165   -6676.5601   -6357.6506   -6676.5601            0    1772.5392    23.243016    21.480468     21.72454     10846.43    1420.1852     1398.872    2498.5604   -36.171438    728.76207    219.06586   -6077.2631 
22286000    129.49111    -6682.677    -6349.569    -6682.677            0    1093.3474     23.30451    21.484744    21.712032    10871.028    1285.1358    302.14584    1692.7607    191.21813    320.62183    15.836182   -6176.2267 
22287000    128.12626   -6665.1416   -6335.5446   -6665.1416            0    1621.1434    23.253993    21.507436    21.680083    10842.942    2048.6396    964.94118    1849.8493   -561.29652   -70.812483    140.39355    -6079.188 
22288000    132.18535   -6677.8265   -6337.7878   -6677.8265            0    2731.4141    23.157856    21.499299    21.718456    10813.134    3060.5612    2227.6541    2906.0271    610.75769    70.248213    453.51802   -5907.0479 
22289000    129.58686   -6673.3699   -6340.0156   -6673.3699            0    1489.9546    23.243559    21.528425    21.703543    10860.393    1193.0457    1598.1408    1678.6772    286.76221   -277.66177   -287.86473   -6104.0252 
22290000    128.08962    -6676.572   -6347.0692    -6676.572            0    1699.6113    23.197278    21.504809    21.745843     10847.98    2722.5216    559.07234    1817.2399    185.73705   -384.05703    523.55247   -6078.1794 
22291000    127.47855   -6677.1794   -6349.2486   -6677.1794            0    2710.9786    23.182635    21.515008    21.643113    10795.035    3499.3863    2611.0133    2022.5362    17.078096    303.43172   -435.61281    -5922.447 
22292000    129.04239   -6674.9416   -6342.9879   -6674.9416            0    1272.6257    23.162482    21.582795     21.72688    10861.508    2274.4336    246.07643    1297.3671   -119.86329   -68.966577   -81.411199    -6141.399 
22293000    138.54603   -6690.4422    -6334.041   -6690.4422            0    1812.5555    23.147944    21.529491    21.747733    10838.276    2028.9034    1220.6527    2188.1102    1050.2729    818.18293   -62.033682   -6047.5392 
22294000    130.68354   -6672.6089   -6336.4334   -6672.6089            0    1449.7908    23.233848     21.54978    21.709525    10869.619     1599.963    1117.5494      1631.86   -340.34964    80.901214    95.504736   -6106.6094 
22295000    121.86793   -6690.9991   -6377.5012   -6690.9991            0     1826.846    23.208407    21.528514    21.680329    10832.414    1774.3661    719.05535    2987.1165    296.73554    442.41597    1218.7935   -6088.8967 
22296000    126.56916   -6656.8688   -6331.2774   -6656.8688            0     1929.594      23.1397    21.545195    21.751895    10844.393    2149.5629    2476.2138    1163.0054    644.46225    343.54633   -382.58937   -6026.1037 
22297000    128.18365   -6681.6196   -6351.8749   -6681.6196            0    1462.5006      23.1803    21.619027    21.671835    10860.526    1034.6239    1679.1299     1673.748   -315.18344    40.990932   -223.00825     -6120.23 
22298000    136.07951   -6678.6214   -6328.5651   -6678.6214            0    1255.8762    23.204342    21.481372    21.785234    10859.092    1631.7372    1125.1317    1010.7597     -582.756     207.5762   -566.44583   -6129.6736 
22299000    128.00345   -6655.5882   -6326.3071   -6655.5882            0    2432.7556    23.127008    21.500713    21.751883    10816.062    2685.9232    2210.8656    2401.4779   -194.16603   -144.00093     950.7016   -5942.5614 
22300000    129.88941   -6671.6198   -6337.4872   -6671.6198            0    2117.1912    23.170751    21.551619     21.65022     10811.41    3075.4343    1703.4364    1572.7028    125.21749    -417.2041   -498.56921   -6003.6627 
22301000    131.49571   -6661.8189   -6323.5542   -6661.8189            0    2216.3453    23.159895    21.546344    21.691536    10824.317    2499.9146    2138.2255    2010.8958    147.65297    1033.6358   -438.53192   -5973.6785 
22302000    130.38157   -6687.1722   -6351.7736   -6687.1722            0    2137.3498    23.169151    21.482854    21.710379    10806.113    2615.3372    2337.1182    1459.5941    191.95249    -70.30878    448.52699   -6014.9356 
22303000    126.15003    -6673.826   -6349.3127    -6673.826            0    2353.5552    23.242797    21.512273    21.638143    10819.188    2867.0764    1931.6685    2261.9206   -365.96504    252.92375    32.881812   -5977.9529 
22304000    131.25365   -6666.5186   -6328.8766   -6666.5186            0    1688.4683     23.13178    21.547312    21.801383    10866.413    2510.7503    547.05054     2007.604   -154.12851    176.06138   -32.070572   -6061.2958 
22305000    134.73202   -6678.6672   -6332.0773   -6678.6672            0    3052.3694    23.115859    21.500101    21.688154    10778.867     4295.871    2718.8676    2142.3697    983.54769    397.74974    -153.8586   -5852.2488 
22306000    131.19584   -6658.3251   -6320.8318   -6658.3251            0    2272.6127    23.218503    21.519649    21.651775    10818.397    1589.6109    1936.9469    3291.2803    671.20405    125.41878    722.33339   -5962.2698 
22307000    132.13348   -6677.7957   -6337.8904   -6677.7957            0    2569.6198    23.112752    21.493273     21.74214    10800.814    4039.5453    1120.8513    2548.4629    81.552578   -698.71909   -290.36589    -5933.127 
22308000    129.36176   -6673.2652   -6340.4899   -6673.2652            0    3675.3359     23.17785    21.461769    21.622211    10755.702     3851.196    2436.5288     4738.283   -171.52036    1009.6356    5.4318378   -5763.9735 
22309000    131.17231   -6675.9159   -6338.4831   -6675.9159            0    2850.3979    23.142649    21.512855    21.641864    10774.715    2395.1495    2646.4161    3509.6281   -583.13003    375.77551    1158.7037   -5890.5768 
22310000    125.14382   -6684.8819    -6362.957   -6684.8819            0    1299.4193    23.195399    21.503935    21.758631    10853.039    1546.9997    1519.5794    831.67864    496.09805    -963.3884   -398.65546   -6157.2844 
22311000    131.44951   -6678.0941   -6339.9483   -6678.0941            0    1559.7469    23.237354    21.550043    21.632676    10832.908    1538.2977    805.03787    2335.9052   -1317.0622     184.5996    428.07956   -6093.5288 
22312000    127.12716   -6657.4804   -6330.4535   -6657.4804            0    2206.1243    23.214229    21.439042    21.747102    10823.333    2066.7695    2228.7842    2322.8193    761.11381    53.965449    222.29845   -5982.2229 
22313000    132.83509   -6657.4236   -6315.7134   -6657.4236            0     2734.355    23.210278    21.480901    21.687825    10813.065    2918.9888    2568.0666    2716.0097    261.56526   -436.72447   -45.523314   -5884.5126 
22314000    127.66187   -6673.4693   -6345.0669   -6673.4693            0    3054.3683    23.295016     21.43788    21.593233    10783.568    2550.3215    4104.1497    2508.6337      833.695   -1245.3744   -759.94836   -5864.7147 
22315000    127.18579   -6693.1015   -6365.9238   -6693.1015            0    1888.4427    23.159548     21.37263    21.859076    10819.816    2817.9203    1514.3733    1333.0345   -1.4860076    328.67014   -77.299803   -6067.9353 
22316000    137.19799   -6678.7791   -6325.8457   -6678.7791            0    1142.5828    23.344522    21.467717    21.666702    10858.345    418.09338    1576.6915    1432.9635   -34.816515    650.14694   -18.108928   -6144.9087 
22317000    130.77663   -6697.0474   -6360.6325   -6697.0474            0    1933.7473    23.286146    21.441391      21.6632    10816.162    1463.1511    1784.5162    2553.5747    16.577458     886.3797    -786.3494   -6055.5981 
22318000    128.57742   -6684.6938   -6353.9362   -6684.6938            0    2591.8494    23.179705    21.396085    21.761268    10792.609    3108.9796    2329.7289    2336.8396    554.80377   -452.63713    533.50567   -5945.9814 
22319000    126.55983   -6693.7335   -6368.1661   -6693.7335            0    1571.6794    23.265758    21.430017     21.72059    10829.573    1603.9849    1235.0216    1876.0318   -399.09205    565.58249    74.024552   -6119.9378 
22320000    136.07627   -6691.7349    -6341.687   -6691.7349            0    1555.1247    23.295056    21.520655    21.619685    10838.486     1638.756    776.29452    2250.3236   -116.29132    -363.5829   -720.75135   -6095.8712 
22321000    127.60522   -6662.7253   -6334.4686   -6662.7253            0    2671.2059    23.186303    21.424396    21.746815    10802.786    2042.0195    3089.5284    2882.0699   -956.92295    984.13775   -115.41849   -5913.6267 
22322000    141.16869   -6674.7084   -6311.5606   -6674.7084            0    1848.1364    23.288872    21.403493    21.716322    10824.787    1896.9551    1695.0634    1952.3908    866.45123    210.07477    767.72434   -6019.7982 
22323000    127.42716   -6683.9758   -6356.1772   -6683.9758            0     1869.884    23.267791     21.43801    21.716976    10832.757    2069.3601    2132.4641    1407.8279   -337.62568    145.44779   -1046.7038   -6060.7642 
22324000    133.70741   -6688.4926   -6344.5384   -6688.4926            0    2037.4598     23.30264    21.391572    21.695518    10814.784    1214.8754    2645.0891    2252.4149   -318.82835    138.43771    252.49626   -6023.1851 
22325000    132.63334   -6679.0192    -6337.828   -6679.0192            0    1674.1817    23.266882    21.388779    21.767153    10832.428    1124.2668    1896.5461    2001.7322   -291.01605    809.59946    1163.7894    -6073.341 
22326000      131.328    -6681.187   -6343.3537    -6681.187            0    2042.4306    23.255244    21.461779    21.688439    10824.677    2316.8186    1915.5717    1894.9015    1055.7503    -505.8136   -574.38607   -6020.9217 
22327000    123.66366   -6672.6258   -6354.5086   -6672.6258            0    785.91798      23.3313    21.457596    21.713961    10870.738    563.71152    1062.7365    731.30594    671.19019   -519.94012   -81.411529   -6229.9102 
22328000    134.35492   -6663.2105   -6317.5906   -6663.2105            0    2225.9457     23.34031    21.363569    21.724134    10832.355    1752.3457    2899.9532    2025.5381      317.839   -1.9499756     683.9065   -5965.9384 
22329000     129.1812   -6688.5723   -6356.2615   -6688.5723            0    2287.9465    23.290943    21.388478    21.711208    10815.608    2705.5711    2368.9018    1789.3667    791.20455   -1403.3589   -501.04675   -5995.3733 
22330000    134.50657   -6670.8184   -6324.8084   -6670.8184            0    1356.5964    23.229456      21.4267    21.845419    10873.134    1870.0694    824.00659    1375.7132    175.95836    541.76447    81.245541   -6109.6882 
22331000    132.30117   -6689.9985   -6349.6618   -6689.9985            0    1732.5456     23.35154    21.422257    21.612714    10811.602    263.75299    2374.0287    2559.8549    408.00696    916.61345    -5.339662   -6076.4808 
22332000    129.07921   -6679.6055   -6347.5571   -6679.6055            0     2559.985    23.245433     21.36232    21.775325    10813.112    1674.6799    3526.4337    2478.8413   -341.39264    181.77582    398.25269   -5943.8522 
22333000    134.76605   -6689.2741   -6342.5967   -6689.2741            0    1549.2064    23.386783    21.362988    21.687031    10835.092    1053.7043    2377.4331    1216.4819   -97.879583   -300.76823    197.81589   -6097.7931 
22334000    135.59776   -6662.7989   -6313.9819   -6662.7989            0    2483.4876    23.309228    21.384597    21.710139    10821.602    2627.9197    2238.8621    2583.6811   -176.82399     13.45666    855.12579    -5922.033 
22335000    125.86307   -6671.3307   -6347.5557   -6671.3307            0    2319.0623    23.258673    21.387615      21.7783    10833.561    2923.1753    2370.1915    1663.8201    562.49188   -610.59891   -807.49162   -5981.1522 
22336000    134.86151   -6695.6177   -6348.6947   -6695.6177            0    1988.0656    23.386092    21.416574    21.570576    10803.622    1298.1243    1926.8897    2739.1828    859.36557   -77.469599    9.8057329   -6035.4556 
22337000    126.21684   -6682.2729   -6357.5878   -6682.2729            0    2635.4961    23.129132    21.291823    21.923687    10796.569    3588.7078    3569.9179    747.86267   -758.99086    500.32796    429.52415   -5942.6108 
22338000    133.98999   -6681.9966   -6337.3156   -6681.9966            0    1498.8149    23.392243    21.388588    21.694224    10854.207    949.68908    1692.5179    1854.2377    731.73516    -37.79362     160.7931   -6100.0569 
22339000     128.5088   -6698.3354   -6367.7543   -6698.3354            0    1949.6458     23.37961    21.355598    21.690554     10829.78     1432.301    2364.5469    2052.0894   -345.05238    7.3520368    630.39859   -6059.8248 
22340000    123.93518   -6666.4954   -6347.6797   -6666.4954            0    1914.3573    23.343722    21.206669    21.872301     10827.72    1947.9891    2896.2209    898.86182   -54.393653   -437.23976    77.562041   -6045.3813 
22341000    121.01388   -6669.4417   -6358.1408   -6669.4417            0    1528.4366    23.489628     21.29591    21.686963    10848.534     326.7443    2814.7417    1443.8236   -268.15652   -633.94032   -377.85886   -6116.3196 
22342000    128.93226   -6672.7904     -6341.12   -6672.7904            0    1683.3651    23.461986     21.24214    21.762148     10845.88    909.31748    1983.4553    2157.3226   -1027.5158    273.33528    515.53068    -6074.852 
22343000     131.0631   -6679.3535   -6342.2017   -6679.3535            0    1918.3591    23.362589    21.310175    21.748131    10827.543    1261.5176     1577.576    2915.9837    234.04406    716.32726     150.7699   -6039.2763 
22344000    127.22711   -6660.1709   -6332.8869   -6660.1709            0     2853.548    23.459248    21.178323    21.701342    10781.825    1859.1755    3323.1921    3378.2763   -559.03251    510.01111    251.83257   -5884.1897 
22345000     124.5504   -6681.5193   -6361.1209   -6681.5193            0    1923.4502    23.323243    21.268731    21.842686     10835.19     2051.553    2836.0036    882.79394   -1218.9053   -240.80096    -289.5691   -6057.1771 
22346000     134.1089   -6669.3904   -6324.4034   -6669.3904            0    2617.0379    23.383902    21.309244    21.694651    10810.299    1989.9221    3548.3936     2312.798    432.11115    172.60541   -372.02275   -5911.8087 
22347000    129.37568   -6675.7904   -6342.9793   -6675.7904            0    1990.1683    23.337105    21.271055    21.805003    10824.109    1256.6677    2463.3591     2250.478    93.421021   -19.541563     903.3031   -6028.8143 
22348000    127.49559   -6691.6452   -6363.6706   -6691.6452            0    1392.6269    23.400119     21.28998    21.780117    10850.594    635.15087     2707.785    834.94467     188.7884    346.92904   -475.52078   -6143.2947 
22349000    130.03469   -6671.9564     -6337.45   -6671.9564            0    1306.5174     23.39364    21.369195    21.727732    10861.764   -341.47973    2537.7009    1723.3311    608.60874    544.55962   -967.63002   -6130.4876 
22350000    129.70714   -6685.6069   -6351.9432   -6685.6069            0    2993.1333    23.260087    21.248928    21.803218    10776.282    3199.9471    3556.2989    2223.1538   -460.45433    162.76004    140.43511   -5881.5393 
22351000    127.00112   -6684.2937   -6357.5911   -6684.2937            0    2927.5302    23.291777    21.269623    21.729156    10764.783    2201.6888    3049.2078    3531.6941    265.26948    252.02865    169.89018   -5897.9884 
22352000    130.35072   -6677.0005   -6341.6813   -6677.0005            0    2600.7311    23.323295    21.398642    21.640181     10800.33    2322.6572    2974.2071    2505.3289   -549.39626   -469.84408    245.19651   -5932.0356 
22353000    130.34936   -6661.5871   -6326.2713   -6661.5871            0    2013.0587    23.443312    21.315642    21.650919    10819.164    848.69666    1787.6021    3402.8774    929.86174    580.44405    368.14242    -6008.638 
22354000    132.01707   -6678.2012   -6338.5953   -6678.2012            0    1715.6166    23.312971     21.31341     21.81151    10837.679    1835.6496    2557.3096    753.89075   -696.03815    328.35272    16.400613    -6067.431 
22355000    125.80432   -6658.1028   -6334.4789   -6658.1028            0    1903.6184    23.445378    21.338967    21.686476    10849.747    1524.9033    2307.4925    1878.4592   -1437.1042     777.5807   -953.29095   -6033.2647 
22356000    127.61123   -6679.7621     -6351.49   -6679.7621            0      1417.18    23.431313    21.329278    21.722002     10856.07     560.3594    2375.3147     1315.866    78.238102    564.27767    -320.1675   -6127.1154 
22357000    130.24629   -6682.1999   -6347.1493   -6682.1999            0    2255.0723    23.296523    21.359076    21.717264    10806.341    2214.4495    2106.3203    2444.4472   -202.75968    607.71886    440.33855   -5991.7513 
22358000    131.00712   -6678.9354   -6341.9276   -6678.9354            0    3292.6101    23.278586    21.338107    21.658947    10758.453    3670.3508    3189.4222    3018.0574    -65.54993    462.96582   -903.08805   -5825.3137 
22359000    129.04554   -6686.4088    -6354.447   -6686.4088            0    1617.7277    23.317986    21.378361    21.727762    10831.297    568.25506    2642.8195    1642.1086   -284.61026   -441.02273     253.0312   -6098.9053 
22360000    133.66544   -6692.8234   -6348.9772   -6692.8234            0    2819.8174    23.371604    21.288756    21.658274    10776.126    2842.1013    1824.0204    3793.3304     1306.619   -676.55444    180.14205   -5905.8183 
22361000    128.13944   -6669.5596   -6339.9287   -6669.5596            0    1180.3749    23.416306    21.320108    21.762954    10864.897    502.97846    2228.5347    809.61162    208.48713   -646.94185    419.44196   -6152.8943 
22362000    128.16487   -6667.5585   -6337.8622   -6667.5585            0    1581.3213    23.424118    21.278277     21.76574    10848.586    1843.1791    1907.3368    993.44792    -328.9039    527.41048   -631.37888   -6087.6727 
22363000    130.96669   -6675.6511   -6338.7473   -6675.6511            0    2326.8443    23.429577    21.234602    21.729826    10810.974    1519.3066    2397.3965    3063.8298    964.42988   -216.48744    181.87187   -5971.8808 
22364000     131.5329   -6674.0288   -6335.6684   -6674.0288            0    1219.2234    23.343983    21.390915     21.77792    10874.786    516.21293    1770.0712    1371.3862   -206.57033   -265.33074    16.767434   -6142.3025 
22365000    134.73721   -6680.3144   -6333.7111   -6680.3144            0    2154.0842     23.43284    21.295087    21.667187    10812.021    1077.8152     2142.738    3241.6994    720.10213   -847.22142    547.10674   -5994.0503 
22366000    126.72587   -6690.9375   -6364.9429   -6690.9375            0    1964.4845    23.354496    21.293209     21.75451    10818.347    928.21248    3201.9582    1763.2827   -472.82489    584.55976     1306.954   -6054.9974 
22367000    124.71434   -6698.4091   -6377.5891   -6698.4091            0    1705.2128    23.377543    21.319258    21.756069    10843.048    1829.4338    2026.3536    1259.8512   -36.434188   -324.97541   -422.28304   -6107.9357 
22368000    124.69766   -6677.2122   -6356.4351   -6677.2122            0    2385.0023    23.405957    21.299939     21.65271     10794.86    1833.8897    2695.2403    2625.8771   -181.43118   -493.85217   -281.13225   -5980.9595 
22369000    133.65615   -6691.5981   -6347.7758   -6691.5981            0    1956.6709    23.305802     21.24547    21.850524    10819.128    1880.7285    2814.7684    1174.5158    154.87263    101.95399    377.58414   -6039.0407 
22370000    131.25788   -6684.5163   -6346.8634   -6684.5163            0    1673.9512    23.399878    21.345609     21.68394    10830.795    833.98728    2490.2492     1697.617    78.149221    786.53564    185.15544   -6082.4527 
22371000    130.06863   -6680.9077   -6346.3141   -6680.9077            0    2723.0112    23.317825    21.363769     21.67086    10795.483    2978.2701    2155.7254    3035.0382   -666.64333    228.80058    265.32168   -5917.6004 
22372000    129.03583   -6650.9925   -6319.0557   -6650.9925            0    3090.0167    23.321978    21.265655    21.724403    10774.373    2674.1925    3818.6933    2777.1644   -208.68744    80.250864    -220.6374   -5833.5116 
22373000    130.78357   -6687.7441   -6351.3113   -6687.7441            0    2857.0463    23.347819    21.326582    21.657732    10784.017    3316.9982    2201.0512    3053.0896   -450.83173   -1143.0396     20.10981   -5901.9727 
22374000     124.1969   -6653.5966   -6334.1076   -6653.5966            0    1847.8889    23.337785    21.346712    21.731685    10826.399    2015.5032    1859.8451    1668.3185   -399.37021    39.204706   -144.45652   -6042.3409 
22375000    134.04917   -6670.9028   -6326.0695   -6670.9028            0    2820.6178    23.292575    21.282854    21.763964    10789.104    2103.4011    4567.2063     1791.246    804.69915   -559.45791   -939.04158   -5882.2509 
22376000    132.89218   -6689.1397   -6347.2827   -6689.1397            0    2172.0543     23.41989    21.307415    21.686083    10821.731    1111.0715     2985.559    2419.5324    843.96293   -121.03647   -34.365347   -6004.4807 
22377000    124.77696   -6669.5435   -6348.5624   -6669.5435            0     1347.706    23.395872    21.313694      21.8058    10873.516     2018.235     1077.232    947.65089   -226.12293    39.664387   -492.43955   -6134.8445 
22378000    133.13291   -6684.1248   -6341.6485   -6684.1248            0    2043.4507    23.379551    21.303362    21.744232    10829.999    2371.5078    1829.2269    1929.6174   -365.39081   -942.72152    333.36264   -6018.8969 
22379000    132.63548   -6658.4357   -6317.2391   -6658.4357            0    2696.8307    23.432343      21.2862    21.657724     10802.56    2336.2942    3226.0205    2528.1774   -3.3530746    438.30328   -364.99953   -5892.3689 
22380000    124.76646   -6688.6231    -6367.669   -6688.6231            0    2561.4885    23.362064    21.323256    21.684771    10802.383    2195.3924     2754.103    2734.9702   -361.32232   -636.21739   -69.657959   -5964.1278 
22381000    124.57187   -6682.6682   -6362.2147   -6682.6682            0    2153.1274    23.266106    21.277196    21.827617    10805.489    2664.2627    2949.9461    845.17345   -164.12494    412.90122    330.53122   -6022.9098 
22382000    134.53793    -6670.075   -6323.9843    -6670.075            0    2836.7849    23.357698    21.386156    21.605101    10792.426    3086.0733    1915.2665    3509.0149    520.36393    552.06434    486.13783   -5877.4845 
22383000     134.6473   -6682.3506   -6335.9786   -6682.3506            0    2564.1207    23.233061    21.341312    21.787175    10802.604    2177.1858    3729.8717    1785.3047   -367.07168   -359.46801   -874.66893   -5932.0144 
22384000    126.56019   -6687.8018   -6362.2334   -6687.8018            0    2366.8788    23.322457    21.359418    21.690473    10805.198      2512.99    2451.2589    2136.3874    448.62092   -376.17333   -173.24569   -5989.2542 
22385000    125.26694   -6681.4303   -6359.1887   -6681.4303            0    1125.9567    23.394477    21.437865    21.637465    10851.787    746.81838     1097.625    1533.4266    258.71209    282.33582    19.007201   -6180.9923 
22386000    137.55953   -6682.5787   -6328.7152   -6682.5787            0     2049.613    23.242411    21.290234    21.897755    10835.806    2358.5999    2848.1768    942.06231    295.31569   -625.21552   -407.44413   -6004.8166 
22387000    128.27891   -6679.4487    -6349.459   -6679.4487            0    2081.3506    23.328628    21.351543    21.704558    10811.088    1101.1017    2624.6663    2518.2837     43.90496   -112.48833    996.49771   -6021.2953 
22388000    126.77457   -6686.1993   -6360.0794   -6686.1993            0     2198.711    23.259781    21.401947    21.736017    10820.289    2570.7913    1384.1463    2641.1954    -687.0619    829.82433     426.4228   -6013.1166 
22389000    131.95079    -6691.558   -6352.1226    -6691.558            0    2285.3051    23.219558    21.419643    21.749747    10817.338    3449.1875     2633.943    772.78476   -603.23878   -1258.0419   -569.45016   -5991.5934 
22390000    127.21614   -6670.3133   -6343.0575   -6670.3133            0    1824.2676    23.327456    21.436422    21.663683     10833.08    1932.4916    1104.2229    2436.0884    137.36808    734.74091    515.15083   -6054.8426 
22391000    129.27355   -6684.7276   -6352.1793   -6684.7276            0    1349.4035    23.218734    21.431365    21.796756    10846.265    2494.8993    1107.9067    445.40445   -165.32619   -534.56077   -90.559172   -6138.7284 
22392000    131.19761   -6674.5636   -6337.0657   -6674.5636            0    2131.7508    23.285816    21.419339    21.661589    10804.081    2127.8346    2414.6101    1852.8078    18.764901    448.06371   -1124.8399   -6001.1734 
22393000    128.13375   -6673.9194   -6344.3032   -6673.9194            0    2430.4119    23.294864    21.424722    21.639919     10800.18    2546.7302    3266.3884     1478.117    225.21415    -41.62242    64.359208   -5961.4901 
22394000    127.98278   -6677.1633   -6347.9354   -6677.1633            0    1793.4855    23.135707     21.39057    21.919095    10847.452    3125.7422    2443.7175   -189.00331   -663.28925   -34.159934   -468.77105   -6064.2078 
22395000    133.27095   -6668.9262   -6326.0948   -6668.9262            0    2244.2437    23.390375    21.411447     21.60454    10820.024    1977.3704    2132.5594    2622.8014    151.46303   -420.65244    100.01597   -5971.9555 
22396000    129.94371   -6685.4709   -6351.1987   -6685.4709            0     1443.242    23.317068     21.40793    21.734437    10849.183    1193.7812    1694.5185    1441.4263    242.95112    416.45097    860.85112   -6122.8428 
22397000    126.46625   -6678.6651   -6353.3384   -6678.6651            0    2341.5295    23.201521    21.360833    21.841829    10824.894    2568.3381    3137.5895    1318.6609   -381.34088    538.74509    30.211411   -5983.6812 
22398000    128.27716   -6687.3894   -6357.4042   -6687.3894            0    2088.0399    23.382526    21.487778    21.511092    10808.002    835.90837    2389.1887    3039.0227    269.24305    24.300486      75.6958   -6028.2798 
22399000    135.72873   -6673.6033   -6324.4494   -6673.6033            0    1908.4333    23.192395    21.419143    21.787844    10823.356    2444.0597    2199.6877    1081.5524   -635.21487   -265.26222   -190.78792   -6023.2079 
22400000    132.46671   -6689.0163   -6348.2537   -6689.0163            0    2954.3802    23.219625    21.385445    21.715325    10783.005    3210.2209    3115.1882    2537.7316    269.19234    -499.0802    164.13003   -5883.6506 
22401000    132.26203   -6670.5025   -6330.2665   -6670.5025            0    1245.6384    23.425665    21.474748    21.576506    10854.282    386.14973    419.89935    2930.8661     77.33504    1039.6727    414.20093   -6133.0837 
22402000     129.6461   -6687.8075   -6354.3008   -6687.8075            0    1717.5764    23.178147    21.407204    21.852424    10842.721    1772.7699    2373.1871    1006.7723    979.10532   -831.08143   -390.60214   -6082.7005 
22403000    134.14585   -6668.7643   -6323.6823   -6668.7643            0    2141.3422    23.327031      21.4242    21.667615    10828.672    1328.7379    2689.3899    2405.8989   -34.092104     623.3625   -487.81551   -5985.5107 
22404000    128.37456   -6672.0949   -6341.8591   -6672.0949            0    741.79651    23.480847    21.447839    21.610399    10883.287    157.05221    185.10687    1883.2305   -933.46658    976.92497    349.88444     -6224.12 
22405000    125.23833   -6677.8567   -6355.6887   -6677.8567            0    3098.7543    23.228217    21.297546    21.814089    10791.517    3018.1055    3774.4006    2503.7568    569.52817   -406.53144   -540.78135   -5867.9968 
22406000    123.16765    -6687.048   -6370.2067    -6687.048            0    1727.6999    23.365687    21.381181    21.644958    10813.518    1550.9596    1386.1096    2246.0305   -538.94154    326.11272     -256.397   -6097.7414 
22407000    128.15021   -6681.7242   -6352.0656   -6681.7242            0    2240.5852    23.320525    21.422948    21.658598    10820.514    2008.5943    2360.6758    2352.4855   -331.58905    842.29347    247.68031   -5998.4876 
22408000    129.25217   -6686.5916   -6354.0983   -6686.5916            0    2158.2102    23.133251    21.394814    21.878165    10828.196    3080.4766    2248.2326    1145.9213    -424.0242    621.92181   -247.80274   -6013.2778 
22409000      135.754   -6687.9086   -6338.6898   -6687.9086            0    2088.6191    23.328558    21.489607    21.586151    10821.603    1471.7484    2098.5288    2695.5801    791.89076   -939.03969    190.35995   -6009.0598 
22410000    130.33992   -6681.0177   -6345.7262   -6681.0177            0    3213.9227     23.24522    21.414753    21.629135    10766.781    2808.8545    2901.9928    3930.9208   -80.614072    476.42608    119.68819   -5841.0681 
22411000    124.34589   -6680.4172    -6360.545   -6680.4172            0    1758.5877    23.199659    21.362189     21.83874    10823.181    1950.5285    2206.6416     1118.593   -90.601221    97.105993     727.0598   -6082.9608 
22412000    128.76755   -6671.8079   -6340.5612   -6671.8079            0    3612.0533    23.252777    21.452987    21.594911    10772.438     2922.016    3360.1744    4553.9695    536.78453   -102.41231   -106.62841   -5773.0898 
22413000    130.75471    -6682.348   -6345.9895    -6682.348            0    2885.5573    23.203778    21.393787    21.713229    10778.809    2891.1934    3351.2982    2414.1804   -138.94345   -474.13492    767.30042    -5892.386 
22414000    126.65616   -6682.9386   -6357.1233   -6682.9386            0    2131.7897    23.204639    21.390176    21.770256    10805.695    2358.0242    1966.7992    2070.5458    258.18674   -586.86273   -95.426382   -6021.1746 
22415000     131.2707    -6683.197   -6345.5111    -6683.197            0    1639.2662    23.389389    21.490662    21.542239     10828.28    496.93753     814.3204    3606.5407   -186.76623    709.77941    320.91001   -6086.6392 
22416000    133.56333   -6670.0973   -6326.5138   -6670.0973            0    1373.2034    23.132349    21.405961    21.974379    10881.056     3172.663    1188.5668   -241.61972   -532.48252   -417.97459   -387.00831   -6108.6014 
22417000    130.19053    -6682.721   -6347.8138    -6682.721            0    2312.1722    23.342745    21.446305    21.599226     10812.91    1880.2305    1387.5043    3668.7817     -332.831    582.18663     93.16053   -5983.1954 
22418000    135.52394   -6680.6456   -6332.0185   -6680.6456            0    1218.7141    23.340518    21.453085    21.687373    10859.434    1149.2284    951.81503    1555.0987   -18.152777   -202.64497    112.66814   -6139.0062 
22419000    136.45784   -6664.9859   -6313.9564   -6664.9859            0    2668.9383    23.189371    21.396754    21.833681    10833.376    3208.0128    2806.4631    1992.3392   -2.1125441   -383.41532    116.50668    -5892.281 
22420000    130.19247   -6679.5217   -6344.6095   -6679.5217            0    935.82651    23.349738    21.515283    21.635784    10869.304    1114.9831    79.277676    1613.2187    481.35154   -299.65446    632.46962   -6196.2645 
22421000    126.93067   -6671.6298   -6345.1084   -6671.6298            0     1832.831    23.250382    21.459139    21.755998    10854.789    2188.7675    1632.4721    1677.2533   -622.22372    409.89014    81.993921   -6054.9603 
22422000     132.1903   -6678.6611   -6338.6096   -6678.6611            0    2054.4756    23.234337    21.408637    21.788625    10837.999    2257.1997    2941.4623    964.76475   -330.55318   -291.92352   -580.52426   -6013.8769 
22423000    126.19936   -6674.8418   -6350.2016   -6674.8418            0    2040.3597    23.348725    21.387205    21.667552    10819.995    1498.0748    2036.5369    2586.4673    633.73635    174.35017   -494.44803   -6028.2359 
22424000    129.53068   -6689.3168    -6356.107   -6689.3168            0    1912.7227    23.256277    21.344786    21.839896     10841.33    3225.4058    1515.1234    997.63874    422.29301   -1017.0928   -532.44091   -6053.6871 
22425000    129.99026   -6675.3614   -6340.9693   -6675.3614            0     2173.969    23.381335    21.407939    21.614286    10818.949    1980.5645     1839.493    2701.8494   -254.43023     708.0392    303.76155   -5997.9534 
22426000    131.05606   -6692.5913   -6355.4575   -6692.5913            0    1158.4244    23.283676     21.31894    21.867535    10854.679    1150.1646    1662.8833    662.22529   -98.682865      173.793   -61.768843   -6172.0739 
22427000    134.73748   -6666.8038   -6320.1999   -6666.8038            0     1921.527    23.421696    21.327595    21.698999    10839.267    1309.5876    2253.1436      2201.85    178.63125    114.50169   -108.41439   -6016.4457 
22428000    130.84357   -6669.1319   -6332.5447   -6669.1319            0    2432.8086    23.318397    21.350448    21.739135    10823.007    2305.7406    2606.9285    2385.7566   -62.282126    719.16692   -121.17034   -5948.5443 
22429000    132.54931   -6681.9272   -6340.9521   -6681.9272            0    3173.4056    23.332191    21.275738    21.711465    10777.779    2506.7236    4011.0048    3002.4882    287.11035   -307.15565    76.000764   -5842.1472 
22430000    134.44022   -6682.6772   -6336.8379   -6682.6772            0    2112.9004    23.351085    21.341724    21.694274    10811.394    1600.4651    2247.7561    2490.4799    195.06782    459.58863    137.78064   -6003.6904 
22431000    130.70642   -6680.0664   -6343.8321   -6680.0664            0    2198.1871    23.426107    21.240129    21.738845    10816.674      1783.74     3089.135    1721.6862    443.24695   -417.73501   -138.60222   -5997.0679 
22432000    133.51897   -6674.4538   -6330.9844   -6674.4538            0     2947.785    23.331067    21.351849    21.657754    10789.057    2317.9451    3492.7797    3032.6301    137.76776    211.61462   -977.80232   -5867.1583 
22433000    126.73267   -6682.0663   -6356.0542   -6682.0663            0    2432.3096    23.327107    21.332839    21.737059    10817.087     2606.599    2185.6883    2504.6416    3.3999844   -156.70144   -75.592643   -5972.3425 
22434000    125.86987   -6677.3974   -6353.6049   -6677.3974            0    2501.5921    23.340032    21.242295    21.770913    10793.928     1826.701    3464.9715    2213.1039    890.37638   -317.59092    291.71452   -5959.8083 
22435000    132.89865     -6674.66   -6332.7863     -6674.66            0    2499.1927     23.37464    21.366068    21.629562    10802.326    1525.1171    2488.4928    3483.9681    65.775593   -34.049319   -915.94362   -5939.0614 
22436000    130.78065   -6668.0076   -6331.5823   -6668.0076            0    1811.1478    23.353001    21.392139    21.705857    10843.609    471.14256    2353.2543    2609.0466    1040.2273    219.13414    782.33179   -6045.1621 
22437000    124.49217   -6682.2657   -6362.0172   -6682.2657            0    2268.7156    23.292178    21.379044    21.739657    10825.577    2124.1165    2567.5144    2114.5158   -282.35281    773.11805    103.58658   -6003.8325 
22438000    129.79618    -6660.674   -6326.7812    -6660.674            0    1866.9643    23.407768    21.395329    21.651331    10843.352    639.93218    3127.3553    1833.6053    170.85242    832.43309   -626.09858    -6031.541 
22439000    127.07324   -6696.7439   -6369.8557   -6696.7439            0    843.04973    23.368177    21.418916    21.724401     10873.52    -377.8665    2055.5255    851.49022   -130.96306    119.61905   -647.50507   -6236.1657 
22440000    134.39519   -6658.4371   -6312.7137   -6658.4371            0    2826.5654    23.294052    21.360604    21.759111     10826.79    2735.7595    3918.6342    1825.3025    207.42386    3.6414553    -907.1322   -5866.4057 
22441000    127.93589   -6662.0319   -6332.9246   -6662.0319            0    1653.7271    23.343825    21.435619    21.718046    10867.479    1160.1242    1015.9583    2785.0989   -453.28493     1297.193    1342.4722   -6070.8237 
22442000    131.36594   -6673.6475   -6335.7166   -6673.6475            0     1434.659    23.254734    21.479981     21.75704    10867.886     1604.181    1862.0427    837.75347    280.66308   -553.21768   -357.98091   -6108.3275 
22443000    127.02656    -6678.336   -6351.5679    -6678.336            0    2987.2552    23.159587    21.486397    21.638873    10767.851    3831.1585    2243.7792    2886.8278    -249.1888    128.70513    1044.5045   -5882.4551 
22444000    128.01513   -6673.9981    -6344.687   -6673.9981            0    834.87378    23.282605    21.521516     21.69876    10872.749    240.82591    708.08512    1555.7103    882.77712   -169.24845   -184.45259   -6212.3028 
22445000    133.93786   -6674.8609   -6330.3139   -6674.8609            0    2259.9842    23.170631    21.476119    21.768705    10832.439    2791.0217    2006.9667     1981.964   -138.92567    16.667819   -90.773974   -5973.2816 
22446000    133.10985   -6691.1213   -6348.7043   -6691.1213            0    2216.5142     23.19543     21.47791    21.657525    10789.548    2337.5532    1591.2638    2720.7255    691.31804    1143.6139    480.95095   -5999.9259 
22447000    129.97002   -6673.1087   -6338.7688   -6673.1087            0      1795.16    23.236228    21.556274    21.643602    10840.988    1586.9408    1399.0911    2399.4482    341.75617   -318.64184    475.75585   -6054.9456 
22448000    136.79315   -6681.8224   -6329.9303   -6681.8224            0    2114.2122    23.081625    21.537431    21.774502    10824.516    3009.1168    1821.6732    1511.8467   -832.20084   -245.35104   -253.52696   -5996.1713 
22449000     133.9693   -6677.8542   -6333.2264   -6677.8542            0    1529.7457    23.231969    21.552469     21.63545    10833.006    981.96052     974.4582    2632.8184    583.64502    264.57531    500.52032   -6091.5445 
22450000    131.87337   -6690.5559   -6351.3197   -6690.5559            0    1897.8053    23.120311    21.496221    21.781692    10825.486    1451.7607    1646.2784    2595.3767    112.09796   -111.79477    499.50906   -6051.6968 
22451000    131.09186   -6676.4692   -6339.2433   -6676.4692            0    1884.0488    23.259432    21.483917    21.700112    10843.626    1521.2203    2671.1701    1459.7561    63.971568    584.00582   -808.87907   -6041.2939 
22452000    132.77062   -6685.1624   -6343.6181   -6685.1624            0    1275.5366    23.243852    21.500168     21.73824    10863.614    1413.8171    1214.0301    1198.7625   -577.28446    400.38854   -273.90326   -6141.5288 
22453000    127.16593   -6697.7441   -6370.6175   -6697.7441            0    1810.7416    23.268896    21.397307    21.752512    10830.396    1673.3348    1967.7919    1791.0982   -202.42594    807.92527    72.315096   -6084.6105 
22454000    125.66881   -6673.7194   -6350.4441   -6673.7194            0    2581.0544    23.276095    21.389799    21.723206    10815.354    2410.1726    3452.4409    1880.5497    834.44904    222.45287   -416.30446   -5943.3322 
22455000    127.16239   -6680.5722   -6353.4547   -6680.5722            0    1214.0029    23.473654    21.408505    21.584995    10847.233   -88.007469    2075.6008    1654.4154   -31.986023    569.79508    -285.2378   -6161.4046 
22456000    126.24754    -6687.694   -6362.9299    -6687.694            0     2058.361    23.250398    21.339815    21.810585    10821.522    2273.4549    2780.1987    1121.4293   -39.633073   -239.19163   -311.71358   -6038.0777 
22457000    129.88006   -6694.0783   -6359.9698   -6694.0783            0    2631.1708    23.320992      21.3758    21.665193    10800.203    3240.8724    2268.4339     2384.206   -407.97863   -939.42332    75.054108   -5945.5344 
22458000    128.77952   -6673.4891   -6342.2116   -6673.4891            0    1510.4577    23.460606     21.35353    21.669477    10855.688    250.88552    1561.4732    2719.0143   -39.119851    1116.3343   -335.14193   -6103.0774 
22459000    133.65424   -6675.2861   -6331.4687   -6675.2861            0     2369.838    23.303351    21.288403    21.814277    10821.869    2578.2685    2571.7863    1959.4591    161.45883   -979.39936   -255.68955   -5957.4469 
22460000     128.9082   -6677.3734   -6345.7649   -6677.3734            0    1605.7547    23.369463    21.354333     21.71435    10836.314    1872.6418    1267.1482     1677.474    167.19744     193.8251    211.59908    -6091.997 
22461000    130.30883   -6669.2574   -6334.0459   -6669.2574            0    2395.4901    23.350121    21.273285    21.806756    10832.152    1721.7387    2702.2977    2762.4338   -643.20606    595.77001    865.26335   -5955.6164 
22462000    124.38517   -6671.0183    -6351.045   -6671.0183            0    1641.7047    23.400369    21.366638    21.705087    10852.266    1412.6871    1888.3484    1624.0786    -300.7819   -437.42854   -434.15857   -6091.2138 
22463000    126.95542   -6673.7969   -6347.2118   -6673.7969            0    2045.1479    23.316304    21.372642    21.724876     10826.18    2136.0673    1836.9778    2162.3986   -113.54756    285.51745    761.36649    -6024.306 
22464000    130.72642   -6680.1485   -6343.8628   -6680.1485            0    2374.6848    23.261566     21.29182     21.83251    10813.229    2334.2769    3310.6282    1479.1493   -328.49117   -412.94507    118.27808   -5969.3753 
22465000    128.35722   -6692.7512   -6362.5601   -6692.7512            0    1718.5715    23.447588    21.305158    21.659878    10820.291    1517.5844    2341.5424    1296.5878    301.25455    839.27414   -328.12459   -6091.3646 
22466000    128.08242   -6675.0434   -6345.5592   -6675.0434            0    2822.5666    23.325099    21.309385    21.705544      10788.6    1820.4034    3677.2773    2970.0191    140.03207   -594.13761    165.58704   -5901.4547 
22467000    128.12512   -6672.7486   -6343.1545   -6672.7486            0    2340.6421    23.368946    21.211645    21.816055    10814.083    1639.7271    2320.1617    3062.0376     975.5199    282.29566    602.83693   -5974.0065 
22468000    130.77649   -6668.8642   -6332.4496   -6668.8642            0    2238.7152     23.37663    21.331649    21.656733    10799.392    1467.8865    2351.3577    2896.9015   -289.19472    181.05595   -52.513317   -5979.8563 
22469000    128.17516   -6681.3959   -6351.6731   -6681.3959            0    2872.4648    23.304399     21.29803    21.741035    10790.898    1896.9914    4153.2318    2567.1713   -570.54002    628.16229   -209.74001   -5899.6213 
22470000    122.51657   -6683.5211   -6368.3547   -6683.5211            0    862.44744    23.451901    21.325931    21.728931    10867.368    870.97708    639.24531    1077.1199    221.65555    296.77888    367.24909   -6231.6659 
22471000    128.18102   -6682.5542   -6352.8163   -6682.5542            0    2135.0887    23.424062    21.320512     21.70857    10841.542    1609.3595    2636.1273    2159.7793   -177.54286   -680.51324    715.48047   -6015.2315 
22472000    127.79151   -6682.7296   -6353.9937   -6682.7296            0    1945.4333    23.394847     21.25781    21.807987    10845.618    1986.2399    2394.9628    1455.0971    1215.3567   -789.77361   -1124.4949   -6046.2802 
22473000    130.66645   -6688.7951   -6352.6636   -6688.7951            0    1512.1751    23.500695    21.307209    21.645197    10838.491     632.7944     1461.978     2441.753   -589.76719     841.8816    433.64897   -6113.6367 
22474000    133.58633   -6669.8972   -6326.2545   -6669.8972            0    3084.8108    23.290853    21.256957    21.818298    10802.079    3585.3094    3985.0059    1684.1171   -694.82809   -401.37139   -774.60074   -5840.2819 
22475000    128.63062   -6683.7782   -6352.8837   -6683.7782            0    1574.8489    23.425226    21.325005    21.676308    10828.249    1339.0187    1322.4273    2063.1007   -759.47523   -112.18556    181.07062   -6104.1853 
22476000    127.72351   -6671.1292   -6342.5682   -6671.1292            0    2683.6474    23.399628    21.198194    21.751197    10789.243    2584.9814    3133.5288    2332.4321    19.957644    2.7346966    226.12083   -5920.2962 
22477000    135.95609   -6661.7154   -6311.9766   -6661.7154            0    2707.3959    23.311104    21.277945    21.779708    10803.005    2813.5568    2531.2527    2777.3783   -848.97526   -368.32255    601.47995   -5885.4244 
22478000    135.56223   -6667.9449   -6319.2194   -6667.9449            0    1992.9968    23.426369     21.38497    21.604614    10823.311     1154.979    1876.6387    2947.3726   -443.60467   -69.882646    774.37971    -6004.631 
22479000    129.15294   -6665.3231    -6333.085   -6665.3231            0    3618.4629    23.269737    21.264746    21.752429    10763.647     3129.638    4006.2227     3719.528    451.40723   -531.93916   -82.551975   -5765.0705 
22480000    134.00501   -6667.4236   -6322.7039   -6667.4236            0    2237.1159    23.398709    21.308779    21.657223    10798.246    517.90802    3432.9882    2760.4515   -202.64258    224.51359   -2.5294591   -5970.3999 
22481000    133.60851   -6671.5766   -6327.8769   -6671.5766            0    2101.1041    23.404192    21.330333    21.654327    10810.256    515.22021    2869.1024    2918.9897    765.94365    766.17301   -624.27557   -5996.6241 
22482000    132.21671   -6678.4941   -6338.3747   -6678.4941            0    1432.3008    23.286346    21.362248    21.837385    10862.979    1751.1842    1861.6896    684.02868   -104.96121   -615.36496   -620.09993   -6111.4618 
22483000    128.22876   -6681.1576   -6351.2969   -6681.1576            0    1602.4933    23.500542    21.312809    21.600128    10818.696    1137.6779    1844.2276    1825.5743   -708.92285    552.68371   -292.97605   -6098.4562 
22484000    129.89042    -6676.141   -6342.0058    -6676.141            0    2857.6546    23.250979    21.267266     21.81267    10786.033    3103.3426    3183.3394     2286.282   -348.14394    184.10944   -421.41502   -5892.4875 
22485000    132.04377    -6688.511   -6348.8365    -6688.511            0    2800.5363    23.326123    21.355993    21.659046    10789.509    2166.1078    3455.3826    2780.1184   -132.70661    50.805964   -524.46057   -5908.1611 
22486000    132.28092   -6689.6068   -6349.3222   -6689.6068            0    1884.4592     23.32757     21.32393    21.791007     10839.62    1324.6446    1668.5289    2660.2041    931.05797    303.86453    60.366786   -6051.4179 
22487000    129.48455   -6690.0754   -6356.9843   -6690.0754            0      2359.35    23.297708    21.332106    21.769731    10819.321      2404.69    2321.8995    2351.4604   -679.38924   -901.66645    805.57586   -5984.7056 
22488000    130.55578   -6666.2698    -6330.423   -6666.2698            0    1858.9337    23.401077    21.363937    21.687668    10842.514    1413.6654    1773.5279    2389.6078   -48.604765      495.465   -75.610489   -6036.4755 
22489000     132.3329   -6689.2732   -6348.8549   -6689.2732            0    995.58404    23.326084    21.366829    21.836496    10883.406    1540.2211     323.9533    1122.5777   -918.68135   -687.15567    -168.7861   -6190.8325 
22490000    132.32046   -6679.0164   -6338.6301   -6679.0164            0    2550.7562    23.300155    21.388181    21.703065    10815.677    2157.8558     2509.199    2985.2136    512.74937   -49.344223   -92.400266   -5936.2852 
22491000    129.28189   -6684.5874   -6352.0176   -6684.5874            0     1037.615    23.325684    21.446634    21.686032    10848.598    693.99595    800.78214    1618.0668    838.11138    -221.4903    -386.2184   -6187.8507 
22492000    125.36384   -6669.0372   -6346.5464   -6669.0372            0    2286.1687    23.159282    21.408889    21.844147    10830.645    2726.4211     3510.123    621.96188     45.37288   -372.98201   -946.20918   -5985.4373 
22493000    134.98958   -6680.7439   -6333.4914   -6680.7439            0    2772.1483    23.268004    21.400649    21.644131    10777.703    2967.5276    2046.2719    3302.6453    476.45502   -804.81515    29.247429   -5897.7603 
22494000    128.93156   -6680.6029   -6348.9343   -6680.6029            0    2089.8949    23.238527    21.435549    21.699173    10809.022    2318.0895    1833.3896    2118.2055   -782.40622    415.13993   -49.672362   -6019.4864 
22495000    133.66232   -6662.3172   -6318.4791   -6662.3172            0     1955.403    23.267278    21.471927    21.750923    10866.615    2518.4874    1881.1605    1466.5611    -174.6085    796.53154   -697.42121   -6008.5898 
22496000    125.60643   -6673.9775   -6350.8626   -6673.9775            0    664.00438     23.35371    21.533135    21.643483    10884.044    108.36938     492.0747    1391.5691    21.598333    782.61206    612.41539   -6245.4634 
22497000    126.06677   -6667.5411    -6343.242   -6667.5411            0    2291.0636    23.226655    21.444651    21.748367     10832.59    2402.8298     1632.586    2837.7749   -39.023653    130.41852   -47.019098   -5981.2947 
22498000    137.00288   -6689.4441   -6337.0126   -6689.4441            0    1406.7757    23.221537    21.481053    21.750759     10849.78    1992.0852    746.62211      1481.62   -234.32431   -150.34463   0.81888855   -6114.4144 
22499000    129.41399   -6679.0999   -6346.1903   -6679.0999            0    2995.2437    23.179069    21.574456    21.533037    10768.151    3897.3099    2352.9538    2735.4675    463.01045    487.91654   -24.716417   -5875.8099 
22500000    140.11853    -6675.699   -6315.2527    -6675.699            0     2628.162    23.111062    21.469299    21.811613    10822.449    2962.6089    2523.7301     2398.147   -612.62357     -158.631   -282.13415   -5900.4385 
Loop time of 599.374 on 64 procs for 250000 steps with 1296 atoms

Performance: 72.075 ns/day, 0.333 hours/ns, 417.102 timesteps/s
391.8% CPU use with 16 MPI tasks x 4 OpenMP threads

MPI task timing breakdown:
Section |  min time  |  avg time  |  max time  |%varavg| %total
---------------------------------------------------------------
Pair    | 41.322     | 49.963     | 56.913     |  68.5 |  8.34
Bond    | 1.4243     | 1.844      | 2.684      |  22.0 |  0.31
Kspace  | 317.64     | 327.11     | 338.55     |  30.0 | 54.57
Neigh   | 1.4645     | 1.5826     | 1.6829     |   5.2 |  0.26
Comm    | 62.092     | 67.632     | 74.596     |  40.5 | 11.28
Output  | 0.42348    | 0.42379    | 0.42539    |   0.1 |  0.07
Modify  | 131.83     | 137.95     | 146.63     |  30.9 | 23.02
Other   |            | 12.87      |            |       |  2.15

Nlocal:        81.0000 ave          94 max          64 min
Histogram: 2 0 0 2 3 1 1 3 1 3
Nghost:        3644.12 ave        3676 max        3614 min
Histogram: 2 1 1 2 2 3 0 2 2 1
Neighs:        25814.6 ave       29843 max       20236 min
Histogram: 2 0 0 2 3 1 1 3 1 3

Total # of neighbors = 413034
Ave neighs/atom = 318.69907
Ave special neighs/atom = 2.0000000
Neighbor list builds = 3547
Dangerous builds = 0

unfix		3
unfix		2
unfix		1

write_data	data.final.${pid}
write_data	data.final.0
System init for write_data ...
PPPM initialization ...
  extracting TIP4P info from pair style
  using 12-bit tables for long-range coulomb (../kspace.cpp:340)
  G vector (1/distance) = 0.36698116
  grid = 27 40 32
  stencil order = 5
  estimated absolute RMS force accuracy = 0.0046097056
  estimated relative force accuracy = 1.3881992e-05
  using double precision FFTW3
  3d grid and FFT values/proc = 10353 2240
Last active /omp style is kspace_style pppm/tip4p/omp
WARNING: Not all mixed pair coeffs generated from mixing. Use write_data with 'pair ij' option to store all pair coeffs. (../write_data.cpp:312)

write_restart   restart.lmp.${pid}
write_restart   restart.lmp.0
System init for write_restart ...
PPPM initialization ...
  extracting TIP4P info from pair style
  using 12-bit tables for long-range coulomb (../kspace.cpp:340)
  G vector (1/distance) = 0.36698116
  grid = 27 40 32
  stencil order = 5
  estimated absolute RMS force accuracy = 0.0046097056
  estimated relative force accuracy = 1.3881992e-05
  using double precision FFTW3
  3d grid and FFT values/proc = 10353 2240
Last active /omp style is kspace_style pppm/tip4p/omp
Total wall time: 0:09:59
