LAMMPS (30 Jul 2021)
  using 1 OpenMP thread(s) per MPI task
package omp 0
using multi-threaded neighbor list subroutines
echo both

include		in.partitions
variable        pid world 0
include		in.temp
variable        temperature equal 248.86
variable	tempDamp equal 100.0
include		in.pressure
variable        pressure equal 4625.0
variable        pressureDamp equal 1000.0 # This is 1 ps
include		in.seed
variable        seed world 745823

units		real
atom_style	full
read_restart	restart.lmp.${pid}
read_restart	restart.lmp.0
Reading restart file ...
  restart file = 30 Jul 2021, LAMMPS = 30 Jul 2021
  restoring atom style full from restart
  orthogonal box = (0.42106802 1.5874938 0.51370200) to (17.786504 22.041684 21.699494)
  4 by 4 by 4 MPI processor grid
  restoring pair style lj/cut/tip4p/long/omp from restart
  restoring bond style harmonic/omp from restart
  restoring angle style harmonic/omp from restart
  864 atoms
  576 bonds
  288 angles
Finding 1-2 1-3 1-4 neighbors ...
  special bond factors lj:    0        0        0       
  special bond factors coul:  0        0        0       
     2 = max # of 1-2 neighbors
     1 = max # of 1-3 neighbors
     1 = max # of 1-4 neighbors
     2 = max # of special neighbors
  special bonds CPU = 0.451 seconds
  read_restart CPU = 0.652 seconds
include 	in.setup
variable	out_freq equal 1000
variable	out_freq2 equal 10000
variable	out_freq3 equal 1000

timestep	2.0

neigh_modify    delay 7 every 1

include		in.tip4p
# This is TIP4P/Ice

# create groups ###
group ox type 2
288 atoms in group ox
group hy type 1
576 atoms in group hy

# set charges - beside manually ###
set group ox charge -1.1794
Setting atom values ...
  288 settings made for charge
set group hy charge 0.5897
Setting atom values ...
  576 settings made for charge

# ### TIP3P Potential Parameters ###
pair_style lj/cut/tip4p/long/omp 2 1 1 1 0.1577 8.5
pair_coeff 1 1*2 0.000 0.000
pair_coeff 2 2 0.21084 3.1668
bond_style  harmonic
bond_coeff  1 450 0.9572
angle_style harmonic
angle_coeff 1 55 104.52
kspace_style pppm/tip4p/omp 1.0e-5
pair_modify tail yes

thermo          ${out_freq}
thermo          1000
thermo_style    custom step temp pe etotal epair emol press lx ly lz vol pxx pyy pzz pxy pxz pyz enthalpy

restart 	${out_freq3} restart.lmp.${pid} restart2.lmp.${pid}
restart 	1000 restart.lmp.${pid} restart2.lmp.${pid}
restart 	1000 restart.lmp.0 restart2.lmp.${pid}
restart 	1000 restart.lmp.0 restart2.lmp.0


include         in.dump
dump            myDump all atom ${out_freq2} dump.water.${pid}
dump            myDump all atom 10000 dump.water.${pid}
dump            myDump all atom 10000 dump.water.0
dump            myDump2 all dcd ${out_freq2} dump.dcd
dump            myDump2 all dcd 10000 dump.dcd
dump_modify     myDump append yes
dump_modify     myDump2 append yes


variable natoms 	equal  "count(all)"                        # NUMBER ATOMS
variable H      	equal  "enthalpy/v_natoms"                 # ENTHALPY-per-atom
variable Vol      	equal  "vol/v_natoms"                 # volume-per-atom
fix AVG all 		ave/time ${out_freq} 1 ${out_freq} v_Vol v_H file vol_enthalpy.dat
fix AVG all 		ave/time 1000 1 ${out_freq} v_Vol v_H file vol_enthalpy.dat
fix AVG all 		ave/time 1000 1 1000 v_Vol v_H file vol_enthalpy.dat


timer           timeout 23:50:00 every 1000
New timer settings: style=normal  mode=nosync  timeout=23:50:00

fix 		1 all shake 1e-6 200 0 b 1 a 1
       0 = # of size 2 clusters
       0 = # of size 3 clusters
       0 = # of size 4 clusters
     288 = # of frozen angles
  find clusters CPU = 0.002 seconds
fix             2 all nph iso ${pressure} ${pressure} ${pressureDamp}
fix             2 all nph iso 4625 ${pressure} ${pressureDamp}
fix             2 all nph iso 4625 4625 ${pressureDamp}
fix             2 all nph iso 4625 4625 1000
fix             3 all temp/csvr ${temperature} ${temperature} ${tempDamp} ${seed}
fix             3 all temp/csvr 248.86 ${temperature} ${tempDamp} ${seed}
fix             3 all temp/csvr 248.86 248.86 ${tempDamp} ${seed}
fix             3 all temp/csvr 248.86 248.86 100 ${seed}
fix             3 all temp/csvr 248.86 248.86 100 745823

run             250000
PPPM initialization ...
  extracting TIP4P info from pair style
  using 12-bit tables for long-range coulomb (../kspace.cpp:340)
  G vector (1/distance) = 0.37394874
  grid = 24 24 25
  stencil order = 5
  estimated absolute RMS force accuracy = 0.0031067563
  estimated relative force accuracy = 9.3559043e-06
  using double precision FFTW3
  3d grid and FFT values/proc = 2730 288
Last active /omp style is kspace_style pppm/tip4p/omp
Neighbor list info ...
  update every 1 steps, delay 7 steps, check yes
  max neighbors/atom: 2000, page size: 100000
  master list distance cutoff = 10.8154
  ghost atom cutoff = 10.8154
  binsize = 5.4077, bins = 4 4 4
  1 neighbor lists, perpetual/occasional/extra = 1 0 0
  (1) pair lj/cut/tip4p/long/omp, perpetual
      attributes: half, newton on, omp
      pair build: half/bin/newton/omp
      stencil: half/bin/3d
      bin: standard
Per MPI rank memory allocation (min/avg/max) = 9.239 | 9.243 | 9.249 Mbytes
Step Temp PotEng TotEng E_pair E_mol Press Lx Ly Lz Volume Pxx Pyy Pzz Pxy Pxz Pyz Enthalpy 
14500000    251.74441   -3911.5543    -3480.073   -3911.5543            0    4430.3892    17.365436     20.45419    21.185792    7525.1072    5320.1793    4173.9121    3797.0763    67.464614    272.48044   -505.57839   -2993.8556 
14501000    267.85794   -3947.7984    -3488.699   -3947.7984            0    4043.1576    17.321279    20.402178     21.13192    7467.8474    3160.5925    4682.7724    4286.1077    479.43861    1677.9264   -1976.0639   -3048.3551 
14502000    247.72475   -3914.7648   -3490.1731   -3914.7648            0     3762.863    17.374802    20.465222    21.197218    7537.2893    4559.8906    4121.1071    2607.5913    1057.8817    277.94268    1143.8066   -3076.5455 
14503000    252.89573   -3927.1678   -3493.7131   -3927.1678            0    3187.9728    17.322042    20.403077    21.132851    7468.8346    2919.2066    3615.9524    3028.7594    542.98684    128.47654   -767.97426   -3146.4623 
14504000    234.49202   -3944.8565   -3542.9452   -3944.8565            0    4697.5933    17.295679    20.372025    21.100688    7434.7854    3692.0727    5364.2197    5036.4876    645.48496   -129.28706    250.02484   -3033.5912 
14505000    247.82327   -3936.9802   -3512.2196   -3936.9802            0    3832.4752    17.325976    20.407711    21.137651    7473.9249     4029.459    3249.6099    4218.3568   -984.72105     974.7292   -614.45831   -3094.4816 
14506000    248.01074   -3923.4805   -3498.3986   -3923.4805            0    4175.1657    17.320232    20.400945    21.130643    7466.4937    4400.9263    4094.9976    4029.5733     352.2119   -360.73272    604.99718     -3043.76 
14507000    253.24247   -3930.4383   -3496.3893   -3930.4383            0    5132.9711    17.307144    20.385529    21.114675      7449.58    4436.6111     4443.107    6519.1952    655.55634    90.250218   -3.8800305   -2938.7203 
14508000    259.44466   -3936.2899   -3491.6107   -3936.2899            0    5007.7502    17.304546    20.382469    21.111505    7446.2255    4151.7433     5011.834    5859.6732   -1316.3593    24.511949   -82.713496   -2947.7912 
14509000    259.56905   -3906.7942   -3461.9017   -3906.7942            0    5946.8364    17.263295    20.333881     21.06118    7393.1015    7605.8965    4825.2536     5409.359    45.677847    1860.4803    159.86149   -2820.7091 
14510000    248.63754   -3923.2734   -3497.1172   -3923.2734            0    4896.9435    17.293839    20.369858    21.098443    7432.4125    4146.0545    5405.1082    5139.6677   -168.62239   -431.56402     182.4832   -2966.3174 
14511000    243.35241   -3909.7208   -3492.6231   -3909.7208            0    6420.9152    17.292258    20.367996    21.096514    7430.3746    6360.2313    5978.4333    6924.0809    305.96488   -1021.4812    932.21663   -2796.8245 
14512000    259.08025   -3894.5238   -3450.4691   -3894.5238            0    3067.5466    17.420318    20.518833    21.252747    7596.6795     3880.447    3191.7579    2130.4349   -1284.4177    1323.9144   -112.39588   -3110.6163 
14513000    259.22769   -3899.8041   -3455.4968   -3899.8041            0    5431.6815    17.300957    20.378242    21.107127    7441.5935    5676.4722    4695.3351    5923.2372   -694.49552     1314.469    335.85228   -2866.0072 
14514000    237.96106    -3905.267   -3497.4099    -3905.267            0    4532.0187    17.281332    20.355127    21.083185    7416.2991    4741.7535    4238.2354     4616.067   -607.84601     1308.893    836.69113   -3007.2308 
14515000    251.40533   -3894.9092   -3464.0091   -3894.9092            0     4364.457    17.351638    20.437938    21.168958    7507.1835    5016.0069    2491.7037    5585.6603    844.62554   -653.28938   -480.55269   -2986.1684 
14516000    253.75117   -3918.9296   -3484.0088   -3918.9296            0    2799.2831     17.36182     20.44993    21.181379    7520.4063    3090.4498    3102.9207    2204.4789    615.50923     81.26816    -1292.722   -3176.9906 
14517000    253.70412   -3914.9271   -3480.0869   -3914.9271            0    3163.2289    17.352113    20.438497    21.169537    7507.7996    3156.5463    2524.8076    3808.3329    929.76329    856.64386   -116.84807   -3133.7337 
14518000    234.56161   -3904.4771   -3502.4465   -3904.4771            0    4464.6782    17.317826    20.398111    21.127707    7463.3825    4270.0179    4310.6457    4813.3709   -1090.8133    307.48563    419.12357   -3016.4851 
14519000    259.34328   -3920.2434   -3475.7379   -3920.2434            0    4085.7145    17.290433    20.365846    21.094288    7428.0224    5128.3254    4113.5779    3015.2403    320.98679   -900.67135   -721.89495   -3033.1321 
14520000    243.84996   -3921.3474   -3503.3969   -3921.3474            0    3407.6305    17.385257    20.477536    21.209973    7550.9034    3306.7905    4463.5062    2452.5947   -743.57788    331.78099   -162.19248   -3128.1412 
14521000    247.34766   -3910.5033   -3486.5578   -3910.5033            0    4388.0555    17.295735    20.372091    21.100756    7434.8578    4383.6067    2879.0738    5901.4858   -944.05672   -116.87907   -871.20501    -3010.762 
14522000    251.46434   -3903.7437   -3472.7424   -3903.7437            0    4452.8446    17.286463    20.361171    21.089445    7422.9074    3122.2747    6195.8526    4040.4065   -603.23384    49.184379    -100.5684   -2990.6976 
14523000    239.69508   -3915.9385   -3505.1094   -3915.9385            0    3871.9287     17.26923    20.340872     21.06842    7400.7293    4840.2755    3204.6819    3570.8288    1072.8572    325.08042   -659.27806   -3087.2042 
14524000    268.04705   -3883.5365    -3424.113   -3883.5365            0    5466.8121    17.253521    20.322368    21.049255    7380.5507    5891.1494    5984.5644    4524.7225   -244.92589    1671.6357   -560.23129   -2835.6776 
14525000    242.91608   -3900.5965   -3484.2466   -3900.5965            0    5418.5719    17.349517     20.43544     21.16637     7504.431    4823.0755    6283.3326    5149.3077    633.36774   -575.73199    539.77509   -2891.2141 
14526000    259.62291   -3905.2681   -3460.2833   -3905.2681            0    3659.2585    17.340799    20.425171    21.155734    7493.1236    5665.7687    3119.9143    2192.0926    -1119.098    529.21109   -421.73888   -3060.4013 
14527000    260.41304   -3916.9078   -3470.5688   -3916.9078            0    4343.9947    17.359374     20.44705    21.178396    7517.2291    3743.3113    2952.5772    6336.0957    99.089893   -991.99796    321.26878   -2994.3319 
14528000    242.79118   -3920.8085   -3504.6727   -3920.8085            0    3741.7586    17.228892    20.293359    21.019208    7348.9893     4064.922    2138.5624    5021.7913    -459.7044    265.27164    566.29279   -3103.6405 
14529000    243.11883   -3929.5307   -3512.8334   -3929.5307            0    5239.1861    17.235008    20.300563    21.026669    7356.8186    5822.6039    4638.6885     5256.266    110.44102    51.087224    317.11443   -2950.7124 
14530000    257.73749   -3898.5724   -3456.8191   -3898.5724            0    4381.9713    17.272842    20.345127    21.072827    7405.3745    4818.5211     4851.898    3475.4949    -35.70703   -802.50029   -2574.3583   -2983.5671 
14531000    239.80063    -3846.914   -3435.9039    -3846.914            0    3811.8117    17.297812    20.374538     21.10329    7437.5365    2624.6303    3273.9432    5536.8616   -353.94019   -1242.4325    117.05812   -3022.4411 
14532000    247.07171   -3869.6727   -3446.2002   -3869.6727            0    4230.5894    17.342068    20.426665    21.157282    7494.7688    4604.1755    3436.3492    4651.2434    622.11078   -1780.7881   -295.82399   -2983.7819 
14533000     254.9754   -3913.3296   -3476.3105   -3913.3296            0     6207.874    17.251805    20.320348    21.047162    7378.3499    6868.6984    4826.1623    6928.7612   -87.855296   -518.56049    704.88752   -2808.3081 
14534000    242.08732   -3930.1068   -3515.1775   -3930.1068            0    3700.2705    17.361579    20.449647    21.181086    7520.0943    4103.3942      3515.67    3481.7473    1010.5873    874.35758     1322.869   -3109.3582 
14535000    239.14134   -3942.7043   -3532.8243   -3942.7043            0    5691.0536    17.339484    20.423622     21.15413    7491.4193    3855.8208    6141.7511    7075.5888    1510.5723    664.64765     362.3642   -2911.0501 
14536000    249.28231   -3930.0932   -3502.8319   -3930.0932            0     4908.935    17.335896    20.419396    21.149753    7486.7697    5528.6057    3769.0659    5429.1335   -682.08972    943.98764    760.71804   -2966.8407 
14537000    247.59317   -3918.3028   -3493.9366   -3918.3028            0    3810.6093     17.36969    20.459201    21.190981    7530.6386    4216.5992    3097.6013    4117.6275    185.28628    -243.7989    1043.9091   -3075.4301 
14538000    250.96583   -3930.1383   -3499.9915   -3930.1383            0    4673.7124    17.289954    20.365282    21.093704    7427.4052     5293.596    4536.7513    4190.7899     227.1777    298.99243   -148.78133   -2993.7299 
14539000    248.39415   -3905.3492   -3479.6101   -3905.3492            0    6162.3037    17.261894    20.332231    21.059471    7391.3018    4131.2849    9044.8069    5310.8193   -215.96499    541.25751   -405.69144   -2815.3473 
14540000    242.92708   -3935.1666   -3518.7979   -3935.1666            0    4215.4741    17.398079    20.492639    21.225616    7567.6229    4090.2704    3748.3108    4807.8412     276.2664   -40.992655   -961.94785   -3053.5528 
14541000    243.88827   -3932.0606   -3514.0444   -3932.0606            0    4880.6378    17.375245    20.465743    21.197758    7537.8652    4610.2905    5380.1818     4651.441   -228.06478   -998.89447    92.871047    -2977.506 
14542000    248.11946   -3934.9561   -3509.6878   -3934.9561            0    4956.2658     17.34133    20.425796    21.156382    7493.8116    4278.6629    5150.4546    5439.6799   -326.60433    899.25883   -55.722191   -2968.0197 
14543000    259.55131   -3910.2526   -3465.3906   -3910.2526            0    4304.0017    17.333749    20.416866    21.147133    7483.9878    4411.5818      4643.12    3857.3033   -446.18118    1412.2883   -2223.5013   -2995.6248 
14544000    253.43107   -3905.8092    -3471.437   -3905.8092            0    6302.9266     17.29207    20.367774    21.096285    7430.1321    8336.1632    5809.3871    4763.2296   -437.01508     987.9796   -713.80621   -2788.4464 
14545000    238.32418    -3949.819   -3541.3395    -3949.819            0     3639.636    17.348205    20.433894    21.164769    7502.7281    4203.2027    4158.1155    2557.5898   -1155.7147    1240.7997   -1113.0941   -3143.0921 
14546000    257.31438   -3917.0423   -3476.0143   -3917.0423            0    4485.8756    17.330582    20.413136    21.143269    7479.8868    4921.9189    5107.3952    3428.3126    1307.9989    335.75131   -1844.0288   -2986.6659 
14547000     239.7345   -3924.6904   -3513.7936   -3924.6904            0    3914.7395    17.348639    20.434405    21.165299    7503.2912    3983.3959    4108.0034    3652.8193    650.86523    154.11817    684.39254   -3085.4123 
14548000    257.93017   -3925.7246   -3483.6411   -3925.7246            0    5140.9485    17.331386    20.414084    21.144251    7480.9286    6189.0134    4428.7417    4805.0906    460.54388   -596.96674   -273.10552    -2922.755 
14549000    255.26048   -3922.3648   -3484.8571   -3922.3648            0    4799.2853    17.277904    20.351089    21.079003    7411.8867    4837.6926    4663.9796    4896.1838    168.74143   -1137.5567    269.67179   -2966.0795 
14550000    238.41271   -3924.4817   -3515.8505   -3924.4817            0    5264.8188    17.370714    20.460407    21.192231    7531.9704    4128.5631    5221.6064    6444.2869    97.576892    89.957673    242.20231   -2937.5309 
14551000     249.0255   -3896.6718   -3469.8506   -3896.6718            0    5106.4622    17.390335    20.483517    21.216168    7557.5221    4539.7436    4866.4405    5913.2025    1270.7986   -1198.4834   -681.62411   -2907.0229 
14552000    239.42498   -3920.1262     -3509.76   -3920.1262            0    4908.0496    17.374481    20.464843    21.196826    7536.8713    4245.6395    6640.6361    3837.8732    1348.4477    232.68013   -1389.4467   -2970.2793 
14553000     246.1812   -3933.2857   -3511.3395   -3933.2857            0    5934.4246    17.275989    20.348833    21.076666    7409.4225    5817.1283    5425.1369    6561.0088   -205.24919   -428.50895   -1444.5188   -2870.0725 
14554000    247.39739   -3895.3255   -3471.2949   -3895.3255            0    4506.5411    17.295676    20.372022    21.100685    7434.7819    4738.2776    3029.1543    5752.1913   -508.99222     667.3364     -1544.24   -2982.6566 
14555000    235.96333   -3907.5511    -3503.118   -3907.5511            0    3936.8476    17.363381     20.45177    21.183285    7522.4358    4782.4573    3900.7934    3127.2921    242.74578     1980.407   -247.50695   -3071.2183 
14556000    266.75389   -3916.1992   -3458.9921   -3916.1992            0    3756.5942    17.342326    20.426969    21.157597    7495.1032    4764.4987    4413.4921    2091.7916     1742.557    1686.1629    1201.0573   -3048.3649 
14557000    251.43521   -3934.6539   -3503.7025   -3934.6539            0    5836.1771    17.235873    20.301582    21.027725    7357.9266    5061.8247    6031.2196    6415.4872   -1275.5774    40.154007   -27.640981   -2877.4351 
14558000    250.89193   -3928.8474   -3498.8272   -3928.8474            0    5254.3311    17.292115    20.367828     21.09634    7430.1905    4319.4206     6260.825    5182.7476   -683.86374    1175.7331   -523.75524   -2929.4589 
14559000    253.17707   -3920.6283   -3486.6914   -3920.6283            0    4014.0345    17.300245    20.377403    21.106258     7440.675    4836.9925    3537.4246    3667.6863    1029.8477    122.42587    739.62317     -3051.11 
14560000    242.79861   -3936.2089   -3520.0604   -3936.2089            0    5272.5577    17.278101     20.35132    21.079243    7412.1396    5018.2217    5916.9165    4882.5348   -171.90348    431.24033    211.43972   -2950.1051 
14561000    245.26696   -3905.9198   -3485.5406   -3905.9198            0    5689.5229    17.290592    20.366034    21.094482    7428.2276    4338.0028    5573.5039     7157.062   -504.14811   -811.81685   -1119.6409    -2869.177 
14562000    250.01587   -3894.0041   -3465.4854   -3894.0041            0    3601.8621    17.378362    20.469415    21.201561    7541.9233    1690.5764    3956.0164    5158.9934    889.03019   -235.21102    762.98275   -3069.3122 
14563000    260.01484   -3897.1313   -3451.4747   -3897.1313            0    2229.0467    17.300468    20.377667    21.106531    7440.9635    2100.4328    1818.6851    2768.0223   -522.18382   -233.26158    1062.5742   -3209.5812 
14564000    256.08854   -3911.5991   -3472.6721   -3911.5991            0    6355.6675    17.153043    20.204019    20.926672    7252.3556    6438.8254    6610.4754    6017.7018    522.75694   -198.06098   -114.35525   -2800.4448 
14565000     238.9479    -3938.838   -3529.2895    -3938.838            0    6017.7548    17.190742    20.248423    20.972665    7300.2789    6825.0823    5221.4771     6006.705    189.75333   -1560.5071    2868.6337   -2888.5967 
14566000    258.06294   -3911.9937   -3469.6826   -3911.9937            0    3712.0633    17.278038    20.351246    21.079166    7412.0589    3576.7586    4425.0086    3134.4227   -878.56584   -570.33558    485.89611   -3068.4187 
14567000    240.42589    -3961.605   -3549.5232    -3961.605            0    2593.2048    17.350214     20.43626     21.16722    7505.3348    3290.7466    2172.3527    2316.5152    1488.8175    99.021434    155.57502   -3265.6772 
14568000    257.80957   -3946.7375   -3504.8608   -3946.7375            0    5266.2116    17.227253    20.291428    21.017208    7346.8923    5434.2324    3338.1994     7026.203    303.10395    303.59294    89.328729   -2940.6026 
14569000     237.9703   -3956.8962   -3549.0233   -3956.8962            0    5813.1714    17.273944    20.346425    21.074172     7406.792    5790.0527    5954.6922    5694.7693    747.08779   -1300.9967   -655.86697   -2921.0818 
14570000      254.702   -3945.6727   -3509.1222   -3945.6727            0    2754.6469    17.334934    20.418262    21.148579    7485.5228    2812.5469    2726.6521    2724.7417    374.83197   -1897.8532   -554.15644    -3208.401 
14571000    254.40449   -3937.3971   -3501.3565   -3937.3971            0    3752.8376    17.285241    20.359731    21.087954    7421.3333    3510.8908    4923.9895    2823.6326    740.38791    -12.65382   -1225.0328   -3095.1774 
14572000    258.01053   -3872.5268   -3430.3055   -3872.5268            0    4512.1834    17.364462    20.453043    21.184603    7523.8405    5218.3279    4965.4567    3352.7654     677.7731    1206.9419    684.79969    -2935.195 
14573000    248.13179   -3931.5578   -3506.2684   -3931.5578            0    5612.5543     17.28315    20.357267    21.085402    7418.6395    4706.9292    5023.0396    7107.6942    574.72827   -1414.4516    536.62186   -2899.0279 
14574000    249.26494   -3915.8452   -3488.6136   -3915.8452            0    3180.9384    17.330519    20.413062    21.143193    7479.8056    4191.2614    3838.2212    1513.3326   -45.399248     1324.225    519.70094     -3141.62 
14575000    250.57043   -3920.4163   -3490.9472   -3920.4163            0    4718.5314    17.347858    20.433485    21.164346    7502.2784    5009.3275    2777.2405    6369.0262   -492.43802    319.52165    617.30601   -2974.6783 
14576000    247.77602    -3928.187   -3503.5073    -3928.187            0    5444.6962    17.298368    20.375192    21.103968    7438.2533    5429.9841    4749.7632    6154.3414   -76.044322   -1282.7562    -486.6172   -2912.8705 
14577000    243.79174   -3932.1381   -3514.2874   -3932.1381            0    5314.3747    17.204207    20.264284    20.989093     7317.447    7275.5246    4947.0051    3720.5946    2010.8755    659.52454   -388.75311   -2947.1509 
14578000    260.70515   -3887.0472   -3440.2075   -3887.0472            0     4124.054    17.253505     20.32235    21.049236    7380.5305    4730.1348      4436.77     3205.257    380.19321     793.8613   -144.33084   -2996.3048 
14579000    241.88344   -3927.9812   -3513.4012   -3927.9812            0    4171.1087    17.309804    20.388662     21.11792    7453.0152     3363.585    4278.3521     4871.389   -715.73533    18.979899   -1093.9946   -3060.0243 
14580000    264.09608   -3930.7116     -3478.06   -3930.7116            0    4077.1358    17.301725    20.379146    21.108063    7442.5844    4836.2857    3290.2358     4104.886   -457.25749    839.97807   -1366.6701   -3035.5177 
14581000    250.74295   -3926.3311   -3496.5663   -3926.3311            0     4499.652    17.356565    20.443741    21.174968    7513.5797    3142.2674    5410.9027    4945.7859   -980.91001   -502.00351    1253.0712   -3003.5041 
14582000    241.13374   -3928.4628   -3515.1678   -3928.4628            0    4402.3096    17.318713    20.399156    21.128789    7464.5291    4946.9091     3397.362    4862.6577   -677.39445   -763.88553   -471.15758   -3035.9214 
14583000    242.28755   -3941.1781   -3525.9055   -3941.1781            0    3083.5145     17.33506    20.418411    21.148733    7485.6869    2255.3326    4274.2265    2720.9843    1276.8734   -1672.4653   -52.854025   -3189.2749 
14584000    259.81506   -3912.7044   -3467.3903   -3912.7044            0    4858.4643    17.328533    20.410724     21.14077    7477.2348    3805.6976    6028.4884    4741.2067    548.61862   -551.99192    2253.4082   -2937.5855 
14585000    248.53137   -3926.2131   -3500.2388   -3926.2131            0    4657.5608     17.24394    20.311084    21.037567    7368.2629     4750.686    4250.1415    4971.8549     1594.525    452.93921   -1118.4344   -2999.7441 
14586000    255.70317   -3938.1384   -3499.8719   -3938.1384            0     3915.058    17.287945    20.362915    21.091252    7424.8158    867.94663    4940.6848    5936.5426    981.26118    163.98312    174.30658   -3075.9364 
14587000    254.42366    -3955.215   -3519.1416    -3955.215            0    5010.2504    17.282985    20.357073    21.085201    7418.4269    6151.7104    6473.8984    2405.1423    894.52877   -701.73765    98.905907   -2977.0819 
14588000    258.95048    -3925.994   -3482.1617    -3925.994            0    5349.7108    17.316668    20.396747    21.126294    7461.8849    8057.4557    1954.8114    6036.8653    543.25887   -22.740432    1237.5364   -2899.9851 
14589000    249.79755   -3970.2258   -3542.0813   -3970.2258            0    5377.2937    17.240374    20.306884    21.033216    7363.6929    5317.5301    4788.5109    6025.8399   -469.23801   -1101.4407     1234.914   -2964.6035 
14590000    256.47655   -3950.2062   -3510.6141   -3950.2062            0    6926.6611    17.235937    20.301657    21.027803    7358.0081    6995.8186    5681.1814    8102.9833   -470.42147    808.83063   -564.27032   -2767.3211 
14591000    233.22549   -3944.9592   -3545.2187   -3944.9592            0    5235.1959    17.273458    20.345852    21.073579    7406.1663    5401.4838    3727.0587    6577.0452    744.83487    19.141709    -225.5877   -2979.7582 
14592000    254.34582   -3937.4195   -3501.4795   -3937.4195            0    3535.6593    17.330646    20.413212    21.143348    7479.9699    4297.2997    1421.9343    4887.7438   -1085.0736    1079.1482    573.59368   -3115.7826 
14593000    244.84239   -3961.5341   -3541.8826   -3961.5341            0     5458.937    17.261667    20.331963    21.059193    7391.0094    5418.5365    4937.5543    6020.7201    126.94948   -23.387255   -1647.2041   -2953.4622 
14594000       243.49   -3945.9578   -3528.6243   -3945.9578            0    4890.6368    17.270371    20.342216    21.069813    7402.1965    5161.7897    3235.1738    6274.9469   -1661.7901    348.66938   -1018.6838   -3000.6632 
14595000    236.84394   -3944.0272   -3538.0848   -3944.0272            0    6961.5512    17.215864    20.278013    21.003313    7332.3305     7281.263    6281.4493    7321.9412    -2088.895    -371.3106     226.8378   -2793.6546 
14596000    251.12201   -3928.2247   -3497.8101   -3928.2247            0     4264.433    17.215537    20.277628    21.002915    7331.9127    4612.8522    3370.6495    4809.7975   -571.79466   -1495.4951    648.19225    -3041.821 
14597000    253.18894   -3947.6984   -3513.7412   -3947.6984            0    4454.7182    17.266524    20.337684    21.065119    7397.2506    3853.9436    3129.7259     6380.485    253.79127    847.01011   -641.36652   -3033.1604 
14598000    240.78005    -3941.083   -3528.3942    -3941.083            0    5563.1134    17.193687    20.251892    20.976258    7304.0311    4805.8583     6001.548    5881.9337   -408.86991    -68.57302    319.02475   -2935.8013 
14599000    245.30903   -3923.5326   -3503.0813   -3923.5326            0    3254.9822    17.307464    20.385906    21.115065    7449.9933    3835.5168    2941.9298    2987.4999   -111.66721   -573.47404    960.86188   -3149.4258 
14600000    252.99246   -3946.5307   -3512.9103   -3946.5307            0    3763.1124    17.285158    20.359633    21.087853    7421.2264    1768.7584    4783.9719    4736.6068    544.61419   -986.40155    244.92166    -3105.625 
14601000    237.91395   -3935.4918   -3527.7154   -3935.4918            0    6077.8949    17.189378    20.246816    20.971001    7298.5411    4737.9694    6972.2424    6523.4731    7.0083217    39.681103   -269.34017   -2880.7737 
14602000    266.68324   -3935.3482   -3478.2622   -3935.3482            0    3931.7987    17.284586     20.35896    21.087155    7420.4896     4925.819    3526.9691    3342.6078   -832.17653   -516.13594    331.29242   -3052.7621 
14603000    256.24523   -3911.3301   -3472.1345   -3911.3301            0     5300.358     17.25396    20.322886    21.049791    7381.1143    4330.5262     7034.902    4535.6459    293.45461   -1044.9492    697.98587   -2901.5723 
14604000     252.0031   -3928.9792   -3497.0545   -3928.9792            0    5289.6458    17.360136    20.447948    21.179326    7518.2194    5112.6994    5318.6571     5437.581    908.76708   -997.30338    465.92787   -2917.0686 
14605000    260.07747   -3915.3397   -3469.5758   -3915.3397            0    3539.5121    17.379944    20.471278    21.203491     7543.983    4411.9405      2086.41    4120.1859   -144.33982   -543.14405    581.14727   -3080.1543 
14606000    241.01016    -3931.993   -3518.9099    -3931.993            0    4416.0398     17.29731    20.373946    21.102677    7436.8886    3637.3576    5307.3219      4303.44    1084.2049   -281.02592    311.96881   -3039.9489 
14607000     243.5839   -3922.4672   -3504.9727   -3922.4672            0     3552.367    17.326337    20.408137    21.138091    7474.3924    2646.7165    3621.7418    4388.6427    367.56795     64.98386   -691.15642   -3117.7422 
14608000    241.88103   -3882.1746   -3467.5987   -3882.1746            0     4953.131    17.252573    20.321252    21.048099    7379.3349    5217.3326    4491.4347    5150.6256   -895.82816   -918.85348    336.35875   -2934.5426 
14609000    250.87253   -3935.2938   -3505.3069   -3935.2938            0    5125.5094    17.328196    20.410326    21.140359    7476.7979    5178.8847    5533.8896     4663.754   -402.46187    239.25238    194.95516    -2946.414 
14610000     248.7018   -3885.8946   -3459.6283   -3885.8946            0    4886.7943    17.279907    20.353448    21.081446    7414.4641    5655.3912    3199.2222    5805.7694   -1028.4206     70.24502    508.62984   -2931.2077 
14611000    252.25261    -3891.527   -3459.1746    -3891.527            0    5372.8645     17.25511    20.324241    21.051194     7382.591    6522.2994    4963.1129    4633.1813   -627.19129     1232.319    582.13516   -2880.6917 
14612000    239.04429   -3890.3637   -3480.6499   -3890.3637            0    4287.7998    17.349729    20.435689    21.166629    7504.7059    2458.5112    6068.6192     4336.269    -847.6104    1589.3993   -417.49802   -3011.3569 
14613000     246.2428   -3904.1178   -3482.0661   -3904.1178            0    3520.5445    17.336307    20.419879    21.150254    7487.3015    2819.1141    4212.6279    3529.8915    151.88338   -428.71913    1799.3148   -3097.6416 
14614000    248.75128   -3864.0407   -3437.6895   -3864.0407            0    5310.6025    17.296579    20.373085    21.101785    7435.9455    6441.2584    4475.6652    5014.8839    1284.9248   -1689.2931   -1349.8226   -2861.7779 
14615000     262.7677   -3913.1249     -3462.75   -3913.1249            0    2978.8888    17.369937    20.459491    21.191282    7530.9593    2946.8784     3887.299    2102.4889   -499.47587    -608.8257    579.57668   -3135.5747 
14616000    247.24821   -3922.9852   -3499.2102   -3922.9852            0    4120.7549     17.30419     20.38205    21.111071    7445.7659    4105.5062     4430.949    3825.8096    981.73011   -136.93188   -514.54887   -3051.7421 
14617000    246.35928   -3943.7229   -3521.4716   -3943.7229            0    4850.4249    17.218681    20.281332    21.006751    7335.9309     4566.433    5119.2605    4865.5812    1773.0607    -389.0517   -1489.2563    -3002.539 
14618000    248.71118   -3941.2717   -3514.9892   -3941.2717            0    4801.5524    17.198581    20.257657    20.982229     7310.271    4798.2164    6165.4309      3441.01   -798.93544   -713.18042    878.87872   -3003.0823 
14619000    258.47644   -3922.2029   -3479.1831   -3922.2029            0    4904.3671     17.21322    20.274899    21.000088    7328.9527    5231.0791    5243.6421    4238.3801    -102.1902    1181.3376   -467.75754   -2954.9786 
14620000    245.75467   -3925.1247   -3503.9096   -3925.1247            0    4918.7839    17.216271    20.278493     21.00381    7332.8507    3447.3618    7504.7176    3804.2721    1361.8493    1646.0865   -225.86333   -2977.8845 
14621000    244.87869   -3940.2662   -3520.5525   -3940.2662            0     2937.546    17.345093    20.430228    21.160972     7498.691    1985.3701     4554.126     2273.142   -640.53303    630.28587    839.93296   -3199.3003 
14622000    247.85441   -3888.0363   -3463.2223   -3888.0363            0    7326.7532    17.184052    20.240543    20.964503     7291.759    6197.8455    7192.3333    8590.0807   -1420.8616   -26.545738    681.31156   -2684.0747 
14623000    229.80148   -3939.8112   -3545.9393   -3939.8112            0    3635.9201    17.259667    20.329608    21.056753    7388.4411    5550.1008    2236.5899    3121.0697    378.32297    1601.5184   -1103.6822   -3154.1586 
14624000    262.37044   -3936.7132   -3487.0193   -3936.7132            0    2772.9157    17.262956    20.333482    21.060766    7392.6656    3022.8812    3385.2482    1910.6176   -1847.4514    613.31643   -804.12503   -3188.0589 
14625000    271.19958    -3914.073   -3449.2462    -3914.073            0     3686.584     17.24998    20.318198    21.044936    7376.0084    2158.6993    5040.8542    3860.1984   -381.09929    573.01529   -382.78535   -3052.6748 
14626000    250.61527   -3909.5392   -3479.9932   -3909.5392            0    6332.2817    17.162745    20.215446    20.938508    7264.6686    6510.2636    6848.8327    5637.7488   -124.75701    86.155851   -79.808002   -2809.1022 
14627000    239.71067    -3888.294   -3477.4382    -3888.294            0     6297.006    17.174867    20.229724    20.953297    7280.0726    4261.5157    7258.9968    7370.5054    305.89895   -46.719258    359.58927     -2808.87 
14628000    254.70936   -3924.0918   -3487.5287   -3924.0918            0    4631.8975    17.223742    20.287294    21.012926     7342.402    3895.6528     5576.389    4423.6508    267.91476   -303.38367    1199.2346   -2991.5386 
14629000    252.97695   -3900.2887   -3466.6948   -3900.2887            0    2421.6882    17.265473    20.336446    21.063837    7395.8998    737.18782    2494.7702    4033.1067    873.29131    663.23081   -1394.1699   -3205.4876 
14630000    247.71124   -3939.3526    -3514.784   -3939.3526            0    4876.0904    17.206157    20.266581    20.991472    7319.9358     2705.828    6577.8875    5344.5559   -136.05649   -134.28107   -1090.7149    -2994.243 
14631000    236.18183   -3916.1217   -3511.3141   -3916.1217            0    4606.7734    17.278452    20.351734    21.079671    7412.5921    4724.7184    4841.1611    4254.4408   -1550.0318   -424.39096    257.05508   -3013.2986 
14632000    245.46459   -3877.7382   -3457.0203   -3877.7382            0    4942.9662    17.330402    20.412925     21.14305     7479.654    4713.5232    6324.4434    3790.9319    696.34688    538.39411    516.32108   -2917.8263 
14633000    246.07316   -3922.4659   -3500.7049   -3922.4659            0     4367.378    17.294254    20.370346    21.098949    7432.9474    3842.7904    5652.0835      3607.26    1174.2804    1773.1506    229.14462   -3027.2728 
14634000    242.59541    -3936.465   -3520.6648    -3936.465            0    4342.2443    17.332221    20.415067    21.145269    7482.0091    4639.1051    5221.1758     3166.452    629.75782   -1011.1384    284.19944   -3046.8503 
14635000    238.31696   -3941.7895   -3533.3224   -3941.7895            0     5438.074    17.247124    20.314834    21.041451    7372.3446     5663.163    5833.2294    4817.8296    45.088579   -550.24516   -82.243907   -2948.6311 
14636000     249.8154   -3936.4954   -3508.3203   -3936.4954            0    4883.9799    17.214787    20.276746       21.002    7330.9554    4615.8749    3637.6367    6398.4279    22.648627    998.12358    191.09631   -2986.1522 
14637000      239.039   -3929.0586    -3519.354   -3929.0586            0    5482.5659    17.184229    20.240752    20.964719    7291.9843    6835.0843    5214.5325    4398.0809    712.15095    158.78736    488.59459   -2936.3044 
14638000    250.83451   -3935.5716   -3505.6498   -3935.5716            0    3193.4568    17.226957     20.29108    21.016847    7346.5134    3931.2495    2693.7543    2955.3665   -335.00475   -126.51564    215.60964   -3163.4985 
14639000    237.55257   -3961.6078   -3554.4508   -3961.6078            0    2069.0278    17.330883    20.413491    21.143637    7480.2765    1520.0221    1884.2234    2802.8381    310.68674   -448.82595   -284.54921   -3328.7361 
14640000    245.43802   -3931.3385   -3510.6662   -3931.3385            0    3531.1263    17.314259     20.39391    21.123356    7458.7722    3046.7964    3039.3222    4507.2604    620.43771   -826.14286   -46.083849   -3126.5554 
14641000    242.97083   -3951.6536   -3535.2099   -3951.6536            0    6190.3855    17.247123    20.314832    21.041449    7372.3431     6521.662    6365.8985    5683.5961    2302.6285    751.64031     1856.773   -2869.6316 
14642000    261.67569    -3963.127   -3514.6238    -3963.127            0     5600.787    17.211812    20.273242    20.998371    7327.1554     5936.641    4781.0937    6084.6263   -401.31568    -879.4639    1401.2727    -2916.129 
14643000    244.65681   -3933.4499   -3514.1165   -3933.4499            0    4723.3484    17.274125    20.346637    21.074392    7407.0236    5188.3717    4487.3845    4494.2889    931.39958    532.01322   -226.10339   -3003.8823 
14644000    246.86643   -3913.5261   -3490.4055   -3913.5261            0    4397.6821    17.252604    20.321289    21.048137    7379.3746    6444.4215    2993.2531    3755.3717    9.7830331    795.65293   -1041.5832   -3017.1243 
14645000    245.68751   -3864.5957   -3443.4957   -3864.5957            0    5638.4242     17.25121    20.319647    21.046436    7377.5858    5432.8048    4171.2517     7311.216   -451.66405    750.73416   -59.372294   -2836.8322 
14646000    249.99264   -3940.1499   -3511.6711   -3940.1499            0    4120.3172    17.242609    20.309516    21.035942    7366.5563    4386.6559    4361.5243    3612.7713    310.71918   -260.70297    810.13191   -3069.0103 
14647000    229.07353    -3926.609   -3533.9848    -3926.609            0      5060.78    17.303711    20.381486    21.110487    7445.1484    4307.7614    6518.0728    4356.5058   -349.66809   -633.39323    -994.7687   -2984.4861 
14648000    239.24553   -3960.1844   -3550.1257   -3960.1844            0    3473.4708    17.281487    20.355308    21.083373     7416.498    4204.4877    3271.4159    2944.5087   -457.36059     282.1921   -54.129171   -3174.4281 
14649000    267.44206   -3930.6577   -3472.2711   -3930.6577            0    4920.9124     17.25423    20.323204     21.05012    7381.4611    4326.9511    4387.7231     6048.063   -872.79359   -394.67199   -1668.5039   -2942.5298 
14650000    247.06073   -3920.4131   -3496.9594   -3920.4131            0    5840.3262    17.201539    20.261141    20.985838    7314.0431     6068.559    5791.5427     5660.877   -698.80186   -733.78596    1591.9345   -2873.9846 
14651000    261.17476   -3920.2402   -3472.5956   -3920.2402            0    4323.2894     17.21783    20.280329    21.005712     7334.843    5008.5648     3026.629    4934.6744    458.89389    1682.0059    734.06639   -3010.1283 
14652000    238.34513   -3939.9743   -3531.4589   -3939.9743            0    3052.1882    17.293024    20.368899    21.097449    7431.3626    3867.8045    2384.9493    2903.8108     -321.814   -60.689625   -5.8564294   -3200.6664 
14653000    241.94102   -3908.2667   -3493.5881   -3908.2667            0    3163.4102    17.379375    20.470608    21.202797     7543.242    2388.0305    2919.1723    4183.0279   -686.65209   -85.157692    -640.7685   -3145.5799 
14654000    248.50301   -3940.5452   -3514.6195   -3940.5452            0    3978.6997    17.258751    20.328529    21.055636     7387.265    3373.0765    3604.8472    4958.1752   -485.04318    1238.1337   -750.59935   -3085.9716 
14655000    247.00838   -3925.1301   -3501.7662   -3925.1301            0    5829.9602    17.235995    20.301726    21.027874    7358.0831    5714.7697    6402.1171    5372.9938    -1726.968   -920.90157   -1474.1282   -2876.1526 
14656000     226.0446   -3921.0054   -3533.5727   -3921.0054            0    3791.3611    17.261001     20.33118    21.058381    7390.1551    2823.1239     3751.075    4799.8844    786.76437   -769.33426   -1461.2198    -3124.948 
14657000    245.64318   -3941.0912   -3520.0672   -3941.0912            0    4323.7126    17.256702    20.326116    21.053136    7384.6342     3140.485    3626.3865    6204.2661    9.8526723    1163.6866    682.59936   -3054.4149 
14658000    249.99854   -3951.3143   -3522.8253   -3951.3143            0    3272.7646    17.269528    20.341222    21.068783    7401.1117     2893.619    3225.9394    3698.7356   -801.02409   -117.27724   -29.384743   -3169.5709 
14659000    236.23681   -3925.5041   -3520.6023   -3925.5041            0    4510.8466    17.296026    20.372434    21.101111    7435.2328    3489.9385    4493.1209    5549.4806    494.81967    76.608121    418.53292   -3031.4675 
14660000    261.53893   -3920.4661   -3472.1973   -3920.4661            0    5287.0722    17.294241    20.370331    21.098933    7432.9307    5453.3209    3427.3915    6980.5041   -1685.1211   -686.27983    679.43854   -2899.0699 
14661000    243.24858   -3922.4727    -3505.553   -3922.4727            0    6484.6212    17.251041    20.319447    21.046229    7377.3686    5980.9306    5497.1664    7975.7668    125.35881    79.416272   -147.32364   -2807.8638 
14662000    242.91984   -3889.0294   -3472.6731   -3889.0294            0    5615.9624    17.192443    20.250427    20.974741    7302.4466    5334.6763    5122.0464    6391.1643    862.84432     344.2118   -1340.9431   -2874.5804 
14663000    252.84993   -3900.8678   -3467.4917   -3900.8678            0    4609.5289    17.339783    20.423974    21.154495    7491.8071    4364.7178    3527.6674    5936.2015   -485.45216    516.79344    1760.9282   -2963.8531 
14664000    246.89293   -3912.3743   -3489.2083   -3912.3743            0    5710.9893    17.246477    20.314072    21.040662    7371.5152    6410.7753    6260.0109    4462.1816   -24.535706   -567.09204    1170.7994   -2875.2427 
14665000    243.85322   -3887.1579   -3469.2018   -3887.1579            0    7289.7855    17.190855    20.248556    20.972802    7300.4224    7994.4287    7205.0856    6669.8421   -795.91328    287.68246    -866.3858   -2693.0644 
14666000    250.98159    -3902.076   -3471.9021    -3902.076            0    5182.8332    17.338531      20.4225    21.152968    7490.1847    5020.0207    4700.1671    5828.3117    693.52358   -96.083416   -743.89549   -2905.7467 
14667000    241.73466   -3930.0299    -3515.705   -3930.0299            0    3768.3219    17.319067    20.399573    21.129221    7464.9873     4655.609    3065.7084    3583.6481      1027.78   -477.21455    970.57589   -3105.4509 
14668000    257.13884   -3895.3131    -3454.586   -3895.3131            0    4300.2413    17.375684    20.466261    21.198294    7538.4372    3753.7042    4389.7081    4757.3117    1455.6396   -149.27176    335.31712   -2981.8158 
14669000    257.71976   -3910.3851   -3468.6622   -3910.3851            0     2858.418    17.346853    20.432302    21.163121    7500.9749    4185.8205    1838.7821    2550.6515   -1185.7127   -100.25457   -152.32479   -3155.9684 
14670000    254.34777   -3915.8601   -3479.9167   -3915.8601            0    4630.2319    17.279203    20.352619    21.080588    7413.5588    4002.6802    6188.1252    3699.8901   -1027.8254    310.88146   -294.42852      -2979.3 
14671000    242.95636   -3915.3193   -3498.9004   -3915.3193            0    3881.8795    17.369468     20.45894    21.190711    7530.3502    4595.5243    3516.0944    3534.0198   -546.16444   -672.61024   -417.85411    -3072.583 
14672000    246.45618   -3912.3342   -3489.9167   -3912.3342            0    4602.7613    17.290696    20.366156    21.094609    7428.3616    3865.0027     5101.327    4841.9543   -1259.5343   -932.63852    215.29107   -2991.2764 
14673000    243.05587   -3918.4772   -3501.8877   -3918.4772            0    3213.1183    17.231281    20.296173    21.022123    7352.0474    2969.3445    3204.0707    3465.9398   -598.10562   -898.62758      44.7362   -3157.3705 
14674000    240.60704   -3915.6134   -3503.2212   -3915.6134            0    2579.0215    17.322257    20.403331    21.133113     7469.113    2086.7193    3918.6086    1731.7368     971.1224     379.7091    330.52112     -3222.29 
14675000    246.42211   -3917.3338   -3494.9748   -3917.3338            0     5062.289     17.27141     20.34344     21.07108    7403.5323     4756.931    5386.2477    5043.6884    148.60142    665.83174    1606.4105   -2948.3846 
14676000    248.21473   -3919.1573   -3493.7257   -3919.1573            0    5077.7374    17.276007    20.348854    21.076688    7409.4451     4508.581    5472.5168    5252.1142    109.96282    444.29855   -1440.2913   -2945.0297 
14677000    248.47251   -3888.1505   -3462.2771   -3888.1505            0    5351.6413     17.31022    20.389153    21.118429    7453.5537    6577.2184    5959.9351    3517.7704    1516.6161    2035.5596    119.71272   -2880.5406 
14678000    238.45214   -3870.9893   -3462.2905   -3870.9893            0    4731.0854    17.324187    20.405604    21.135468    7471.6101    4044.8093    5274.8772    4873.5696   -479.33633     490.4356   -232.47186   -2946.7641 
14679000     249.2403   -3919.0052   -3491.8159   -3919.0052            0    4551.2275    17.288174    20.363185    21.091532    7425.1111    4582.5043    3741.5628    5329.6155   -1137.2526   -871.85876    556.16188   -2998.9742 
14680000    244.12472   -3932.0505   -3513.6291   -3932.0505            0     4725.912    17.284518    20.358879    21.087072    7420.4016    4540.6937     4255.906    5381.1362   -617.85056   -777.46771   -670.21248   -3002.1959 
14681000    257.39834   -3916.1052   -3474.9333   -3916.1052            0    5963.2805    17.219893    20.282759    21.008229    7337.4796    6000.1371    5738.2481    6151.4564    66.350228     529.8951    291.03569   -2836.8049 
14682000    265.40812   -3903.0646   -3448.1642   -3903.0646            0     5052.884    17.275503     20.34826    21.076073    7408.7963    4979.4255    4409.9198    5769.3068    283.00383   -1334.6809    162.42894   -2902.2016 
14683000    247.82067   -3919.6051   -3494.8489   -3919.6051            0    6174.9992    17.299191    20.376162    21.104972    7439.3149    5911.9876    6157.7786    6455.2315   -129.67992    337.20789   -28.094064   -2824.8938 
14684000    239.54781   -3926.0302   -3515.4534   -3926.0302            0    3397.2421    17.297038    20.373626    21.102346    7436.5378    3955.9951    3713.1976    2522.5335   -154.53278   -823.64047    -445.5565    -3147.008 
14685000    267.43149   -3924.2755   -3465.9071   -3924.2755            0    3495.4092    17.297934    20.374681    21.103439    7437.6938    2609.1681    2379.0809    5497.9787    466.53118    312.40359     -915.106   -3086.7561 
14686000    259.48481   -3900.3853   -3455.6372   -3900.3853            0    4516.8633    17.259635    20.329571    21.056715    7388.4008    3736.0351    4248.9432    5565.6116    389.89447   -449.08821    63.805634   -2968.9351 
14687000    247.93934   -3929.6583   -3504.6988   -3929.6583            0    2134.7716     17.36929     20.45873    21.190494    7530.1187    1212.8067    2539.2654    2652.2428     451.0606    1459.8686    976.83239   -3270.2602 
14688000    255.93546   -3904.0912   -3465.4266   -3904.0912            0    4818.8047    17.287714    20.362644    21.090971    7424.5188    6617.2086    2316.3998    5522.8057    666.13529   -960.22414   -547.33306   -2943.6512 
14689000     245.6738   -3945.5411   -3524.4646   -3945.5411            0    4420.0955    17.260673    20.330793    21.057981    7389.7336    4380.7634    5305.3944    3574.1287    1502.2748    1903.2055   -71.832205   -3048.1035 
14690000    264.03198   -3921.7747   -3469.2329   -3921.7747            0    3691.1908    17.320643    20.401429    21.131144    7467.0251    4765.0659    2694.4096    3614.0969    2140.7061    289.27645   -33.335224   -3067.2663 
14691000     246.7346   -3907.4149   -3484.5203   -3907.4149            0    5702.8518    17.327707     20.40975    21.139762    7476.1653     6353.051    4938.5264     5816.978    688.89936    104.93959    2747.5671   -2862.7258 
14692000    248.78204    -3910.854   -3484.4501    -3910.854            0    5247.0296     17.24166    20.308398    21.034785    7365.3405    7158.6608    3780.8614    4801.5666   -570.00637   -360.75855   -657.43353   -2920.8355 
14693000    249.76454   -3918.5091   -3490.4212   -3918.5091            0      5848.13    17.250897    20.319279    21.046055    7377.1849    6602.9029    4958.3249    5983.1624     1965.477   -492.75673    70.026726   -2861.2286 
14694000    247.66679    -3901.848   -3477.3556    -3901.848            0    5029.8279    17.228563    20.292971    21.018806    7348.5683    4492.8547    5083.3933    5513.2356    1012.7855    229.71258    240.82887   -2938.3023 
14695000    247.46608   -3911.4768   -3487.3284   -3911.4768            0    4068.4457     17.28033    20.353947    21.081963    7415.0095    3402.3169    5509.7098    3293.3103   -341.89541    129.36734    396.88537   -3047.3654 
14696000    237.16205   -3896.2971   -3489.8095   -3896.2971            0    4141.0872    17.322786    20.403953    21.133758    7469.7966    3685.3499    4331.3316      4406.58    1088.8564     826.9525    634.19153   -3038.6823 
14697000    243.77776    -3913.266   -3495.4393    -3913.266            0    3577.5772    17.333718     20.41683    21.147096    7483.9484     3784.033    2476.7723    4471.9264   -268.20215   -890.69489   -341.13535   -3104.9621 
14698000    246.96054   -3904.2347   -3480.9528   -3904.2347            0    3511.7655    17.353726    20.440397    21.171506    7509.8943    2495.0807    3561.8673    4478.3484    1282.9728    184.95479   -1459.1605   -3096.3298 
14699000    254.64629   -3907.7973   -3471.3423   -3907.7973            0    4164.0016    17.295017    20.371246    21.099881    7433.9324    5186.4639    4396.7705    2908.7705    842.37257    164.52837    764.23886   -3019.8967 
14700000     248.9511   -3911.0782   -3484.3845   -3911.0782            0    6262.3314    17.323877    20.405239     21.13509    7471.2087    6624.6094    6333.7447      5828.64    27.534904    439.75471    -793.5652   -2802.0414 
14701000    254.10768    -3944.036   -3508.5041    -3944.036            0     3651.791    17.436608    20.538021    21.272621    7618.0115    2890.4064    4398.6494    3666.3172   -966.67912    551.95181   -1161.9431   -3102.7869 
14702000    252.16342   -3918.2544    -3486.055   -3918.2544            0    2944.3009     17.37359    20.463795     21.19574    7535.7126     2910.331    1293.7117    4628.8601    487.50932   -394.85375   -1324.2337   -3162.4744 
14703000    237.09387   -3915.8633   -3509.4925   -3915.8633            0    5470.0129    17.365469    20.454229    21.185832    7525.1496    4173.5664    5302.2819    6934.1903    895.48091   -404.54941   -226.09076   -2909.1773 
14704000    238.40851   -3914.8671   -3506.2431   -3914.8671            0    5400.9406    17.336969    20.420659    21.151062    7488.1598    5693.3503    5209.5893    5299.8822    807.53148   -77.082445   -873.64103   -2916.4218 
14705000    223.45598    -3922.635   -3539.6391    -3922.635            0    2658.4062    17.449822    20.553586    21.288742     7635.344    2864.5193    3826.7401    1283.9593    640.86122    585.66977    193.61182   -3243.6158 
14706000    242.08082   -3938.3165   -3523.3983   -3938.3165            0    4111.6901    17.299305    20.376296    21.105111     7439.462    4765.7858    4791.0854     2778.199    234.64421   -188.49581    464.12398   -3077.2926 
14707000    254.59569   -3932.1957   -3495.8274   -3932.1957            0    4047.9469    17.338395    20.422339    21.152801    7490.0073    4848.1059    3679.5968    3616.1379   -414.15244    288.87719    1201.8489   -3053.6537 
14708000    246.28944   -3889.0733   -3466.9416   -3889.0733            0    3698.3998    17.315594    20.395482    21.124984    7460.4968    5335.3705    2703.3044    3056.5245    956.14945   -353.37615    1074.5522   -3064.5421 
14709000    243.24134   -3908.7406   -3491.8333   -3908.7406            0    4924.2568    17.336919      20.4206    21.151001     7488.095    4316.7524    3352.7611    7103.2569    1423.5436     951.2044     1579.637    -2954.074 
14710000    253.54617   -3888.7235   -3454.1541   -3888.7235            0    4709.1864    17.389212    20.482195    21.214798    7556.0583    3884.9483    5883.4541    4359.1567   -190.69678   -605.63099    1208.3902   -2935.2142 
14711000    254.17681   -3926.2628   -3490.6125   -3926.2628            0    4414.1299    17.287883    20.362842    21.091177    7424.7359    4309.9999    4466.7418    4465.6479    96.577686     83.88505   -530.88951    -3012.641 
14712000    252.98652   -3925.5549   -3491.9447   -3925.5549            0    5510.8547    17.250298    20.318572    21.045323    7376.4155    6629.3951    5977.2336    3925.9355   -223.96967    1444.8904   -294.73456    -2899.101 
14713000    255.91411   -3912.6038   -3473.9758   -3912.6038            0    3961.7748    17.377715    20.468653    21.200772    7541.0814    3377.8898    4789.6466    3717.7878    495.82749    256.43562    1203.3582    -3038.264 
14714000    246.80696   -3905.0519   -3482.0333   -3905.0519            0    6934.4258    17.236717    20.302575    21.028754    7359.0071    7844.8928    7081.5855    5876.7989     61.00228    39.173324   -94.620355   -2737.8059 
14715000    233.23591   -3960.9526   -3561.1942   -3960.9526            0    4069.7795    17.360746    20.448665    21.180069    7519.0109    3005.3399     4123.756    5080.2427    2020.4314   -757.36754   -1810.6863   -3114.9141 
14716000    238.02743   -3930.7748   -3522.8039   -3930.7748            0    3780.9066    17.357922    20.445339    21.176624    7515.3423    3239.5962     4281.111    3822.0126    780.67957   -1097.4667    450.37658   -3108.4031 
14717000    244.48943   -3938.4446   -3519.3981   -3938.4446            0    6196.6462    17.246134    20.313667    21.040243    7371.0751    4908.9389    6546.4964    7134.5033    919.05549   -333.40471    529.26574   -2853.2613 
14718000    248.09291   -3905.7291   -3480.5063   -3905.7291            0    7083.7471    17.244266    20.311467    21.037964    7368.6801    6933.4174    7684.2727    6633.5512    875.54709     1508.201    1336.9829    -2719.254 
14719000    254.81072    -3915.093   -3478.3562    -3915.093            0    3959.8397     17.40167    20.496869    21.229997    7572.3102    5088.1162    3573.3869    3218.0159   -188.59712    695.50286    274.62264   -3041.0538 
14720000     243.2491   -3936.9806     -3520.06   -3936.9806            0    5336.1846    17.324356    20.405803    21.135674    7471.8285    4295.3761    4319.1108    7394.0669     -484.989   -825.50739    14.063147   -2938.5815 
14721000    247.80824   -3899.0889    -3474.354   -3899.0889            0    5354.4642    17.340024    20.424258    21.154789    7492.1191    5655.0331     5436.219    4972.1406   -2207.1581     273.8415    1784.4984   -2889.2992 
14722000    255.93143   -3946.7771   -3508.1193   -3946.7771            0    4214.8911    17.249388    20.317501    21.044213    7375.2487    4943.0541     2381.944    5319.6752    996.47556   -505.24429   -130.44923   -3054.7638 
14723000    246.39308   -3921.7247   -3499.4154   -3921.7247            0    4939.7214    17.274143    20.346659    21.074414    7407.0472    5925.9542    3196.4336    5696.7763   -907.18154     642.5606   -507.66324    -2965.806 
14724000    238.00105   -3905.2183   -3497.2927   -3905.2183            0    3084.7478    17.293255     20.36917     21.09773    7431.6596    4356.3669    1767.0225     3130.854    1077.1429   -209.07147   -1592.1748    -3162.958 
14725000     249.9788   -3942.9677   -3514.5126   -3942.9677            0    4573.5795    17.281323    20.355116    21.083174    7416.2879    4318.5557    5238.1246    4164.0583   -834.02625   -563.00194    821.67638   -3019.8391 
14726000    258.60435   -3939.1117   -3495.8727   -3939.1117            0    4409.5198    17.268721    20.340272    21.067799    7400.0745    3864.2761     4545.248    4819.0351    73.696001   -880.49943   -175.64774   -3019.9863 
14727000    268.79895    -3906.975   -3446.2628    -3906.975            0     4792.293    17.272123    20.344279    21.071949    7404.4486    5687.1771    3696.2997    4993.4022   -634.40568     711.9608    -689.1417   -2928.7609 
14728000    258.44784   -3935.9023   -3492.9315   -3935.9023            0    4853.3463    17.280504    20.354151    21.082174    7415.2325    3297.2443    5558.3318    5704.4629     1170.948    711.27111    396.26577   -2968.0734 
14729000    255.04676   -3923.2054    -3486.064   -3923.2054            0      5086.43     17.24402    20.311177    21.037664    7368.3647    3804.3471    5976.9881     5477.955   -1216.8501     366.2775    882.75039    -2939.476 
14730000    249.46346   -3900.2549   -3472.6831   -3900.2549            0    4191.2052    17.280338    20.353956    21.081972    7415.0198      2405.99    6812.5164    3355.1093   -713.73615   -174.38046    -679.6349   -3019.4442 
14731000    259.64749   -3915.6789    -3470.652   -3915.6789            0    5871.6338    17.208052    20.268812    20.993783    7322.3534     3655.439    6782.0207    7177.4418    111.22377    344.17095    858.42003    -2843.626 
14732000    248.21258   -3941.0971   -3515.6692   -3941.0971            0    5660.7803    17.241029    20.307654    21.034015    7364.5312    7465.0636    4346.1386    5171.1388     1110.084   -1161.0979   -104.96944    -2907.678 
14733000    245.05399   -3936.2525   -3516.2384   -3936.2525            0    5845.8737    17.252292    20.320921    21.047756    7378.9744    6507.6894    4996.3065    6033.6253   -1675.8413   -939.09449    339.27229    -2887.136 
14734000    246.56861   -3907.7546   -3485.1444   -3907.7546            0    7635.4089    17.242567    20.309467    21.035892     7366.503    6515.1015    8032.2335    8358.8918    24.607792    133.55038    752.86163   -2664.8504 
14735000    247.31512   -3954.3907    -3530.501   -3954.3907            0    3036.4735    17.304678    20.382625    21.111666    7446.3961    3049.1935    2787.9871    3272.2398    1375.0891   -1122.4321   -482.63255   -3200.7459 
14736000    251.73609   -3944.7437   -3513.2767   -3944.7437            0    3849.0743    17.307971    20.386504    21.115684    7450.6485    3715.3552    3721.1817    4110.6858     223.4397    572.00908    1203.6166    -3095.036 
14737000    248.15063   -3924.9977    -3499.676   -3924.9977            0    4820.3874    17.267446    20.338771    21.066244    7398.4362     4202.996    5972.3711    4285.7952   -216.82314   -1591.0228     596.8748    -2979.563 
14738000    251.75436   -3920.1651   -3488.6667   -3920.1651            0    4570.6595    17.224508    20.288196     21.01386    7343.3817    3832.1764    3995.6885    5884.1136    971.76882    1100.2513   -923.05523   -2999.1688 
14739000    253.59059   -3935.7347   -3501.0891   -3935.7347            0    3302.0996    17.272651    20.344902    21.072594    7405.1287    1522.1575    3867.9644    4516.1768   -211.07818    556.06572   -284.50924   -3144.4748 
14740000    252.23764   -3906.9904   -3474.6637   -3906.9904            0     7207.553    17.203282    20.263194    20.987964    7316.2662    5040.3874    7200.0227    9382.2489    920.35968   -333.87892   -1403.3389   -2705.6161 
14741000    242.84442   -3915.7853   -3499.5583   -3915.7853            0    5962.5118    17.221115    20.284199     21.00972    7339.0421    6604.4772    6825.3641    4457.6942    816.99581    679.00601    301.21781   -2861.3763 
14742000    245.39992   -3895.4717   -3474.8646   -3895.4717            0    4348.8663    17.292453    20.368225    21.096752    7430.6255    2412.8179    5970.3005    4663.4806    534.64828   -555.50065   -133.27054   -3003.5864 
14743000    261.78097   -3902.6991   -3454.0155   -3902.6991            0    5618.6952     17.24679    20.314441    21.041044    7371.9172    3972.8565    7434.8734    5448.3558    357.08802    987.36469   -283.76329   -2849.9392 
14744000    247.32755   -3896.7989    -3472.888   -3896.7989            0    6219.4215    17.256286    20.325625    21.052628    7384.0998    4545.7491     6821.593    7290.9225   -1080.0621   -23.678423    389.00695   -2803.1214 
14745000    259.29441   -3915.5967    -3471.175   -3915.5967            0    5303.0125    17.291864    20.367532    21.096034    7429.8672    4690.2668    6190.1862    5028.5844   -196.11507    1178.9462   -89.642219   -2896.5565 
14746000    248.77222   -3923.7662   -3497.3791   -3923.7662            0    5192.0769    17.218869    20.281553     21.00698    7336.1712    4976.4899    6425.0492    4174.6917   -141.10675    341.90677   -46.949753    -2941.876 
14747000    245.48801   -3925.4375   -3504.6795   -3925.4375            0    5418.4461    17.263734    20.334398    21.061715    7393.6649    3934.7236    7234.1396    5086.4752    553.47626    495.71795   -967.92875   -2920.4137 
14748000    255.68965   -3930.3808   -3492.1375   -3930.3808            0    3957.5735    17.262048    20.332413    21.059658    7391.4996    3760.6198    3426.7605    4685.3403    31.491864    467.11587   -1517.0641   -3065.5212 
14749000    245.22567   -3947.5949   -3527.2865   -3947.5949            0    2848.5168    17.269902    20.341664    21.069241    7401.5937    2752.2758    4029.7299    1763.5447   -220.63517    164.77626   -929.52766   -3219.8043 
14750000    258.53375   -3893.4265   -3450.3085   -3893.4265            0    4021.2646    17.191281    20.249058    20.973322    7300.9654    2699.1935    4168.8563     5195.744    963.08635   -1011.6535    2.1739838    -3022.136 
Loop time of 439.993 on 64 procs for 250000 steps with 864 atoms

Performance: 98.183 ns/day, 0.244 hours/ns, 568.191 timesteps/s
99.1% CPU use with 64 MPI tasks x 1 OpenMP threads

MPI task timing breakdown:
Section |  min time  |  avg time  |  max time  |%varavg| %total
---------------------------------------------------------------
Pair    | 20.352     | 25.175     | 30.121     |  47.3 |  5.72
Bond    | 0.26875    | 0.27971    | 0.29265    |   1.0 |  0.06
Kspace  | 194.28     | 199.58     | 204.78     |  17.4 | 45.36
Neigh   | 4.6634     | 5.0892     | 5.4538     |   9.0 |  1.16
Comm    | 97.241     | 101.21     | 105.48     |  18.3 | 23.00
Output  | 1.0021     | 1.0032     | 1.0099     |   0.1 |  0.23
Modify  | 98.715     | 100.92     | 104.42     |  12.7 | 22.94
Other   |            | 6.737      |            |       |  1.53

Nlocal:        13.5000 ave          17 max           9 min
Histogram: 2 5 6 7 0 10 12 7 12 3
Nghost:        2185.28 ave        2230 max        2138 min
Histogram: 1 4 7 7 6 19 9 5 3 3
Neighs:        4226.39 ave        5828 max        2276 min
Histogram: 3 3 4 5 10 9 13 7 9 1

Total # of neighbors = 270489
Ave neighs/atom = 313.06597
Ave special neighs/atom = 2.0000000
Neighbor list builds = 12584
Dangerous builds = 0

unfix		3
unfix		2
unfix		1

write_data	data.final.${pid}
write_data	data.final.0
System init for write_data ...
PPPM initialization ...
  extracting TIP4P info from pair style
  using 12-bit tables for long-range coulomb (../kspace.cpp:340)
  G vector (1/distance) = 0.37477756
  grid = 24 24 25
  stencil order = 5
  estimated absolute RMS force accuracy = 0.0030151485
  estimated relative force accuracy = 9.0800302e-06
  using double precision FFTW3
  3d grid and FFT values/proc = 2730 288
Last active /omp style is kspace_style pppm/tip4p/omp
WARNING: Not all mixed pair coeffs generated from mixing. Use write_data with 'pair ij' option to store all pair coeffs. (../write_data.cpp:312)

write_restart   restart.lmp.${pid}
write_restart   restart.lmp.0
System init for write_restart ...
PPPM initialization ...
  extracting TIP4P info from pair style
  using 12-bit tables for long-range coulomb (../kspace.cpp:340)
  G vector (1/distance) = 0.37477756
  grid = 24 24 25
  stencil order = 5
  estimated absolute RMS force accuracy = 0.0030151485
  estimated relative force accuracy = 9.0800302e-06
  using double precision FFTW3
  3d grid and FFT values/proc = 2730 288
Last active /omp style is kspace_style pppm/tip4p/omp
Total wall time: 0:07:21
