LAMMPS (30 Jul 2021)
Processor partition = 0
  using 2 OpenMP thread(s) per MPI task
using multi-threaded neighbor list subroutines
variable        pid world 0 1
variable        phase world IceII IceVI

shell cd ${phase}
shell cd IceII
include Restart.lmp
echo both
log log.lammps
#include		in.partitions
include		in.temp
variable        temperature equal 70.49
variable	tempDamp equal 100.0
include		in.pressure
variable        pressure equal 8417.8
variable        pressureDamp equal 1000.0 # This is 1 ps
include		in.seed
variable        seed equal 745823

units		real
atom_style	full
box tilt large
read_restart	restart.lmp.${pid}
read_restart	restart.lmp.0
Reading restart file ...
  restart file = 30 Jul 2021, LAMMPS = 30 Jul 2021
  restoring atom style full from restart
  triclinic box = (-10.552296 -9.0691467 0.24312035) to (12.532296 12.059145 21.616879) with tilt (-9.2211506 1.6798202 2.7118850)
  4 by 2 by 4 MPI processor grid
  restoring pair style lj/cut/tip4p/long/omp from restart
  restoring bond style harmonic/omp from restart
  restoring angle style harmonic/omp from restart
  1296 atoms
  864 bonds
  432 angles
Finding 1-2 1-3 1-4 neighbors ...
  special bond factors lj:    0        0        0       
  special bond factors coul:  0        0        0       
     2 = max # of 1-2 neighbors
     1 = max # of 1-3 neighbors
     1 = max # of 1-4 neighbors
     2 = max # of special neighbors
  special bonds CPU = 0.002 seconds
  read_restart CPU = 0.007 seconds
include 	in.setup
variable	out_freq equal 1000
variable	out_freq2 equal 10000
variable	out_freq3 equal 1000

timestep	2.0

neigh_modify    delay 7 every 1

include		in.tip4p
# This is TIP4P/Ice

# create groups ###
group ox type 2
432 atoms in group ox
group hy type 1
864 atoms in group hy

# set charges - beside manually ###
set group ox charge -1.1794
Setting atom values ...
  432 settings made for charge
set group hy charge 0.5897
Setting atom values ...
  864 settings made for charge

# ### TIP3P Potential Parameters ###
pair_style lj/cut/tip4p/long/omp 2 1 1 1 0.1577 8.5
pair_coeff 1 1*2 0.000 0.000
pair_coeff 2 2 0.21084 3.1668
bond_style  harmonic
bond_coeff  1 450 0.9572
angle_style harmonic
angle_coeff 1 55 104.52
kspace_style pppm/tip4p/omp 1.0e-5
pair_modify tail yes

thermo          ${out_freq}
thermo          1000
thermo_style    custom step temp pe etotal epair emol press lx ly lz vol pxx pyy pzz pxy pxz pyz enthalpy

restart 	${out_freq3} restart.lmp.${pid} restart2.lmp.${pid}
restart 	1000 restart.lmp.${pid} restart2.lmp.${pid}
restart 	1000 restart.lmp.0 restart2.lmp.${pid}
restart 	1000 restart.lmp.0 restart2.lmp.0


include         in.dump
dump            myDump all atom ${out_freq2} dump.water.${pid}
dump            myDump all atom 10000 dump.water.${pid}
dump            myDump all atom 10000 dump.water.0
dump            myDump2 all dcd ${out_freq2} dump.dcd
dump            myDump2 all dcd 10000 dump.dcd
dump_modify     myDump append yes
dump_modify     myDump2 append yes


variable natoms 	equal  "count(all)"                        # NUMBER ATOMS
variable H      	equal  "enthalpy/v_natoms"                 # ENTHALPY-per-atom
variable Vol      	equal  "vol/v_natoms"                 # volume-per-atom
fix AVG all 		ave/time ${out_freq} 1 ${out_freq} v_Vol v_H file vol_enthalpy.dat
fix AVG all 		ave/time 1000 1 ${out_freq} v_Vol v_H file vol_enthalpy.dat
fix AVG all 		ave/time 1000 1 1000 v_Vol v_H file vol_enthalpy.dat


timer           timeout 10:00:00 every 1000
New timer settings: style=normal  mode=nosync  timeout=10:00:00

fix 		1 all shake 1e-6 200 0 b 1 a 1
Finding SHAKE clusters ...
       0 = # of size 2 clusters
       0 = # of size 3 clusters
       0 = # of size 4 clusters
     432 = # of frozen angles
  find clusters CPU = 0.002 seconds
fix             2 all nph tri ${pressure} ${pressure} ${pressureDamp}
fix             2 all nph tri 8417.8 ${pressure} ${pressureDamp}
fix             2 all nph tri 8417.8 8417.8 ${pressureDamp}
fix             2 all nph tri 8417.8 8417.8 1000
fix             3 all temp/csvr ${temperature} ${temperature} ${tempDamp} ${seed}
fix             3 all temp/csvr 70.49 ${temperature} ${tempDamp} ${seed}
fix             3 all temp/csvr 70.49 70.49 ${tempDamp} ${seed}
fix             3 all temp/csvr 70.49 70.49 100 ${seed}
fix             3 all temp/csvr 70.49 70.49 100 745823


run             250000
PPPM initialization ...
  extracting TIP4P info from pair style
  using 12-bit tables for long-range coulomb (../kspace.cpp:340)
  G vector (1/distance) = 0.3713559
  grid = 27 36 32
  stencil order = 5
  estimated absolute RMS force accuracy = 0.0037193566
  estimated relative force accuracy = 1.1200732e-05
  using double precision FFTW3
  3d grid and FFT values/proc = 6885 1008
Last active /omp style is kspace_style pppm/tip4p/omp
Neighbor list info ...
  update every 1 steps, delay 7 steps, check yes
  max neighbors/atom: 2000, page size: 100000
  master list distance cutoff = 10.8154
  ghost atom cutoff = 10.8154
  binsize = 5.4077, bins = 7 5 4
  1 neighbor lists, perpetual/occasional/extra = 1 0 0
  (1) pair lj/cut/tip4p/long/omp, perpetual
      attributes: half, newton on, omp
      pair build: half/bin/newton/tri/omp
      stencil: half/bin/3d/tri
      bin: standard
Setting up Verlet run ...
  Unit style    : real
  Current step  : 2000000
  Time step     : 2
  Walltime left : 9:59:59.92
Per MPI rank memory allocation (min/avg/max) = 10.57 | 10.59 | 10.60 Mbytes
Step Temp PotEng TotEng E_pair E_mol Press Lx Ly Lz Volume Pxx Pyy Pzz Pxy Pxz Pyz Enthalpy 
 2000000    76.278768   -6818.1249   -6621.9024   -6818.1249            0     8039.032    23.084592    21.128291    21.373758    10424.794    7806.2193     8631.831    7679.0457    411.26288   -143.74353   -613.16291   -5399.6888 
 2001000    71.935666   -6830.2351    -6645.185   -6830.2351            0    8980.7892    23.075713    21.112186    21.334387     10393.66    8889.8959    8851.4297    9201.0421    493.42808    798.02333    -129.5963   -5283.8691 
 2002000    71.398525   -6836.9655   -6653.2972   -6836.9655            0    7768.3639    23.135996    21.144286    21.369316    10453.743    7003.6456     8337.801    7963.6453     239.7063    534.37336   -435.46131   -5468.9547 
 2003000    70.884307   -6829.9489   -6647.6033   -6829.9489            0    9244.8683    23.050208    21.127329    21.369722    10406.826    9088.1356    9706.2684     8940.201    122.36718    177.69042   -188.67371    -5244.483 
 2004000    68.649319   -6838.8547   -6662.2585   -6838.8547            0     7971.476    22.988725    21.220045    21.399699    10439.239    8705.7893    7315.8626     7892.776    -256.5762   -751.24612   -121.35054   -5448.6364 
 2005000    69.396686    -6832.591   -6654.0723    -6832.591            0    8037.2747    22.976561    21.188652    21.435608    10435.761    9144.8928    7706.4534    7260.4778   -517.09426   -774.87349   -175.52886   -5430.8403 
 2006000    73.195578   -6828.5044   -6640.2133   -6828.5044            0    9045.4404    23.014861    21.133216    21.376126    10396.878    9156.4113    9448.1198      8531.79   -435.78473    525.71246   -178.17825   -5268.6731 
 2007000    68.579483   -6829.2489   -6652.8323   -6829.2489            0    8173.4519    23.089957    21.164055    21.319631    10418.416    7669.0985    8322.8545    8528.4027      1010.74    -183.3128    189.91653   -5410.9425 
 2008000    73.622082   -6833.8358   -6644.4475   -6833.8358            0    8822.9265    23.131828    21.131748    21.288512    10406.165    8301.3666    9373.4052    8794.0076    566.75483    -7.890093     145.4844   -5305.4516 
 2009000    72.993406   -6832.4315   -6644.6605   -6832.4315            0    7097.7473    23.030859    21.261517    21.405134    10481.473    7278.0077    6496.3075    7518.9267   -309.02629    727.17437    1.4021142   -5559.6879 
 2010000    73.137781   -6837.9053   -6649.7628   -6837.9053            0    8291.4935    23.031557    21.120208    21.444486    10431.269    8539.1885    8332.2829     8003.009   -865.27171    156.69382   -283.27256   -5388.3832 
 2011000    69.824064   -6831.5211    -6651.903   -6831.5211            0    7643.2749    22.987901    21.215096     21.41934    10446.009     7702.942    7609.2304    7617.6524    433.77936   -545.55184    280.21057   -5487.4934 
 2012000    70.109989   -6816.8238   -6636.4702   -6816.8238            0    8450.7064    23.018158    21.192591    21.370661    10424.916    8524.6801    8137.7365    8689.7025    225.87475   -98.297024    740.21973   -5351.6526 
 2013000     71.05435   -6823.4235   -6640.6405   -6823.4235            0     8956.435     23.07574    21.140992    21.331437    10406.414     8443.656    9263.1602    9162.4887    -398.7347    171.28741   -308.77745   -5281.3504 
 2014000    68.457135   -6833.5421   -6657.4403   -6833.5421            0    8017.5612    23.007809    21.246717    21.339091     10431.41    7760.4381    7974.2732    8317.9725     123.9228    765.70418    498.52784   -5437.7174 
 2015000    70.833343   -6828.5007   -6646.2863   -6828.5007            0    8954.9662    23.144768    21.064146     21.33295    10400.341    8246.1786    9693.2993    8925.4206    99.611923   -17.009371    -571.4615   -5288.0121 
 2016000    68.843875   -6825.5992   -6648.5025   -6825.5992            0    8653.5143    22.965207    21.247959    21.334539    10410.482    9305.5247    8418.2961    8236.7221   -112.18682    116.62049   -319.81324   -5334.6723 
 2017000    73.995225   -6839.4579   -6649.1097   -6839.4579            0     8109.424    23.168145    21.061267    21.368737    10426.885     7472.976    8818.8601    8036.4359    328.55578    -440.5247   -266.00719   -5415.9466 
 2018000    68.126261   -6832.3769   -6657.1262   -6832.3769            0    8527.9296     22.97615     21.24457    21.345594    10419.178     8343.361    8965.4908    8274.9369   -56.436564    661.75677   -54.559448   -5361.2815 
 2019000    70.611712   -6836.0119   -6654.3676   -6836.0119            0    7907.7662    23.093208    21.124996    21.422193    10450.687     8180.727    7834.8255    7707.7462    -390.7347   -986.42133    584.10825   -5449.1248 
 2020000    67.289553   -6828.6935   -6655.5953   -6828.6935            0    8146.9713    22.875423    21.285443    21.448044    10443.342    9245.3276    7676.0149    7519.5714   -718.10088   -417.04965    123.73853   -5414.7673 
 2021000    68.792157   -6836.9512   -6659.9876   -6836.9512            0    8353.2924    23.056568    21.099187    21.426705    10423.553     7899.642     9070.725    8089.5102   -181.62097    214.03279   -7.9364335   -5390.1465 
 2022000    71.097922   -6828.2063   -6645.3112   -6828.2063            0    9070.2297    22.946277     21.25746    21.327093     10402.92    8957.9774    8538.0474    9714.6643    368.55992    98.507948    403.51525    -5269.213 
 2023000    70.869375   -6831.6909   -6649.3837   -6831.6909            0    8792.2728    23.167719    21.063153    21.307924    10397.951    8507.3995    8919.3564    8950.0624    124.62707    671.53417    235.80881   -5316.0931 
 2024000    73.122717   -6817.2567    -6629.153   -6817.2567            0    9017.8219    23.029486    21.186744    21.328208    10406.456    9275.8549    8257.4662    9520.1446    -543.4854   -174.70706    429.83487   -5260.5409 
 2025000    72.071962   -6822.4777    -6637.077   -6822.4777            0    8687.5362    23.068674    21.142928    21.374503    10425.186    7709.3673    9166.3814    9186.8598    87.528554    229.45548    128.35271   -5316.2184 
 2026000    72.455961   -6828.5448   -6642.1563   -6828.5448            0    7835.5434    22.954544    21.219903    21.461324    10453.665    8219.8432    8043.7806    7243.0063   -544.57674   -394.57968    197.50218   -5447.5809 
 2027000    72.901394   -6832.9069   -6645.3725   -6832.9069            0    8447.3679    22.973292     21.16714    21.452034    10431.672    8671.4319    8911.3418    7759.3301   -249.95495   -159.62515    439.34885   -5360.2302 
 2028000    69.257288   -6836.4593   -6658.2992   -6836.4593            0    8615.3541    23.034244    21.124998    21.409282    10417.722    8912.0371    9222.2169    7711.8083   -137.05245   -329.71628    161.90113    -5349.353 
 2029000    73.157125   -6846.8067   -6658.6144   -6846.8067            0    7961.4636    23.076416    21.216317    21.320685    10438.534    7825.5483    8274.4904    7784.3522    694.82183   -400.71509   -251.23047   -5446.5985 
 2030000    75.046475   -6830.5287   -6637.4762   -6830.5287            0    8487.2627    23.088192    21.188702    21.296607    10418.488    7806.4016    9012.6366      8642.75    69.108738    41.377532    -484.9824   -5347.8964 
 2031000    72.518832   -6823.4608   -6636.9106   -6823.4608            0    9258.0291    23.076674    21.150047    21.288868    10390.516    8943.4552    9102.8069    9727.8251   -420.74692    539.64964    441.70444   -5233.9949 
 2032000    72.040982   -6830.1673   -6644.8463   -6830.1673            0    7613.0954    23.081823    21.192488    21.373016    10454.851     7504.447    7458.6205    7876.2187    50.885537    331.34172     428.8892   -5484.0526 
 2033000    69.582714   -6830.2631   -6651.2658   -6830.2631            0    8361.4152    23.028798     21.19971    21.340283    10418.408    8842.6551    7818.9493    8422.6411    -507.2413    48.096863   -289.50972   -5380.8174 
 2034000    68.655045   -6825.4194   -6648.8085   -6825.4194            0    9156.5322     23.10311    21.095103    21.339688    10400.163    9386.6543    9033.2832    9049.6591   -261.03345   -265.33516    -446.5048    -5259.985 
 2035000    70.631858    -6839.112   -6657.4159    -6839.112            0    8411.7018    22.984608    21.239154    21.357317    10426.079    9438.3048    7376.6209    8420.1797    569.59385   -360.11486   -467.88884   -5378.3857 
 2036000    69.314877   -6831.5042   -6653.1959   -6831.5042            0     8460.656    23.170159    21.031436     21.38525    10421.069    7758.1038    8845.7639    8778.1003   -83.709741    380.26113   -551.24497   -5367.3404 
 2037000    70.441477   -6832.1634    -6650.957   -6832.1634            0    7507.0079    22.986512    21.285744     21.36766    10454.876    7400.7593    6971.2853    8148.9791    281.52101    405.70945    578.99022   -5506.3362 
 2038000      71.8125   -6833.7794   -6649.0461   -6833.7794            0    8673.1091    23.101514    21.108837    21.356813    10414.567    8060.5456    8950.1559    9008.6258    82.364567   -227.31302    260.91271   -5331.7243 
 2039000    71.681336   -6830.8783   -6646.4824   -6830.8783            0    8435.7702    22.964105    21.301277    21.284769    10411.759    8968.2159    7590.3792    8748.7157    219.43541    -673.1139    266.99353   -5365.5543 
 2040000    70.868754    -6832.705   -6650.3994    -6832.705            0    8591.2006    23.130638    21.145163    21.262505    10399.515    8351.4439    8679.7111    8742.4469    89.616769   -449.78356   -102.68861   -5347.4042 
 2041000    68.197094   -6829.0188   -6653.5859   -6829.0188            0    8516.7639    22.901697    21.288647    21.369491    10418.613    8628.4716    7885.9343    9035.8859    356.18586    1198.3425    1427.3482   -5359.5081 
 2042000    70.539016   -6834.7502   -6653.2929   -6834.7502            0    8113.4302    23.098123    21.087104    21.437616    10441.674    7174.5675    8547.0406    8618.6826   -104.33545    909.51914    368.51956   -5417.7708 
 2043000    73.449927   -6833.2579   -6644.3124   -6833.2579            0    8673.9264    22.969663    21.224978    21.374363    10420.656    9252.9088    7934.0973    8834.7732   -108.66113   -7.6892462    242.18612   -5326.0961 
 2044000    71.552798   -6831.2808   -6647.2156   -6831.2808            0    7764.3142    23.183572    21.109675    21.345928    10446.648    8007.4161    7279.9948    8005.5317    32.004266   -641.14263   -969.12572   -5464.2941 
 2045000     65.94939   -6839.2567   -6669.6059   -6839.2567            0    8124.7394      23.0372    21.207483    21.336143    10424.008     8333.634    7972.5798    8068.0045   -104.96983     -388.634   -78.904069   -5434.4548 
 2046000    71.064556   -6823.8602   -6641.0509   -6823.8602            0     9388.935    23.112385    21.079711    21.307506    10381.068    9209.0225    9395.4842    9562.2985    941.79349   -552.55082    342.32139   -5219.5922 
 2047000    67.895581   -6828.6837   -6654.0265   -6828.6837            0    8638.4678    22.979432    21.178156    21.393407    10411.358    8885.1635    8597.1672    8433.0728   -794.66702    395.96489    162.24831   -5342.3704 
 2048000    69.471755   -6825.1312   -6646.4193   -6825.1312            0    8067.0763    22.981042    21.252896    21.387572    10445.983    8379.6947    7803.9072    8017.6269   -274.22453   0.06182725    11.569919   -5417.4491 
 2049000    69.251564   -6820.4874    -6642.342   -6820.4874            0    8505.1677    23.026581    21.164754     21.41254    10435.443    8836.5004     8340.808    8338.1948   -123.61322    -1055.512    112.79281   -5347.9386 
 2050000    71.308204   -6833.3276   -6649.8916   -6833.3276            0    7957.1951    23.025832    21.209142    21.377137    10439.699     8341.309    7401.2306    8129.0459    60.615832    254.14044    360.91242   -5438.3904 
 2051000    72.822918   -6827.3975    -6640.065   -6827.3975            0    8714.1619    23.118803    21.119565    21.335839    10417.417     7849.325    8691.9771    9601.1837    986.76791   -92.438439    413.81505   -5316.1456 
 2052000    69.079872   -6834.1597   -6656.4559   -6834.1597            0    8167.9002    23.047462    21.222157    21.320599    10428.265    8251.8256    7930.8415    8321.0335     97.64792    972.92429       320.49   -5414.2364 
 2053000    67.823189   -6828.6219   -6654.1509   -6828.6219            0    8460.2993    23.160842    21.078126    21.338517     10417.19    7396.3269    9476.0147    8508.5563    352.13986    18.158115    52.958162   -5368.8282 
 2054000    70.799387   -6829.0995   -6646.9724   -6829.0995            0    8310.0146    23.003513    21.234524    21.347898    10427.779    8068.7897    8181.4374    8679.8167   -431.30334   -130.34643     35.98487   -5383.1982 
 2055000      69.8227   -6825.9946     -6646.38   -6825.9946            0    8246.9458    23.082859    21.106498    21.436317    10443.737    9295.5052    7217.6503    8227.6818   -919.41641   -997.34827    76.639853   -5390.2778 
 2056000    71.995558   -6824.8263   -6639.6221   -6824.8263            0    8296.7347     22.99598    21.202317    21.402485    10435.168    8308.9124    8299.3869    8281.9049    -47.21885    183.74639     284.7565   -5376.9735 
 2057000    70.334476   -6830.3307   -6649.3995   -6830.3307            0     8492.878    23.134061    21.035897    21.437933    10432.678    8485.7192    9055.6373    7937.2776    47.752178   -568.52441   -88.561459   -5357.2089 
 2058000    70.660069   -6831.5234   -6649.7547   -6831.5234            0    9008.3845    22.974394    21.227111    21.322657    10398.634     8861.414     8750.447    9413.2925    410.22981     442.8403    356.74655   -5283.6025 
 2059000    69.885111   -6824.1599   -6644.3847   -6824.1599            0    8868.4249    23.179923    21.103137    21.276555    10407.834    8399.0712    9222.5375    8983.6659    286.80037   -235.48841    96.412201    -5298.268 
 2060000    66.862594   -6833.1141   -6661.1141   -6833.1141            0    7934.9187    23.050664    21.297505    21.262116    10438.033     7814.597    7146.5653    8843.5936    -383.2276    988.00453   -467.28655   -5453.1973 
 2061000    71.949251   -6835.4699   -6650.3848   -6835.4699            0    8295.7183    23.090359    21.131882    21.367172    10425.957    8143.4606      8311.97    8431.7241   -143.13532   -488.34928    478.83331   -5389.0052 
 2062000    68.870493    -6823.415   -6646.2499    -6823.415            0    8319.5961    22.918223    21.252869    21.418694    10432.574    9104.1681    7778.8315    8075.7885   -277.50984   -191.54809    223.93288   -5380.4367 
 2063000    70.311091   -6818.7557   -6637.8847   -6818.7557            0    8569.9817    23.084932      21.0663    21.459805    10436.206    8849.0872    9145.7186    7715.1392    177.09171   -581.90509   -92.099883   -5333.5219 
 2064000    67.739104   -6826.6923   -6652.4376   -6826.6923            0    8697.4089    22.974713    21.222419    21.365931    10417.579    8425.1838    9368.1162    8298.9268   -1018.2221    857.12625   -245.03923   -5331.0428 
 2065000    67.353014   -6836.3981   -6663.1365   -6836.3981            0    8253.9046    23.066024    21.158827    21.368271    10428.785    8139.5232    7465.0365     9157.154    419.66001   -223.83012    578.87262   -5407.7744 
 2066000    73.872095    -6828.176   -6638.1446    -6828.176            0     9123.693     23.00098    21.188908    21.356797    10408.569    9417.1598    8354.2121    9599.7071   -731.14346    486.53535    290.21907   -5253.1834 
 2067000    67.773396   -6839.1595   -6664.8165   -6839.1595            0    7930.2813    23.057923    21.190374      21.3886    10450.599    7791.4425    7726.9584     8272.443   -257.52578   -306.46804    108.92283   -5456.1524 
 2068000    70.341752   -6836.3979    -6655.448   -6836.3979            0    9083.7672    23.005128    21.147215    21.377714    10400.138     9129.862    8783.9961    9337.4435   -555.65465    644.28288    219.66118   -5277.6645 
 2069000    68.997499   -6843.3694   -6665.8776   -6843.3694            0    7936.1433     23.03478    21.233693    21.338699    10437.045    8194.4184     7301.965    8312.0463    40.448264   -76.183494    442.95957   -5457.8887 
 2070000    70.052643   -6831.6259   -6651.4197   -6831.6259            0    8807.8211     23.01561    21.161962    21.378032    10412.288    9705.7862    8400.3491    8317.3279    774.32413   -1123.7522    154.97676   -5313.9298 
 2071000    72.233243   -6832.6823   -6646.8667   -6832.6823            0    8291.7135     23.03542    21.171551    21.381688    10427.754    8713.8429    8195.2005    7966.0971   -153.16012    860.35932   -20.869881   -5385.8787 
 2072000    72.490198   -6824.6824   -6638.2058   -6824.6824            0    8240.2323    23.119789    21.121056    21.413146    10456.347    7371.9527    9030.5608    8318.1833     371.1891    311.08747   -268.89162   -5381.6109 
 2073000    69.663022   -6835.2229    -6656.019   -6835.2229            0     8796.522    23.018435     21.25716    21.276986    10410.969    8841.7653    8333.5323    9214.2684    788.95461    60.549195   -161.99434    -5320.414 
 2074000    72.363414   -6838.5279   -6652.3774   -6838.5279            0    8026.9148    23.220254    21.088001    21.297695    10428.815    6832.3936    9289.9034    7958.4475     153.7808   -220.10317   -455.62934   -5431.5352 
 2075000    71.394837   -6834.7323   -6651.0734   -6834.7323            0    8490.6557    22.980425    21.264797    21.336482    10426.586    8375.9283    8305.8918     8790.147    18.136505    860.39865   -19.201738   -5359.9753 
 2076000    70.657857   -6835.5218   -6653.7588   -6835.5218            0      7990.45    23.152851    21.066893    21.402102     10439.06    7871.0483    8676.5902    7423.7115   -54.390009   -413.93337   -506.35318   -5437.2688 
 2077000    71.928257   -6838.5711     -6653.54   -6838.5711            0    8816.6737    22.860622    21.311287    21.363991    10408.307     10071.14    7913.7542    8465.1271    344.17871   -238.65167   -422.21643   -5315.2176 
 2078000    73.581805   -6827.8038   -6638.5191   -6827.8038            0    8566.8264    23.088632    21.045159    21.456936     10426.01    8619.5779    9357.6013    7723.3002    403.54781    -622.5271   -9.0504129   -5335.9104 
 2079000    69.939948   -6837.1283    -6657.212   -6837.1283            0    8338.4912    22.927808    21.280515    21.363312    10423.493    9405.7032    7986.6239    7623.1465   -462.38045       392.44   -223.21017   -5389.6284 
 2080000    72.473463   -6826.5895    -6640.156   -6826.5895            0    8287.8313    23.117011    21.150279    21.335638     10431.66    7492.7887    8544.0578    8826.6474    120.54304    34.150192   -57.134882   -5379.2863 
 2081000    68.978655   -6830.4835   -6653.0401   -6830.4835            0    8818.7382    23.008455    21.217687    21.291046    10393.995    8456.8547    8550.8753    9448.4844   -195.30675   -27.019194   -177.03303    -5316.245 
 2082000    72.303717   -6838.1941   -6652.1972   -6838.1941            0    8547.9475    23.039543    21.171083    21.346167    10412.064    8408.0073    8560.7593    8675.0758   -389.05111    227.65414    135.79741   -5354.1975 
 2083000    70.548704   -6834.8364   -6653.3542   -6834.8364            0    7906.4324    23.100619    21.147714    21.368748    10439.173    7470.9754    7992.1224    8256.1994    331.80455    325.25276    289.00925   -5449.6423 
 2084000    75.416936   -6828.3938   -6634.3883   -6828.3938            0    8973.7744    22.988136    21.245263    21.305441    10405.343    9148.2984    8396.2802    9376.7446    96.760142    492.96078   -468.54857   -5272.6068 
 2085000    70.602461    -6835.634   -6654.0134    -6835.634            0    7945.7578    23.140586    21.065981    21.394345    10429.298    7438.9323      8465.37    7932.9711   -243.84135   -150.81297   -218.60558   -5445.4588 
 2086000    71.222316   -6836.3741    -6653.159   -6836.3741            0    8822.8463    22.935854     21.24218    21.362541    10407.991    9040.8528     8172.106    9255.5801    1150.9392    29.004404    207.41418   -5313.9404 
 2087000    68.617458   -6838.6201   -6662.1059   -6838.6201            0    7902.8795    23.227648    20.976165     21.42821    10440.402    7913.7375    8104.4356    7690.4655   -35.003766   -385.34866   -157.68351   -5458.7932 
 2088000    70.515694   -6831.9637   -6650.5663   -6831.9637            0    8217.2275    22.979644    21.268144     21.35064    10434.792    8795.3216    7953.1915    7903.1694   -383.50926    499.56372   -253.65595   -5400.0626 
 2089000    68.022357   -6838.2343   -6663.2509   -6838.2343            0    8858.2663    23.123591    21.146097    21.281356    10406.024    8209.4818     8595.063     9770.254   -387.27713   -136.89518   -236.35291     -5318.91 
 2090000    75.187893   -6847.4819   -6654.0656   -6847.4819            0    8366.7133     22.91869    21.303229    21.337145    10417.693    8925.8061    7643.1256    8531.2082   -350.27075     279.5004       82.939   -5382.8995 
 2091000    69.431477   -6840.5188   -6661.9106   -6840.5188            0    7833.9266      23.0469    21.139741    21.449842    10450.481    8047.2987    8274.1978    7180.2833    590.82124   -805.95538    378.69854   -5467.9453 
 2092000    69.133079   -6827.8986    -6650.058   -6827.8986            0    8737.8665    22.951491      21.2431    21.378162    10423.154    9599.4493    8157.4432    8456.7069   -460.31392   -67.026066    419.39953    -5321.806 
 2093000     69.93644   -6835.4003   -6655.4931   -6835.4003            0    7664.1134    23.128497    21.139567    21.390521    10458.391    6897.5625    8070.8842    8023.8936   -340.06351   -278.06218   -57.790818   -5486.5249 
 2094000    72.581328   -6831.3274   -6644.6164   -6831.3274            0    8856.0244    23.035908    21.180223    21.336427    10410.164    9155.3983    9004.0357    8408.6393   -136.72689    484.79169   -221.74605   -5300.0809 
 2095000    66.943368   -6834.4557   -6662.2479   -6834.4557            0    8300.5419    23.100545    21.176047    21.301785    10420.369    7854.3387    8170.4868    8876.8001    8.0843323    725.53892    67.560714   -5400.8113 
 2096000     73.04075    -6830.761   -6642.8681    -6830.761            0     8195.286     23.15635    21.094357    21.358356     10432.88    7658.8475    8203.3517    8723.6587    656.04716    414.93845     344.5774    -5395.932 
 2097000    72.472385   -6838.6356   -6652.2048   -6838.6356            0    7952.8908    23.031399    21.193572    21.369344    10430.753    7671.9107     8026.009    8160.7527    383.06819    962.76018    204.89945   -5442.3965 
 2098000    68.012049   -6836.0867   -6661.1299   -6836.0867            0    8660.7124    23.077111    21.090587      21.3884    10409.944    8823.8672    8939.2065    8219.0635    251.39296    225.32588    21.897185   -5346.2748 
 2099000    70.868045   -6833.6902   -6651.3865   -6833.6902            0    7701.3354    22.979544    21.298341       21.351    10449.739    7847.7916     7356.734    7899.4805   -47.767777   -779.52628    -256.8511   -5477.7128 
 2100000    69.273667   -6836.0294   -6657.8272   -6836.0294            0    8379.9165    23.063755    21.151322    21.374988    10427.337    7991.2869    8385.9435     8762.519   -870.79821    18.091417    13.980005   -5383.4764 
 2101000    71.419708   -6843.4095   -6659.6867   -6843.4095            0     8261.525    22.940062    21.206397    21.421263    10420.931    9119.5631    7582.6504    8082.3615    53.350346    389.47378    662.27647   -5404.1117 
 2102000    70.557816    -6835.552   -6654.0463    -6835.552            0    7621.2868    23.152882    21.066586    21.409318    10442.441    6616.1228    8357.8546     7889.883    690.71452    446.13562    916.90438   -5493.3831 
 2103000    72.201747   -6826.7282   -6640.9936   -6826.7282            0    8644.4647    23.016944    21.230228    21.314402    10415.389    8841.9796    8775.4939    8315.9204   -291.51597   -132.49856    -687.3672   -5327.9188 
 2104000    69.808209   -6826.3515   -6646.7741   -6826.3515            0    8629.0301    23.171494    21.088195    21.307136    10411.625    8597.5049    8836.7796    8452.8059    836.74639   -237.73434   -332.16962   -5336.5174 
 2105000    72.978512   -6833.9577    -6646.225   -6833.9577            0    8107.1412    22.995458    21.255597    21.333216    10427.296    8507.7293    8482.7302    7330.9642   -321.86332    121.22048    -593.7266   -5413.3605 
 2106000    69.888618   -6837.1385   -6657.3543   -6837.1385            0    8221.1798    23.121356    21.081628    21.416519    10439.179    7165.8408    9196.5274    8301.1712   -37.787182     52.78276   -228.50202   -5405.7232 
 2107000    70.056146   -6833.6522    -6653.437   -6833.6522            0    8408.7475    22.899947    21.289769    21.377689    10422.363    9622.7772    7639.6311    7963.8343   -707.32481    26.155712    589.40029   -5375.3119 
 2108000     70.92443   -6836.6211   -6654.1723   -6836.6211            0    8291.8293    23.135192    21.058221    21.411944    10431.599    8278.9818     8468.027    8128.4792    -872.7931   -579.33671   -93.107926   -5392.7017 
 2109000    69.484462   -6836.3309   -6657.5863   -6836.3309            0    7782.3521    23.021602    21.247307    21.344199    10440.452    7569.9999     7531.744    8245.3124    482.49301   -172.34483       121.96   -5472.6199 
 2110000    69.656881   -6833.1379   -6653.9498   -6833.1379            0    8675.6435    23.129753    21.020374    21.425049    10416.774    8123.2761    9305.3724    8598.2821   -301.56932    621.13157    402.07015   -5335.9637 
 2111000    70.035784   -6827.5905   -6647.4277   -6827.5905            0    8396.0031    22.999122    21.155093    21.411614     10417.79    8548.9029     9025.943    7613.1635    143.25244    159.03705   -873.11677   -5371.7996 
 2112000    72.389342   -6832.8068   -6646.5896   -6832.8068            0    8850.8759    23.088678    21.105322    21.344204    10400.902    8335.7076      9143.17    9073.7502    163.35942    101.00611   -125.11715   -5304.0313 
 2113000    69.904888   -6823.5224   -6643.6963   -6823.5224            0    8985.9216    23.015248    21.229523    21.285463    10400.135     8691.504    9218.9536    9047.3071   -267.46195    142.77984   -934.65985   -5280.7539 
 2114000    73.624154   -6835.1687    -6645.775   -6835.1687            0     8169.281    23.077399    21.172603    21.348041    10430.837    8297.6784    7936.6497    8273.5147   -206.98328   -261.04436   -71.015084    -5403.039 
 2115000    71.321789   -6832.1437   -6648.6727   -6832.1437            0    7723.4388    22.973285    21.221257    21.434714    10449.895    7784.8926    8165.8347    7219.5893    -227.0013    157.55487    668.66449   -5471.6129 
 2116000     70.18905   -6844.4918   -6663.9348   -6844.4918            0     8332.814    23.054042    21.131616     21.40642    10428.548    7860.3661     8309.414     8828.662    661.51666   -374.30533    506.02364   -5396.5998 
 2117000    66.507337   -6840.9722   -6669.8861   -6840.9722            0     8217.601    23.014616    21.236937     21.34176    10430.997    8439.6598    7614.5454    8598.5978    259.06112   -15.819331      115.438   -5419.7803 
 2118000    66.232042   -6828.3804   -6658.0025   -6828.3804            0    8697.4391    23.098548    21.149321    21.326283    10418.286    8351.3919    8880.6398    8860.2856   -320.50398    273.63494   -546.98959   -5336.5135 
 2119000    73.427749   -6840.9583   -6652.0698   -6840.9583            0    8364.6932    23.118845    21.158062    21.297504    10417.673    7896.6519     8173.872    9023.5558    286.03534   -249.42009    311.21398    -5381.213 
 2120000    69.638757   -6831.1602   -6652.0188   -6831.1602            0    8735.5736    23.076338    21.166483    21.313334     10410.39    8629.5744     7883.534    9693.6123    273.81862     377.1668    444.04317   -5325.7416 
 2121000    68.561586   -6831.8088   -6655.4383   -6831.8088            0    8003.7117    23.057764    21.147293    21.410109    10439.768    8268.8977     7844.343    7897.8944   -92.580404    428.33971     121.5664   -5436.8467 
 2122000    69.346996   -6816.1407   -6637.7498   -6816.1407            0    8714.8712      22.9888    21.172083    21.399662     10415.66    8643.6219    9208.6556    8292.3362    70.620063    377.12064   -454.11163   -5313.9458 
 2123000    66.742163   -6825.0141    -6653.324   -6825.0141            0    8568.7284    23.028125    21.140762    21.417676    10426.812     8946.352    9090.5113     7669.322   -543.09262    -554.9932    -463.5785   -5350.3258 
 2124000    69.969099   -6828.8359   -6648.8446   -6828.8359            0    8149.1795    23.001333    21.233322    21.358126    10431.196    8429.0862    7892.7434     8125.709   -84.368782   -397.96091   -675.14679   -5409.1239 
 2125000    75.660266   -6837.2693   -6642.6379   -6837.2693            0    8145.7113    23.158896    21.045526     21.38191    10421.354    7696.7511    8951.4292    7788.9535   -528.17742    550.14699    202.52017    -5404.614 
 2126000    72.460978   -6842.5864   -6656.1849   -6842.5864            0    7851.8782    22.963705    21.288748    21.364508    10444.435    8068.9326    7328.3224    8158.3796    719.37694    111.81187   -224.97941    -5460.176 
 2127000    71.045135   -6833.8552   -6651.0959   -6833.8552            0    8616.7707    23.112127    21.077931    21.379524    10415.159    8430.3803    8458.5255    8961.4061   -106.75023    502.64762    1016.3265   -5342.2565 
 2128000    70.484684   -6827.8305   -6646.5129   -6827.8305            0    9593.2541    22.858051    21.199209    21.434881    10386.756     9911.135    9002.9696    9865.6577    967.97238   -291.21993    288.14073   -5193.3251 
 2129000     70.49488   -6820.6602   -6639.3164   -6820.6602            0    8529.9542    23.058377     21.12369    21.408458    10427.589    8178.8331    9061.5002    8349.5293   -812.18846    269.01191   -198.55436   -5342.1177 
 2130000    69.364099   -6842.9614   -6664.5264   -6842.9614            0    8340.9127    22.957628    21.292561    21.307341    10415.597    9183.8638     7053.369    8785.5053    -162.1032   -375.66885    487.70329   -5397.5351 
 2131000    66.862807   -6831.9807   -6659.9802   -6831.9807            0    8896.9259    23.165741    21.087528    21.306862    10408.577    8736.0359    9254.2103    8700.5313   -603.00499     103.0215   -46.921512   -5309.4409 
 2132000    73.302856   -6830.8356   -6642.2685   -6830.8356            0    8011.0977    23.027968    21.213988     21.34534     10427.52    8198.5864    7893.7694    7940.9372    214.85693   -138.81025    117.08588   -5423.9834 
 2133000    71.065091   -6827.9893   -6645.1787   -6827.9893            0     8913.025    23.095523    21.111124    21.342766    10406.145    8803.4532    8705.2818    9230.3398    688.95061   -934.78966     619.9333   -5292.5118 
 2134000    68.404285   -6840.1085   -6664.1427   -6840.1085            0    7983.5429    23.055137    21.240098     21.33112    10445.708    7579.8108    7621.6052    8749.2129    163.05634    -130.9174    861.34953   -5447.9303 
 2135000    67.938193   -6835.2401   -6660.4732   -6835.2401            0    8546.9281    23.051013    21.204231    21.324879    10423.153    7966.7951    8511.5484    9162.4409    52.675031    377.58703    166.66234   -5361.2462 
 2136000    72.326398   -6830.9399   -6644.8847   -6830.9399            0    8443.8077    23.090421    21.167715    21.334543    10427.716    8430.5997    8181.2434      8719.58    317.61412   -52.257605   -110.43711   -5360.7712 
 2137000    70.921563   -6835.2934    -6652.852   -6835.2934            0    8873.2998    22.937364    21.229896    21.381039    10411.664    9154.7669    8083.1532    9381.9793   -184.52328    576.82851    309.57442   -5305.4996 
 2138000    70.442791   -6841.1923   -6659.9825   -6841.1923            0    7829.0441    23.144328    21.036802    21.444477    10440.943    7274.3883    8163.4359    8049.3081    128.23174    559.42099    267.98108   -5467.8505 
 2139000    71.969326   -6841.8013   -6656.6646   -6841.8013            0    8292.8093     22.97211     21.25856     21.36572    10434.034    8185.7877    8418.5849    8274.0554    208.54265    770.53153   -475.25673   -5394.7504 
 2140000    67.336643   -6827.4214    -6654.202   -6827.4214            0    8071.7942    23.186103    21.098141    21.369586    10453.652    8057.8963    8046.5258    8110.9604   -485.36459    522.52677   -822.78953   -5423.6102 
 2141000    69.691026   -6838.4393   -6659.1634   -6838.4393            0     8229.674    22.943778    21.256078    21.408322    10440.726    8695.9897    8371.8352    7621.1972    49.715525   -421.72375   -342.90794   -5406.0533 
 2142000    73.374595   -6840.8577    -6652.106   -6840.8577            0    8275.0965    23.047124    21.054346    21.485794    10425.813    8325.9254    9071.4659    7427.8983    229.00603   -308.82802   -25.528686   -5393.8794 
 2143000    69.278669   -6821.8598   -6643.6446   -6821.8598            0    9414.7894    22.876558    21.190386    21.395472    10371.735    10311.861    9566.2558    8366.2514   -534.58644    449.97916   -106.94929    -5219.553 
 2144000    69.989674   -6834.2858   -6654.2416   -6834.2858            0    8014.2371    23.114804    21.112109    21.382139    10434.532    8613.0148    7818.1681    7611.5286    141.87964   -716.27952   -56.154486   -5434.6595 
 2145000    71.852943   -6824.7841   -6639.9468   -6824.7841            0    8344.1127    23.010765    21.300082    21.269585    10424.887    7216.9082    8896.0913    8919.3387    565.85202    938.10034   -623.50139   -5371.3389 
 2146000     71.97129   -6843.0999   -6657.9581   -6843.0999            0    7844.7996    23.137937    21.103273    21.379116    10439.127    7696.4737    7400.7512    8437.1738   -296.33132    646.14106    27.390032   -5463.6347 
 2147000    70.541294   -6835.7051   -6654.2419   -6835.7051            0     9432.321    22.952045    21.191316    21.360964    10389.632    10284.735    8733.2207    9279.0072   -227.12914   -113.90997   -96.397096   -5225.0366 
 2148000    69.664736   -6839.8184   -6660.6101   -6839.8184            0     8173.173    23.107418    21.043919    21.430633    10421.088    7771.8703    8949.4958    7798.1528    388.95182   -12.983703    264.52916   -5418.4441 
 2149000    72.857265   -6828.8952   -6641.4743   -6828.8952            0     8609.719    23.008826    21.220242    21.349469     10423.94    9156.2222    8505.8641    8167.0707   -227.75655    -123.5068   -518.15162   -5332.6036 
 2150000    69.034233   -6833.2893   -6655.7029   -6833.2893            0    8721.7462    23.047985    21.190374    21.331549    10418.231    9022.7539     8488.666    8653.8187   -612.42742    68.873255   -459.66928   -5330.5277 
 2151000    70.508807   -6824.2597   -6642.8801   -6824.2597            0    8436.7507    22.972531    21.162623    21.442301    10424.368    8215.7852    8473.0071    8621.4597    44.953975   -37.975531    260.60261   -5360.2517 
 2152000    71.108586   -6840.8516   -6657.9291   -6840.8516            0    8718.5386    22.978543     21.19936    21.355393    10402.861    9207.3297    7963.2632     8985.023   -86.898063   -110.97072    329.13575   -5335.1955 
 2153000    70.323816   -6822.3817    -6641.478   -6822.3817            0     8063.355    23.159516    21.110295    21.351778    10438.975    7042.7536    8538.7765    8608.5347    167.14451    155.92386   -143.01174   -5413.8988 
 2154000    68.048067   -6826.9615    -6651.912   -6826.9615            0    8343.2115    22.999388    21.342686    21.254911    10433.371    8603.2956    7677.5434    8748.7954    713.84775    113.37874   -16.580022   -5382.4088 
 2155000    67.286787   -6832.8636   -6659.7725   -6832.8636            0    8231.5543    23.154256    21.122397    21.322117     10428.08    7435.3598     8706.887    8552.4162    158.22477    109.54183   -338.58516   -5407.8942 
 2156000    67.370331   -6838.2295   -6664.9234   -6838.2295            0    8615.9523    22.938213    21.218626    21.367367    10399.868    8624.4319    8548.2546    8675.1704    328.73113    405.24768   -400.36658   -5358.1297 
 2157000    69.530476   -6833.1571   -6654.2942   -6833.1571            0    8680.7753    23.081011    21.060184    21.408768    10406.595    8584.3271    9069.2276    8388.7712   -644.43412    496.57699    345.09204   -5336.8171 
 2158000    68.146334   -6837.1133   -6661.8111   -6837.1133            0    7597.4467    23.021297    21.241011    21.376379    10452.956    6997.3781    7414.1247    8380.8373    245.88342    356.19232   -138.98579   -5503.6135 
 2159000    70.724676    -6834.155   -6652.2201    -6834.155            0    8300.7096    23.080579    21.139312    21.389033    10435.871    8157.8104    8851.1037    7893.2146   -56.858072   -218.38837    -208.0991   -5388.8813 
 2160000    68.623093   -6828.5347    -6652.006   -6828.5347            0    9016.1419    22.982615    21.190978    21.373485    10409.402    9046.3979    9396.9525    8605.0753   -178.12835    44.299506   -314.48354   -5283.2614 
 2161000    66.809168    -6835.293   -6663.4304    -6835.293            0     7800.258    23.072343    21.166122    21.379434     10440.69    8306.0879    7442.6614    7652.0247    -340.9688   -597.06115    866.53038   -5475.7105 
 2162000    69.933756   -6828.7914   -6648.8911   -6828.7914            0    8840.6212    23.003256    21.209696    21.325711    10404.645    9306.3413    8701.0772    8514.4451    -174.3781   -234.56904    123.34924   -5307.4057 
 2163000    69.315989   -6830.2201    -6651.909   -6830.2201            0    8341.6746    23.136761    21.028466    21.419903    10421.438    8317.0389    8611.3982    8096.5866   -275.54525     105.9379   -1053.1765   -5384.0914 
 2164000    69.515344   -6834.7578   -6655.9338   -6834.7578            0    8621.6106    23.006845    21.163165    21.389986    10414.734    8792.5435    8785.1845    8287.1038   -286.32916     473.4443    -322.5874   -5346.4127 
 2165000    68.912231   -6826.5771   -6649.3045   -6826.5771            0    8692.8091    23.112544    21.102027    21.340073    10408.013     8116.467    8819.5607    9142.3996    55.163117    100.30759    9.5702372   -5329.8214 
 2166000    72.537525   -6830.4571   -6643.8587   -6830.4571            0    8091.3632    23.032285    21.296587    21.274972    10435.567    8192.7997    7682.9807    8398.3092    53.887269    382.58887    177.74665   -5412.4177 
 2167000    69.428665    -6831.568    -6652.967    -6831.568            0    8531.3032    23.086573    21.181968    21.307824    10419.932    7935.0972    8461.9923    9196.8201     569.3477   -58.487916    31.772312   -5356.5159 
 2168000    73.954559   -6833.4515   -6643.2079   -6833.4515            0    8015.8528    23.037075    21.193643    21.371306    10434.317    7689.0849    8318.8666    8039.6068    -666.3221    245.94663    701.87549    -5423.405 
 2169000    74.110971    -6826.849    -6636.203    -6826.849            0    8703.2348    22.992139    21.182951    21.385095    10415.426    9182.0288    8363.2007     8564.475    482.84733    -791.1069   -101.62736   -5314.1965 
 2170000    72.132024   -6839.9885   -6654.4333   -6839.9885            0    7595.0471    23.126291     21.19188    21.296536     10437.21    7248.0024    7448.5746    8088.5642   -781.91463   -359.38041   -285.19984   -5498.3456 
 2171000    71.539905   -6834.4539   -6650.4218   -6834.4539            0    9009.8011    22.994462    21.184018    21.348427    10399.141    8678.2221     8953.485    9397.6961    919.41346   -556.66475   -107.11624   -5283.9882 
 2172000    70.942861   -6830.9395   -6648.4433   -6830.9395            0    8754.4299    23.122073    21.034915    21.420919     10418.51    8215.8229    8781.9282    9265.5387    570.96913    649.38419    375.54395   -5318.2664 
 2173000    70.123202   -6839.9651   -6659.5774   -6839.9651            0    7503.1464    23.014055    21.222883    21.409682    10457.015    7501.9549    7712.9158    7294.5685     915.7003    162.53592   -602.06102   -5515.3112 
 2174000    68.236456   -6834.5387   -6659.0045   -6834.5387            0    8133.1292    23.162528    21.077274    21.355459    10425.798    7478.3347    8544.8012    8376.2517   -51.386618   -110.94387   -347.20363   -5422.3657 
 2175000    69.121571   -6827.4003   -6649.5893   -6827.4003            0    8128.3895     23.00598    21.264991    21.311047    10425.832    8848.3437    7375.6069    8161.2178    179.08903   -119.00077    356.01725   -5413.6671 
 2176000     67.84902   -6831.6897   -6657.1522   -6831.6897            0    8355.5025    23.195365    21.118529     21.27159     10419.93    7574.0728    8475.6511    9016.7837   -418.65218    242.13114    -37.97367   -5387.4167 
 2177000    73.434609   -6825.4901    -6636.584   -6825.4901            0     8861.634    22.910951    21.374965    21.251365    10407.235    8938.1791    7615.0194    10031.704    1001.6898   -162.67354    599.62657   -5291.5754 
 2178000    71.996975   -6832.3934   -6647.1855   -6832.3934            0    8438.0384    23.119651    21.087165    21.380133    10423.412    8756.4419    8610.7183    7946.9551   -286.72208    -272.3998    533.96015   -5364.4791 
 2179000    71.603309   -6835.3913   -6651.1961   -6835.3913            0    8178.8505    22.894327    21.279413    21.404412    10427.756    8184.0179     8324.288    8028.2455   -425.39817    194.52848   -632.52558    -5407.372 
 2180000    73.046602   -6838.4337   -6650.5258   -6838.4337            0    8003.9465     23.10063    21.078187    21.463443    10450.967    7686.4919    8180.8641    8144.4837   -640.25179   -446.42524    157.24988   -5430.5912 
 2181000    69.514706   -6831.7699   -6652.9476   -6831.7699            0     8705.233    22.967075     21.21751    21.390935    10423.891    10147.067    7371.2887    8597.3436   -410.77712   -1.8218693     397.8588   -5329.5628 
 2182000    72.625095   -6828.7467    -6641.923   -6828.7467            0    9147.5965    23.109906     21.12529    21.284446     10391.14    8758.9762    9392.6162    9291.1972    143.50734   -1155.3118    -540.6823   -5255.6586 
 2183000    67.928082   -6827.8746   -6653.1338   -6827.8746            0    8880.0461    23.075106        21.24    21.211658    10396.157    8950.8721    8698.3741    8990.8922   -259.70551   -191.59623   -749.16535   -5306.7653 
 2184000    70.453251   -6836.5517    -6655.315   -6836.5517            0    8717.9076    23.097893    21.121654     21.32618    10404.312    8654.6263    9001.6717    8497.4248    191.11178   -72.752313   -169.50683   -5332.4927 
 2185000    72.764967   -6831.4137   -6644.2302   -6831.4137            0    8090.3621    23.079937    21.080081    21.444525    10433.339    8321.7462    7984.0776    7965.2624    212.47022    340.61984    979.80168   -5413.2043 
 2186000     71.80318   -6831.3111   -6646.6018   -6831.3111            0    8381.5327    23.023265    21.196507    21.378702     10433.08    7784.1407    8835.7849    8524.6724    316.02595    545.89624     255.5166   -5371.3032 
 2187000    68.106517   -6833.1126   -6657.9127   -6833.1126            0    9086.2036    23.094222    21.115091    21.330683    10401.622    9636.0684     8825.039    8797.5035   -551.49334   -573.86764   -477.17653    -5279.563 
 2188000    70.204018   -6821.5856     -6640.99   -6821.5856            0    8695.3804     23.10352    21.252041    21.204135    10411.166    8046.1651     8258.729    9781.2472    533.75912    111.86791   -938.63099   -5320.7167 
 2189000    65.736653   -6831.6519   -6662.5483   -6831.6519            0    8750.7172    23.096425    21.109983    21.334016    10401.723    8259.3944    9465.2273      8527.53   -130.22932    405.55132   -45.959873    -5335.078 
 2190000    72.763094   -6822.0125   -6634.8339   -6822.0125            0    8570.7267    22.957045    21.217843    21.380077    10414.213    9126.6302    7599.9536    8985.5961    758.17814   -271.82028    734.72917   -5333.1066 
 2191000    70.808958   -6822.6642   -6640.5125   -6822.6642            0    9020.4571    23.090162      21.0784    21.391112    10411.133    8222.0012    10165.213    8674.1571   -208.26225   -84.368945   -424.46596   -5270.8851 
 2192000    71.986225   -6834.0196   -6648.8394   -6834.0196            0    8408.1213    22.958057    21.210892    21.406725    10424.238    8983.7311    8188.1973    8052.4353    80.783945   -372.28553    -221.2905   -5370.5795 
 2193000    72.266805   -6835.9027   -6650.0007   -6835.9027            0    9301.6361    23.042335    21.092296    21.355057    10378.894    8766.4009     9889.353    9249.1543    -264.9993    715.28456   0.26836227   -5242.0537 
 2194000    70.501986   -6831.4032   -6650.0411   -6831.4032            0     7883.354    23.045478      21.2902    21.259267    10430.707      8279.25    7167.9135    8202.8984    261.70805   -73.368829   -194.22725   -5450.8162 
 2195000    69.687612   -6821.7242   -6642.4571   -6821.7242            0    8889.2961    23.118889    21.159897    21.276894    10408.514     8498.553    9202.5566    8966.7786   -117.11596    220.87818   -684.38573   -5293.0841 
 2196000    71.395286   -6839.9847   -6656.3247   -6839.9847            0     8075.165     22.99469    21.302258    21.313609    10440.233    8016.5772    7813.3596    8395.5582   -112.11134   -10.445912    269.91926   -5426.7993 
 2197000    71.257827   -6834.8859   -6651.5795   -6834.8859            0    8075.3374    23.080006    21.159658    21.382352    10442.393    8170.7971    8000.6024    8054.6128   -331.53831   -228.58714    742.19231   -5421.7735 
 2198000    71.130882   -6829.5936   -6646.6137   -6829.5936            0    8269.8576    22.973426    21.211668    21.391454    10424.156    8403.9288    7952.0754    8453.5686    130.31613   -345.03381    667.35011   -5389.3835 
 2199000    71.107794   -6826.1554   -6643.2349   -6826.1554            0    8938.5523    23.105004    21.034947    21.401771    10401.529    8798.5273    9175.9967     8841.133   -562.12328   -55.082124   -234.04975   -5287.2955 
 2200000    68.413846   -6830.9442   -6654.9538   -6830.9442            0    7974.2574    22.998736    21.276414    21.316405     10430.77    8580.2344     7162.616    8179.9217    572.19105   -245.49173   -106.46165   -5441.8932 
 2201000    71.420188   -6834.9373   -6651.2132   -6834.9373            0    8483.9246     23.11913    21.146483    21.339425    10432.595    8224.2039    8985.1667    8242.4032    107.20375    49.470592    83.267472   -5360.3952 
 2202000    73.815662   -6843.2846   -6653.3983   -6843.2846            0     7982.114    22.969067    21.305349    21.328804    10437.548    7759.1678    6943.5557    9243.6184    529.92823    328.84422     579.5967   -5438.3534 
 2203000     67.11017    -6838.756   -6666.1192    -6838.756            0    8545.8719    23.092715    21.079962     21.38777    10411.428    8517.1634    9210.6805    7909.7717   -387.17729    173.06645   -467.74242    -5368.514 
 2204000    70.852173   -6832.6441   -6650.3812   -6832.6441            0    9134.3267    22.921009    21.222233    21.367002    10393.658    9515.7088    8849.3245    9037.9467    404.12786    145.39538    283.07804   -5265.7923 
 2205000    71.164767   -6838.6481    -6655.581   -6838.6481            0     8399.045    23.058842     21.13105    21.379439    10417.293    8541.9048    8350.1995    8305.0308   -416.22352   -67.218265   -590.40246   -5379.5517 
 2206000    70.509505   -6843.7712   -6662.3898   -6843.7712            0    7856.7087    23.058836    21.177167    21.369849    10435.342    7502.4814    8550.6498    7516.9949    441.05787    393.95355   -711.65322    -5466.687 
 2207000    67.629688    -6830.555   -6656.5817    -6830.555            0    9011.9868      23.1154    21.109042    21.298157    10392.307    8465.0833    9559.1486    9011.7285   -185.68035    586.98339     -261.006   -5290.7148 
 2208000    71.159171   -6834.2267   -6651.1741   -6834.2267            0    8328.7137     23.08077    21.174017    21.322286    10420.471    8274.0521     7739.162    8972.9271     445.0728   -260.06375    50.849385   -5385.4438 
 2209000    70.591016   -6825.4579   -6643.8668   -6825.4579            0     9074.358    23.044957    21.145836    21.327097    10392.799    9137.4728    9324.6039    8760.9972   -300.14652     293.2355      46.4847   -5268.4818 
 2210000    69.032565   -6830.0727   -6652.4907   -6830.0727            0     8088.961    23.009382    21.228223    21.342018    10424.472    8447.3297    8185.5451    7634.0081   -298.00142    429.95542     -497.004    -5422.724 
 2211000    67.927157   -6819.8683   -6645.1298   -6819.8683            0    8874.5025    23.025566    21.167046    21.369813    10415.288    8435.0762    8784.0164    9404.4151   -104.17631    496.94527    391.93882   -5297.1258 
 2212000     70.10721   -6840.7262   -6660.3797   -6840.7262            0    7966.2237    23.073455    21.128282    21.427333    10445.878    7735.4097    8018.1319    8145.1296    365.53106   -80.169097    611.07302   -5446.7859 
 2213000    68.970013    -6832.546   -6655.1248    -6832.546            0      7955.24    22.964438      21.2797    21.362282    10439.242     8750.722     7716.184    7398.8141    119.85099    102.08794    -458.1571   -5443.9742 
 2214000    71.200881   -6833.4146   -6650.2547   -6833.4146            0    8775.9343    23.124741     21.05935    21.369231    10406.645    8624.4508    8988.3784    8714.9738   -330.06974   -143.72397    -127.3497   -5318.3291 
 2215000    68.707358   -6838.8823   -6662.1368   -6838.8823            0    8133.0908    23.005809    21.240217    21.326669    10421.242    8138.3121    7932.4427    8328.5176    235.20656    686.21482   -112.36872   -5426.0442 
 2216000    68.649958   -6827.3602   -6650.7623   -6827.3602            0    9055.6156    23.136716     21.12502    21.284443     10403.06     8482.537    9313.8826     9370.427    157.13647   -450.71241    454.19123   -5276.8628 
 2217000     73.23775   -6844.1861   -6655.7865   -6844.1861            0     7451.598    23.006775    21.318992    21.310913    10452.603    7350.5851     6955.422     8048.787    828.63102   -140.24903    305.48636   -5519.8612 
 2218000     72.78401    -6833.502   -6646.2696    -6833.502            0    8257.3785    23.097285       21.154    21.352051    10432.611    8328.7797    8325.7517    8117.6041   -938.93069    180.76309    524.60593   -5389.9183 
 2219000    67.911768   -6832.3909    -6657.692   -6832.3909            0    8316.8235    22.999687    21.235676    21.365667    10435.289    9154.6352    7779.7334    8016.1019    164.80932   -332.98279   -178.89974   -5391.9714 
 2220000    64.839152   -6826.6696   -6659.8748   -6826.6696            0    8958.2309    23.100029    21.064043    21.379478    10402.826    8810.0436    9714.2913    8350.3578    293.58252   -296.17511   -85.964881   -5300.7808 
 2221000    68.681737   -6832.2918   -6655.6122   -6832.2918            0    8217.7974    23.006129    21.204387    21.385262    10432.391      8668.92     7705.339    8279.1331    145.58769    339.97515    65.112492   -5405.3095 
 2222000    70.448842   -6839.0689   -6657.8435   -6839.0689            0    8330.6218    23.091561    21.119901    21.376913    10425.338    8289.3048    9007.6063    7694.9543   -392.51069   -10.973946    295.87339   -5391.2319 
 2223000    69.824394   -6838.3196   -6658.7006   -6838.3196            0    8708.8564    23.025567    21.192364    21.349636    10417.901    9278.9825    7717.1757    9130.4111   -366.17837    539.14347   -143.97973   -5335.5258 
 2224000    72.398448   -6832.5591   -6646.3185   -6832.5591            0    8251.8072    23.093738    21.137208    21.377925     10435.36    8128.4385    8407.5977    8219.3854    280.27546   -211.20007    -236.8265   -5390.4841 
 2225000    70.175219   -6835.4287   -6654.9073   -6835.4287            0    8210.0702    23.023919    21.166133    21.371606    10414.967    8538.0276    8268.4906    7823.6924   -48.608431    893.81041    369.41901   -5407.8664 
 2226000     68.80122   -6831.2642   -6654.2773   -6831.2642            0    8178.6569     23.03123    21.169454    21.383543     10425.73    8156.7383    8121.3114    8257.9209    468.50125   -524.81224    84.906897   -5410.7242 
 2227000      72.0239   -6821.3384   -6636.0613   -6821.3384            0    8667.9487    23.047867    21.146845     21.38169    10421.215    9018.0485    8112.9095     8872.888   -414.71395   -384.81941   -66.774255   -5318.6828 
 2228000     71.51858    -6823.141   -6639.1638    -6823.141            0    8679.7476    22.912817    21.256407    21.407492    10426.394     9107.799    7747.4717    9183.9721   -717.47981    496.34714   -84.096707   -5319.3365 
 2229000    71.272749   -6834.0562   -6650.7113   -6834.0562            0    7971.9405    23.075963    21.116284    21.427971    10441.392    8120.5565    8308.6033    7486.6616   -154.59215   -7.0137285    230.53175   -5436.7683 
 2230000    72.700104   -6824.6501   -6637.6335   -6824.6501            0    9512.3555    22.898838    21.197969    21.391815    10383.776    9932.1765    9911.0957    8693.7944    608.53511     2.812704    114.42662   -5197.1136 
 2231000    71.088187   -6825.5886   -6642.7185   -6825.5886            0     8162.422    23.106961    21.142435    21.348026     10429.31    7430.9687    8663.8669    8392.4303   -91.785091    -205.0137    -181.0226   -5401.2077 
 2232000     71.76296   -6830.0028   -6645.3969   -6830.0028            0     8654.408    23.000623    21.274457    21.256635    10401.419     8575.955    7879.5367    9507.7323    153.92743   -3.2880694    332.00104   -5332.5749 
 2233000    70.570245   -6839.7557   -6658.2181   -6839.7557            0     7942.003    23.104551    21.103644     21.39555    10432.261     7833.035    8027.0394    7965.9347   -265.10463    81.411025    275.74964   -5449.8914 
 2234000    68.364787   -6826.9468   -6651.0826   -6826.9468            0    8248.3943    23.026084    21.152853    21.402847    10424.629    8725.1819     8065.101    7954.8999    933.61709   -468.20637    55.599748   -5397.0585 
 2235000    69.027538    -6829.356   -6651.7869    -6829.356            0    8613.9758    23.073667    21.100858     21.39675    10417.525    9375.7032    8491.5277    7974.6964   -343.87072   -456.35681   -333.03649   -5343.0749 
 2236000    65.147285   -6823.8189   -6656.2315   -6823.8189            0    8106.1348    23.025231    21.230195    21.366305    10444.494    8466.2311    7820.8991    8031.2742   -788.65711   -531.08118   -104.76968    -5421.487 
 2237000    71.061181   -6841.5832   -6658.7826   -6841.5832            0     8231.803    23.035925    21.190249    21.357151    10425.215    8316.2244    7944.9526     8434.232   -426.66312     103.9111   -338.97394   -5407.2105 
 2238000    71.440658   -6822.2803   -6638.5036   -6822.2803            0    9120.4893     23.07307    21.133133    21.320785    10396.148    8208.5435    8857.9433    10294.981    295.96048    352.42754    699.80308   -5255.6809 
 2239000    66.859704   -6825.5077   -6653.5151   -6825.5077            0     8198.639    23.028109    21.227599     21.33669    10430.045    8474.4998    7720.5031     8400.914   -217.23819    546.58377    -132.9827   -5406.4077 
 2240000    73.562193   -6839.4613    -6650.227   -6839.4613            0    8247.4293    23.139416    21.123501    21.361267    10441.077    8230.1941    8616.8382    7895.2554    247.66406   -7.4746539   -412.30828   -5394.3712 
 2241000    71.614588   -6842.0451   -6657.8209   -6842.0451            0    7985.4676    23.015705    21.278114    21.318548     10440.35    8096.3392    8303.5889    7556.4746    723.20226    36.401081   -778.19074   -5441.9393 
 2242000    70.707989   -6837.6958   -6655.8038   -6837.6958            0    8297.7822    23.067833    21.099015    21.424099    10427.292    9152.7369    7709.1337    8031.4759   -317.71386   -602.35377      -5.8599   -5393.9488 
 2243000    72.131264   -6832.5418   -6646.9885   -6832.5418            0    8218.0505     22.94696    21.264891    21.354419    10420.201    8544.2008     7540.402    8569.5486   -255.18257    -556.2999    719.52293   -5398.1084 
 2244000    71.689634   -6834.8525   -6650.4353   -6834.8525            0    8343.2318    23.141868     21.11706    21.321131    10419.385    7737.6035    7967.5263    9324.5657   -539.56004    584.46271    1123.5481   -5382.6307 
 2245000    74.019629   -6829.2404   -6638.8294   -6829.2404            0    7697.5067    23.051998    21.314745    21.266663    10449.321    7500.0986    6795.4347     8796.987    661.69064    188.90599   -499.37416   -5465.7862 
 2246000    69.788214   -6836.6015   -6657.0755   -6836.6015            0    8408.8578    23.163392     21.06643    21.368888    10427.376    8246.4604    8191.8746    8788.2383     529.2085    222.44729    431.83288   -5378.3188 
 2247000    69.612736   -6831.9044   -6652.8299   -6831.9044            0    8321.5097    23.010237    21.162452    21.422049    10431.532    8537.1307    9054.2688    7373.1296    278.12299    -280.3645   -470.31886    -5386.852 
 2248000    72.533191   -6830.7076   -6644.1203   -6830.7076            0    9100.5475      22.9783    21.092545     21.45405    10398.152    9530.6875    8757.8056    9013.1494   -222.16658    692.77284    27.548999   -5264.0553 
 2249000    71.426221   -6838.5806    -6654.841   -6838.5806            0    8660.5844    23.006686    21.168483    21.382744    10413.752    8248.5582    9003.2927    8729.9022    -24.41567   -239.29013   -637.53274   -5339.5243 
 2250000    75.754705   -6831.0033    -6636.129   -6831.0033            0    8402.8005    23.023597    21.227368    21.331539    10425.371    8451.4242    7712.2173    9044.7599   -795.03648    -43.45868   -77.472277   -5358.5391 
Loop time of 562.011 on 64 procs for 250000 steps with 1296 atoms

Performance: 76.867 ns/day, 0.312 hours/ns, 444.831 timesteps/s
195.8% CPU use with 32 MPI tasks x 2 OpenMP threads

MPI task timing breakdown:
Section |  min time  |  avg time  |  max time  |%varavg| %total
---------------------------------------------------------------
Pair    | 37.342     | 49.734     | 64.087     | 106.6 |  8.85
Bond    | 0.8208     | 1.1375     | 1.6678     |  17.2 |  0.20
Kspace  | 281.96     | 297.79     | 318        |  49.5 | 52.99
Neigh   | 0.57308    | 0.62473    | 0.70324    |   4.5 |  0.11
Comm    | 74.706     | 84.455     | 90.115     |  39.4 | 15.03
Output  | 0.7266     | 0.72687    | 0.72881    |   0.0 |  0.13
Modify  | 105.7      | 109.55     | 112.77     |  14.4 | 19.49
Other   |            | 17.99      |            |       |  3.20

Nlocal:        40.5000 ave          50 max          31 min
Histogram: 4 4 4 3 1 0 2 7 6 1
Nghost:        3195.03 ave        3221 max        3153 min
Histogram: 1 0 2 2 1 7 8 7 0 4
Neighs:        13402.9 ave       16498 max       10234 min
Histogram: 5 3 4 3 1 0 2 7 3 4

Total # of neighbors = 428894
Ave neighs/atom = 330.93673
Ave special neighs/atom = 2.0000000
Neighbor list builds = 1162
Dangerous builds = 0

unfix		3
unfix		2
unfix		1

write_data	data.final.${pid}
write_data	data.final.0
System init for write_data ...
PPPM initialization ...
  extracting TIP4P info from pair style
  using 12-bit tables for long-range coulomb (../kspace.cpp:340)
  G vector (1/distance) = 0.36940214
  grid = 30 40 32
  stencil order = 5
  estimated absolute RMS force accuracy = 0.0041294029
  estimated relative force accuracy = 1.2435574e-05
  using double precision FFTW3
  3d grid and FFT values/proc = 7888 1280
Last active /omp style is kspace_style pppm/tip4p/omp
WARNING: Not all mixed pair coeffs generated from mixing. Use write_data with 'pair ij' option to store all pair coeffs. (../write_data.cpp:312)

write_restart   restart.lmp.${pid}
write_restart   restart.lmp.0
System init for write_restart ...
PPPM initialization ...
  extracting TIP4P info from pair style
  using 12-bit tables for long-range coulomb (../kspace.cpp:340)
  G vector (1/distance) = 0.36940214
  grid = 30 40 32
  stencil order = 5
  estimated absolute RMS force accuracy = 0.0041294029
  estimated relative force accuracy = 1.2435574e-05
  using double precision FFTW3
  3d grid and FFT values/proc = 7888 1280
Last active /omp style is kspace_style pppm/tip4p/omp
Total wall time: 0:09:22
