#include		in.partitions
include		in.temp
variable        temperature equal 274.32
variable	tempDamp equal 100.0
include		in.pressure
variable        pressure equal 9875.0
variable        pressureDamp equal 1000.0 # This is 1 ps
include		in.seed
variable        seed equal 745823

units		real
atom_style	full
read_restart	restart.lmp.${pid}
read_restart	restart.lmp.1
Reading restart file ...
  restart file = 30 Jul 2021, LAMMPS = 30 Jul 2021
  restoring atom style full from restart
  orthogonal box = (0.66486979 1.8746601 0.81113959) to (17.542703 21.754518 21.402056)
  2 by 4 by 4 MPI processor grid
  restoring pair style lj/cut/tip4p/long/omp from restart
  restoring bond style harmonic/omp from restart
  restoring angle style harmonic/omp from restart
  864 atoms
  576 bonds
  288 angles
Finding 1-2 1-3 1-4 neighbors ...
  special bond factors lj:    0        0        0       
  special bond factors coul:  0        0        0       
     2 = max # of 1-2 neighbors
     1 = max # of 1-3 neighbors
     1 = max # of 1-4 neighbors
     2 = max # of special neighbors
  special bonds CPU = 0.002 seconds
  read_restart CPU = 0.007 seconds
include 	in.setup
variable	out_freq equal 1000
variable	out_freq2 equal 10000
variable	out_freq3 equal 1000

timestep	2.0

neigh_modify    delay 7 every 1

include		in.tip4p
# This is TIP4P/Ice

# create groups ###
group ox type 2
288 atoms in group ox
group hy type 1
576 atoms in group hy

# set charges - beside manually ###
set group ox charge -1.1794
Setting atom values ...
  288 settings made for charge
set group hy charge 0.5897
Setting atom values ...
  576 settings made for charge

# ### TIP3P Potential Parameters ###
pair_style lj/cut/tip4p/long/omp 2 1 1 1 0.1577 8.5
pair_coeff 1 1*2 0.000 0.000
pair_coeff 2 2 0.21084 3.1668
bond_style  harmonic
bond_coeff  1 450 0.9572
angle_style harmonic
angle_coeff 1 55 104.52
kspace_style pppm/tip4p/omp 1.0e-5
pair_modify tail yes

thermo          ${out_freq}
thermo          1000
thermo_style    custom step temp pe etotal epair emol press lx ly lz vol pxx pyy pzz pxy pxz pyz enthalpy

restart 	${out_freq3} restart.lmp.${pid} restart2.lmp.${pid}
restart 	1000 restart.lmp.${pid} restart2.lmp.${pid}
restart 	1000 restart.lmp.1 restart2.lmp.${pid}
restart 	1000 restart.lmp.1 restart2.lmp.1


include         in.dump
dump            myDump all atom ${out_freq2} dump.water.${pid}
dump            myDump all atom 10000 dump.water.${pid}
dump            myDump all atom 10000 dump.water.1
dump            myDump2 all dcd ${out_freq2} dump.dcd
dump            myDump2 all dcd 10000 dump.dcd
dump_modify     myDump append yes
dump_modify     myDump2 append yes


variable natoms 	equal  "count(all)"                        # NUMBER ATOMS
variable H      	equal  "enthalpy/v_natoms"                 # ENTHALPY-per-atom
variable Vol      	equal  "vol/v_natoms"                 # volume-per-atom
fix AVG all 		ave/time ${out_freq} 1 ${out_freq} v_Vol v_H file vol_enthalpy.dat
fix AVG all 		ave/time 1000 1 ${out_freq} v_Vol v_H file vol_enthalpy.dat
fix AVG all 		ave/time 1000 1 1000 v_Vol v_H file vol_enthalpy.dat


timer           timeout 23:50:00 every 1000
New timer settings: style=normal  mode=nosync  timeout=23:50:00

fix 		1 all shake 1e-6 200 0 b 1 a 1
       0 = # of size 2 clusters
       0 = # of size 3 clusters
       0 = # of size 4 clusters
     288 = # of frozen angles
  find clusters CPU = 0.000 seconds
fix             2 all nph iso ${pressure} ${pressure} ${pressureDamp}
fix             2 all nph iso 9875 ${pressure} ${pressureDamp}
fix             2 all nph iso 9875 9875 ${pressureDamp}
fix             2 all nph iso 9875 9875 1000
fix             3 all temp/csvr ${temperature} ${temperature} ${tempDamp} ${seed}
fix             3 all temp/csvr 274.32 ${temperature} ${tempDamp} ${seed}
fix             3 all temp/csvr 274.32 274.32 ${tempDamp} ${seed}
fix             3 all temp/csvr 274.32 274.32 100 ${seed}
fix             3 all temp/csvr 274.32 274.32 100 745823

run             250000
PPPM initialization ...
  extracting TIP4P info from pair style
  using 12-bit tables for long-range coulomb (../kspace.cpp:340)
  G vector (1/distance) = 0.37473443
  grid = 24 24 24
  stencil order = 5
  estimated absolute RMS force accuracy = 0.0031074725
  estimated relative force accuracy = 9.3580611e-06
  using double precision FFTW3
  3d grid and FFT values/proc = 3549 432
Last active /omp style is kspace_style pppm/tip4p/omp
Neighbor list info ...
  update every 1 steps, delay 7 steps, check yes
  max neighbors/atom: 2000, page size: 100000
  master list distance cutoff = 10.8154
  ghost atom cutoff = 10.8154
  binsize = 5.4077, bins = 4 4 4
  1 neighbor lists, perpetual/occasional/extra = 1 0 0
  (1) pair lj/cut/tip4p/long/omp, perpetual
      attributes: half, newton on, omp
      pair build: half/bin/newton/omp
      stencil: half/bin/3d
      bin: standard
Per MPI rank memory allocation (min/avg/max) = 10.20 | 10.20 | 10.20 Mbytes
Step Temp PotEng TotEng E_pair E_mol Press Lx Ly Lz Volume Pxx Pyy Pzz Pxy Pxz Pyz Enthalpy 
  750000    275.11295   -3777.8222    -3306.288   -3777.8222            0    9400.2385    16.877833    19.879858    20.590917    6908.8479    7979.0085    11047.187    9174.5205    1689.9477    242.52742    748.78946   -2359.1345 
  751000    282.78105   -3841.1345   -3356.4575   -3841.1345            0    10267.612    16.899249    19.905083    20.617044    6935.1811    11659.084    7448.9993    11694.753   -1295.1357   -391.56865    762.40057   -2317.9655 
  752000    268.05619   -3798.4181    -3338.979   -3798.4181            0    10070.168    16.958256    19.974586    20.689033    7008.0819    8822.8801    10343.139    11044.484    571.76313    258.70872    289.66722   -2309.7506 
  753000    281.72997   -3843.6386   -3360.7631   -3843.6386            0    9312.7513     16.97614    19.995651    20.710852    7030.2774    8898.8239    9109.3222    9930.1079   -1410.8292    1152.9244   -1421.3991   -2405.9324 
  754000    259.58962   -3833.2443   -3388.3165   -3833.2443            0    9691.6056    16.960524    19.977257      20.6918    7010.8938    6850.0386    11803.156    10421.622   -196.70617   -957.80129    871.85575   -2397.3819 
  755000     272.8919   -3785.7273        -3318   -3785.7273            0    10244.378    16.916058    19.924881    20.637551    6955.8955    8663.7791    10813.629    11255.727   -128.70561    1973.2573   -631.08549   -2278.7631 
  756000    283.98802   -3800.6091   -3313.8633   -3800.6091            0    9389.2208    16.901896    19.908201    20.620274    6938.4407    8992.9133      8108.52    11066.229    191.93058   -846.45835   -628.41052   -2363.7677 
  757000    275.65265   -3818.3403   -3345.8811   -3818.3403            0    10406.256    16.894754    19.899789    20.611561    6929.6487    10114.351    7952.9787    13151.437    1912.7938   -18.591467    1737.8492   -2294.2059 
  758000    271.30746   -3827.0907    -3362.079   -3827.0907            0    10174.241    16.920291    19.929868    20.642716    6961.1196    10017.101    9049.9808    11455.642    509.62209   -637.27001   -803.58324    -2329.182 
  759000    286.51929   -3819.9743     -3328.89   -3819.9743            0    8994.2685    16.916439    19.925331    20.638016    6956.3665    6712.7741    8516.6523    11753.379    -3147.307   -879.45409   -278.67674   -2416.4083 
  760000    266.94852   -3800.0261   -3342.4855   -3800.0261            0    12850.748    16.842075     19.83774    20.547292    6865.0294    12123.579    11978.564    14450.101   -877.94811    100.76609     1104.956   -2055.8761 
  761000    270.89597   -3818.3018   -3353.9954   -3818.3018            0    8487.0541    16.961375    19.978259    20.692837    7011.9487    9273.8664    6711.9812    9475.3148    737.85237   -352.25436    1409.0238   -2486.0916 
  762000    283.13117   -3788.1534   -3302.8762   -3788.1534            0    7215.8929    16.957903     19.97417    20.688602    7007.6443    7693.0817    5460.5344    8494.0626   -638.71294    1779.0539    266.42651    -2565.417 
  763000    285.58128   -3816.2034   -3326.7269   -3816.2034            0    10316.712    16.885495    19.888882    20.600264     6918.261    11678.844    10440.575    8830.7158   -535.92495    422.71404    323.67631   -2285.8146 
  764000    270.18926   -3805.4605   -3342.3654   -3805.4605            0    10049.425    16.867332    19.867489    20.578105    6895.9603     10684.87    10700.917    8762.4869   -869.33328    490.47124    -1287.511   -2331.6896 
  765000    261.97347   -3765.7119   -3316.6983   -3765.7119            0    8157.3742    16.929042    19.940175    20.653391     6971.925    8113.6794     7771.117    8587.3263    412.81029   -1576.7781    310.86325   -2487.2697 
  766000    269.18234   -3781.5061   -3320.1368   -3781.5061            0    9602.6556    16.924992    19.935405     20.64845    6966.9226    9252.7417    8277.3172    11277.908    1243.8673   -762.58065   -35.339885    -2344.455 
  767000    285.46341   -3807.9467   -3318.6722   -3807.9467            0    11881.841    16.878331    19.880445    20.591525    6909.4599    12548.968    11556.947    11539.607    1101.3811   -1292.9408    714.69808   -2121.3702 
  768000    262.92838   -3838.6318   -3387.9815   -3838.6318            0    10317.528    16.885071    19.888383    20.599747    6917.7405    10165.051    10660.705    10126.828    198.71462   -583.93596    1232.4858   -2347.0652 
  769000    276.32005   -3817.6437   -3344.0406   -3817.6437            0    10506.177    16.877278    19.879204    20.590239    6908.1661     9881.615    10801.426    10835.492   -285.14627   -421.03333    156.29989   -2285.5589 
  770000    266.95563   -3844.9885   -3387.4357   -3844.9885            0    9380.8279    16.877292    19.879221    20.590257    6908.1842    10469.394    7642.9865    10030.103   -2062.3153    2073.4498    943.08927   -2442.3288 
  771000    274.71148   -3857.0553   -3386.2092   -3857.0553            0    10274.393    16.877246    19.879166      20.5902     6908.127    10939.806    9367.1684    10516.203    148.52761   -196.55121   -490.35733   -2351.0852 
  772000    289.40757   -3835.6745   -3339.6398   -3835.6745            0    9580.5744    16.878436    19.880569    20.591653    6909.5892     11672.41    8728.5009    8340.8118   -1485.6872    600.11168   -1351.3271   -2374.2124 
  773000    263.12238   -3846.4499   -3395.4671   -3846.4499            0    10331.309    16.863833    19.863368    20.573837    6891.6703    11649.621    8391.6416    10952.663    -2016.156    618.09243    -453.0304   -2357.0885 
  774000    291.15652    -3808.287   -3309.2547    -3808.287            0    9564.1505    16.955702    19.971577    20.685917    7004.9159    8823.6815    7964.0892    11904.681   -1267.2766    264.83663    1072.4103   -2332.1857 
  775000    267.64558   -3791.4399   -3332.7045   -3791.4399            0     8231.085    16.965441    19.983048    20.697798     7016.993    6455.1892    8885.2216    9352.8443   -801.67418    -196.1669    220.76225   -2490.3712 
  776000    282.09229   -3797.8151   -3314.3185   -3797.8151            0    8721.8083    16.943947    19.957731    20.671575    6990.3562    8668.6371    9050.5923    8446.1955    47.064113   -754.34602   -1050.9703   -2425.1548 
  777000    274.79385   -3803.9261   -3332.9388   -3803.9261            0    10765.316    16.933852    19.945841     20.65926    6977.8697    11145.905    11622.539    9527.5043    520.45057    1335.9015      890.825   -2237.4057 
  778000     269.6201   -3821.1261   -3359.0065   -3821.1261            0    11013.667    16.882297    19.885116    20.596363    6914.3315    11794.609    11472.062    9774.3304    969.75533   -79.129758   -17.305743   -2248.4055 
  779000    266.91584   -3846.8374   -3389.3527   -3846.8374            0     9411.656    16.929304    19.940484    20.653712    6972.2496    9243.9307    10734.072    8256.9657    471.31471    139.65631    1376.2597   -2432.3463 
  780000    276.44104   -3802.8017   -3328.9912   -3802.8017            0    11010.595    16.921494    19.931284    20.644183    6962.6037    12224.995    9539.3905    11267.398   -798.11667   -49.292628   -941.98522   -2210.9486 
  781000     271.1714   -3802.8095   -3338.0311   -3802.8095            0    9328.7701    16.886698      19.8903    20.601732    6919.7402    10059.221    8678.0734    9249.0152   -1655.8445      1568.19    283.00374   -2396.5966 
  782000    265.76451   -3799.0467   -3343.5354   -3799.0467            0    9462.2622    16.917301    19.926346    20.639068    6957.4301    12796.227    8198.2825    7392.2766    1596.6765    528.34812    888.06091   -2383.4282 
  783000    276.68208   -3825.6271   -3351.4035   -3825.6271            0    11189.129    16.938585    19.951416    20.665035    6983.7229    10168.838    11327.057    12071.492    669.91755    1907.6703    652.01318   -2211.7858 
  784000    269.90682    -3835.575    -3372.964    -3835.575            0    9052.7763    16.867449    19.867627    20.578248    6896.1041    9015.0351    8452.4833    9690.8104   -670.85144    -2159.784   -343.65929   -2462.5027 
  785000    271.60047   -3870.3775   -3404.8636   -3870.3775            0    7987.9499    16.876576    19.878377    20.589383    6907.3045    7390.3382    8911.2453    7662.2661    57.679507   -212.27068   -1232.7153   -2600.1899 
  786000    283.77191     -3844.07   -3357.6947     -3844.07            0    9777.5874    16.865489    19.865318    20.575857    6893.6998    9299.7474     9335.205     10697.81   -1417.0899    1704.7948    373.24029   -2374.6801 
  787000    293.37198   -3851.4492   -3348.6197   -3851.4492            0    9573.9628     16.92356    19.933718    20.646704    6965.1548    8416.1902    7199.7506    13105.948    257.68802     937.2288    -453.5418      -2376.1 
  788000    279.02026   -3844.5406   -3366.3094   -3844.5406            0    7468.7562    16.981245    20.001664     20.71708    7036.6217    6292.5137    8965.2117    7148.5431   -65.824243   -1411.4206   -972.59325   -2599.8514 
  789000    278.33483   -3862.3091   -3385.2528   -3862.3091            0    10694.463    16.879614    19.881955    20.593089     6911.035    10061.903     11087.35    10934.135   -526.70129   -546.18538    27.892075   -2307.3541 
  790000    268.18609   -3825.6218   -3365.9601   -3825.6218            0    10868.736    16.821099    19.813033    20.521702    6839.4114    11424.091    10084.322    11097.794   -762.10548   -1448.4803    825.18626   -2281.8493 
  791000     266.4635   -3817.8892   -3361.1798   -3817.8892            0    10511.753    16.864971    19.864708    20.575225    6893.0649    10568.917     10266.22    10700.123   -1744.2231   -364.08985   -153.42214   -2304.4513 
  792000     274.0909    -3836.664   -3366.8816    -3836.664            0    9798.2369    16.890747    19.895069    20.606672    6924.7196    8945.5355    11735.582     8713.593     44.07204   -340.12909    -1819.642   -2377.3583 
  793000    286.19709   -3829.5976   -3339.0656   -3829.5976            0    9275.9193    16.871436    19.872324    20.583113    6900.9959    9766.3761    8620.3006    9441.0814   -58.366465    70.905443    1069.7578   -2405.5004 
  794000    270.22861   -3832.3098   -3369.1472   -3832.3098            0    12866.805    16.886328    19.889864    20.601281     6919.286    12793.848     13051.51    12755.056    79.642127   -54.774008   -246.45605   -2070.7491 
  795000    257.45075   -3846.0698    -3404.808   -3846.0698            0     8376.037    16.875398     19.87699    20.587947    6905.8587    5304.2612    10893.197    8930.6531    200.87208   -781.26814    468.47238   -2561.2166 
  796000    276.28116   -3853.7465     -3380.21   -3853.7465            0    9308.2951    16.945621    19.959704    20.673619    6992.4294     9140.427    7758.0569    11026.401   -1640.3581     791.7459   -1085.5658   -2430.9742 
  797000    271.23301    -3846.949   -3382.0649    -3846.949            0    9815.3089    16.833141    19.827217    20.536393    6854.1106    9338.7856     10644.92    9462.2208   -832.68668   -1515.0482    -176.6176    -2400.925 
  798000    278.57309    -3838.297   -3360.8322    -3838.297            0    8614.5392    16.830275     19.82384    20.532896    6850.6093    9410.6337    7838.6782    8594.3056    85.210193    1343.3142    31.224744   -2500.1613 
  799000    285.37114   -3831.6497   -3342.5333   -3831.6497            0    8630.7646     16.88663     19.89022     20.60165    6919.6571    10123.062    7498.6382    8270.5938    1059.8542   -491.55542    269.79114   -2471.5502 
  800000    277.53232   -3829.1482   -3353.4673   -3829.1482            0    8434.4712     16.88286    19.885779    20.597049    6915.0229    10799.095    7910.9058    6593.4132    597.56802   -1761.3401     8.367944   -2502.8634 
  801000       280.23   -3785.5756   -3305.2709   -3785.5756            0    11917.611    16.832521    19.826486    20.535636    6853.3524    12704.845    10244.826     12803.16   -38.484698   -321.15798   -495.38639   -2114.1163 
  802000    264.86162   -3805.8675   -3351.9037   -3805.8675            0    11475.702    16.796941    19.784578    20.492229    6809.9857    12819.104    12056.126     9551.876   -1470.0715    1686.5637   -540.69778   -2212.1754 
  803000    269.79243   -3813.2113   -3350.7963   -3813.2113            0    10854.681     16.81807    19.809465    20.518006    6835.7168    10875.633    9800.5379    11887.874   -66.099781   -252.54639   -738.79641   -2268.6723 
  804000    275.84221   -3799.0122   -3326.2281   -3799.0122            0    9249.0593    16.918051     19.92723    20.639983    6958.3555    10325.055    10347.365    7074.7576   -216.57975   -164.28708    1009.4565   -2387.6292 
  805000    265.68551   -3800.0885   -3344.7126   -3800.0885            0    8343.9287    16.961725    19.978672    20.693265    7012.3837    9109.5588    7847.8704    8074.3568    -377.7809     -2792.34   -241.40878   -2491.3922 
  806000    281.11554   -3785.5171   -3303.6946   -3785.5171            0    8830.5569     16.95858    19.974967    20.689428    7008.4832    9646.1827    9368.3012    7477.1868   -1900.3371    -918.9114    841.45146   -2401.1098 
  807000    267.80856    -3815.637   -3356.6223    -3815.637            0    12370.619    16.846395    19.842828    20.552562    6870.3128    11040.357    11793.977    14277.524    185.09325   -52.842751    887.48552     -2117.13 
  808000    275.31029   -3827.1301   -3355.2576   -3827.1301            0    8105.5277    16.966861    19.984721    20.699531    7018.7554    7302.9059    9448.9516    7564.7255    178.44758   -445.16234   -357.63605   -2525.5649 
  809000    270.07037   -3805.1174    -3342.226   -3805.1174            0     11008.78    16.907099    19.914329    20.626621    6944.8498    11523.579    11397.075    10105.686   -1341.1968   -1120.0749    2641.4118   -2227.2181 
  810000    266.77785   -3840.1772   -3382.9291   -3840.1772            0    9773.7626    16.898484    19.904182    20.616111    6934.2393    11980.533    10549.309    6791.4462    712.25798   -582.75304   -451.29306   -2394.5206 
  811000    269.70987   -3790.1212   -3327.8477   -3790.1212            0    8775.7993    16.918142    19.927337    20.640094    6958.4678    9262.3772    8657.2602    8407.7606   -983.35512    287.94794    846.17262    -2437.261 
  812000    268.06511   -3781.6586   -3322.2042   -3781.6586            0    8920.5103    16.926692    19.937407    20.650524    6969.0222    9399.2948    8493.6082     8868.628   -1367.8656   -706.24103   -1912.5618   -2415.5588 
  813000    283.42856    -3790.774   -3304.9871    -3790.774            0    11402.286    16.863746    19.863266    20.573731    6891.5637    11270.064    12161.793    10775.001   -2182.4003    458.25942    677.76055   -2158.9845 
  814000    276.04665   -3797.5228   -3324.3883   -3797.5228            0    12560.322    16.835836     19.83039     20.53968    6857.4021     13969.51      11464.1    12247.355   -2347.7148     687.3377    1218.8536   -2068.2534 
  815000    265.23516   -3834.6113   -3380.0073   -3834.6113            0     10429.81     16.86969    19.870267    20.580983    6898.8533    10873.836    9408.2565    11007.336     270.2135    1348.1058    -407.2471    -2330.636 
  816000    276.04895   -3790.4939   -3317.3555   -3790.4939            0     8828.491    16.934162    19.946206    20.659638    6978.2534    7780.8148    9827.8156    8876.8426   -66.585693    1385.0032    860.08197   -2418.8741 
  817000    266.25031   -3842.3465   -3386.0026   -3842.3465            0    9511.8903    16.912567     19.92077    20.633292    6951.5904    10216.347     7046.582    11272.742    1031.9334    485.57569   -110.00776   -2421.6699 
  818000    274.07865   -3815.7976   -3346.0362   -3815.7976            0    7953.1334     16.91452     19.92307    20.635674    6953.9984    7502.1083    8356.9652    8000.3267    490.40836    1725.6438   -812.66326   -2539.4538 
  819000    255.24841   -3828.6735   -3391.1865   -3828.6735            0    9665.9956    16.908478    19.915954    20.628304    6946.5494    10499.988    10274.908    8223.0916   -155.48234    820.46596   -2034.1786   -2411.9409 
  820000     267.6751   -3819.1682   -3360.3823   -3819.1682            0    9550.5246    16.938016    19.950745     20.66434    6983.0186    10653.172    7765.5905    10232.811    801.02079   -493.85299   -588.57829   -2387.7553 
  821000    267.98861   -3832.4308   -3373.1075   -3832.4308            0    8787.0934     16.90874    19.916262    20.628623    6946.8726    8019.1645    10542.042     7800.074   -1678.8824   -1282.0063     250.5882   -2482.8606 
  822000    296.34178   -3799.2057    -3291.286   -3799.2057            0    8431.0264     16.97125     19.98989    20.704885    7024.2032    7854.2055    10062.301    7376.5724   -751.57722    619.17504   -96.742725    -2427.605 
  823000    250.58997   -3814.9403   -3385.4377   -3814.9403            0    8191.4956    16.928151    19.939125    20.652304    6970.8242    5550.7468    10297.884     8725.856    447.37566    565.42879   -96.015027   -2552.6712 
  824000    283.55534   -3825.2256   -3339.2214   -3825.2256            0    9806.9091    16.823782    19.816193    20.524974    6842.6837    10222.215     11113.12    8085.3919   -1693.0744    865.15205    -1443.403   -2360.5554 
  825000    276.66228   -3821.8006   -3347.6109   -3821.8006            0    11418.269    16.853091    19.850715    20.560731    6878.5082    12330.241    11755.908    10168.657    1359.9848   -197.88752   -297.85397    -2202.176 
  826000    272.52925   -3831.7373   -3364.6315   -3831.7373            0    9271.8687    16.946368    19.960583    20.674529    6993.3533    9572.1519    10928.997    7314.4572   -710.56013    779.53343   -1497.8559   -2418.9854 
  827000    270.25382   -3836.2626   -3373.0568   -3836.2626            0    8894.8538     16.89937    19.905225    20.617192    6935.3299    11333.208    7774.1274    7577.2258    93.300512   -929.73561    -1226.388   -2473.3897 
  828000    279.84469   -3808.1381   -3328.4939   -3808.1381            0    9890.5672     16.89206    19.896615    20.608273    6926.3337    8300.7886     11210.31    10160.603   -12.010649   -1374.0108    838.41783   -2329.4133 
  829000    275.73433   -3849.7926   -3377.1934   -3849.7926            0     11648.52    16.865578    19.865423    20.575965    6893.8089    13279.125    12597.363     9069.071   -1003.2228   -2847.5777   -620.37313   -2206.0614 
  830000    281.36347   -3821.6895   -3339.4422   -3821.6895            0    8319.0825    17.011594     20.03741    20.754105    7074.4161    9966.1101    7020.8506    7970.2867   -1418.9731   -95.751273    37.018958   -2481.1366 
  831000    268.83123   -3814.7801   -3354.0126   -3814.7801            0    9670.0167    16.934372    19.946454    20.659895     6978.513    9802.9621    9191.9991    10015.089   -560.51987    154.94679    79.556872   -2369.8519 
  832000     270.0364   -3835.8724   -3373.0392   -3835.8724            0    10649.999    16.891687    19.896176    20.607818    6925.8748     10136.69    11620.803    10192.504   -418.51937   -80.420702   -72.131354   -2297.3172 
  833000    269.27098   -3822.3506   -3360.8294   -3822.3506            0    8024.1724    16.959874    19.976491    20.691006    7010.0875    8610.7162    7356.9347    8104.8664   -317.40284    -222.3576    317.65448   -2540.4786 
  834000    285.93123   -3786.9893   -3296.9129   -3786.9893            0    10639.132    16.896476    19.901816    20.613661    6931.7671    11744.452    11302.235     8870.709   -2.0904226    671.98196   -2056.2491   -2221.3742 
  835000      263.674   -3804.6746   -3352.7464   -3804.6746            0    10250.587    16.932136    19.943819    20.657166    6975.7484    9607.8959    9652.2784    11491.585    727.32278    231.25428    -608.6439   -2309.9118 
  836000    277.22743   -3810.2735   -3335.1151   -3810.2735            0    9602.1487    16.941641    19.955015    20.668762    6987.5029    9780.6538     9524.859    9500.9334   -444.03941   -1447.4706   -639.08841   -2356.6028 
  837000    265.09835   -3811.6693   -3357.2998   -3811.6693            0    9489.2457    16.925901    19.936476     20.64956    6968.0454    11655.538    6967.5542    9844.6448    868.11559    1976.0877    926.11366   -2392.9856 
  838000    274.39764   -3782.4737   -3312.1655   -3782.4737            0    12251.182    16.886861    19.890491    20.601931    6919.9403     10969.28    11056.446    14727.821     404.1667   -259.24706      729.717   -2075.7734 
  839000    269.68576   -3872.3131   -3410.0809   -3872.3131            0    11728.532    16.895572    19.900753    20.612559    6930.6556    12517.286    11567.256    11101.053    576.03099    416.71008    978.73185   -2224.6019 
  840000    281.07139   -3832.7189   -3350.9722   -3832.7189            0    11400.407    16.845792    19.842118    20.551827    6869.5759    11367.387     12526.48    10307.353    2159.1643      508.605    2164.6816   -2208.8142 
  841000    266.22507   -3847.0893   -3390.7886   -3847.0893            0    9092.4211    16.930604    19.942015    20.655297    6973.8552    9464.4832     10266.41    7546.3705   -252.24683   -171.63278   -142.68639   -2466.0301 
  842000    280.54309   -3821.8856   -3341.0444   -3821.8856            0    12451.912     16.91064      19.9185    20.630942    6949.2149    14791.806    11715.235    10848.694    1369.1556    252.48046    451.69525   -2079.0784 
  843000    282.81773   -3878.0514   -3393.3114   -3878.0514            0    10413.469    16.972531    19.991399    20.706448    7025.7939    10353.852    11192.067    9694.4872   -184.90577    888.73019   -937.31289   -2326.3058 
  844000    271.40523   -3859.5677   -3394.3885   -3859.5677            0    8205.2186    17.019188    20.046355     20.76337    7083.8947     7481.736    10096.621    7037.2989    1745.5827   -636.97619   -975.37007   -2546.6964 
  845000    264.74121   -3849.7879   -3396.0305   -3849.7879            0     10708.28    16.896121    19.901399    20.613229    6931.3311    10723.033    12070.134    9331.6723    34.031053   -14.127984   -231.40526   -2313.5695 
  846000    275.46473   -3792.1555   -3320.0184   -3792.1555            0    8837.8639    16.916766    19.925716    20.638415    6956.7696    10116.611    8973.3107    7423.6698    1275.6486    1010.4825    1131.2886   -2423.3521 
  847000    284.35833   -3838.4014    -3351.021   -3838.4014            0     9364.736    16.932953    19.944782    20.658164    6976.7592    10423.865     8669.573    9000.7703   -1543.3036    646.45866    420.90158   -2398.1696 
  848000     258.8647    -3817.838   -3374.1527    -3817.838            0    11602.105    16.816348    19.807437    20.515905    6833.6173    10940.748    12473.558    11392.008   -2010.3092   -252.70526    1029.6317   -2217.8719 
  849000    277.33991   -3807.5421    -3332.191   -3807.5421            0    9380.3474    16.950455    19.965397    20.679516     6998.415    10416.453    9271.1739    8453.4149   -1040.9016     1528.324    -131.3705   -2374.7886 
  850000    274.64915   -3838.5872    -3367.848   -3838.5872            0    8679.2593    16.928546    19.939591    20.652787    6971.3127    7152.0131    7773.3985    11112.366     490.2471   -1330.0439    1381.3384   -2485.4325 
  851000    264.71618   -3816.2984   -3362.5839   -3816.2984            0    10998.246     16.88292    19.885849    20.597123    6915.0967    13045.471    10729.398    9219.8684    1368.2785    337.00302    124.69387   -2253.4153 
  852000    290.42369   -3841.7223    -3343.946   -3841.7223            0    12185.175     16.91343    19.921786    20.634345    6952.6545    14330.462    10179.093    12045.971    1076.2584     1041.139   -1698.6182   -2108.4017 
  853000    276.70717   -3822.7966     -3348.53   -3822.7966            0    10960.296    16.885055    19.888364    20.599727    6917.7202    12175.453    8879.7396    11825.696   -270.57298    -392.2304    -10.57716   -2242.7692 
  854000    257.23809   -3814.8793    -3373.982   -3814.8793            0     10850.45    16.961309    19.978181    20.692757    7011.8671    11688.648    9618.7143    11243.987   -1658.6274    2044.0908    1395.1724   -2264.4054 
  855000    272.64874   -3779.7132   -3312.4026   -3779.7132            0    11396.375    16.880699    19.883233    20.594413    6912.3678    10081.338    12796.055    11311.732    770.53418    82.700922   -107.29493   -2163.5364 
  856000    258.89117   -3802.4717   -3358.7411   -3802.4717            0    11588.325    16.934312    19.946383    20.659821    6978.4384    11894.177    12129.908    10740.891    47.833345    -1507.959    36.428333   -2179.3582 
  857000    269.65572   -3815.2155   -3353.0349   -3815.2155            0    9753.2635    16.934518    19.946625    20.660072     6978.693    10520.105     9802.597    8937.0885    478.40113    1307.3606    264.73991   -2360.3762 
  858000    270.95594   -3805.6936   -3341.2844   -3805.6936            0    8907.9623    16.969952    19.988361    20.703301    7022.5914    8226.6452    8712.6158    9784.6259   -970.37157   -625.37087    1173.6428    -2428.955 
  859000    268.18037   -3818.7633   -3359.1113   -3818.7633            0    9086.9292     16.91235    19.920514    20.633027    6951.3226    9490.7867    7814.7685    9955.2323    680.91435   -393.96547    -147.5812   -2437.8974 
  860000    279.63645   -3839.4223    -3360.135   -3839.4223            0    9628.1926    16.872366    19.873419    20.584247    6902.1369    8981.9611    9405.8989    10496.718   -540.63687   -309.19891   -35.821677   -2390.9555 
  861000    284.76572   -3828.1154   -3340.0368   -3828.1154            0    8686.9812    16.945623    19.959706    20.673621    6992.4315    8342.9113    10251.189    7466.8434    529.93648    610.74612   -989.92281   -2454.1606 
  862000    267.16551   -3808.3591   -3350.4466   -3808.3591            0    10074.355     16.93289    19.944708    20.658086    6976.6809    8677.1236    11237.418    10308.523   -285.14366   -277.35001    83.032235   -2325.4038 
  863000    267.74538   -3812.9459   -3354.0395   -3812.9459            0    11129.304    16.918812    19.928126    20.640911    6959.2942    10592.337    11943.323    10852.253   -497.64484   -220.45133     536.6825     -2224.48 
  864000    275.27857   -3805.7315   -3333.9134   -3805.7315            0    6747.4399    17.008978    20.034329    20.750913     7071.153    7969.2454    5246.2133     7026.861   -131.08508    168.54534    -82.42016   -2638.0802 
  865000    284.05162   -3812.8627   -3326.0079   -3812.8627            0    9045.4876    16.905544    19.912497    20.624724    6942.9335    8495.2172     11030.46    7610.7857   -41.216885    491.34128    471.77716    -2410.102 
  866000    265.10973   -3834.3468   -3379.9578   -3834.3468            0    8849.5919    16.943696    19.957436     20.67127    6990.0462    8231.1294    9838.2308    8479.4154   -687.06313   -1076.3887    1092.5196   -2477.8069 
  867000    248.60848   -3830.4345   -3404.3281   -3830.4345            0    11195.718    16.858882    19.857536    20.567796    6885.6012    11703.462    9465.6275    12418.063   -655.56217    546.32741    1238.1588   -2280.0605 
  868000    257.31023   -3847.7459    -3406.725   -3847.7459            0    10868.873    16.881235    19.883865    20.595068    6913.0271    12051.286    9049.4738    11505.858   -519.17318    79.163323    -203.0215   -2310.9316 
  869000    276.52948   -3829.6829   -3355.7209   -3829.6829            0    10628.701    16.942529    19.956061    20.669846    6988.6021    9009.2335     12122.86    10754.011   -947.09567   -1535.5715     501.9152   -2272.4267 
  870000    269.07344   -3846.1659   -3384.9833   -3846.1659            0     10898.95     16.90862    19.916121    20.628477    6946.7248    13032.816    7527.1852    12136.848   -322.32862   -1168.7422   -1495.2132   -2280.8014 
  871000    281.55951   -3877.1739   -3394.5906   -3877.1739            0    10484.196    16.964478    19.981914    20.696623    7015.7978    10363.041    11368.591    9720.9558    189.41974    1043.4559   -258.58704   -2321.8663 
  872000    283.22963   -3816.4759     -3331.03   -3816.4759            0     7812.909    16.992567       20.015    20.730893    7050.7059    6516.4363    7944.7806    8977.5102   -482.10924    24.460763   -1947.7339   -2527.6495 
  873000    270.78195   -3845.7837   -3381.6727   -3845.7837            0    9916.7502    16.900833    19.906949    20.618977    6937.1319    10054.499    9415.0785    10280.674    6.9051073    -867.0563   -996.10665   -2378.3857 
  874000      284.601   -3823.1947   -3335.3983   -3823.1947            0    10024.087    16.938668    19.951513    20.665135    6983.8245    10221.782    7727.2218    12123.256   -902.81019    1612.4816   -724.79603   -2314.4259 
  875000    293.58123   -3825.7817   -3322.5935   -3825.7817            0    11013.219    16.862144    19.861378    20.571776    6889.5994    12548.677    10233.895    10257.085   -1.6923536    -45.15481   -42.390628   -2216.0102 
  876000    269.34226   -3810.5147   -3348.8713   -3810.5147            0    10365.065    16.908377    19.915835     20.62818     6946.425    11662.235    12165.264    7267.6973    1317.0594   -1212.2847    1798.5703    -2298.823 
  877000    288.26304   -3826.6674   -3332.5944   -3826.6674            0    10099.265    16.934659    19.946791    20.660244    6978.8674    11316.549     9164.314    9816.9318   -491.76435    105.35635   -1730.3267   -2304.6951 
  878000    270.94409    -3809.939   -3345.5501    -3809.939            0    9420.6229    16.904119    19.910819    20.622985    6941.1783    10197.755    7752.3912    10311.722   -1231.6259    1078.1818   -1351.5862   -2391.9008 
  879000    273.89037   -3792.0669   -3322.6282   -3792.0669            0    11572.924    16.919261    19.928654    20.641459    6959.8477    9844.1353    11661.907    13212.729   -141.60873    219.27251   -527.02551   -2147.9505 
  880000    265.00749    -3816.448   -3362.2342    -3816.448            0    9018.5419    16.907317    19.914587    20.626888    6945.1194    7945.0679    9381.6725    9728.8854    1586.4797    1071.2534   -76.748437   -2448.7692 
  881000    261.24948   -3802.3851   -3354.6124   -3802.3851            0    10510.944    16.876213     19.87795    20.588941    6906.8591    11499.834    9320.6857    10712.313   -1370.7337     3414.095   -948.98357   -2295.8507 
  882000    290.95103   -3801.8303   -3303.1502   -3801.8303            0    10600.416    16.917293    19.926336    20.639057    6957.4192    8608.9446    12707.369    10484.934    -1051.203    644.84437    194.32687   -2227.5597 
  883000    263.14356   -3829.5703   -3378.5513   -3829.5703            0    7734.1544    16.973621    19.992683    20.707778    7027.1477    7494.5714     8002.571    7705.3209   -762.49394    1234.0058   -225.79572   -2585.9262 
  884000    270.20951    -3854.897   -3391.7671    -3854.897            0    8307.8605     16.89807    19.903694    20.615606    6933.7294    9433.6247    8072.0121    7417.9448    173.04209    1398.2374    1304.4298   -2551.6652 
  885000    265.17115   -3846.6766   -3392.1823   -3846.6766            0    9601.5562    16.898174    19.903817    20.615733    6933.8581    9392.5629    9877.7696    9534.3361    402.48096   -406.89089    1380.3564   -2421.2421 
  886000    268.64367   -3836.5517   -3376.1057   -3836.5517            0    7926.4989    16.888736      19.8927    20.604218    6922.2455    5966.9626    8085.0947    9727.4396   -7.9040065    53.153938   -680.81843   -2575.8951 
  887000    264.26047   -3865.6417   -3412.7083   -3865.6417            0    8239.2306    16.946688     19.96096     20.67492    6993.7503    9007.8864    7230.6049    8479.2005    519.77677   -541.80201   -399.77597   -2572.3342 
  888000    275.27193   -3820.0415   -3348.2348   -3820.0415            0    10735.766    16.878288    19.880393    20.591472    6909.4065      10331.5    10591.655    11284.143   -1091.0273   -858.10859    320.03673   -2266.4281 
  889000    258.32358   -3855.4059   -3412.6481   -3855.4059            0    9405.3131    16.842214    19.837904    20.547462    6865.1992    8855.1797    9323.2132    10037.546   -221.80242    857.50475    1352.0164   -2470.9704 
  890000     273.3912   -3812.7801    -3344.197   -3812.7801            0    12326.606    16.880124    19.882556    20.593711    6911.6615    13691.724     12173.14    11114.954    712.31379   -946.11996   -2329.8166   -2101.6813 
  891000    271.18753   -3862.4497   -3397.6436   -3862.4497            0    8395.6027    16.950094    19.964972    20.679075    6997.9675    9799.3528    8347.2087    7040.2466   -697.69023   -433.97717   -754.82914   -2540.8037 
  892000     266.0168   -3834.8273   -3378.8836   -3834.8273            0     9709.439    16.933241    19.945121    20.658514    6977.1144    9041.6731     10522.94    9563.7039   -560.38881    1038.2731    795.13382   -2390.9088 
  893000    265.51789    -3835.017   -3379.9284    -3835.017            0    7400.8565     16.92674    19.937463    20.650583    6969.0812    7380.0815    7963.5658    6858.9221   -1122.5123    1140.9314    1357.3019   -2627.7283 
  894000    255.05075   -3801.1399   -3363.9916   -3801.1399            0    9702.5835    16.910561    19.918408    20.630846    6949.1178    8059.4286    12191.652    8856.6697    387.03942    845.33501   -1559.1277    -2380.676 
  895000    290.23809   -3825.1238   -3327.6656   -3825.1238            0    10404.692     16.89931    19.905155    20.617119    6935.2564    11206.991    9275.2236    10731.862   -1482.1758   -2245.0557   -1305.8833   -2275.2976 
  896000    266.91141   -3817.9117   -3360.4347   -3817.9117            0    7973.9864    16.933522    19.945453    20.658858    6977.4626     6574.928    8522.4218    8824.6093   -398.88888   -435.65363    -1398.955   -2549.0087 
  897000     267.3914    -3835.447   -3377.1473    -3835.447            0    11172.127    16.845837    19.842171    20.551882    6869.6303     10220.68    12827.947    10467.754   -739.98325    632.00416    1397.3527   -2257.8509 
  898000    264.50192   -3825.9515   -3372.6043   -3825.9515            0    12743.703    16.844443    19.840528    20.550181    6867.9246    13442.447    13065.616    11723.046    1559.8375   -1075.5599   -1128.9302   -2096.1742 
  899000    288.02692   -3800.6026   -3306.9343   -3800.6026            0    8857.0838    16.923899    19.934117    20.647117     6965.573    7582.7948    8639.5624    10348.894    514.70559    1268.6326    324.50582   -2407.1809 
  900000    281.69367   -3843.5848   -3360.7715   -3843.5848            0    10442.497    16.900804    19.906914    20.618941    6937.0953    10325.533    11862.275    9139.6819   -1066.4582   -583.49319   -1363.2179   -2304.2997 
  901000    267.16549   -3788.2967   -3330.3842   -3788.2967            0    8374.4364    16.965132    19.982684    20.697421    7016.6092    9290.5244    8911.4996     6921.285    -409.2387   -225.09769    -183.2649   -2473.4278 
  902000    277.33189   -3868.7758   -3393.4385   -3868.7758            0    9748.8683    16.857769    19.856225    20.566439    6884.2384    10141.445    8586.4351    10518.724    272.68299    566.89332   -129.45894   -2414.6564 
  903000    277.52185    -3844.321    -3368.658    -3844.321            0    10691.622    16.864431    19.864073    20.574567    6892.4036    9799.4882      10876.5    11398.878   -1919.5193    202.08028   -118.20531   -2293.9507 
  904000    263.97696   -3852.6428   -3400.1953   -3852.6428            0    9843.3922    16.845768    19.842089    20.551798    6869.5459    10026.503    9435.1818    10068.492    68.429259    -3264.024    1482.9804   -2414.0323 
  905000     263.1612   -3841.3844   -3390.3351   -3841.3844            0    6686.6185    16.984974    20.006056    20.721629    7041.2583     6299.277    6697.1803    7063.3983    1597.4615    788.34405   -565.52756   -2703.6894 
  906000    257.16905   -3837.4674   -3396.6885   -3837.4674            0    11155.275    16.866864    19.866938    20.577535    6895.3864    11799.611    9978.0472    11688.166    2021.1506   -112.59426    25.456187   -2274.8902 
  907000    281.73974   -3841.8106   -3358.9183   -3841.8106            0     9206.562    16.874473    19.875901    20.586818    6904.7232    8290.0543     9228.691    10100.941    353.64889    455.68112    644.93982   -2431.8331 
  908000    262.35822   -3819.5477   -3369.8747   -3819.5477            0    7076.5955    16.940489    19.953658    20.667357    6986.0774    5309.4155    6459.4136    9460.9575    750.49286    14.972078    -249.7924   -2648.8774 
  909000    263.80898   -3823.3796   -3371.2201   -3823.3796            0    11176.021    16.928693    19.939764    20.652965    6971.4937    9928.0049    12159.049    11441.009   -957.19318   -801.49052    415.97787   -2234.9307 
  910000    286.18398   -3801.8095      -3311.3   -3801.8095            0    10805.356    16.885979    19.889453    20.600855    6918.8563    9037.6598    12014.463    11363.945   -541.41329   -304.24604   -48.980398   -2220.9918 
  911000    269.84472   -3846.2432   -3383.7385   -3846.2432            0    11171.045    16.837133    19.831919    20.541263    6858.9875    11608.088    12473.278    9431.7671    246.90266   -1265.2762    222.48325   -2266.2845 
  912000    267.08407   -3840.2067   -3382.4338   -3840.2067            0    8792.1239    16.896581     19.90194    20.613789    6931.8965    8636.4703     11492.02     6247.882    465.37598   -371.39625   -384.38476   -2493.5975 
  913000      265.671    -3795.449    -3340.098    -3795.449            0    10222.125    16.860316    19.859225    20.569546    6887.3589    9623.2993    11432.844    9610.2333    121.04705    1305.2201    2404.5512    -2313.336 
  914000    266.14003   -3821.0201   -3364.8652   -3821.0201            0    8477.2649    16.963832    19.981154    20.695836    7014.9973    8692.4534    7535.5927    9203.7487   -828.57475   -1379.5822    1540.0761   -2497.5856 
  915000    280.49063   -3820.2289   -3339.4776   -3820.2289            0    9024.2336    16.930234    19.941579    20.654846    6973.3982    8219.6529    9318.3687    9534.6792   -2336.4053   -1130.3482    47.951493   -2421.7143 
  916000    272.63026   -3787.0092   -3319.7302   -3787.0092            0    10343.071    16.906271    19.913354    20.625611    6943.8297    9134.7599    11979.015    9915.4378   -1231.6844   -93.880296    1436.7819   -2272.3016 
  917000     268.2239   -3852.4293   -3392.7027   -3852.4293            0    10286.908    16.866255     19.86622    20.576792    6894.6395    12934.989    6873.6276    11052.107    672.15684   -1775.7821    859.08058   -2358.3413 
  918000    291.80156   -3808.6019    -3308.464   -3808.6019            0     10045.87    16.867277    19.867425    20.578039    6895.8937     10552.05    10555.974    9029.5848   -237.43411   -1952.3612   -744.31484   -2298.1556 
  919000    276.38871   -3789.6818    -3315.961   -3789.6818            0    7459.3121    16.977758    19.997556    20.712825    7032.2869    9156.1831     5698.011    7523.7421   -1635.5486    693.97084     323.3379   -2550.9437 
  920000    275.36245   -3805.9651   -3334.0033   -3805.9651            0    11687.283    16.925039     19.93546    20.648508    6966.9809    9248.1821    12552.397     13261.27   -885.26386    1028.1686    204.66012   -2146.5021 
  921000    271.08516   -3805.2006   -3340.5699   -3805.2006            0    9461.9309    16.894848    19.899899    20.611675    6929.7637    9134.8525    9412.5865    9838.3536   -590.08473   -475.70883   -684.95279   -2384.3141 
  922000    270.38036   -3808.5561   -3345.1334   -3808.5561            0    10749.571    16.849537    19.846528    20.556395    6874.1574    11683.973    10489.166    10075.574    410.78328    1308.0856    400.82261   -2267.4617 
  923000    288.47073   -3848.5457   -3354.1167   -3848.5457            0    10065.713    16.920588    19.930217    20.643078    6961.4855    10715.131    9931.8656     9550.144   -1368.3164   -1275.4877    836.83632   -2332.1838 
  924000    264.88751   -3813.2619   -3359.2538   -3813.2619            0    10221.358    16.909885    19.917611     20.63002    6948.2838    10043.356    9668.6189    10952.099    -670.7111    -569.6169     740.7581   -2323.4869 
  925000     277.6949   -3799.6821   -3323.7226   -3799.6821            0    10433.878    16.877212    19.879126    20.590159    6908.0855    13651.487    9215.5827    8434.5646   -595.30362    1356.5453    2624.0905   -2272.5371 
  926000    265.39106   -3801.9909   -3347.1197   -3801.9909            0     11208.86    16.851099    19.848369    20.558301    6876.0697    12325.128    8780.9037    12520.549   -1453.3286   -751.81998   -182.19833   -2223.0905 
  927000    288.42529   -3805.5936   -3311.2425   -3805.5936            0    9449.2633    16.937542    19.950187    20.663761    6982.4323    10930.399    8191.1472    9226.2441    137.00283    -266.6634    170.46548   -2349.0088 
  928000    269.48779   -3792.3781   -3330.4852   -3792.3781            0    10691.942     16.88266    19.885543    20.596806    6914.7776    11194.048    10718.015    10163.764    2435.3191   -55.956796   -854.01194    -2252.257 
  929000    275.82541   -3852.6991   -3379.9438   -3852.6991            0    9904.3495     16.94965    19.964448    20.678533     6997.417    11090.623    10027.666    8594.7596    614.23195    949.88628   -82.024104   -2369.2035 
  930000     264.4733   -3843.8415   -3390.5433   -3843.8415            0    9454.5072    16.940442    19.953603    20.667299    6986.0194    9793.5258    8358.0661     10211.93   -1693.6187    -219.1939   -953.61005    -2427.281 
  931000    279.22311   -3814.0136   -3335.4347   -3814.0136            0    11474.576    16.903794    19.910436    20.622589    6940.7778    11510.965     12405.53    10507.231   -155.48037   -136.58986    719.68454   -2173.9309 
  932000    287.26438   -3825.6759   -3333.3146   -3825.6759            0    9289.5496    16.957235    19.973383    20.687787    7006.8158    9597.6939     10235.75    8035.2048   -339.55456    1218.1357   -202.96027   -2384.0414 
  933000    266.60287   -3837.6826   -3380.7344   -3837.6826            0    10796.779    16.876039    19.877744    20.588728    6906.6447    10523.287    8729.6393    13137.412    1433.4239    -832.3438    659.90772   -2293.2145 
  934000     270.2003   -3838.9768   -3375.8627   -3838.9768            0    9907.1161    16.914332    19.922849    20.635446    6953.7676    8996.9755    10577.868    10146.505   -46.238761   -129.90872     -695.448   -2371.1467 
  935000     284.2007   -3825.2308   -3338.1205   -3825.2308            0    9088.6511    16.924216    19.934491    20.647504    6965.9651    10136.245    7661.6209    9468.0877    926.10734   -197.90277   -2028.7922   -2414.7912 
  936000    285.22506   -3839.3194   -3350.4534   -3839.3194            0    7708.7981    16.926222    19.936854    20.649951    6968.4421    7873.1396    7132.3872    8120.8674    319.42291    1213.1092   -916.36262   -2567.0269 
  937000    272.36005   -3835.7708    -3368.955   -3835.7708            0    11559.001    16.827513    19.820587    20.529526    6847.2372    12271.203     12903.64    9502.1601   -515.75464    844.29282   -347.46066    -2214.674 
  938000    271.96616   -3793.4893   -3327.3486   -3793.4893            0    7791.0117    16.877969    19.880019    20.591083    6909.0157    9231.9639    6865.5673    7275.5039      520.868    949.77373   -614.75068   -2542.3192 
  939000    262.94792   -3847.8685   -3397.1847   -3847.8685            0    8373.8208    16.899586     19.90548    20.617455    6935.5959    9439.2592    8250.8568    7431.3463    1195.7812    606.49364    -1534.115   -2550.1849 
  940000    288.67076   -3829.5085   -3334.7367   -3829.5085            0    9714.7603    16.958394    19.974748    20.689201    7008.2522    10884.336    9017.5626    9242.3828   -764.01724     937.7984    1624.2945   -2341.8089 
  941000    271.15746   -3818.0646     -3353.31   -3818.0646            0     12116.67    16.843816    19.839791    20.549416    6867.1585    11622.842    13161.204    11565.963   -96.330997    404.14316    887.00751   -2139.8199 
  942000    278.46974   -3848.8091   -3371.5215   -3848.8091            0    9670.0749    16.906082    19.913131    20.625381     6943.597    9772.4799     9405.731    9832.0137    -1153.793   -1053.1092    850.37627   -2392.2791 
  943000    275.23676   -3833.3377   -3361.5913   -3833.3377            0    9398.7632     16.91595    19.924754    20.637419    6955.7624    8994.9826     7337.299    11864.008     821.1747   -822.79376    -533.5813   -2408.1558 
  944000    283.61532   -3801.8064   -3315.6994   -3801.8064            0    10737.295     16.86477    19.864472     20.57498    6892.8188    10289.609    13125.812    8796.4646   -684.10833   -322.35236    -1572.033   -2236.3361 
  945000    276.76566   -3823.9095   -3349.5426   -3823.9095            0     7289.738    16.969051      19.9873    20.702202     7021.473    5653.5184    9453.7596    6761.9359   -1544.4131   -1985.1494    139.10104   -2603.0663 
  946000    272.11832   -3818.9633   -3352.5618   -3818.9633            0    7941.2022    16.902227    19.908591    20.620677    6938.8479    7410.2658    7541.9403    8871.4005     1011.405    588.09549   -745.37451    -2548.944 
  947000    271.09186   -3830.3268   -3365.6847   -3830.3268            0    9041.8685      16.9475    19.961916     20.67591    6994.7552    7950.1933    9387.4649    9787.9472   -1083.6974   -9.7140499   -1095.5774   -2443.3116 
  948000    267.43767    -3782.996    -3324.617    -3782.996            0    10432.658    16.835793     19.83034    20.539628    6857.3499    9420.8685    11220.464     10656.64    -258.2984    490.24955    194.59323   -2281.2739 
  949000    282.70869   -3811.8616   -3327.3086   -3811.8616            0    9997.3693    16.909903    19.917632    20.630042    6948.3059    10870.856    9208.4747    9912.7777    1416.4281    664.47099   -561.41712    -2314.236 
  950000    268.98185   -3818.1083   -3357.0826   -3818.1083            0    11370.265    16.886179    19.889688    20.601098    6919.1019    11619.604    11388.211    11102.979   -384.48283   -440.19756    315.21894   -2209.7319 
  951000    277.73818   -3824.1731   -3348.1394   -3824.1731            0    9520.2116    16.885464    19.888846    20.600227    6918.2235    7251.8649    9169.6082    12139.162     101.8216    216.60634    625.70005   -2387.5958 
  952000    268.01872   -3813.4907   -3354.1158   -3813.4907            0    9724.5067     16.94626    19.960456    20.674398    6993.2201    10273.309    7549.2315     11350.98   -624.83848   -712.68949    605.32621   -2362.3237 
  953000    270.28572   -3859.5882   -3396.3277   -3859.5882            0      9762.44    16.919879    19.929383    20.642213    6960.6111    9940.7144    9299.7651    10046.841   -955.61988   -319.01221   -474.27066   -2405.3095 
  954000    265.37066   -3805.5372   -3350.7009   -3805.5372            0    9044.5636    16.916044    19.924865    20.637534    6955.8786    8762.9728    12239.408    6131.3098    1379.9388    942.82718    427.45936    -2433.181 
  955000    272.58873   -3851.6421   -3384.4343   -3851.6421            0    9205.3181    16.926776    19.937506    20.650627    6969.1257    7570.2672    9866.6995    10178.988    1245.6781   -2382.4407    -1920.076   -2448.8283 
  956000     259.1439   -3817.9013   -3373.7375   -3817.9013            0    8877.9192    16.965036    19.982571    20.697304    7016.4901    7120.0526    9110.3094    10403.396    552.42814   -650.26774   -14.942881    -2465.275 
  957000    277.62248   -3815.9056   -3340.0702   -3815.9056            0    9415.7204    16.922359    19.932304    20.645238    6963.6718    9416.6084    10228.856    8601.6966    -447.6914    199.30744    201.92878   -2383.8283 
  958000    272.09708   -3808.7888   -3342.4237   -3808.7888            0    11091.081    16.908749    19.916273    20.628634    6946.8833    11302.275    11682.102    10288.865   -695.19128    738.80723   -609.74706   -2218.7511 
  959000    265.50716   -3809.9777   -3354.9075   -3809.9777            0    10743.653    16.867939    19.868204    20.578846    6896.7046     11059.22    9960.1429    11211.597    123.38901    1071.8205    665.31418   -2274.2962 
  960000    277.13026   -3814.0231   -3339.0313   -3814.0231            0     11254.12    16.914136    19.922617    20.635206    6953.5248    11684.162    10935.548     11142.65   -1265.7745   -331.09462   -1491.7494   -2197.7507 
  961000    267.33058   -3843.4565   -3385.2611   -3843.4565            0    10149.455    16.903807    19.910452    20.622605    6940.7944    10471.249    11709.287    8267.8304    1057.3754   -960.31011    485.84044   -2357.8889 
  962000    265.36213   -3798.1628   -3343.3412   -3798.1628            0    9563.2852    16.954069    19.969653    20.683924    7002.8915    11401.352    9241.5983    8046.9052   -498.56964    264.62022   -1147.3556   -2366.6429 
  963000    277.86457   -3799.5081   -3323.2577   -3799.5081            0    10958.979    16.984982    20.006066    20.721639    7041.2683    9656.7072    10615.052    12605.177    437.09635    610.93258    464.59032   -2197.8837 
  964000    274.90424   -3827.4356   -3356.2592   -3827.4356            0    8769.9162    16.945587    19.959664    20.673577    6992.3874    10043.155    8079.8342     8186.759   -3170.4008    2044.9853    -1641.329   -2461.9312 
  965000    259.06955   -3855.6937   -3411.6574   -3855.6937            0    8613.8287    16.992531    20.014957    20.730848    7050.6605     8849.305    10220.478     6771.703    168.56835    -2175.151   -305.34329   -2525.9262 
  966000    282.48198   -3825.1132   -3340.9488   -3825.1132            0    10465.894    16.895125    19.900225    20.612013    6930.1046    11588.627    10682.843    9126.2119   -264.62253    1190.0208    874.78062    -2283.177 
  967000    274.20527   -3845.4873   -3375.5088   -3845.4873            0    10095.104    16.910792    19.918679    20.631126    6949.4014    9758.0452    9343.6436    11183.623    211.79486   -298.22481    1127.8964   -2352.3711 
  968000    270.04978   -3798.3251    -3335.469   -3798.3251            0     8956.895      16.9585    19.974873    20.689331    7008.3845    9361.2977    7997.4682    9511.9192   -253.54552    1704.9583   -599.15995   -2419.9838 
  969000    286.09014    -3806.394   -3316.0453    -3806.394            0    10726.903    16.938667    19.951512    20.665134    6983.8238    10007.053    9639.7681    12533.886      231.864   -435.72402     -546.584   -2223.4899 
  970000    260.43475   -3824.2264   -3377.8501   -3824.2264            0    11620.004     16.91286    19.921115    20.633649    6951.9512    9970.8423    12832.645    12056.524   -412.74162   -371.01374     1355.662   -2199.7319 
  971000     273.9918   -3814.5996    -3344.987   -3814.5996            0    9738.1791    16.957431    19.973614    20.688026    7007.0586    9333.2976    9279.6655    10601.574   -527.13516   -924.37437    803.74761   -2349.8351 
  972000    281.71097   -3829.5905   -3346.7476   -3829.5905            0    10229.273    16.900328    19.906355    20.618361    6936.5102    9872.8872    12636.916    8178.0174    1812.2599   -1133.7568    49.720132    -2311.935 
  973000    268.53392   -3833.2969    -3373.039   -3833.2969            0    9339.2169    16.877414    19.879364    20.590405    6908.3331    8140.2402    9106.8856    10770.525     243.0009    1020.7711    2205.1598    -2432.104 
  974000    265.90521   -3813.7715    -3358.019   -3813.7715            0    7905.8099    16.997272    20.020541    20.736632    7056.5637    6285.1171    8638.4854    8793.8272    1410.6174    351.96528    1402.7066   -2544.4104 
  975000    273.13656   -3838.2592   -3370.1125   -3838.2592            0    11176.468    16.935182    19.947408    20.660883    6979.5145    9530.7823    12452.697    11545.924    50.950876    -265.8446   -445.74046   -2232.4703 
  976000    289.54608   -3853.6403   -3357.3682   -3853.6403            0    9365.3719    16.920968    19.930665    20.643541    6961.9543    6456.1245    10094.084    11545.908   -1529.7026   -176.74606   -1915.7837   -2406.4742 
  977000     282.8779   -3780.4806   -3295.6375   -3780.4806            0    10374.532    16.966438    19.984223    20.699015    7018.2307    10058.388    9016.2536    12048.954   -913.34762    1041.7648    1235.4146   -2233.7658 
  978000    280.21664   -3834.8851   -3354.6034   -3834.8851            0    9251.4429    16.905022    19.911883    20.624087    6942.2907    9923.5538    8636.9532    9193.8219    815.26004   -609.46928    -912.1815     -2417.93 
  979000    277.46482   -3848.2103   -3372.6451   -3848.2103            0    9736.7964    16.924396    19.934703    20.647723    6966.1865    9927.4219    8328.8899    10954.078    2390.7783    1491.2214    407.96117   -2383.4383 
  980000     267.9494   -3818.4149   -3359.1588   -3818.4149            0    8223.7755    16.998697    20.022219     20.73837    7058.3382    7667.9571    9503.9347    7499.4346    1754.6377   -761.99612   -1642.4051   -2512.6147 
  981000    279.75789   -3814.9954      -3335.5   -3814.9954            0    12454.284    16.856072    19.854226    20.564368    6882.1589    12406.542    12999.938    11956.371   -306.39122    1595.1744   -1576.6464   -2085.4731 
  982000    279.00607   -3839.3702   -3361.1633   -3839.3702            0    7883.3135    16.952387    19.967672    20.681872    7000.8075    6986.7945    8472.4129    8190.7332    335.80044    1317.2917   -528.66152   -2556.2802 
  983000    264.92224   -3823.4946    -3369.427   -3823.4946            0    8893.2248    16.957961    19.974238    20.688673     7007.716    10038.995    9462.8061    7177.8729    723.61771   -557.15834    657.38345   -2460.5363 
  984000    289.89479   -3836.4855   -3339.6158   -3836.4855            0    10668.203    16.895501    19.900668    20.612471    6930.5673    11030.726    10629.214    10344.669   -1686.8315   -694.07084   -1285.0075   -2261.3248 
  985000    267.64623   -3856.8588   -3398.1223   -3856.8588            0    9734.4138    16.957961    19.974238    20.688672    7007.7153    9742.4703    9491.6032    9969.1679     625.9425     223.1549    -519.7289   -2403.2619 
  986000    272.40545   -3842.9262   -3376.0326   -3842.9262            0    9812.0965    16.946733    19.961013    20.674975    6993.8057    10912.998    8399.0965    10124.195    493.00698    271.97665   -133.69784   -2375.2235 
  987000    272.02508   -3825.6081   -3359.3664   -3825.6081            0    7407.9323    17.003739    20.028159    20.744522    7064.6216    7492.4517    8355.6178    6375.7275    363.36217   -233.09726   -65.600359   -2596.1252 
  988000    260.26068   -3780.1491   -3334.0712   -3780.1491            0    11680.295    16.907579    19.914894    20.627207    6945.4413    12482.347    11655.721    10902.817    1036.0517    80.796518   -103.56754   -2150.9491 
  989000    270.57418    -3789.646   -3325.8911    -3789.646            0    10811.825    16.876595    19.878399    20.589406    6907.3275     10981.44    10760.061    10693.975   -649.18512    835.89893    -75.31043    -2236.748 
  990000    265.96019   -3766.4996   -3310.6529   -3766.4996            0    11214.025    16.835767     19.83031    20.539597    6857.3189    11558.094    11727.908    10356.074    -852.1779    99.586785    2056.0728   -2189.1723 
  991000    263.88619   -3794.7639    -3342.472   -3794.7639            0    10412.791    16.889471    19.893566    20.605116    6923.1502    10403.418    11358.302    9476.6527   -1612.3799   -293.27705   -159.19038   -2291.1232 
  992000    267.82005   -3808.9116   -3349.8772   -3808.9116            0    9045.1086    16.915213    19.923887    20.636521    6954.8543    10787.902    7787.4983     8559.926    1050.4196   -1784.1172   -1306.3312   -2432.4371 
  993000    274.30565   -3797.2892   -3327.1386   -3797.2892            0     10373.63    16.992044    20.014384    20.730254    7050.0545    10223.073     10629.75    10268.068   -696.84448   -1449.1354   -356.86493   -2260.5447 
  994000    279.56629   -3815.7242   -3336.5571   -3815.7242            0    7771.2066    16.992207    20.014575    20.730453    7050.2571    7812.4358      6057.66    9443.5241    144.42469   -68.328672   -77.751607   -2537.5157 
  995000    286.23926   -3797.7163    -3307.112   -3797.7163            0    10119.841    16.920123    19.929669     20.64251    6960.9113    9018.2493    10410.816    10930.457   -137.74703    2074.7212   -564.86144   -2279.7685 
  996000    288.78921   -3848.9124   -3353.9376   -3848.9124            0    8239.5688    16.981221    20.001635     20.71705    7036.5915    7125.4328    8542.5702    9050.7034    1068.1267    888.60558     604.2351    -2508.381 
  997000    265.38676   -3797.2509   -3342.3871   -3797.2509            0    8356.5865     16.92036    19.929949      20.6428    6961.2046    7555.7054    10373.286    7140.7681    1001.2199    -997.5821   -1422.9599   -2494.0095 
  998000    280.14926   -3801.4939   -3321.3277   -3801.4939            0    9517.9561    16.985392    20.006548    20.722139     7041.778    9637.0977    9295.3259    9621.4446    657.53482   -1259.2562     935.2166   -2343.8611 
  999000    262.91023   -3831.5603   -3380.9412   -3831.5603            0     9108.345    16.898495    19.904195    20.616125     6934.253    7178.8189    9928.8211    10217.395   -179.43112    294.80353    1031.7409   -2459.8236 
 1000000    276.53871   -3804.3996   -3330.4217   -3804.3996            0    10505.201    16.895642    19.900834    20.612643    6930.7407    9372.2525    10435.754    11707.597    310.86029    -1359.531    383.35364   -2268.5797 
Loop time of 360.094 on 64 procs for 250000 steps with 864 atoms

Performance: 119.969 ns/day, 0.200 hours/ns, 694.263 timesteps/s
193.6% CPU use with 32 MPI tasks x 2 OpenMP threads

MPI task timing breakdown:
Section |  min time  |  avg time  |  max time  |%varavg| %total
---------------------------------------------------------------
Pair    | 27.465     | 33.948     | 42.319     |  51.5 |  9.43
Bond    | 0.8197     | 1.1567     | 2.0233     |  21.1 |  0.32
Kspace  | 155.72     | 164.33     | 173.35     |  27.9 | 45.63
Neigh   | 4.1939     | 4.6173     | 5.2047     |  14.6 |  1.28
Comm    | 68.538     | 74.614     | 79.686     |  31.9 | 20.72
Output  | 0.56512    | 0.5654     | 0.56684    |   0.0 |  0.16
Modify  | 67.046     | 69.487     | 73.151     |  14.0 | 19.30
Other   |            | 11.38      |            |       |  3.16

Nlocal:        27.0000 ave          33 max          21 min
Histogram: 2 1 4 5 5 4 4 2 1 4
Nghost:        2653.69 ave        2698 max        2605 min
Histogram: 2 3 4 3 2 5 4 3 1 5
Neighs:        8900.28 ave       12178 max        5547 min
Histogram: 1 1 2 6 7 4 4 6 0 1

Total # of neighbors = 284809
Ave neighs/atom = 329.64005
Ave special neighs/atom = 2.0000000
Neighbor list builds = 15305
Dangerous builds = 1

unfix		3
unfix		2
unfix		1

write_data	data.final.${pid}
write_data	data.final.1
System init for write_data ...
PPPM initialization ...
  extracting TIP4P info from pair style
  using 12-bit tables for long-range coulomb (../kspace.cpp:340)
  G vector (1/distance) = 0.37464763
  grid = 24 24 24
  stencil order = 5
  estimated absolute RMS force accuracy = 0.0031172364
  estimated relative force accuracy = 9.387465e-06
  using double precision FFTW3
  3d grid and FFT values/proc = 3549 432
Last active /omp style is kspace_style pppm/tip4p/omp
WARNING: Not all mixed pair coeffs generated from mixing. Use write_data with 'pair ij' option to store all pair coeffs. (../write_data.cpp:312)

write_restart   restart.lmp.${pid}
write_restart   restart.lmp.1
System init for write_restart ...
PPPM initialization ...
  extracting TIP4P info from pair style
  using 12-bit tables for long-range coulomb (../kspace.cpp:340)
  G vector (1/distance) = 0.37464763
  grid = 24 24 24
  stencil order = 5
  estimated absolute RMS force accuracy = 0.0031172364
  estimated relative force accuracy = 9.387465e-06
  using double precision FFTW3
  3d grid and FFT values/proc = 3549 432
Last active /omp style is kspace_style pppm/tip4p/omp
Total wall time: 0:06:00
