LAMMPS (30 Jul 2021)
  using 1 OpenMP thread(s) per MPI task
package omp 0
using multi-threaded neighbor list subroutines
echo both

include		in.partitions
variable        pid world 0
include		in.temp
variable        temperature equal 243.84
variable	tempDamp equal 100.0
include		in.pressure
variable        pressure equal 2875.0
variable        pressureDamp equal 1000.0 # This is 1 ps
include		in.seed
variable        seed world 745823

units		real
atom_style	full
read_restart	restart.lmp.${pid}
read_restart	restart.lmp.0
Reading restart file ...
  restart file = 30 Jul 2021, LAMMPS = 30 Jul 2021
  restoring atom style full from restart
  orthogonal box = (0.34882775 1.5024043 0.42556904) to (17.858745 22.126774 21.787627)
  4 by 4 by 4 MPI processor grid
  restoring pair style lj/cut/tip4p/long/omp from restart
  restoring bond style harmonic/omp from restart
  restoring angle style harmonic/omp from restart
  864 atoms
  576 bonds
  288 angles
Finding 1-2 1-3 1-4 neighbors ...
  special bond factors lj:    0        0        0       
  special bond factors coul:  0        0        0       
     2 = max # of 1-2 neighbors
     1 = max # of 1-3 neighbors
     1 = max # of 1-4 neighbors
     2 = max # of special neighbors
  special bonds CPU = 0.117 seconds
  read_restart CPU = 0.198 seconds
include 	in.setup
variable	out_freq equal 1000
variable	out_freq2 equal 10000
variable	out_freq3 equal 1000

timestep	2.0

neigh_modify    delay 7 every 1

include		in.tip4p
# This is TIP4P/Ice

# create groups ###
group ox type 2
288 atoms in group ox
group hy type 1
576 atoms in group hy

# set charges - beside manually ###
set group ox charge -1.1794
Setting atom values ...
  288 settings made for charge
set group hy charge 0.5897
Setting atom values ...
  576 settings made for charge

# ### TIP3P Potential Parameters ###
pair_style lj/cut/tip4p/long/omp 2 1 1 1 0.1577 8.5
pair_coeff 1 1*2 0.000 0.000
pair_coeff 2 2 0.21084 3.1668
bond_style  harmonic
bond_coeff  1 450 0.9572
angle_style harmonic
angle_coeff 1 55 104.52
kspace_style pppm/tip4p/omp 1.0e-5
pair_modify tail yes

thermo          ${out_freq}
thermo          1000
thermo_style    custom step temp pe etotal epair emol press lx ly lz vol pxx pyy pzz pxy pxz pyz enthalpy

restart 	${out_freq3} restart.lmp.${pid} restart2.lmp.${pid}
restart 	1000 restart.lmp.${pid} restart2.lmp.${pid}
restart 	1000 restart.lmp.0 restart2.lmp.${pid}
restart 	1000 restart.lmp.0 restart2.lmp.0


include         in.dump
dump            myDump all atom ${out_freq2} dump.water.${pid}
dump            myDump all atom 10000 dump.water.${pid}
dump            myDump all atom 10000 dump.water.0
dump            myDump2 all dcd ${out_freq2} dump.dcd
dump            myDump2 all dcd 10000 dump.dcd
dump_modify     myDump append yes
dump_modify     myDump2 append yes


variable natoms 	equal  "count(all)"                        # NUMBER ATOMS
variable H      	equal  "enthalpy/v_natoms"                 # ENTHALPY-per-atom
variable Vol      	equal  "vol/v_natoms"                 # volume-per-atom
fix AVG all 		ave/time ${out_freq} 1 ${out_freq} v_Vol v_H file vol_enthalpy.dat
fix AVG all 		ave/time 1000 1 ${out_freq} v_Vol v_H file vol_enthalpy.dat
fix AVG all 		ave/time 1000 1 1000 v_Vol v_H file vol_enthalpy.dat


timer           timeout 23:50:00 every 1000
New timer settings: style=normal  mode=nosync  timeout=23:50:00

fix 		1 all shake 1e-6 200 0 b 1 a 1
       0 = # of size 2 clusters
       0 = # of size 3 clusters
       0 = # of size 4 clusters
     288 = # of frozen angles
  find clusters CPU = 0.005 seconds
fix             2 all nph iso ${pressure} ${pressure} ${pressureDamp}
fix             2 all nph iso 2875 ${pressure} ${pressureDamp}
fix             2 all nph iso 2875 2875 ${pressureDamp}
fix             2 all nph iso 2875 2875 1000
fix             3 all temp/csvr ${temperature} ${temperature} ${tempDamp} ${seed}
fix             3 all temp/csvr 243.84 ${temperature} ${tempDamp} ${seed}
fix             3 all temp/csvr 243.84 243.84 ${tempDamp} ${seed}
fix             3 all temp/csvr 243.84 243.84 100 ${seed}
fix             3 all temp/csvr 243.84 243.84 100 745823

run             250000
PPPM initialization ...
  extracting TIP4P info from pair style
  using 12-bit tables for long-range coulomb (../kspace.cpp:340)
  G vector (1/distance) = 0.37326485
  grid = 24 24 25
  stencil order = 5
  estimated absolute RMS force accuracy = 0.0031842444
  estimated relative force accuracy = 9.5892574e-06
  using double precision FFTW3
  3d grid and FFT values/proc = 2730 288
Last active /omp style is kspace_style pppm/tip4p/omp
Neighbor list info ...
  update every 1 steps, delay 7 steps, check yes
  max neighbors/atom: 2000, page size: 100000
  master list distance cutoff = 10.8154
  ghost atom cutoff = 10.8154
  binsize = 5.4077, bins = 4 4 4
  1 neighbor lists, perpetual/occasional/extra = 1 0 0
  (1) pair lj/cut/tip4p/long/omp, perpetual
      attributes: half, newton on, omp
      pair build: half/bin/newton/omp
      stencil: half/bin/3d
      bin: standard
Per MPI rank memory allocation (min/avg/max) = 9.237 | 9.241 | 9.248 Mbytes
Step Temp PotEng TotEng E_pair E_mol Press Lx Ly Lz Volume Pxx Pyy Pzz Pxy Pxz Pyz Enthalpy 
 7500000    253.01018   -3915.0708     -3481.42   -3915.0708            0    1998.9979    17.509917    20.624369    21.362058    7714.5011     2435.412    2582.8359    978.74577   -622.99081   -723.01309     1613.406   -3256.5166 
 7501000    236.80565    -3918.978   -3513.1012    -3918.978            0    2011.9022    17.539157     20.65881     21.39773    7753.2128    915.20404    2964.5027    2155.9998   -1139.4238   -249.72274   -148.81326   -3285.6101 
 7502000    243.53959   -3927.0226   -3509.6041   -3927.0226            0    1021.9653    17.673856    20.817468    21.562063     7933.221    1152.2246    1463.2574    450.41393   -241.44529   -1514.9887    284.37509   -3391.3649 
 7503000    237.83084   -3934.0637   -3526.4298   -3934.0637            0    2851.4317    17.523729    20.640639    21.378909    7732.7721    2903.5061    4078.0833    1572.7057    993.96721   -232.93165     606.0803   -3204.8609 
 7504000    233.79455   -3945.2416   -3544.5257   -3945.2416            0    3291.5057    17.465965    20.572599    21.308436    7656.5536     3673.759    2799.6122    3401.1459    165.65119   -1457.1768   -1056.8871   -3176.9864 
 7505000    244.77889   -3921.1159   -3501.5732   -3921.1159            0    967.61364    17.565338    20.689647    21.429671    7787.9847   -32.403155    777.91295    2157.3311     192.3216   -1030.3078     575.3012   -3391.6719 
 7506000    253.11391   -3947.6449   -3513.8163   -3947.6449            0    1232.8288    17.499408    20.611992    21.349237      7700.62    803.21884    2384.0065    511.26089    987.81008     851.8755    -889.7282   -3375.3627 
 7507000    237.53494   -3904.8729   -3497.7462   -3904.8729            0    2941.0269    17.465547    20.572107    21.307926    7656.0036    2806.5642    3197.7132    2818.8032    525.05105    148.64677    707.06648   -3169.3659 
 7508000     251.1161   -3926.7908   -3496.3864   -3926.7908            0    1309.5275      17.5166    20.632241    21.370211    7723.3381    1718.8013     903.8824    1305.8988    2210.9924   -219.49583   -937.38749   -3348.8852 
 7509000    254.14406   -3919.3507   -3483.7565   -3919.3507            0    2355.4788    17.494133    20.605778    21.342802    7693.6584    1591.7251    3727.5205    1747.1906    667.01574   -84.834892   -1029.6947   -3219.4621 
 7510000    246.28066   -3924.5208   -3502.4042   -3924.5208            0    1098.9933    17.502428    20.615548    21.352921    7704.6069    1878.0909    975.35607    443.53304   -826.41296    1544.4244    68.531306   -3378.9172 
 7511000    252.13637   -3917.3177   -3485.1646   -3917.3177            0    3754.0947    17.441705    20.544024    21.278839    7624.6933    4115.8147    3535.8707    3610.5985     443.3889    300.09282    -499.2021   -3067.7156 
 7512000    244.36468   -3879.0449   -3460.2122   -3879.0449            0    1958.6296    17.516841    20.632525    21.370506    7723.6571     134.1285    4050.3809    1691.3794    115.39498    217.77505    160.72695    -3239.589 
 7513000    253.66585   -3913.1307   -3478.3561   -3913.1307            0    2563.9301    17.454096     20.55862    21.293957    7640.9561    1527.6015    3500.9103    2663.2784   -382.58312   -839.28283    473.28228   -3192.6433 
 7514000    241.09092   -3934.2738   -3521.0522   -3934.2738            0     2057.807    17.531437    20.649717    21.388312    7742.9794    346.28783    4076.6571     1750.476   -1484.7096   -411.99525   -25.660901   -3288.6776 
 7515000    247.95169   -3914.2739   -3489.2932   -3914.2739            0    3006.6999    17.551474    20.673318    21.412757    7769.5586    1975.5255    3124.4468    3920.1276    29.813252    331.10734   -2250.9225   -3148.6009 
 7516000    240.97456   -3915.3906   -3502.3685   -3915.3906            0    2113.9368    17.502978    20.616196    21.353592    7705.3335     943.7676    3513.7756    1884.2672   -380.29485   -1110.7614    543.97823   -3264.8161 
 7517000    235.66087   -3882.1622   -3478.2475   -3882.1622            0    3100.9855     17.49893    20.611428    21.348654    7699.9885    4347.0238    1273.9541    3681.9785    52.159652     829.5192    1057.2468   -3130.0179 
 7518000    234.55818   -3921.2576   -3519.2329   -3921.2576            0    4285.5502    17.454812    20.559462    21.294829    7641.8954    4833.1242     4297.657    3725.8693   -534.58402   -604.69876   -8.4824042   -3041.6118 
 7519000    249.17041   -3936.4312   -3509.3617   -3936.4312            0    1848.1206    17.538113    20.657581    21.396457    7751.8291    1197.3691    2917.6538    1429.3391    246.09212    1867.7271   -517.48969   -3300.4271 
 7520000     245.2802   -3947.2392   -3526.8374   -3947.2392            0    3747.3418    17.496305    20.608336    21.345451    7696.5235    4532.2164       3840.8     2869.009   -358.44944    1246.6954    605.25064   -3106.2136 
 7521000    238.31943   -3919.8663   -3511.3949   -3919.8663            0    2527.6324     17.57806    20.704632    21.445192    7804.9187    883.84647    4729.2428    1969.8079   -135.88432    -508.0827    400.31189   -3223.6828 
 7522000    249.14365   -3910.6501   -3483.6264   -3910.6501            0    1922.7944    17.635939    20.772806    21.515804    7882.2704     2743.826    1231.8444    1792.7128    1192.5388   -667.04816    429.39436   -3262.5919 
 7523000    229.22117   -3926.4537   -3533.5765   -3926.4537            0    3797.5864     17.55062    20.672312    21.411715    7768.4247    2815.3868    4140.3882    4436.9841   -275.59327    1733.8706   -392.80982   -3103.3308 
 7524000    247.41007    -3904.093   -3480.0407    -3904.093            0    2173.4019    17.647262    20.786144    21.529619    7897.4633    1677.6201     2886.193    1956.3928     -846.875    1430.5156    849.88438    -3229.716 
 7525000    247.96858   -3947.4366    -3522.427   -3947.4366            0    1207.8757     17.70594    20.855259    21.601205    7976.5034    1183.4132    966.33223    1473.8817    442.60556    107.24235   -455.55923   -3381.9159 
 7526000    253.72504    -3933.264   -3498.3879    -3933.264            0     3571.071    17.608163     20.74009    21.481918    7845.0869    4157.6921    4461.4551    2094.0657     608.0512    757.66908    982.34299   -3089.8126 
 7527000    244.91531   -3908.7914    -3489.015   -3908.7914            0    2747.2809    17.645275    20.783803    21.527194    7894.7949    3122.8358    2990.3749    2128.6321    1032.6309    198.31987    163.45736   -3172.6999 
 7528000    248.53109   -3956.5126   -3530.5388   -3956.5126            0   -394.62152    17.657261    20.797921    21.541817    7910.8948   -797.83497   -1697.2049    1311.1753   -1322.3335    77.355616    1367.5501   -3576.0672 
 7529000    247.18784    -3971.877   -3548.2055    -3971.877            0    3191.7561     17.49668    20.608778    21.345909    7697.0188    4559.9587    1806.2192    3209.0905    760.66022   -766.77341    54.765006   -3189.9209 
 7530000    256.19433   -3931.9275   -3492.8192   -3931.9275            0    3075.4727    17.541477    20.661543    21.400561    7756.2904    2740.4587    3454.4287    3031.5308   -779.51445   -178.41989   -534.41725   -3144.9293 
 7531000    241.03814   -3902.2087   -3489.0776   -3902.2087            0    4483.4526    17.518943    20.635001     21.37307    7726.4377    3480.0023    4600.8757    5369.4798   -1468.6374    598.36761    395.28436   -2983.8724 
 7532000    233.97471   -3892.0499   -3491.0253   -3892.0499            0    2527.9731    17.621751    20.756095    21.498495    7863.2626    1312.7892    3170.8248    3100.3051   -446.59417   -472.12399   -1132.4341   -3201.1234 
 7533000    244.58761    -3927.714   -3508.4992    -3927.714            0    2731.0989      17.4506    20.554502    21.289691    7636.3652    2612.1721    2873.9566     2707.168    624.84474   -445.17273    -983.3548   -3204.3407 
 7534000    240.99655   -3948.8511   -3535.7913   -3948.8511            0    1648.9263    17.553662    20.675895    21.415426    7772.4649    1546.3813    2114.8187    1285.5789    446.90873    846.66294    876.47075   -3348.8798 
 7535000     231.1423   -3942.2166   -3546.0466   -3942.2166            0    4354.0542    17.511344     20.62605    21.363799    7716.3876    4269.3253    4818.7926    3974.0447    895.06324     152.3322    1171.9997   -3056.0605 
 7536000    251.33353   -3964.8049   -3534.0279   -3964.8049            0    2692.7643    17.532197    20.650613     21.38924    7743.9873    3297.6286    3547.5062     1233.158   -1207.7981   -187.67929    147.87425   -3229.9121 
 7537000    255.92446   -3935.6245   -3496.9788   -3935.6245            0    2933.4005    17.526976    20.644463     21.38287    7737.0714    1902.1916    3719.4683    3178.5417    578.55619    1168.8644     -302.028   -3165.9819 
 7538000    234.28275   -3902.8359   -3501.2833   -3902.8359            0     2105.707     17.54672    20.667718    21.406957    7763.2471      1279.33    2258.9354    2778.8557    1374.3472    493.25395    772.98109   -3262.8772 
 7539000    243.92867   -3917.1599   -3499.0745   -3917.1599            0    5577.5643    17.474512    20.582667    21.318863    7667.7993    5921.6625    4915.6365    5895.3938    6.2120488    944.48706    468.57668   -2875.3523 
 7540000    231.52189   -3915.4116    -3518.591   -3915.4116            0     1648.704    17.511782    20.626566    21.364333    7716.9664    748.88521    1663.2029    2534.0239    1035.2967    36.964385   -1013.0334   -3333.0392 
 7541000    245.66273   -3945.3648   -3524.3073   -3945.3648            0    2303.7269    17.586506    20.714581    21.455496    7816.1747    2245.1425    3509.6068    1156.4315   -547.33412    996.75328    175.34009   -3261.7034 
 7542000     241.1181   -3934.1377   -3520.8695   -3934.1377            0     3129.526     17.57815    20.704738    21.445301    7805.0386    4047.0953    1331.7437    4009.7389    334.65278    189.84519   -743.81115   -3164.6403 
 7543000    252.17981   -3940.2874   -3508.0598   -3940.2874            0    3718.2893     17.45524    20.559967    21.295352    7642.4581    4417.0942    3401.4194    3336.3541   -205.65026    600.33388    -664.2126   -3093.6289 
 7544000    245.19711   -3944.4681   -3524.2086   -3944.4681            0    2474.1221    17.481343    20.590713    21.327198    7676.7957    1550.0769    2469.3128    3402.9768    659.54164    145.33058   -1340.0022   -3247.2104 
 7545000    242.36534   -4006.5769    -3591.171   -4006.5769            0    2503.3155    17.475526    20.583861      21.3201    7669.1341    2235.1813    1894.1184    3380.6468    353.32648    701.29363   -1070.5967    -3311.184 
 7546000    255.10123   -3966.4258    -3529.191   -3966.4258            0     4744.898    17.490081    20.601005    21.337858     7688.313    5467.6845    4263.9556     4503.054    609.52969   -459.22352   -1048.2581   -2997.1638 
 7547000    242.94931   -3978.5443   -3562.1375   -3978.5443            0    2097.8867    17.469782    20.577096    21.313093    7661.5751     2273.503     2419.918    1600.2391    630.01337    1111.8499    99.310139   -3327.7276 
 7548000    240.90359   -3948.3234   -3535.4229   -3948.3234            0    4911.3161    17.458212    20.563468    21.298978    7646.3626    4823.0855    5546.7228    4364.1401   -428.88598    1143.7875    737.16307   -2987.7406 
 7549000    245.83827   -3943.6641   -3522.3058   -3943.6641            0    3129.1207    17.486359    20.596621    21.333317    7683.4051    2245.3191    3463.5375    3678.5053    2142.3608    2264.1334    -766.1965   -3171.6734 
 7550000    250.45454   -3980.4915    -3551.221   -3980.4915            0    2318.5244    17.524517    20.641566     21.37987    7733.8148    2413.3594     1506.411    3035.8028   -1189.4508    129.36677    46.902098   -3289.7152 
 7551000    256.24639   -3954.2094   -3515.0119   -3954.2094            0    3536.2755    17.490739     20.60178     21.33866    7689.1803     4218.398    2466.9099    3923.5186    472.49769   -771.49606    372.94474   -3118.4581 
 7552000    240.91715   -3963.9961   -3551.0723   -3963.9961            0    2566.8928     17.50222    20.615304    21.352668    7704.3329    2119.7961    3735.9235    1844.9588    482.94331   -580.80919    2417.8058   -3262.6568 
 7553000    234.61919   -3964.4218   -3562.2925   -3964.4218            0    2996.0507    17.534177    20.652945    21.391655    7746.6112    1719.9965    3774.0532    3494.1025    331.15942    178.55314    209.08893   -3223.8096 
 7554000    246.03844   -3948.5188   -3526.8173   -3948.5188            0    2154.8474    17.522257    20.638904    21.377112    7730.8227    3658.9241    1.6408781    2803.9773   -1656.8326    -864.9705   -710.23523   -3283.8667 
 7555000    253.45126   -3973.4286   -3539.0218   -3973.4286            0    4632.2596    17.499215    20.611764    21.349001    7700.3646    4600.9248    5498.7977    3797.0562    47.261298    267.22597    -443.4329   -3018.8102 
 7556000    247.84324   -3917.0497   -3492.2549   -3917.0497            0    2271.5235    17.522147    20.638774    21.376978     7730.677    3021.5811    1712.2014     2080.788   -523.74323     1365.207   -1542.0229   -3236.1543 
 7557000    248.01567   -3965.9298   -3540.8395   -3965.9298            0    2938.6947    17.602395    20.733296     21.47488     7837.379    3754.6632    2519.1388     2542.282    1413.6658   -154.10736    1185.4027   -3204.9463 
 7558000    237.30121   -3948.1969   -3541.4707   -3948.1969            0    2782.7847    17.571191    20.696542    21.436812    7795.7736    2779.0429    4360.6262     1208.685    1332.9779    535.92731   -190.17578   -3225.0866 
 7559000    241.34787   -3963.9027   -3550.2407   -3963.9027            0    4009.9584    17.509296    20.623638    21.361301    7713.6808    2839.3256    3235.5142    5955.0354   -326.06362   -56.584532   -1246.1912   -3099.1359 
 7560000    229.48294   -3960.1651   -3566.8392   -3960.1651            0    2499.9282    17.501032    20.613904    21.351218    7702.7638    2918.7459    2279.2029    2301.8358   -1259.7948    280.94476    850.10558    -3286.005 
 7561000    242.81704   -3954.8934   -3538.7133   -3954.8934            0    878.40855    17.625422    20.760419    21.502974    7868.1782   -116.79775     1927.342    824.68137    388.31432   -65.928288    546.85548   -3437.9165 
 7562000    255.75717   -3975.3815   -3537.0225   -3975.3815            0    2648.7961    17.609398    20.741545    21.483425    7846.7375     2364.934    2644.2037    2937.2505    -366.0349    1871.8988   -506.42213   -3233.9032 
 7563000    254.01512   -3952.8844   -3517.5112   -3952.8844            0    2862.5354    17.568906    20.693851    21.434025    7792.7325    3279.7549    3984.2849    1323.5664    436.01354    641.98255    691.41026   -3192.1869 
 7564000    237.85128   -3958.8573   -3551.1884   -3958.8573            0    761.20264    17.610348    20.742664    21.484584    7848.0079    310.61919    875.14234    1097.8464    1533.8052   -389.40111   -640.70689   -3464.0648 
 7565000    231.93696   -3967.2794   -3569.7474   -3967.2794            0    1964.7139    17.524082    20.641053    21.379339    7733.2382    2380.9737    750.29368    2762.8742    524.64358    660.91772   -92.682825   -3348.1643 
 7566000    246.68739   -3922.7532   -3499.9394   -3922.7532            0    1866.9926    17.662604    20.804214    21.548335    7918.0776    1483.2548    2339.0566    1778.6663    1167.2232    668.87538    592.97905   -3284.3446 
 7567000     240.6608   -3969.5362   -3557.0518   -3969.5362            0    3822.8721    17.492467    20.603816    21.340769      7691.46    4670.4594    3031.7209    3766.4359   -826.77093    605.22001    -1255.104   -3128.2324 
 7568000    243.65036   -3980.0192   -3562.4108   -3980.0192            0    2701.5898    17.595349    20.724997    21.466285     7827.972    2415.6805    837.67862    4851.4104    292.06542   -445.53819     819.1353   -3253.9894 
 7569000    239.00772   -3984.3201    -3574.669   -3984.3201            0    3427.3714    17.584362    20.712056    21.452881    7813.3172    3191.3616    2740.8545    4349.8981    399.40865    988.18995   -1108.3881   -3184.1227 
 7570000    249.18142   -3958.1652   -3531.0768   -3958.1652            0    1228.0804    17.618021    20.751702    21.493945    7858.2706    2049.7001    434.39891    1200.1423   -578.52801   -51.519087    1446.1726   -3390.3328 
 7571000    241.34901   -3956.1643   -3542.5003   -3956.1643            0    3900.7764    17.593709    20.723065    21.464284     7825.783    4462.5918    2404.8971    4834.8403    282.07766    200.69055    1444.8475   -3097.3008 
 7572000    260.47829   -3933.3033   -3486.8524   -3933.3033            0    3194.8656    17.598443    20.728641    21.470059    7832.1013     3051.094    675.74543    5857.7575   -268.14432    257.29235    354.47445   -3121.9247 
 7573000    229.06764   -3976.8209   -3584.2068   -3976.8209            0    4675.1456    17.572823    20.698464    21.438803    7797.9449    3706.6408    3090.2542    7228.5418   -538.88514    2287.0607    1161.4237   -3052.5257 
 7574000    252.89429   -3981.6433   -3548.1911   -3981.6433            0    2745.6478    17.516011    20.631547    21.369492    7722.5584    2977.0966    1162.4502    4097.3966   -828.85821   -1237.1915    1125.1114   -3238.9609 
 7575000     248.8023   -3974.8301   -3548.3915   -3974.8301            0     2051.139    17.657999     20.79879    21.542717     7911.886    1577.5235     1321.287    3254.6065   -505.45089    1515.1766    91.397154   -3311.7173 
 7576000    240.98015   -3953.9937   -3540.9619   -3953.9937            0     3494.039    17.514345    20.629585     21.36746    7720.3549    4306.2359    3057.1714    3118.7098   -171.23828    103.43683   -106.45123    -3147.556 
 7577000    235.69131   -3932.3528    -3528.386   -3932.3528            0    2485.7743    17.475974    20.584389    21.320647    7669.7243    3262.0778    1204.0551    2991.1902    277.74554   -1170.4491    884.89858   -3250.3395 
 7578000    262.21366   -3919.7044   -3470.2791   -3919.7044            0    2932.9785    17.436318    20.537679    21.272267    7617.6305    2618.4465    3735.4118    2445.0773   -1262.6152    619.95596   -70.988211   -3144.4389 
 7579000     245.5099   -3965.8095    -3545.014   -3965.8095            0    3044.2676    17.477114    20.585732    21.322038    7671.2253    2159.4542    4060.0933    2913.2553   -607.92014    403.75274    430.88813   -3204.4306 
 7580000    249.89575   -3915.7742   -3487.4614   -3915.7742            0    3366.9171    17.506519    20.620367    21.357912    7710.0109    4139.1586     2775.392    3186.2006    -588.8822    336.78165   -436.90882   -3108.8765 
 7581000    250.34094   -3949.3441   -3520.2683   -3949.3441            0    3150.7452    17.451474    20.555531    21.290758    7637.5126    3241.9978    3210.0162    3000.2216   -770.40438   -193.56113   -631.77357   -3169.3217 
 7582000    246.00297   -3975.5843   -3553.9436   -3975.5843            0    3834.8713    17.541406    20.661459    21.400474    7756.1959    2540.6067    4996.6382    3967.3689    953.62579   -121.69316   -169.28567   -3120.1577 
 7583000    241.36563   -3965.7972   -3552.1048   -3965.7972            0    3263.2798    17.520305    20.636605    21.374731    7728.2396    2710.2408    3094.4289    3985.1697    960.85982     325.9691   -26.876234   -3184.3056 
 7584000    248.86907   -3910.4844   -3483.9313   -3910.4844            0     3484.933    17.446921    20.550168    21.285202    7631.5357    4620.6529    2333.2086    3500.9375   -58.755292   -341.38183   -586.78635   -3096.0648 
 7585000    251.74539   -3947.4403   -3515.9573   -3947.4403            0      4921.57    17.457027    20.562072    21.297532    7644.8058    4054.2353    4470.6686    6239.8062    244.34715   -611.14086   -1143.5507   -2967.2433 
 7586000    241.55416   -3925.3922   -3511.3767   -3925.3922            0    4615.9092     17.53704    20.656317    21.395148    7750.4064    3645.4963    3624.8861    6577.3452    707.67978     1253.649    106.24884   -2989.6325 
 7587000    243.05989    -3951.157   -3534.5607    -3951.157            0    3518.6966    17.524818    20.641921    21.380237    7734.2131    2866.6151    3129.7916    4559.6831   -1951.7364    271.09327   -2092.9876   -3137.6673 
 7588000    253.06804   -3901.1267   -3467.3768   -3901.1267            0    4161.0157    17.491106    20.602212    21.339108    7689.6641    4879.5896    2718.3282    4885.1293   -427.75484    884.94489   -86.480093   -3000.7361 
 7589000    227.55883   -3899.5429   -3509.5149   -3899.5429            0    2832.5592    17.475229    20.583511    21.319738    7668.7432    1771.6435    2318.9272    4407.1068   -768.29897   -96.672591   -13.279506   -3192.7193 
 7590000    246.89163   -3931.9505   -3508.7867   -3931.9505            0    2949.9788    17.472022    20.579734    21.315826    7664.5228     4270.669    3807.3582    771.90915   -390.25508    14.220035    145.74735   -3179.0404 
 7591000    233.62823   -3942.7408     -3542.31   -3942.7408            0    3229.9568     17.50767    20.621723    21.359316    7711.5316     2475.722    4226.5953     2987.553   -1225.9574     841.4837   -390.63157   -3179.0536 
 7592000    251.28681   -3945.9919   -3515.2949   -3945.9919            0    4406.0417    17.483413    20.593151    21.329723    7679.5227    4152.1652      3549.12      5516.84   -822.84845    743.30494    121.91326   -3021.8272 
 7593000    235.91858   -3946.4041   -3542.0477   -3946.4041            0    3179.5587    17.506769    20.620661    21.358217    7710.3405    3191.0002    2801.9341    3545.7419   -574.54617    330.48473    675.50766   -3184.5145 
 7594000    245.21541   -3958.1947   -3537.9039   -3958.1947            0    3421.8633     17.51794    20.633819    21.371845    7725.1097    4574.7328    2727.9286    2962.9286    339.86512   -438.46412    181.79066   -3152.3872 
 7595000    245.36353   -3976.0511   -3555.5064   -3976.0511            0       2749.1    17.524695    20.641776    21.380087    7734.0501    983.38598    2075.7734    5188.1408   -204.38328    408.74862    325.15483   -3245.4266 
 7596000    253.14566   -3952.2067   -3518.3237   -3952.2067            0    3143.5791    17.469172    20.576377    21.312349     7660.772    4608.0832    2158.0774    2664.5768    258.48389    1381.8959    987.14106   -3167.1089 
 7597000    248.30107   -3958.1428   -3532.5632   -3958.1428            0    866.04149    17.563695    20.687713    21.427667    7785.7999    317.88096    1335.1935    945.05002    739.19048   -340.98874    -503.3408    -3434.226 
 7598000    237.18205    -3964.833   -3558.3111    -3964.833            0    4164.8127    17.488179    20.598765    21.335538    7685.8056    4638.1822    3238.2712    4617.9848   -216.09601   -177.63815   -1445.2235   -3091.4789 
 7599000     242.7068   -3938.2265   -3522.2353   -3938.2265            0    2390.3526    17.521852    20.638428    21.376619    7730.2873    1987.6471    3504.2775    1679.1334    289.79543    693.97771    613.81573    -3252.751 
 7600000    231.53163   -3950.5935   -3553.7562   -3950.5935            0    2722.8171    17.486125    20.596345    21.333032     7683.097    2982.8324    2147.6987    3037.9203    41.950031   -294.56304   -153.80376   -3248.6643 
 7601000    234.36866   -3972.1108   -3570.4109   -3972.1108            0     2687.948    17.469854     20.57718    21.313181    7661.6696    2911.6205    3949.4386    1202.7849    539.65365    1235.4351      425.616   -3270.0661 
 7602000     248.2407   -3956.9574   -3531.4813   -3956.9574            0    3354.5788    17.454898    20.559564    21.294935    7642.0089     1698.692    3651.2041    4713.8405   -827.37638    744.64984   -1035.2241   -3157.6106 
 7603000    257.34794   -3961.1474   -3520.0618   -3961.1474            0    1719.9704    17.523975    20.640928    21.379209    7733.0977    508.96702     2758.243    1892.7013    17.638894    452.45038   -968.82725   -3326.0848 
 7604000    246.03955   -3963.5847   -3541.8813   -3963.5847            0    3181.6184    17.483663    20.593445    21.330028     7679.852    3005.9639    3079.8721    3459.0193    1578.4162    2192.1065    56.055962   -3185.5312 
 7605000    250.99372   -3953.4306    -3523.236   -3953.4306            0    1981.3356    17.442787    20.545299    21.280159    7626.1124     1978.038    1807.7577    2158.2112    468.33272    436.09049    17.983273   -3302.8738 
 7606000    233.82396     -3962.96   -3562.1938     -3962.96            0    3441.6871    17.367604    20.456744    21.188436    7527.9256     2268.471    3120.5521    4936.0382    451.94405    1540.0044    -328.1194    -3184.341 
 7607000    237.09887   -3960.9199   -3554.5406   -3960.9199            0    2968.5961    17.439963    20.541972    21.276714    7622.4088    3176.1273    1428.9576    4300.7034   -203.75916   -755.61279   -1064.3005   -3224.5365 
 7608000    247.37432   -3966.7984   -3542.8073   -3966.7984            0    2896.7818    17.393042    20.486706     21.21947    7561.0515    2889.7981    2026.9158    3773.6315    846.47362   -89.009632    1091.2523   -3223.3787 
 7609000     242.1057   -3983.1161   -3568.1552   -3983.1161            0    2444.1973    17.463702    20.569934    21.305676    7653.5784    1308.3475    2480.7944    3543.4499   -176.28139    1083.9214    138.07637   -3295.3349 
 7610000    233.48646   -3955.3263   -3555.1385   -3955.3263            0    666.86028    17.560491    20.683939    21.423758    7781.5404   -65.572848    2170.1836    -104.0299    767.60062   -175.53334   -36.526768   -3479.4593 
 7611000    247.40872   -3963.9056   -3539.8555   -3963.9056            0    1223.6071     17.55975    20.683066    21.422854    7780.5551    2648.9683   -1132.4937    2154.3469    126.99269    156.63105    616.59364   -3401.0111 
 7612000    241.80945    -3942.042   -3527.5889    -3942.042            0     1555.328    17.479266    20.588266    21.324663    7674.0591    2060.9407    1971.1169    633.92634    239.09501    341.45286   -896.24107   -3353.5192 
 7613000    244.54693   -3964.3038   -3545.1587   -3964.3038            0    2578.3936     17.55717    20.680027    21.419706     7777.126    3834.9779    2335.5323    1564.6707    313.20751   -504.41946   -909.60155   -3252.7137 
 7614000    261.29532   -3946.3001   -3498.4488   -3946.3001            0    2785.3071    17.509839    20.624278    21.361963    7714.3986    3194.4215    2611.0722    2550.4277     539.9164    1135.0645   -469.01645   -3185.0834 
 7615000    247.54658   -3931.6458   -3507.3595   -3931.6458            0    2752.7514    17.476224    20.584683    21.320952    7670.0536    2711.7381    726.92455    4819.5915   -43.585884   -1298.5389    455.30578   -3199.4371 
 7616000    235.78996   -3966.6215   -3562.4856   -3966.6215            0    2479.2369    17.487759     20.59827    21.335025    7685.2516    3409.2814    2215.7991    1812.6301   -535.22689   -623.51751    55.947338   -3284.6089 
 7617000    227.51992   -3970.0661   -3580.1048   -3970.0661            0    3622.8502    17.420239     20.51874     21.25265     7596.576    3024.2567    4757.6036    3086.6903   -234.58911   -432.00732    507.62909   -3178.7355 
 7618000    240.52774   -3980.2585   -3568.0022   -3980.2585            0    4055.2182    17.426427    20.526029      21.2602    7604.6747    3870.1913    4459.5346    3835.9287    759.39513   -207.61953    991.53742   -3118.2526 
 7619000    241.13211   -3961.7018   -3548.4097   -3961.7018            0    2815.4102     17.51402    20.629202    21.367064    7719.9259    3144.0758    2104.5421    3197.6126     87.56807    143.92797   -1854.2713   -3231.4305 
 7620000      239.643   -3954.5551   -3543.8152   -3954.5551            0    3527.0909     17.39425    20.488129    21.220945    7562.6277    2277.3685    4533.1854    3770.7187   -1015.2926    -106.0929   -2237.5278   -3154.8012 
 7621000    235.55084   -3947.7682   -3544.0421   -3947.7682            0    2910.5484    17.451343    20.555376    21.290597    7637.3399    2925.1706    718.45203    5088.0227   -639.90337   -698.10326   -1299.7467   -3219.8571 
 7622000    246.59625   -3935.7957   -3513.1382   -3935.7957            0    3947.9714     17.47004    20.577399    21.313408    7661.9139    4092.1591    1712.0382     6039.717    555.85688   -714.85255    571.99931   -3071.9873 
 7623000    234.31617   -3967.5057   -3565.8958   -3967.5057            0    3087.9576    17.432866    20.533614    21.268056    7613.1076    4036.4912    2571.9904    2655.3912    31.524092   -118.10997   -405.96931   -3223.0418 
 7624000    241.79106   -3930.3538   -3515.9322   -3930.3538            0    2599.4811     17.51531    20.630721    21.368637    7721.6309    2951.5133    2213.2728    2633.6571   -379.56497   -1316.2314   -1623.7138   -3223.1993 
 7625000    259.93508   -3947.4657   -3501.9459   -3947.4657            0    2648.3045    17.517199    20.632947    21.370942    7724.1301    749.08267    3314.1077    3881.7231   -1265.2062    -607.3054   -17.753342   -3203.6183 
 7626000    242.77712   -3963.4061   -3547.2944   -3963.4061            0    2747.5023    17.602565    20.733496    21.475088    7837.6063    1263.9588    3576.5507    3401.9974   -647.17235    194.00596   -631.57862   -3233.2454 
 7627000     250.4294   -3967.4651   -3538.2377   -3967.4651            0    3225.7358    17.527597    20.645194    21.383628    7737.8936    4039.4852    2099.4839    3538.2383   -213.23433   -415.91482   -739.56703   -3174.2158 
 7628000    242.92449   -3946.8584   -3530.4941   -3946.8584            0    3582.4428    17.467357    20.574239    21.310135    7658.3848    3377.1058     3715.946    3654.2768    468.99418    -654.6712    588.88831   -3130.3722 
 7629000    243.48126   -3924.6395   -3507.3209   -3924.6395            0    2161.0759    17.516761    20.632431    21.370408    7723.5508    2355.3873    2165.3461    1962.4942    1396.1018    74.861467    416.94149   -3263.8972 
 7630000    241.57054   -3968.4876    -3554.444   -3968.4876            0    4382.2246    17.435424    20.536627    21.271177    7616.4596    4780.2206    4605.6541     3760.799   -239.24113    1000.5161    1747.5034   -3067.6741 
 7631000     237.3046   -3966.5042   -3559.7722   -3966.5042            0    3844.5845    17.465729    20.572322    21.308148    7656.2435    3919.2979    2775.2139    4839.2418    362.01195     230.9379    600.89141   -3130.4918 
 7632000    251.26574   -3928.5506   -3497.8897   -3928.5506            0    2614.3356    17.508229    20.622381    21.359998      7712.27    2881.0031    2884.5043    2077.4993   -558.08066   -45.621292    854.00795   -3203.8409 
 7633000    246.44593   -3967.4066   -3545.0067   -3967.4066            0    1897.0134    17.528901     20.64673    21.385218    7739.6204    2388.1654    2600.1631    702.71178   -359.33567   -413.01588   -450.97768   -3330.8824 
 7634000    241.89514   -3986.7251   -3572.1251   -3986.7251            0    2142.5604    17.473757    20.581778    21.317943    7666.8059    2164.1449    2034.8561    2228.6801    104.02126    180.06704   -766.79057     -3332.56 
 7635000    224.62035   -3964.1855    -3579.194   -3964.1855            0    149.37375    17.523815    20.640739    21.379013     7732.885    1097.6695    121.95909    -771.5073    -646.2189    683.73721   -387.89731   -3562.3482 
 7636000    236.86151   -3930.7523   -3524.7797   -3930.7523            0    2320.2217    17.478121    20.586918    21.323267    7672.5522    2608.8904    2237.6657     2114.109   -799.46717   -26.922104   -210.98932   -3265.1555 
 7637000    245.00169   -3966.2712   -3546.3467   -3966.2712            0    3264.1137    17.460732    20.566436    21.302052    7649.6738    3474.0837    3301.6104    3016.6468    358.03469   -1315.1743     1118.083   -3182.1936 
 7638000    245.18657    -3949.824   -3529.5826    -3949.824            0    3364.9768    17.408162    20.504515    21.237917    7580.7879     4608.352    4491.8915     994.6869    298.05581     205.1471   -278.21733   -3157.5574 
 7639000    228.25381   -3973.5365   -3582.3172   -3973.5365            0    3118.7712    17.442914    20.545449    21.280314    7626.2792     3032.908    3339.4261    2983.9795    189.91859   -1472.8043   -904.89931    -3235.443 
 7640000     235.5982   -3925.8816   -3522.0743   -3925.8816            0      1573.01    17.553578    20.675796    21.415324    7772.3532     2811.133    101.27217    1806.6249    83.120987   -551.20192    290.81275   -3343.7708 
 7641000    237.34623   -3945.3171   -3538.5137   -3945.3171            0    590.49117    17.581919    20.709179    21.449901    7810.0613    1599.2562    486.76154   -314.54419    166.18032   -30.615592    340.08558   -3471.2558 
 7642000    238.27098   -3945.2575   -3536.8692   -3945.2575            0    2635.2705    17.523918    20.640861    21.379139    7733.0218    2762.0204    2820.1395    2323.6518   -2113.2805    1315.3598    465.26059   -3239.6682 
 7643000    247.96897   -3953.5352   -3528.5248   -3953.5352            0    1082.5295    17.582882    20.710313    21.451075    7811.3447    1047.1289    133.28035    2067.1792    33.288084    695.30345    467.22259   -3405.2026 
 7644000    238.03304   -3926.5861   -3518.6056   -3926.5861            0     2709.257    17.577399    20.703855    21.444386    7804.0393    3042.4348    2593.1541    2492.1821   -992.73677   -221.95946    745.40836   -3210.2545 
 7645000    237.96401    -3912.975   -3505.1128    -3912.975            0    3281.3266    17.557199    20.680061    21.419741    7777.1641    3664.7411    3252.1642    2927.0746   -618.95029     -904.539   -886.08652   -3132.9383 
 7646000    235.45349   -3914.8584   -3511.2992   -3914.8584            0    3133.9662     17.49059    20.601604    21.338478    7688.9836     3254.309    4104.9555    2042.6342   -885.35996    641.47928    6.1619926   -3159.8689 
 7647000    236.49709   -3941.9403   -3536.5924   -3941.9403            0    3197.1239    17.505776    20.619491    21.357005    7709.0288    4385.7687    2221.8786    2983.7244   -302.48581   -894.75208    516.33458   -3177.1453 
 7648000    240.19542   -3953.4426   -3541.7559   -3953.4426            0    1960.0253     17.57926    20.706047    21.446657    7806.5185    2505.0344    1953.4973    1421.5444    623.48207    779.64584    976.56667   -3318.6068 
 7649000    245.34912   -3911.1704   -3490.6505   -3911.1704            0    1996.7122    17.537069     20.65635    21.395183    7750.4442    2296.2557    911.10899     2782.772    499.77229    673.85061   -549.92384   -3264.9575 
 7650000    227.69408   -3929.6054   -3539.3456   -3929.6054            0    3151.5775    17.581047    20.708151    21.448836    7808.8984    3299.1333    3838.5386    2317.0605    1373.7416   -962.95291    155.59302   -3180.4289 
 7651000    244.48977   -3913.9149   -3494.8678   -3913.9149            0    1994.7748    17.601458    20.732192    21.473738    7836.1279    3662.6819    1659.0347    662.60772    247.05208    608.89715    278.03863   -3266.9012 
 7652000    234.08241   -3961.8345   -3560.6253   -3961.8345            0    2645.6973    17.547354    20.668466    21.407731    7764.0896    3188.2108    2531.2866    2217.5945   -393.18294     764.3107   -446.58914   -3261.0496 
 7653000    240.27154   -3926.0594   -3514.2422   -3926.0594            0    2823.1101    17.567986    20.692767    21.432902     7791.508    2754.3266    2626.5424    3088.4614    821.68638    123.48784    91.246346   -3193.4489 
 7654000    233.89151   -3962.5466   -3561.6646   -3962.5466            0    2587.9798    17.525284     20.64247    21.380806    7734.8304     3822.421    1864.4977    2077.0205    327.65631   -1243.3847    577.22034   -3269.7287 
 7655000    238.18456   -3954.7996   -3546.5594   -3954.7996            0    4703.1911    17.542859     20.66317    21.402246    7758.1232    6440.9618    4581.9397    3086.6717   -861.92851    -287.0376    599.61321   -3014.4203 
 7656000    231.60987   -3978.1377   -3581.1663   -3978.1377            0    3476.9199    17.491864    20.603105    21.340033    7690.6645    3089.4355    4284.3982    3056.9259    554.27855    51.259494   -452.40697   -3191.1934 
 7657000    239.94876   -3962.8302   -3551.5663   -3962.8302            0    3150.3866    17.507983    20.622091    21.359698    7711.9449    4297.4136     3421.111    1732.6353   -671.62017    1022.0081   -59.080985   -3197.2397 
 7658000    244.76336   -3973.2317   -3553.7157   -3973.2317            0     3336.284    17.495587     20.60749    21.344575    7695.5756    3485.2446    3109.2596    3414.3479   -365.99682   -1018.9952    6.3921607   -3179.2776 
 7659000    240.54433   -3973.0605   -3560.7757   -3973.0605            0    3199.7631    17.511247    20.625936    21.363681    7716.2596    4197.2311    2976.1442    2425.9141    1622.5861   -431.13478   -525.33783   -3200.6945 
 7660000    247.79042   -3935.3229   -3510.6186   -3935.3229            0    2582.0898    17.495617    20.607526    21.344612     7695.616     4720.451    998.49152    2027.3268    815.58372    746.24309   -795.14538   -3220.8237 
 7661000    221.49637   -3954.1618   -3574.5246   -3954.1618            0    2411.8124    17.576937     20.70331    21.443822    7803.4238    2518.5673    1807.4238     2909.446   -1283.6992    140.64225    349.64881   -3300.0485 
 7662000    244.98875   -3969.3595   -3549.4572   -3969.3595            0    2190.9755    17.535114    20.654048    21.392798    7747.8527     1873.496    3482.6339    1216.7967    1063.9042    437.40961    -550.8161    -3301.889 
 7663000     244.2788   -3951.4624   -3532.7769   -3951.4624            0    2071.2151    17.508154    20.622292    21.359906    7712.1706    2127.9963    2298.0353    1787.6138   -800.07092    34.900088    1687.4584   -3299.8189 
 7664000    243.15255   -3962.6228   -3545.8677   -3962.6228            0    5639.9956    17.413399    20.510684    21.244306    7587.6315    5748.2593    5795.5384    5376.1893   -1754.3774    93.019778   -988.66106   -2921.7581 
 7665000    235.78862   -3941.7495   -3537.6159   -3941.7495            0    2681.8042    17.519146     20.63524    21.373318    7726.7066    3008.5257    1986.0114    3050.8756   -308.85493   -704.55634    1079.6873   -3235.4138 
 7666000     245.9948   -3905.7734   -3484.1468   -3905.7734            0    3689.3108    17.410061    20.506752    21.240234    7583.2689    3600.1575    5860.6864    1607.0885    134.05199   -1256.4445   -359.05997   -3076.1304 
 7667000    241.54905   -3935.6694   -3521.6626   -3935.6694            0    3351.3363    17.445958    20.549034    21.284028    7630.2728    2585.1808    4412.9232    3055.9047   -485.70965    63.130398    544.42385   -3148.7269 
 7668000     248.8977   -3907.4689   -3480.8667   -3907.4689            0    3483.8917    17.520451    20.636777    21.374909    7728.4329     4870.123    636.45302     4945.099   -682.79311    664.19705    124.77058   -3088.1929 
 7669000    256.78083   -3928.1296    -3488.016   -3928.1296            0    1463.2763    17.567028    20.691638    21.431733    7790.2327    3231.3898    370.60975    787.82946   -1549.5503    574.99106    12.941241   -3321.7695 
 7670000     252.7649   -3929.2716   -3496.0412   -3929.2716            0    3189.5852    17.502362    20.615471    21.352841    7704.5199    3953.6853    2550.5659    3064.5045    883.81719    322.40167    353.33568   -3137.6514 
 7671000    232.37942   -3907.5669   -3509.2765   -3907.5669            0    1923.7584    17.604236    20.735465    21.477127    7839.8392    823.97061     3240.089    1707.2157    614.68666    743.10761    155.99651   -3289.3216 
 7672000    251.79048   -3952.1054   -3520.5451   -3952.1054            0    1286.0637    17.669223    20.812011    21.556411    7926.9838      1590.46   -176.59833    2444.3292   -54.166148    1002.0305    899.62192   -3371.8673 
 7673000     239.3525   -3950.3254   -3540.0835   -3950.3254            0     2143.818    17.611124    20.743578     21.48553    7849.0446    1843.1187    849.96188    3738.3735     252.3932   -396.76138   -156.99523     -3294.68 
 7674000    245.80897   -3961.5822    -3540.274   -3961.5822            0     2818.765    17.534181    20.652949     21.39166    7746.6166    2965.8341    1366.3017    4124.1592   -1302.9718    272.05991    492.73179   -3221.8199 
 7675000    246.16564   -3924.8242   -3502.9047   -3924.8242            0    2828.8227    17.474272    20.582385    21.318571    7667.4842    2465.9173    3228.2838    2792.2671    280.42022   -914.65014    796.21357    -3186.579 
 7676000    243.77642   -3953.8449   -3536.0205   -3953.8449            0    2385.6803    17.490923    20.601997    21.338885    7689.4237    2667.9557    2029.8981    2459.1871    948.53335    195.26024    382.48043   -3268.4847 
 7677000    247.20453   -3926.5154   -3502.8153   -3926.5154            0    2802.8874     17.51787    20.633737     21.37176    7725.0176    2208.4037    3836.2376    2364.0209     1546.997   -514.48711    410.29515    -3187.038 
 7678000    233.29761   -3918.5963   -3518.7322   -3918.5963            0     3162.803    17.560668    20.684147    21.423974     7781.775    2654.0274     3200.668    3633.7135    303.17882   -261.22006    552.61546   -3159.7882 
 7679000    240.40846    -3929.218   -3517.1661    -3929.218            0    3901.0317    17.568202    20.693021    21.433165    7791.7949    3184.7076    4772.1865    3746.2012    346.00575   -411.43801    1186.8426   -3073.8711 
 7680000    241.05667   -3942.8214   -3529.6585   -3942.8214            0    1839.0843    17.541048    20.661038    21.400038    7755.7215    661.18304    2187.2573    2668.8127    557.76268    194.99404   -561.93398   -3321.6411 
 7681000    247.63013   -3937.4305   -3513.0009   -3937.4305            0    4651.9779    17.510268    20.624782    21.362485    7714.9645    5644.9052    3202.0888    5108.9398    -348.6951   -598.07777    501.13712   -2989.5843 
 7682000    249.17375    -3922.631   -3495.5557    -3922.631            0    3449.7603    17.503756    20.617112    21.354541    7706.3605    2723.7335    4074.7824    3550.7648    613.79875   -915.62299    817.65848   -3107.8393 
 7683000    230.99202   -3939.3102   -3543.3978   -3939.3102            0    2334.5129    17.616159    20.749508    21.491673     7855.779    4870.9903    1859.0254    273.52301   -1145.7206   -389.13558    670.81867   -3275.9362 
 7684000    241.36576   -3949.9701   -3536.2775   -3949.9701            0    3022.7483    17.462091    20.568036     21.30371      7651.46    3613.5047    4097.6158    1357.1245   -1049.4928   -500.30031    -82.51682   -3198.9729 
 7685000    239.18108   -3895.3876   -3485.4394   -3895.3876            0     3800.935    17.514303    20.629535    21.367409    7720.2997    5557.8488    2645.0989    3199.8572    299.42615    124.49935    355.28106   -3057.4821 
 7686000    243.07472    -3902.449   -3485.8272    -3902.449            0    2394.8874    17.573287     20.69901    21.439369    7798.5626    2659.0111    1415.0875    3110.5636   -605.17551   -80.632845   -754.53273    -3213.447 
 7687000    242.78311   -3952.9493   -3536.8274   -3952.9493            0    2110.4906    17.575678    20.701827    21.442286    7801.7463    3518.2007    2446.9181    366.35306   -341.47048    154.07652   -644.79925   -3296.6947 
 7688000    254.63645   -3920.2421   -3483.8039   -3920.2421            0    2487.2678    17.613041    20.745836    21.487869    7851.6082    3450.6211    1871.8841    2139.2982    -380.4201    896.56547   -1912.8633   -3198.9927 
 7689000     225.3275    -3912.033   -3525.8294    -3912.033            0    1926.8695    17.600164    20.730669    21.472159    7834.4003    658.07258    2094.7117    3027.8242    28.915566    862.69676     -1338.42   -3305.6716 
 7690000    252.96812   -3884.3635   -3450.7848   -3884.3635            0    3539.2029    17.748671     20.90559    21.653337    8034.3939    3038.0837    4040.5533    3538.9717   -341.11818   -1765.7288   -1209.3497   -3036.0844 
 7691000    241.54267   -3911.1924   -3497.1966   -3911.1924            0    1503.2954    17.706144    20.855499    21.601455    7976.7795    912.31239    816.85775    2780.7159   -410.34238    1445.9449    753.15472   -3322.3135 
 7692000    241.79125    -3909.383   -3494.9611    -3909.383            0    3696.9505    17.556829    20.679625     21.41929    7776.6728    2581.5224    4208.0179    4301.3113   -767.79265    1818.1332    200.73443   -3075.6722 
 7693000    240.62428   -3921.5944   -3509.1726   -3921.5944            0    3611.6739    17.568294     20.69313    21.433278    7791.9183    3574.3004    3493.7659    3766.9553   -468.39914    87.671916    12.587425   -3098.7523 
 7694000    253.76817    -3913.919   -3478.9691    -3913.919            0    3527.5761    17.510645    20.625227    21.362946    7715.4637     2878.791    3256.7719    4447.1655   -138.95239    122.27177      1081.12   -3082.0387 
 7695000    245.80135   -3904.1732   -3482.8781   -3904.1732            0    2522.2709    17.536696    20.655911    21.394728    7749.9497    2765.3099    2151.1934    2650.3095    423.89995    1206.7322   -1051.7907   -3197.7983 
 7696000    241.84101   -3902.8264   -3488.3192   -3902.8264            0    2078.6015    17.508952    20.623233    21.360881    7713.2259    1774.1764    2684.6123    1777.0158    828.81956    547.05543   -183.13863   -3254.4984 
 7697000    246.87859    -3921.066   -3497.9245    -3921.066            0    5261.8945    17.401202    20.496318    21.229426    7571.6995     5336.807    5918.6353    4530.2412   -1504.7437    141.80949    656.76919   -2916.8774 
 7698000    237.69033   -3920.9812   -3513.5881   -3920.9812            0    2709.6486    17.495587    20.607491    21.344576    7695.5765    1869.2846    2633.2123    3626.4488   -556.80414     126.2014    476.04908   -3209.4786 
 7699000    250.35345   -3914.9652    -3485.868   -3914.9652            0    4016.2193    17.450795    20.554731    21.289929    7636.6208    4560.3413    3189.4012    4298.9154   -1802.7661    877.58157    321.21787   -3038.5725 
 7700000    238.52252   -3940.5568   -3531.7373   -3940.5568            0    2978.1091    17.599224    20.729561    21.471012    7833.1444    3051.4711    2111.6554    3771.2007   -898.75214    757.75678   -1014.5378    -3191.523 
 7701000    240.93197   -3922.5745   -3509.6253   -3922.5745            0    1372.9334    17.625993    20.761092    21.503671    7868.9429    760.98038    1895.7454    1462.0744    388.39107   -174.59497    15.818131   -3352.0669 
 7702000    238.48991   -3933.0249   -3524.2613   -3933.0249            0    2947.0617    17.578429    20.705067    21.445642    7805.4107    4203.0135    552.64082    4085.5308   -479.97464   -225.34673    -195.5534   -3188.7858 
 7703000    233.95024   -3957.4861   -3556.5034   -3957.4861            0    1042.9379    17.602649    20.733596    21.475191    7837.7191    275.37718    1529.0659    1324.3705   -209.67731   -804.44608    436.86669   -3437.2903 
 7704000    244.41232   -3956.2006   -3537.2863   -3956.2006            0    1364.7097    17.506302    20.620111    21.357647    7709.7235    1229.8914    1973.2146    891.02313    138.43336   -880.54648     856.8727   -3383.8405 
 7705000    231.30084   -3942.9356   -3546.4939   -3942.9356            0      2627.24    17.568857    20.693793    21.433965    7792.6672    1706.7528     2168.312    4006.6554   -573.12845    281.20026    1519.3783   -3247.9132 
 7706000    232.53247   -3962.9526   -3564.3999   -3962.9526            0    2954.8258     17.66795    20.810512    21.554858    7925.2706    3936.9505     3846.833    1080.6938   -1342.0915    676.12828   -763.19081   -3222.8754 
 7707000    235.90253   -3939.9338   -3535.6049   -3939.9338            0    2716.4326    17.563431    20.687402    21.427345    7785.4494    2962.4593    2738.8021    2448.0362    933.12487    1741.0139    -380.7136   -3227.1736 
 7708000    237.88639   -3929.6843   -3521.9551   -3929.6843            0    2451.7097    17.630531    20.766437    21.509207    7875.0222     1071.045    4528.6756    1755.4084    -902.7156    4.3778186   -674.24284   -3240.3784 
 7709000     233.9532   -3952.0572   -3551.0694   -3952.0572            0    2264.6498     17.64275    20.780829    21.524114    7891.4067    4191.4181    1390.7365    1211.7949    700.70731   -103.64062    120.87554   -3290.4353 
 7710000    251.71327   -3936.0899    -3504.662   -3936.0899            0    3295.8277    17.587523    20.715779    21.456737    7817.5307    3545.1337    2376.7794    3965.5701    1554.2082   -178.52795    1007.4878   -3128.9024 
 7711000    246.80245     -3981.26   -3558.2491     -3981.26            0     3559.047    17.581484    20.708666    21.449369     7809.481    2007.7444    3254.0082    5415.3883    447.84465    270.29071    1088.6544   -3152.8976 
 7712000    246.22452   -3939.2966   -3517.2762   -3939.2966            0    2980.1579    17.488837     20.59954     21.33634    7686.6723    2170.1241    4042.2102    2728.1395    177.99284   -1203.7079     178.1932   -3183.1938 
 7713000    257.43392   -3947.9235   -3506.6906   -3947.9235            0    4065.7366    17.445892    20.548957    21.283948    7630.1865    3556.3221    5785.3856     2855.502   -228.91837    1052.7428   -1375.4663   -3054.2618 
 7714000    234.95256   -3945.0269   -3542.3262   -3945.0269            0    1525.1049    17.598206    20.728362     21.46977    7831.7856    1419.8617    2494.0001    661.45277   -1491.4327     242.3264     119.7872   -3368.1309 
 7715000    230.84821   -3982.4925   -3586.8266   -3982.4925            0    3842.4817    17.552035    20.673979    21.413442    7770.3042    2862.7897    3981.6847    4682.9709    634.61011   -453.35906    -334.1229   -3151.3892 
 7716000    244.41984   -3968.8914   -3549.9642   -3968.8914            0    1387.4189    17.629898    20.765692    21.508435    7874.1742     357.7756    1272.7811       2531.7   -187.01129    226.98661    1258.8629   -3390.6375 
 7717000    230.49192    -3968.464   -3573.4087    -3968.464            0    2560.8346    17.561435    20.685051     21.42491    7782.7948    4046.6754    2842.8311     792.9972   -607.57723    380.40195    -762.8983   -3282.7435 
 7718000    257.24375   -3968.1911   -3527.2842   -3968.1911            0    2798.8574    17.562084    20.685815    21.425701    7783.6579    3872.6487    2087.0651    2436.8585   -283.30438   -330.50896   -594.41701   -3209.5672 
 7719000    236.62476    -3909.014   -3503.4472    -3909.014            0    2007.5877    17.598259    20.728424    21.469835    7831.8561    3102.3111    1679.1637    1241.2883   -1459.4793    257.60686    373.51915   -3274.1414 
 7720000    236.51355   -3945.1168   -3539.7407   -3945.1168            0    3568.9438    17.501199      20.6141    21.351422    7702.9837    4869.7626    2452.3262    3384.7425    1485.0687    426.76433   -148.76334   -3138.8051 
 7721000     244.4163     -3939.51   -3520.5889     -3939.51            0    2183.3673    17.504759    20.618293    21.355765    7707.6852    2296.0115    1467.6934    2786.3968    291.56812    2140.0003    1273.1646   -3275.1594 
 7722000    239.27534   -3941.2823   -3531.1726   -3941.2823            0    1556.9631    17.553238    20.675396    21.414909    7771.9017    697.07332    2544.2979     1429.518    17.946345       1440.7   -1472.9957   -3354.6982 
 7723000    227.23679   -3927.1182   -3537.6422   -3927.1182            0    2447.7146    17.585826     20.71378    21.454667    7815.2685    3376.2621    2339.2019    1627.6797   -1641.1855     997.3926   -1104.9831   -3258.6573 
 7724000    253.35639   -3949.4063   -3515.1621   -3949.4063            0     3193.962     17.53799    20.657435    21.396306    7751.6655    2227.3957    5600.4614    1754.0289   -611.75925   -196.15382   -231.31475   -3154.0844 
 7725000    249.17891   -3967.9557   -3540.8716   -3967.9557            0    4747.2405    17.530921     20.64911    21.387683    7742.2966     4097.381    6444.0244    3700.3161    1046.5989    577.55197    784.29981   -3004.8443 
 7726000    245.71448   -3952.5789   -3531.4327   -3952.5789            0    2814.6115    17.646591    20.785353      21.5288    7896.5619    3498.1909    4424.9879     520.6558    827.60442   -985.52629    274.18902   -3207.2928 
 7727000    257.02287   -3904.2478   -3463.7194   -3904.2478            0    4285.5016    17.561303    20.684895    21.424748     7782.619    3178.3653    5441.8965    4236.2429     321.6368    517.92923   -170.43495   -2977.3085 
 7728000    246.82651   -3916.6185   -3493.5663   -3916.6185            0    3793.9825     17.49897    20.611475    21.348702    7700.0408    6388.4203    2377.5328    2615.9943   -216.22547     476.0396     1673.313   -3067.5127 
 7729000    247.79954   -3941.7312   -3517.0113   -3941.7312            0    2855.1152    17.586893    20.715037    21.455968    7816.6912    2758.8395    2835.3493    2971.1568    312.65993   -422.64703   -1251.1869   -3191.5326 
 7730000    251.20468   -3920.1922   -3489.6359   -3920.1922            0    2458.8759    17.537575    20.656947      21.3958    7751.1154    3195.0078    1518.1342    2663.4858    -1257.484   -563.39288   -395.77706   -3211.6795 
 7731000    247.48477   -3924.0218   -3499.8413   -3924.0218            0    2753.2578    17.469979    20.577327    21.313333    7661.8335     3490.393    2244.0166    2525.3638   -867.40371     503.8489    2351.2879   -3192.1924 
 7732000    241.20822   -3930.3938   -3516.9712   -3930.3938            0    3260.9549    17.452834    20.557133    21.292417    7639.2983    3772.3386    3783.6903    2226.8359   -166.96126    225.53644   -379.28179   -3153.6639 
 7733000    247.01625   -3949.4105   -3526.0331   -3949.4105            0      2560.41    17.523363    20.640207    21.378461    7732.2865    661.35205    4347.1519    2672.7261    367.42292   -2028.6674    157.16984   -3237.3021 
 7734000    250.95718   -3916.4846   -3486.3525   -3916.4846            0    2083.0266    17.521422    20.637921    21.376094    7729.7178    1546.8415    994.35286    3707.8854    74.658653    326.51801    1532.2012   -3251.5329 
 7735000    237.78312   -3936.2731    -3528.721   -3936.2731            0     2115.788    17.466508    20.573239    21.309099     7657.268     160.4673    2269.8451    3917.0515    351.69927    270.74174   -288.08532   -3292.4437 
 7736000    240.48262   -3944.5129   -3532.3339   -3944.5129            0    1617.1507    17.549736    20.671271    21.410637    7767.2514    2558.8538    1290.0728    1002.5254    1241.0526    235.00449   -370.30578   -3349.1473 
 7737000     237.0562   -3929.8092    -3523.503   -3929.8092            0     880.0588    17.492659    20.604042    21.341003     7691.713    1584.5401    1045.2466    10.389682    143.27598   -1293.5667    72.839507   -3424.7817 
 7738000    238.57187   -3926.9452   -3518.0412   -3926.9452            0      2467.12    17.521677    20.638221    21.376405    7730.0553    4569.5683    1444.3191    1387.4725   -788.42404    674.53182    435.71131   -3239.9106 
 7739000    239.62834   -3943.4503   -3532.7355   -3943.4503            0    2573.6463     17.57971    20.706577    21.447206    7807.1178    3420.0092     1759.573    2541.3568    440.89115   -1235.0154   -702.85137   -3239.7032 
 7740000    244.05488   -3948.6932   -3530.3915   -3948.6932            0    1876.0513    17.652369    20.792159    21.535849    7904.3208     2142.728    2760.0176    725.40829    174.62915   -55.473617   -154.68871   -3314.1271 
 7741000    241.58286   -3985.5047     -3571.44   -3985.5047            0    1804.5093    17.583129    20.710603    21.451376    7811.6731    946.61453    1477.4019    2989.5116    617.82808   -67.377404   -17.812686   -3365.8608 
 7742000    245.47896    -3963.339   -3542.5965    -3963.339            0    1473.7651    17.635281    20.772031    21.515001    7881.3884    1300.8357    1706.2433    1414.2165   -259.97532    -1408.081   -460.31563    -3373.199 
 7743000     244.5296   -3941.6318   -3522.5165   -3941.6318            0     3416.048    17.562809    20.686669    21.426586    7784.6219    2266.1171    4769.2639    3212.7629    269.08235    397.68122   -474.69851   -3134.6901 
 7744000    242.96762   -3947.8364   -3531.3983   -3947.8364            0    1096.1898    17.658441    20.799311    21.543257     7912.481   -123.54136     1949.374    1462.7368    383.03042   -1749.5128    1881.6075    -3404.903 
 7745000    263.10356   -3955.9785    -3505.028   -3955.9785            0    4264.1209    17.532372    20.650819    21.389453    7744.2195    4694.7908    3086.5909    5010.9811    1459.3674   -309.49748   -763.64167   -3023.4318 
 7746000     228.6722   -3914.4642   -3522.5279   -3914.4642            0    1573.8911    17.597928    20.728035    21.469431    7831.4144    1396.2814    1686.3707    1639.0213    1622.8833    444.29142   -1292.3562   -3342.7688 
 7747000    231.81236   -3931.9752   -3534.6568   -3931.9752            0     2161.491    17.532723    20.651232    21.389881    7744.6841    2519.5302    2410.1066    1554.8361   -1591.5048    1097.1565   -1620.9231   -3290.5201 
 7748000    265.84025   -3949.9639   -3494.3228   -3949.9639            0    2993.7374    17.498966     20.61147    21.348697    7700.0354    2421.5841    3835.2742    2724.3539   -1003.5824   -96.919749    -1546.684   -3158.1347 
 7749000    242.77204   -3978.0025   -3561.8995   -3978.0025            0    1529.4236     17.46796     20.57495    21.310871    7659.1783    2115.3752    746.75179    1726.1438   -21.719224    -313.4612    1261.1434    -3391.061 
 7750000    257.22634   -3930.8208   -3489.9436   -3930.8208            0    3647.7834      17.4679    20.574879    21.310797    7659.0988    5474.4043    2662.5722    2806.3736   -1300.3073   -615.06041    343.78519   -3082.4858 
Loop time of 512.722 on 64 procs for 250000 steps with 864 atoms

Performance: 84.256 ns/day, 0.285 hours/ns, 487.594 timesteps/s
99.0% CPU use with 64 MPI tasks x 1 OpenMP threads

MPI task timing breakdown:
Section |  min time  |  avg time  |  max time  |%varavg| %total
---------------------------------------------------------------
Pair    | 19.241     | 24.444     | 28.774     |  46.3 |  4.77
Bond    | 0.26535    | 0.28248    | 0.30172    |   1.1 |  0.06
Kspace  | 229.51     | 241.09     | 255.11     |  40.9 | 47.02
Neigh   | 4.7687     | 5.771      | 6.9238     |  28.4 |  1.13
Comm    | 102.45     | 113.8      | 125.35     |  63.1 | 22.20
Output  | 1.5089     | 1.5104     | 1.5232     |   0.1 |  0.29
Modify  | 115.6      | 118.79     | 122.61     |  14.4 | 23.17
Other   |            | 7.035      |            |       |  1.37

Nlocal:        13.5000 ave          19 max           9 min
Histogram: 3 3 8 8 7 16 8 5 2 4
Nghost:        2105.31 ave        2152 max        2026 min
Histogram: 2 1 3 8 3 8 10 10 14 5
Neighs:        4033.30 ave        6129 max        2323 min
Histogram: 5 5 4 11 15 9 6 5 3 1

Total # of neighbors = 258131
Ave neighs/atom = 298.76273
Ave special neighs/atom = 2.0000000
Neighbor list builds = 11822
Dangerous builds = 0

unfix		3
unfix		2
unfix		1

write_data	data.final.${pid}
write_data	data.final.0
System init for write_data ...
PPPM initialization ...
  extracting TIP4P info from pair style
  using 12-bit tables for long-range coulomb (../kspace.cpp:340)
  G vector (1/distance) = 0.37346339
  grid = 24 24 25
  stencil order = 5
  estimated absolute RMS force accuracy = 0.0031615699
  estimated relative force accuracy = 9.5209738e-06
  using double precision FFTW3
  3d grid and FFT values/proc = 2730 288
Last active /omp style is kspace_style pppm/tip4p/omp
WARNING: Not all mixed pair coeffs generated from mixing. Use write_data with 'pair ij' option to store all pair coeffs. (../write_data.cpp:312)

write_restart   restart.lmp.${pid}
write_restart   restart.lmp.0
System init for write_restart ...
PPPM initialization ...
  extracting TIP4P info from pair style
  using 12-bit tables for long-range coulomb (../kspace.cpp:340)
  G vector (1/distance) = 0.37346339
  grid = 24 24 25
  stencil order = 5
  estimated absolute RMS force accuracy = 0.0031615699
  estimated relative force accuracy = 9.5209738e-06
  using double precision FFTW3
  3d grid and FFT values/proc = 2730 288
Last active /omp style is kspace_style pppm/tip4p/omp
Total wall time: 0:08:33
