#include		in.partitions
include		in.temp
variable        temperature equal 278.63
variable	tempDamp equal 100.0
include		in.pressure
variable        pressure equal -2250.0
variable        pressureDamp equal 1000.0 # This is 1 ps
include		in.seed
variable        seed equal 745823

units		real
atom_style	full
#include		in.box
read_restart	restart.lmp.${pid}
read_restart	restart.lmp.0
Reading restart file ...
  restart file = 30 Jul 2021, LAMMPS = 30 Jul 2021
  restoring atom style full from restart
  orthogonal box = (-0.15166268 -0.18381549 0.11837270) to (18.359235 23.812993 22.094823)
  2 by 4 by 2 MPI processor grid
  restoring pair style lj/cut/tip4p/long/omp from restart
  restoring bond style harmonic/omp from restart
  restoring angle style harmonic/omp from restart
  864 atoms
  576 bonds
  288 angles
Finding 1-2 1-3 1-4 neighbors ...
  special bond factors lj:    0        0        0       
  special bond factors coul:  0        0        0       
     2 = max # of 1-2 neighbors
     1 = max # of 1-3 neighbors
     1 = max # of 1-4 neighbors
     2 = max # of special neighbors
  special bonds CPU = 0.001 seconds
  read_restart CPU = 0.005 seconds
include 	in.setup
variable	out_freq equal 1000
variable	out_freq2 equal 10000
variable	out_freq3 equal 1000

timestep	2.0

neigh_modify    delay 7 every 1

include		in.tip4p
# This is TIP4P/Ice

# create groups ###
group ox type 2
288 atoms in group ox
group hy type 1
576 atoms in group hy

# set charges - beside manually ###
set group ox charge -1.1794
Setting atom values ...
  288 settings made for charge
set group hy charge 0.5897
Setting atom values ...
  576 settings made for charge

# ### TIP3P Potential Parameters ###
pair_style lj/cut/tip4p/long/omp 2 1 1 1 0.1577 8.5
pair_coeff 1 1*2 0.000 0.000
pair_coeff 2 2 0.21084 3.1668
bond_style  harmonic
bond_coeff  1 450 0.9572
angle_style harmonic
angle_coeff 1 55 104.52
kspace_style pppm/tip4p/omp 1.0e-5
pair_modify tail yes

thermo          ${out_freq}
thermo          1000
thermo_style    custom step temp pe etotal epair emol press lx ly lz vol pxx pyy pzz pxy pxz pyz enthalpy

restart 	${out_freq3} restart.lmp.${pid} restart2.lmp.${pid}
restart 	1000 restart.lmp.${pid} restart2.lmp.${pid}
restart 	1000 restart.lmp.0 restart2.lmp.${pid}
restart 	1000 restart.lmp.0 restart2.lmp.0


include         in.dump
dump            myDump all atom ${out_freq2} dump.water.${pid}
dump            myDump all atom 10000 dump.water.${pid}
dump            myDump all atom 10000 dump.water.0
dump            myDump2 all dcd ${out_freq2} dump.dcd
dump            myDump2 all dcd 10000 dump.dcd
dump_modify     myDump append yes
dump_modify     myDump2 append yes


variable natoms 	equal  "count(all)"                        # NUMBER ATOMS
variable H      	equal  "enthalpy/v_natoms"                 # ENTHALPY-per-atom
variable Vol      	equal  "vol/v_natoms"                 # volume-per-atom
fix AVG all 		ave/time ${out_freq} 1 ${out_freq} v_Vol v_H file vol_enthalpy.dat
fix AVG all 		ave/time 1000 1 ${out_freq} v_Vol v_H file vol_enthalpy.dat
fix AVG all 		ave/time 1000 1 1000 v_Vol v_H file vol_enthalpy.dat


timer           timeout 23:50:00 every 1000
New timer settings: style=normal  mode=nosync  timeout=23:50:00

fix 		1 all shake 1e-6 200 0 b 1 a 1
       0 = # of size 2 clusters
       0 = # of size 3 clusters
       0 = # of size 4 clusters
     288 = # of frozen angles
  find clusters CPU = 0.000 seconds
fix             2 all nph aniso ${pressure} ${pressure} ${pressureDamp}
fix             2 all nph aniso -2250 ${pressure} ${pressureDamp}
fix             2 all nph aniso -2250 -2250 ${pressureDamp}
fix             2 all nph aniso -2250 -2250 1000
fix             3 all temp/csvr ${temperature} ${temperature} ${tempDamp} ${seed}
fix             3 all temp/csvr 278.63 ${temperature} ${tempDamp} ${seed}
fix             3 all temp/csvr 278.63 278.63 ${tempDamp} ${seed}
fix             3 all temp/csvr 278.63 278.63 100 ${seed}
fix             3 all temp/csvr 278.63 278.63 100 745823


run             250000
PPPM initialization ...
  extracting TIP4P info from pair style
  using 12-bit tables for long-range coulomb (../kspace.cpp:340)
  G vector (1/distance) = 0.37055759
  grid = 24 27 25
  stencil order = 5
  estimated absolute RMS force accuracy = 0.0032743736
  estimated relative force accuracy = 9.8606787e-06
  using double precision FFTW3
  3d grid and FFT values/proc = 6300 1296
Last active /omp style is kspace_style pppm/tip4p/omp
Neighbor list info ...
  update every 1 steps, delay 7 steps, check yes
  max neighbors/atom: 2000, page size: 100000
  master list distance cutoff = 10.8154
  ghost atom cutoff = 10.8154
  binsize = 5.4077, bins = 4 5 5
  1 neighbor lists, perpetual/occasional/extra = 1 0 0
  (1) pair lj/cut/tip4p/long/omp, perpetual
      attributes: half, newton on, omp
      pair build: half/bin/newton/omp
      stencil: half/bin/3d
      bin: standard
Per MPI rank memory allocation (min/avg/max) = 12.24 | 12.28 | 12.30 Mbytes
Step Temp PotEng TotEng E_pair E_mol Press Lx Ly Lz Volume Pxx Pyy Pzz Pxy Pxz Pyz Enthalpy 
 9250000    287.28987    -4126.719    -3634.314    -4126.719            0   -2750.6057    18.510898    23.996809     21.97645    9761.9936   -2659.1196   -4093.7209   -1498.9765   -579.21553   -551.76735   -237.63641   -4025.9141 
 9251000    289.95579   -4177.6163    -3680.642   -4177.6163            0   -2431.0268    18.251829    23.646909    22.509222    9714.9652   -1859.4669   -2439.1998   -2994.4136   -590.04883   -460.03146    62.983866   -4025.0767 
 9252000    279.46095   -4162.6574   -3683.6709   -4162.6574            0   -2838.6602    18.565644    23.791907    22.129843    9775.0192   -4262.4717   -3843.9961   -409.51284   -200.45697   -151.81272    50.129589   -4088.3464 
 9253000    278.32302   -4168.3843   -3691.3481   -4168.3843            0   -2934.7324     18.34602    23.883563    22.422636    9824.8889   -2380.5255   -3400.2562   -3023.4155     393.7934   -545.61345    260.49348    -4111.854 
 9254000    258.44708    -4173.003   -3730.0336    -4173.003            0   -2513.9928    18.163146    23.816865    22.595756    9774.6799   -2074.7225    -2532.433   -2934.8229    1115.8581   -858.84862    2.7794825   -4088.4125 
 9255000     283.7417   -4154.1877   -3667.8642   -4154.1877            0    -3021.304    18.331889    23.878738    22.209446    9722.0157   -3956.4503   -2186.7388   -2920.7229    636.04639    452.61971   -371.50398   -4096.2417 
 9256000     281.4089   -4159.0705   -3676.7453   -4159.0705            0   -996.87723    18.173231    23.485686     22.63988    9662.9448   -887.63181   -976.80984     -1126.19   -162.69309    559.72053    236.37785   -3817.2294 
 9257000    290.00032   -4180.0603   -3683.0097   -4180.0603            0    -1773.232    18.379653    23.757197    22.151617    9672.4825   -1475.4546   -2913.4236   -930.81788    443.59508   -398.95578    5.7633933   -3933.1476 
 9258000    289.90625   -4163.7248   -3666.8355   -4163.7248            0   -1989.8434    18.277151    23.592208     22.59227     9741.749   -1999.7588   -1727.3979   -2242.3734    -241.8271   -161.12776    -234.4952   -3949.5393 
 9259000     298.1286   -4155.6029   -3644.6206   -4155.6029            0   -2183.1841     18.28339    23.726679    22.467153    9746.3435   -1068.5835   -1724.5575   -3756.4112   -785.24716    -136.8787    213.41808   -3954.9393 
 9260000    284.66685   -4158.9389   -3671.0296   -4158.9389            0   -2574.4711    18.532591    23.745614    22.124875    9736.4439   -3222.7282   -1437.5264   -3063.1587   -996.93661   -56.995618    292.27575   -4036.5944 
 9261000    277.76818   -4162.8685   -3686.7834   -4162.8685            0   -1743.3446    18.300108    23.738636    22.416946    9738.3609    -1581.887   -754.80151   -2893.3454    -626.2399   -472.81608    635.68258   -3934.3802 
 9262000    290.46957   -4132.4628   -3634.6079   -4132.4628            0   -1162.0988    18.279017    23.833584    22.187822     9666.224   -1234.9422   -1477.7851   -773.56904   -404.44729   -118.09213     97.93796   -3798.4313 
 9263000    281.31637   -4136.2885   -3654.1219   -4136.2885            0   -1563.0845    18.440798    23.364059     22.51029    9698.6011    -1531.014    -1664.553   -1493.6864    429.71981    25.977537    287.99265    -3875.211 
 9264000    273.50294   -4172.9174   -3704.1428   -4172.9174            0   -2265.1863    18.466555    23.842282    22.161102    9757.1965    -3276.793   -1561.6715   -1957.0943   -929.85825   -706.50226   -509.67412   -4026.4758 
 9265000    276.93689   -4154.0658   -3679.4054   -4154.0658            0   -1091.2394    18.201634    23.899986    22.448793     9765.647   -276.12494   -852.26184   -2145.3314   -83.733612    164.45701    578.36692   -3834.8218 
 9266000    285.05743   -4172.1156   -3683.5369   -4172.1156            0   -2372.3407    18.125099    23.892815    22.413083    9706.2013   -2266.3926   -2875.5655    -1975.064   -824.24615   -669.37697   -368.08003   -4019.3536 
 9267000     277.0036   -4154.9144   -3680.1397   -4154.9144            0   -225.61715    18.461863    23.603596    22.101779    9631.2119   -803.33972      1392.78   -1266.2918    762.07165   -241.33817    182.54491   -3711.8302 
 9268000     269.1455   -4183.7417   -3722.4356   -4183.7417            0   -1749.7035    18.362134    23.724652    22.388567    9753.2488   -2683.1642   -2032.7709   -533.17544    185.24879    704.18832   -28.754297   -3971.3154 
 9269000    275.85187   -4153.3554   -3680.5547   -4153.3554            0   -2877.6509    18.110106    24.010331    22.477259    9773.7783   -2266.9494   -3157.6147   -3208.3886    552.45756    450.50259   -413.83752   -4090.7366 
 9270000    270.65073   -4176.3984   -3712.5124   -4176.3984            0   -2999.8559    18.242256    23.837554    22.357419    9722.1408    -2343.678   -2606.6124   -4049.2773    64.412154    -427.5546   -54.169307   -4137.8543 
 9271000    280.91352   -4185.0587   -3703.5826   -4185.0587            0   -2496.5027    18.554725     23.50193    22.244967     9700.404   -4471.5211   -1961.8645   -1056.1225   -447.97818    153.64736   -293.34104   -4056.7639 
 9272000    289.48037   -4155.0092   -3658.8498   -4155.0092            0   -2551.0062    18.370078    23.617467    22.457464    9743.2764   -2626.4654    -2205.381   -2821.1723   -550.85776   -249.05874   -153.86184   -4021.3368 
 9273000    276.30795   -4186.6326   -3713.0502   -4186.6326            0   -1263.9409    18.043723    23.970646    22.420902    9697.4818   -834.61549   -1448.2485   -1508.9586   -117.07622   -177.85463   -194.97885   -3891.8067 
 9274000    295.72228   -4129.6519    -3622.794   -4129.6519            0   -2188.6103    18.265236    23.947925    22.310019     9758.726   -1831.4545   -3395.8972   -1338.4791    1099.9098   -356.44589   -72.401406   -3934.2792 
 9275000    268.14886   -4129.9203   -3670.3223   -4129.9203            0   -2560.8786    18.492283    23.497918    22.503715    9778.5428   -3200.8087   -2909.3906   -1572.4363   -351.71088    -197.1447   -701.51303   -4035.5293 
 9276000    292.85347   -4148.8101   -3646.8693   -4148.8101            0   -2305.4961    18.370085    23.631445    22.441167    9741.9721   -2478.6859   -2198.2316   -2239.5707    743.27031    45.750664    517.43518   -3974.4265 
 9277000    282.02409   -4138.5552   -3655.1756   -4138.5552            0   -1229.8954    18.100815    24.066646    22.322507    9724.2624   -682.10548   -2456.8376    -550.7431    -130.4972    642.26836    331.30898   -3829.5974 
 9278000     276.1769   -4177.8011   -3704.4434   -4177.8011            0    -2294.411    18.299841    23.885841    22.292856    9744.3655   -3945.6787   -1106.9442     -1830.61   -254.77093    31.568001   -576.56758   -4030.5057 
 9279000    269.38725   -4182.5771   -3720.8565   -4182.5771            0   -3030.8515    18.677214    23.531194    22.341867    9819.1869   -3553.4625   -2591.1876   -2947.9043    160.83357    29.929653    -539.5308   -4154.8829 
 9280000    288.28189   -4140.4672   -3646.3619   -4140.4672            0   -3042.7559    18.344644    23.685549    22.542106    9794.6115   -3792.3907   -1610.6177   -3725.2594    267.12738    130.55864    572.08155   -4081.0024 
 9281000    289.93112   -4135.1743   -3638.2423   -4135.1743            0   -2952.9886    18.337367    24.015406    22.360303    9847.0146   -2390.0775   -3035.5572    -3433.331    684.37163    205.32781    620.78199   -4062.3169 
 9282000    287.63195   -4155.8882   -3662.8969   -4155.8882            0   -3416.9576    18.195833    24.067468     22.42211    9819.2618    -2046.399   -4389.4878   -3814.9859    377.00277   -196.19369     66.39705   -4152.2184 
 9283000    285.52033   -4162.2606   -3672.8885   -4162.2606            0   -2152.6083    18.262078    23.603638    22.641787    9759.7757   -2365.8074    -508.3956   -3583.6219   -716.08667   -103.64437   -189.25112   -3979.2829 
 9284000    278.07685   -4180.7454   -3704.1312   -4180.7454            0   -1449.5792    18.646669    23.546588     22.01031    9663.9664   -1275.9108   -2383.7321    -689.0948   -383.21096    -427.4527    182.60106   -3908.4335 
 9285000    278.45792   -4198.9884   -3721.7211   -4198.9884            0   -934.32985    18.256566    23.701034    22.334672    9664.2014   -1479.1188   -248.50168    -1075.369    795.46172   -233.12444    312.08942   -3853.4078 
 9286000    265.90176   -4171.4497   -3715.7032   -4171.4497            0   -1323.1882     18.13681    23.803198    22.250568    9605.8833    -961.7915   -1775.9087   -1231.8645   -577.21738   -377.30391    560.66352   -3901.0713 
 9287000     281.7152   -4170.6224   -3687.7722   -4170.6224            0   -1144.9351    18.148658    23.674225    22.396663    9622.8475   -1300.5589   -501.85137   -1632.3951   -689.11997    128.98339    231.02296   -3848.4516 
 9288000    290.25347   -4179.3842   -3681.8997   -4179.3842            0   -1418.7783     18.37819    23.627273    22.169615    9626.6346   -2567.8409   -1284.8047   -403.68927   -281.11949    957.27251    384.03861   -3881.0885 
 9289000    285.34283   -4167.3651   -3678.2973   -4167.3651            0   -2414.7343    18.281499    23.745862    22.440018    9741.4352   -1590.2339    -3434.079     -2219.89     173.8606    28.409794   -260.80741   -4021.3558 
 9290000    278.74958   -4166.6518   -3688.8845   -4166.6518            0    -2899.682    18.243049    23.829363    22.486566    9775.3654   -3659.2048   -2014.6668   -3025.1746   -418.88014    269.01505    963.16284   -4102.2739 
 9291000    261.95056   -4134.5396   -3685.5653   -4134.5396            0   -2741.6746    18.337843    24.078541    22.279212    9837.3526   -2595.7229   -3759.4771   -1869.8237    482.21403   -12.902613    396.11819    -4078.907 
 9292000    269.67932    -4150.582   -3688.3608    -4150.582            0   -2187.9679    18.372315    23.866661    22.320759    9787.3364   -2563.8969    -2168.651   -1831.3559   -907.83461    88.940206    203.54481   -4000.6676 
 9293000    281.08855   -4145.6911    -3663.915   -4145.6911            0   -2707.8419    18.549971    23.405929    22.539457    9786.1659   -2997.7736   -2019.7699   -3105.9822    306.13888    11.017913    29.098684   -4050.3814 
 9294000    288.42539   -4175.2972    -3680.946   -4175.2972            0   -2437.5031     18.32941    23.705054    22.478284    9766.8066   -2720.9803   -2670.5689     -1920.96   -337.38897    524.52813    669.50581   -4028.1411 
 9295000    268.67025   -4200.0957   -3739.6041   -4200.0957            0   -2799.7882    18.325609    24.155838    22.040111    9756.5056   -2516.8796   -3406.9754   -2475.5096    784.07099   -1027.0782    120.25696   -4137.9821 
 9296000    280.21735   -4151.5436   -3671.2606   -4151.5436            0   -2809.9808    18.239799     23.84858    22.479335    9778.3604    -2393.153   -2441.4263    -3595.363   -455.08677    35.884152    41.292618   -4071.9846 
 9297000    264.54085   -4155.5318   -3702.1178   -4155.5318            0   -2739.2343    18.453525    23.690608    22.376472     9782.439   -3253.6194   -1746.4818   -3217.6017   -134.29723   -792.12149   -88.133536   -4092.9157 
 9298000    269.18423   -4136.8213   -3675.4488   -4136.8213            0   -3274.9875    18.570379    23.710066    22.388691    9857.8505     -5063.38   -2149.0718   -2612.5108    778.21808     -140.368    49.278559   -4146.2827 
 9299000    291.79395   -4162.4266   -3662.3018   -4162.4266            0   -2409.9114    18.331778    23.964373    22.353601    9820.1506    -1503.447   -1626.0529   -4100.2345    1002.9093    101.86218    1103.3513   -4007.4417 
 9300000    274.97012   -4165.8725   -3694.5831   -4165.8725            0   -2196.7202    17.921116    23.926241    22.690486    9729.3383   -1065.7169   -1980.7742   -3543.6693   -675.98875    16.682046   -614.31356   -4006.2811 
 9301000    281.06875   -4140.9176   -3659.1754   -4140.9176            0   -2205.5415    18.314793    23.810814    22.330942     9738.303   -2531.9405   -1275.2476   -2809.4364   -1545.9957    -206.5625    92.695555   -3972.4133 
 9302000    279.67379   -4169.2382   -3689.8869   -4169.2382            0   -2138.7929    18.507342    23.522244    22.357227    9732.8664   -2905.4631   -1804.7062   -1706.2094    627.62888   -715.12666    851.20041   -3993.4755 
 9303000    271.28933   -4170.2306   -3705.2499   -4170.2306            0   -1690.3892    18.268879    23.618664    22.402218    9666.2548   -1938.3586    -2182.362   -950.44685    55.467131   -59.708989    1156.5779   -3943.5482 
 9304000    277.03299    -4126.519   -3651.6939    -4126.519            0   -2860.8202    18.215085     24.04276    22.373709    9798.3623   -1870.8754   -3403.9958   -3307.5893   -1480.4143    -465.8375    615.24464   -4060.5024 
 9305000    267.68149   -4141.3787   -3682.5818   -4141.3787            0   -2853.7278    18.140813     24.08579    22.366787    9772.8504   -2226.9483   -3094.5746   -3239.6603   -75.943915   -269.24307    -102.0606   -4089.3151 
 9306000    288.88352   -4138.7378   -3643.6014   -4138.7378            0   -2158.5537    18.560528    23.543276     22.37879    9778.9857   -3084.6599   -2438.1859    -952.8153   -454.86444    588.78216   -194.58899   -3951.4467 
 9307000    286.93997   -4178.5668   -3686.7615   -4178.5668            0   -1849.6121    18.418891    23.620826     22.39847    9744.8891   -2412.5687   -2336.4116   -799.85598    981.93716   -325.62209    681.34048   -3949.6269 
 9308000    283.48882   -4160.4063   -3674.5161   -4160.4063            0   -2569.7555    18.158536    24.109169     22.39655    9804.9233   -1619.8134   -3177.8489   -2911.6043   -84.568346   -125.58759   -412.21778   -4041.9777 
 9309000    281.35206   -4160.2066   -3677.9788   -4160.2066            0   -2417.1395    18.263433    23.946713    22.394374    9794.1611   -3283.8141   -2936.1455   -1031.4589    734.73242   -98.862522    115.14826   -4023.2377 
 9310000    270.37987   -4190.6659   -3727.2441   -4190.6659            0   -3152.8906     18.50983    23.325766    22.510001    9718.8271   -3853.2648   -2149.6005   -3455.8064     36.15013   -682.83292    6.9223079    -4174.132 
 9311000    277.87662    -4154.438   -3678.1669    -4154.438            0   -2458.4619    18.438637     23.79101    22.331965    9796.4481   -1714.2185   -3452.0202    -2209.147   -1291.7792   -944.95041    222.97879   -4029.4102 
 9312000    285.14349   -4143.4411   -3654.7149   -4143.4411            0   -3292.9769    18.079271    24.272439    22.424481    9840.4905   -1808.4339   -4066.1315   -4004.3654   -721.62311    235.83397   -24.810105   -4127.3014 
 9313000    287.93678   -4140.3888    -3646.875   -4140.3888            0   -1569.4971    18.190799    23.834485     22.40512    9714.1503   -1715.6633    -2820.375   -172.45288   -561.08488     151.2369    472.45601   -3869.2271 
 9314000    293.45319    -4183.903   -3680.9343    -4183.903            0    -1847.499     18.45003    23.408637    22.306279    9633.8601   -2475.1749   -108.46109   -2958.8611    937.33632    451.17072    376.96074   -3940.5078 
 9315000     267.9802   -4189.3005   -3729.9916   -4189.3005            0    -1570.057    18.416069      23.6229    22.216688    9665.1692   -2109.1589   -269.30543   -2331.7068    567.72728    153.63978   -108.36303   -3951.3014 
 9316000    279.15363   -4125.1783   -3646.7186   -4125.1783            0   -2610.8841    18.355314     23.81628    22.448121    9813.3154   -3020.4971   -970.97484   -3841.1803    688.89329    372.93006    55.460316   -4020.3808 
 9317000    275.45674   -4193.1615   -3721.0381   -4193.1615            0   -2921.0912    18.154561    23.830301    22.547682    9754.7733   -395.68172   -4406.1627   -3961.4291   -42.475958    132.96039   -307.23688   -4136.6023 
 9318000     284.6234   -4178.7483   -3690.9135   -4178.7483            0   -2239.7219     18.41179     23.74699    22.184602    9699.6537   -3208.3127   -1108.9109   -2401.9421   -269.99992     313.2901    740.91932   -4007.7434 
 9319000    266.14788   -4193.1815   -3737.0132   -4193.1815            0   -1660.7546    18.339354     23.62734    22.365905    9691.3739   -2384.2332   -1224.4922   -1373.5385   -982.52893    345.02045    549.94909   -3971.7421 
 9320000     277.6551   -4165.9879   -3690.0965   -4165.9879            0   -2867.3135    18.224964    23.726472    22.449549    9707.5018   -3717.3677    -1846.374   -3038.1989   -324.78062    219.52058    133.54705   -4096.0334 
 9321000    273.84379   -4164.0254   -3694.6666   -4164.0254            0   -2585.7597     18.33617    23.939055    22.069771    9687.5388   -3504.0416   -2738.9726   -1514.2647   -195.32096   -144.66348     -465.116     -4059.99 
 9322000    296.46336   -4122.8184   -3614.6904   -4122.8184            0    -2423.282    18.246323    23.782428    22.564883    9791.8477   -1074.2865   -2086.9824    -4108.577   -113.70304     645.4785    747.36183   -3960.7449 
 9323000    266.14256   -4177.2053   -3721.0461   -4177.2053            0   -3286.7578    18.491829    23.762889    22.213813    9761.1776   -4541.1698   -2579.0784   -2740.0252    67.012713     826.1708   -702.66995   -4188.9383 
 9324000    281.65976   -4173.1268   -3690.3716   -4173.1268            0   -2092.1343    18.280029    23.659724    22.443741    9706.9279   -706.04764   -1595.1572    -3975.198     523.6025   -845.58573   -341.49049   -3986.5458 
 9325000    272.93545   -4155.1617   -3687.3597   -4155.1617            0   -504.62345    18.240707    23.994947    22.024045    9639.5897   -2216.9538   -1416.8648    2119.9482   -12.132185    169.80564    505.36562   -3758.3014 
 9326000    268.40967   -4146.4203   -3686.3754   -4146.4203            0   -2457.2203    18.258355    23.684903    22.560972    9756.4331   -2331.9445   -2459.7498   -2579.9666     875.1787   -329.31916   -402.52775   -4036.0073 
 9327000    278.14468   -4187.9011   -3711.1707   -4187.9011            0   -1456.7939    18.297224    23.680237    22.285542    9655.9377   -105.74385   -1903.7283   -2360.9096    1079.7243   -1165.3274   -139.01923   -3916.3192 
 9328000    292.06269   -4128.9377   -3628.3523   -4128.9377            0   -2611.9372    18.347908    23.840422    22.306716    9757.4452   -2787.2753   -2707.8147   -2340.7217   -1110.8019   -637.73212    515.87075    -4000.037 
 9329000    276.43866   -4168.3434    -3694.537   -4168.3434            0   -2609.3833    18.037468    23.837693    22.602582    9718.4691   -1401.5779   -2744.7562   -3681.8158    226.74298    -1037.029   -608.70135   -4064.3751 
 9330000    287.40785   -4133.4801   -3640.8728   -4133.4801            0    -1465.509     18.43069    23.744013    22.294544    9756.5061   -1244.0174   -727.81496   -2424.6947    185.96884   -65.614249    267.25416   -3849.3981 
 9331000    274.47984   -4149.2732   -3678.8241   -4149.2732            0   -3184.3815    18.455173    23.390774    22.692298    9795.8286    -2416.779   -1978.0645   -5158.3009   -345.81769   -204.45995   -1.7594128   -4133.7516 
 9332000    278.45594   -4193.1431   -3715.8792   -4193.1431            0   -2238.3629     18.36662    23.810724    22.178909    9699.3365   -3255.1001   -2789.0983   -670.89036     543.7463   -701.89819   -366.59322   -4032.5065 
 9333000    269.82749   -4168.9072   -3706.4321   -4168.9072            0   -2731.9448    18.143931    23.889829    22.397365    9708.2591   -2263.1317   -3055.7348   -2876.9679    921.92876    373.20564    485.73012   -4093.2345 
 9334000    292.55825   -4133.2595   -3631.8247   -4133.2595            0   -2062.7328    18.267033    23.817848    22.429711    9758.7505   -1258.1756   -2966.5916   -1963.4313    61.704051    124.00188    225.28759   -3925.3956 
 9335000    278.16154   -4175.9446   -3699.1853   -4175.9446            0   -1582.0584    18.450817    23.581525    22.204833    9661.2875   -2393.3902   -1445.3685   -907.41649   -417.49028     111.1727    977.48332   -3922.0973 
 9336000    270.29976   -4140.2868   -3677.0023   -4140.2868            0   -1842.1145    18.250033    23.638041    22.512726     9711.878   -1936.4867   -1522.5799   -2067.2769    335.69036   -723.73797    618.08798   -3937.9153 
 9337000    271.76298   -4172.7949   -3707.0024   -4172.7949            0   -2013.0808    18.190333    24.087633    22.046603    9659.9853   -1968.2259   -1548.7787   -2522.2377   -84.366795     654.7043   -90.743026   -3990.6072 
 9338000    292.87271   -4157.5709   -3655.5971   -4157.5709            0   -2313.6529    18.166317    23.831886    22.487501    9735.6848   -1579.3634   -1758.2478   -3603.3475   -90.417091   -652.89337   -278.10528    -3984.101 
 9339000    268.06459   -4183.5135     -3724.06   -4183.5135            0   -1662.6049    18.374962     23.59499    22.244917    9644.4405    -878.8028   -2016.8257   -2092.1861    351.94388   -408.64891    360.81044   -3957.9124 
 9340000    276.32115    -4159.349    -3685.744    -4159.349            0   -1863.0594    18.460866    23.636276    22.312404     9735.931   -3027.9049   -2532.2409   -29.032399   -442.17838    91.843743   -710.40976   -3950.2772 
 9341000    257.82057   -4161.7601   -3719.8644   -4161.7601            0   -2039.1371    18.198374    23.835295     22.38472     9709.677   -2619.3636   -2211.1479   -1286.8998   -194.72491   -68.059265   -373.07761   -4008.6178 
 9342000    292.71321   -4165.6387   -3663.9383   -4165.6387            0   -3247.1007    18.105148    24.121017    22.403325    9783.8589   -2724.2542   -3831.5586   -3185.4893    303.97181   -298.39942    962.45517   -4127.2591 
 9343000    265.43124   -4173.7704   -3718.8304   -4173.7704            0   -1300.3565    18.291025    23.875796    22.173422    9683.4172   -1560.4661   -1365.5216   -975.08193      -227.58   -914.18442   -475.28877   -3902.4702 
 9344000    274.09798   -4167.0431   -3697.2486   -4167.0431            0   -1429.9672    18.310512     23.55864    22.415712    9669.4827    202.52335   -1288.3558   -3204.0691     151.2716     261.1874    309.28051   -3898.9018 
 9345000    278.69141   -4196.1636    -3718.496   -4196.1636            0   -48.429812    18.214791    23.633026    22.163971    9540.9385   -1479.4619    369.61356     964.5589    1227.1476    361.92558     35.02498   -3725.2348 
 9346000    281.30118   -4157.9483   -3675.8077   -4157.9483            0   -275.00187    18.009208    23.964586    22.173844    9569.8588   -389.13733   -470.97725    35.108986     101.4773    -114.0474    573.26881   -3714.1888 
 9347000     282.0567   -4168.9791   -3685.5436   -4168.9791            0   -1597.9064    18.189086    23.679423    22.385344    9641.5255   -1491.5879   -1525.3787   -1776.7526   -16.017753   -52.337568    -355.6475    -3910.228 
 9348000    280.09469   -4200.0828   -3720.0101   -4200.0828            0   -2395.0839    18.449078    23.763244    22.283082    9769.1249   -3236.4827   -2126.5763   -1822.1927   -1340.1034   -1145.8751    145.82715   -4061.2441 
 9349000    287.49573   -4172.8561   -3680.0983   -4172.8561            0   -3698.2489    18.507972    23.796355     22.33805    9838.1747   -4661.2772   -3490.9997     -2942.47   -672.54223   -50.099021    191.14864   -4210.7219 
 9350000    279.74468   -4181.3779   -3701.9051   -4181.3779            0   -2815.8488    18.205601    23.822434    22.540061    9775.6638   -2595.4885     -2059.64    -3792.418   -570.56379    282.92039   -243.40344   -4103.3551 
 9351000    277.48397   -4202.6269   -3727.0288   -4202.6269            0   -1063.5526    18.293131    23.864579    22.060509    9630.6888   -2038.2421   -1425.9066    273.49085   -1525.1627    308.04087    1045.9028   -3876.4087 
 9352000    280.56136   -4148.2405   -3667.3679   -4148.2405            0   -2103.6322    18.557701    23.564077    22.385295      9788.98   -3122.6197    -977.3861   -2210.8906    500.21027    598.56718   -186.54227   -3967.6871 
 9353000    290.82737   -4170.8444   -3672.3762   -4170.8444            0   -2747.7456     18.41313    23.699893    22.522625    9828.6302    -2835.137   -2743.1351   -2664.9645   -567.66878   -2.6793074   -170.01087   -4066.2394 
 9354000    280.32924   -4163.4828   -3683.0081   -4163.4828            0   -1979.4766    18.212142    24.074749    22.166577    9718.9969   -756.03357    -2111.053   -3071.3433   -1219.7412    92.237218    644.05651   -3963.5823 
 9355000    289.43676   -4149.4671   -3653.3824   -4149.4671            0   -1828.9064    18.186934    23.807508    22.405571    9701.2888   -1690.4638   -439.51875   -3356.7368    154.38698    393.57363   -54.665417   -3912.1422 
 9356000    266.36261   -4171.5895   -3715.0531   -4171.5895            0   -2769.0856    18.474971    23.644002    22.298308    9740.3972   -1568.1213   -2742.1861   -3996.9494   -53.810491    197.04837   -557.76284   -4108.4119 
 9357000    278.89309   -4186.2627   -3708.2495   -4186.2627            0   -2275.3249    18.350665    23.452322    22.474203     9672.126    -2947.716   -213.83213   -3664.4266    331.46818    267.81137    162.30671   -4029.2023 
 9358000    269.55852   -4143.7497   -3681.7357   -4143.7497            0   -2093.5016    18.232972    23.807216    22.435161    9738.5718   -1253.0525   -2693.6846   -2333.7678   -24.652206    92.503027    27.934868   -3979.0696 
 9359000    273.80601   -4162.1853   -3692.8912   -4162.1853            0   -3836.7527    18.357478    24.057955    22.231986    9818.6095   -3583.0896   -4795.1587   -3132.0096    1086.9862    378.16709    69.033947   -4242.2925 
 9360000    268.00145   -4154.7436   -3695.3983   -4154.7436            0   -2891.6567    18.389074    23.673922     22.44501    9771.2443   -3179.1533   -2763.9521   -2731.8647   -612.79999    27.403751    164.94926   -4107.4697 
 9361000    284.56812   -4170.0057   -3682.2657   -4170.0057            0   -2232.3986    18.253351     23.76719     22.30002    9674.4367    -1646.045   -2708.0897    -2343.061   -562.21687   -644.89768    142.07916   -3997.2386 
 9362000    280.63156   -4170.0717   -3689.0788   -4170.0717            0   -1799.6739    18.176521    23.968874    22.192597    9668.6651   -1134.9355   -1769.9448   -2494.1415    385.40446    -226.9939    464.97088   -3942.8464 
 9363000    282.40767   -4180.2977   -3696.2607   -4180.2977            0    -2908.127    17.986909    23.828999    22.735722    9744.7588   -1490.9773   -2854.0788    -4379.325    -253.6964   -1096.3516    179.31406   -4109.5559 
 9364000    288.66265   -4138.0702   -3643.3123   -4138.0702            0   -2350.6123      18.3752     23.84114    22.211505    9730.5433   -1453.9393    -2286.527   -3311.3708   -515.51574   -679.55027   -242.60563   -3976.8876 
 9365000    293.86059   -4156.3569     -3652.69   -4156.3569            0   -2657.8935    18.453613    23.646093    22.485003    9811.4629   -2577.4162   -1962.4652   -3433.7991    243.71246   -841.64331   -300.44047   -4033.0083 
 9366000    284.56282     -4194.33   -3706.5991     -4194.33            0   -2444.0987    18.247321    23.784922    22.492806    9762.1276   -2367.0423   -3428.8168    -1536.437   -313.99915   -192.64909   -235.56958   -4054.5669 
 9367000    267.41615   -4181.6091    -3723.267   -4181.6091            0   -926.08651    18.184071    24.040957    22.169835      9691.82    830.76021   -2518.8284   -1090.1914   -9.2603741   -591.11894    252.21113   -3854.1649 
 9368000    292.43859   -4212.9934   -3711.7636   -4212.9934            0   -1131.7488    18.296333    23.546469    22.374716    9639.3413   -1789.9926   -1603.4437   -1.8100183   -840.31992   -857.18184   -492.24506   -3870.8648 
 9369000     279.0644    -4148.501   -3670.1942    -4148.501            0   -1738.6752    18.571011    23.712491     22.14922    9753.7401   -1668.2848   -1773.3365   -1774.4043   -212.26212    1001.5064   -954.14618   -3917.5178 
 9370000    271.18554   -4166.6752   -3701.8725   -4166.6752            0   -2432.7361    18.122974     23.95158    22.407714    9726.6028   -1842.0819   -3815.7204   -1640.4059    6.0701404   -623.52091   -153.56604   -4046.9623 
 9371000    278.82059   -4186.0437   -3708.1548   -4186.0437            0   -2759.5933    18.122047    23.934477    22.358987    9698.0259   -3071.1769   -2531.2903   -2676.3127   -922.76091   -197.05698    180.62895   -4098.4599 
 9372000    297.44928   -4170.0785   -3660.2606   -4170.0785            0   -1653.4838    18.361312    23.745584     22.28764    9717.4127   -2466.5984    -970.6306   -1523.2223    396.61218    -340.9143    585.33502   -3894.5899 
 9373000    262.40965     -4182.77   -3733.0089     -4182.77            0     -2150.18    18.346413    23.590205    22.491339    9734.1537   -2292.0246   -968.06992   -3190.4454   -480.57102    374.30783    305.14121   -4038.2541 
 9374000    282.56112   -4142.2177   -3657.9176   -4142.2177            0   -3092.5498    18.375773    23.802021    22.398853    9796.8223   -3406.5622   -2329.1899   -3541.8972   -1420.0489   -195.24126    -4.765471   -4099.7706 
 9375000    282.93938   -4122.9078   -3637.9593   -4122.9078            0   -2189.8714    18.019472    24.054481    22.544814    9772.0281   -1040.5338    -2533.497   -2995.5833   -131.56722    32.414206    907.33788   -3950.0489 
 9376000    284.62326   -4169.9734   -3682.1388   -4169.9734            0   -2050.5221    18.289327    23.879816    22.338826    9756.3875    -2337.607   -3569.3576   -244.60164    150.87694    298.32808    120.79532   -3973.9013 
 9377000    282.20516   -4164.9538   -3681.2638   -4164.9538            0   -1360.8802    18.368013    23.703992    22.375835    9742.3316   -1912.5879   -1591.1204   -578.93228   -370.93193    1022.7991   -263.59391   -3874.6203 
 9378000    288.50925   -4180.8233   -3686.3283   -4180.8233            0    -1919.365    18.477647    23.587721     22.26406    9703.6923   -1367.0539   -585.15524   -3805.8857    553.35415    -958.3654   -294.04644   -3957.9538 
 9379000    280.03846   -4130.2297   -3650.2533   -4130.2297            0   -1136.7685    18.222613    23.753577     22.38872    9691.0076   -1039.1279    -672.0121   -1699.1655   -992.06891   -107.01288    706.56575   -3810.9167 
 9380000    280.97772   -4197.7863   -3716.2002   -4197.7863            0    -3013.829    18.143636    24.002994    22.392092    9751.7916   -3365.7175   -3364.9858   -2310.7837    309.30715   -284.54471    398.89062   -4144.8265 
 9381000    266.11233   -4190.7124   -3734.6049   -4190.7124            0   -1326.7971    18.374324    23.723099    22.116951    9640.6881   -3083.1802   -143.37466   -753.83658    277.84293   -247.74858    257.50183    -3921.152 
 9382000    286.41382   -4140.5471   -3649.6436   -4140.5471            0   -2355.7985    18.508187    23.380676    22.552257    9759.1267   -3318.2406   -2232.9632   -1516.1917    291.96646   -129.97403    246.62277    -3984.937 
 9383000    276.40922   -4183.7388   -3709.9828   -4183.7388            0   -1927.5114    18.309529    23.893007    22.276706     9745.384   -2130.7418   -2258.6236   -1393.1689    751.16365   -332.18214    146.42781   -3983.9332 
 9384000    277.54002   -4194.6925   -3718.9984   -4194.6925            0    -2786.589    17.859632    24.281213    22.420262    9722.6258   -1330.8572   -4247.0868   -2781.8231    605.04776    868.78972    367.35077   -4114.1215 
 9385000    259.23991   -4175.3989   -3731.0706   -4175.3989            0    -2179.107    18.341334    23.656952    22.420783     9728.379   -2092.9195   -1035.4357    -3408.966    414.43499    726.62645   -662.71511   -4040.2389 
 9386000     274.8238   -4161.5426    -3690.504   -4161.5426            0   -1318.3236     18.58618    23.434728    22.354952     9736.969   -2853.1902    853.32341   -1955.1042    663.55787   -397.69242    599.09145   -3877.7108 
 9387000    274.13471   -4178.7557   -3708.8982   -4178.7557            0   -2368.1187    18.255432    23.785225    22.426111    9737.6319   -1868.7941   -2213.4375   -3022.1247   -12.071056   -333.45981   -85.466222   -4045.2027 
 9388000    281.82075   -4169.2844   -3686.2533   -4169.2844            0   -1494.0399    18.052659    23.876941    22.449665    9676.7546   -1152.7096   -1811.6956   -1517.7144    142.79392    94.764478    166.50327   -3897.1005 
 9389000    251.37519   -4174.4475    -3743.599   -4174.4475            0   -2169.5765    18.377054    23.787153    22.214335    9710.7258    -1203.244   -2269.0549   -3036.4305    166.94696   -290.63488    312.91233   -4050.8566 
 9390000    283.02329   -4169.3163   -3684.2241   -4169.3163            0   -3100.1649    18.420831    23.606057    22.519437    9792.4239    -3611.468   -2382.7663   -3306.2605   -787.95272   -385.93673    489.43947   -4126.9662 
 9391000     281.4991   -4195.2337   -3712.7539   -4195.2337            0   -2227.7045    18.269511    23.632836    22.499205    9714.2645   -2056.9031   -2880.8458   -1745.3647    -1112.207    111.59348        316.3   -4028.3585 
 9392000    264.48914   -4159.0067   -3705.6813   -4159.0067            0   -3229.8071    18.320182    24.071456    22.225017    9801.0869   -2961.0609   -2659.6275   -4068.7328    683.14433   -123.20853    152.32166   -4167.3461 
 9393000     256.3941   -4139.2624   -3699.8117   -4139.2624            0   -2355.3744    18.182224    23.802115    22.585724    9774.5456   -1516.2078   -3598.9917   -1950.9237    630.52088   -527.18699   -310.55042   -4035.5744 
 9394000    257.42664   -4128.9816   -3687.7612   -4128.9816            0    -2750.556     18.57298    23.660417    22.220774    9764.7954   -4616.7907   -2784.3502   -850.52723    -215.9424     226.9304   -639.61378   -4079.4665 
 9395000    281.50289   -4142.2797   -3659.7934   -4142.2797            0   -3111.6604    18.390039    23.692805    22.593722    9844.3466   -2665.3376   -2881.2066   -3788.4368   -85.288555    857.12794    258.17027   -4106.5336 
 9396000    284.51098   -4194.6074   -3706.9654   -4194.6074            0   -2357.6544    18.314098    23.982836     22.39214    9835.1656   -3521.5356   -1688.7032   -1862.7245    517.99531   -59.756022    547.71645   -4045.1374 
 9397000    274.32032   -4192.4298   -3722.2542   -4192.4298            0   -3426.1687     18.32452    24.050651    22.254056     9807.733   -4031.0227   -4426.2674    -1821.216    120.14077    176.83275    462.49347   -4212.3187 
 9398000    261.89624   -4184.9187   -3736.0375   -4184.9187            0   -1409.9166    18.244078    23.537673    22.530846    9675.2671   -646.44107     175.9987   -3759.3075     226.4854   -103.51879   -117.80417   -3934.9822 
 9399000    294.03859    -4152.674   -3648.7019    -4152.674            0   -1905.9399    18.382868     23.68341    22.321735    9718.1915    -1724.947   -1563.3007   -2429.5718    -392.9063   -882.48339   -29.656764   -3918.8305 
 9400000    291.97964   -4204.2408   -3703.7976   -4204.2408            0   -1272.2549    18.197171    23.959004    22.205177    9681.1485   -454.35208   -1864.6565   -1497.7562    191.62196    -273.0516    236.55338   -3883.4268 
 9401000    287.92679   -4155.7755   -3662.2788   -4155.7755            0   -2885.3188    18.115723    23.975523    22.535871    9788.0936    -1299.045   -3638.4174    -3718.494    321.94142    -680.3514    757.43199   -4074.1561 
 9402000    271.03427   -4187.9939   -3723.4504   -4187.9939            0   -2618.4067    18.339504    23.750778    22.431206    9770.5284   -2359.4996   -4119.4574   -1376.2632    171.03559    401.31814    101.47511   -4096.5554 
 9403000    265.74014   -4117.0312   -3661.5617   -4117.0312            0   -3592.2961    18.459625    24.036788    22.484375    9976.5439   -2527.5431   -3601.8428   -4647.5026    594.63062   -274.94363    160.43533   -4184.2323 
 9404000    268.38415   -4173.2113     -3713.21   -4173.2113            0   -3111.9413    18.250132    23.920271     22.44517    9798.3965    -2532.272   -3610.9882   -3192.5638    657.81563   -375.51223   -120.52863   -4157.9051 
 9405000    275.53267   -4167.0042   -3694.7506   -4167.0042            0   -2175.5401    18.316324    23.838872    22.243606    9712.4593   -2019.5577   -1853.7202   -2653.3423   -228.26993   -107.21429     666.4808   -4002.9077 
 9406000    255.12776   -4178.0371   -3740.7569   -4178.0371            0   -1718.5437    18.316912    23.586856    22.416733    9684.8888   -1760.4984   -1501.4787   -1893.6541   -112.06313    438.93607   -550.32898   -3983.4912 
 9407000    265.24377    -4160.586   -3705.9673    -4160.586            0   -1692.8846    18.363561    23.777727    22.168098    9679.5613   -1387.2354   -1206.9634   -2484.4549    196.26088   -277.45469    58.980695   -3944.9458 
 9408000    282.17873   -4189.3138   -3705.6691   -4189.3138            0    -2254.765    18.262509    23.750063    22.439037    9732.6125   -1974.2627   -2561.5846   -2228.4476   -1015.1302    168.95244   -279.13385   -4025.7108 
 9409000    279.50784   -4169.8544   -3690.7875   -4169.8544            0   -3077.5019    18.279518    23.991827    22.386969    9818.0071   -2977.1485   -2561.6065   -3693.7507   -256.42242   -406.54016    429.69469   -4131.4414 
 9410000    288.76586   -4146.8003   -3651.8655   -4146.8003            0   -2029.6572    18.329267    23.867701    22.305113    9757.9842   -1560.7293   -2121.2151   -2407.0273    295.28438   -197.58046    -756.6574   -3940.7064 
 9411000     260.5772   -4180.8483   -3734.2279   -4180.8483            0   -2244.2793    18.327011    23.559395    22.426777    9683.2836   -2507.3769   -2253.5113   -1971.9497   -867.96598   -817.86459    1376.0649   -4051.1667 
 9412000    269.01138   -4165.1319   -3704.0556   -4165.1319            0   -1816.1732    18.385366    23.739144    22.143741    9664.6988   -969.54323   -2135.1464   -2343.8298    338.04153    272.81187    285.07276   -3960.0447 
 9413000    278.28795   -4171.0442   -3694.0682   -4171.0442            0   -1505.7115    17.962025    23.861027    22.521593    9652.5829    175.59092   -1697.4516   -2995.2738    165.94529    20.417993    1174.3745   -3906.0318 
 9414000    276.64825   -4182.9015   -3708.7359   -4182.9015            0   -1213.0831    18.344024    23.778992    22.241636    9701.8547   -887.34925   -2655.5421   -96.358084    68.942905   -263.35419   -478.88649   -3880.3769 
 9415000    283.20088   -4176.9225   -3691.5258   -4176.9225            0   -2096.8668    18.385206    23.573034    22.387079      9702.45    -1635.803    -1182.192   -3472.6053     -458.676    510.33729   -796.95732   -3988.2331 
 9416000    267.25665   -4130.4952   -3672.4265   -4130.4952            0   -1349.5029    18.241367    23.705395    22.468282    9715.7081   -1192.3304   -1021.7908   -1834.3877    57.422055   -340.85741    -492.6506   -3863.6424 
 9417000    272.44649   -4193.8237   -3726.8597   -4193.8237            0    -1668.652    18.254062    24.099643    22.063596    9706.1372   -2690.4809   -1616.2176   -699.25751   -425.38617    125.71291    297.60155   -3963.0642 
 9418000    294.04534   -4153.3769   -3649.3933   -4153.3769            0   -3052.8426    18.251385    23.613998     22.61252    9745.7285   -3321.5053   -4125.3556    -1711.667   -436.12397    -31.67783    857.54982   -4083.2982 
 9419000    282.90603   -4134.1757   -3649.2844   -4134.1757            0   -2538.9958    18.532384    23.800745    22.189699    9787.5335   -3929.8422   -2166.9466   -1520.1986    382.71917    80.130642    551.82921   -4011.7036 
 9420000    270.54612   -4155.1076   -3691.4008   -4155.1076            0   -3499.6782    18.364886    23.745576     22.52485    9822.7449   -2710.4174   -3203.7117   -4584.9054    22.982667   -272.96134     129.8751    -4192.746 
 9421000    284.86597   -4179.2305     -3690.98   -4179.2305            0   -2771.8769    18.249329    23.911897     22.47079    9805.7154   -2861.4923   -3066.7955   -2387.3429    401.31732   -96.139375     59.01528   -4087.3758 
 9422000    270.57084   -4157.4108   -3693.6616   -4157.4108            0    -2606.627    18.317758    23.819793    22.365365    9758.5726   -2541.0091   -3658.4981   -1620.3739   -381.70076    158.76827    279.26994   -4064.6336 
 9423000    273.19162   -4165.5588   -3697.3177   -4165.5588            0   -2128.5516     18.39335    23.554761    22.494257    9745.6586   -3002.9807   -1460.3445   -1922.3294    125.61875    192.16816    548.53686   -3999.8496 
 9424000    273.02502    -4169.913   -3701.9575    -4169.913            0   -3176.4872    18.564273    23.813838    22.158928     9796.165   -4525.9561   -3214.5719   -1788.9334    249.21641    466.73597    459.23869   -4155.7727 
 9425000    288.00672   -4170.3878   -3676.7541   -4170.3878            0   -2862.3998    18.255957    23.798422    22.521375    9784.7036   -2181.9053   -2978.8744   -3426.4199    91.471839    621.48592   -131.07202   -4085.2182 
 9426000    272.78337    -4168.306   -3700.7646    -4168.306            0   -1045.9437    18.175423    23.841616    22.295252     9661.234   -2110.6414    -1336.761    309.57131   -1026.2377    -1622.969    476.54396   -3848.1372 
 9427000    293.29302   -4169.0155   -3666.3213   -4169.0155            0   -654.95262    18.255614    23.630354    22.412483    9668.4454   -1377.4274   -477.80229   -109.62821    294.04765   -14.657031    1005.9935   -3758.6725 
 9428000    285.47781   -4164.7647   -3675.4655   -4164.7647            0   -967.25972    18.418208    23.463746    22.356755    9661.6986   -779.10621   -693.29137   -1429.3816    244.91917    331.72782    23.830621   -3811.7582 
 9429000    279.03765   -4176.2266   -3697.9656   -4176.2266            0   -1772.4072    18.373048    23.814471    22.152303    9692.6164   -2023.9758   -2417.4647   -875.78119   -408.33099   -155.41541   -495.71415   -3948.5075 
 9430000    272.67128   -4168.6312    -3701.282   -4168.6312            0   -2224.3347    18.079475    23.829111    22.623199    9746.4769   -1413.2402   -2172.3696   -3087.3944   -40.061477   -176.01943    -305.5324   -4017.4542 
 9431000    267.04953   -4135.1898    -3677.476   -4135.1898            0   -2088.4357    18.371955    23.934709    22.277019    9795.8155   -90.713019   -2827.1952   -3347.3988   -244.07575    640.25679     591.6219    -3975.834 
 9432000    269.87644   -4100.2353   -3637.6764   -4100.2353            0   -3258.8212    18.440192    23.804457    22.457891     9858.088   -4383.6861   -2645.8367   -2746.9408   -718.40064   -458.42223    43.658789   -4106.1974 
 9433000     285.7568   -4194.1022   -3704.3248   -4194.1022            0   -3218.0168    18.296529    23.802854    22.400412    9755.5946   -3539.9414   -3991.2431   -2122.8661     1048.383   -737.25116    -433.0433   -4162.1692 
 9434000    282.76443   -4193.3017   -3708.6531   -4193.3017            0   -2572.0328    18.335376    23.832347    22.275291    9733.7463   -2488.4518   -2374.4416    -2853.205    986.55194    -733.3764   -343.88491   -4073.7704 
 9435000    281.11318   -4150.2196   -3668.4012   -4150.2196            0   -1029.1285    18.126342    23.715633    22.530207    9685.2334   -227.52034   -2009.2315   -850.63376   -96.212034    432.17309    305.54544   -3813.7648 
 9436000    276.23599   -4130.3698   -3656.9108   -4130.3698            0   -2693.7535    18.481105    24.120677     22.05668    9832.3559   -1892.6524   -4602.3421   -1586.2658   -509.74584    648.47675   -136.07672   -4043.1811 
 9437000    260.21433   -4146.1387   -3700.1402   -4146.1387            0   -2310.4909    18.298584    23.742405    22.428468    9744.1018   -2466.6234   -1675.0476   -2789.8018    89.619882   -256.04838    -614.6997   -4028.4789 
 9438000    292.15094   -4147.9309   -3647.1941   -4147.9309            0   -1411.3451    18.333584    23.728466    22.437584    9760.9732   -2621.8079   -383.14475   -1229.0825    1293.5032   -454.55786   -582.72644   -3848.1044 
 9439000    265.85398   -4174.0604   -3718.3957   -4174.0604            0    -3124.584    18.339559    23.949383     22.25215    9773.6141   -3852.3638    -1952.931   -3568.4571    434.69367    273.61996   -677.20019   -4163.7681 
 9440000    282.25447   -4123.7737   -3639.9992   -4123.7737            0   -887.81397    18.162995    23.606271    22.507529    9650.3414    169.45448   -1095.8489   -1737.0475   -508.43606   -28.483398    780.55644   -3764.9504 
 9441000    273.55918   -4149.6294   -3680.7583   -4149.6294            0   -1680.4049    18.490715    23.716632    21.987673    9642.4191   -1424.8417   -1772.0334   -1844.3396   -163.77979   -551.97982    -168.4683   -3917.0649 
 9442000    284.33448   -4170.8598   -3683.5202   -4170.8598            0   -1118.8019    18.158908    23.671498    22.485587     9665.397    7.8091805   -874.63659   -2489.5783    125.18995   -526.13365   -627.07579   -3841.2264 
 9443000    273.88079    -4154.397   -3684.9747    -4154.397            0   -1847.4427    18.237146    23.957206     22.11965    9664.3199    -2805.831   -1735.5885   -1000.9088    159.09161   -764.35303   -709.97834    -3945.361 
 9444000    287.26943   -4156.2666   -3663.8966   -4156.2666            0    -1616.776    18.324808    23.746685    22.290957    9699.9866    -2256.217   -546.50883   -2047.6022   -95.885469   -1118.7416   -280.01678   -3892.6128 
 9445000    265.11253   -4141.8035   -3687.4097   -4141.8035            0   -2078.6107    18.266912    23.558076    22.599468    9725.3032   -2663.9699   -1667.5861   -1904.2762   -565.07565   -587.66446    340.65823   -3982.2265 
 9446000    273.33283   -4158.3618   -3689.8787   -4158.3618            0   -2311.9932    18.366671    23.905852    22.197448    9746.2538   -1720.7433   -3727.0316   -1488.2046    443.29439   -114.60502   -112.82209   -4018.5034 
 9447000    268.98843   -4143.4032   -3682.3662   -4143.4032            0   -238.56196     17.95554     23.66136    22.608368    9605.2215    2322.3233   -1502.7158   -1535.2934   -539.96767    140.85025    1042.1223   -3715.7845 
 9448000    286.59936   -4175.5474   -3684.3259   -4175.5474            0   -1737.3841    18.310362    23.796257    22.352204    9739.2596   -2246.7521   -380.22887   -2585.1714   -23.294592   -192.10264    609.33401   -3931.0989 
 9449000    270.29645   -4119.9732   -3656.6943   -4119.9732            0   -1998.2852    18.417838    23.948442    22.194758    9789.6314    -2041.902   -3651.0341   -301.91953    1031.8866   -594.87085    236.66005    -3941.993 
 9450000    277.60999   -4174.3086   -3698.4946   -4174.3086            0   -1894.6002    18.179528    23.670043    22.547455    9702.3998    -1477.289   -777.37006   -3429.1415   -150.16725    59.146671   -297.00786   -3966.5797 
 9451000    289.64256   -4179.7416   -3683.3042   -4179.7416            0   -1257.3049    18.290554    24.012622    22.022452    9672.3525   -1561.2347   -704.66771   -1506.0122    -15.45174   -694.84789    347.02945   -3860.6613 
 9452000    287.68629   -4170.3098   -3677.2253   -4170.3098            0    -1691.431    18.236077    23.696464    22.502288    9723.9262    68.389491   -1750.7602   -3391.9224   -492.58529    545.59449   -338.38444   -3917.0931 
 9453000    277.90444   -4189.2732   -3712.9545   -4189.2732            0   -2768.6903    18.472859    23.779375     22.31606    9802.8436    -2295.481   -3264.1412   -2746.4486    228.72942   -784.65653   -342.86645   -4108.7787 
 9454000    272.98304   -4174.1039   -3706.2203   -4174.1039            0   -3178.4166    18.344242    23.925214    22.368085    9817.1266   -3725.3708   -3138.5733   -2671.3056    58.754769   -622.38766   -138.94791   -4161.2828 
 9455000    272.46439   -4189.5939   -3722.5993   -4189.5939            0   -2349.0305    18.120645    23.933273    22.485617     9751.705   -2335.7226   -3647.1121   -1064.2567   -49.829338   -797.07142    76.756594   -4056.6751 
 9456000    276.24129   -4197.3402   -3723.8721   -4197.3402            0   -2375.7617    18.367192    23.698325    22.367216    9735.8159   -2505.7976    -1848.153   -2773.3346    233.55565    35.543324   -315.58039   -4061.1991 
 9457000    285.38257   -4188.0926   -3698.9567   -4188.0926            0    -3551.553    18.512567    23.637042     22.44785    9822.7825   -3849.0956   -3517.3799   -3288.1835    619.61824   -568.51198    750.05487   -4207.7351 
 9458000    276.91596   -4136.3525    -3661.728   -4136.3525            0   -2538.1988     18.32833    23.978664    22.293434    9797.7158   -1910.2317   -4809.8047   -894.56001   -620.23783   -98.852025    254.68027   -4024.4103 
 9459000    275.91589    -4166.143   -3693.2326    -4166.143            0   -2472.5895    18.074118    23.928799    22.422059    9697.3598   -748.60675   -3696.4888   -2972.6729  -0.49691674   -175.56268    63.607959   -4042.9212 
 9460000    273.65846   -4130.6431   -3661.6018   -4130.6431            0    -1421.489    18.352284    23.726109    22.316064    9717.0455   -1212.4161   -1070.3145   -1981.7364     -619.952    188.82124    295.85994   -3863.0455 
 9461000    290.78374   -4204.3947   -3706.0013   -4204.3947            0   -1851.4804    18.519567    23.529766    22.235307    9689.2814   -2730.7765   -692.12707   -2131.5375    850.51955     310.1359   -25.313196   -3967.6307 
 9462000    286.85489   -4181.1606   -3689.5011   -4181.1606            0   -2269.8828    18.236964    23.649247    22.583494    9740.0457   -2967.3181   -1899.0869   -1943.2433    169.60818   -883.39514   -1049.0628   -4011.9347 
 9463000    292.32641    -4163.722   -3662.6845    -4163.722            0   -2375.5388    18.319413    24.046755    22.151628    9758.2895   -2878.3102   -3292.4028   -955.90349     159.3831   -66.842105    121.32936   -4000.7585 
 9464000    272.41863   -4160.2684   -3693.3522   -4160.2684            0   -2974.7018    18.171717    23.894835    22.584453    9806.3996   -1646.5905   -2785.0003   -4492.5146    75.931443   -621.25431   -176.31791    -4118.783 
 9465000    266.85157   -4215.8892   -3758.5147   -4215.8892            0   -1977.4585    18.362633    23.695619     22.31114    9707.8884   -2387.7556   -1912.1532   -1632.4666    744.98764   -184.99689    210.49068   -4038.4825 
 9466000    263.23541   -4153.3593   -3702.1828   -4153.3593            0    -1327.128    18.484743    23.558437    22.242134    9685.8185   -2069.4997   -779.96486   -1131.9194    443.27507   -113.54614   -619.93656   -3889.6499 
 9467000    268.49945   -4184.4193   -3724.2204   -4184.4193            0   -1720.4768    18.323455    23.452395    22.464395    9653.6001     -1023.53   -1681.0787   -2456.8215   -642.60985   -399.32946    332.14101   -3966.4426 
 9468000    274.08134   -4153.2708   -3683.5048   -4153.2708            0   -1936.0282    18.185281    23.960284    22.280336    9708.0882   -1322.7088   -2471.5399   -2013.8359   -864.14324    211.92202    87.244498   -3957.6125 
 9469000    285.80128   -4163.4859   -3673.6323   -4163.4859            0   -1884.3922    18.191912    23.999529    22.399725      9779.66    -1420.419   -1359.9182   -2872.8394    -993.5092   -1001.4082    -348.0739   -3942.3962 
 9470000    279.56145   -4201.1857   -3722.0269   -4201.1857            0   -1339.1447    18.406708    23.495029    22.360001     9669.943   -2564.0288   -520.17677   -933.22866    435.60376    168.11871    479.82282   -3910.8814 
 9471000    278.55063   -4171.1368   -3693.7105   -4171.1368            0    -2194.222    18.438889    23.746134    22.250599    9742.4764    -4781.536   -1222.1512   -578.97865   -197.59675    41.797166   -288.93518   -4005.4744 
 9472000    278.01325   -4188.1104   -3711.6052   -4188.1104            0    -2761.633    17.995824    24.126738     22.55545    9793.1376   -1699.7471   -4065.2575   -2519.8943    1001.4355     262.3006    546.81071   -4106.0295 
 9473000    256.31885   -4142.1902   -3702.8685   -4142.1902            0   -2566.4639    18.362676    23.835294    22.471291    9835.2297   -2503.4124   -2100.8123   -3095.1669    108.77108    62.890912    479.60099   -4070.9937 
 9474000    270.35549   -4143.1848   -3679.8048   -4143.1848            0   -2305.2807     18.59092    23.612237    22.239176    9762.4022   -2530.0053   -2330.3137    -2055.523   -252.11501    427.36072   -432.67524   -4008.0182 
 9475000    280.73419   -4189.3925   -3708.2237   -4189.3925            0   -2677.9321    18.288015    23.781681    22.478722    9776.4397   -2806.7198   -2129.4248   -3097.6518   -384.63901    144.06488    356.64967   -4090.0415 
 9476000    278.58783   -4161.8274   -3684.3374   -4161.8274            0   -2688.9497    18.315755    23.816092    22.356081    9751.9397   -2765.6222   -3105.0779    -2196.149   -723.40265    403.74653   -485.48688   -4066.7653 
 9477000    298.24394    -4131.116   -3619.9361    -4131.116            0   -2317.5178    18.359967    23.906279    22.372702    9819.7929   -1758.4092   -865.28816   -4328.8561     -508.527     655.8505    283.98856   -3951.8316 
 9478000     289.8817   -4160.5144   -3663.6671   -4160.5144            0   -1842.0897    18.355976    23.637813    22.427195    9731.0506   -1250.3949    -2521.628   -1754.2464    188.34485    260.72535   -239.60324   -3925.0917 
 9479000     288.9726   -4172.7899   -3677.5008   -4172.7899            0   -1451.1471    18.634896    23.454664    22.104374    9661.2741   -2147.1255   -1108.1702   -1098.1456   -118.47739   -218.76074    54.872463   -3881.9671 
 9480000    266.82115   -4106.4361   -3649.1138   -4106.4361            0   -2419.9092    18.160149    23.875456    22.410294    9716.6966   -1924.0758   -2392.6131   -2943.0387      395.354    61.469244    -651.6338   -3992.0344 
 9481000    290.63138     -4165.12   -3666.9877     -4165.12            0   -2440.9294    18.248399    24.005783    22.388378    9807.6119   -2615.8811   -1323.1491    -3383.758    636.82101    -211.6411    297.28294   -4016.1235 
 9482000    273.00482   -4153.2491   -3685.3282   -4153.2491            0   -2426.1642    18.398584    23.618368     22.53326    9791.7052    -2348.376   -2161.4801   -2768.6365   -1265.3004   -234.42493   -101.73831   -4031.7892 
 9483000    279.01321   -4178.0312   -3699.8121   -4178.0312            0   -4031.8178    18.533733    23.655836    22.418468    9828.9503   -4581.3202   -3191.3757   -4322.7574   -684.76083   -107.74153    -397.9903   -4277.7536 
 9484000    277.96277   -4132.6451   -3656.2264   -4132.6451            0   -2672.0944    18.293922    23.881889    22.361342    9769.5232   -3120.6326   -2394.4175   -2501.2332    348.98628   -202.95471    221.47912   -4036.9423 
 9485000    260.41813   -4155.3794   -3709.0317   -4155.3794            0    -2784.991    18.245104    23.972063    22.362575    9780.7815     -1282.39   -4978.1048   -2094.4782   -3.1192055   -538.29722   -135.67974   -4106.2902 
 9486000     282.3218   -4173.3328   -3689.4429   -4173.3328            0   -1484.2995    18.356366    23.819012    22.260699     9733.057   -1744.8424   -1572.8663   -1135.1898   -325.53548   -330.03257   -5.9892761   -3900.1343 
 9487000    282.00217   -4169.5169   -3686.1748   -4169.5169            0   -1870.1562    18.303609    23.584497    22.511752    9717.9049   -3306.9257   -1067.8165   -1235.7264   -609.53716    277.03088    -136.1771   -3951.2239 
 9488000    270.34614   -4124.8093   -3661.4452   -4124.8093            0   -2378.6128    18.492426    23.809956    22.027727    9698.8927    -4269.891   -2334.6479   -531.29959     107.4984   -40.975691    -186.7005   -3997.8962 
 9489000    264.46733   -4145.5138   -3692.2258   -4145.5138            0    -2634.555    18.168474    23.678494      22.4842    9672.7502   -2113.1774   -2796.4305   -2994.0573    844.73287   -1261.9366   -397.79472    -4063.875 
 9490000    276.73345   -4161.7164   -3687.4048   -4161.7164            0   -1098.4908    18.215077    24.028411    22.036418    9644.8855   -30.882662   -1643.7496   -1620.8402    1135.6629    368.95916    202.21395   -3841.9193 
 9491000    273.63003   -4189.4977   -3720.5052   -4189.4977            0   -1741.4588    18.401474     23.64669    22.346097    9723.5455   -2316.2802    -1376.016     -1532.08   -1075.6193   -54.478382    899.71644   -3967.4578 
 9492000    283.27289    -4177.659   -3692.1389    -4177.659            0   -2281.1535    18.342527    23.576206    22.514237    9736.2186   -1642.7977   -1607.2989   -3593.3638    396.74212    93.243123    178.50094   -4016.0462 
 9493000    290.37574   -4151.2845   -3653.5904   -4151.2845            0   -2038.3444    18.333372    23.967638    22.249819    9776.7406   -3452.0627   -1796.2587   -866.71186   -342.81144   -179.78808    447.71909   -3944.2252 
 9494000    283.71992   -4155.8769   -3669.5906   -4155.8769            0    -2571.253    18.157623    23.909608    22.666571    9840.5023   -1964.9937   -3250.3895   -2498.3759    60.683958    434.33256    140.93001   -4038.6005 
 9495000    290.80924   -4144.0846   -3645.6475   -4144.0846            0   -2759.5794    18.422915    23.818343    22.401098     9829.676   -2506.6171    -1530.025   -4242.0962    193.09491    50.987424     332.0265    -4041.249 
 9496000    275.04329   -4152.7524   -3681.3376   -4152.7524            0   -2834.4123    18.294901    23.654692    22.609382    9784.4419   -3077.1613   -2509.3545   -2916.7212    461.06649    243.01213    76.976292   -4085.7971 
 9497000    260.29684   -4127.3734   -3681.2335   -4127.3734            0   -3192.9644     18.44674    23.914566    22.485386    9919.3331   -2973.3333   -3975.4223   -2630.1377   -1138.0204   -1119.3878      270.486   -4143.1383 
 9498000    285.66141   -4137.3181   -3647.7042   -4137.3181            0   -2555.8369    18.430604    23.980836    22.116805    9775.2139   -3215.9401   -1943.9225   -2507.6482   -139.61528    -735.1061   -633.56873   -4012.0681 
 9499000    268.82114   -4170.3058   -3709.5556   -4170.3058            0   -2598.0051    18.243401    23.741887    22.553753    9768.7695    -2600.452   -2624.3671   -2569.1962    68.118881    255.75947    810.42724   -4079.6868 
 9500000    286.77193   -4137.1194   -3645.6022   -4137.1194            0   -2053.9783     18.33461     23.86753    22.186199     9708.722   -2039.7053   -3388.9443   -733.28529    46.294449    366.36312    63.274453   -3936.4286 
Loop time of 369.472 on 64 procs for 250000 steps with 864 atoms

Performance: 116.924 ns/day, 0.205 hours/ns, 676.641 timesteps/s
374.7% CPU use with 16 MPI tasks x 4 OpenMP threads

MPI task timing breakdown:
Section |  min time  |  avg time  |  max time  |%varavg| %total
---------------------------------------------------------------
Pair    | 24.099     | 27.74      | 31.09      |  39.5 |  7.51
Bond    | 1.604      | 2.0646     | 2.9163     |  29.4 |  0.56
Kspace  | 190.89     | 196.93     | 201.15     |  24.4 | 53.30
Neigh   | 1.8046     | 1.9298     | 2.1244     |   6.7 |  0.52
Comm    | 50.747     | 55.242     | 59.73      |  37.2 | 14.95
Output  | 0.69838    | 0.69909    | 0.70104    |   0.1 |  0.19
Modify  | 58.141     | 64.976     | 71.98      |  47.3 | 17.59
Other   |            | 19.89      |            |       |  5.38

Nlocal:        54.0000 ave          62 max          46 min
Histogram: 2 3 1 2 0 0 2 1 4 1
Nghost:        2452.88 ave        2481 max        2417 min
Histogram: 1 1 2 1 1 2 2 2 2 2
Neighs:        12558.1 ave       14653 max       10381 min
Histogram: 1 1 3 3 0 1 1 4 0 2

Total # of neighbors = 200929
Ave neighs/atom = 232.55671
Ave special neighs/atom = 2.0000000
Neighbor list builds = 7770
Dangerous builds = 0

unfix		3
unfix		2
unfix		1

write_data	data.final.${pid} nocoeff
write_data	data.final.0 nocoeff
System init for write_data ...
PPPM initialization ...
  extracting TIP4P info from pair style
  using 12-bit tables for long-range coulomb (../kspace.cpp:340)
  G vector (1/distance) = 0.37053701
  grid = 24 27 25
  stencil order = 5
  estimated absolute RMS force accuracy = 0.0032870182
  estimated relative force accuracy = 9.8987578e-06
  using double precision FFTW3
  3d grid and FFT values/proc = 6300 1296
Last active /omp style is kspace_style pppm/tip4p/omp

write_restart   restart.lmp.${pid}
write_restart   restart.lmp.0
System init for write_restart ...
PPPM initialization ...
  extracting TIP4P info from pair style
  using 12-bit tables for long-range coulomb (../kspace.cpp:340)
  G vector (1/distance) = 0.37053701
  grid = 24 27 25
  stencil order = 5
  estimated absolute RMS force accuracy = 0.0032870182
  estimated relative force accuracy = 9.8987578e-06
  using double precision FFTW3
  3d grid and FFT values/proc = 6300 1296
Last active /omp style is kspace_style pppm/tip4p/omp
Total wall time: 0:06:09
