LAMMPS (30 Jul 2021)
Processor partition = 0
  using 4 OpenMP thread(s) per MPI task
using multi-threaded neighbor list subroutines
variable        pid world 0 1
variable        phase world IceII IceIh

shell cd ${phase}
shell cd IceII
include Restart.lmp
echo both
log log.lammps
#include		in.partitions
include		in.temp
variable        temperature equal 57.60
variable	tempDamp equal 100.0
include		in.pressure
variable        pressure equal 2016.3
variable        pressureDamp equal 1000.0 # This is 1 ps
include		in.seed
variable        seed equal 745823

units		real
atom_style	full
box tilt large
read_restart	restart.lmp.${pid}
read_restart	restart.lmp.0
Reading restart file ...
  restart file = 30 Jul 2021, LAMMPS = 30 Jul 2021
  restoring atom style full from restart
  triclinic box = (-10.666237 -9.1232191 0.13648453) to (12.646237 12.113217 21.723514) with tilt (-9.1557818 1.9785722 2.8170673)
  2 by 2 by 4 MPI processor grid
  restoring pair style lj/cut/tip4p/long/omp from restart
  restoring bond style harmonic/omp from restart
  restoring angle style harmonic/omp from restart
  1296 atoms
  864 bonds
  432 angles
Finding 1-2 1-3 1-4 neighbors ...
  special bond factors lj:    0        0        0       
  special bond factors coul:  0        0        0       
     2 = max # of 1-2 neighbors
     1 = max # of 1-3 neighbors
     1 = max # of 1-4 neighbors
     2 = max # of special neighbors
  special bonds CPU = 0.001 seconds
  read_restart CPU = 0.005 seconds
include 	in.setup
variable	out_freq equal 1000
variable	out_freq2 equal 10000
variable	out_freq3 equal 1000

timestep	2.0

neigh_modify    delay 7 every 1

include		in.tip4p
# This is TIP4P/Ice

# create groups ###
group ox type 2
432 atoms in group ox
group hy type 1
864 atoms in group hy

# set charges - beside manually ###
set group ox charge -1.1794
Setting atom values ...
  432 settings made for charge
set group hy charge 0.5897
Setting atom values ...
  864 settings made for charge

# ### TIP3P Potential Parameters ###
pair_style lj/cut/tip4p/long/omp 2 1 1 1 0.1577 8.5
pair_coeff 1 1*2 0.000 0.000
pair_coeff 2 2 0.21084 3.1668
bond_style  harmonic
bond_coeff  1 450 0.9572
angle_style harmonic
angle_coeff 1 55 104.52
kspace_style pppm/tip4p/omp 1.0e-5
pair_modify tail yes

thermo          ${out_freq}
thermo          1000
thermo_style    custom step temp pe etotal epair emol press lx ly lz vol pxx pyy pzz pxy pxz pyz enthalpy

restart 	${out_freq3} restart.lmp.${pid} restart2.lmp.${pid}
restart 	1000 restart.lmp.${pid} restart2.lmp.${pid}
restart 	1000 restart.lmp.0 restart2.lmp.${pid}
restart 	1000 restart.lmp.0 restart2.lmp.0


include         in.dump
dump            myDump all atom ${out_freq2} dump.water.${pid}
dump            myDump all atom 10000 dump.water.${pid}
dump            myDump all atom 10000 dump.water.0
dump            myDump2 all dcd ${out_freq2} dump.dcd
dump            myDump2 all dcd 10000 dump.dcd
dump_modify     myDump append yes
dump_modify     myDump2 append yes


variable natoms 	equal  "count(all)"                        # NUMBER ATOMS
variable H      	equal  "enthalpy/v_natoms"                 # ENTHALPY-per-atom
variable Vol      	equal  "vol/v_natoms"                 # volume-per-atom
fix AVG all 		ave/time ${out_freq} 1 ${out_freq} v_Vol v_H file vol_enthalpy.dat
fix AVG all 		ave/time 1000 1 ${out_freq} v_Vol v_H file vol_enthalpy.dat
fix AVG all 		ave/time 1000 1 1000 v_Vol v_H file vol_enthalpy.dat


timer           timeout 10:00:00 every 1000
New timer settings: style=normal  mode=nosync  timeout=10:00:00

fix 		1 all shake 1e-6 200 0 b 1 a 1
Finding SHAKE clusters ...
       0 = # of size 2 clusters
       0 = # of size 3 clusters
       0 = # of size 4 clusters
     432 = # of frozen angles
  find clusters CPU = 0.000 seconds
fix             2 all nph tri ${pressure} ${pressure} ${pressureDamp}
fix             2 all nph tri 2016.3 ${pressure} ${pressureDamp}
fix             2 all nph tri 2016.3 2016.3 ${pressureDamp}
fix             2 all nph tri 2016.3 2016.3 1000
fix             3 all temp/csvr ${temperature} ${temperature} ${tempDamp} ${seed}
fix             3 all temp/csvr 57.6 ${temperature} ${tempDamp} ${seed}
fix             3 all temp/csvr 57.6 57.6 ${tempDamp} ${seed}
fix             3 all temp/csvr 57.6 57.6 100 ${seed}
fix             3 all temp/csvr 57.6 57.6 100 745823


run             250000
PPPM initialization ...
  extracting TIP4P info from pair style
  using 12-bit tables for long-range coulomb (../kspace.cpp:340)
  G vector (1/distance) = 0.36763855
  grid = 30 40 32
  stencil order = 5
  estimated absolute RMS force accuracy = 0.0044778865
  estimated relative force accuracy = 1.3485022e-05
  using double precision FFTW3
  3d grid and FFT values/proc = 11832 2400
Last active /omp style is kspace_style pppm/tip4p/omp
Neighbor list info ...
  update every 1 steps, delay 7 steps, check yes
  max neighbors/atom: 2000, page size: 100000
  master list distance cutoff = 10.8154
  ghost atom cutoff = 10.8154
  binsize = 5.4077, bins = 7 5 4
  1 neighbor lists, perpetual/occasional/extra = 1 0 0
  (1) pair lj/cut/tip4p/long/omp, perpetual
      attributes: half, newton on, omp
      pair build: half/bin/newton/tri/omp
      stencil: half/bin/3d/tri
      bin: standard
Setting up Verlet run ...
  Unit style    : real
  Current step  : 36500000
  Time step     : 2
  Walltime left : 9:59:59.96
Per MPI rank memory allocation (min/avg/max) = 12.76 | 12.77 | 12.77 Mbytes
Step Temp PotEng TotEng E_pair E_mol Press Lx Ly Lz Volume Pxx Pyy Pzz Pxy Pxz Pyz Enthalpy 
36500000    61.668109   -6860.7243   -6702.0869   -6860.7243            0    2059.6665    23.312474    21.236436     21.58703    10687.175    1823.0639    2796.7401    1559.1955   -524.95854   -263.30906   -246.45498   -6381.0642 
36501000    60.706644   -6883.1744   -6727.0103   -6883.1744            0    2109.6698    23.222313    21.234675    21.673648    10687.672     2034.973    2646.4967    1647.5396    133.55448   -378.11878   -311.69673   -6398.1787 
36502000    58.480343   -6877.4725   -6727.0354   -6877.4725            0    2103.6814    23.208117    21.266072    21.646029      10683.3    2175.4233    2441.5288    1694.0923    673.17285   -442.03239   -123.33405   -6399.2713 
36503000    57.632782   -6875.9813   -6727.7245   -6875.9813            0    2179.9174    23.226974    21.357414    21.507234    10669.053     1681.175    1544.0874    3314.4897    289.15489    66.258539    752.58202   -6388.5355 
36504000    56.705174   -6881.2244   -6735.3538   -6881.2244            0    2238.6143    23.118469    21.348791     21.62501    10673.054    2592.8525      1944.92    2178.0705   -136.81016    11.137079    290.33163    -6386.901 
36505000    55.197342   -6870.2625   -6728.2707   -6870.2625            0    1682.5072    23.192311    21.376356    21.572129    10694.752    1376.6152    1375.8734     2295.033    87.507867    107.53107    491.67618   -6465.8467 
36506000    58.806798   -6874.0752   -6722.7983   -6874.0752            0    1829.1655    23.106294    21.366689    21.645951    10686.714    2220.6884    1483.5943    1783.2137    415.83673    166.01569    228.94634   -6437.7141 
36507000     55.53724   -6875.2902    -6732.424   -6875.2902            0     1596.275    23.118886    21.389294    21.639471    10700.646    1930.8664    1350.6478    1507.3106   -328.54526    487.30831   -162.19726   -6483.3126 
36508000    56.863266    -6872.955   -6726.6777    -6872.955            0    2152.9533    23.184278    21.336295     21.58655    10678.145    2110.8019    2231.9472    2116.1108    105.69817    9.3906634    34.817168   -6391.3988 
36509000     59.52758   -6868.6422   -6715.5111   -6868.6422            0    2386.6274    23.117278    21.289228    21.697732    10678.517    2934.9493    2240.6481    1984.2849   -805.02578    20.659018   -201.91029   -6343.8292 
36510000     59.04792   -6876.3078   -6724.4106   -6876.3078            0    1855.5159     23.25915    21.298792    21.574156     10687.66    1539.9298    1325.8231    2700.7948     263.5463    453.84841    662.95701    -6435.194 
36511000    58.683725   -6878.2302   -6727.2699   -6878.2302            0     1748.772    23.212766    21.207496    21.738155     10701.36     1969.312    2183.6243    1093.3796   -230.82649    266.49564   -216.76523    -6454.342 
36512000    57.989006   -6866.4202    -6717.247   -6866.4202            0    1896.2451    23.281264    21.272287    21.573226    10684.048    1599.9468    2219.9684      1868.82    114.59396    82.771608   -553.74204   -6421.7819 
36513000    58.306678   -6871.5565   -6721.5661   -6871.5565            0    2187.2733    23.208524    21.282394    21.620157    10678.908    2304.6903    2356.9227    1900.2068    -506.1703    48.743812   -491.53508   -6380.9182 
36514000    53.891435   -6870.6586   -6732.0262   -6870.6586            0    2493.1386    23.141597    21.274062    21.658518     10662.83    2215.1179    3138.5125    2125.7853    732.66601   -584.55082    297.44437    -6344.327 
36515000    58.319655   -6875.6185   -6725.5947   -6875.6185            0    2077.1392    23.206227    21.344241    21.544878    10671.593    2250.3378    1935.7242    2045.3554   -160.00966   -483.59505    43.198177   -6402.3208 
36516000    58.417707   -6877.5904   -6727.3144   -6877.5904            0    2352.8572    23.104085    21.344324    21.648727    10675.877    3125.8222    1929.4301    2003.3192     239.8979   -230.43066   -471.38208   -6360.9823 
36517000     58.42843   -6878.0264   -6727.7228   -6878.0264            0    1944.0077    23.143616    21.364962    21.601977    10681.367    2130.8935    2195.7455     1505.384    437.49671   -204.74175    273.15275   -6424.8916 
36518000    56.768568   -6881.5018   -6735.4681   -6881.5018            0    2195.4689    23.140308    21.365857    21.577343    10668.108    2232.4451    2788.7763    1565.1853    380.22758   -18.446446   -137.09569   -6393.8895 
36519000    57.125966   -6874.0278   -6727.0747   -6874.0278            0    2021.3351    23.092952    21.329145     21.67858    10677.848    3069.3869    1788.4505    1206.1678   -700.07019   -208.37808   -142.43159   -6412.3014 
36520000    57.399463   -6876.8827   -6729.2261   -6876.8827            0    2120.9407    23.211381    21.296775    21.592156    10673.598    1972.4649    2615.8226    1774.5346    103.82043   -247.74537   -99.589429   -6399.0731 
36521000    56.537593   -6881.2463   -6735.8068   -6881.2463            0    1550.1743    23.244003    21.179775    21.742273    10703.781    1680.1196    2104.8906    865.51269   -1.5873356    223.28235   -360.73813   -6493.8189 
36522000    60.396578   -6882.0728   -6726.7063   -6882.0728            0    1686.5233    23.262099    21.285545    21.605447     10697.86    1624.9113     1539.421    1895.2375   -605.44955    250.66316   -102.82302   -6463.5795 
36523000    58.410908   -6879.4824   -6729.2239   -6879.4824            0     2239.443      23.2434    21.285226    21.571102    10672.109    2101.7883    2398.5611    2217.9796   -554.53178   -297.21804   -160.52972    -6380.673 
36524000    60.374207   -6865.3074   -6709.9984   -6865.3074            0    1911.2032    23.155157    21.310826    21.693669    10704.861    2342.8736    2191.0015    1199.7344   -460.11563   -404.67969   -306.75245   -6411.6225 
36525000    60.230497   -6873.7181   -6718.7789   -6873.7181            0     1505.555    23.232454    21.391133    21.564092    10716.675    1268.4434    1410.5747     1837.647     474.8016   -8.7077651   -154.58272   -6483.4731 
36526000    58.519785   -6869.0197   -6718.4812   -6869.0197            0    2306.3518    23.118779    21.339191    21.656445    10683.905    3055.0264    2232.8284    1631.2005   -55.573377    250.32036    115.36433   -6359.1197 
36527000    57.416854   -6869.5836   -6721.8822   -6869.5836            0    2167.2079    23.131178    21.415514    21.583389    10691.678     2256.822    2394.3376    1850.4642    961.68426   -603.05659   -751.55682   -6383.9556 
36528000    57.662663   -6882.5373   -6734.2036   -6882.5373            0    2150.7543    23.146773    21.370829    21.575014     10672.42     2617.005    1787.2366    2048.0212   -102.73076    134.18869   -244.74178   -6399.4467 
36529000    56.234006   -6875.9625   -6731.3039   -6875.9625            0    1744.7325    23.156229    21.325729    21.675064    10703.655    1470.5715    1615.5625    2148.0635    143.85902    526.56193    27.363496    -6458.948 
36530000    60.822164    -6873.075   -6716.6137    -6873.075            0    1802.9103    23.260974    21.282286     21.59419    10690.133    951.14959    1902.6998    2554.8815   -4.5892931    1104.3737     902.7914   -6435.5317 
36531000    58.324978   -6870.9763   -6720.9388   -6870.9763            0    1971.0949    23.207853     21.31851    21.620668    10696.974    2196.2184    1582.9778    2134.0886   -792.65849    249.09159   -571.59828   -6413.4394 
36532000    59.835945   -6875.6619   -6721.7375   -6875.6619            0    2135.7611    23.234133    21.244087    21.624375    10673.531    1771.7949    2610.3885       2025.1   -406.55733    467.85192    54.215814   -6389.2796 
36533000    56.178553   -6869.7563   -6725.2404   -6869.7563            0     2632.301    23.247797    21.251706    21.583147    10663.269    2080.4762    2780.6295    3035.7972    101.87012    86.293962    35.369417   -6315.8838 
36534000    57.204054   -6876.5015   -6729.3476   -6876.5015            0    2246.5994    23.207561    21.199963    21.694972    10673.914    2088.0373    2545.8586    2105.9022   -327.87506   -25.482337     240.5481   -6379.6237 
36535000    57.265242   -6880.1825   -6732.8712   -6880.1825            0    2017.3122     23.28424    21.292321    21.533593    10675.828    1441.6656     2097.921    2512.3499    351.80262     219.6238   -274.20553   -6418.7837 
36536000    55.991361   -6874.8654    -6730.831   -6874.8654            0    2338.7107    23.129814    21.288633    21.681586    10676.059    2748.8272     2127.959    2139.3459    254.34863   -103.88596    13.651672   -6366.6952 
36537000    55.992609   -6868.3938   -6724.3562   -6868.3938            0    2278.0052    23.185493    21.372339    21.564507    10685.821    2231.6849    1670.6436    2931.6872   -219.64511   -78.079721    269.14981   -6369.3479 
36538000    57.038801   -6873.5681   -6726.8393   -6873.5681            0    2092.8509    23.127357    21.393822    21.596218    10685.432    1805.5137    2469.9447    2003.0944     162.6483   -936.86217    176.47476   -6400.6976 
36539000    57.655113   -6874.4378   -6726.1235   -6874.4378            0    2200.6217    23.146593    21.337861    21.621561    10678.862    2582.7633    1864.2482    2154.8535   -207.40203     244.1905    267.28087   -6383.3982 
36540000    55.726979   -6874.5898   -6731.2356   -6874.5898            0    2189.9972    23.161742    21.371364     21.56201    10673.152     1983.973     1837.394    2748.6247   -368.06329    26.363283   -303.80636   -6390.3472 
36541000    55.863385   -6875.5275   -6731.8224   -6875.5275            0    2488.7344    23.160821    21.324748    21.594685    10665.586    2543.5824    1829.2977     3093.323   -877.22407    180.85553    311.59458   -6344.7081 
36542000    56.604996   -6872.5851   -6726.9722   -6872.5851            0    2321.4272    23.181252    21.280254    21.633976    10672.104    2873.8779    2122.0907    1968.3131   -709.42022   -138.43435     202.8839   -6365.6614 
36543000    58.183689   -6871.3403   -6721.6663   -6871.3403            0    1684.0438     23.25495    21.207264    21.679573    10691.799    1492.7359    1784.0004     1775.395   -221.31184   -8.6282796    171.41706   -6459.0752 
36544000    58.922957   -6875.7107    -6724.135   -6875.7107            0    2165.5153    23.311163     21.22915    21.570834    10674.892    1461.3972     2249.716    2785.4327   -553.58031    290.29223    312.35333   -6387.0025 
36545000    53.905618   -6880.9717   -6742.3028   -6880.9717            0    2138.5887    23.234099    21.223877    21.661131    10681.486    2303.1826     2129.818    1982.7655   -162.07696   -284.57448   -46.750715   -6409.1566 
36546000    57.676747   -6872.4372   -6724.0672   -6872.4372            0    1867.4672    23.278809    21.242036    21.629462    10695.537    1713.2583    2329.8615    1559.2817   -84.760238   -587.20404   -774.52476   -6432.7733 
36547000    57.021591   -6879.5116    -6732.827   -6879.5116            0     1902.744    23.225488    21.303285    21.578877     10676.78    2012.7174    1912.2434    1783.2714   -117.98657   -19.925674    71.635616    -6436.551 
36548000    57.607143   -6869.1309     -6720.94   -6869.1309            0    2315.8151    23.148059    21.297946    21.664743     10680.85     2288.631    2799.5857    1859.2284    133.85627    34.451049   -220.12704   -6360.2072 
36549000    56.756333   -6868.2016   -6722.1994   -6868.2016            0    2324.4354    23.189464    21.339331    21.572395    10675.049    2244.4495    2103.1382    2625.7183    546.21069   -409.84564    147.53202   -6360.3205 
36550000    57.423723   -6874.4229   -6726.7039   -6874.4229            0    2199.3265     23.09536    21.391828    21.625514    10684.128    2041.0816    2520.0555    2036.8425    160.90015   -11.437152   -205.84207   -6384.0113 
36551000    59.119583   -6873.4797   -6721.3982   -6873.4797            0      2117.54    23.129286    21.393416    21.598916    10687.456    2234.9876    1603.8758    2513.7566    176.25036    171.72748   -6.4838141   -6391.3466 
36552000    57.570448    -6880.639   -6732.5425    -6880.639            0    1978.7591    23.115223    21.428201    21.565456    10681.751    2676.8628    1225.8704    2033.5439   -320.17242      6.72074    158.90272   -6424.2867 
36553000    55.257597   -6874.1451   -6731.9983   -6874.1451            0    1950.4859    23.150546    21.348202     21.63533    10692.667    1987.6001    2130.1455     1733.712    374.05971   -529.64533   -36.819707   -6427.8364 
36554000    57.534495   -6870.4897   -6722.4857   -6870.4897            0    2330.3928    23.228542    21.295545    21.566217    10668.041    2455.8758     2243.972    2291.3305    255.91367    170.48098   -18.208099   -6359.9175 
36555000    60.033997   -6879.4038     -6724.97   -6879.4038            0    1673.8442    23.241392    21.278709    21.640717    10702.348    1868.3198    1754.9281    1398.2846    31.843426   -92.023307   -179.63651   -6463.7118 
36556000    59.935173   -6873.3023   -6719.1227   -6873.3023            0    1973.0984    23.266814       21.215    21.652875    10687.977     1336.407    2853.5633    1729.3248    90.539378   -580.10801   -76.543858   -6411.5696 
36557000    58.918384   -6878.2126   -6726.6487   -6878.2126            0    2395.2126    23.301993    21.258037    21.560929    10680.306    2140.0728    2428.2702    2617.2947   -725.00537   -137.45997    340.63978   -6353.5672 
36558000    56.569789   -6873.9468   -6728.4244   -6873.9468            0    1718.6912    23.279704    21.195813    21.679552     10697.39    1726.2439    1978.0307     1451.799   -3.9587952   -596.30184    416.53776   -6460.2906 
36559000    56.760038   -6872.2381   -6726.2264   -6872.2381            0    1912.0165    23.255046    21.233519     21.65913    10694.985    2055.5744    2455.9347    1224.5404    -120.0457   -378.92012   -520.04506   -6427.9989 
36560000    55.741937   -6880.2573   -6736.8646   -6880.2573            0    1923.7588    23.211273    21.272643    21.629378    10679.832    1648.6382    2138.4677    1984.1705     -94.4049   -196.24112   -472.04078   -6437.2307 
36561000    57.743505   -6876.6662   -6728.1246   -6876.6662            0    2610.2601    23.141433    21.312887    21.622343    10664.372       3068.3    2580.4747    2182.0056   -785.51765       216.46   -255.13603   -6322.1536 
36562000    58.889837   -6874.2863   -6722.7958   -6874.2863            0    2271.5013    23.118857    21.380435    21.595361    10674.397    2047.8406    2366.2953    2400.3682    308.19134   -57.083587    142.20303   -6369.1795 
36563000    60.200392   -6872.2776   -6717.4157   -6872.2776            0    2095.8322    23.069758     21.40618    21.638214    10685.716    2293.8491    1608.6997    2384.9479    357.33459    106.63383    618.64512   -6390.8008 
36564000    55.786569   -6873.7189   -6730.2113   -6873.7189            0    1769.4851    23.136085    21.407372     21.60173    10698.965    2652.6291    1160.9162      1494.91    452.36064   -571.55103   -703.78296   -6454.1125 
36565000    53.898145   -6877.0426   -6738.3929   -6877.0426            0    1652.6649    23.163933    21.358937    21.602138    10687.809    1450.2175    1549.7232    1958.0539     325.5324    -212.9399    459.39963   -6480.7908 
36566000    60.128572   -6875.0824   -6720.4053   -6875.0824            0    2223.9308    23.156222    21.336512    21.605128     10674.51    2250.7753    2154.7793    2266.2378   -317.19122   -139.58728    142.35924   -6374.1909 
36567000    56.389753     -6880.59   -6735.5308     -6880.59            0    1870.3068    23.191581    21.289958    21.645958    10687.644    1925.5958    1756.8484     1928.476   -15.162875   -281.43788   -44.974318   -6444.0092 
36568000    56.593271   -6879.4144   -6733.8316   -6879.4144            0    1598.4084    23.284626    21.257115    21.615389    10698.839    1514.8177    2167.9803    1112.4271   -82.230892    178.73706   -324.03815   -6484.4294 
36569000     55.80549   -6881.6477   -6738.0915   -6881.6477            0    1492.0978    23.227845    21.245361     21.69952    10708.365    1820.5536    1895.0752    760.66452   -298.72424   -201.86504   -371.63435   -6505.0698 
36570000    55.851731   -6874.1131   -6730.4379   -6874.1131            0    2106.8989    23.309196    21.238265    21.555222    10670.845    1632.4521    2507.4906    2180.7541    99.471725   -114.62894    228.86427   -6402.5553 
36571000    58.507236   -6875.4608   -6724.9545   -6875.4608            0    2150.2599    23.188982     21.33527     21.58704    10680.041    2985.2876    1863.8417    1601.6503   -755.68529   -401.97455   -657.83657   -6390.0355 
36572000     60.91173    -6871.266   -6714.5743    -6871.266            0    1611.3117    23.090935    21.372825    21.697624    10708.179    2179.1948    1425.7906    1228.9498    326.31746   -55.745885    65.552874   -6462.9393 
36573000    56.697159   -6879.6125   -6733.7625   -6879.6125            0    1662.6203    23.158493    21.451569    21.536314    10698.939    2397.4982    600.51532    1989.8473    3.0954402     281.8049   -165.77785   -6474.3388 
36574000    56.670359   -6874.5591    -6728.778   -6874.5591            0    1866.7994    23.155201    21.360545    21.623687    10695.242    1608.7373    2201.8344    1789.8265    526.89449    331.78448   -82.917426   -6437.5963 
36575000    57.349745   -6875.2263   -6727.6976   -6875.2263            0    2053.5479    23.094822    21.354267    21.668345    10686.243    2237.5608    2275.3764    1647.7064     850.7541   -236.07211    657.32157   -6407.6565 
36576000    59.078014   -6880.4522   -6728.4776   -6880.4522            0    1714.3129    23.218079    21.345542     21.57602    10693.129    1429.8139    2214.7589    1498.3659    207.70888   -49.136598    -683.8207   -6461.1334 
36577000    57.128991   -6879.2653   -6732.3044   -6879.2653            0    2197.8314    23.214711    21.251469    21.655077    10683.461    2492.2314    2250.0876    1851.1753     176.0814    35.453912   -335.39131   -6389.8662 
36578000    57.459718   -6865.9239   -6718.1122   -6865.9239            0    2231.0906    23.235602     21.23713    21.654453    10685.552    2705.5829    2451.3383    1536.3506   -36.640158   -482.15934     188.4312    -6370.424 
36579000    55.738225   -6876.8768   -6733.4936   -6876.8768            0    1859.9533     23.28069      21.2268     21.63221    10690.088    1099.7028    2751.4532    1728.7038   -124.82608   -849.42152   -84.612871   -6443.5195 
36580000    59.366222   -6872.2286   -6719.5126   -6872.2286            0    1728.3685    23.239213    21.288862    21.625908    10699.124     1128.373    1818.8564    2237.8762   -632.29306    113.22649    883.09826   -6449.8253 
36581000    56.466307   -6877.9075   -6732.6514   -6877.9075            0     1965.622    23.256846    21.222063    21.646899    10684.006    1683.1167    1898.4102    2315.3391    346.53272   -35.251757    291.64876   -6426.3774 
36582000    57.580769   -6878.8318   -6730.7088   -6878.8318            0    1918.9662    23.225616    21.296577    21.598002    10682.936    1842.5685    1189.9148    2724.4153   -211.35827     468.8216    493.96285   -6431.7345 
36583000    60.144567    -6884.883   -6730.1648    -6884.883            0    2149.7973    23.140057    21.362312    21.595848     10675.37    1807.3535    1943.3865    2698.6518   -109.25783   -189.90414    21.945018   -6395.4643 
36584000    58.685021   -6866.5578   -6715.5941   -6866.5578            0    2548.8702    23.096096    21.355129    21.606918    10656.966    2786.3787    2614.8437    2245.3881    109.35184    240.09987   -141.69648   -6319.4464 
36585000    57.735635   -6878.5823   -6730.0609   -6878.5823            0    1887.2556    23.076624    21.458193    21.586853    10689.436    2358.5427    1519.1912    1784.0328   -611.52379    181.31704   -502.12489   -6435.8482 
36586000    56.654894    -6876.636   -6730.8948    -6876.636            0    1863.8586    23.114465    21.381303    21.616649    10683.324    1603.3369    1720.2302    2268.0086    523.66454    881.72199    226.19326   -6440.4957 
36587000    54.714169   -6875.1241   -6734.3753   -6875.1241            0    1638.7309    23.174792    21.384138    21.585509    10697.195    1294.6092    1435.5648    2186.0188    264.09522    447.75679   -155.80516   -6478.7208 
36588000    59.328752   -6879.5644   -6726.9448   -6879.5644            0    1563.4824    23.194394    21.347619    21.604427    10697.326     1358.719    1372.9951    1958.7332    160.07082   -473.16054    161.17461   -6483.0267 
36589000    56.366946   -6884.8245   -6739.8239   -6884.8245            0    2054.3413    23.210634    21.301129    21.620408    10689.404     2124.276    1702.0926    2336.6553   -626.91304   -242.37639    238.53871   -6419.5644 
36590000     58.01058   -6879.4122   -6730.1835   -6879.4122            0    2189.9688    23.284022    21.239504    21.595682    10679.952    1710.4057    2442.2596    2417.2411     -97.5761    -308.7912    600.11971   -6389.0824 
36591000    56.057077   -6878.8841   -6734.6806   -6878.8841            0    1793.2872    23.276937    21.205448    21.679323    10700.868    1311.7111    2184.6634    1883.4872    40.303438    471.25964   -129.64127   -6454.8181 
36592000    58.497255   -6878.0868   -6727.6061   -6878.0868            0    2527.3954    23.255517    21.228944    21.623073    10675.096    2619.8113    2599.6487    2362.7261   -446.14999   -195.01223   -327.56505   -6334.1278 
36593000    56.167597   -6872.2796   -6727.7919   -6872.2796            0    2404.3409     23.29446    21.227398    21.583761    10672.755    2109.4277    2896.4323    2207.1628   -314.87431     64.46669    55.689779   -6353.5533 
36594000    58.628432   -6876.5738   -6725.7557   -6876.5738            0    1920.5121    23.195895    21.282002    21.678495    10701.699    2100.4359    2414.2798    1246.8206   -159.83666    -62.11454   -345.25855   -6426.0151 
36595000    58.338133   -6887.2876   -6737.2163   -6887.2876            0    1834.6588    23.217471    21.337615    21.551383    10676.673    2004.2663    1510.2992    1989.4107   -140.30038     380.4691    429.50925   -6451.5447 
36596000    56.933852   -6867.7135   -6721.2546   -6867.7135            0    1939.3581    23.095159     21.41391    21.601749    10683.311    2405.4169    1445.0376    1967.6198    194.64534    354.81058   -348.18616   -6419.0927 
36597000    59.252798   -6881.4308   -6729.0066   -6881.4308            0    1658.6614    23.103272    21.389239     21.64629    10696.761    1801.8491    1785.2795    1388.8555    781.96913    638.19714   -206.11965   -6470.2533 
36598000    55.237958     -6879.24   -6737.1438     -6879.24            0     1577.417     23.09487    21.465157    21.571996    10693.994    1923.5664    1128.0729    1680.6118    -83.76872    281.92724    134.52702   -6491.1283 
36599000    57.362092   -6874.7168   -6727.1563   -6874.7168            0    2205.6802    23.130479    21.375628    21.599222    10679.271    2287.9677    1855.7601    2473.3129    116.42366   -96.004547    41.784351   -6383.6299 
36600000    57.357082   -6879.4638   -6731.9162   -6879.4638            0    1902.9385    23.176234    21.275541    21.682991    10691.599    2134.0823    1806.5355    1768.1976    388.05613    218.06434   -203.69815   -6435.1986 
36601000    55.039382    -6877.493   -6735.9075    -6877.493            0    2075.1132    23.258023    21.281221    21.578655    10680.552    1619.0531    1733.8426     2872.444    125.64505   -100.09252    437.46667   -6412.6777 
36602000    56.653079   -6875.4748   -6729.7382   -6875.4748            0    2007.8574    23.244242    21.255919    21.635657    10689.696    1379.0246     2415.891    2228.6567    160.86146    38.773194    107.64495   -6416.7167 
36603000    56.251026    -6863.428   -6718.7257    -6863.428            0    2368.9958    23.347097    21.175057    21.592727    10674.928    1574.6773    3102.2948    2430.0153   -542.99175     235.5365    11.194772   -6349.9136 
36604000    58.942154   -6877.4045   -6725.7794   -6877.4045            0    2414.5536    23.252382    21.222926    21.627904    10673.015    2152.1425    2353.3744     2738.144    793.95573   -509.38502      454.584   -6349.9421 
36605000    60.108453   -6878.6729   -6724.0476   -6878.6729            0    2133.7892     23.24891    21.254976    21.631791    10689.458    1789.8975    2161.8785    2449.5917   -383.81916    25.592753   -152.58507    -6391.401 
36606000     59.44865   -6886.7865   -6733.8585   -6886.7865            0    1301.9526    23.223623    21.336616    21.623257    10714.617    1138.3908    1033.7195    1733.7475   -55.750223   -31.668112    23.643097   -6530.4132 
36607000    57.846673   -6879.4498   -6730.6428   -6879.4498            0    1900.2958    23.119415     21.34848    21.653328    10687.311    2571.7158    1721.8398    1407.3317   -193.27388    125.77948    98.169958   -6434.4561 
36608000     57.16642   -6877.7679   -6730.7108   -6877.7679            0    1692.1898    23.128877    21.432612    21.580014    10697.477    1784.3557    1327.8081    1964.4055    33.017552    103.22817    31.756796   -6466.7093 
36609000     59.14077   -6884.2846   -6732.1486   -6884.2846            0    1445.4885     23.08448    21.469252    21.587158    10698.736    1763.6783    599.56376    1973.2235   -31.580236    -87.58575    608.21156   -6506.6089 
36610000    56.958083     -6879.59   -6733.0688     -6879.59            0    1667.9957    23.094355    21.446803    21.597985    10697.484    1768.5673    1218.9597    2016.4602    267.75001    2.4410075    329.39146   -6472.8417 
36611000    55.930549   -6870.6673   -6726.7894   -6870.6673            0    2304.7919    23.107567    21.359523    21.621404    10671.603    2496.5128    2691.4605    1726.4024    2.2324155   -315.92038    68.112109   -6368.0845 
36612000    58.957566   -6877.7044   -6726.0397   -6877.7044            0     2446.369    23.175899    21.324338    21.571691    10660.961    2740.1531    2585.5942    2013.3599   -165.71708   -176.16097   -237.96639   -6345.6802 
36613000    58.008426   -6874.8769   -6725.6538   -6874.8769            0    2323.5201    23.222543    21.264591    21.606148    10669.502    2471.5367    2185.5564    2313.4672    12.867824   -113.67549   -233.13495   -6364.1054 
36614000    56.265823   -6868.0449   -6723.3045   -6868.0449            0    2022.8316    23.213216     21.25847    21.650873    10684.218    1703.4847    2335.1218    2029.8882   -289.44703    361.59825   -244.24438   -6408.1102 
36615000    56.215794   -6869.3605   -6724.7488   -6869.3605            0    1939.8523    23.353929    21.235733    21.567184    10695.982    826.66781    2637.9339    2354.9552    82.209431    272.58281   -186.69365   -6422.1514 
36616000    55.861762   -6881.9921   -6738.2912   -6881.9921            0    1528.4337    23.217455    21.197933      21.7568    10707.871    1395.4803    1896.9399    1292.8807    108.77568    5.0157465    236.26666   -6499.6059 
36617000    55.631249   -6885.5899   -6742.4819   -6885.5899            0    1996.6369    23.240017    21.316484    21.534804    10668.244    1633.4506    1831.2792    2525.1809    43.990008    91.760904   -51.148666   -6431.8343 
36618000    55.433321    -6877.122   -6734.5232    -6877.122            0    2467.3903    23.100077     21.26985    21.712987    10668.354     2288.629    2961.4694    2152.0725     313.4409    580.99272   -100.12805   -6350.6293 
36619000    58.382585   -6880.7294   -6730.5438   -6880.7294            0    1787.8684    23.159522    21.359016    21.627866     10698.54    2105.6855     1334.665    1923.2548    66.893632   -76.121136    358.46917   -6451.5876 
36620000    59.099027   -6881.5522   -6729.5236   -6881.5522            0     1944.079    23.185982    21.377977    21.548912    10681.136    1747.0644    2046.8664    2038.3063    320.68918   -285.98302   -194.88552   -6426.6877 
36621000    54.808001   -6871.0819   -6730.0916   -6871.0819            0    2069.9224    23.010558    21.410761    21.684007    10683.137    2794.2812    1821.9655    1593.5203   -274.38952    166.91966    11.647489   -6407.5924 
36622000    59.277154   -6869.3086   -6716.8217   -6869.3086            0    2348.2315    23.136167    21.397868    21.541911    10664.639    2265.1714    2287.8487    2491.6745     802.5933   -164.69505   -549.50744   -6351.5947 
36623000      55.2474   -6871.4222   -6729.3016   -6871.4222            0    2366.9857     23.09143    21.327934    21.681726    10678.087    2493.2815    2572.3286     2035.347    380.43053    292.75617    -90.31945   -6360.6934 
36624000    58.409696   -6875.6484   -6725.3931   -6875.6484            0    1991.6221    23.198107    21.342548    21.580603    10684.701    2387.8843    1376.6401     2210.342    -127.5453   -418.60453    47.370688   -6415.0477 
36625000    60.353274   -6877.4067   -6722.1516   -6877.4067            0    1914.8904    23.214168    21.294525    21.617502    10686.281    1884.1301    1369.6657    2490.8755   -209.70835   -214.37452    393.29681   -6423.7189 
36626000    58.459062     -6878.22   -6727.8376     -6878.22            0    2400.3648     23.26439    21.212669    21.613193    10666.106    2177.9543    2563.9405    2459.1995   -60.250768   -622.01131    -273.3256   -6354.4508 
36627000    58.439149   -6880.7931    -6730.462   -6880.7931            0    1631.5343    23.303814    21.211751     21.66605    10709.847    1010.8118    3004.6725     879.1187   -163.34215    908.37185    -392.0618   -6475.6292 
36628000    57.118497   -6875.9852   -6729.0514   -6875.9852            0    2025.1336    23.240402    21.248066    21.640094    10686.172    2038.2944    2455.5205    1581.5858    230.61949    59.758804   -364.14334   -6413.4407 
36629000    58.334614   -6870.0255   -6719.9633   -6870.0255            0    2408.2894    23.236102    21.300246    21.568285    10674.892    2080.2302    2271.6724    2872.9656    536.55378   -70.700335    89.866256   -6345.0351 
36630000    54.453833   -6879.8393   -6739.7602   -6879.8393            0    1866.0226    23.136564    21.318801    21.699816      10703.3    1844.1249    2598.4877    1155.4552    -203.5492    448.15812    22.630916   -6448.4803 
36631000    57.366359   -6885.7738   -6738.2023   -6885.7738            0    1918.5455    23.190308    21.389844    21.556889    10693.016     1636.172     1937.029    2182.4356    365.10414   0.95695821   -87.329286   -6439.0115 
36632000    59.424742   -6875.1947   -6722.3282   -6875.1947            0     1344.639    23.108273    21.431839    21.634008    10714.302    2441.5176    543.93191    1048.4674    145.87338    205.05609   -396.98073   -6512.2188 
36633000    55.100846   -6867.2444   -6725.5008   -6867.2444            0    1593.5734    23.112728    21.410532    21.633767    10705.596    1011.8057    2267.0121    1501.9025    880.25224    613.57068   -53.209597    -6476.696 
36634000    57.696362   -6885.7813    -6737.361   -6885.7813            0     1928.457    23.142164    21.384955    21.598252    10688.848    2199.3005    1746.8718    1839.1985   -323.42853   -283.90523   -404.15921   -6436.7417 
36635000    56.580399   -6882.8063   -6737.2566   -6882.8063            0    1902.2933      23.1054    21.356144    21.660226     10688.07    2408.3632    1454.9639    1843.5529    569.01074    285.77512    279.60294   -6440.7375 
36636000    58.667413   -6873.3026   -6722.3842   -6873.3026            0    2153.3879     23.18727    21.374313    21.557878    10684.342    1844.9278    1984.5577    2630.6783   -361.90712    64.881649   -133.15141   -6386.8429 
36637000    55.318814    -6874.103   -6731.7987    -6874.103            0    2371.0051    23.196058    21.270069     21.62823    10670.974    1764.5216    2439.5478    2908.9461    275.39429   -7.7897479    438.33307   -6362.8105 
36638000    56.396745   -6880.3934   -6735.3162   -6880.3934            0    2629.6974    23.235321    21.243669    21.607861    10665.715    2311.7837    2840.2876     2737.021   -125.45313     84.40366   -299.29609   -6326.2707 
36639000    56.049531   -6874.4159   -6730.2319   -6874.4159            0    2421.5586    23.229571    21.167504    21.678805    10659.729    2417.6213    2504.4073    2342.6473    263.08387    266.04601    760.75504   -6353.7735 
36640000    56.714368   -6874.4135   -6728.5193   -6874.4135            0    1788.8747    23.272839    21.274095    21.591154    10689.966    1167.2088    2742.5388    1456.8764   -287.18885   -110.11107   -434.82624   -6449.6298 
36641000    56.633172   -6877.2667   -6731.5814   -6877.2667            0     1905.888    23.187528      21.2967    21.621789    10677.226    1662.9956    2404.3737    1650.2946   -189.57687   -159.10666    221.17052   -6434.8034 
36642000    59.131291   -6880.5999   -6728.4883   -6880.5999            0    1717.6149    23.182485    21.340706    21.622703    10697.413    2111.0202    1661.3822    1380.4424   -144.92171      47.3802   -189.70161   -6460.5218 
36643000     57.61622    -6876.544   -6728.3298    -6876.544            0    2276.1564    23.150722    21.357851    21.579463    10669.958    2393.5632    2011.5229    2423.3833   -112.70128   -157.38507    50.650143   -6374.1362 
36644000    57.786719   -6876.8312   -6728.1784   -6876.8312            0      2306.25    23.131374     21.35445     21.58306     10661.12    2169.5763    2368.4623    2380.7116   -25.075744    119.59611    441.37121   -6369.5991 
36645000    60.797078   -6875.7559   -6719.3591   -6875.7559            0    2171.5644    23.128493    21.365873      21.5954    10671.592    2219.8202     2024.124     2270.749    524.19099    -663.1285   -240.81269   -6381.3893 
36646000    57.116713   -6878.2531   -6731.3238   -6878.2531            0    1860.2349    23.123968    21.351947    21.636638    10682.912    2197.3131    1810.3993    1572.9924    111.69022    300.81569    575.01415   -6441.5005 
36647000    56.216256   -6879.5468   -6734.9339   -6879.5468            0    2393.2288    23.226478    21.308457    21.547166    10664.132    1722.4331    2294.7545    3162.4987    141.12968    155.14738   -535.94204    -6362.726 
36648000    56.676139   -6880.1381   -6734.3421   -6880.1381            0    2218.3459     23.17005    21.254355    21.660437    10666.996    1845.5976    2689.4608    2119.9793   -348.99447    273.38878    161.11726   -6389.2403 
36649000     59.77221   -6875.0544    -6721.294   -6875.0544            0    1897.8523    23.293183    21.265352    21.581771    10690.265    1004.9354    1866.0429    2822.5788    9.7175315   -67.737334     371.4042   -6425.4064 
36650000    56.781417    -6876.907   -6730.8402    -6876.907            0    1976.8866     23.23507    21.190476    21.708085     10688.24    2089.2138    2358.5454    1482.9005   -733.52337    420.21104    698.14165   -6422.6891 
36651000    59.705534   -6875.5525   -6721.9636   -6875.5525            0    1933.8779    23.285874    21.280993    21.580254     10694.02    1927.8102    1634.4244    2239.3991   -150.62008   -974.26124   -240.66928   -6420.3535 
36652000    55.688561    -6878.262   -6735.0066    -6878.262            0    2106.7355    23.275312    21.225308    21.618961    10680.322    1418.9643    2504.8297    2396.4123   -223.30563    177.22219    571.68045   -6406.8582 
36653000    60.242136   -6875.7823   -6720.8131   -6875.7823            0    1732.4582    23.262963     21.26737     21.64374    10708.068    1547.4485    1902.4659    1747.4603    328.00278   -373.30221   -280.10657   -6450.2617 
36654000    58.289934   -6877.8041   -6727.8568   -6877.8041            0     2567.464    23.242187    21.273531    21.574092    10667.167    1526.0428    2825.2922    3351.0572   -140.47536    599.78327    512.26772   -6328.4372 
36655000    57.186854   -6880.8271   -6733.7174   -6880.8271            0    1623.3887     23.18984    21.319489    21.652082    10704.693    1599.8919     1923.252    1347.0224    186.79424    173.78755    265.47604   -6480.2789 
36656000    55.518165   -6885.2548   -6742.4377   -6885.2548            0    1464.3568     23.15699    21.404551    21.605592    10709.135    1254.0651    942.60834    2196.3969    80.626689    629.16327     121.5874   -6513.7319 
36657000    56.959269   -6880.2977   -6733.7734   -6880.2977            0    2407.1182    23.113214     21.36129    21.610041    10669.484    3021.1071    2253.7787    1946.4688    653.11814   -207.06148   -230.12998   -6359.2175 
36658000    57.862257   -6881.4212   -6732.5741   -6881.4212            0    2605.1424    23.067796    21.423258     21.56836     10658.81    2598.2791    2579.2512    2637.8968    282.11597     338.4952   -600.12121   -6327.6104 
36659000    58.306274     -6876.01   -6726.0206     -6876.01            0    2548.0371    23.111577    21.345977     21.60642    10659.294    2812.9061    2578.9013    2252.3039    161.83473    193.94129  -0.36173678   -6329.9158 
36660000    54.621109   -6870.9299   -6730.4204   -6870.9299            0    2269.5352    23.150174    21.338334    21.604163    10672.157    3029.4897    1630.4729    2148.6429   -2.9384927    62.755392   -57.567504   -6377.1844 
36661000    56.192318   -6879.4449   -6734.8935   -6879.4449            0    2573.6567    23.197918    21.262006    21.589444    10648.654    2247.1863    2906.8952    2566.8887   -125.52959    4.4719373   -9.8300338   -6335.2054 
36662000    60.024062   -6881.1506   -6726.7424   -6881.1506            0    2348.1861     23.20481     21.26354    21.605029    10660.276    2084.9877    2335.6124    2623.9581   -146.32363    279.04659   -269.83552   -6361.6718 
36663000     57.36042   -6875.3499   -6727.7937   -6875.3499            0    1849.6147    23.317659     21.17162    21.651725    10688.864    1192.3258    2784.3195    1572.1989   -687.55279    318.10281    187.61068   -6439.4644 
36664000    56.411258   -6877.9889   -6732.8744   -6877.9889            0    2094.0468    23.271209    21.188789    21.643885    10672.356    1968.6873    2488.0145    1825.4386    148.97597   -392.90617    42.441807   -6406.9457 
36665000    59.182834   -6880.5343   -6728.2901   -6880.5343            0    1996.5584    23.238226    21.252841    21.619215    10677.262     2551.133    1588.3195    1850.2227   -652.68022   -237.17327   -26.884589   -6417.3922 
36666000    59.996263   -6873.2317    -6718.895   -6873.2317            0    1937.1095    23.163643     21.29098    21.668141    10686.222    2598.0833    1447.3381    1765.9071    237.04342    -725.8314    399.42773   -6417.0012 
36667000    56.114833   -6874.3683   -6730.0163   -6874.3683            0    1963.3978    23.194243      21.3937    21.527924    10682.385    1572.5031    1543.4416    2774.2485   -846.76408    239.06264    368.28247   -6424.1354 
36668000    58.605426   -6872.7473   -6721.9884   -6872.7473            0    1598.4149    23.123148     21.37081    21.655861    10701.469    1786.1907    1355.3836    1653.6703    337.21461    240.81357   -98.233814   -6472.5239 
36669000    59.605726   -6869.5278   -6716.1957   -6869.5278            0    1437.8808    23.050932    21.495285    21.612121    10708.511    1893.7818    417.96212    2001.8985   -380.45588    493.63326   -69.954328   -6491.6381 
36670000    56.448048   -6874.5814   -6729.3722   -6874.5814            0    2008.0508    23.153647    21.392267    21.546823    10672.336    1624.9202    2279.9491    2119.2829    221.48525     207.0293   -125.09881    -6416.829 
36671000    58.968431   -6880.2088   -6728.5161   -6880.2088            0    2199.9122    23.041645    21.395902    21.668955    10682.725    3328.5416    1643.5183    1627.6768   -26.909801    -685.5941    15.878356   -6385.7773 
36672000    56.782084   -6872.0326   -6725.9641   -6872.0326            0     2164.726    23.178315    21.329221    21.590862    10673.991    2373.5381    1858.0543    2262.5857    180.69812    79.948185    387.59752   -6388.9829 
36673000     56.18926   -6875.4417   -6730.8983   -6875.4417            0    1979.3599    23.185347    21.313757    21.630897    10689.272    1567.3341    2538.3888    1832.3569    90.020661   -398.86271   -150.27651   -6422.3318 
36674000    55.951521   -6878.5682   -6734.6363   -6878.5682            0    1776.6067    23.221345    21.269502    21.654266    10695.182    2050.2646    1772.7295     1506.826    222.11843   -227.92053    25.681657   -6457.5243 
36675000    58.056721   -6875.7029   -6726.3555   -6875.7029            0    2127.8293    23.372731    21.156527    21.603622    10682.684    1300.1358    3252.3442    1831.0079   -549.64492   -532.71536   -262.19066   -6394.8482 
36676000    55.450205   -6875.1193    -6732.477   -6875.1193            0    1732.6493    23.274895     21.21229    21.680037    10703.734     1953.223    2282.0853    962.63958   -216.84801   -687.83612   -12.941617   -6462.0053 
36677000    58.531048    -6869.804   -6719.2364    -6869.804            0    2398.0647     23.27412     21.23158     21.60079    10673.951     2076.006    3009.8183    2108.3696    14.625754   -630.93164   -161.15674    -6345.933 
36678000    59.015021   -6878.0023   -6726.1897   -6878.0023            0     1538.544    23.266002    21.208472     21.70674    10710.895    1343.2254     1891.467    1380.9396    787.90292   -132.45326   -73.763674   -6485.8578 
36679000    57.179656   -6877.4492    -6730.358   -6877.4492            0    1990.1615    23.202568    21.320595    21.609401     10690.01    2057.7711    1799.2791    2113.4342   -190.11084    225.68087   -71.206685   -6420.0862 
36680000    57.798407   -6873.9748    -6725.292   -6873.9748            0     2271.318    23.144839    21.363339    21.577644    10669.089    2325.9138     2517.209    1970.8314    370.62258    194.13873   -167.42918     -6371.88 
36681000    58.758389   -6880.9965   -6729.8441   -6880.9965            0    2033.5944     23.10203    21.365108    21.648379    10685.149    2189.5277    1852.9121    2058.3433   -680.98937      92.0086    130.23074   -6412.9451 
36682000    59.302405   -6876.4685   -6723.9167   -6876.4685            0    1940.3979    23.127643    21.436746    21.556017    10687.073    2063.5464    1605.0061    2152.6413    -45.90106    36.815859    109.93769   -6421.4863 
36683000    55.542846   -6875.9091   -6733.0285   -6875.9091            0    2577.9768    23.024719    21.464512    21.582105    10666.187    3377.6609    1633.7481    2722.5213    593.46048   -529.49607    126.89206   -6332.0103 
36684000    57.300178   -6878.9428   -6731.5415   -6878.9428            0    2318.4239    23.063395    21.413269    21.611206    10672.968    2299.8733     2227.582    2427.8165    323.97861    625.73529    82.073268   -6370.6689 
36685000    58.459535   -6873.5973   -6723.2137   -6873.5973            0    1575.6943    23.166842    21.384132    21.590577    10696.032    2076.1986    1260.7504     1390.134   -80.966631    77.313484   -63.622363   -6477.4201 
36686000    58.608355   -6873.9606   -6723.1942   -6873.9606            0    1988.1442    23.098182    21.323661    21.722983     10699.39    2346.8349    2426.9613    1190.6364    697.09446   -171.95763    77.763263   -6412.9649 
36687000    54.724641   -6878.1131   -6737.3373   -6878.1131            0    1977.8803    23.211983    21.336879    21.568049    10682.036    1920.3777    1903.4444    2109.8187   -830.38513     77.90824   -224.84617   -6429.2102 
36688000    58.708942   -6873.4669   -6722.4417   -6873.4669            0    2127.5628     23.25368    21.255837    21.622988    10687.734     2278.541    2163.5242    1940.6233   -233.25057   -180.47047   -27.113803   -6390.8193 
36689000     55.14073   -6879.4547   -6737.6085   -6879.4547            0    2325.5252    23.255973    21.176353    21.687748    10680.711    1962.6571    3021.1853     1992.733   -226.92716    173.74189   -149.48006   -6375.3679 
36690000    61.174436   -6871.4744   -6714.1069   -6871.4744            0    2072.6499    23.312663    21.231484    21.596438    10689.426    1087.1209    2398.5293    2732.2996   -538.49101    584.09953    481.34085   -6390.9925 
36691000    59.423203   -6875.9193   -6723.0567   -6875.9193            0    1797.6731    23.282096    21.244907    21.637556    10702.497    1251.9257    2103.1369    2037.9568   -437.83612   -39.676128    207.32942    -6442.467 
36692000    55.355874   -6867.1817   -6724.7821   -6867.1817            0    2351.4068    23.209823    21.234911     21.67413     10682.28    2731.1458    2165.5646    2157.5099   -549.33508    -377.7256   -77.005633   -6358.4562 
36693000     57.45183   -6880.5618   -6732.7704   -6880.5618            0    1702.9534    23.227665    21.294191    21.615915    10691.541    1532.5041    2252.6986    1323.6573   -130.94687    125.25823   -207.21954   -6467.2371 
36694000    56.702048   -6873.5503   -6727.6877   -6873.5503            0    1957.7595    23.174997    21.364729    21.596858    10693.199    1776.7329    1501.2518     2595.294   -262.09571    456.19842    -176.9431   -6422.3764 
36695000    57.995315   -6873.3588   -6724.1694   -6873.3588            0    1742.3257      23.0719     21.41993    21.657922    10703.312     1879.212    1271.5368    2076.2283    310.58813    152.67178    359.51025   -6452.1979 
36696000    56.563532   -6876.5933    -6731.087   -6876.5933            0    1964.4865     23.12544    21.403049    21.586824    10684.504    2434.2174    1519.0031    1940.2391   -255.22024    9.9846955   -114.98215   -6424.9757 
36697000    58.397672   -6877.1596   -6726.9352   -6877.1596            0    2561.4821    23.059591    21.358962    21.649769    10663.138    3540.9084    2103.0143    2040.5235    820.37398   -581.35306   -193.86386   -6328.5967 
36698000     58.28747   -6872.2758   -6722.3348   -6872.2758            0    2176.5542    23.156034    21.392869    21.535806    10668.278    2132.9695    1988.4069    2408.2863   -634.68762    250.04062   -243.83769   -6383.6937 
36699000    58.128092   -6872.8817   -6723.3507   -6872.8817            0    1758.6458    23.171412    21.313827    21.658839    10696.682    2176.8391    1787.5427    1311.5557   -12.282631    101.58427    25.152088   -6449.0017 
36700000    54.468948   -6872.0584   -6731.9404   -6872.0584            0    1835.5625     23.23616    21.305803    21.604662    10695.713    1594.2449    1990.5979    1921.8446   -713.31395    369.41886    -452.5347   -6445.6183 
36701000    57.736689   -6876.4226   -6727.8985   -6876.4226            0    1754.9965    23.299415    21.210799    21.642019    10695.469    1183.8166     2171.907    1909.2658     95.98496    774.17195    12.088532   -6454.1498 
36702000    56.315151   -6874.9271   -6730.0598   -6874.9271            0    1992.4038    23.206714    21.262388    21.658163    10686.791    2786.6158    1966.4092    1224.1863   -549.92859    -278.4885   -662.33678   -6419.5319 
36703000    55.532955    -6882.181   -6739.3259    -6882.181            0    2638.7583    23.256882    21.267262    21.521954    10644.978    2014.0809     3153.614    2748.5799    -21.33176   -246.24236    578.81794    -6329.669 
36704000    55.799401   -6875.1498   -6731.6092   -6875.1498            0    2366.3591     23.16753    21.270557     21.67221    10679.767    2197.6228    3312.7862    1588.6684   -144.40716   -283.65611   -737.67554   -6363.0406 
36705000    58.039938   -6881.0662    -6731.762   -6881.0662            0    2436.8407    23.188217    21.302919    21.577114    10658.592    2750.7336    2425.2273    2134.5613      272.967   -201.96463   -97.510826   -6352.9682 
36706000    57.854645   -6886.2834   -6737.4558   -6886.2834            0    1681.2237    23.175471    21.330509    21.630831    10693.084    2039.8926    1841.5623    1162.2163   -126.80963    144.38959   -513.38702   -6475.2729 
36707000     55.60107    -6879.237   -6736.2067    -6879.237            0    1880.9541    23.147837    21.317493    21.654599    10685.546    2087.9614    2845.1425    709.75838   -584.65824    43.931995   -746.62324   -6443.0831 
36708000    57.189758   -6876.7287   -6729.6115   -6876.7287            0    2320.5146    23.188681    21.327005    21.578501    10671.543    2533.5413    2086.0295    2341.9731   -325.98291    256.80464    16.388434   -6368.4617 
36709000    57.453291   -6873.2334   -6725.4383   -6873.2334            0    2555.4917    23.233479    21.190081    21.673576     10670.32    2642.9886    3157.0812    1866.4054   -407.22412   -46.853178   -784.05443   -6327.7638 
36710000    57.563373   -6876.9196   -6728.8413   -6876.9196            0    2140.0075    23.299453    21.216307    21.589319    10672.212    2016.8507    2484.6462    1918.5258    292.67651    50.823185   -350.67827   -6395.7636 
36711000    57.401238   -6872.9868   -6725.3256   -6872.9868            0    1717.8324    23.288933    21.235711    21.647286    10705.818    1228.9645    2531.7585    1392.7742   -27.734369    -461.0762    -412.9093   -6457.1146 
36712000    55.600187   -6877.2711    -6734.243   -6877.2711            0    1962.4831       23.268    21.212392      21.6719    10696.598    1557.1628    2751.2931    1578.9932   -23.370364   -538.54866   -55.643774   -6428.0978 
36713000     56.55321    -6877.563   -6732.0833    -6877.563            0    2046.6485     23.22823    21.300025    21.575805    10674.886    2327.6863    1739.2077    2073.0515     63.01058   -255.59779    621.30693   -6413.4564 
36714000    57.629722   -6877.7655   -6729.5166   -6877.7655            0    1991.0939     23.15981    21.328005    21.634765    10686.547    1287.8135     2525.058    2160.4102    356.73828   -175.15449    369.99373      -6419.2 
36715000    56.313307   -6882.3504   -6737.4878   -6882.3504            0    2147.4606    23.178335    21.332838    21.575642    10668.285    2223.2592    1480.6639    2738.4586     304.1168    562.89497    735.37794    -6403.373 
36716000    54.885046   -6870.4292   -6729.2407   -6870.4292            0    1705.1269    23.146009    21.407379    21.597332    10701.378    1761.8868    1275.0611    2078.4328    60.388391    148.76326   -205.13468   -6463.1239 
36717000    55.277989   -6870.8165   -6728.6172   -6870.8165            0    1843.1626    23.082734    21.388054     21.64079    10683.945    1571.2001    2353.2274    1605.0604   -352.97898    276.85337   -58.459653    -6441.426 
36718000    56.759118   -6868.5729   -6722.5636   -6868.5729            0    1997.0765    23.064447    21.504407    21.546898    10686.987    3590.0315     1011.045    1390.1531   -610.88346   -218.85207   -650.73166   -6411.3017 
36719000    55.997945   -6873.8987   -6729.8474   -6873.8987            0    2660.5417    23.153812    21.293672    21.629671    10664.069    3148.4834     2836.956    1996.1858    388.64643   -335.74955   -245.22592   -6316.0679 
36720000    56.681664   -6882.3233   -6736.5132   -6882.3233            0    2289.9718    23.202343    21.269908    21.610754     10665.16    1972.0277    2787.1251    2110.7626    140.52931   -42.429062   -288.02285     -6380.33 
36721000     55.19536   -6873.3258   -6731.3391   -6873.3258            0    2030.5152    23.188923    21.313428    21.622557    10686.634    2415.6353    1900.9549    1774.9552   -582.98201   -720.80266    103.84959   -6414.8761 
36722000    59.098397   -6885.5535   -6733.5265   -6885.5535            0    1487.0359     23.26801    21.260481    21.626363    10698.326    865.23872    1719.1518    1876.7172   -28.388108     185.5534    290.70966    -6501.513 
36723000    57.833587   -6882.2734      -6733.5   -6882.2734            0    1796.1889    23.228611    21.305199    21.625147    10702.073     1633.416    2150.3651    1604.7854    287.48002   -219.42361   -536.28526   -6453.1531 
36724000    59.812431   -6874.3356   -6720.4718   -6874.3356            0    2467.2579    23.167621     21.28033    21.652858    10675.176    2600.7383    2537.5605    2263.4748   -103.66583    549.06309    195.81488   -6336.3531 
36725000    56.105261    -6874.984   -6730.6566    -6874.984            0    1988.3671    23.262528    21.335593    21.527261    10684.406    2085.5478    1776.0179    2103.5356    538.10427    -613.0956    -525.2722   -6420.8271 
36726000    57.631814   -6879.3326   -6731.0783   -6879.3326            0     1322.875    23.138424    21.342899    21.685278     10709.08    1896.8202    1450.6405     621.1643   -281.86617    397.91395    184.05577   -6524.4704 
36727000    61.054439   -6873.4748    -6716.416   -6873.4748            0    1902.2108    23.151118    21.372538    21.615148    10695.135    1777.1219    1512.1106    2417.3998    261.66268   -578.91033   -854.89075   -6419.7138 
36728000    58.727202   -6869.7548   -6718.6826   -6869.7548            0    2153.3519    23.115963      21.3854    21.599185    10677.429    2656.2883     2221.823    1581.9444   -617.54944    227.56343   -429.46627   -6383.3641 
36729000    56.391325   -6870.1783    -6725.115   -6870.1783            0    2303.5687    23.066144    21.382875    21.650408    10678.424    2513.8761    2008.1283    2388.7017    13.243669   -298.25379   -526.28964   -6366.3714 
36730000    59.093971   -6873.4285   -6721.4128   -6873.4285            0    2098.3616    23.152038    21.387823    21.553805    10672.834    2483.4988    1600.6132    2210.9728   -193.83388    300.69217   -215.61921   -6394.7979 
36731000    58.760046   -6872.6563   -6721.4997   -6872.6563            0    2178.8742    23.091433    21.369807    21.635601    10676.292    2760.5503     1570.858    2205.2142   -136.86139   -320.55293    74.274471   -6382.2429 
36732000    58.721337   -6875.5269   -6724.4699   -6875.5269            0    2441.2707    23.137972    21.305341     21.62564    10660.627    2572.7463    2815.5131    1935.5528    245.02317   -36.923471   -377.79364    -6344.915 
36733000     57.27418   -6878.5246   -6731.1903   -6878.5246            0    2368.0633    23.280445    21.229854    21.559357    10655.507    1291.6729     3399.152     2413.365   -466.89111    891.52063   -224.20246   -6363.1941 
36734000    58.540341   -6879.5002   -6728.9088   -6879.5002            0    1402.7847    23.251246    21.214072    21.710835    10708.948    1224.6095    1507.9479    1475.7967     -159.013    218.33398   -141.50245   -6509.8232 
36735000     56.64555   -6875.5678   -6729.8506   -6875.5678            0    2327.0089    23.251074    21.265158    21.564848    10662.475    2235.6598    1873.5522    2871.8146    -918.6586     40.97816    227.46603   -6367.9978 
36736000    55.592656   -6873.8407    -6730.832   -6873.8407            0    2047.3149    23.216233    21.268142    21.643583    10686.868    1762.8643    2300.2377    2078.8426   -288.68362   -150.71659   -49.652522   -6411.7436 
36737000     55.00948   -6875.9189   -6734.4104   -6875.9189            0    1773.7593    23.182971    21.314666    21.638156    10692.219    1643.9642    1756.7796    1920.5341    82.339163   -172.16907   -157.63779   -6457.8191 
36738000     59.29537    -6874.425   -6721.8913    -6874.425            0    1908.5026    23.191317    21.334694    21.601342    10687.905    1811.7184     1889.431    2024.3583   -78.724978    329.55447   -387.42927   -6424.4089 
36739000    57.245566   -6876.2851   -6729.0244   -6876.2851            0    1740.0755    23.101801    21.403452     21.62364    10691.988     2312.563    1556.9859    1350.6777    135.75288   -111.87316    185.94515   -6457.6915 
36740000    58.745364   -6875.5537   -6724.4348   -6875.5537            0    1999.8363    23.185516    21.428173    21.508743    10686.044    2168.8427    1400.5363    2430.1301    -222.8872    51.271768   -153.03497   -6412.7704 
36741000    56.749566   -6877.9169   -6731.9321   -6877.9169            0    1523.8518    23.073351    21.395077    21.688389    10706.606    2248.1164    1381.2657    942.17345    322.49361   -395.22587    148.37841   -6493.9904 
36742000     56.27283   -6877.3418   -6732.5834   -6877.3418            0    1611.7941    23.200824    21.395319    21.558942    10701.622    1675.9164    717.05962    2442.4063   -90.953897    351.33482   -120.04369   -6481.0272 
36743000    57.206243   -6873.2161   -6726.0565   -6873.2161            0    1944.1745    23.110433    21.314471    21.715711     10696.87    2480.2062    1263.4421    2088.8754   -14.373645     243.2767    693.04689   -6422.7597 
36744000    56.173313   -6874.2769   -6729.7745   -6874.2769            0    1651.1847     23.20183    21.363407    21.594717    10703.857    2192.6885    590.21256     2170.653   -732.44896   -351.68864   -189.36822   -6472.0167 
36745000    61.661473   -6876.1152   -6717.4948   -6876.1152            0    2306.3185    23.188076    21.309563    21.586529    10666.503    2443.9428    2484.6465    1990.3662      -513.35   -305.55892    314.95529   -6358.7238 
36746000    54.257792   -6870.9959    -6731.421   -6870.9959            0    2498.6028    23.174986    21.238795    21.692577    10677.276    2510.5454    3476.3919     1508.871   -687.02754    335.77526   -839.47926   -6342.3458 
36747000    61.010724   -6884.1097   -6727.1634   -6884.1097            0    1955.4452    23.267821    21.287413    21.551406    10674.664    1929.9153    1682.3338    2254.0864   -105.08726     70.57393   -134.33577   -6422.7416 
36748000    58.914527   -6876.9622   -6725.4082   -6876.9622            0     1989.634    23.193587    21.271665    21.669569    10691.033     2140.372    2283.1322    1545.3978   -204.73726   -239.83446    43.289371   -6415.1889 
36749000    56.815065   -6879.0071   -6732.8538   -6879.0071            0    1149.6523    23.259215    21.345305    21.598727    10723.229    485.32289    1606.3459    1357.2882     176.5124   -297.06968   -380.35528   -6553.0628 
36750000    59.370191   -6870.6417   -6717.9155   -6870.6417            0    1979.7228    23.188217    21.310915    21.639623    10693.482    2052.8124    1861.3645    2024.9915   -366.75039   -100.14175    772.72875   -6409.1709 
Loop time of 539.504 on 64 procs for 250000 steps with 1296 atoms

Performance: 80.074 ns/day, 0.300 hours/ns, 463.388 timesteps/s
390.2% CPU use with 16 MPI tasks x 4 OpenMP threads

MPI task timing breakdown:
Section |  min time  |  avg time  |  max time  |%varavg| %total
---------------------------------------------------------------
Pair    | 40.702     | 49.181     | 61.142     |  85.8 |  9.12
Bond    | 1.4026     | 1.7391     | 2.2903     |  17.4 |  0.32
Kspace  | 273.14     | 286.83     | 296.21     |  37.8 | 53.17
Neigh   | 0.25411    | 0.26751    | 0.27572    |   1.1 |  0.05
Comm    | 52.856     | 56.751     | 59.298     |  26.1 | 10.52
Output  | 0.43036    | 0.4307     | 0.43199    |   0.1 |  0.08
Modify  | 128.32     | 130.75     | 133.93     |  17.0 | 24.23
Other   |            | 13.55      |            |       |  2.51

Nlocal:        81.0000 ave          95 max          64 min
Histogram: 2 1 1 0 3 1 4 0 1 3
Nghost:        3683.12 ave        3716 max        3654 min
Histogram: 1 1 2 3 2 3 2 0 1 1
Neighs:        26130.2 ave       30576 max       20583 min
Histogram: 2 1 0 1 3 1 4 0 1 3

Total # of neighbors = 418084
Ave neighs/atom = 322.59568
Ave special neighs/atom = 2.0000000
Neighbor list builds = 598
Dangerous builds = 0

unfix		3
unfix		2
unfix		1

write_data	data.final.${pid}
write_data	data.final.0
System init for write_data ...
PPPM initialization ...
  extracting TIP4P info from pair style
  using 12-bit tables for long-range coulomb (../kspace.cpp:340)
  G vector (1/distance) = 0.36867812
  grid = 30 40 32
  stencil order = 5
  estimated absolute RMS force accuracy = 0.0042378012
  estimated relative force accuracy = 1.2762012e-05
  using double precision FFTW3
  3d grid and FFT values/proc = 11832 2400
Last active /omp style is kspace_style pppm/tip4p/omp
WARNING: Not all mixed pair coeffs generated from mixing. Use write_data with 'pair ij' option to store all pair coeffs. (../write_data.cpp:312)

write_restart   restart.lmp.${pid}
write_restart   restart.lmp.0
System init for write_restart ...
PPPM initialization ...
  extracting TIP4P info from pair style
  using 12-bit tables for long-range coulomb (../kspace.cpp:340)
  G vector (1/distance) = 0.36867812
  grid = 30 40 32
  stencil order = 5
  estimated absolute RMS force accuracy = 0.0042378012
  estimated relative force accuracy = 1.2762012e-05
  using double precision FFTW3
  3d grid and FFT values/proc = 11832 2400
Last active /omp style is kspace_style pppm/tip4p/omp
Total wall time: 0:08:59
