#include		in.partitions
include		in.temp
variable        temperature equal 237.60
variable	tempDamp equal 100.0
include		in.pressure
variable        pressure equal 2156.1
variable        pressureDamp equal 1000.0 # This is 1 ps
include		in.seed
variable        seed equal 745823

units		real
atom_style	full
box tilt large
read_restart	restart.lmp.${pid}
read_restart	restart.lmp.0
Reading restart file ...
  restart file = 30 Jul 2021, LAMMPS = 30 Jul 2021
  restoring atom style full from restart
  triclinic box = (-10.656365 -9.3608644 -0.017098795) to (12.636365 12.350862 21.877098) with tilt (-9.1283255 1.6915617 2.8769881)
  2 by 4 by 4 MPI processor grid
  restoring pair style lj/cut/tip4p/long/omp from restart
  restoring bond style harmonic/omp from restart
  restoring angle style harmonic/omp from restart
  1296 atoms
  864 bonds
  432 angles
Finding 1-2 1-3 1-4 neighbors ...
  special bond factors lj:    0        0        0       
  special bond factors coul:  0        0        0       
     2 = max # of 1-2 neighbors
     1 = max # of 1-3 neighbors
     1 = max # of 1-4 neighbors
     2 = max # of special neighbors
  special bonds CPU = 0.002 seconds
  read_restart CPU = 0.010 seconds
include 	in.setup
variable	out_freq equal 1000
variable	out_freq2 equal 10000
variable	out_freq3 equal 1000

timestep	2.0

neigh_modify    delay 7 every 1

include		in.tip4p
# This is TIP4P/Ice

# create groups ###
group ox type 2
432 atoms in group ox
group hy type 1
864 atoms in group hy

# set charges - beside manually ###
set group ox charge -1.1794
Setting atom values ...
  432 settings made for charge
set group hy charge 0.5897
Setting atom values ...
  864 settings made for charge

# ### TIP3P Potential Parameters ###
pair_style lj/cut/tip4p/long/omp 2 1 1 1 0.1577 8.5
pair_coeff 1 1*2 0.000 0.000
pair_coeff 2 2 0.21084 3.1668
bond_style  harmonic
bond_coeff  1 450 0.9572
angle_style harmonic
angle_coeff 1 55 104.52
kspace_style pppm/tip4p/omp 1.0e-5
pair_modify tail yes

thermo          ${out_freq}
thermo          1000
thermo_style    custom step temp pe etotal epair emol press lx ly lz vol pxx pyy pzz pxy pxz pyz enthalpy

restart 	${out_freq3} restart.lmp.${pid} restart2.lmp.${pid}
restart 	1000 restart.lmp.${pid} restart2.lmp.${pid}
restart 	1000 restart.lmp.0 restart2.lmp.${pid}
restart 	1000 restart.lmp.0 restart2.lmp.0


include         in.dump
dump            myDump all atom ${out_freq2} dump.water.${pid}
dump            myDump all atom 10000 dump.water.${pid}
dump            myDump all atom 10000 dump.water.0
dump            myDump2 all dcd ${out_freq2} dump.dcd
dump            myDump2 all dcd 10000 dump.dcd
dump_modify     myDump append yes
dump_modify     myDump2 append yes


variable natoms 	equal  "count(all)"                        # NUMBER ATOMS
variable H      	equal  "enthalpy/v_natoms"                 # ENTHALPY-per-atom
variable Vol      	equal  "vol/v_natoms"                 # volume-per-atom
fix AVG all 		ave/time ${out_freq} 1 ${out_freq} v_Vol v_H file vol_enthalpy.dat
fix AVG all 		ave/time 1000 1 ${out_freq} v_Vol v_H file vol_enthalpy.dat
fix AVG all 		ave/time 1000 1 1000 v_Vol v_H file vol_enthalpy.dat


timer           timeout 10:00:00 every 1000
New timer settings: style=normal  mode=nosync  timeout=10:00:00

fix 		1 all shake 1e-6 200 0 b 1 a 1
       0 = # of size 2 clusters
       0 = # of size 3 clusters
       0 = # of size 4 clusters
     432 = # of frozen angles
  find clusters CPU = 0.001 seconds
fix             2 all nph tri ${pressure} ${pressure} ${pressureDamp}
fix             2 all nph tri 2156.1 ${pressure} ${pressureDamp}
fix             2 all nph tri 2156.1 2156.1 ${pressureDamp}
fix             2 all nph tri 2156.1 2156.1 1000
fix             3 all temp/csvr ${temperature} ${temperature} ${tempDamp} ${seed}
fix             3 all temp/csvr 237.6 ${temperature} ${tempDamp} ${seed}
fix             3 all temp/csvr 237.6 237.6 ${tempDamp} ${seed}
fix             3 all temp/csvr 237.6 237.6 100 ${seed}
fix             3 all temp/csvr 237.6 237.6 100 745823


run             250000
PPPM initialization ...
  extracting TIP4P info from pair style
  using 12-bit tables for long-range coulomb (../kspace.cpp:340)
  G vector (1/distance) = 0.36784726
  grid = 30 40 32
  stencil order = 5
  estimated absolute RMS force accuracy = 0.0043472701
  estimated relative force accuracy = 1.3091675e-05
  using double precision FFTW3
  3d grid and FFT values/proc = 7752 1200
Last active /omp style is kspace_style pppm/tip4p/omp
Neighbor list info ...
  update every 1 steps, delay 7 steps, check yes
  max neighbors/atom: 2000, page size: 100000
  master list distance cutoff = 10.8154
  ghost atom cutoff = 10.8154
  binsize = 5.4077, bins = 7 5 5
  1 neighbor lists, perpetual/occasional/extra = 1 0 0
  (1) pair lj/cut/tip4p/long/omp, perpetual
      attributes: half, newton on, omp
      pair build: half/bin/newton/tri/omp
      stencil: half/bin/3d/tri
      bin: standard
Per MPI rank memory allocation (min/avg/max) = 10.64 | 10.65 | 10.65 Mbytes
Step Temp PotEng TotEng E_pair E_mol Press Lx Ly Lz Volume Pxx Pyy Pzz Pxy Pxz Pyz Enthalpy 
  750000    244.58163   -6315.5502   -5686.3789   -6315.5502            0    2580.5031     23.29273    21.711727    21.894197    11072.451    3096.5858    1949.6284     2695.295    622.61292    150.81898    207.30314   -5269.6783 
  751000    238.39517   -6345.8053   -5732.5482   -6345.8053            0    3324.5841     23.55145    21.278558    21.983924    11017.043    3443.9986    4657.9356    1871.8181   -434.52359    146.85718   -273.76188   -5198.3797 
  752000    236.61543    -6335.314   -5726.6352    -6335.314            0    2004.6957     23.30619    21.772327    21.834959    11079.713    1785.5687    2114.6468    2113.8717    868.23206    933.68601   -28.689917   -5402.7039 
  753000    231.97735   -6329.9336    -5733.186   -6329.9336            0    2038.8098    23.686108    21.470088    21.855072     11114.24    1486.0729    1354.0586    3276.2978   -680.26833    111.27741     626.7652   -5402.7158 
  754000    227.72668    -6358.226    -5772.413    -6358.226            0    2556.4183    23.346847    21.711886    21.787502    11044.174    3403.0831    1277.5341    2988.6375   -142.96728   -1670.8019     134.5977   -5360.6559 
  755000     237.0294   -6358.6671   -5748.9235   -6358.6671            0    2040.1385    23.491892    21.496546    21.909222    11064.037    1749.0987    2466.6837    1904.6332    100.29214   -515.53667    655.93879   -5419.7315 
  756000    243.32278   -6344.6867   -5718.7537   -6344.6867            0    1606.8366    23.441597    21.595377    21.878617    11075.615    1891.0304    1088.8034    1840.6761     1151.758   -1066.0102    909.03495    -5459.207 
  757000    238.71661   -6363.4506   -5749.3666   -6363.4506            0    2148.2563    23.413044    21.628223    21.919056    11099.427    2728.6182    2009.7163    1706.4345   -97.408614     -80.3019   -1368.6415   -5401.6203 
  758000     244.1988   -6355.5757   -5727.3891   -6355.5757            0    1745.2858     23.48514    21.573238    21.873186    11082.061    1835.4125    1050.3288    2350.1159    248.68627    83.608444   -560.47254   -5445.3152 
  759000    244.12487   -6320.4587   -5692.4624   -6320.4587            0    3112.0775    23.446219    21.606266     21.78892    11037.945     5290.826     1387.704    2657.7024    309.17028   -14.213155   -543.08302   -5191.4891 
  760000    252.32066   -6364.2286   -5715.1491   -6364.2286            0    1785.7444    23.532527    21.476187     22.03681     11137.16    1177.9683    1869.9953    2309.2696   -275.11211    131.96688    1238.3749   -5425.1012 
  761000    235.88785   -6343.8129   -5737.0058   -6343.8129            0    1607.9145     23.42813    21.619562    21.939721    11112.598    773.57977    2481.4234    1568.7404    127.96999   -815.65165    74.887569   -5476.4178 
  762000     244.5908   -6331.7314   -5702.5364   -6331.7314            0    3314.4215    23.516268    21.498672    21.790018    11016.347    2611.4333     3803.532     3528.299   -269.37639    -148.8744   -436.71699   -5170.0344 
  763000     252.7166   -6362.2238   -5712.1257   -6362.2238            0    3861.3833    23.301713    21.661509    21.740465    10973.505    4588.7126    3000.9682    3994.4691   -287.45761   -914.51029   -208.82341   -5094.1603 
  764000    222.59188   -6329.2182   -5756.6141   -6329.2182            0     3656.748    23.657276    21.402246    21.678112    10976.037    2655.2343    4236.5691    4078.4405      886.358     334.4868    767.70376    -5171.263 
  765000    237.28731   -6342.8008   -5732.3937   -6342.8008            0    1074.4863    23.445515    21.640576    21.956014     11139.92    1474.3101    852.60153    896.54731    351.25498   -407.51259    241.54082    -5557.828 
  766000    238.89728    -6359.648   -5745.0993    -6359.648            0    1576.3924    23.432128     21.57577    21.918409    11081.207     2067.963    1582.9196    1078.2947    555.29572   -237.83381    364.17508   -5490.3416 
  767000    239.63174   -6353.4657   -5737.0276   -6353.4657            0    2689.0715    23.602504    21.555116     21.74016    11060.409    2438.5536    2103.2264    3525.4345   -323.65391    42.441258    751.52089   -5303.2677 
  768000    227.63058   -6353.3894   -5767.8236   -6353.3894            0    2066.4522    23.329909     21.61435    21.931858    11059.377    2865.4257     2142.447     1191.484    556.59753   -525.44983    40.030932   -5434.5263 
  769000    244.36741   -6371.3499   -5742.7296   -6371.3499            0    2402.3016    23.498135    21.371892    21.966099    11031.366    1308.5142    4409.0938    1489.2968     625.8478    57.021635    321.81571   -5356.2446 
  770000    242.28053   -6375.6512   -5752.3993   -6375.6512            0     2823.313     23.31184    21.627728    21.816317    10999.397    3337.0949    1934.9552    3197.8889    56.590557    124.60453     707.9244   -5299.4977 
  771000    233.60576   -6366.0848   -5765.1482   -6366.0848            0    2365.3427    23.582325    21.385242    21.942497    11065.903    696.22692    2884.0394    3515.7618   -277.81558    2042.1312    294.37626   -5383.4178 
  772000    234.30104   -6329.9456   -5727.2205   -6329.9456            0    923.47888    23.430048    21.798456    21.880867     11175.41    1492.8469   -1561.8544    2839.4441   -1269.2633    703.84015    1585.6617   -5576.7102 
  773000    231.64661    -6342.607   -5746.7102    -6342.607            0    1595.3007    23.637485    21.460374    21.895365    11106.845    621.32156    1922.0678    2242.5128   -92.133758    200.43141    783.99553   -5488.3003 
  774000    250.32837   -6315.1966   -5671.2421   -6315.1966            0     1539.856     23.34176    21.697767     21.96497    11124.468    1211.1238     1992.513    1415.9311     698.5728    29.371134    701.14514   -5421.4175 
  775000    243.67506   -6325.1305   -5698.2912   -6325.1305            0     2442.255    23.615782    21.482509    21.870708    11095.584    2165.6809    2260.3666    2900.7176   -109.62187   -79.426642    360.13728   -5303.0911 
  776000    241.77352   -6320.9749   -5699.0273   -6320.9749            0    2415.9513    23.312095    21.744557    21.829973    11065.857    3080.8622    2731.7228    1435.2689    446.86046    731.85772   -256.24784    -5309.131 
  777000    243.64198   -6343.2073   -5716.4532   -6343.2073            0     2565.628    23.530856    21.441604    21.947954    11073.605    3883.7488    2746.6006    1066.5346    1481.9064   -1392.0731    990.92597   -5302.1115 
  778000    229.94376   -6356.7834   -5765.2671   -6356.7834            0    1726.0839    23.402849    21.633298    21.933765    11104.644    2076.0032    1148.3658    1953.8827    296.65791   -1446.3882   -478.68628    -5485.728 
  779000     229.7922   -6356.0453   -5764.9189   -6356.0453            0    1454.3211    23.479715    21.609471    21.892858    11108.091    1507.6368    1003.0009    1852.3255    134.87999   -404.35968   -417.95114   -5529.3187 
  780000       248.54   -6326.5892   -5687.2352   -6326.5892            0    593.10232    23.814063     21.53112    21.725537    11139.627   -1010.9647    842.08054    1948.1911   -233.18435    380.68223    589.35289   -5590.8798 
  781000    232.18903   -6305.9602   -5708.6681   -6305.9602            0    546.83595    23.441639    21.700227    21.935146    11158.165    1537.5597   -927.54083     1030.489    957.02412   -165.79795    272.72204   -5619.6812 
  782000    238.80485    -6333.993    -5719.682    -6333.993            0     2304.605    23.544095    21.410431    21.932039    11055.705    2165.5893    3065.2053    1683.0204    181.45888   -110.22437   -32.187695   -5348.0965 
  783000    245.67003   -6364.4163   -5732.4451   -6364.4163            0     2501.291     23.27191    21.707005    21.858663    11042.198    3108.6947    1336.5907    3058.5877   -151.68523    539.04972   -370.61914   -5329.6394 
  784000    245.15103   -6379.6943   -5749.0582   -6379.6943            0    1679.5436    23.637458    21.485602    21.824331    11083.814   -455.55615    2320.6515    3173.5355    424.85907    3.7428527    -77.06669   -5477.5666 
  785000    237.39103   -6376.2193   -5765.5453   -6376.2193            0    2495.1652     23.35877    21.707449    21.799303    11053.539    2011.7717    2326.2218     3147.502   -595.82155      522.518    187.54469   -5363.3134 
  786000    230.25871   -6347.7637   -5755.4372   -6347.7637            0    2708.6074    23.452084    21.381165     22.08247    11072.877    2719.8087    3057.8401    2348.1732    1329.5331    610.23061    -121.9721   -5318.0335 
  787000     234.0589   -6332.5218   -5730.4196   -6332.5218            0    3192.8761    23.310226    21.585622     21.91313    11025.936      3992.31    1955.5784    3630.7401     1235.323    1336.0232   -38.185963   -5216.9988 
  788000    245.42782   -6362.4521    -5731.104   -6362.4521            0    2037.1424    23.605459    21.473694    21.851255    11076.323    1060.8234    2675.7508    2374.8529    175.06784    378.33346   -138.85247   -5402.0305 
  789000    243.67993   -6362.6823   -5735.8305   -6362.6823            0    756.15119    23.341636    21.824141     21.89034    11151.184    1091.2189   -274.34795    1451.5826    347.33621    -216.1871     831.9758   -5612.8588 
  790000    238.92535   -6367.0422   -5752.4213   -6367.0422            0    1719.5817    23.655736    21.464371    21.810999    11074.654    1608.3822    1896.6794    1653.6834    -436.4403   -165.55755    221.89942   -5474.6874 
  791000    225.87006   -6336.3995   -5755.3625   -6336.3995            0    1061.8151    23.420912     21.71324    21.881985     11127.95    2310.4169   -3.8955352    878.92386   -448.76021   -791.83009    693.63911   -5583.0408 
  792000    232.33828   -6344.2863   -5746.6103   -6344.2863            0    3118.6301    23.502487    21.596574     21.74421    11036.778    1987.1335    4308.9111    3059.8457   -70.645795    -279.4753    -398.8104   -5244.6353 
  793000    240.31955   -6340.2571   -5722.0497   -6340.2571            0    3228.9613    23.483481    21.468875     21.89239    11037.353     3477.057    3340.6164    2869.2104    911.46258   -199.45188    120.45352   -5202.2888 
  794000    241.95834   -6350.8589   -5728.4358   -6350.8589            0    2181.8792    23.397579    21.651389    21.842357    11065.122    2741.3979    1406.5419    2397.6978      1525.92   -35.635391   -531.02122   -5376.3384 
  795000    224.59722   -6382.2061   -5804.4434   -6382.2061            0    937.62306    23.575388    21.427904    22.009796    11118.714    620.92288    1785.8094    406.13692    1077.3937   -794.66738   -555.01955   -5652.4031 
  796000    247.16148   -6357.4875   -5721.6796   -6357.4875            0     2388.091    23.299558    21.694183    21.818982    11028.729    1603.2132     2583.516    2977.5437   -153.60306    903.17087   -157.97082   -5337.5726 
  797000    236.61059   -6361.8444   -5753.1781   -6361.8444            0     1804.536    23.568422    21.426185    21.919763    11069.072    1159.2654    2255.3316     1999.011   -162.16604    -443.1404    375.80617     -5461.87 
  798000    234.06885    -6321.217   -5719.0892    -6321.217            0    2455.8665    23.323021    21.760994    21.800439    11064.423    2803.2095    839.16472    3725.2252   -305.71666   -181.46081     147.0795   -5322.8025 
  799000    235.45822   -6319.2993   -5713.5974   -6319.2993            0    2662.8935    23.623352    21.401368     21.92652    11085.436    2285.8182     3483.528    2219.3342   -1524.1895    271.32217   -560.65907   -5283.0882 
  800000    235.25605   -6333.8274   -5728.6455   -6333.8274            0    1948.9431    23.307029    21.767987    21.836626    11078.749    3154.3504    1519.2147    1173.2641    374.29487   -249.80204   -641.84295   -5413.7505 
  801000     238.3274   -6317.8586   -5704.7759   -6317.8586            0    1587.7767    23.619628    21.379823    21.986589    11102.864      881.754    2232.0739    1649.5021   -807.45378    367.02834    852.90919   -5447.6769 
  802000    230.48251   -6361.0212    -5768.119   -6361.0212            0    2357.3982    23.338222    21.738393    21.852648    11086.623    3028.6766    1642.2114    2401.3065    505.18881   -779.69325    320.92536   -5386.9583 
  803000     231.2073   -6353.9563   -5759.1896   -6353.9563            0    3860.1899    23.543123    21.459964    21.780666    11004.346     3364.123    4444.9095    3771.5371    263.98834   -258.64821    -788.1787   -5139.6789 
  804000    239.04418   -6332.5448   -5717.6182   -6332.5448            0    3150.9553     23.37179    21.640904    21.824422    11038.502    4423.8474     2148.767    2880.2514   -731.52596   -794.08259   -750.71434   -5210.3609 
  805000    244.05048   -6351.6168   -5723.8118   -6351.6168            0    1772.2947    23.420633    21.461802    22.119572    11118.381    2436.3431    2801.7183    78.822646    213.27495    455.70716   -255.84999   -5436.4339 
  806000    241.84908    -6320.838    -5698.696    -6320.838            0    2304.0569    23.426425    21.522818    22.069445    11127.473    2345.0887    2592.6554    1974.4265   -583.04151    983.30846   -121.48553   -5324.7873 
  807000    243.57686   -6360.7168   -5734.1301   -6360.7168            0    2994.0972    23.516366    21.608179    21.727107    11040.539    2761.1842    1992.2988    4228.8087   -852.35053   -1100.9191    1422.6659   -5252.0357 
  808000     236.1208   -6348.7725   -5741.3661   -6348.7725            0      2946.99    23.512734    21.500134    21.752709     10996.58    3395.8327    2457.1485    2987.9887    -478.5244   -1504.2825     85.90729    -5268.746 
  809000    234.02232   -6329.0736   -5727.0654   -6329.0736            0    2412.1988    23.300117    21.581144    22.001484    11063.296    3190.3488    2292.5118    1753.7359    170.97329    230.26754    418.70481   -5337.8647 
  810000    237.39889   -6385.2025   -5774.5083   -6385.2025            0     570.9918    23.607875    21.472439    21.956743    11130.283    101.02302    1100.1147    511.83774    407.58834   -360.07512   -661.75672   -5681.8228 
  811000    230.17091   -6329.3588   -5737.2582   -6329.3588            0    1832.1967    23.456834    21.921673    21.572785    11093.008    282.72771    1333.4019    3880.4605    515.79975   -397.83212   -426.75159   -5440.8452 
  812000    238.47007   -6335.0652   -5721.6155   -6335.0652            0    1717.3998    23.530936    21.393617    22.072014    11111.313    1530.5303    2629.5403    992.12867    1110.8011    115.57884    513.52908   -5443.3158 
  813000     240.3162   -6305.4183   -5687.2196   -6305.4183            0    1127.8052    23.317184    21.619736    22.111253    11146.534    1528.0709    238.79405    1616.5507    980.34733   -371.05832    940.55311   -5503.8827 
  814000    230.56974   -6343.3717   -5750.2451   -6343.3717            0    1548.6372     23.70585    21.463043    21.879636    11132.352    56.695058    2283.1223    2306.0941    341.62235    456.97394    363.20492   -5498.8178 
  815000     232.0245    -6387.248   -5790.3791    -6387.248            0    2355.8731    23.400048    21.699577    21.785325    11061.959    1524.3819    2075.9187    3467.3186   -411.63809    863.69906   -253.52666   -5410.3124 
  816000     239.8971   -6322.9361   -5705.8155   -6322.9361            0    3164.2711     23.44174    21.488793    21.972342    11068.231     3537.291    4045.1698    1910.3524    206.96051   -169.52515    -1051.147   -5195.0426 
  817000    231.31383   -6366.3852   -5771.3445   -6366.3852            0    2255.7137    23.427475    21.479341    21.903275    11021.875    3154.5438    1940.7101    1671.8871    1573.7265    538.07938    20.767177   -5408.7549 
  818000    228.82852   -6351.8812   -5763.2338   -6351.8812            0    578.94289     23.55803    21.597742      21.8984    11141.912   -232.49592    767.16876    1202.1558    446.62405    748.92673   -50.851141   -5669.1594 
  819000    225.20685   -6369.4281   -5790.0972   -6369.4281            0    1508.7391    23.476322    21.477003     22.01682    11100.903     970.7547     3210.099    345.36355   -67.724895   -679.05241   -546.20939   -5545.8394 
  820000    239.52786   -6359.9125   -5743.7417   -6359.9125            0    2496.8207    23.360828    21.661293    21.834685    11048.913     3821.869    1117.6218    2550.9712   -1319.9672   -267.97765   -56.393499   -5341.4114 
  821000    233.54339   -6328.8293   -5728.0532   -6328.8293            0    1222.5919    23.628297    21.498136     21.94915    11149.385    784.95623    1487.8765     1394.943   -186.10778    887.97994    1757.6387   -5529.2569 
  822000    259.30017   -6348.0842   -5681.0503   -6348.0842            0    1355.5949    23.313467     21.70008    21.998719    11129.242    2253.3639    779.94975    1033.4711    618.10506   -207.71028    46.655745   -5461.0257 
  823000    237.06385   -6377.0509   -5767.2186   -6377.0509            0    3049.8178    23.495801     21.39571    21.887234    11002.917    1669.8924    3896.1057    3583.4552    1584.2045    714.13157     969.2802   -5277.8257 
  824000     238.5054   -6351.2941   -5737.7535   -6351.2941            0    2389.9874    23.239436    21.854379    21.739507    11041.136    3931.9462    655.62189    2582.3942   -1569.4935    886.05658   -19.208171    -5352.909 
  825000    235.64481   -6348.0774   -5741.8955   -6348.0774            0    1502.1514    23.603992    21.307724    22.038492    11084.201    1722.3589    2418.8805    365.21474   -240.59322   -789.12121   -598.57097   -5499.0701 
  826000    234.93022   -6341.4274   -5737.0837   -6341.4274            0    2197.9622    23.269214    21.778833    21.829098     11062.47     2745.856    1390.0023    2458.0283    700.41133    170.00464   -11.000758    -5382.476 
  827000    236.34447   -6365.8277    -5757.846   -6365.8277            0    2170.4144    23.792008     21.41287    21.683189    11046.613    776.24514     3128.508    2606.4901   -50.411131   -226.01366    277.19252   -5408.1846 
  828000    247.42306   -6331.9682   -5695.4875   -6331.9682            0    2082.2051    23.356517    21.649443    21.938362    11093.255    563.21989    2494.1982    3189.1973    748.83812   -218.67369    777.58961   -5358.6206 
  829000    236.89551   -6373.5962    -5764.197   -6373.5962            0    1494.0655    23.365124    21.502734    22.064763    11085.646    2050.5124    1451.8723    979.81189    419.22748   -1514.7635    913.13813   -5522.6472 
  830000    237.45859   -6313.2888    -5702.441   -6313.2888            0    2147.5622     23.44151    21.585762    21.929775    11096.529    2390.7992    2039.1144    2012.7731   -687.37378   -85.580357    567.48253   -5354.8978 
  831000    234.37481   -6363.2378   -5760.3229   -6363.2378            0    3645.3619    23.527154    21.563394    21.655289    10986.276    3063.4807    2603.2938    5269.3112    1171.7603   -731.46134    1058.0094     -5176.25 
  832000    239.92515   -6369.7437   -5752.5508   -6369.7437            0    3369.2687    23.479362    21.599111    21.703646    11006.643    3023.3808    3506.7657    3577.6596    460.88889   -536.07813   -881.56232   -5211.7138 
  833000    244.85825   -6368.4943   -5738.6114   -6368.4943            0    2381.2473    23.433421    21.503031    22.001832    11086.494    2346.3013    2746.4205      2051.02   -1020.4229    739.73224   -999.80179   -5353.5991 
  834000    257.62615    -6350.463   -5687.7354    -6350.463            0     1814.872    23.397744    21.545457    22.057118    11119.326    2267.3822     1837.419    1339.8148   -428.93422   -386.41441    1694.9105   -5393.4286 
  835000    235.85292   -6356.5917   -5749.8744   -6356.5917            0    2218.6945    23.543744    21.529397    21.818784    11059.562    1744.1544    2369.4019    2542.5271   -42.619268   -204.90969    686.64049   -5392.0159 
  836000    231.21262   -6349.0094   -5754.2291   -6349.0094            0    2518.1213    23.353017    21.662046    21.881072    11069.068    2692.3451    2197.8658    2664.1532   -349.13399    448.28988    191.24643   -5347.7262 
  837000    232.94143   -6365.9287   -5766.7011   -6365.9287            0    2473.8652    23.525485    21.362394     21.96812    11040.314    2527.1825    3486.0963    1408.3168   -261.05968    1019.7166   -334.36012     -5368.38 
  838000    239.62896   -6342.7078   -5726.2768   -6342.7078            0     1359.373    23.423534    21.724632    21.847419    11117.445    1052.8279    1597.7625    1427.5288    -70.09667    767.22201   -73.741262   -5505.8728 
  839000    227.38905   -6370.9733   -5786.0288   -6370.9733            0    1559.0445    23.617915    21.414398    21.897103    11074.754    563.55523    2252.0725    1861.5057   -214.30715    828.43031    -897.7904   -5534.2214 
  840000    227.09671   -6346.4643   -5762.2719   -6346.4643            0    2062.3972    23.327346    21.684661    21.888822    11072.364      3028.87    1908.8968    1249.4249    221.48554   -705.62086   -21.203728   -5429.2379 
  841000    233.70612   -6371.1403   -5769.9456   -6371.1403            0    2241.0476    23.551203    21.313074    21.982544    11034.105    2904.7242    3161.5146     656.9041   -497.97014   -1108.4942    72.736157   -5409.3137 
  842000    235.96505   -6344.9718   -5737.9661   -6344.9718            0    2522.6026    23.305335    21.692696    21.832584    11037.584    3935.9812    1481.8236    2150.0029    810.83292    -187.8374    573.60952   -5331.8981 
  843000    241.01451   -6357.7054   -5737.7102   -6357.7054            0    1857.4071    23.534084     21.54674    21.857431    11083.527    2024.1895    1614.7201    1933.3117   -411.30207    63.068704    201.48303   -5437.4755 
  844000    243.55527   -6360.6734   -5734.1423   -6360.6734            0     2339.329    23.452881    21.573478    21.839804    11050.072    2182.7434    2409.7458    2425.4977    238.74663    23.715245   -1253.7393   -5357.1502 
  845000    232.65658   -6377.5854   -5779.0905   -6377.5854            0    1996.9259    23.372382     21.63573    21.904894    11076.835    2019.7617    2081.1052     1889.911    50.962098    193.06425   -289.71516   -5456.4985 
  846000    239.00034   -6328.4617   -5713.6479   -6328.4617            0    1526.7183    23.586919    21.454352    21.958552    11111.951    1852.5562    2057.2054    670.39317    629.57239   -1324.3256   -879.22739   -5466.2334 
  847000    231.89316   -6341.9207   -5745.3897   -6341.9207            0    1712.4216    23.364306    21.681084    21.846744    11066.763    1850.5507    2033.3925    1253.3216    803.60374   -1102.4809    470.55964   -5469.0093 
  848000    233.20703   -6376.2605   -5776.3496   -6376.2605            0    2837.8147    23.504539    21.353914    21.978468    11031.299    2696.6761    3469.8714    2346.8966     88.29611   -87.850661    889.34273   -5319.8015 
  849000    229.94525   -6331.0572    -5739.537   -6331.0572            0    1528.8795    23.396372    21.708348    21.872419    11108.927     2533.809    668.57363    1384.2559    686.49681   -90.231697    173.83622   -5491.8397 
  850000    241.64525    -6385.219   -5763.6014    -6385.219            0    3103.4072    23.548375    21.412142    21.863072    11023.824    3146.8949    3418.1373    2745.1894   -398.28121    189.09547    -974.8828    -5264.663 
  851000    238.02909   -6379.8015   -5767.4861   -6379.8015            0    2996.0888    23.322715    21.619303    21.835096    11009.711    1890.4911    2781.9137    4315.8616    64.738182    836.35667   -545.10517   -5286.4181 
  852000    235.49005   -6338.7187   -5732.9349   -6338.7187            0    1125.1297    23.612224    21.507224    21.931033    11137.311    714.35223    762.63966    1898.3973   -463.00818    356.16508    1278.8776   -5550.1843 
  853000    243.00502   -6339.3289   -5714.2133   -6339.3289            0    769.80944     23.45402    21.596386    22.069085    11178.479    1928.4438    242.42001    138.56451   -486.85929   -1186.5472   -85.876328   -5588.7138 
  854000    243.70696   -6361.9798   -5735.0585   -6361.9798            0     739.9682    23.392463    21.536212    22.127217    11147.361    1065.6507     986.1226    168.13128    224.20514    97.268761    364.98758   -5614.7598 
  855000    242.89676   -6349.9552   -5725.1181   -6349.9552            0    1573.2435    23.617078    21.532819    21.815903    11094.309    1226.2418    1257.4659    2236.0228    685.10731   -1081.9776    764.76121   -5470.5687 
  856000     241.1253   -6377.7203   -5757.4401   -6377.7203            0    4132.9927    23.468417    21.555073    21.586424    10919.783    2904.0875    4020.6065    5474.2841    331.41832     369.3666   -959.89029   -5099.2452 
  857000    241.09959     -6367.91    -5747.696     -6367.91            0    2224.1971     23.29841    21.539306     22.03637    11058.547    2536.1957    3056.8763    1079.5192   -1229.8184    676.73841   -894.94361   -5388.9829 
  858000     236.4401   -6354.3391   -5746.1113   -6354.3391            0    2007.9114    23.566118      21.4214    21.972637     11092.21    1909.0643    2974.0433    1140.6264   -942.63514    26.598665    20.467958   -5421.2945 
  859000    232.11429    -6361.185   -5764.0851    -6361.185            0    1431.0729    23.355237    21.775825    21.874021     11124.68    1753.1879    1272.7627    1267.2682    142.69968    74.396723    370.83319   -5531.9049 
  860000    226.03954   -6340.1511   -5758.6782   -6340.1511            0    2942.8575    23.603426    21.469049    21.812437    11053.302    2286.1733    3121.3893    3421.0099   -115.58563   -94.900665     14.20489   -5284.2864 
  861000    241.31476   -6356.8721   -5736.1046   -6356.8721            0    1341.6243    23.231107    21.773339    21.935031     11095.15    2072.0295    1858.6621    94.181157    79.164259     468.3951   -116.33946   -5519.0145 
  862000    232.41053   -6337.1086   -5739.2467   -6337.1086            0    2931.5246    23.633502    21.329029    21.895345    11036.998    2077.6629    3487.4133    3229.4976    834.97247    649.64158    735.22624   -5267.3788 
  863000    237.12192   -6351.5695   -5741.5878   -6351.5695            0    3453.7414    23.368073    21.659022    21.744327    11005.448    3621.6045    2233.0295      4506.59    804.78297   -675.37438    762.11195   -5187.2514 
  864000     239.4802   -6338.6256   -5722.5774   -6338.6256            0    2948.8014    23.377246    21.559312    21.951653    11063.575    3244.3665    2775.1941    2826.8436    619.23564   -1165.3893    -607.8104   -5246.7857 
  865000    237.82455   -6341.3219   -5729.5327   -6341.3219            0    1139.3048    23.617265    21.654677    21.730007    11113.252   -207.43689    1569.4012      2055.95   -492.92123    136.84567    74.629103   -5544.8795 
  866000    227.29036   -6367.7022   -5783.0116   -6367.7022            0    1373.5413    23.353126    21.578298    21.981691    11077.029    2288.1886    2108.8152   -276.37998    167.25321    399.04273     1326.781   -5561.1199 
  867000    229.78167   -6398.1673    -5807.068   -6398.1673            0    1681.8573    23.498924    21.476544    21.905087    11054.964    763.00757    1644.3801    2638.1842    1002.7461    526.20106     756.1928     -5535.91 
  868000    224.34503   -6349.3685   -5772.2546   -6349.3685            0    1887.7407    23.321331    21.759865      21.8371    11081.652    1601.3595    1009.5146    3052.3481   -814.28915    1218.7337    264.88968   -5467.1683 
  869000    237.34943    -6360.603    -5750.036    -6360.603            0    1676.4122    23.483746    21.501355    21.963463    11090.063    1153.3805    2645.4948    1230.3615    362.55153    318.22302   -766.96751   -5478.8978 
  870000    234.31401   -6353.9169   -5751.1584   -6353.9169            0    1538.3076    23.456968    21.688682    21.803276    11092.433    1809.5977    -323.5609     3128.886    -853.4434    866.46462    43.699501   -5502.3037 
  871000    238.30953   -6361.0377    -5748.001   -6361.0377            0    1238.7414    23.583379    21.492795    21.912329    11106.762    1346.3331    811.72829    1558.1627    46.573918    231.39437    678.75278   -5547.3487 
  872000     246.0776   -6334.7491   -5701.7295   -6334.7491            0    1841.5458    23.461239    21.610674    21.942092     11124.93    1599.4195    1633.4536    2291.7643   -1407.1075    892.62643    455.27906   -5402.9466 
  873000     237.6842   -6364.1754   -5752.7473   -6364.1754            0    1632.4931    23.439359    21.606726    21.902478    11092.462    2033.3832    1508.4894    1355.6068    857.05913   -474.27951   -833.67127   -5488.6553 
  874000    238.05003   -6346.9021   -5734.5329   -6346.9021            0    2908.6235    23.606463    21.498463    21.741298    11033.767    3064.1398    3124.9714    2536.7593    152.13137   -133.35913   -993.70838   -5266.4884 
  875000    246.72126   -6347.9969   -5713.3215   -6347.9969            0    3879.5511    23.297219    21.610809    21.815508    10983.492    3288.5433    4632.2238    3717.8862   -227.74098   -565.31876    -426.1498   -5091.8835 
  876000    239.39514   -6358.5258   -5742.6964   -6358.5258            0    1913.0313    23.464048     21.39105    22.049908    11067.304     1492.587    2990.1018     1256.405     71.34968   -847.70901    128.44808   -5433.9231 
  877000    240.40564   -6359.4636   -5741.0348   -6359.4636            0    1523.1522    23.344861     21.63156    21.924067    11071.342    2506.8296    768.92711    1293.6999   -1017.5944    399.29642    690.61443   -5495.1003 
  878000    236.20305   -6355.7343   -5748.1163   -6355.7343            0    1564.6453    23.585823    21.524885    21.820118    11077.684     1004.455     1333.543     2355.938   -286.19311   -978.73049    76.797767   -5495.3375 
  879000    247.87174   -6338.3906   -5700.7557   -6338.3906            0    957.93423    23.467423    21.779632    21.782516    11133.302   -97.815718    394.31779    2577.3006    8.2654772    1130.3764   -374.12403    -5545.218 
  880000    222.72709   -6352.7146   -5779.7628   -6352.7146            0    1521.7235    23.665821      21.4468    21.872677    11101.611    689.28455    2581.7429    1294.1429    81.797821    870.88944   -2256.6199   -5533.3872 
  881000    229.30716   -6370.9003   -5781.0216   -6370.9003            0    2343.3348    23.369541    21.537541    21.936863    11041.315    3577.9099    1909.6343    1542.4601   -408.13464    251.58174    399.13883   -5403.6831 
  882000    237.93705   -6324.1966   -5712.1181   -6324.1966            0    2563.3334    23.480107    21.522916    21.935273    11085.218    2322.5084    2731.2826    2636.2093    994.10395    100.84544    823.82084   -5297.7128 
  883000    246.73496   -6366.2774   -5731.5668   -6366.2774            0    1440.7764    23.455026    21.624742    21.884905    11100.218    1571.9614    1484.8746    1265.4933   -907.80846    158.81898    -573.7821   -5498.3262 
  884000    220.82545   -6344.0979   -5776.0379   -6344.0979            0    2761.2772    23.494787    21.527905    21.940933    11097.582    3031.6867    3230.8614    2021.2836   -1854.1613    429.89915   -739.94935   -5329.1338 
  885000    231.23687   -6369.3686   -5774.5258   -6369.3686            0    3514.3317    23.387943    21.584192    21.755599    10982.441    3331.7024    3410.6043    3800.6884    8.4989144    393.14178    656.68233   -5211.6437 
  886000    240.70707   -6332.5161   -5713.3118   -6332.5161            0    2443.8413    23.598038     21.41389    21.829319    11030.918    1731.0856    3182.0855    2418.3528    1673.2189    292.32644    343.31778   -5320.1598 
  887000    239.66153   -6362.1369   -5745.6222   -6362.1369            0     2339.129    23.294479    21.687262    21.948812    11088.396    3399.6786    1623.8175    1993.8907    649.38922   -813.38985   -805.38453   -5367.3549 
  888000    223.61395   -6348.1401   -5772.9069   -6348.1401            0    3085.9191    23.597183    21.509423    21.732739    11030.708    1836.6273    4447.3769     2973.753    479.46206   -146.36342   -1386.3305   -5276.4702 
  889000    230.84923   -6351.4298   -5757.5842   -6351.4298            0    3670.7012    23.313202    21.533484    21.886595    10987.387    4321.3141    2494.2223    4196.5672     126.9264   -42.891835    851.25943   -5169.3919 
  890000    234.45452   -6346.0022   -5742.8822   -6346.0022            0    1327.0919    23.427249    21.620812    22.034353    11160.756    984.89148    1373.9661    1622.4182    501.34127   -344.12684    1562.5481   -5526.8739 
  891000    230.04096   -6361.4083    -5769.642   -6361.4083            0    1193.8318    23.617206    21.579407    21.800161     11110.35    613.09771    901.88004    2066.5176    816.76051   -41.269734    499.66213   -5576.2017 
  892000    235.22875   -6346.9958   -5741.8842   -6346.9958            0     1998.549     23.44571    21.611578    21.876687    11084.891    962.71986    1885.2005    3147.7265    514.71935   -591.20773   -684.72123   -5418.7953 
  893000    239.43351   -6355.4182   -5739.4901   -6355.4182            0    2065.6055    23.446076    21.423494    22.047469    11074.374    2133.1222    3263.5586    800.13557    1123.0504   -130.28634   -677.20335   -5405.8775 
  894000    239.85655    -6368.952   -5751.9356    -6368.952            0    2233.0478    23.468547    21.542333    21.874794    11059.179    2676.6663     2343.189     1679.288    180.02327   -190.45901    373.11993   -5391.7745 
  895000    245.42563   -6338.6851   -5707.3427   -6338.6851            0    1450.6893    23.556679    21.482669    21.952396    11109.237    1245.4885     778.7374    2327.8419   -611.75615     67.46027   -232.13559   -5472.3066 
  896000     234.9418     -6362.18   -5757.8066     -6362.18            0    1992.0241    23.297156    21.809989    21.845176    11099.768    2668.5564    348.76025    2958.7557   -586.36895   -687.61949    -554.0612   -5435.3402 
  897000    234.70299   -6369.5776   -5765.8185   -6369.5776            0    2769.9292    23.662299    21.252303    21.957589    11041.996    2125.3215    3768.1919    2416.2742   -72.133563   -331.97254   -706.05389   -5319.7596 
  898000     237.5799   -6388.4725   -5777.3127   -6388.4725            0    2138.6002    23.281905    21.648563    21.841724    11008.661    3376.6623    1748.2901    1290.8481   -1384.4169   -242.50931   -22.430259   -5433.9604 
  899000     239.8429   -6324.5193   -5707.5381   -6324.5193            0     350.3548    23.657989    21.451134    22.006449    11168.068   -16.495496    1870.5288   -802.96888    88.310534    -237.0506    -191.4886   -5650.4741 
  900000     240.0109   -6381.6367   -5764.2233   -6381.6367            0    1134.4309    23.156935    21.765031    22.070672    11123.871    3662.9108    -237.7355   -21.882537    180.90299    441.02587    192.32366   -5580.1843 
  901000    237.31343   -6322.5712   -5712.0968   -6322.5712            0    2662.3406    23.691239    21.446097    21.796139    11074.283   -227.47524    5059.0008    3155.4963    1783.5069    742.89992    -545.1606     -5282.11 
  902000    232.64314   -6372.9272    -5774.467   -6372.9272            0    908.90919    23.451394    21.739565    21.816125    11122.365    1161.3212    539.38216    1026.0242     220.8942    877.80949    101.57551   -5627.0344 
  903000    236.21667   -6324.6204   -5716.9675   -6324.6204            0     1006.371     23.58075    21.394589    22.129046    11164.114    745.60447    1650.1344    623.37408   -358.04315   -322.29167     75.69996    -5553.113 
  904000    233.31084   -6350.7351   -5750.5572   -6350.7351            0    2113.0754    23.474789    21.536284    21.893925    11068.687    16.082491     3356.921    2966.2228   -1114.1061    495.43736    212.37736    -5409.453 
  905000    227.00736   -6351.1812   -5767.2186   -6351.1812            0    3171.4659    23.475492    21.519409     21.73875    10981.954    1415.2433    4057.0304    4042.1241    752.42874    383.43846   -595.88674   -5259.2749 
  906000    238.13807    -6400.259   -5787.6633    -6400.259            0    2620.8453    23.343622    21.595762    21.747243    10963.292    2095.8576    2597.9784    3168.6999   -228.28504    759.03197    315.68221   -5368.6206 
  907000    234.21193   -6366.0177   -5763.5218   -6366.0177            0    1062.5351    23.530976    21.577846    21.930897    11135.364   -57.062829    1079.0746    2165.5937    939.12507    345.11161   -277.48465   -5590.9684 
  908000    238.36538   -6372.7117   -5759.5313   -6372.7117            0    2358.1916    23.427494    21.545922    21.871209    11039.864    1829.0288    1742.0164    3503.5297     1246.205     968.8084    237.67814   -5379.8504 
  909000    240.31275   -6353.6939    -5735.504   -6353.6939            0    2077.4297    23.401786    21.498894     22.00254    11069.753    2895.4792    1183.4328     2153.377    258.49632   -549.72911    78.288083   -5400.1217 
  910000    237.49306     -6365.63   -5754.6936     -6365.63            0    1481.5334     23.40596    21.806562    21.730869    11091.512    1164.4631    1191.9114    2088.2258    28.255955   -247.95635   -414.22283   -5515.0433 
  911000    228.24994   -6366.9804   -5779.8213   -6366.9804            0    2572.0545    23.587822    21.472175    21.809755    11046.245     2368.556    1736.5542    3611.0532   -172.13103   -442.96372   -919.34777   -5365.4681 
  912000     235.0211   -6346.9104    -5742.333   -6346.9104            0    861.33347    23.523263    21.640657    21.899735    11148.254    1287.4238   -872.80492    2169.3816   -996.37094    403.36855    1067.6829   -5602.2923 
  913000    239.10252   -6365.7186   -5750.6419   -6365.7186            0    2461.4456    23.423899    21.494911    21.971634      11062.6    3375.0901    2060.6286    1948.6182   -62.493686   -358.03816    543.16017   -5353.5205 
  914000    234.50179    -6372.306   -5769.0644    -6372.306            0    2757.0034    23.454731    21.541623     21.77783    11003.313    2435.3511    2634.2746    3201.3844    -50.32693    1417.4048   -440.15169   -5326.6425 
  915000    242.17944   -6366.1641   -5743.1722   -6366.1641            0    1618.5218    23.462577    21.526345    21.915845    11068.894     1718.467    1951.7987    1185.2997   -692.64874    404.68752   -623.26327   -5481.8968 
  916000    245.20742   -6345.8777   -5715.0966   -6345.8777            0    2581.8101    23.328495    21.630567    21.905514     11053.71    3668.7649    1243.2526    2833.4129   -453.78855    -373.9778   -721.29152   -5298.8907 
  917000    237.16746     -6367.69   -5757.5912     -6367.69            0    1175.2543    23.493865    21.547012    21.997543    11135.653    681.20948    691.32483    2153.2287    125.45948   -25.306464    814.82959   -5566.7275 
  918000    238.75871   -6329.5388   -5715.3466   -6329.5388            0    1611.1937    23.480467    21.603233    21.891989    11104.799    2761.3972    1162.4435     909.7405   -1419.1765   -534.08413    81.587491   -5454.4104 
  919000    245.47238   -6319.9785   -5688.5157   -6319.9785            0    2710.6876    23.487179    21.538076    21.871631    11064.172     2151.991    3209.0598    2771.0119    894.82005     61.63894   -223.56327   -5251.1203 
  920000    242.29472   -6366.6411   -5743.3527   -6366.6411            0    3339.0812    23.505789    21.560935    21.722529    11009.125    4096.1745    1855.8369    4065.2323    747.57356   -1638.2971    14.562815   -5207.2405 
  921000    240.88947   -6367.4211   -5747.7476   -6367.4211            0    2465.3128     23.47372    21.591501    21.850948    11074.778    2640.9681    1153.1067    3601.8634   -164.87627   -2481.0043    507.99533   -5349.5644 
  922000    239.35589   -6354.1768   -5738.4484   -6354.1768            0    3026.8818    23.465543    21.465829    21.901171     11031.78    2308.7946    3881.4382    2890.4126    875.40166   -1144.3512   -274.94628   -5251.4619 
  923000    237.10854   -6362.2224   -5752.2751   -6362.2224            0    2665.4812    23.462976    21.553026    21.770454    11009.278    1807.3618    3795.6065    2393.4753   -732.53721    674.53642    -72.19486    -5324.308 
  924000     237.8508   -6373.3978   -5761.5411   -6373.3978            0    2251.9169    23.582236    21.585074    21.698159     11044.89    2582.5586    942.30081    3230.8914   -213.49006    73.595145    123.56912   -5398.8059 
  925000    230.86913   -6337.2349   -5743.3382   -6337.2349            0    2700.7149    23.391518    21.562289    21.966443    11079.318    2198.9678    3055.8706    2847.3064    89.429551    272.40373   -66.624771   -5306.9553 
  926000    244.60359   -6396.8177   -5767.5898   -6396.8177            0    3088.7706    23.372575    21.449195    21.912625    10985.301    2895.0042    3443.9607    2927.3468    283.08737    219.82949   -1007.0152   -5272.7399 
  927000    252.15882   -6348.7324   -5700.0692   -6348.7324            0    2496.8737    23.503002    21.659962    21.707652    11050.804    1490.1607    2448.2807    3552.1796   -56.194559    1634.3041    755.73049   -5297.6614 
  928000      237.507   -6346.2108   -5735.2385   -6346.2108            0    730.55745    23.528327    21.640144    21.906157     11153.66    594.34164    1636.5329   -39.202162   -418.32724    41.088795   -734.31873   -5616.4026 
  929000    239.35626   -6363.1592   -5747.4298   -6363.1592            0    1739.9757    23.347449    21.562358    22.031713    11091.338     2402.708    1505.6512    1311.5679   -620.35727    265.40279   -255.41752   -5465.9786 
  930000     242.7971   -6355.4284   -5730.8477   -6355.4284            0    1951.7058    23.385438    21.605145    21.914608    11072.263    2547.2051    1027.3566    2280.5557   -713.08361    918.28505      584.886   -5415.6909 
  931000    242.00426   -6374.7697   -5752.2285   -6374.7697            0    1515.9119    23.514983    21.527702    21.903416    11088.025    1117.1662    1649.3107    1781.2589    671.85172    20.193992    1310.5034   -5507.0942 
  932000    248.00662   -6360.1617   -5722.1798   -6360.1617            0    2689.2525    23.413251     21.58116    21.861781    11046.433    2066.8023    3226.6571    2774.2981    1298.6933    8.8239917    757.32025   -5288.9388 
  933000    221.65466     -6334.79   -5764.5969     -6334.79            0     2155.133    23.553448    21.524429    21.881676    11093.453    1613.2262    2596.6011    2255.5717   -861.33563   -368.47424    200.02114   -5415.9252 
  934000    231.15684   -6355.8329    -5761.196   -6355.8329            0    1571.2623    23.449429    21.610357    21.950671    11123.514    1403.3206    1066.2002    2244.2662   -159.56494    776.77416   -413.05481   -5506.2979 
  935000     244.1114   -6351.0377    -5723.076   -6351.0377            0    2743.7367    23.535035    21.563676    21.781239     11054.02    2614.1148    2254.3614    3362.7339   -201.15838   -619.87009   -39.286632   -5280.7539 
  936000    242.20007   -6341.2709    -5718.226   -6341.2709            0    957.41707    23.517249    21.571538    21.907528     11113.76    1177.9986    271.09217    1423.1605    1318.3146   -416.70712    654.44381   -5563.0452 
  937000    223.89122   -6356.5427   -5780.5962   -6356.5427            0    1747.0325    23.371733    21.600692    21.918612    11065.515    1754.8468    2162.3613    1323.8892   -36.074503   -297.06592    1275.8542   -5498.6615 
  938000    249.13435   -6355.6764   -5714.7935   -6355.6764            0    3574.5654    23.443149    21.505921    21.803864    10992.779    3677.5303    3807.1665    3238.9993   -1572.4121   -416.05011    95.316146   -5141.7249 
  939000    224.26838   -6358.4144   -5781.4976   -6358.4144            0    2165.6712    23.509655    21.597347    21.750604    11043.786    2583.9056    1493.7092    2419.3987   -416.47483    904.87311   -58.615197   -5432.6896 
  940000    246.94281   -6327.7675   -5692.5222   -6327.7675            0    1314.6273    23.458276    21.520947    22.036157    11124.828    1234.4211    1582.5176     1126.943    1741.8329   -342.07779    1001.5574   -5479.2315 
  941000    241.29547   -6341.9614   -5721.2434   -6341.9614            0    2913.7598    23.429943    21.512897    21.900351    11038.783    2951.9562    3655.7321     2133.591    971.80907    826.87641   -726.17709   -5252.1592 
  942000    236.95595   -6326.8813   -5717.3266   -6326.8813            0      2735.12    23.554579    21.762502    21.495218     11018.59    1514.8498    1137.0473    5553.4628   -98.729233    166.43499    534.09839   -5277.8069 
  943000    232.79862   -6346.7982   -5747.9379   -6346.7982            0    2531.1903    23.504437    21.504223    21.859109     11048.57    1854.8961    2735.7643    3002.9104     -428.813    699.88501    239.14169    -5340.082 
  944000    239.73049   -6355.6512   -5738.9591   -6355.6512            0    1633.0604    23.321095     21.58633    22.102025    11126.532    2503.0939     783.1907    1612.8967   -195.08666   -280.94608    599.89621   -5473.9639 
  945000    246.00135   -6358.8844   -5726.0609   -6358.8844            0    1403.2241    23.503051    21.555829    21.871443     11080.68    1452.8491    838.91408    1917.9092   -346.67643    154.41651    430.62459   -5499.2994 
  946000    229.72175   -6340.4029   -5749.4577   -6340.4029            0    2094.2638    23.511012    21.677986    21.761981    11091.459    1489.1683    1169.9788    3623.6445    834.32018   -48.203396    529.10002   -5410.6947 
  947000      233.562   -6339.2403   -5738.4163   -6339.2403            0    1437.9459    23.533111    21.619482    21.845552    11114.441    364.33459    1110.0352    2839.4678    96.878847    302.21552    787.17951   -5505.3357 
  948000    233.51853   -6325.1188   -5724.4066   -6325.1188            0    2707.8332    23.422323    21.522732    21.951457    11066.001    2572.9293    3338.8698    2211.7005   -672.25618   -338.59958   -261.84473   -5287.3995 
  949000    235.56438    -6333.877    -5727.902    -6333.877            0    3324.1048    23.373745     21.45468    22.035138    11050.098     4479.114    2871.1406    2622.0599   -953.74038   -444.45525    14.969952    -5192.208 
  950000    236.94513   -6370.1916   -5760.6647   -6370.1916            0    2717.5291    23.385098    21.648486    21.791953    11032.219    3057.3337    2178.5643    2916.6893    392.65432   -850.15036    310.92613   -5323.4316 
  951000    239.01087   -6350.7462   -5735.9053   -6350.7462            0    1809.5544    23.551112    21.545042    21.799335    11061.194    904.90856    3089.7539    1434.0009    223.81009    121.27119   -83.214882   -5443.9949 
  952000    238.00547   -6350.6235    -5738.369   -6350.6235            0    2796.8378    23.468854    21.583874    21.779687    11032.474    3448.0559    2740.4559    2202.0017   -881.93117   -429.49125   -799.81199   -5288.3653 
  953000    228.85452   -6379.1628   -5790.4485   -6379.1628            0    1121.2191    23.424535    21.481209    22.074162    11107.439    1033.9028    2220.2794    109.47497     1041.064   -213.62389   -249.50135   -5608.8215 
  954000    229.29755   -6345.2534   -5755.3995   -6345.2534            0    1530.9603    23.481678    21.583297    21.859113    11078.461    810.68876    1737.2277    2044.9646    830.07581    1027.2576    1383.3809   -5508.0453 
  955000    241.28934   -6384.5621   -5763.8599   -6384.5621            0    3111.2971    23.530329     21.47029      21.7913     11009.03    2924.4827    2989.0875    3420.3212    770.92695    208.17161    597.93452   -5264.3244 
  956000     237.9484    -6387.259   -5775.1513    -6387.259            0     2444.476    23.401582    21.581524    21.912566    11066.762    3257.0775    2148.7893    1927.5613    535.74572   -861.22196   -1018.7077   -5380.6193 
  957000    228.66426   -6353.3982   -5765.1733   -6353.3982            0    2576.0219    23.505634    21.506085    21.905653    11073.618    2501.6865    3090.8787    2135.5006    911.81273   -152.69633   -401.34957   -5349.1525 
  958000    237.47852   -6353.2676   -5742.3686   -6353.2676            0    296.52629    23.483324    21.584964     22.00251     11152.78   -128.55604   -230.59544    1248.7304    573.18404   -124.87327    314.15719    -5694.138 
  959000    237.02047   -6339.7069   -5729.9862   -6339.7069            0    759.92666    23.577779    21.630088    21.867431    11152.159   -762.82953    424.39631    2618.2132    453.65633    495.09788    1437.9835   -5606.3896 
  960000    239.50782    -6371.732   -5755.6127    -6371.732            0   -387.19335    23.481163    21.692632    21.950323    11180.797   -1139.1896   -35.511811    13.121392   -113.81649    69.745146   -1480.1476   -5818.7486 
  961000    239.28338   -6348.3469    -5732.805   -6348.3469            0    2463.5391    23.408075     21.57172      21.8932    11055.025    2686.0486    2465.6673    2238.9015    1225.0963   -1786.9561    25.762181    -5335.618 
  962000    240.08586   -6378.5966   -5760.9903   -6378.5966            0     2340.726    23.516605    21.505361    21.820699    11035.449    1430.5692    3384.6167    2206.9919    562.68535    791.19711   -280.60344   -5384.2722 
  963000    234.13181   -6356.2075   -5753.9177   -6356.2075            0    2256.2559    23.404324    21.609203    21.927906    11090.012    2567.7109    2945.1757    1255.8809   -484.86812    357.29986     425.4705   -5388.9989 
  964000    244.58544   -6369.7011     -5740.52   -6369.7011            0    2897.4278    23.510082    21.397659    21.947466    11040.908    2682.7712     4040.214    1969.2982   -136.16335    -337.3086    393.12658   -5273.9752 
  965000    230.78076   -6384.0834    -5790.414   -6384.0834            0    2214.1276    23.381033     21.56622    21.882542    11034.064    1642.9843    3083.2985    1916.1001    -258.3888    231.63115   -620.87739   -5434.1155 
  966000    233.63432   -6356.4597   -5755.4496   -6356.4597            0     2798.488    23.599631    21.410919     21.82309    11026.984    2350.6603    2306.3952    3738.4084   -624.50352   -88.955193    56.735433   -5305.4045 
  967000    241.55959   -6364.8646   -5743.4673   -6364.8646            0    1793.4389    23.292941    21.757906    21.876018    11086.889     3266.854    61.658091    2051.8045   -62.878024    957.79377   -641.55479   -5453.4845 
  968000    235.55142   -6329.0275   -5723.0858   -6329.0275            0     1790.554    23.511427      21.5301    21.969927    11121.251    732.27908    2570.1639    2069.2189    752.65687    804.96482   -1560.0851   -5432.6722 
  969000    242.80682   -6374.6348    -5750.029   -6374.6348            0    1279.8862    23.349092    21.678508    21.974348    11122.832     1793.854    925.16989    1120.6348    259.97071   -442.29242   -182.86269   -5542.4122 
  970000    226.86954   -6379.9379   -5796.3298   -6379.9379            0    2378.7717    23.588186    21.455011      21.8635    11064.785    2813.1907    1644.3549    2678.7696   -604.08012   -299.80399    427.55282   -5412.4709 
  971000    239.74791    -6374.277   -5757.5401    -6374.277            0    3533.3963    23.114889    21.724156       21.818     10955.94    3530.5925    3312.6956    3756.9009   -825.86063    282.75015    228.39951     -5192.97 
  972000    230.51393   -6357.1749   -5764.1918   -6357.1749            0    3179.8991    23.463884     21.40818    21.940064    11020.913     2372.166    3855.9482    3311.5831    295.82063    663.66656    542.10806   -5253.0908 
  973000    234.25198   -6362.8173   -5760.2184   -6362.8173            0    2510.9536    23.338096    21.590304    21.911561    11040.723     2264.037    3849.1552    1419.6687   -341.97292    1520.5765   -1279.9295   -5355.9106 
  974000    249.86391   -6354.6892   -5711.9295   -6354.6892            0    2190.2874    23.582608    21.582162    21.739331     11064.53    1015.5725    2300.6189    3254.6707    797.18599   -890.33806   -930.48426   -5358.4942 
  975000    232.65422   -6361.1777   -5762.6889   -6361.1777            0    1815.7661     23.46431    21.625393    21.860425    11092.524    1605.9184    1613.4743    2227.9056   -215.37557     475.9419   -288.19787   -5468.9468 
  976000    231.43047   -6337.1142   -5741.7734   -6337.1142            0     1082.377    23.413398    21.522256    22.115831    11144.369    1118.8168    2448.9971   -320.68293     31.39446   -335.73847   -803.42284   -5565.8555 
  977000    243.05698   -6322.3561   -5697.1068   -6322.3561            0     1265.825    23.429089    21.578021    22.061025    11153.026    1251.9602    1781.6201    763.89479   -49.290769   -614.40095   -305.43209   -5491.2135 
  978000    247.22908   -6340.5769   -5704.5951   -6340.5769            0    2480.3809    23.480883     21.65652    21.765137    11067.882    2831.2148    1469.6936    3140.2345   -689.32625    804.19366    58.385843   -5304.2277 
  979000    244.41875   -6354.4854   -5725.7331   -6354.4854            0    2487.6233    23.612557    21.447771    21.904466    11093.226    1951.2483    3268.6499    2242.9716   -387.73936    416.09941   -713.94129   -5323.2771 
  980000    241.14492   -6326.8171   -5706.4865   -6326.8171            0    1807.6453    23.396919     21.75928    21.870993    11134.525    1829.0699    1192.4698    2401.3963    260.50827   -777.28935   -90.050539   -5412.9509 
  981000    241.10764   -6334.5755   -5714.3408   -6334.5755            0    2075.8074    23.641056    21.346719    21.977839    11091.314    1847.9664    3419.4383    960.01748   -26.817123   -36.050803   -720.53392   -5378.5676 
  982000    237.25062   -6344.4061   -5734.0933   -6344.4061            0    3123.0527    23.097061    21.792381    21.902122    11024.214    4196.4545    2638.1707    2534.5327    313.20352   -672.71207   -600.06906   -5231.9788 
  983000    241.95665   -6383.2124   -5760.7937   -6383.2124            0    2648.4135      23.6031    21.364524    21.900936    11043.963    1925.8874    3573.1995    2446.1536   -581.80212   -321.73317   -285.15377   -5334.2273 
  984000    232.21759   -6337.1921   -5739.8266   -6337.1921            0    2607.7904     23.43432    21.741824    21.669926    11040.933    1114.3041    1581.2061     5127.861    369.42361    194.64451    464.76451   -5319.9184 
  985000    239.79395   -6369.6928   -5752.8375   -6369.6928            0     2539.461    23.515009    21.360038    22.001688     11051.04    2311.8745    2761.2622    2545.2462    99.133266    819.04539    84.403819   -5343.5574 
  986000    239.46066   -6360.9113   -5744.9133   -6360.9113            0    1958.0946    23.106844     21.77352    21.975437    11056.223    2953.6407    1503.4114    1417.2315    724.96598   -53.697914    111.15901    -5429.183 
  987000    225.90209   -6345.3155   -5764.1961   -6345.3155            0    1981.7694    23.685606    21.412276    21.910791    11112.337    1128.2193    1965.3705    2851.7183   -337.96266    771.32594    813.58319   -5443.0265 
  988000    241.71702   -6336.0437   -5714.2414   -6336.0437            0    2568.1398    23.417765    21.742505    21.654976    11025.866    1823.1264    1686.9518    4194.3412    913.40034    196.38446    321.90933   -5301.2821 
  989000    222.72098   -6320.2011   -5747.2649   -6320.2011            0    2351.9703    23.611445    21.417615    21.919008     11084.46    2445.3594     2773.807    1836.7446   -450.08855   -105.73698    -257.7279    -5367.056 
  990000    238.48086   -6344.6151   -5731.1376   -6344.6151            0    1522.9171    23.287496    21.811051    21.899655    11123.377    2349.8342    162.99443    2055.9226    -254.7793   -903.03039   -851.35551   -5484.0853 
  991000    238.13605   -6368.8274   -5756.2369   -6368.8274            0      2901.31    23.840347    21.316393    21.687351    11021.299    1043.4169    3433.2475    4227.2655    448.89186   -113.56167   -135.65923   -5289.8968 
  992000     239.5596   -6367.3314   -5751.0789   -6367.3314            0    2056.2082    23.236898    21.708688    21.934014     11064.45    3462.4989    807.49294    1898.6328    154.49869    13.065264    611.96676   -5419.2817 
  993000    235.30687   -6333.8483   -5728.5357   -6333.8483            0    2290.2582    23.560872    21.376137    22.010497    11085.376    1884.0799    1768.5169    3218.1777   -453.20691   -729.86201    392.18659   -5358.2723 
  994000    232.54262   -6346.9544   -5748.7527   -6346.9544            0    1580.7533    23.395237    21.754468    21.771529     11080.64     517.1554    2366.9762    1858.1284   -1187.5917    814.78292   -449.85938   -5493.3033 
  995000     240.2315   -6309.0989    -5691.118   -6309.0989            0    2247.8434    23.618539    21.574183    21.759838     11087.74    2196.9997    1795.0712    2751.4593   -1607.6705    777.99235   -553.10014   -5327.6342 
  996000    226.47308   -6341.5975   -5759.0093   -6341.5975            0    2521.0507    23.398181      21.5274    21.963498    11063.058    2483.0776    3676.0352    1404.0394    180.12518    1958.4374   -475.60375   -5352.2545 
  997000    235.75374   -6347.5247   -5741.0626   -6347.5247            0    1812.0265     23.39366    21.532719    22.044478    11104.445    2067.7814    2936.6005    431.69756    289.80661    1128.0797    264.33834   -5447.6104 
  998000    236.31918   -6331.2097    -5723.293   -6331.2097            0      2446.79    23.610061    21.383088    21.866319    11039.343    2526.3626    2992.2241    1821.7832   -506.57676     223.2769    37.679512    -5329.366 
  999000    242.42383   -6373.8576   -5750.2371   -6373.8576            0    1921.8072    23.324371    21.852056    21.704987    11062.716    1589.7434    818.97958    3356.6987    139.87372    717.16464    15.634908   -5440.1759 
 1000000    240.10081   -6304.7018   -5687.0571   -6304.7018            0    1229.5082    23.578693     21.41198    22.057965    11136.328    283.95358     2786.465    618.10611    95.769605    580.88936    21.102493   -5487.3703 
Loop time of 547.538 on 64 procs for 250000 steps with 1296 atoms

Performance: 78.899 ns/day, 0.304 hours/ns, 456.589 timesteps/s
195.4% CPU use with 32 MPI tasks x 2 OpenMP threads

MPI task timing breakdown:
Section |  min time  |  avg time  |  max time  |%varavg| %total
---------------------------------------------------------------
Pair    | 36.962     | 46.812     | 55.718     |  69.8 |  8.55
Bond    | 0.68688    | 0.93949    | 1.2585     |  10.9 |  0.17
Kspace  | 283.45     | 294        | 303.38     |  29.9 | 53.69
Neigh   | 3.5661     | 3.7417     | 3.9783     |   5.1 |  0.68
Comm    | 78.419     | 80.943     | 84.195     |  18.4 | 14.78
Output  | 1.1653     | 1.1656     | 1.1673     |   0.0 |  0.21
Modify  | 104.31     | 106.63     | 108.36     |   9.6 | 19.47
Other   |            | 13.31      |            |       |  2.43

Nlocal:        40.5000 ave          52 max          29 min
Histogram: 2 2 0 7 5 7 3 2 2 2
Nghost:        2990.75 ave        3040 max        2956 min
Histogram: 4 1 4 3 11 3 4 1 0 1
Neighs:        12533.3 ave       16143 max        9013 min
Histogram: 2 2 1 6 5 7 3 2 2 2

Total # of neighbors = 401065
Ave neighs/atom = 309.46373
Ave special neighs/atom = 2.0000000
Neighbor list builds = 8563
Dangerous builds = 0

unfix		3
unfix		2
unfix		1

write_data	data.final.${pid}
write_data	data.final.0
System init for write_data ...
PPPM initialization ...
  extracting TIP4P info from pair style
  using 12-bit tables for long-range coulomb (../kspace.cpp:340)
  G vector (1/distance) = 0.3673374
  grid = 30 40 32
  stencil order = 5
  estimated absolute RMS force accuracy = 0.0044569115
  estimated relative force accuracy = 1.3421857e-05
  using double precision FFTW3
  3d grid and FFT values/proc = 7752 1200
Last active /omp style is kspace_style pppm/tip4p/omp
WARNING: Not all mixed pair coeffs generated from mixing. Use write_data with 'pair ij' option to store all pair coeffs. (../write_data.cpp:312)

write_restart   restart.lmp.${pid}
write_restart   restart.lmp.0
System init for write_restart ...
PPPM initialization ...
  extracting TIP4P info from pair style
  using 12-bit tables for long-range coulomb (../kspace.cpp:340)
  G vector (1/distance) = 0.3673374
  grid = 30 40 32
  stencil order = 5
  estimated absolute RMS force accuracy = 0.0044569115
  estimated relative force accuracy = 1.3421857e-05
  using double precision FFTW3
  3d grid and FFT values/proc = 7752 1200
Last active /omp style is kspace_style pppm/tip4p/omp
Total wall time: 0:09:07
