#include		in.partitions
include		in.temp
variable        temperature equal 36.11
variable	tempDamp equal 100.0
include		in.pressure
variable        pressure equal 9108.3
variable        pressureDamp equal 1000.0 # This is 1 ps
include		in.seed
variable        seed equal 745823

units		real
atom_style	full
read_restart    restart.lmp.${pid}
read_restart    restart.lmp.1
Reading restart file ...
  restart file = 30 Jul 2021, LAMMPS = 30 Jul 2021
  restoring atom style full from restart
  triclinic box = (-3.0512179 -0.025622175 0.068327895) to (14.661217 22.605621 19.161670) with tilt (-0.17724383 -6.6314687 0.22247184)
  2 by 4 by 4 MPI processor grid
  restoring pair style lj/cut/tip4p/long/omp from restart
  restoring bond style harmonic/omp from restart
  restoring angle style harmonic/omp from restart
  1008 atoms
  672 bonds
  336 angles
Finding 1-2 1-3 1-4 neighbors ...
  special bond factors lj:    0        0        0       
  special bond factors coul:  0        0        0       
     2 = max # of 1-2 neighbors
     1 = max # of 1-3 neighbors
     1 = max # of 1-4 neighbors
     2 = max # of special neighbors
  special bonds CPU = 0.002 seconds
  read_restart CPU = 0.008 seconds

include 	in.setup
variable	out_freq equal 1000
variable	out_freq2 equal 10000
variable	out_freq3 equal 1000

timestep	2.0

neigh_modify    delay 7 every 1

include		in.tip4p
# This is TIP4P/Ice

# create groups ###
group ox type 2
336 atoms in group ox
group hy type 1
672 atoms in group hy

# set charges - beside manually ###
set group ox charge -1.1794
Setting atom values ...
  336 settings made for charge
set group hy charge 0.5897
Setting atom values ...
  672 settings made for charge

# ### TIP3P Potential Parameters ###
pair_style lj/cut/tip4p/long/omp 2 1 1 1 0.1577 8.5
pair_coeff 1 1*2 0.000 0.000
pair_coeff 2 2 0.21084 3.1668
bond_style  harmonic
bond_coeff  1 450 0.9572
angle_style harmonic
angle_coeff 1 55 104.52
kspace_style pppm/tip4p/omp 1.0e-5
pair_modify tail yes

thermo          ${out_freq}
thermo          1000
thermo_style    custom step temp pe etotal epair emol press lx ly lz vol pxx pyy pzz pxy pxz pyz enthalpy

restart 	${out_freq3} restart.lmp.${pid} restart2.lmp.${pid}
restart 	1000 restart.lmp.${pid} restart2.lmp.${pid}
restart 	1000 restart.lmp.1 restart2.lmp.${pid}
restart 	1000 restart.lmp.1 restart2.lmp.1


include         in.dump
dump            myDump all atom ${out_freq2} dump.water.${pid}
dump            myDump all atom 10000 dump.water.${pid}
dump            myDump all atom 10000 dump.water.1
dump            myDump2 all dcd ${out_freq2} dump.dcd
dump            myDump2 all dcd 10000 dump.dcd
dump_modify     myDump append yes
dump_modify     myDump2 append yes


variable natoms 	equal  "count(all)"                        # NUMBER ATOMS
variable H      	equal  "enthalpy/v_natoms"                 # ENTHALPY-per-atom
variable Vol      	equal  "vol/v_natoms"                 # volume-per-atom
fix AVG all 		ave/time ${out_freq} 1 ${out_freq} v_Vol v_H file vol_enthalpy.dat
fix AVG all 		ave/time 1000 1 ${out_freq} v_Vol v_H file vol_enthalpy.dat
fix AVG all 		ave/time 1000 1 1000 v_Vol v_H file vol_enthalpy.dat



fix 		1 all shake 1e-6 200 0 b 1 a 1
       0 = # of size 2 clusters
       0 = # of size 3 clusters
       0 = # of size 4 clusters
     336 = # of frozen angles
  find clusters CPU = 0.001 seconds
fix             2 all nph tri ${pressure} ${pressure} ${pressureDamp}
fix             2 all nph tri 9108.3 ${pressure} ${pressureDamp}
fix             2 all nph tri 9108.3 9108.3 ${pressureDamp}
fix             2 all nph tri 9108.3 9108.3 1000
fix             3 all temp/csvr ${temperature} ${temperature} ${tempDamp} ${seed}
fix             3 all temp/csvr 36.11 ${temperature} ${tempDamp} ${seed}
fix             3 all temp/csvr 36.11 36.11 ${tempDamp} ${seed}
fix             3 all temp/csvr 36.11 36.11 100 ${seed}
fix             3 all temp/csvr 36.11 36.11 100 745823


run             250000
PPPM initialization ...
  extracting TIP4P info from pair style
  using 12-bit tables for long-range coulomb (../kspace.cpp:340)
  G vector (1/distance) = 0.3802614
  grid = 24 27 32
  stencil order = 5
  estimated absolute RMS force accuracy = 0.0023607622
  estimated relative force accuracy = 7.1093653e-06
  using double precision FFTW3
  3d grid and FFT values/proc = 5355 672
Last active /omp style is kspace_style pppm/tip4p/omp
Neighbor list info ...
  update every 1 steps, delay 7 steps, check yes
  max neighbors/atom: 2000, page size: 100000
  master list distance cutoff = 10.8154
  ghost atom cutoff = 10.8154
  binsize = 5.4077, bins = 5 5 4
  1 neighbor lists, perpetual/occasional/extra = 1 0 0
  (1) pair lj/cut/tip4p/long/omp, perpetual
      attributes: half, newton on, omp
      pair build: half/bin/newton/tri/omp
      stencil: half/bin/3d/tri
      bin: standard
Per MPI rank memory allocation (min/avg/max) = 10.31 | 10.33 | 10.34 Mbytes
Step Temp PotEng TotEng E_pair E_mol Press Lx Ly Lz Volume Pxx Pyy Pzz Pxy Pxz Pyz Enthalpy 
 8000000    43.861104   -5293.3122   -5205.5846   -5293.3122            0    8919.8694    17.712435    22.631243    19.093342    7653.6507    9210.9962    8710.4485    8838.1634    605.62108    96.702748   -174.31093    -4209.943 
 8001000    36.301065   -5304.8521   -5232.2454   -5304.8521            0    9308.9417    17.659044    22.638871    19.033147    7609.0873    9891.8167    8983.7343    9051.2742    649.49384   -109.52477   -111.13637   -4199.2253 
 8002000    36.201045   -5305.8286    -5233.422   -5305.8286            0    9565.3421    17.668734    22.646709    19.033996    7616.2384    9697.4383    9748.4928    9250.0952    124.12099    648.53789     428.8565   -4170.9514 
 8003000    35.882985   -5307.2114    -5235.441   -5307.2114            0    9485.8756    17.690488    22.707532    18.939596    7608.1745    9698.9044    9349.5046    9409.2178   -387.80834    298.80003    538.16661   -4182.9127 
 8004000    35.907775   -5310.9352   -5239.1152   -5310.9352            0    9161.6185     17.73811    22.577058     19.02319    7618.2996    9741.3388    8768.4833    8975.0335     359.5439   -551.04792   -82.165398   -4221.2128 
 8005000    34.838938   -5304.5132    -5234.831   -5304.5132            0    9136.3535    17.754916    22.634906    18.956683    7618.3279    8769.3399    9024.7083    9615.0122   -652.92325    273.48906   -983.18912   -4219.7319 
 8006000    36.782031    -5303.622   -5230.0534    -5303.622            0     9252.947    17.761477    22.567043    18.975546    7605.8544    9149.1365    9206.1751    9403.5293    524.33006   -630.86326   -301.70934   -4203.6833 
 8007000     35.97832    -5307.494   -5235.5329    -5307.494            0    8638.1765    17.693564    22.619061     19.04632    7622.5623    8575.0158    9086.0959    8253.4176   -127.16291   -583.51635    562.36111   -4275.2505 
 8008000    36.097135   -5306.7499   -5234.5512   -5306.7499            0    8886.8494    17.821361    22.469671    19.056022     7630.796    8620.9237    8846.7591    9192.8653    171.32633    44.719502     209.7989   -4245.5574 
 8009000    37.512332   -5304.7647   -5229.7354   -5304.7647            0    9342.2595    17.850773    22.388745    19.063094    7618.6875    8633.0047    10017.284    9376.4899    290.26729     702.1817   -676.99238   -4191.7101 
 8010000    35.147906    -5302.984   -5232.6839    -5302.984            0    9119.1618    17.716927    22.690154    18.945482    7616.0799     9165.004     8978.595    9213.8865    106.91677    255.68011   -66.705787   -4219.7938 
 8011000    35.561396   -5306.7043   -5235.5771   -5306.7043            0    8901.6696    17.716984    22.603907    19.052227    7629.9037    9273.4217    8613.8118    8817.7752    468.28677   -393.55293       -631.4   -4245.0499 
 8012000    38.572824   -5306.3157   -5229.1653   -5306.3157            0    8539.6308     17.73496    22.535594    19.086929    7628.4322     8754.823    8919.3097    7944.7597   -548.34532   -68.974258   -767.46113    -4279.107 
 8013000     38.13112    -5303.744    -5227.477    -5303.744            0    9183.1086    17.676258    22.735512    18.956513    7618.2202    9629.4583    8644.2386     9275.629   -390.49228     202.1977   -2.5337638   -4207.1976 
 8014000    37.282163   -5307.6778   -5233.1089   -5307.6778            0     9391.232    17.798521    22.519382    18.981325    7607.9371    8282.6861    10120.141    9770.8688    6.9365753    486.07524    465.85208   -4191.1145 
 8015000    36.362433   -5308.4074   -5235.6781   -5308.4074            0    8962.2437    17.732761    22.667539    18.973788    7626.6664     9408.126    8690.7737    8787.8315    593.66566   -292.41578    -582.2799   -4238.8336 
 8016000    36.237125   -5306.4409   -5233.9621   -5306.4409            0    8719.9232    17.631086    22.731097    19.026756    7625.4274    9247.0569    8161.6366    8751.0761    11.400932   -435.45854   -246.53988   -4264.2279 
 8017000    36.224366   -5305.8082    -5233.355   -5305.8082            0    9248.8685    17.752991    22.612629    18.985308    7621.4963    8373.2137    9840.3178    9533.0739   -109.09521    246.17376   -193.04474   -4205.3275 
 8018000    35.356186   -5305.5302   -5234.8135   -5305.5302            0    9507.0603    17.744528    22.654204    18.922029    7606.4313    9069.5304    9266.5028    10185.148    112.78271   -474.22838    7.1693842   -4180.1763 
 8019000    36.565434   -5304.5862   -5231.4508   -5304.5862            0    9531.1439    17.646865    22.745759    18.940363    7602.4974    9355.7521    9109.5649    10128.115   -450.11938   -369.83114    848.16113   -4174.6888 
 8020000     36.73527   -5308.2389   -5234.7638   -5308.2389            0     9205.705    17.874758    22.438593    19.015164    7626.6861    7730.9893    9831.2999    10054.826   -593.72398    359.18284    488.09314   -4210.8373 
 8021000    34.065202   -5307.9724   -5239.8378   -5307.9724            0    8761.7943    17.784133    22.599596     18.99101    7632.7569    8493.5704    8802.7743    8989.0383   -181.70095    13.269873    180.19161   -4264.5106 
 8022000    36.633135   -5305.9248    -5232.654   -5305.9248            0    9387.8548    17.730485    22.705707    18.909927    7612.8192    8763.5889     9384.042    10015.933    54.888057    281.72314    309.09014   -4190.3659 
 8023000    34.575346   -5306.1116   -5236.9567   -5306.1116            0    9289.5144    17.702758    22.675886    18.964124    7612.6875     9108.618    9000.3249    9759.6002    205.03827    46.912035    513.38592   -4205.6047 
 8024000    38.550982    -5303.806   -5226.6993    -5303.806            0    9243.9815    17.630518    22.702412    19.014152    7610.5149     9819.474    9122.7567    8789.7139   -378.76908    68.370549   -206.07492   -4200.6954 
 8025000    37.273313   -5302.5586   -5228.0073   -5302.5586            0    9687.9015    17.693326    22.561692     19.05733    7607.5216    9816.7949    9909.8525    9337.0571   -190.34254   -346.43995    -251.6278    -4153.155 
 8026000    38.354209   -5307.4771   -5230.7639   -5307.4771            0    9093.4955    17.709036    22.594801    19.019305    7610.2356    9126.8424    9406.8363    8746.8078   -222.01876    74.850192    42.608832   -4221.4998 
 8027000    36.337671    -5301.421   -5228.7412    -5301.421            0    9516.0316    17.736924    22.579328    19.014714    7615.1613    9506.0124    9724.8905    9317.1918   -98.550282    814.64651    317.60945   -4171.8972 
 8028000    35.845027    -5309.323   -5237.6285    -5309.323            0    8593.7609    17.789503    22.487881    19.085752    7635.2212    9012.0979    8464.8707    8304.3141   -56.750922   -393.13464   -48.518252   -4280.6972 
 8029000    34.453049   -5302.7966   -5233.8863   -5302.7966            0    9091.4811    17.672869     22.69699    19.001882    7622.0525    9240.3432    9044.3308    8989.7694    15.212177     233.6567    121.00066   -4223.2789 
 8030000    36.839506   -5305.6571   -5231.9735   -5305.6571            0    9068.3401    17.654822    22.604047    19.089342    7617.9917    9693.1969    8938.1583    8573.6651    259.37849   -274.23692    -602.9453   -4224.4756 
 8031000    36.345527   -5301.8625    -5229.167   -5301.8625            0    8676.4601    17.669048    22.665049    19.018375    7616.2856    9494.9241    8757.7387    7776.7175   -204.19034   -4.5304814   -4.6320929    -4265.423 
 8032000    38.302839   -5307.7167   -5231.1062   -5307.7167            0    9238.8797    17.690356    22.687475    18.978699    7617.0914    9591.0869    8878.5324    9247.0198    469.71694   -404.00412    223.56842   -4204.7825 
 8033000    36.291448   -5307.5405   -5234.9531   -5307.5405            0    8851.1799    17.820197     22.59007     18.96297    7633.7238      8242.82     8646.149    9664.5705    398.65391   -29.771726   -117.59109    -4249.551 
 8034000    35.627194   -5307.3895   -5236.1307   -5307.3895            0    9505.7995     17.75186    22.583912    18.976591    7607.8378    9474.9518    9181.2558     9861.191    82.708564   -403.64297    -633.1674   -4181.4384 
 8035000    34.872034   -5303.1097   -5233.3613   -5303.1097            0    10345.657    17.743957     22.59834    18.920561    7586.8419    10181.668     10142.01    10713.293    46.567684   -1.0437376   -146.96316   -4088.6525 
 8036000    36.239352   -5310.3782    -5237.895   -5310.3782            0    8933.8753     17.73952    22.609865    18.995634    7618.9235    7993.4768    9116.2638    9691.8852    348.83496    193.15632   -465.39472   -4245.2148 
 8037000    36.919226   -5307.1451   -5233.3021   -5307.1451            0    9141.0902    17.675017    22.656515    19.014223    7614.3273    9651.7056    8921.2351    8850.3299   -82.760309   -77.324414    729.00275     -4218.21 
 8038000    35.905592   -5308.4163   -5236.6007   -5308.4163            0    8695.1566    17.733333    22.670753    18.975044    7628.4992    8228.3072    8816.1664    9040.9962    534.40319   -199.88323   -356.25257   -4269.2312 
 8039000    36.670079   -5307.6634   -5234.3187   -5307.6634            0    8879.3988    17.771284    22.522666    19.039656    7620.7497    8166.1824    9098.2549    9373.7591   -342.84648   -246.46836   -131.01145    -4247.455 
 8040000    37.370092   -5308.4633   -5233.7185   -5308.4633            0    8962.5661    17.839442     22.52002    18.985078    7627.1523    8324.3928    9477.2778    9086.0276    355.72497     108.0944    565.17511   -4236.7747 
 8041000    36.343626   -5307.1575   -5234.4657   -5307.1575            0    9187.0403    17.732996    22.631656    18.996387    7623.7643    9755.9645    8838.6741    8966.4824   -176.94343   -95.817855   -552.50427   -4213.0066 
 8042000    37.519099    -5309.629   -5234.5862    -5309.629            0    8753.9079    17.681388    22.708124    18.988483    7624.0878    9187.7934    8646.5586    8427.3718    5.6847502   -357.38336    -208.1619   -4261.2435 
 8043000    35.743011   -5302.1756   -5230.6851   -5302.1756            0    9099.2829    17.706614    22.649647     18.99962    7619.7705    9053.4054    8946.3252     9298.118    225.04816   -483.67315   -519.93755   -4219.5133 
 8044000    35.173114   -5308.6384   -5238.2878   -5308.6384            0    8751.0892    17.723761    22.529508     19.10335    7628.1133    8944.3775    9089.9799    8218.9101   -656.63234    -425.9553    217.32745   -4264.7448 
 8045000     35.09774    -5309.384   -5239.1841    -5309.384            0    8799.3612    17.720268     22.63818    18.999938    7621.9129     8649.645    8918.3732    8830.0653   -221.39198   -189.25193    602.17752   -4261.0667 
 8046000    36.944456   -5312.1909   -5238.2974   -5312.1909            0    9076.9655    17.747822     22.60251    18.996842    7620.4947     8748.041    9242.0632    9240.7922    957.52448    173.31109   -180.34952   -4229.5098 
 8047000    36.127999   -5303.7247   -5231.4642   -5303.7247            0    9930.7999    17.733481    22.518266    19.041681    7603.8619    9925.7364    9825.0067    10041.657   -339.40929   -17.624237    119.43159   -4130.1928 
 8048000    34.791549   -5305.3306   -5235.7432   -5305.3306            0    9021.1836    17.652116    22.796404    18.933231    7618.8223     8994.664     8737.646    9331.2407    482.20437     525.4519   -329.14947   -4233.3751 
 8049000    38.021069   -5308.2319   -5232.1851   -5308.2319            0    8856.0987    17.702769    22.637958    19.022099    7623.1925    9019.9814      8993.09    8555.2246    588.74534   -66.210283     944.2302   -4247.5956 
 8050000    35.268534   -5305.5068   -5234.9654   -5305.5068            0    9499.4292    17.705195    22.656985    18.968489    7609.1401    9220.5245    9529.2964    9748.4666    114.88725    -475.8018   -651.17323   -4180.7994 
 8051000    37.329084   -5298.7082   -5224.0454   -5298.7082            0    9505.6399    17.704282    22.655798    18.980385    7613.1204    8897.3738    9521.0184    10098.527    -409.1628   -260.34594   -418.94077   -4168.6385 
 8052000    35.897815   -5309.4688   -5237.6687   -5309.4688            0    9311.1876    17.749528    22.468586    19.117039    7624.0054    9816.6118    9254.9909    8861.9602    684.38062   -35.720349   -116.29431   -4202.3736 
 8053000    35.350638   -5311.6961   -5240.9904   -5311.6961            0    8787.0598    17.696711     22.70098    18.993823    7630.4394    9184.1531    8520.4737    8656.5527    658.96362    707.71749    22.521314   -4263.1477 
 8054000    37.090503   -5303.0404   -5228.8548   -5303.0404            0    9444.0524    17.759854    22.508733    19.054396    7617.0296    9099.0337    9780.2082    9452.9152    154.29739     21.81456    381.29236   -4179.7474 
 8055000    36.133439   -5302.7093   -5230.4379   -5302.7093            0    9622.5962    17.704424    22.572535    19.041761      7609.73    9821.2511    9710.6476      9335.89    296.47875   -842.22521   -132.22847   -4162.5212 
 8056000    39.249832   -5307.6773   -5229.1727   -5307.6773            0    8926.6845    17.628384    22.813128    18.966194    7627.4176      9896.35    8464.4512    8419.2523    594.67785     153.5446    -5.364167   -4236.1857 
 8057000    33.923424   -5304.5916   -5236.7406   -5304.5916            0    9073.6382    17.636295    22.677934    19.050483    7619.3309    9954.3565    9035.0754    8231.4828    46.647284   -302.27152    544.33235   -4228.4768 
 8058000    36.111569   -5307.0235   -5234.7959   -5307.0235            0    9203.4536    17.645308    22.746134    18.987773    7620.9809    9448.8908    8850.7104    9310.7597    410.45402   -149.09825   -102.71163   -4211.8855 
 8059000    34.009949     -5303.65   -5235.6259     -5303.65            0     9268.673    17.783949    22.512853    19.034689    7620.8694    8558.0193     10019.77    9228.2301   -545.23217    356.28116   -40.720768   -4205.4819 
 8060000    35.713259   -5305.3598   -5233.9289   -5305.3598            0     9860.954    17.759169    22.517833    19.028367    7609.4063    8904.4008    10202.436    10476.025   -503.10245    266.69839   -317.21115   -4139.6057 
 8061000    37.101405   -5305.7816   -5231.5742   -5305.7816            0      8899.98    17.654952    22.775823    18.961451    7624.5144    8831.4966    8725.7635      9142.68    450.31823    54.893504    287.04085   -4241.9345 
 8062000     37.82965   -5304.1251   -5228.4612   -5304.1251            0    8815.4225    17.760888    22.532924    19.072489    7632.9004    8071.6078    9446.5525    8928.1073    -225.7835   -406.36461   -587.68082   -4247.1458 
 8063000    37.489445   -5304.6454   -5229.6619   -5304.6454            0    9054.4865    17.673169    22.682745    19.011712     7621.339    9308.6008    9220.0752    8634.7834    232.20775    299.76864    381.50143   -4223.2611 
 8064000    35.700654   -5304.9706   -5233.5649   -5304.9706            0    9527.4644    17.769901     22.48703     19.03812    7607.4859    9322.7043     9783.902    9475.7868    780.88929   -314.31203   -221.83609   -4176.5177 
 8065000    35.349117   -5306.1669   -5235.4643   -5306.1669            0    9670.0716    17.779948    22.504459    18.999225    7602.1239    9449.2338    9578.1934    9982.7874    349.51981    -164.3251   -397.65337   -4163.3514 
 8066000     37.66946   -5305.6291   -5230.2855   -5305.6291            0    9067.0608    17.722166    22.654447    18.983399    7621.5664      8845.76    9223.0876    9132.3348   -140.61355    267.57694    514.07496    -4222.457 
 8067000    35.038995   -5305.2105   -5235.1282   -5305.2105            0    9303.1963    17.694925    22.633173    19.017654    7616.4237    9811.9794    8805.1936    9292.4159   -152.28226   -702.59471      48.7689   -4201.7503 
 8068000    36.823065    -5305.707   -5232.0563    -5305.707            0    9425.9405    17.664245    22.598138    19.074744     7614.238    10028.022    9322.3135    8927.4857   -68.291278     271.3427    752.27167   -4185.3447 
 8069000    35.795232   -5312.8163   -5241.2214   -5312.8163            0    8925.5657    17.799349    22.508215    19.029691    7623.8952    7492.2167    10035.005    9249.4752   -114.57671    350.67632   -618.16296   -4248.8173 
 8070000    36.344173   -5305.7612   -5233.0683   -5305.7612            0    9174.1082    17.819734    22.505525    19.009315    7623.5428    8607.5582    9452.9117    9461.8548   -142.03908     93.55208   -108.80018   -4213.0767 
 8071000    36.740138   -5307.0122   -5233.5274   -5307.0122            0    9155.1688    17.650755    22.676867    19.023127    7614.2697    8734.8131     9407.217    9323.4762     546.0336    158.80111   -318.20791   -4216.8796 
 8072000    38.706769   -5304.9912   -5227.5728   -5304.9912            0    9086.2547    17.777768    22.524703    19.044169    7626.0268    8631.4959    9076.6305    9550.6379    3.5116566   -131.44415    744.69301   -4217.0198 
 8073000    35.574969   -5310.1019   -5238.9475   -5310.1019            0    9144.2093    17.710705    22.688373    18.928673    7606.0536    8722.1472    9305.7164    9404.7644   -60.577032   -89.107885    27.460011   -4224.6125 
 8074000     34.03955   -5307.9724   -5239.8891   -5307.9724            0    8805.0325    17.702144    22.712107    18.959523    7622.7327    8924.0811     8577.617    8913.3993    374.05457    44.772296    344.74564   -4261.0359 
 8075000    37.057254   -5308.2739   -5234.1548   -5308.2739            0    9462.4971    17.752088    22.541205    19.021539    7611.5344    8867.6849    9894.2094     9625.597   -845.22682    317.92046   -405.57219   -4183.7569 
 8076000    36.720524   -5309.2204   -5235.7748   -5309.2204            0    8976.2769    17.737669    22.631149    19.018599    7634.5186    9072.0612    8940.3726    8916.3971     336.7341    582.25023   -349.28125   -4236.3416 
 8077000    34.077862   -5310.4695   -5242.3095   -5310.4695            0    8701.1442    17.821325    22.472439    19.053268    7630.6174    7939.6911    9451.2588    8712.4827   -99.023624    180.63082    201.72314   -4274.0051 
 8078000    37.579475   -5304.4769   -5229.3133   -5304.4769            0    8826.2451    17.790067    22.583004    18.993032    7630.5106    8586.2179    8940.6207    8951.8965    36.076058   -72.593831   -492.52709   -4247.1008 
 8079000     34.91221   -5306.0015   -5236.1728   -5306.0015            0     8827.279    17.716257    22.721804    18.946906    7626.9885    8057.5755     9034.004    9390.2575   -226.58213   -83.579593   -295.76542   -4254.2986 
 8080000    38.322662   -5308.0658   -5231.4157   -5308.0658            0    9234.9617    17.783398     22.58055    19.001368    7630.1688     8607.287    9424.7924    9672.8057     105.6643     181.6566   -342.63966    -4203.766 
 8081000    37.355083   -5304.6505   -5229.9357   -5304.6505            0    9624.2628    17.705298    22.621438    18.969681    7597.7234    9419.5017    9699.3554    9753.9312   -72.268739    686.26468     82.14009   -4163.5192 
 8082000    34.896193   -5307.3441   -5237.5474   -5307.3441            0    9187.3032    17.789967    22.550303    18.992188      7619.08    8351.6985    9894.1576    9316.0534   -371.70302    597.22965   -823.65912   -4216.6868 
 8083000    36.996715   -5304.8283   -5230.8303   -5304.8283            0    9384.5594    17.675582     22.63188    19.013789    7606.1173    9224.6736    9258.8649    9670.1399    372.10763   -619.54848    548.36666   -4189.8253 
 8084000    36.653442   -5302.6702   -5229.3588   -5302.6702            0     8825.358    17.660984    22.773587    18.967351    7628.7435    8882.6092    8507.6013    9085.8637    37.612054   -54.911752    221.73216   -4247.4724 
 8085000    35.688644   -5308.2679   -5236.8862   -5308.2679            0    9016.1605     17.73771    22.522376    19.082043    7623.1878    9107.2284    9661.4815    8279.7717    167.61029     283.3245   -287.33781   -4234.5021 
 8086000    35.913894   -5305.2694   -5233.4371   -5305.2694            0     9247.179    17.675586    22.677445     18.97112     7604.329     9623.611    9352.5581     8765.368   -294.31936   -174.09207   -628.13618   -4207.9126 
 8087000    35.492494   -5305.0438   -5234.0544   -5305.0438            0    9590.3819    17.716232    22.577479    19.033035    7612.9826    9805.1625    9516.4381    9449.5451    -759.3576   -211.82573    40.348618   -4169.2579 
 8088000    36.445678   -5304.5396   -5231.6437   -5304.5396            0    9736.2785    17.737152    22.518958    19.037457    7603.9825    8866.2299     10018.59    10324.016   -277.93675     108.9268   -231.90851   -4151.9266 
 8089000    34.431214   -5309.4686   -5240.6019   -5309.4686            0    9300.1967    17.706546    22.702465    18.945848    7615.8945    8962.2693     9193.196     9745.125   -32.907041    379.21084    154.62113   -4207.6289 
 8090000    35.282892   -5306.3414   -5235.7713   -5306.3414            0    8900.4634    17.770997    22.466451    19.106509    7628.2971     8570.188    9575.4582     8555.744   -74.093643   -182.87569   -481.13382   -4245.5868 
 8091000     36.14229   -5307.6251    -5235.336   -5307.6251            0    9271.1773    17.729168    22.689933    18.932085    7615.8787    9288.0248    8755.1224    9770.3846   -340.91109   -294.10537   -895.63911   -4205.5884 
 8092000    35.662419   -5305.0023   -5233.6731   -5305.0023            0    9937.5493    17.677386    22.640898    18.998258    7603.7086    10065.798    9706.8873    10039.963   -162.29696    -199.0436    353.21714   -4131.6755 
 8093000    37.535745   -5307.4969   -5232.4208   -5307.4969            0    9196.2893     17.72888      22.5217    19.089229    7622.0333    9186.0795    9296.1321    9106.6563    164.87252    -262.4749     -326.739   -4210.1655 
 8094000    36.700977   -5307.8133   -5234.4068   -5307.8133            0    8745.0685    17.734643    22.757903    18.894663    7625.9483    8694.6632    8422.6301    9117.9122    44.229925    709.66277    459.19804   -4261.8098 
 8095000    35.000605   -5308.9479   -5238.9423   -5308.9479            0    9633.9202    17.798902    22.498234    19.004565    7610.2613    8943.5745    9872.7066    10085.479    232.41651   -50.588606    169.53093   -4169.6942 
 8096000    36.115785   -5304.7891   -5232.5531   -5304.7891            0    9611.2736    17.683401    22.676167    18.975832    7609.1524    9623.8553    9655.0815     9554.884    144.37065    149.11121    72.379492   -4165.9739 
 8097000    36.940624   -5309.1575   -5235.2717   -5309.1575            0    9185.0479    17.714663    22.607987    19.029363    7621.1242    9126.4363    9138.8329    9289.8744   -433.88431   -108.85018     141.5216   -4214.3878 
 8098000    37.049819   -5305.0012    -5230.897   -5305.0012            0    10008.418     17.70697    22.506982      19.0498    7591.9257    9207.3787    10642.022    10175.852   -358.34342    497.37381    684.79986   -4122.7605 
 8099000    37.194979   -5311.6838   -5237.2892   -5311.6838            0     8557.448    17.760675    22.634848    18.987053    7632.9885    7782.3563    8811.6107    9078.3772    84.151534    95.658369    452.21985     -4284.68 
 8100000    37.573077   -5310.2464   -5235.0956   -5310.2464            0    9118.1343    17.775615     22.56175    19.014494    7625.7437    9624.9094     9244.551    8484.9426    337.01596    179.21396   -426.09373   -4221.0346 
 8101000    34.764297   -5308.7487   -5239.2159   -5308.7487            0    9304.0285    17.713045    22.583106     19.03006      7612.32    9954.9893    9195.3574    8761.7388    27.704509    55.575219   -55.260467   -4206.3023 
 8102000    36.869544   -5306.2446    -5232.501   -5306.2446            0    9514.0258    17.636666    22.714645    18.994114    7609.2435    9452.1432    9502.1011     9587.833   -406.20795     142.6127    -930.9451   -4176.7009 
 8103000    37.703575   -5307.5273   -5232.1155   -5307.5273            0    8827.2562    17.699898     22.68975     18.97223    7619.3664    8933.7046    8561.0229     8987.041    265.54981    26.870643    459.92686   -4251.2251 
 8104000    35.331621   -5303.7655   -5233.0979   -5303.7655            0    9174.7893    17.749034    22.583108    19.034312    7629.4917    9267.3207    8912.9271      9344.12   -9.7533515   -438.69485   -3.5375245   -4212.2346 
 8105000    36.144164   -5300.2451   -5227.9523   -5300.2451            0    9295.3509    17.658493    22.704507    19.005028     7619.636    9712.0347    9294.0778    8879.9403    42.500239    348.45459    464.82158   -4195.0104 
 8106000    33.950737   -5306.3472   -5238.4415   -5306.3472            0    9468.3736    17.708316    22.594705    19.027252    7613.0735    10159.655    9269.1225    8976.3436   -234.74213      195.207   -251.98641   -4187.1787 
 8107000    36.995589   -5308.0588    -5234.063   -5308.0588            0    9429.6347    17.794736    22.488171    19.040486    7619.4516    9108.2429    9661.7811    9518.8803    212.19034    101.39771    539.28068   -4186.2242 
 8108000    37.261241    -5306.697   -5232.1699    -5306.697            0    8950.9847    17.720431    22.533946    19.094575    7624.6782    8687.0434    9544.1193    8621.7913   -862.60213    404.28701    -462.3938   -4236.8373 
 8109000    35.082912   -5304.7799   -5234.6097   -5304.7799            0    9276.7771    17.656503    22.737857    18.968442    7615.2801    10086.417    8655.3966    9088.5176    333.59268    232.73023    273.27046   -4204.3211 
 8110000    36.083651   -5305.0731   -5232.9014   -5305.0731            0    8841.4572    17.719014    22.638598     19.03028    7633.6857    9191.7822    8497.7383     8834.851    132.96122   -575.74812    927.34347   -4248.5866 
 8111000    38.282837   -5306.1538   -5229.5834   -5306.1538            0    8632.3124    17.752704    22.539082     19.07149    7631.0687    9048.0038    8233.5199    8615.4135   -174.89632   -365.08208   -291.53079    -4268.882 
 8112000    36.392168   -5303.7508   -5230.9619   -5303.7508            0    9218.5088    17.772503    22.609451    18.939637    7610.4487    9034.7592    9377.9655    9242.8018    182.17079    317.88094    467.58744   -4207.7942 
 8113000    35.979364   -5307.7383   -5235.7752   -5307.7383            0    9420.8524    17.707815     22.54782    19.072354    7615.0688    10545.033    9310.0234    8407.5014   -673.24845    77.355873    255.98119   -4189.5144 
 8114000    37.101211   -5306.4246   -5232.2176   -5306.4246            0    9277.1613    17.669885    22.682252     19.00208    7615.8968    9442.5466    8778.6653     9610.272    218.08982    270.97211    72.314511   -4201.8029 
 8115000    35.825061   -5304.5266    -5232.872   -5304.5266            0    9556.1861    17.745636    22.562282     19.00721    7610.1457    8876.8115    10065.322    9726.4249    154.19112    573.57753    381.40554   -4172.2675 
 8116000    34.908482   -5306.2332   -5236.4119   -5306.2332            0    9253.2071     17.68011     22.65709    19.002361    7611.9625    9417.7596    9156.0907    9185.7709    197.37082   -452.40583   -39.893192   -4209.1887 
 8117000     35.82388     -5310.14   -5238.4878     -5310.14            0    9361.4293    17.665526    22.763379    18.924764    7610.1599    9699.2917    9220.0834    9164.9126    105.90292   -256.09277   -304.03178   -4199.4967 
 8118000    35.367411   -5308.9885   -5238.2493   -5308.9885            0    9175.0575    17.724593    22.558953    19.064658    7622.9702    9047.4574    9520.4593    8957.2558     194.1292    115.45699     -74.0908   -4218.2288 
 8119000    35.663052   -5307.6954   -5236.3649   -5307.6954            0    9409.8269    17.790998    22.499711    19.019338    7613.2948    9307.9029    9459.6643    9461.9135    157.77491   -24.914634    -145.2981   -4191.5721 
 8120000    36.259994   -5307.2362   -5234.7118   -5307.2362            0    9356.0676     17.79209    22.550422    18.978303    7614.4586    8882.4703    9645.0785     9540.654    39.910617    502.31236   -711.56021   -4195.7292 
 8121000    36.900239   -5313.1261    -5239.321   -5313.1261            0    8630.4087     17.75371    22.503528    19.093817    7628.3834    8444.7959    8961.8239    8484.6063   -822.32206   -434.40006   -644.84344   -4279.1695 
 8122000    38.565621   -5308.9974   -5231.8614   -5308.9974            0    8613.9955    17.698318      22.6901    19.007643    7633.0247     8827.126     8342.296    8672.5647   -46.232707   -319.19991   -651.31836   -4272.9528 
 8123000    34.707013   -5304.0171   -5234.5988   -5304.0171            0    8927.0339     17.69132    22.647104    19.025221    7622.5911    9328.2364    8760.4233    8692.4419   -247.01107   -539.50981    357.01839   -4242.2012 
 8124000    37.149144    -5307.527   -5233.2241    -5307.527            0    9163.3237    17.763457    22.616683    18.976783    7623.9316    9093.9102     9024.225    9371.8358    55.188303    75.146905    18.321435   -4214.3796 
 8125000     37.11998   -5306.5652   -5232.3206   -5306.5652            0    8643.5869    17.803096    22.544206    19.019572     7633.632    8904.3776    8916.7078    8109.6752   -165.87343   -231.75848   -276.49915   -4270.0414 
 8126000    35.956493    -5309.824   -5237.9065    -5309.824            0     9024.634    17.812341    22.414426    19.103804    7627.2589    9172.1359    9239.2381    8662.5281    215.54951   -58.911276    -44.31544   -4234.0446 
 8127000    36.244872   -5308.9354   -5236.4412   -5308.9354            0    9278.0434    17.729465    22.608698    19.003029    7617.1766    8564.8603    9781.0021    9488.2678    701.00883    70.387168    719.81216   -4205.7553 
 8128000    35.664026   -5312.3301   -5240.9977   -5312.3301            0    8622.0176    17.755147    22.608478    19.034648    7640.8282    8538.5119    8509.7564    8817.7844   -598.50132   -669.91476    706.66943   -4280.2149 
 8129000    38.209043   -5304.2529   -5227.8301   -5304.2529            0    9599.1173     17.77292     22.58055    18.973826    7614.6197    8827.2058    9624.5905    10345.556   -311.02784   -513.46045   -1245.4971   -4161.8345 
 8130000    34.010433      -5305.7   -5237.6749      -5305.7            0    9432.1696    17.680353    22.652825    18.990055    7605.7057    9730.7037    9572.2389    8993.5663   -251.17298    594.85127   -364.12829   -4191.4453 
 8131000    34.611911   -5307.7423   -5238.5142   -5307.7423            0    9244.8667    17.838337    22.496533     18.97377    7614.1879    8592.8561    9348.3005    9793.4435   -15.658057   -520.42318    455.50263   -4211.9169 
 8132000    38.061869     -5304.89   -5228.7616     -5304.89            0    9301.0401      17.6879    22.710381    18.950935    7612.5704    9932.8767    9150.4671    8819.7764    321.17196     -45.9947   -840.50291   -4196.1459 
 8133000     35.04055   -5301.3086   -5231.2232   -5301.3086            0    9259.8031    17.669468     22.62147    19.055053    7616.4825    10095.473    9270.1779    8413.7583   -873.87841   -147.85157    90.528631   -4202.6574 
 8134000     34.48124   -5310.2688   -5241.3021   -5310.2688            0     8013.201    17.726094    22.629771    19.069207     7649.373    7841.2346    7666.7661    8531.6021   -179.25249   -91.557463    136.80623   -4347.3633 
 8135000     34.99395   -5305.8216   -5235.8293   -5305.8216            0    9416.9339    17.670856    22.644119    19.030497    7614.8811    9083.2214    9237.9662    9929.6142   -333.70095   -350.89503   -305.99239   -4190.0296 
 8136000    36.761758    -5302.111    -5228.583    -5302.111            0     10328.77    17.730943    22.449416    19.080305    7594.9024    9488.9753    10848.293    10649.043   -162.73328    84.210515   -463.34306   -4084.5285 
 8137000    35.146835    -5308.971    -5238.673    -5308.971            0    8602.6744    17.708505    22.761491     18.95336    7639.5682    9016.7244    7943.3913    8847.9075   -396.05364    -235.7328   -386.44681   -4280.2038 
 8138000    35.192187    -5305.203   -5234.8143    -5305.203            0     8997.038    17.686077    22.625423    19.042537    7619.9657    9335.6969    9141.3615    8514.0556    166.70917   -25.323417   -285.53603    -4234.979 
 8139000    35.673439   -5310.2177   -5238.8664   -5310.2177            0    8829.6311    17.726768    22.621198    19.019933    7627.0069    8884.3683    8868.9598    8735.5652   -564.37731   -92.226404   -292.44787   -4256.7282 
 8140000     36.82453    -5302.894   -5229.2404    -5302.894            0    9904.7741    17.688861    22.608482    18.993454    7595.8297    9873.9495    9980.5014    9859.8715   -786.91282   -444.62683   -648.59914   -4132.0154 
 8141000    36.679428   -5310.5111   -5237.1478   -5310.5111            0    8498.1435    17.778722    22.527242    19.071764    7638.3477    8760.7189    8386.5679    8347.1436    756.53752   -800.86976    232.30876   -4290.4761 
 8142000    36.535726   -5306.2478   -5233.1719   -5306.2478            0    9475.7315    17.765793    22.519212     19.02582    7611.6913     8939.164    9881.8629    9606.1675    462.63663    101.89027   -112.82159   -4181.2832 
 8143000      35.7697   -5307.2693   -5235.7255   -5307.2693            0    9396.0341    17.846839    22.542876    18.938578    7619.3515     9202.043    9119.3478    9866.7115    219.64856    321.45166   -714.27259   -4191.6342 
 8144000    36.644375   -5308.5272   -5235.2339   -5308.5272            0    8784.3358    17.827058    22.558833    18.980942    7633.3303    7719.4311    9021.4594    9612.1167    -314.5318   -312.28603   -1048.9328    -4257.324 
 8145000    36.149254   -5305.5485   -5233.2455   -5305.5485            0    9478.4536    17.638088    22.678719    19.013682    7605.6481    9369.6528    9516.0928    9549.6153   -628.19797   -88.549592   -1053.2813   -4181.8899 
 8146000    35.318336   -5304.5255   -5233.8845   -5304.5255            0    9596.4528    17.686374     22.61185    19.012481    7603.5027    9770.0282    9223.4337    9795.8964   -9.9026351   -231.51982   -735.54097   -4169.7407 
 8147000    33.709597   -5307.8309   -5240.4075   -5307.8309            0    9096.4734    17.689218      22.6862     18.99783    7623.8512    8618.2183    9236.8987    9434.3033    89.042392    80.422669    292.94177   -4229.0066 
 8148000    37.149162   -5310.7169    -5236.414   -5310.7169            0    8831.7021    17.793633    22.593197    18.960416    7622.3728    8464.2728    9042.2498    8988.5838   -226.52641    39.637452    280.48908   -4254.6423 
 8149000     37.06781     -5306.16   -5232.0198     -5306.16            0    8992.2851    17.864538    22.489709    18.998614    7633.0402    9020.4264    8986.9185    8969.5105   -822.83333    60.455443   -860.69048   -4230.9981 
 8150000     34.10952   -5303.5006   -5235.2774   -5303.5006            0    9409.1832    17.731993    22.657999    18.947238    7612.4597     9558.666    9125.2279    9543.6558    631.23547    120.56629    1.3647171   -4190.6706 
 8151000    36.864342   -5300.6228   -5226.8896   -5300.6228            0    9242.9458     17.74071     22.57876    18.998165     7609.966    8714.3966    9704.5609      9309.88   -145.58658   -280.90202    -9.636377   -4201.0747 
 8152000    35.494142   -5306.7757   -5235.7831   -5306.7757            0    8764.8893    17.752194    22.620163    19.012196    7634.4904    8795.9799    8194.9828     9303.705   -228.11054   -557.77669   -591.92377   -4259.8897 
 8153000    36.343781   -5303.7853   -5231.0933   -5303.7853            0    9139.2309    17.656558    22.781448    18.945456    7620.6574    8715.2464    8897.3418    9805.1047     541.7114     81.55517    879.52614    -4215.364 
 8154000    35.972272   -5305.1784   -5233.2294   -5305.1784            0    9675.4183    17.740276    22.529406    19.037567    7608.8944    9725.3197    9597.4969    9703.4384    103.32477   -230.42621    1237.8364   -4159.5684 
 8155000    34.972687   -5306.3301   -5236.3804   -5306.3301            0    9133.1607    17.672103    22.662569    19.019951    7617.4004    9815.9523    8619.3971    8964.1328    197.32531    161.46028    415.63269   -4221.7596 
 8156000    36.605996   -5311.7201   -5238.5035   -5311.7201            0    9304.5674    17.687798    22.683595    18.982216    7616.0986    9562.7935    9084.4684    9266.4402    111.07614    1.4370839    80.172769   -4205.0175 
 8157000    36.321268   -5309.3831   -5236.7361   -5309.3831            0    8936.4223    17.766497    22.556882     19.01581    7620.7144    9038.8159    9131.6327    8638.8184    479.07953   -400.47796   -543.88891   -4243.5394 
 8158000     35.09265   -5310.6315   -5240.4418   -5310.6315            0    8285.1858    17.689037    22.698048    19.014528    7634.4582    9012.9102    7635.2729    8207.3742   -30.974245   -181.28171   -29.477832   -4317.9631 
 8159000    34.797894   -5306.0733   -5236.4732   -5306.0733            0    9414.7641    17.704328    22.610874    19.012963    7611.0851    9745.1571    9011.8527    9487.2824   -519.37897   -146.02962   -109.60489   -4191.4357 
 8160000    36.129466   -5304.5432   -5232.2798   -5304.5432            0    9508.1235    17.678516     22.67207    18.989897    7611.3134    9579.9072    9366.0261    9578.4371    38.869641   -201.95452     182.7828   -4176.8477 
 8161000    34.852515   -5308.6923   -5238.9829   -5308.6923            0    8820.7812    17.745669    22.627321    19.003921    7630.7764    9667.6622    8440.4537    8354.2276   -42.191257   -336.66488    636.06025   -4257.3443 
 8162000     36.28974   -5307.5139   -5234.9299   -5307.5139            0    8690.0454    17.737567    22.643778    18.982429    7624.2076    9069.7868    8244.7175    8755.6319   -61.552299   -713.29645   -144.96775   -4268.6729 
 8163000    34.947389   -5303.8561    -5233.957   -5303.8561            0    9443.9417    17.701196    22.647419    18.984532    7610.6405    8944.3053    9352.3064    10035.213   -424.04079   -202.07644   -183.17451   -4185.7419 
 8164000    36.293869   -5308.9765   -5236.3843   -5308.9765            0    9382.5756    17.801962    22.517726    18.992008    7613.1305     9409.965    8991.5003    9746.2614   -117.34552     -1001.46   -14.585667   -4194.6398 
 8165000    35.406525   -5305.6051   -5234.7877   -5305.6051            0    9262.1848    17.678235    22.674457    18.988287     7611.348    9351.6001    8942.9123    9492.0421   -277.36862    304.70625   -211.57333   -4206.6509 
 8166000    36.708379   -5302.8313     -5229.41   -5302.8313            0    9160.2907    17.751679    22.537461    19.039775     7617.391    8550.0715     9454.464    9476.3366   -6.9260205    54.368339   -559.91202   -4211.7765 
 8167000    35.247051   -5306.4235    -5235.925   -5306.4235            0    8980.1232    17.776599    22.423998     19.14262     7630.678    9267.4918    9267.0419     8405.836   -99.011158    295.20865    526.19918   -4236.5665 
 8168000    37.982413   -5305.3669   -5229.3974   -5305.3669            0    9862.9551    17.742531    22.490659    19.070809    7610.0388    10003.606    10325.283    9259.9769   -20.266674     240.5449    -500.9698   -4134.7611 
 8169000    38.824643    -5308.208   -5230.5539    -5308.208            0    9175.3572    17.747907    22.570301    19.038434    7626.3318    8415.7739     9558.691    9551.6067   -78.493956    321.43462   -168.63011   -4210.0502 
 8170000    36.486593   -5305.8083   -5232.8306   -5305.8083            0    9076.2073    17.752202     22.63034    18.949724     7612.831    8502.0637    9093.8257    9632.7324    802.09033    13.555831   -221.03145   -4225.1417 
 8171000    37.134606   -5304.4788    -5230.205   -5304.4788            0    9690.4068    17.648734    22.724373    18.952946    7601.2009    10191.162    9222.9131    9657.1455   -390.17767    -216.9951   -892.71649    -4155.968 
 8172000    37.010024   -5311.5027   -5237.4781   -5311.5027            0    9017.7381    17.703283    22.551918    19.075678    7615.8306    9355.7304    8952.5484    8744.9353   -26.132304   -1098.8386    1294.0257   -4235.8862 
 8173000    34.798278   -5308.2585   -5238.6576   -5308.2585            0    8886.1409     17.71468    22.767536    18.888051    7617.9217    8303.3439    8783.1609    9571.9178   -3.9682805    713.18748   -107.20219   -4251.4112 
 8174000    35.828858   -5305.7676   -5234.1055   -5305.7676            0    9449.3222    17.710711    22.725184    18.902364    7607.8079    9334.9537    9181.4481    9831.5647    217.85872     189.6674    354.69656   -4185.6836 
 8175000    36.310555   -5306.6548   -5234.0292   -5306.6548            0    9573.4098    17.766043    22.497316    19.030503    7606.2687     8944.005    9728.1218    10048.103   -98.832094    195.91663   -89.480358   -4172.0544 
 8176000    36.389844   -5309.0691   -5236.2849   -5309.0691            0    9119.4548    17.712851    22.746694    18.919211    7622.7165     8980.869    8888.7331    9488.7623    317.10215    157.69001    310.21892   -4222.4797 
 8177000    36.424913   -5303.4723    -5230.618   -5303.4723            0    9248.3353    17.673613     22.60918    19.063507    7617.5085    9930.9069    8975.6552    8838.4437    296.42704   -183.27821   -14.121449   -4203.1876 
 8178000    36.927905   -5306.2384    -5232.378   -5306.2384            0     9254.083    17.745731    22.616474    18.987174    7620.4236    9335.4436    8759.9665    9666.8388    466.34689    190.12198    125.31009   -4203.9156 
 8179000    35.760813   -5303.8541   -5232.3281   -5303.8541            0    8725.2858     17.71109    22.686352    18.979039    7625.7781    8774.2623    8748.9403    8652.6547   -66.250158    289.34904     417.7002   -4261.9529 
 8180000    36.173245   -5306.8074   -5234.4564   -5306.8074            0    9116.6734    17.727425    22.540658    19.074763    7622.0433     9314.273    9290.5187    8745.2285   -303.68754    -377.2979   -456.20298   -4221.0499 
 8181000    37.861309     -5311.66   -5235.9328     -5311.66            0    9014.5058    17.685704    22.670023    18.988289    7613.0757    9361.5442    9029.3807    8652.5925    566.28503    324.84301   -556.95869   -4235.0621 
 8182000    37.015662   -5309.9686   -5235.9327   -5309.9686            0    8926.5634    17.780695    22.563699     19.02557    7633.0254    8687.9795    9096.9761    8994.7347    194.12644    563.62256    357.16494   -4242.2291 
 8183000     36.02159   -5310.2826    -5238.235   -5310.2826            0    9125.9612    17.847689    22.449283     19.03678     7627.425     8245.739     9479.041    9653.1035    405.39231    720.84866    198.34552   -4223.0798 
 8184000    35.555606   -5310.0084   -5238.8928   -5310.0084            0    8970.8032    17.724077    22.625387    19.007252    7622.1761     8926.057    9113.9474    8872.4053   -60.459426    181.87734   -187.22736   -4241.6838 
 8185000    37.431936   -5306.5953   -5231.7268   -5306.5953            0    8837.0111     17.78783    22.507905    19.057268    7629.8969    8694.3098    9427.9036    8388.8198    -414.6505   -270.87716   -634.43651   -4248.3952 
 8186000    35.201453   -5300.6698   -5230.2625   -5300.6698            0     9619.053    17.639531    22.672788    19.013295    7604.1269    9329.7189    9810.3585    9717.0816    283.50404    1.6492987     433.5796    -4163.525 
 8187000    36.462115   -5308.4572   -5235.5284   -5308.4572            0    9523.7767    17.775662    22.526393     19.01498    7614.0077    8881.1245    9462.7091    10227.496    371.07598   -217.71778   -423.03599   -4177.9845 
 8188000    37.382651    -5306.575    -5231.805    -5306.575            0    9340.9164    17.747103    22.641585    18.972505    7623.5804    8200.7743    9545.2222    10276.753    262.30224    147.42571   -544.66502   -4193.2623 
 8189000    34.576396   -5309.9261    -5240.769   -5309.9261            0    8874.5349    17.730832    22.604042     19.01695    7621.7742     8914.971    8694.2059    9014.4277   -353.75696    -60.12818   -892.75321   -4254.3134 
 8190000    37.902425    -5304.913   -5229.1035    -5304.913            0     8976.909    17.766036    22.513098    19.063379    7624.7516    8899.3637    9456.4896    8574.8738   -59.784267    596.33757    480.51212   -4230.8785 
 8191000    37.846382   -5307.9598   -5232.2624   -5307.9598            0    9336.3232    17.729591     22.58268     19.02933    7618.9954    9380.4295    9267.3903    9361.1497   -413.10324   -267.13168    -393.0538   -4194.8546 
 8192000    36.313243   -5306.9741   -5234.3431   -5306.9741            0    9264.1507    17.759389    22.585198    19.000242    7620.9842    8708.0271    9647.5851    9436.8398   -203.13466    19.306016   -52.160613   -4204.6862 
 8193000    36.123632     -5310.82   -5238.5683     -5310.82            0    8620.3136     17.70313    22.683315    19.006718     7632.446    8440.7029    8598.7761    8821.4618    274.98954   -269.52984    705.08965   -4279.0291 
 8194000    36.814278   -5307.3197   -5233.6866   -5307.3197            0    9065.8344    17.696754    22.655889    19.000245    7617.8767    9572.3687    9145.6239    8479.5106    39.750642   -174.16591    711.04967   -4226.4822 
 8195000    35.260099   -5306.1354   -5235.6108   -5306.1354            0    8653.6089    17.695819    22.626215      19.0624    7632.3833    9750.5721    8362.0703    7848.1843     86.65822   -115.78309    -319.0398   -4272.3734 
 8196000    33.577708   -5303.6661   -5236.5065   -5303.6661            0    9183.5564    17.707761    22.646552    19.007685    7622.4569    9183.9904    9019.9354    9346.7435   -45.927657    203.84014    509.59752   -4215.6099 
 8197000    35.229928   -5305.0805   -5234.6163   -5305.0805            0    9335.5196    17.763442    22.620905    18.962724    7619.6994    9043.4748    9175.4547    9787.6293    478.18091    322.50129   -35.402048    -4197.202 
 8198000    35.945607   -5306.3073   -5234.4116   -5306.3073            0    8927.3751    17.725338    22.667235    18.963193    7619.1149    8745.3157    8737.0153    9299.7943    453.94485   -163.27029    120.38662   -4242.4287 
 8199000    36.256219   -5303.5567   -5231.0398   -5303.5567            0    9274.1479    17.712259    22.585661    19.044646    7618.6792    9611.7761    8999.8013    9210.8663   -274.46318    -818.5158    58.341594   -4200.5834 
 8200000    35.856873     -5306.78   -5235.0618     -5306.78            0    8833.9171    17.726397    22.577074    19.031891    7616.7565     9249.583    8533.8443    8718.3239   -315.51679   -392.04036     74.14774   -4253.7675 
 8201000    36.122618   -5305.9438   -5233.6941   -5305.9438            0    9319.2648    17.755364    22.681083    18.910139    7615.3186     9515.184    8614.9662    9827.6443   -185.50315    93.578316      145.101   -4198.6816 
 8202000     34.87844    -5304.014   -5234.2528    -5304.014            0    9610.2434    17.816304    22.417742    19.073302    7617.9021    9241.9965    10059.951    9528.7826    177.30398    58.148419    256.07314   -4166.5616 
 8203000    35.582952   -5311.7901   -5240.6198   -5311.7901            0    8672.3841    17.723279      22.6355    19.011978    7627.1359    8696.3744    8741.9602    8578.8175    216.29455    222.76822    17.588823   -4275.9562 
 8204000    35.361424   -5311.1902    -5240.463   -5311.1902            0    8757.0594    17.770303    22.559276    19.024746    7626.7382    8378.1315    8895.9268    8997.1198   -394.82027   -279.32419    143.92689   -4266.4314 
 8205000    36.376913   -5312.4871   -5239.7288   -5312.4871            0     8912.708    17.731615    22.569549    19.064736    7629.6037    9141.9548    9035.0265    8561.1427    668.25576   -482.42898    -485.8162   -4248.0123 
 8206000    35.273082   -5307.1517   -5236.6012   -5307.1517            0    8598.0405    17.645786    22.751848    18.994264    7625.7076    9244.6674    8236.3659    8313.0883   -173.04313   -179.58866    58.138984   -4280.3862 
 8207000    36.600033   -5310.7692   -5237.5646   -5310.7692            0    8610.8698    17.701201    22.620704    19.081534    7640.5066    8402.9187    8756.8957    8672.7951   0.71772415   -64.597718    336.86218   -4278.0644 
 8208000    36.633565   -5305.5935   -5232.3218   -5305.5935            0    8709.8485     17.70341    22.616321    19.047201    7626.2325    8184.8495    8721.9729     9222.723    398.19373     14.53792   -22.336712   -4263.6057 
 8209000    36.174978   -5306.6622   -5234.3077   -5306.6622            0    8948.7203    17.671869    22.596911    19.088293    7622.5219    9734.6718    9208.0579    7903.4313     842.0683   -71.109902    55.145114   -4239.5084 
 8210000    36.446767   -5304.3577   -5231.4596   -5304.3577            0    9188.6278    17.755643    22.561283     19.01203    7616.0307    9329.1373    9530.2326    8706.5134    265.77371    93.950072    149.43344   -4210.8604 
 8211000    35.812322   -5305.0557   -5233.4266   -5305.0557            0    9160.1902    17.775984    22.541951    19.010649     7617.669    9146.7163    8943.8362    9390.0181   -85.736551   -42.617435    -227.1856   -4215.7672 
 8212000    36.159794   -5306.9968   -5234.6727   -5306.9968            0     9080.903     17.71498    22.593409    19.034847    7618.5413    9674.0784    9179.0201    8389.6104    184.51025    70.138725    7.6567006   -4225.7062 
 8213000    37.244272   -5308.2358   -5233.7426   -5308.2358            0    9025.1174    17.729953    22.527056    19.060968    7613.0201    9206.9891     9254.377     8613.986   -20.472473   -587.39917   -26.635326   -4231.7011 
 8214000    38.461779    -5313.519   -5236.5907    -5313.519            0     9067.065    17.695868    22.649706    19.014545    7621.1478    7951.9243    9727.5499    9521.7209    120.36195    73.850541   -290.92445   -4228.8171 
 8215000    33.927143   -5307.8209   -5239.9625   -5307.8209            0    9251.9512    17.712891    22.654795    18.976128    7614.7774    9279.3647     9570.324     8906.165    296.34409     389.2042    463.04338   -4212.4989 
 8216000    35.362802   -5305.1227   -5234.3927   -5305.1227            0    9440.2332    17.691855    22.629783    18.997396    7605.8515    10024.475    8862.6054    9433.6196   -533.24745   -294.68855   -846.42842   -4187.2486 
 8217000    35.993456     -5311.91   -5239.9186     -5311.91            0    9041.3107    17.819487    22.577327    18.935509    7618.0654    8021.2458     9544.177    9558.5095    137.61642     481.2317   -165.29889   -4235.4139 
 8218000     35.80131   -5301.1318   -5229.5248   -5301.1318            0    9566.0861    17.722439    22.625763    18.958751    7602.1503    9428.6146     9506.649    9762.9947   -95.801152    267.23273   -609.95017    -4168.937 
 8219000     35.33665   -5308.4696   -5237.7919   -5308.4696            0    8624.6175      17.7626    22.572678    19.028652    7629.5276    8345.1305    9021.5043    8507.2176    479.17679   -233.74541    907.00063   -4278.1408 
 8220000    34.985719   -5308.3212   -5238.3455   -5308.3212            0     9329.267    17.720559     22.62102    18.978592    7607.7041    9727.7925     8969.978    9290.0304   -151.51241   -415.08689   -369.75602   -4203.2581 
 8221000    36.045933   -5307.2929   -5235.1966   -5307.2929            0    8968.7424    17.658114     22.81345    18.930596    7626.0489    8394.9974    9289.0098      9222.22   -313.83975     884.9654    339.64532   -4237.7101 
 8222000    33.876646   -5307.9436   -5240.1862   -5307.9436            0    8743.1645    17.793257    22.610291    18.959964    7627.7969    8623.5389    8801.0509    8804.9037   -227.79406   -53.653407    309.20383   -4267.5651 
 8223000    34.621076   -5305.5817   -5236.3353   -5305.5817            0    9573.4331    17.648965    22.753889    18.926731    7600.6452     10185.42    8900.4495    9634.4304    148.31932   -393.62133    499.93592   -4175.1431 
 8224000    36.320382   -5307.1882    -5234.543   -5307.1882            0    9107.5378    17.717695    22.573546    19.035454    7613.2525    8998.8482    9289.0189    9034.7464    176.25608   -214.12109     126.2945   -4223.3196 
 8225000    36.611694   -5310.1135   -5236.8856   -5310.1135            0    9238.9569    17.724366    22.623222    18.995082    7616.6909    9043.2367    9134.5245    9539.1094   -268.10556    52.798937   -77.735607   -4210.6072 
 8226000    35.616253   -5306.7956   -5235.5587   -5306.7956            0    9043.8645    17.679078    22.700359    18.984901    7619.0476    9214.9592    8587.3243      9329.31     544.7577   -43.154482    167.67881   -4230.6407 
 8227000    38.792555   -5304.6216   -5227.0317   -5304.6216            0     8836.703    17.797608    22.493725    19.063912    7631.9416    9444.2167    8761.5079    8304.3844   -723.17781   -108.93653   -436.29168    -4243.471 
 8228000    37.918128   -5303.7602   -5227.9193   -5303.7602            0    9782.3249    17.709074    22.604981    18.986159    7600.4115    9185.0266    9852.4534    10309.495    1086.5052   -66.473156    99.715031   -4143.6052 
 8229000    37.683402   -5309.4953   -5234.1239   -5309.4953            0     9075.108    17.810159    22.483673    19.046046    7626.7566     9181.309    9541.4166    8502.5985   -218.29784    20.359646    261.57762   -4224.7139 
 8230000    37.898292   -5304.6651   -5228.8639   -5304.6651            0    9270.2013    17.743616    22.587342    18.999565    7614.6673    9390.9686    9000.2027    9419.4326   -5.8175478   -318.42093    93.574061   -4199.3884 
 8231000    37.194762   -5303.4168   -5229.0227   -5303.4168            0    9448.8578    17.664167    22.677563    18.988887    7606.5734    9924.5906    9126.6301    9295.3527    33.878784    80.917805   -319.94004   -4180.8225 
 8232000    37.814538   -5308.9114   -5233.2776   -5308.9114            0    9256.4576    17.804774    22.429995    19.072143    7616.6699    9508.7237     9558.956    8701.6932   -496.82377    266.45973    4.4518306   -4205.0581 
 8233000    35.964464   -5309.0021   -5237.0688   -5309.0021            0    9126.7554    17.723052     22.65801     18.96358    7615.1873    9736.5099    8784.5472     8859.209   -52.647488   -401.14832   -365.00598   -4223.4541 
 8234000    36.461638   -5304.0776   -5231.1498   -5304.0776            0    9345.3793    17.745709    22.564128     19.00879    7611.4322    9885.4731    8847.8277    9302.8369    24.127367   -348.37006    569.57464   -4193.7666 
 8235000     35.59792   -5311.4711   -5240.2709   -5311.4711            0    8545.5234    17.779483    22.554702    19.044587    7637.0877    8070.3469    8863.5717    8702.6515   -443.80931    6.5342794   -356.25605   -4288.4782 
 8236000    34.803328   -5302.2739   -5232.6629   -5302.2739            0    9730.3765    17.648304    22.708013      18.9684    7601.7367    9769.0107    9784.0365    9638.0822   -448.33442   -49.854913   -928.20133    -4153.919 
 8237000    36.215141   -5306.8834   -5234.4487   -5306.8834            0    9674.2935    17.668793    22.580016    19.059729    7604.1009    9814.2587    9547.5616    9661.0601    419.48605   -175.20119    125.04537   -4161.5887 
 8238000    37.310814   -5310.0823    -5235.456   -5310.0823            0    8810.3062    17.766985    22.646402    18.977007    7635.5559    8499.4181    8910.1501    9021.3505   -234.00357   -132.43476    534.39605   -4254.3689 
 8239000    36.287199   -5309.1076   -5236.5287   -5309.1076            0    8398.9301    17.717267    22.626701    19.070982    7645.2384    9250.2179    8189.6825    7756.8899   -279.66981   -143.68778   -187.58961   -4300.0652 
 8240000    36.428838   -5304.6632    -5231.801   -5304.6632            0    9072.6896    17.788785    22.635465    18.927709    7621.3826    8523.9082     9305.618    9388.5425   -422.84798   -22.117794     103.7129   -4223.3711 
 8241000    34.792681   -5306.2695   -5236.6798   -5306.2695            0     9409.061    17.709305    22.613119    19.008761    7612.2982    9163.7403    9539.8017    9523.6411    437.15261    169.01295    476.50191   -4192.1088 
 8242000    35.630683   -5309.9798   -5238.7141   -5309.9798            0    8781.4187    17.711735    22.733993    18.949636    7630.2311    9094.5303     8084.327    9165.3989   -28.556412   -314.50534    333.40064   -4261.5257 
 8243000    36.747981   -5304.1693   -5230.6688   -5304.1693            0    9000.4165    17.664461    22.705257    19.011861    7625.2038     9618.038    8528.3422    8854.8694     340.7243   -25.303379    -353.6921   -4229.7705 
 8244000    36.617861   -5303.6962    -5230.456   -5303.6962            0    9028.4324    17.684317    22.668524    19.004315    7618.3999    9092.2893    9136.8213    8856.1868    249.95303   -122.97452    -253.0951    -4227.338 
 8245000     37.46109    -5302.859   -5227.9322    -5302.859            0    10013.191    17.656125    22.695681    18.967567    7600.6416    9980.1028    9878.9122    10180.558   -179.99692    151.63949   -62.595683   -4117.9944 
 8246000    34.608378   -5304.2007   -5234.9796   -5304.2007            0    9621.3633    17.653164    22.614026    19.063668    7610.3899     11235.14    9222.0662     8406.884   -32.247032    277.79208    178.16664   -4167.1071 
 8247000    36.116627   -5307.5698   -5235.3321   -5307.5698            0    8775.6525    17.721783    22.700112    18.952928    7624.5066    8167.8041    8896.0762     9263.077   -519.08478    481.73523   -59.295787    -4259.518 
 8248000    36.592159      -5308.1   -5234.9111      -5308.1            0     8303.342    17.763212    22.512721    19.095882    7636.4092    7954.4551    8700.1419    8255.4289    112.08424   -279.59749   -979.42348   -4310.1746 
 8249000    35.442996   -5310.1428   -5239.2525   -5310.1428            0     8627.809    17.758191     22.63756    18.992193    7634.9016    8534.1792    8564.1855    8785.0622    406.63953    556.53867    871.71043     -4278.57 
 8250000    36.551325   -5301.4171     -5228.31   -5301.4171            0    9456.4825    17.712385    22.572238    19.031221    7608.8378    9913.6648    9365.4718    9090.3111    258.96315   -140.02883   -507.93353   -4178.9516 
Loop time of 506.067 on 64 procs for 250000 steps with 1008 atoms

Performance: 85.364 ns/day, 0.281 hours/ns, 494.005 timesteps/s
193.1% CPU use with 32 MPI tasks x 2 OpenMP threads

MPI task timing breakdown:
Section |  min time  |  avg time  |  max time  |%varavg| %total
---------------------------------------------------------------
Pair    | 35.91      | 40.616     | 46.14      |  39.6 |  8.03
Bond    | 0.91453    | 1.1069     | 1.3814     |  11.5 |  0.22
Kspace  | 249.94     | 258.16     | 267.16     |  29.8 | 51.01
Neigh   | 0.25325    | 0.27815    | 0.3135     |   3.2 |  0.05
Comm    | 75.723     | 82.437     | 88.267     |  36.1 | 16.29
Output  | 0.76333    | 0.7636     | 0.76508    |   0.0 |  0.15
Modify  | 96.631     | 98.76      | 101.31     |  11.6 | 19.52
Other   |            | 23.95      |            |       |  4.73

Nlocal:        31.5000 ave          35 max          27 min
Histogram: 1 1 3 5 0 3 8 8 2 1
Nghost:        2991.50 ave        3007 max        2973 min
Histogram: 2 3 1 3 3 5 5 6 2 2
Neighs:        10972.2 ave       12205 max        9418 min
Histogram: 1 1 3 5 1 4 6 8 2 1

Total # of neighbors = 351112
Ave neighs/atom = 348.32540
Ave special neighs/atom = 2.0000000
Neighbor list builds = 571
Dangerous builds = 0

unfix		3
unfix		2
unfix		1

write_data	data.final.${pid}
write_data	data.final.1
System init for write_data ...
PPPM initialization ...
  extracting TIP4P info from pair style
  using 12-bit tables for long-range coulomb (../kspace.cpp:340)
  G vector (1/distance) = 0.38070634
  grid = 24 27 32
  stencil order = 5
  estimated absolute RMS force accuracy = 0.0023105039
  estimated relative force accuracy = 6.9580138e-06
  using double precision FFTW3
  3d grid and FFT values/proc = 5355 672
Last active /omp style is kspace_style pppm/tip4p/omp
WARNING: Not all mixed pair coeffs generated from mixing. Use write_data with 'pair ij' option to store all pair coeffs. (../write_data.cpp:312)

write_restart   restart.lmp.${pid}
write_restart   restart.lmp.1
System init for write_restart ...
PPPM initialization ...
  extracting TIP4P info from pair style
  using 12-bit tables for long-range coulomb (../kspace.cpp:340)
  G vector (1/distance) = 0.38070634
  grid = 24 27 32
  stencil order = 5
  estimated absolute RMS force accuracy = 0.0023105039
  estimated relative force accuracy = 6.9580138e-06
  using double precision FFTW3
  3d grid and FFT values/proc = 5355 672
Last active /omp style is kspace_style pppm/tip4p/omp
Total wall time: 0:08:26
