LAMMPS (30 Jul 2021)
  using 1 OpenMP thread(s) per MPI task
package omp 0
using multi-threaded neighbor list subroutines
echo both

include		in.partitions
variable        pid world 0
include		in.temp
variable        temperature equal 250.68
variable	tempDamp equal 100.0
include		in.pressure
variable        pressure equal 5375.0
variable        pressureDamp equal 1000.0 # This is 1 ps
include		in.seed
variable        seed world 745823

units		real
atom_style	full
read_restart	restart.lmp.${pid}
read_restart	restart.lmp.0
Reading restart file ...
  restart file = 30 Jul 2021, LAMMPS = 30 Jul 2021
  restoring atom style full from restart
  orthogonal box = (0.49447160 1.6739535 0.60325419) to (17.713101 21.955224 21.609942)
  4 by 4 by 4 MPI processor grid
  restoring pair style lj/cut/tip4p/long/omp from restart
  restoring bond style harmonic/omp from restart
  restoring angle style harmonic/omp from restart
  864 atoms
  576 bonds
  288 angles
Finding 1-2 1-3 1-4 neighbors ...
  special bond factors lj:    0        0        0       
  special bond factors coul:  0        0        0       
     2 = max # of 1-2 neighbors
     1 = max # of 1-3 neighbors
     1 = max # of 1-4 neighbors
     2 = max # of special neighbors
  special bonds CPU = 0.342 seconds
  read_restart CPU = 0.434 seconds
include 	in.setup
variable	out_freq equal 1000
variable	out_freq2 equal 10000
variable	out_freq3 equal 1000

timestep	2.0

neigh_modify    delay 7 every 1

include		in.tip4p
# This is TIP4P/Ice

# create groups ###
group ox type 2
288 atoms in group ox
group hy type 1
576 atoms in group hy

# set charges - beside manually ###
set group ox charge -1.1794
Setting atom values ...
  288 settings made for charge
set group hy charge 0.5897
Setting atom values ...
  576 settings made for charge

# ### TIP3P Potential Parameters ###
pair_style lj/cut/tip4p/long/omp 2 1 1 1 0.1577 8.5
pair_coeff 1 1*2 0.000 0.000
pair_coeff 2 2 0.21084 3.1668
bond_style  harmonic
bond_coeff  1 450 0.9572
angle_style harmonic
angle_coeff 1 55 104.52
kspace_style pppm/tip4p/omp 1.0e-5
pair_modify tail yes

thermo          ${out_freq}
thermo          1000
thermo_style    custom step temp pe etotal epair emol press lx ly lz vol pxx pyy pzz pxy pxz pyz enthalpy

restart 	${out_freq3} restart.lmp.${pid} restart2.lmp.${pid}
restart 	1000 restart.lmp.${pid} restart2.lmp.${pid}
restart 	1000 restart.lmp.0 restart2.lmp.${pid}
restart 	1000 restart.lmp.0 restart2.lmp.0


include         in.dump
dump            myDump all atom ${out_freq2} dump.water.${pid}
dump            myDump all atom 10000 dump.water.${pid}
dump            myDump all atom 10000 dump.water.0
dump            myDump2 all dcd ${out_freq2} dump.dcd
dump            myDump2 all dcd 10000 dump.dcd
dump_modify     myDump append yes
dump_modify     myDump2 append yes


variable natoms 	equal  "count(all)"                        # NUMBER ATOMS
variable H      	equal  "enthalpy/v_natoms"                 # ENTHALPY-per-atom
variable Vol      	equal  "vol/v_natoms"                 # volume-per-atom
fix AVG all 		ave/time ${out_freq} 1 ${out_freq} v_Vol v_H file vol_enthalpy.dat
fix AVG all 		ave/time 1000 1 ${out_freq} v_Vol v_H file vol_enthalpy.dat
fix AVG all 		ave/time 1000 1 1000 v_Vol v_H file vol_enthalpy.dat


timer           timeout 23:50:00 every 1000
New timer settings: style=normal  mode=nosync  timeout=23:50:00

fix 		1 all shake 1e-6 200 0 b 1 a 1
       0 = # of size 2 clusters
       0 = # of size 3 clusters
       0 = # of size 4 clusters
     288 = # of frozen angles
  find clusters CPU = 0.004 seconds
fix             2 all nph iso ${pressure} ${pressure} ${pressureDamp}
fix             2 all nph iso 5375 ${pressure} ${pressureDamp}
fix             2 all nph iso 5375 5375 ${pressureDamp}
fix             2 all nph iso 5375 5375 1000
fix             3 all temp/csvr ${temperature} ${temperature} ${tempDamp} ${seed}
fix             3 all temp/csvr 250.68 ${temperature} ${tempDamp} ${seed}
fix             3 all temp/csvr 250.68 250.68 ${tempDamp} ${seed}
fix             3 all temp/csvr 250.68 250.68 100 ${seed}
fix             3 all temp/csvr 250.68 250.68 100 745823

run             250000
PPPM initialization ...
  extracting TIP4P info from pair style
  using 12-bit tables for long-range coulomb (../kspace.cpp:340)
  G vector (1/distance) = 0.37464708
  grid = 24 24 25
  stencil order = 5
  estimated absolute RMS force accuracy = 0.0030294047
  estimated relative force accuracy = 9.1229622e-06
  using double precision FFTW3
  3d grid and FFT values/proc = 2730 288
Last active /omp style is kspace_style pppm/tip4p/omp
Neighbor list info ...
  update every 1 steps, delay 7 steps, check yes
  max neighbors/atom: 2000, page size: 100000
  master list distance cutoff = 10.8154
  ghost atom cutoff = 10.8154
  binsize = 5.4077, bins = 4 4 4
  1 neighbor lists, perpetual/occasional/extra = 1 0 0
  (1) pair lj/cut/tip4p/long/omp, perpetual
      attributes: half, newton on, omp
      pair build: half/bin/newton/omp
      stencil: half/bin/3d
      bin: standard
Per MPI rank memory allocation (min/avg/max) = 9.239 | 9.244 | 9.251 Mbytes
Step Temp PotEng TotEng E_pair E_mol Press Lx Ly Lz Volume Pxx Pyy Pzz Pxy Pxz Pyz Enthalpy 
 5500000    261.45872   -3900.2934   -3452.1621   -3900.2934            0    6761.7654    17.218629    20.281271    21.006687    7335.8647    6330.4357    6611.7327    7343.1278    1717.7342   -1188.4713    1351.6259   -2728.7475 
 5501000     249.2397   -3893.0241   -3465.8358   -3893.0241            0    4973.9299    17.165018    20.218124    20.941282    7267.5556     4341.148    5451.4427     5129.199    997.52618   -153.53045    218.14766   -2938.6497 
 5502000    257.05132   -3935.1765   -3494.5993   -3935.1765            0     4058.594    17.216504    20.278767    21.004095    7333.1486    3257.3871    4813.5031    4104.8917   -453.34609      475.254   -46.396328   -3060.5471 
 5503000    264.33615   -3969.9987   -3516.9356   -3969.9987            0    3920.7204    17.191319    20.249103    20.973369    7301.0138     4378.286    2066.1254    5317.7497   -873.47303   -1409.8053    504.30149   -3099.4659 
 5504000    232.90087   -3932.4755   -3533.2914   -3932.4755            0    4395.2418    17.172763    20.227246     20.95073    7277.3974    3555.0048    3662.1529    5968.5678       574.93   -1285.6696   -1301.4385   -3066.8096 
 5505000    246.89335   -3910.0945   -3486.9278   -3910.0945            0    6481.1447    17.083676    20.122313    20.842044    7164.7252    6782.3187    6521.6903    6139.4252    1582.5394   -80.620051   -1907.7054   -2809.7119 
 5506000    257.91321   -3921.8959   -3479.8415   -3921.8959            0    5154.1257    17.189217    20.246627    20.970804    7298.3361    5325.0271    4595.1082    5542.2417    32.023862   -1494.7533    17.086499   -2931.2428 
 5507000    254.12019   -3929.5377   -3493.9844   -3929.5377            0    5919.8205    17.220136    20.283046    21.008526     7337.791     6024.644     4927.058    6807.7595   -946.89231   -500.44834    283.80583   -2860.4798 
 5508000    246.46225   -3901.8033   -3479.3754   -3901.8033            0    5468.3331    17.211473    20.272842    20.997957    7326.7224    4731.5094    4764.0664    6909.4234     249.1585    -931.1666    536.23826   -2895.0691 
 5509000    264.43192   -3908.9638   -3455.7366   -3908.9638            0    5442.1918    17.201835     20.26149    20.986199    7314.4208    5636.2398    5170.1163    5520.2194   -459.73293    1204.0323    930.16608   -2875.1999 
 5510000    246.45315   -3896.6198   -3474.2075   -3896.6198            0    4954.6313    17.224829    20.288573    21.014251    7343.7914    4697.0766    6050.0315    4116.7857    -2111.552   -130.87432   -109.83606   -2943.5583 
 5511000    250.23979   -3927.3378   -3498.4354   -3927.3378            0    5863.0197    17.242059    20.308868    21.035272    7365.8515    4634.1032     7161.764    5793.1918   -539.57367     813.0462    202.26854     -2868.61 
 5512000    262.66192   -3887.2579   -3437.0643   -3887.2579            0    5000.2179    17.194084     20.25236    20.976743    7304.5381     7533.702    3584.4488    3882.5029   -1259.5755    167.81354    502.66954   -2904.3951 
 5513000    262.81061   -3914.0343   -3463.5859   -3914.0343            0    6316.3861    17.197496    20.256379    20.980906    7308.8875    7080.1661    5825.6447    6043.3476    1323.4156    725.91136      672.114   -2790.3057 
 5514000    240.30277   -3919.3369   -3507.4662   -3919.3369            0    4518.2178    17.284811    20.359224    21.087428    7420.7783     3603.962    5202.0448    4748.6466   -400.87158    42.562558   -460.23992   -3018.4846 
 5515000    250.03266   -3925.1768   -3496.6294   -3925.1768            0    5221.5691    17.331049    20.413686    21.143839    7480.4916    7352.8218    4083.1876    4228.6981   -159.93511   -636.95595    1364.3452   -2926.9807 
 5516000    247.73564   -3909.1549   -3484.5444   -3909.1549            0    7238.3037    17.196089    20.254722    20.979189    7307.0934    7146.6719     6266.324    8301.9152    716.29854    690.04461    7.4606755    -2713.184 
 5517000    259.37585   -3922.7052   -3478.1439   -3922.7052            0    6007.4211    17.182694    20.238944    20.962847     7290.031    5462.8383    5718.4191     6841.006    974.49976   -15.183888   -1349.2931   -2839.4492 
 5518000    241.12691   -3950.7952   -3537.5119   -3950.7952            0    4706.9511    17.305042    20.383054    21.112111    7446.8663     3060.355    4999.0539    6061.4445    720.02212   -811.75396   -633.59496   -3026.3139 
 5519000    256.53945   -3938.1864   -3498.4866   -3938.1864            0    5764.5417    17.256498    20.325875    21.052887    7384.3718    4554.4736    6304.1559    6434.9956   -1789.3677    763.81659   -15.019322    -2877.683 
 5520000     248.7493   -3934.8318    -3508.484   -3934.8318            0    6726.4563    17.222122    20.285385    21.010949    7340.3301     6780.139    5328.7318    8070.4983    88.948077     490.7229    430.57945   -2788.4089 
 5521000    248.90739   -3928.5604   -3501.9417   -3928.5604            0    5790.5683    17.199525    20.258769     20.98338    7311.4741    6020.3839    3769.1552    7582.1658    740.30155   -30.180571    -889.8407   -2884.4913 
 5522000    259.08142   -3905.0047    -3460.948   -3905.0047            0    6157.6499    17.205332    20.265609    20.990465    7318.8826    5863.8331    6015.3701    6593.7466    91.333978   -386.50339   -115.77501   -2803.6903 
 5523000    243.01327   -3930.0166   -3513.5001   -3930.0166            0    4696.7607    17.176111     20.23119    20.954815    7281.6547    5584.6455    5233.3272    3272.3096    493.50686   -121.53242    940.24455   -3014.7254 
 5524000     258.4532   -3891.6799      -3448.7   -3891.6799            0    4979.0283    17.176118    20.231198    20.954824    7281.6642    5974.9086    3213.0186    5749.1577   -942.66889   -523.51714   -268.45657    -2919.949 
 5525000    252.39364   -3911.0486   -3478.4545   -3911.0486            0    6971.4155    17.161363    20.213819    20.936823    7262.9141    4761.2885    8423.8382    7729.1198   -82.425818     275.3212   -269.63897   -2740.0272 
 5526000    267.82184   -3906.8216   -3447.7841   -3906.8216            0    4738.0227    17.209307     20.27029    20.995314    7323.9557    4847.3707     5108.655    4258.0424   -735.93113   -1139.9051    328.11691   -2941.7047 
 5527000    257.14042   -3899.1158   -3458.3859   -3899.1158            0    4462.0125    17.283462    20.357636    21.085784    7419.0419    4795.6489    4808.4181    3781.9704   -772.23482    387.99674   -906.53413   -2975.6001 
 5528000     241.9166   -3899.6168     -3484.98   -3899.6168            0     6220.696    17.217536    20.279983    21.005353     7334.467    5497.8706    7904.7195     5259.498    932.27393   -808.22145    1541.0747    -2819.579 
 5529000    261.57247    -3922.864   -3474.5377    -3922.864            0    6190.1875    17.172026    20.226378    20.949831    7276.4605    6267.5544    4257.6067    8045.4016   -436.10351   -1030.7148    375.39226   -2817.6368 
 5530000    254.05281    -3860.613   -3425.1751    -3860.613            0    5003.1917    17.225115    20.288911    21.014601    7344.1581    2753.0607    8026.0128    4230.5017    114.57088    233.81459   -51.153712   -2889.2982 
 5531000    257.42889   -3874.6264   -3433.4021   -3874.6264            0    4700.7167    17.237561     20.30357    21.029784    7360.0882    4427.1324    3220.9164    6454.1013    1088.2535   -1483.3026     1019.651   -2928.8303 
 5532000    263.37345    -3880.679   -3429.2659    -3880.679            0    4926.3415    17.243784      20.3109    21.037377    7368.0632    6768.3453    5107.1769    2903.5022   -901.55739   -10.846901    763.33844   -2899.9027 
 5533000    252.25836   -3871.1324   -3438.7702   -3871.1324            0    3369.7847    17.304248    20.382118    21.111142    7445.8411    4789.8282    1452.3584    3867.1675   -402.26309   -1065.8489   -82.923575   -3072.8454 
 5534000    242.74884   -3892.9796   -3476.9164   -3892.9796            0    5276.8887    17.232944    20.298131    21.024151    7354.1756    5306.8194    5532.4563    4991.3903   -1124.5548    1126.1323    1104.0658   -2910.9537 
 5535000    247.95799   -3904.7908   -3479.7993   -3904.7908            0    6552.2715    17.222973    20.286388    21.011987    7341.4186    4311.1803    8214.8531    7130.7812    335.89681   -162.02246    956.58048   -2778.2668 
 5536000    248.43312   -3914.4899    -3488.684   -3914.4899            0    5703.7996    17.174643    20.229461    20.953024    7279.7882    3588.2416    5698.2947    7824.8626     165.4169    277.04244    847.08553   -2883.1216 
 5537000    259.27152    -3911.081   -3466.6985    -3911.081            0    4846.9067    17.255065    20.324188    21.051139    7382.5333    3321.9267    6162.0579    5056.7355   -677.73652    561.04389   -592.98742   -2944.8482 
 5538000    261.42793   -3930.4124   -3482.3339   -3930.4124            0     5346.651    17.218815     20.28149    21.006914    7336.1024    5154.4758    3847.7192    7037.7581    -572.4475    1353.8443   -1459.0301   -2910.2982 
 5539000    243.98226   -3905.9089   -3487.7316   -3905.9089            0    3931.8197    17.344798    20.429881    21.160613    7498.3093    3476.2903    4753.2329    3565.9358    1538.9531    1270.3239   -1089.4387   -3057.7669 
 5540000    245.60138   -3912.0854   -3491.1331   -3912.0854            0    5929.7621    17.251495    20.319982    21.046783     7377.951    6868.2407    5646.8651    5274.1804   -658.02111    188.79739    1504.4292   -2853.0916 
 5541000    242.57937   -3892.0421   -3476.2694   -3892.0421            0    4652.8715    17.236691    20.302545    21.028722    7358.9739    3989.6789    4107.0904    5861.8451   -422.51912   -93.059778   -575.68051   -2976.9089 
 5542000    242.04303   -3888.2917   -3473.4383   -3888.2917            0    4943.2758    17.185351    20.242073    20.966088    7293.4126    5708.2631    4391.1297    4730.4345   -827.74046     126.5518   -710.31439   -2947.6371 
 5543000     265.7368    -3866.122   -3410.6582    -3866.122            0    5760.8844    17.107601    20.150494    20.871233     7194.869    4725.6135    7999.5268    4557.5129   -316.26794   -448.95496    2574.0615   -2806.1699 
 5544000    253.59467   -3880.1674   -3445.5148   -3880.1674            0    6737.5569    17.169723    20.223665    20.947021    7273.5332    7818.6884    6613.5966    5780.3858    1172.8066   -355.51474    777.70999   -2730.8148 
 5545000    234.13919   -3903.9786    -3502.672   -3903.9786            0    5113.0349    17.146512    20.196327    20.918705    7244.0758    6320.6854    4611.5553    4406.8639   -306.11288   -435.17359    1084.0779   -2962.4931 
 5546000    264.23529   -3918.8561   -3465.9658   -3918.8561            0    5193.8649    17.221372    20.284501    21.010034    7339.3708    3983.7956    6199.5337    5398.2653   -9.8484795    54.031195   -569.03847   -2910.0291 
 5547000    245.56117   -3900.2551   -3479.3717   -3900.2551            0    6126.7363    17.225218    20.289032    21.014726    7344.2894    6607.6377    6822.4658    4950.1055   -306.68328   -841.59416   -329.92006   -2823.1435 
 5548000    255.03698    -3891.507   -3454.3824    -3891.507            0     6032.543    17.228805    20.293256    21.019101    7348.8779    4633.8833    7086.8181    6376.9275    1498.4949   -26.596235   -45.626442   -2807.8395 
 5549000     245.3735   -3869.6415   -3449.0797   -3869.6415            0    6331.6192    17.195964    20.254574    20.979036    7306.9337    5973.7748    6040.2266    6980.8562     570.3271   -451.74431    11.648704   -2774.3562 
 5550000    251.57404   -3889.3615   -3458.1722   -3889.3615            0     7136.308    17.178924    20.234503    20.958247    7285.2335    7534.9263    6863.8039    7010.1938    449.35615     -58.1398    638.69463   -2699.9562 
 5551000    264.58403   -3902.7968   -3449.3088   -3902.7968            0    3457.3097    17.239908    20.306334    21.032647    7363.0951    3610.6431    4655.8616    2105.4244    569.26252    696.93329    -405.4029   -3078.0519 
 5552000    248.44085    -3903.542   -3477.7228    -3903.542            0    4727.7453    17.160718    20.213059    20.936036    7262.0956    3271.2559    5866.7625    5045.2175   -905.06027    278.42009     448.4064   -2977.0063 
 5553000    248.15842   -3901.6472   -3476.3121   -3901.6472            0    6348.1826    17.090628    20.130503    20.850527    7173.4766     5930.133    7015.0071    6099.4076   -602.86942   -203.11005   -467.25224   -2812.1792 
 5554000    255.08366   -3887.9527    -3450.748   -3887.9527            0     5718.955    17.194289    20.252601    20.976992    7304.7986    6687.0237     5350.047    5119.7941    431.23631   -891.26554   -1341.2796   -2841.4906 
 5555000    238.45715   -3885.5198   -3476.8124   -3885.5198            0    5677.8727    17.196519    20.255228    20.979713     7307.641    6196.4297    6306.4449    4530.7436    685.18939   -384.69349    1762.0461   -2871.6963 
 5556000      260.691   -3891.7538   -3444.9383   -3891.7538            0    6261.8882    17.196228    20.254885    20.979358    7307.2705     7947.753    5489.6471    5348.2646   -523.51995     2011.341     330.8728   -2777.6149 
 5557000    261.22828    -3907.518   -3459.7817    -3907.518            0    5123.7467    17.223367    20.286851    21.012467    7341.9216    6310.1314    4405.9461    4655.1625   -195.68976    23.738377    214.22412   -2911.1596 
 5558000    246.41097   -3899.4577   -3477.1177   -3899.4577            0    5472.1884    17.200973    20.260474    20.985147    7313.3212    3828.9101    7576.8377    5010.8173     803.1458     510.1262    1246.9322   -2893.4689 
 5559000    244.90347   -3890.1556   -3470.3995   -3890.1556            0     6497.007    17.186735    20.243703    20.967776    7295.1749    5941.8139    9457.7856    4091.4214    1130.9069   -24.303269    1253.3388   -2779.1657 
 5560000    243.53396   -3917.8447   -3500.4358   -3917.8447            0    4535.6105    17.187032    20.244054    20.968139     7295.554    3393.1992    7373.8547    2839.7776   -681.09586     893.8305   -1582.4142   -3017.8551 
 5561000    248.39754   -3907.6036   -3481.8587   -3907.6036            0    4866.7467    17.187201    20.244252    20.968344    7295.7681    4182.2479    4313.6132    6104.3789    591.92776    547.46432    355.15991   -2964.0306 
 5562000    247.93873   -3908.1417   -3483.1832   -3908.1417            0    4067.5822    17.300117    20.377252    21.106102    7440.5097    1381.1396    4575.2607    6246.3462   -409.54187   -2433.5468   -596.37944   -3041.8009 
 5563000    257.13781   -3876.8752   -3436.1498   -3876.8752            0    6611.3721    17.202131    20.261838    20.986559    7314.7976    6672.1043    6810.0957    6351.9164    191.20968   -67.078517    -676.4417   -2730.8564 
 5564000    244.05523   -3898.1086   -3479.8063   -3898.1086            0    5550.7901    17.244636    20.311904    21.038416    7369.1552    6091.6612    4984.2192    5576.4899   -932.84152   -907.45456   -1789.3572   -2883.2542 
 5565000    238.31056   -3925.8346   -3517.3785   -3925.8346            0    5423.7388    17.130835     20.17786    20.899578    7224.2231     6901.192    3196.8942    6173.1303    572.69894   -654.18409   -133.94244   -2945.9448 
 5566000    250.88687   -3893.2295    -3463.218   -3893.2295            0    4767.7854    17.202276    20.262008    20.986736    7314.9825    3478.2693    5712.3392    5112.7477   -1683.3652   -614.71373   -2010.1962   -2954.5834 
 5567000      245.292   -3944.7502   -3524.3281   -3944.7502            0    5720.5511    17.222597    20.285944    21.011528    7340.9368    5447.4092    5961.8403    5752.4037   -301.08083    162.58708   -1095.3487   -2911.8857 
 5568000    256.75811   -3943.0309   -3502.9563   -3943.0309            0     5225.273    17.228191    20.292533    21.018353    7348.0924     5533.661    3673.3601    6468.7979   -896.52009     2255.837   -1291.6507   -2942.9931 
 5569000    237.52873   -3938.7338   -3531.6177   -3938.7338            0    4530.4943    17.168535    20.222267    20.945573    7272.0241    3028.2463    6059.9958    4503.2409    179.47353    465.97686   -2012.6925    -3051.136 
 5570000    248.30373   -3910.5557   -3484.9716   -3910.5557            0    4050.5216     17.22967    20.294276    21.020157    7349.9854    4730.3821    3192.1599    4229.0229    970.34598    176.54936   -591.65327   -3050.7881 
 5571000    248.51782   -3948.3707   -3522.4197   -3948.3707            0    3769.3967    17.257135    20.326626    21.053664    7385.1902    5113.9472    2517.7205    3676.5224    283.38866    493.67946   -646.53403   -3116.4352 
 5572000    252.72498   -3896.7243   -3463.5623   -3896.7243            0    5204.6628    17.260449    20.330529    21.057707    7389.4455    5301.2462    5732.1307    4580.6115   -1335.3436   -927.34946    502.60801   -2902.6689 
 5573000    237.61244   -3945.7612   -3538.5016   -3945.7612            0    5877.3421    17.169804    20.223762    20.947121    7273.6372    5883.5015    6587.1028    5161.4221    1029.7588    504.41078   -511.13945   -2915.0417 
 5574000    251.40979   -3927.6638    -3496.756   -3927.6638            0    3997.8554    17.132008    20.179243     20.90101    7225.7078    3850.8779    2972.9202    5169.7681   -313.84544   -121.72683   -1575.6661   -3075.4638 
 5575000     243.4719   -3903.3438   -3486.0413   -3903.3438            0    5873.6558    17.157925     20.20977    20.932629    7258.5508    7425.6744    5078.6659    5116.6271    1187.5055    191.64548     491.0194   -2864.2648 
 5576000    242.64715    -3914.284   -3498.3951    -3914.284            0    3798.8291    17.293533    20.369498     21.09807    7432.0183    2678.4105    4579.8498     4138.227    1522.7639    393.79725    843.28861   -3086.6462 
 5577000    243.74716   -3926.6101   -3508.8359   -3926.6101            0    6331.2832    17.219949    20.282826    21.008298    7337.5522    4690.8321    7162.3449    7140.6724   -89.633937   -160.66481   -943.32688    -2831.321 
 5578000    276.18944   -3907.1803   -3433.8011   -3907.1803            0    5645.2814    17.199217    20.258405    20.983004     7311.081    7050.4154    4389.1021    5496.3269   -706.55324    726.18449     1065.081   -2831.8751 
 5579000    259.16503   -3916.3184   -3472.1184   -3916.3184            0    6158.5445    17.163748    20.216627    20.939732    7265.9422    5773.3139     5994.395    6707.9245    336.11272    -138.8074   -910.75607   -2819.5202 
 5580000    265.63863   -3899.5931   -3444.2976   -3899.5931            0    4734.1537    17.220489    20.283462    21.008957    7338.2422    2162.4752    6835.5482    5204.4377   -63.401765     1377.477    85.712017    -2937.645 
 5581000    243.56609   -3897.1848   -3479.7208   -3897.1848            0     5767.323    17.188392    20.245656    20.969798    7297.2857    4038.9169    5627.5384    7635.5137   -355.69277   -435.72793    123.07299   -2865.9426 
 5582000    243.40709   -3931.7418   -3514.5503   -3931.7418            0    5187.4309    17.199975    20.259299     20.98393    7312.0484     5142.783     4679.938    5739.5716   -1345.2268    1203.3353    806.20456   -2961.3693 
 5583000     249.7324   -3925.7571   -3497.7243   -3925.7571            0    5589.4442    17.147966    20.198039    20.920478     7245.918    5273.6778    7191.7327    4302.9221    46.869698   -1153.6743     1754.316   -2907.0638 
 5584000    262.15936   -3904.0572    -3454.725   -3904.0572            0    6080.7818    17.233159    20.298386    21.024414    7354.4518    7560.7807    3836.3284    6845.2362   -1090.8851   -149.81974    746.05853   -2802.5177 
 5585000     255.4815   -3933.7197   -3495.8331   -3933.7197            0    6483.8667    17.138967    20.187439    20.909499    7234.5163    7895.6828    5102.8839    6453.0334    523.50153   -499.06982   -726.39894   -2811.7333 
 5586000    246.40622   -3927.9561   -3505.6243   -3927.9561            0    5314.2485    17.275081    20.347763    21.075558    7408.2537    3851.6294     6368.869     5722.247   -1066.1685   -675.79024   -1362.9503   -2931.4634 
 5587000    241.66617   -3940.1249   -3525.9174   -3940.1249            0    5315.7853    17.265445    20.336414    21.063803    7395.8646    6312.8384    3749.4906     5885.027    -318.2995    167.75715    927.77195   -2952.5509 
 5588000    255.39883   -3899.6246   -3461.8797   -3899.6246            0    5422.1277    17.266172     20.33727     21.06469    7396.7989    5322.2284    4716.8033    6227.3513   -806.44189   -755.52012   -126.92382   -2876.9692 
 5589000    243.43461   -3953.1836    -3535.945   -3953.1836            0    2798.9273    17.265558    20.336547    21.063941    7396.0096    2452.4778    2828.9828    3115.3214   -733.88281    772.49082   -593.50332   -3234.0437 
 5590000    243.50158    -3909.504   -3492.1506    -3909.504            0    5646.7333    17.187103    20.244137    20.968225    7295.6434    4192.5932    5562.1786    7185.4282    1286.0556     2035.937    482.85847   -2891.3411 
 5591000    229.54721    -3922.642   -3529.2059    -3922.642            0    5597.7277    17.200984    20.260487     20.98516    7313.3348    5523.3817     5730.654    5539.1475    664.62561   -307.09899    189.89672   -2932.1663 
 5592000    262.63401   -3935.5729   -3485.4272   -3935.5729            0    4528.8393    17.254099     20.32305    21.049961    7381.2932    4179.5211    4567.7902    4839.2066   -402.72769    1045.7356     59.71564   -2997.9041 
 5593000    244.85806   -3933.5309   -3513.8526   -3933.5309            0    7050.1211     17.19069    20.248362    20.972602    7300.2129    6514.3297    9104.1686    5531.8651    325.32686   -1273.8772   -524.96898   -2763.2535 
 5594000    242.25836    -3927.772   -3512.5495    -3927.772            0    4569.1124    17.206505     20.26699    20.991896     7320.379    2331.0586    6846.3906    4529.8879    493.86925   -835.30161   -496.42263     -3024.75 
 5595000    255.77896   -3970.8638   -3532.4674   -3970.8638            0    5081.8388    17.221996    20.285236    21.010794    7340.1681    2987.4378     5734.078    6524.0007    1017.7518   -1084.8193    653.36125   -2988.4625 
 5596000    249.71167     -3913.67   -3485.6727     -3913.67            0    5849.7935     17.19804     20.25702    20.981569    7309.5811    3790.7426    5467.0875    8291.5504   -898.04191     866.7166    685.12285   -2862.0687 
 5597000    253.64088   -3943.0687   -3508.3369   -3943.0687            0    5398.0185    17.212459    20.274003     20.99916    7327.9815    3722.0063    5373.2646    7098.7845     1571.049    550.65823    735.44757   -2931.4448 
 5598000    245.99124   -3969.5182   -3547.8977   -3969.5182            0    4155.2836    17.264197    20.334943     21.06228    7394.2602    5110.3003    4040.2584    3315.2919   -1189.2825   -874.82514    -969.2646   -3099.8014 
 5599000    256.01165   -3940.1286   -3501.3334   -3940.1286            0    5082.4166    17.190942    20.248659    20.972909     7300.534    6747.6402     4225.906    4273.7035   -1230.2695   -34.791703   -553.37074   -2960.2044 
 5600000    238.61325   -3944.4278   -3535.4528   -3944.4278            0    6737.4912    17.153733    20.204832    20.927515    7253.2317    6746.9013    6826.8924      6638.68   -1212.5576    1949.9591   -480.59123   -2822.7546 
 5601000    250.02234   -3951.0991   -3522.5694   -3951.0991            0    7279.0157    17.104565    20.146919     20.86753    7191.0401    6092.4523    7505.7278    8238.8671    1014.7164    2256.6374   -831.67017   -2759.1903 
 5602000    258.61326   -3944.4428   -3501.1885   -3944.4428            0    5237.8939    17.252472    20.321133    21.047975    7379.2045     7216.473    4588.8347    3908.3741    642.16976   -637.39725   -1375.3142   -2937.4962 
 5603000    246.02427   -3909.7514   -3488.0742   -3909.7514            0    5331.9146    17.172737    20.227216    20.950699    7277.3648    4961.1802    6424.1126     4610.451    -1863.372   -1210.4911    1090.6826   -2922.1827 
 5604000    250.63662   -3929.2463   -3499.6637   -3929.2463            0     4161.737    17.271162    20.343147    21.070777    7403.2132    4836.0923    4458.1363    3190.9825    334.50155    754.06948    318.13307   -3050.3282 
 5605000    249.23316   -3874.4705   -3447.2934   -3874.4705            0    5644.0123    17.221416    20.284553    21.010087    7339.4269    4644.9858    6390.9604    5896.0906    1140.1003    1480.4027   -81.524077   -2843.1695 
 5606000    250.91933   -3949.2519   -3519.1847   -3949.2519            0    3437.2424    17.242573    20.309473    21.035898      7366.51    4062.0638    2042.4415     4207.222    1650.5671    453.17312     297.4179   -3149.9115 
 5607000     239.0173   -3900.8373   -3491.1698   -3900.8373            0    3377.9158    17.280409    20.354039    21.082058    7415.1105    2665.4795    3755.9437    3712.3243   -1241.2049   -299.15617    530.02818    -3125.876 
 5608000    241.35335   -3892.1007   -3478.4293   -3892.1007            0    3756.8341    17.256591    20.325985    21.053001    7384.4916    3285.0226    5356.8765    2628.6034   -714.98712    34.073434    705.58819   -3073.8362 
 5609000    242.45666   -3899.8141   -3484.2517   -3899.8141            0    4608.4141    17.254211    20.323182    21.050097    7381.4371      6355.21    3257.5672    4212.4651    1144.7505   -299.02435   -344.78975   -2988.1527 
 5610000     248.1192   -3885.5636   -3460.2958   -3885.5636            0    5681.0638    17.123165    20.168827    20.890222    7214.5249    8314.2381    4318.6023    4410.3509   -1122.5113   -581.94334    -391.1734   -2862.5545 
 5611000    264.62828   -3920.7364   -3467.1725   -3920.7364            0    5310.6973    17.150349    20.200846    20.923386    7248.9394    6185.0951      5009.48    4737.5167    377.51749   -851.65512     372.3863   -2905.7344 
 5612000    249.67138   -3898.2024   -3470.2742   -3898.2024            0    4558.2565    17.201791    20.261438    20.986145    7314.3646    6118.5292    2859.4023     4696.838    755.44218   -762.33969     407.7197   -2984.0335 
 5613000    255.63058    -3919.035   -3480.8929    -3919.035            0     4618.202    17.204562    20.264702    20.989526       7317.9    6073.3335    3227.3625    4553.9099    268.78937   -538.70271   -1031.0739   -2988.0196 
 5614000    256.64956   -3901.0923   -3461.2037   -3901.0923            0    5742.9069    17.191117    20.248865    20.973122    7300.7566    6704.0355    3768.8158    6755.8695   -948.78757   -1001.6314    649.06263   -2849.7332 
 5615000    255.50483   -3918.4339   -3480.5074   -3918.4339            0    5018.4594    17.209206    20.270172    20.995191    7323.8274    4705.1578    5066.9061    5283.3143   -1110.3865   -197.20975    1417.0435   -2944.4832 
 5616000    247.59643   -3933.5821   -3509.2103   -3933.5821            0    4028.3605    17.218877    20.281563     21.00699    7336.1815    6043.9194    2112.5886    3928.5735    1186.8635    621.20859    643.53208   -3078.2132 
 5617000    251.29651   -3953.6003   -3522.8867   -3953.6003            0    5186.4674    17.179099     20.23471    20.958461    7285.4562    5541.1561    4000.2255    6018.0207   -277.45287   -582.97854    1657.5553   -2971.8198 
 5618000    239.23633   -3926.9362   -3516.8933   -3926.9362            0    5396.0734    17.177293    20.232582    20.956257    7283.1582    6330.1123    6882.8224    2975.2855   -692.21957   -531.12733   -586.62252   -2943.7365 
 5619000    247.68521   -3907.9881   -3483.4641   -3907.9881            0     5175.589    17.251872    20.320426    21.047243     7378.435    6256.9571    5100.6138    4169.1962    943.83522    1148.3884   -62.761791    -2926.535 
 5620000    242.83019   -3919.0411   -3502.8385   -3919.0411            0    6175.2404    17.216171    20.278375    21.003688    7332.7226    6338.4534    5355.1282    6832.1395   -816.16448    415.53169    34.167869   -2842.4568 
 5621000     243.8501    -3900.395   -3482.4442    -3900.395            0     4139.423    17.217582    20.280037    21.005409    7334.5258     3427.726    5818.0465    3172.4964    952.87897   -610.08432   -587.11571   -3039.6645 
 5622000    273.12754   -3913.8919   -3445.7607   -3913.8919            0    6566.3562    17.174711    20.229541    20.953107    7279.8742    7096.1619    7070.3164    5532.5903   -873.82838   -8.3405905    -286.5435   -2748.6139 
 5623000    247.96903   -3934.9602   -3509.9498   -3934.9602            0    6331.7975    17.160818    20.213176    20.936157     7262.222    5621.4936    8572.6035    4801.2955    771.60173    -1164.732   -1126.6154   -2839.3361 
 5624000    243.10675   -3884.8122   -3468.1356   -3884.8122            0    4737.9187    17.217781    20.280272    21.005652    7334.7805    3765.9783    5721.0983    4726.6794    268.13049    946.97385    -1.857192   -2961.3192 
 5625000    270.54155   -3898.1433   -3434.4443   -3898.1433            0    5586.2643    17.274938    20.347595    21.075384    7408.0701     5903.899    5436.0004    5418.8935    163.19074   -49.401226    156.71829   -2830.9093 
 5626000     260.0643   -3934.5314   -3488.7901   -3934.5314            0    4406.7068    17.274207    20.346734    21.074492    7407.1297    4986.7481    4163.7902    4069.5821   -1038.7556    -488.5974    -7.444481   -3012.7538 
 5627000    249.86965   -3874.1339   -3445.8659   -3874.1339            0    7337.8659    17.168516    20.222244    20.945549    7271.9999    6712.8562    7340.8122    7959.9292   -608.23177   -711.52054   -47.108005    -2667.651 
 5628000    241.18448   -3869.3689    -3455.987   -3869.3689            0    7155.5084    17.211525    20.272903     20.99802    7326.7881    6596.8916    8275.5908    6594.0428    78.856057    921.14047    356.04241   -2691.3945 
 5629000    245.90365   -3862.7442   -3441.2737   -3862.7442            0     5625.966    17.314836    20.394589    21.124059    7459.5172    7449.1764    3665.9692    5762.7525    934.15108    409.06172   -1106.5732   -2829.2282 
 5630000    239.66688   -3894.7092   -3483.9284   -3894.7092            0    6515.6869    17.230383    20.295115    21.021027    7350.8977    5361.3279    7557.9088     6627.824    1009.4323   -688.48801    435.28649   -2785.4122 
 5631000    246.32437   -3916.4158   -3494.2242   -3916.4158            0    5623.3799    17.201856    20.261514    20.986224    7314.4473    5702.9818     7406.865     3760.293    -536.3795    729.62169   -865.63584   -2894.3574 
 5632000    256.45408   -3864.0243   -3424.4708   -3864.0243            0    6362.3139    17.179194    20.234822    20.958577    7285.5773    3557.1849    7300.2153    8229.5416   -459.82535    1270.7381   -477.48363   -2748.4579 
 5633000    246.27844   -3895.8559    -3473.743   -3895.8559            0     4648.667    17.265729    20.336749     21.06415    7396.2295    4089.6815    5204.0431    4652.2764    540.30888    1744.6402    210.85941    -2972.308 
 5634000    251.85287   -3917.5869   -3485.9197   -3917.5869            0    4123.2336    17.244387     20.31161    21.038112    7368.8353    5201.1464    4766.4735     2402.081    -95.70306      59.9678   -234.57255   -3042.8085 
 5635000    229.17333   -3878.3436   -3485.5483   -3878.3436            0    6559.6516    17.180528    20.236393    20.960204    7287.2745    5942.6467    5820.8573    7915.4508   -139.15648   -225.74414    964.62726   -2788.4055 
 5636000    245.13795   -3884.8598   -3464.7018   -3884.8598            0    6239.2823    17.221233    20.284337    21.009864    7339.1926     5373.016    8003.4308    5341.4002    1020.0336    553.36096    414.64999   -2796.8827 
 5637000    244.38214   -3903.9022   -3485.0396   -3903.9022            0    5079.1548    17.200888    20.260374    20.985043    7313.2126    5645.1731    5307.6181    4284.6732    14.032966    -179.8282    1856.2068   -2943.3188 
 5638000    251.40986   -3884.9653   -3454.0574   -3884.9653            0    6078.6339    17.215603    20.277706    21.002995     7331.997    7135.1696    4863.7815    6236.9506    749.00181    1657.9506   -961.69273   -2804.0712 
 5639000    233.05084   -3907.7205   -3508.2793   -3907.7205            0    6101.0521    17.168461    20.222179    20.945482    7271.9294     5078.088    7227.2528    5997.8154   -553.71596    1598.0805    68.932688   -2861.2406 
 5640000    255.83695   -3905.7562   -3467.2605   -3905.7562            0    5532.4059     17.16597    20.219246    20.942444    7268.7657    6123.6236    4428.7798    6044.8143    817.45356   -1131.9197     648.1291    -2880.784 
 5641000     247.3945   -3936.1773   -3512.1516   -3936.1773            0    5726.9925    17.185483    20.242228    20.966249    7293.5806    7103.3793    5077.1248    5000.4735    75.323978   -783.86198   -1084.4434   -2902.9749 
 5642000    252.42818   -3899.0932   -3466.4399   -3899.0932            0    6634.7597    17.165985    20.219263    20.942462    7268.7848    6119.7987    6437.0306    7347.4499    51.344964    695.11996   -655.92245   -2763.1038 
 5643000    250.44831   -3909.2198   -3479.9599   -3909.2198            0    3896.6654    17.246584    20.314198    21.040792    7371.6525    4074.0047    4062.6777    3553.3137    1089.3951    849.94731   -55.553555   -3061.0373 
 5644000    253.48614   -3921.1675   -3486.7009   -3921.1675            0    6862.0586    17.203114    20.262996    20.987759    7316.0523    6555.6328    6869.8878    7160.6551   -356.30282   -647.37075    895.19022    -2754.539 
 5645000    250.34742   -3899.0467   -3469.9598   -3899.0467            0    4894.5515    17.263448    20.334062    21.061366    7393.2983    4762.4979    5687.9282    4233.2284    1189.6268   -769.71196   -525.04858   -2942.2113 
 5646000    253.29838   -3940.0433   -3505.8985   -3940.0433            0    4742.5138    17.276803    20.349792    21.077659    7410.4694    2905.9809    6787.7147    4533.8458    1151.7863    1364.2134   -1181.3506   -2993.3556 
 5647000    238.98632   -3909.0056   -3499.3913   -3909.0056            0    5769.4276    17.217115    20.279488     21.00484    7333.9298    7590.7539    4099.3896    5618.1392    169.91926     146.8379    1397.2772   -2882.3057 
 5648000    232.16816   -3902.5696   -3504.6413   -3902.5696            0    5120.9014    17.270772    20.342688    21.070302    7402.7118    3323.0762    5590.7686    6448.8595    524.66445    2105.3147    297.39222   -2951.7839 
 5649000    260.20142   -3882.7969   -3436.8206   -3882.7969            0    6903.3704     17.24191    20.308693     21.03509    7365.6608    9066.6364    5398.1257    6245.3493   -180.22944   -388.24576    819.86082   -2695.2563 
 5650000    262.27883   -3921.5687   -3472.0318   -3921.5687            0    6936.6669    17.211003    20.272288    20.997383    7326.1213    7464.0809    6846.9762    6498.9436    107.86313   -881.79462   -295.62078   -2730.8908 
 5651000    259.44671   -3895.6098    -3450.927   -3895.6098            0     5004.512    17.298122    20.374902    21.103668    7437.9359    4927.9832     4008.926    6076.6268   -280.92322   -1363.5196   -186.07135   -2908.0642 
 5652000      239.404   -3918.8848   -3508.5546   -3918.8848            0    5747.1733    17.232404    20.297496    21.023493    7353.4846    6396.7151    5476.6139    5368.1908   -655.65038    -293.9211   -630.68982   -2892.2103 
 5653000    257.50648   -3920.0125   -3478.6552   -3920.0125            0    4306.5273    17.235945    20.301666    21.027812    7358.0182    4049.9235    3457.3141    5412.3443   -975.39056   -1183.7408    1581.5631   -3016.5254 
 5654000    256.13747   -3951.2886   -3512.2777   -3951.2886            0    6757.1852    17.157417    20.209171    20.932008    7257.9053    6838.5196    7308.1912    6124.8447    501.94319    1305.9962    294.73222   -2797.0357 
 5655000    249.64002    -3940.874   -3512.9995    -3940.874            0    5286.0132    17.225135    20.288934    21.014625    7344.1835    5850.3824       4178.7    5828.9572    600.17429   -741.12928    573.55751   -2946.8285 
 5656000     232.1347   -3913.2345   -3515.3635   -3913.2345            0    4977.5987    17.165187    20.218323    20.941489     7267.771    3759.8716    4809.8574    6363.0671   -657.55157   -197.16346   -556.38627    -2987.773 
 5657000    240.78363   -3910.8892   -3498.1943   -3910.8892            0    4995.4398     17.20254     20.26232    20.987059    7315.3199    5653.8371    3951.2081    5381.2741    1027.4048    357.48944    684.13005   -2965.2486 
 5658000    248.17459   -3919.9493   -3494.5866   -3919.9493            0    5426.3917    17.168334    20.222029    20.945327     7271.768    3702.0812    6098.6244    6478.4694    114.61863    363.16239   -1142.1888   -2919.1108 
 5659000    251.62594   -3920.8329   -3489.5547   -3920.8329            0    6477.9489    17.207694    20.268391    20.993347    7321.8976    6358.9732    6160.1026    6914.7708    74.214748     20.59326     359.6654    -2797.824 
 5660000    262.13245   -3894.0916   -3444.8055   -3894.0916            0    7015.3965    17.210097    20.271221    20.996278     7324.965    7596.4438    7490.2705    5959.4753     618.2137    1438.2241    892.52846   -2695.3711 
 5661000    244.48277    -3932.797   -3513.7619    -3932.797            0     4781.408    17.239954    20.306389    21.032704    7363.1544    4749.8568    3396.8685    6197.4986   -1046.6694   -46.193291   -1135.4318   -3000.3149 
 5662000    248.38059   -3922.5615   -3496.8456   -3922.5615            0    5693.6495    17.210906    20.272174    20.997265    7325.9979    6067.5028    5828.6547    5184.7909     12.59499    31.594582    -869.1313   -2888.5238 
 5663000    251.90792    -3909.455   -3477.6934    -3909.455            0    5609.0408    17.240543    20.307083    21.033422    7363.9091    7418.5307    4163.0147    5245.5771   -568.72471    2424.3431   -1112.9624   -2875.3101 
 5664000    256.55362   -3933.9958   -3494.2717   -3933.9958            0    5599.2844    17.279718    20.353226    21.081216    7414.2216    6075.6638     4184.319    6537.8703   -292.63042   -1511.6534   -270.28921   -2888.8277 
 5665000    257.07145   -3930.6991   -3490.0875   -3930.6991            0    4234.8873    17.354836    20.441705     21.17286    7511.3356    4865.4158    4953.3842    2885.8619     653.2476   -1417.7529   -297.59231   -3026.1762 
 5666000    258.13322   -3882.7341   -3440.3026   -3882.7341            0    5248.2752    17.255771    20.325019       21.052     7383.439    4744.2758    6083.0414    4917.5085     313.3534   -443.15835    120.94089    -2875.169 
 5667000    236.62611   -3927.3133   -3521.7443   -3927.3133            0    3726.9252    17.253925    20.322845    21.049748    7381.0696    4923.7462    4907.3552    1349.6743   -28.289788    679.21205   -654.52684   -3120.5582 
 5668000    262.35431   -3895.0179   -3445.3516   -3895.0179            0    7067.8247    17.183881    20.240342    20.964295    7291.5415    6993.4388    8143.4019    6066.6334   -1305.7265   -980.48732    533.86802   -2693.7615 
 5669000    267.03517   -3923.1362   -3465.4471   -3923.1362            0    6308.5389    17.296684    20.373209    21.101914    7436.0815    8573.4544    5926.9201    4425.2421   -790.23229    464.23735   -1172.3923    -2781.301 
 5670000     263.0231    -3914.985   -3464.1724    -3914.985            0    4615.5309    17.241875    20.308651    21.035047    7365.6158    5940.1812    3334.3608    4572.0505   -531.45067   -973.45411    1619.2741   -2968.3723 
 5671000    245.75371   -3897.9321   -3476.7187   -3897.9321            0    6519.4786    17.120194    20.165327    20.886596    7210.7693    8308.2297    6944.8493     4305.357      217.414    -164.7508    413.39132   -2791.1194 
 5672000    254.74051   -3920.6507   -3484.0342   -3920.6507            0    5160.0575    17.211815    20.273244    20.998374    7327.1582    5458.4922    4579.1718    5442.5086   -904.73346    612.54815   -573.46801   -2932.6352 
 5673000    238.02831   -3899.5313    -3491.559   -3899.5313            0    5655.3652    17.152544    20.203431    20.926063    7251.7229    5676.6621    6702.3161    4587.1173   -272.72512    115.97275    1521.0007   -2893.4535 
 5674000    236.62361   -3912.5953   -3507.0305   -3912.5953            0    3849.0394     17.23964    20.306019    21.032321    7362.7521    3873.6263    3985.7649    3687.7269    1046.0442    836.77493   -90.400813   -3093.7277 
 5675000    244.10206   -3902.3943   -3484.0117   -3902.3943            0    5761.8668    17.222846    20.286237    21.011831    7341.2552    4539.8166    5782.3631    6963.4207    1002.4377    550.82935    1309.4661   -2867.1193 
 5676000    258.00431   -3947.1726   -3504.9621   -3947.1726            0    6454.9543    17.174261    20.229011    20.952558    7279.3021    5351.6404    7141.3288    6871.8935   -165.16253    192.23753    1490.0942   -2819.6967 
 5677000    268.70464   -3913.8066    -3453.256   -3913.8066            0    5999.6159    17.130642    20.177634    20.899343    7223.9796    4781.0638    6723.6617    6494.1221    337.62235   -121.41436   -1190.8036   -2821.1705 
 5678000    253.60665   -3900.4918   -3465.8186   -3900.4918            0    5737.7726    17.189502    20.246963    20.971152    7298.6992    5182.0742    6182.1022    5849.1415   -1330.6141    1903.4694    1718.3727   -2855.0669 
 5679000    241.53748   -3908.3266   -3494.3396   -3908.3266            0    4000.0334     17.25334    20.322156    21.049035     7380.319    3391.6998    4139.2662    4469.1342   -118.38881    213.75327    631.62287   -3063.7985 
 5680000    235.08303    -3905.511   -3502.5867    -3905.511            0    5133.4274    17.229018    20.293507    21.019361    7349.1505     5737.916    4908.2767    4754.0893   -852.95041   -311.68753   -552.01527   -2952.3869 
 5681000    260.29324   -3942.0722   -3495.9385   -3942.0722            0    6297.9295    17.172525    20.226966     20.95044    7277.0953    7061.2026    6478.9657    5353.6203   -555.98221    1159.0806    1566.1943   -2827.5457 
 5682000    261.18528   -3929.2356    -3481.573   -3929.2356            0    4942.3801    17.245674    20.313126    21.039682     7370.486    2764.9172    7197.1596    4865.0634   -1050.6222    271.73848   -1221.1067   -2950.3117 
 5683000    242.17251   -3917.4953   -3502.4199   -3917.4953            0    6788.5018    17.217686     20.28016    21.005537    7334.6592    6566.9142    6606.7739    7191.8173   -50.026696     1550.873   -604.35178   -2776.2642 
 5684000    244.22738   -3935.8007   -3517.2034   -3935.8007            0    4380.6369    17.256593    20.325987    21.053003    7384.4941    3745.3022    5691.0239    3705.5848   -288.72053    456.12916    -423.1268   -3045.4295 
 5685000    253.05712   -3892.8182   -3459.0869   -3892.8182            0    4634.7016    17.269507    20.341198    21.068758    7401.0851    4596.7895    4729.3668    4577.9484   -519.07376   -867.93574   -553.39217   -2958.8301 
 5686000    265.06451   -3924.5416   -3470.2301   -3924.5416            0    6218.7169    17.164841    20.217915    20.941065    7267.3306    5770.1804    6962.3662     5923.604    133.41137   -121.74258    -661.2708   -2811.1296 
 5687000    247.37552   -3922.5117   -3498.5185   -3922.5117            0    4854.7178    17.153172    20.204171    20.926829    7252.5194     6410.363    4620.8052    3532.9853    1327.0527    791.35324   -632.97107   -2985.0323 
 5688000     262.6564   -3904.8974   -3454.7133   -3904.8974            0    5597.6554      17.1971    20.255912    20.980422    7308.3817    5409.7705    5604.6193    5778.5765    545.10706     706.3458   -880.00192   -2858.0858 
 5689000    233.45783   -3920.9635   -3520.8248   -3920.9635            0    5254.8209    17.237046    20.302963    21.029156    7359.4286    5742.7386      4421.66    5600.0642     175.1503    -783.4417    449.00144   -2956.8263 
 5690000    259.38245    -3906.633   -3462.0604    -3906.633            0    4750.5331    17.288234    20.363256    21.091605    7425.1889    5221.8432    4148.9217    4880.8345   -523.80458    1667.6908   -559.60225    -2947.631 
 5691000    254.11554   -3909.2402   -3473.6949   -3909.2402            0    8442.0018    17.124514    20.170415    20.891867    7216.2296    8672.0254    7724.6326    8929.3473   -1517.5042   -754.34299    -1115.468   -2585.2476 
 5692000    249.73032   -3920.0823   -3492.0531   -3920.0823            0    4911.6405    17.212648    20.274226    20.999391     7328.223    5508.3219    2932.8548    6293.7449   -1421.3711   -514.73725    1021.5481   -2967.1234 
 5693000     250.2037   -3920.6943   -3491.8537   -3920.6943            0    5848.2827     17.19455    20.252909    20.977311    7305.1316    6438.1083    5228.6647    5878.0751    163.56415    77.635388   -386.60213   -2868.7903 
 5694000    255.73227   -3926.2499   -3487.9335   -3926.2499            0    7056.3404    17.175586    20.230571    20.954175    7280.9873    5869.5052    10259.507    5040.0092    1400.5689     730.7149   -1554.6331   -2738.6509 
 5695000     246.3435    -3912.313   -3490.0887    -3912.313            0    4777.8341    17.203008    20.262871     20.98763    7315.9171     4694.132    4573.1438    5066.2266   -188.88266   -112.26641   -580.91503    -2980.317 
 5696000    260.83712   -3944.3148   -3497.2489   -3944.3148            0    4886.5435    17.272757    20.345026    21.072723    7405.2647    4954.5079    4917.3605    4787.7622    296.12153    501.49755    904.60354   -2969.5111 
 5697000    259.11356   -3919.8537    -3475.742   -3919.8537            0    6214.3739    17.259477    20.329384    21.056522    7388.1972    6422.6877    7105.9881    5114.4458     1157.295    345.48106    189.00471   -2806.1477 
 5698000    253.68927   -3906.2389   -3471.4242   -3906.2389            0     5947.179    17.253406    20.322233    21.049115    7380.4033    4981.3773    6215.0042    6645.1556    201.68944   -259.23195   -578.79981   -2831.2959 
 5699000    246.54865   -3874.3884   -3451.8124   -3874.3884            0    6286.0106    17.209419    20.270423    20.995451    7324.0993    5911.7681    7613.6217    5332.6422   -1074.2155    -1170.685   -969.08727   -2780.3755 
 5700000    261.05356   -3926.7995   -3479.3626   -3926.7995            0    2964.3184    17.263337     20.33393    21.061231    7393.1552    2809.1559    3298.5084    2785.2909   -707.51544    1268.9121    445.85987   -3159.7451 
 5701000    246.71641    -3888.684   -3465.8205    -3888.684            0    5380.3614    17.206925    20.267484    20.992408    7320.9149    5926.3477    4855.0602    5359.6761   -172.32587     512.0475   -1583.5066   -2891.3699 
 5702000    258.72674   -3912.8887   -3469.4399   -3912.8887            0    5006.4249    17.205059    20.265287    20.990132    7318.5339    5731.9112    3379.0129    5908.3507    1007.1144    1488.4912    203.62208   -2935.0876 
 5703000    251.76823   -3929.5197   -3497.9975   -3929.5197            0     5057.242     17.14804    20.198126    20.920569    7246.0124    4925.3747    4334.3141    5912.0373   -521.47777   -317.53355    533.43722   -2963.5701 
 5704000    245.46692   -3920.7913   -3500.0694   -3920.7913            0    5380.5697    17.144115    20.193503     20.91578    7241.0375    5137.3432    4692.3272    6312.0388    510.30193    -907.0064   -539.90473   -2931.8646 
 5705000    240.82539   -3910.2456   -3497.4791   -3910.2456            0    4825.5254    17.081309    20.119526    20.839157    7161.7478    5154.0323    4066.7611    5255.7829    566.65203   -566.81361    364.25707   -2993.4687 
 5706000    237.14319   -3893.8363   -3487.3809   -3893.8363            0     6182.644    17.066652    20.102262    20.821276    7143.3284    8453.2742    5068.3763    5026.2815   -157.59361    1911.6084    498.89487   -2843.2847 
 5707000    244.48036   -3878.7324   -3459.7014   -3878.7324            0    4566.6266    17.148856    20.199087    20.921564    7247.0467    5594.9343    3716.2242    4388.7214     509.4012   -662.40915   -610.52561   -2977.0513 
 5708000    244.48858    -3874.821    -3455.776    -3874.821            0    3978.3675    17.147492     20.19748      20.9199    7245.3171    5306.0347    3252.4566    3376.6112    235.82042   -396.62156    -290.5445   -3035.3997 
 5709000    252.88081   -3898.8046   -3465.3756   -3898.8046            0    4982.3116    17.090417    20.130254    20.850269    7173.2104     4921.283    5642.0358    4383.6159   -15.962345    231.32497    122.39308   -2944.1565 
 5710000    249.24971   -3876.8857   -3449.6803   -3876.8857            0    4331.6861    17.194025     20.25229     20.97667    7304.4618    2335.7907    4041.3281    6617.9394   -666.53721   -253.22001   -197.90004   -2988.2341 
 5711000    257.23792   -3920.1076   -3479.2106   -3920.1076            0    4742.9286    17.171708    20.226004    20.949444    7276.0572    3276.8844    4808.5198    6143.3816   -832.43395   -1162.4014    348.61083   -2975.9203 
 5712000    250.70836   -3899.4695    -3469.764   -3899.4695            0    5180.1078    17.200704    20.260157    20.984818    7312.9776    5351.6182    5732.1508    4456.5544    1133.9813    1293.3809    250.41065   -2917.2937 
 5713000    248.71026   -3876.0259    -3449.745   -3876.0259            0    7651.6289     17.12114    20.166442    20.887751    7211.9658    6719.6008    8724.2321    7511.0539   -1034.6064    172.26653     1121.836   -2644.9533 
 5714000    243.17253   -3894.3826   -3477.5932   -3894.3826            0    3542.7354     17.21119    20.272508    20.997612    7326.3606    2995.7188    3810.4509    3822.0367   -135.34088    104.36566    295.41858   -3099.0609 
 5715000    223.41657   -3933.7053   -3550.7769   -3933.7053            0    4478.7385    17.236048    20.301787    21.027938      7358.15    4992.6917    4165.6054    4277.9183     1432.397    1221.7545   -708.19204   -3070.1587 
 5716000    255.20446   -3934.5601   -3497.1484   -3934.5601            0    5682.3831    17.141091    20.189941     20.91209     7237.206    7675.2809    4531.4521    4840.4161   -788.72246     32.84523   -484.25178   -2897.3887 
 5717000    242.79349   -3929.5933   -3513.4536   -3929.5933            0    4308.6283    17.140731    20.189517    20.911652    7236.7503    3904.6617    4889.4787    4131.7444    726.88919    57.447367   -1326.7001   -3058.7184 
 5718000    257.13334   -3923.5261   -3482.8084   -3923.5261            0    4001.2036     17.16315    20.215924    20.939003    7265.1838    4226.6306    2241.0307    5535.9497   -1497.9966   -342.47809    648.77631   -3058.8598 
 5719000     252.1309   -3906.6141   -3474.4704   -3906.6141            0    4439.5133    17.230952    20.295785    21.021721    7351.6256    4825.0182    4644.0098    3849.5119   -670.07799    768.07934   -339.69575   -2998.4839 
 5720000    242.17054    -3938.004    -3522.932    -3938.004            0    5292.9764    17.205988    20.266381    20.991265    7319.7189    4974.9048    5619.0901    5284.9344    297.53278   -855.06603   -512.67624   -2957.9037 
 5721000    241.90472    -3903.275   -3488.6586    -3903.275            0    5865.9461    17.183032    20.239342    20.963259    7290.4613    4570.4546    7918.1806     5109.203   -624.32589    1251.8204    693.63459   -2864.9683 
 5722000    251.32286   -3929.3537   -3498.5949   -3929.3537            0    6317.1069    17.133834    20.181393    20.903237    7228.0179    6302.9156    7485.9515    5162.4535   -289.69531     655.2237   -93.669234   -2832.6883 
 5723000    234.07669    -3886.987   -3485.7876    -3886.987            0    5640.8205    17.158922    20.210943    20.933844    7259.8152    6526.9271    4951.5148    5444.0195   -559.27405   -1276.0252    642.49595   -2888.5547 
 5724000    250.21601   -3909.6742   -3480.8125   -3909.6742            0     5167.023    17.229631    20.294229    21.020109    7349.9347    6232.1238    4956.7366    4312.2088   -231.10864    1109.4807   -770.70753   -2926.9528 
 5725000    245.79656   -3918.3835   -3497.0966   -3918.3835            0    4710.8603    17.232021    20.297044    21.023025    7352.9943    4364.6494    5578.8751    4189.0563   -871.82639   -957.81807   -577.86154   -2991.9234 
 5726000     246.8703    -3893.791   -3470.6638    -3893.791            0    4092.7058    17.253647    20.322517    21.049409    7380.7125    3444.4786    4072.5869    4761.0518   -1759.3649   -102.38677   -470.08225   -3030.1244 
 5727000    263.77918   -3862.4662   -3410.3577   -3862.4662            0    4578.4177    17.177412    20.232723    20.956403    7283.3104    4119.5792    3478.7201    6136.9539   -372.87527    545.23452    -966.4816   -2924.0399 
 5728000    244.96138   -3862.5892   -3442.7337   -3862.5892            0    7799.4852    17.134882    20.182628    20.904516    7229.3452     7044.279    6676.2438    9677.9327    434.42258     1143.754    1939.4353   -2620.4139 
 5729000    250.18765   -3886.7638   -3457.9507   -3886.7638            0    4128.7124    17.276972     20.34999    21.077865    7410.6866    4722.1531    3984.5673    3679.4169   -194.36176    256.44209   -642.96879   -3011.7308 
 5730000    263.54516    -3892.522   -3440.8146    -3892.522            0    3719.4115    17.265969    20.337031    21.064442    7396.5374    3820.0416     4449.213    2888.9801    732.35769     1046.209    831.33719   -3039.5983 
 5731000    267.17484   -3898.8199   -3440.8914   -3898.8199            0    5663.3656    17.251631    20.320143     21.04695    7378.1265    6329.8837    4471.7238    6188.4892   -555.95009   -53.148507    916.36869   -2831.4996 
 5732000    252.06843    -3913.999   -3481.9623    -3913.999            0    6717.1638    17.214524    20.276436    21.001679    7330.6191    7638.8781    6498.3823     6014.231    948.14448   -851.07362    393.45812   -2763.8333 
 5733000    258.01232    -3966.192   -3523.9677    -3966.192            0    5897.1808    17.261116    20.331314    21.058521    7390.3018    6919.5975    5384.4367    5387.5082    400.30432    -426.1625    638.26241   -2888.3698 
 5734000     251.1786   -3908.7571   -3478.2456   -3908.7571            0     6739.785    17.293644    20.369628    21.098205    7432.1613    6989.3429    6503.6917    6726.3205   -1432.2245    418.06649   -57.596022   -2747.7173 
 5735000    246.10194   -3925.3205   -3503.5102   -3925.3205            0    5501.9153     17.28837    20.363416    21.091771    7425.3638    5561.3724    4218.1745    6726.1988   -853.04471    1387.3367   -46.769041   -2907.7006 
 5736000    244.04266   -3912.1555   -3493.8747   -3912.1555            0    6594.0706    17.266311    20.337433    21.064858    7396.9763    6575.8901    6664.1503    6542.1714   -744.15789   -1199.4388     275.6029   -2782.5241 
 5737000    244.80615   -3913.4156   -3493.8262   -3913.4156            0    5632.0773    17.230631    20.295408     21.02133    7351.2154    6944.9852    5638.4405    4312.8061    1473.2105    1546.6372   -642.92881   -2890.0116 
 5738000    248.85549   -3899.6582   -3473.1284   -3899.6582            0    4715.6494     17.23667     20.30252    21.028697     7358.947     5310.366    4492.6155    4343.9667   -1165.7593   -156.74724    15.386818   -2967.0322 
 5739000    243.18876   -3907.5446   -3490.7274   -3907.5446            0    5152.0672    17.280376       20.354    21.082018    7415.0683    6001.6582    4872.2742    4582.2692    41.225593    36.383876   -49.090392   -2933.5768 
 5740000    256.14796   -3904.8368    -3465.808   -3904.8368            0    2851.0495    17.364412    20.452983    21.184542    7523.7752    1352.2657    1276.0991    5924.7837    245.26895    -176.7502    835.84162   -3152.9721 
 5741000    241.09919   -3916.5699   -3503.3342   -3916.5699            0    6559.3201    17.249543    20.317683    21.044402     7375.447    6501.8339    5136.1838    8039.9425    689.52747   -15.563296   -468.57913   -2797.7919 
 5742000    251.46691   -3883.2818   -3452.2761   -3883.2818            0    6106.9707    17.249949    20.318162    21.044898    7375.9686    5572.7714     7800.456    4947.6848    558.68191    -290.2243    208.59029   -2795.3436 
 5743000     244.3518   -3854.1233   -3435.3126   -3854.1233            0    5231.1141    17.285237    20.359726    21.087948    7421.3271    4175.3138    5626.1585    5891.8699   -1667.8262    490.61477    -554.2309   -2869.1364 
 5744000    248.20429   -3894.7317    -3469.318   -3894.7317            0    5025.0656    17.310628    20.389633    21.118925    7454.0796    5285.3302    5629.8567    4160.0097    383.87709   -717.70076    558.79126   -2923.0426 
 5745000    259.28389    -3868.696   -3424.2923    -3868.696            0    7567.2337    17.154161    20.205336    20.928037    7253.7747    7718.0475    5871.6623    9111.9913   -523.28255   -207.25296    2231.4475   -2623.7633 
 5746000    249.98789   -3898.2606   -3469.7899   -3898.2606            0     5362.362    17.211798    20.273225    20.998353     7327.137     4240.815    6702.7046    5143.5664   -263.03843   -68.230196    454.06391   -2896.7745 
 5747000    251.03227   -3889.4146   -3459.1538   -3889.4146            0    6215.1732    17.163185    20.215965    20.939046     7265.228    4888.8157    6882.0882    6874.6158     195.6153     837.3938   -129.72171   -2800.6196 
 5748000    262.75578   -3884.8851   -3434.5307   -3884.8851            0    6065.5246    17.197827    20.256769    20.981309    7309.3094    5767.1502     2979.816    9449.6076   -939.19706   -886.97269    75.642642   -2787.9532 
 5749000    244.59929    -3936.482   -3517.2472    -3936.482            0    5153.9784    17.251802    20.320344    21.047158    7378.3458    4578.9366    4307.0761    6575.9225   -661.93622    1025.0314      909.868   -2962.6502 
 5750000    268.98179   -3924.5796    -3463.554   -3924.5796            0    4113.4444    17.291887    20.367559    21.096062    7429.8969    4529.3078    4377.1983    3433.8271    913.27862    852.75415   -247.47494   -3017.8317 
Loop time of 445.748 on 64 procs for 250000 steps with 864 atoms

Performance: 96.916 ns/day, 0.248 hours/ns, 560.854 timesteps/s
99.0% CPU use with 64 MPI tasks x 1 OpenMP threads

MPI task timing breakdown:
Section |  min time  |  avg time  |  max time  |%varavg| %total
---------------------------------------------------------------
Pair    | 20.372     | 25.97      | 30.614     |  46.7 |  5.83
Bond    | 0.27469    | 0.28296    | 0.29442    |   0.8 |  0.06
Kspace  | 196.45     | 204.72     | 212.5      |  25.3 | 45.93
Neigh   | 4.9103     | 5.4199     | 6.1682     |  13.7 |  1.22
Comm    | 91.18      | 99.979     | 105.8      |  32.7 | 22.43
Output  | 1.4456     | 1.4471     | 1.4658     |   0.3 |  0.32
Modify  | 98.968     | 101        | 104.05     |  11.2 | 22.66
Other   |            | 6.927      |            |       |  1.55

Nlocal:        13.5000 ave          20 max           8 min
Histogram: 3 0 7 8 17 19 4 3 1 2
Nghost:        2159.48 ave        2206 max        2097 min
Histogram: 2 4 2 7 8 11 8 11 8 3
Neighs:        4157.09 ave        5948 max        2673 min
Histogram: 2 7 6 14 9 11 5 4 4 2

Total # of neighbors = 266054
Ave neighs/atom = 307.93287
Ave special neighs/atom = 2.0000000
Neighbor list builds = 12858
Dangerous builds = 0

unfix		3
unfix		2
unfix		1

write_data	data.final.${pid}
write_data	data.final.0
System init for write_data ...
PPPM initialization ...
  extracting TIP4P info from pair style
  using 12-bit tables for long-range coulomb (../kspace.cpp:340)
  G vector (1/distance) = 0.37429818
  grid = 24 24 25
  stencil order = 5
  estimated absolute RMS force accuracy = 0.00306783
  estimated relative force accuracy = 9.2386789e-06
  using double precision FFTW3
  3d grid and FFT values/proc = 2730 288
Last active /omp style is kspace_style pppm/tip4p/omp
WARNING: Not all mixed pair coeffs generated from mixing. Use write_data with 'pair ij' option to store all pair coeffs. (../write_data.cpp:312)

write_restart   restart.lmp.${pid}
write_restart   restart.lmp.0
System init for write_restart ...
PPPM initialization ...
  extracting TIP4P info from pair style
  using 12-bit tables for long-range coulomb (../kspace.cpp:340)
  G vector (1/distance) = 0.37429818
  grid = 24 24 25
  stencil order = 5
  estimated absolute RMS force accuracy = 0.00306783
  estimated relative force accuracy = 9.2386789e-06
  using double precision FFTW3
  3d grid and FFT values/proc = 2730 288
Last active /omp style is kspace_style pppm/tip4p/omp
Total wall time: 0:07:26
