#include		in.partitions
include		in.temp
variable        temperature equal 76.55
variable	tempDamp equal 100.0
include		in.pressure
variable        pressure equal 668.8
variable        pressureDamp equal 1000.0 # This is 1 ps
include		in.seed
variable        seed equal 745823

units		real
atom_style	full

read_restart	restart.lmp.${pid}
read_restart	restart.lmp.1
Reading restart file ...
  restart file = 30 Jul 2021, LAMMPS = 30 Jul 2021
  restoring atom style full from restart
  orthogonal box = (0.049926295 0.010510678 -0.14075323) to (19.950075 19.989490 20.840751)
  4 by 4 by 4 MPI processor grid
  restoring pair style lj/cut/tip4p/long/omp from restart
  restoring bond style harmonic/omp from restart
  restoring angle style harmonic/omp from restart
  972 atoms
  648 bonds
  324 angles
Finding 1-2 1-3 1-4 neighbors ...
  special bond factors lj:    0        0        0       
  special bond factors coul:  0        0        0       
     2 = max # of 1-2 neighbors
     1 = max # of 1-3 neighbors
     1 = max # of 1-4 neighbors
     2 = max # of special neighbors
  special bonds CPU = 0.009 seconds
  read_restart CPU = 0.020 seconds
include 	in.setup
variable	out_freq equal 1000
variable	out_freq2 equal 10000
variable	out_freq3 equal 1000

timestep	2.0

neigh_modify    delay 7 every 1

include		in.tip4p
# This is TIP4P/Ice

# create groups ###
group ox type 2
324 atoms in group ox
group hy type 1
648 atoms in group hy

# set charges - beside manually ###
set group ox charge -1.1794
Setting atom values ...
  324 settings made for charge
set group hy charge 0.5897
Setting atom values ...
  648 settings made for charge

# ### TIP3P Potential Parameters ###
pair_style lj/cut/tip4p/long/omp 2 1 1 1 0.1577 8.5
pair_coeff 1 1*2 0.000 0.000
pair_coeff 2 2 0.21084 3.1668
bond_style  harmonic
bond_coeff  1 450 0.9572
angle_style harmonic
angle_coeff 1 55 104.52
kspace_style pppm/tip4p/omp 1.0e-5
pair_modify tail yes

thermo          ${out_freq}
thermo          1000
thermo_style    custom step temp pe etotal epair emol press lx ly lz vol pxx pyy pzz pxy pxz pyz enthalpy

restart 	${out_freq3} restart.lmp.${pid} restart2.lmp.${pid}
restart 	1000 restart.lmp.${pid} restart2.lmp.${pid}
restart 	1000 restart.lmp.1 restart2.lmp.${pid}
restart 	1000 restart.lmp.1 restart2.lmp.1


include         in.dump
dump            myDump all atom ${out_freq2} dump.water.${pid}
dump            myDump all atom 10000 dump.water.${pid}
dump            myDump all atom 10000 dump.water.1
dump            myDump2 all dcd ${out_freq2} dump.dcd
dump            myDump2 all dcd 10000 dump.dcd
dump_modify     myDump append yes
dump_modify     myDump2 append yes


variable natoms 	equal  "count(all)"                        # NUMBER ATOMS
variable H      	equal  "enthalpy/v_natoms"                 # ENTHALPY-per-atom
variable Vol      	equal  "vol/v_natoms"                 # volume-per-atom
fix AVG all 		ave/time ${out_freq} 1 ${out_freq} v_Vol v_H file vol_enthalpy.dat
fix AVG all 		ave/time 1000 1 ${out_freq} v_Vol v_H file vol_enthalpy.dat
fix AVG all 		ave/time 1000 1 1000 v_Vol v_H file vol_enthalpy.dat


timer           timeout 02:55:00 every 1000
New timer settings: style=normal  mode=nosync  timeout=02:55:00

fix 		1 all shake 1e-6 200 0 b 1 a 1
       0 = # of size 2 clusters
       0 = # of size 3 clusters
       0 = # of size 4 clusters
     324 = # of frozen angles
  find clusters CPU = 0.002 seconds
fix             2 all nph aniso ${pressure} ${pressure} ${pressureDamp}
fix             2 all nph aniso 668.8 ${pressure} ${pressureDamp}
fix             2 all nph aniso 668.8 668.8 ${pressureDamp}
fix             2 all nph aniso 668.8 668.8 1000
fix             3 all temp/csvr ${temperature} ${temperature} ${tempDamp} ${seed}
fix             3 all temp/csvr 76.55 ${temperature} ${tempDamp} ${seed}
fix             3 all temp/csvr 76.55 76.55 ${tempDamp} ${seed}
fix             3 all temp/csvr 76.55 76.55 100 ${seed}
fix             3 all temp/csvr 76.55 76.55 100 745823


run             250000
PPPM initialization ...
  extracting TIP4P info from pair style
  using 12-bit tables for long-range coulomb (../kspace.cpp:340)
  G vector (1/distance) = 0.37233346
  grid = 24 24 25
  stencil order = 5
  estimated absolute RMS force accuracy = 0.0034159918
  estimated relative force accuracy = 1.0287158e-05
  using double precision FFTW3
  3d grid and FFT values/proc = 2366 288
Last active /omp style is kspace_style pppm/tip4p/omp
Neighbor list info ...
  update every 1 steps, delay 7 steps, check yes
  max neighbors/atom: 2000, page size: 100000
  master list distance cutoff = 10.8154
  ghost atom cutoff = 10.8154
  binsize = 5.4077, bins = 4 4 4
  1 neighbor lists, perpetual/occasional/extra = 1 0 0
  (1) pair lj/cut/tip4p/long/omp, perpetual
      attributes: half, newton on, omp
      pair build: half/bin/newton/omp
      stencil: half/bin/3d
      bin: standard
Per MPI rank memory allocation (min/avg/max) = 9.228 | 9.231 | 9.239 Mbytes
Step Temp PotEng TotEng E_pair E_mol Press Lx Ly Lz Volume Pxx Pyy Pzz Pxy Pxz Pyz Enthalpy 
 5750000    75.830426   -5083.8474    -4937.602   -5083.8474            0    1805.9623    19.900148     19.97898    20.981504    8341.9243    1610.7814    2694.5711    1112.5343    227.93969   -135.14915    133.74275   -4717.8915 
 5751000    75.124703   -5100.5238   -4955.6395   -5100.5238            0    640.43291    19.945308    19.913794    21.068185     8368.004     572.8005     1575.942    -227.4438   -296.74373    922.79757    715.78149   -4877.4818 
 5752000    77.937827   -5103.1563   -4952.8467   -5103.1563            0     800.1403    20.109793    19.974678    20.840375       8371.3    -557.0196    1206.0332    1751.4073   -136.10563     450.9089    663.51149   -4855.1601 
 5753000    77.435902   -5104.1157   -4954.7741   -5104.1157            0    514.77959    19.997176    19.998505    20.804252     8319.904    870.70401    239.26092    434.37383   -234.99429   -550.97097     139.5866   -4892.3121 
 5754000    75.548268   -5110.8028   -4965.1016   -5110.8028            0    329.12901    20.032235    19.960137    20.860744    8341.0884   -140.27768    1021.6207    106.04399   -404.09398   -698.20528    182.21958   -4925.0643 
 5755000    73.555495     -5095.35   -4953.4921     -5095.35            0    -200.4982    20.062194    20.008606    20.810441    8353.6552     589.2087   -816.01046   -374.69285    21.159297    31.141034   -534.22242   -4977.9186 
 5756000    77.919574   -5096.8189   -4946.5444   -5096.8189            0    1607.0415    19.992949    19.926747    20.885246    8320.5656    634.24326    2802.2444    1384.6368   -263.03561    1205.3406   -869.27508   -4751.5349 
 5757000    79.439057   -5106.8915   -4953.6866   -5106.8915            0    1026.4374    19.974128    19.917237    20.883437    8308.0462    276.98664    1044.0265    1758.2992    121.00477   -197.01585    505.84009    -4829.319 
 5758000    76.801022   -5100.9091   -4952.7919   -5100.9091            0    1076.3734    19.930642    19.991414    20.958547    8350.7596    1206.4029    394.23499    1628.4824    384.05954    61.367029    185.25776   -4821.7033 
 5759000    79.777907   -5097.2669   -4943.4085   -5097.2669            0    1162.3416    19.964117    19.924528    20.992652    8350.3649    1214.8735    1689.8085    582.34263    105.92439    555.85153   -224.71547   -4801.8568 
 5760000    79.023986   -5101.8176   -4949.4132   -5101.8176            0    1007.6057    19.995732    19.991323    20.855184    8336.6748    1858.2321   -843.37845    2007.9636   -310.09351    926.81146   -42.217366   -4826.9067 
 5761000    74.885232    -5099.268   -4954.8456    -5099.268            0    793.76713    19.963581     19.91235    21.033446    8361.2535    965.23695     1001.213    414.85147   -8.5535831    523.54539   -506.20235   -4858.0534 
 5762000    77.372502    -5087.438   -4938.2187    -5087.438            0    803.27143    20.069915    19.988527    20.760707    8328.5322    943.36153   -263.02027     1729.473   -522.03332    135.53029    -202.9709   -4840.6508 
 5763000    80.650142   -5097.1528   -4941.6122   -5097.1528            0    917.62244    20.033684    19.918944    20.901628    8340.7912    725.03548    1012.2768     1015.555   -149.56452   -454.93606   -954.01053   -4829.9909 
 5764000    75.674508   -5101.8862   -4955.9416   -5101.8862            0    1671.0341    19.804403    20.001484    21.056255      8340.75    2937.5496    485.01755    1590.5351   -316.33329   -178.40107   -229.57079   -4752.6749 
 5765000    75.114074   -5099.3108    -4954.447   -5099.3108            0    1409.5546    19.981505    19.836036     20.90328    8285.0958    1329.2964    1459.7934     1439.574   -708.60214    395.61816    568.48877    -4784.131 
 5766000    73.975391   -5096.3578   -4953.6901   -5096.3578            0    1200.1325    19.976852    19.967216    20.940362     8352.736    1667.4937     1224.926    707.97793   -380.87457   -1154.0049    57.980867   -4807.4946 
 5767000    80.349964   -5107.7231   -4952.7615   -5107.7231            0    18.191161    19.968034    19.942286    20.996779    8361.0903    719.72251   -539.77515   -125.37387    58.726584    728.79683     374.6286   -4950.5433 
 5768000    76.305404   -5106.1834    -4959.022   -5106.1834            0    72.990851    19.930685    20.058834    20.926152    8365.9888    320.70536   -369.17861     267.4458   -134.16282    199.21527    409.06664   -4950.1164 
 5769000    77.008161   -5102.4468   -4953.9301   -5102.4468            0    150.76562    19.923774    19.930317    20.981125    8331.3347    90.448966    1304.5651   -942.71717   -138.00609   -88.515614   -125.53583   -4935.6115 
 5770000    75.509445   -5099.1136   -4953.4873   -5099.1136            0    594.16915    19.925767    19.915347     21.06714    8360.0431    1203.7568     749.5713    -170.8207   -460.62699    514.72858    303.74339   -4881.0446 
 5771000    73.445667   -5102.2481    -4960.602   -5102.2481            0    125.01102    19.949615    20.003482    20.821597    8309.1034    642.33724   -302.06127    34.757104   -218.44954    461.33553    861.70861   -4945.4532 
 5772000     75.91632   -5097.5887   -4951.1777   -5097.5887            0    1241.9721    20.038285    19.873774    20.903486    8324.5279    814.05774    1312.3654    1599.4932   -91.244186   -36.623426    41.795553   -4800.3964 
 5773000    76.519814   -5108.0611   -4960.4862   -5108.0611            0   -96.319713    20.030384    19.966099    20.966702    8385.1846   -286.62418   -238.60775    236.27279   -553.45564    1068.8091    575.55519   -4972.2651 
 5774000     79.69699   -5092.0439   -4938.3415   -5092.0439            0    780.04083    19.891243    20.015266    20.989281    8356.4315    1582.7818    387.65372    369.68693   -460.23272   -19.154533    286.76238    -4843.278 
 5775000    79.458024   -5098.5814   -4945.3399   -5098.5814            0     1111.088    19.860218    19.969236    21.017065     8335.229    1047.0105    1770.2334    516.02003    143.31789   -6.2708338   -301.29852   -4810.2752 
 5776000    77.920532   -5092.2311   -4941.9548   -5092.2311            0     943.0301    20.017268    19.919531    20.893277    8330.8726    1143.2196      926.573    759.29769    56.164776    -599.5461   -44.043107   -4827.3792 
 5777000    79.531164   -5096.2647   -4942.8822   -5096.2647            0    569.40133    19.981208    19.980167    20.792579    8300.9771    442.62389    400.42761     865.1525   -2.9926029    524.78711   -438.15299   -4873.9497 
 5778000     79.35369   -5111.1187   -4958.0785   -5111.1187            0    416.32765    19.993166    19.973099     20.84824    8325.2336    240.42146     724.2305    284.33099   -19.561036    79.224875    669.82858   -4907.5301 
 5779000    77.968462   -5101.3245   -4950.9558   -5101.3245            0    165.95856    19.992647    19.991998    20.896489    8352.1794     653.3588    378.26542   -533.74854    8.0932435     403.1457    431.86629   -4930.7407 
 5780000    78.994268    -5100.063   -4947.7159    -5100.063            0     281.2111    20.039838    20.046893    20.955513    8418.5943    367.14715    34.553856    441.93228    126.81269      199.154    443.44331   -4913.1898 
 5781000    75.340057   -5091.6126    -4946.313   -5091.6126            0    645.60457    19.981997    19.904059    21.054936    8374.0291    725.97448    1378.0398   -167.20057   -283.02755   -469.09528    221.99444   -4867.4675 
 5782000    78.085227   -5098.3849    -4947.791   -5098.3849            0     298.9341    20.011967    20.016283     20.83242    8344.7426    277.98811   -195.30066    814.11486   -654.22404    1034.8623   -54.004519   -4911.4109 
 5783000    80.421606   -5106.6721   -4951.5723   -5106.6721            0    256.04027    19.949829    20.038441    20.894294    8352.7756    1038.3811   -750.43857    480.17831    43.079793    312.43591    707.43788   -4920.3823 
 5784000    76.539781   -5105.3844    -4957.771   -5105.3844            0    310.68371    20.040588    19.966842    20.855303    8345.1922    -419.7488    884.35768    467.44227   -70.263508    758.95991   -588.52635   -4919.9589 
 5785000    73.074755   -5106.1209   -4965.1901   -5106.1209            0     1583.575    20.038535    19.959913    20.714981    8285.3172    1419.0357    701.01039    2630.6788   -40.138707    69.255434   -132.03915   -4773.8422 
 5786000    75.773934   -5107.0719   -4960.9355   -5107.0719            0    537.51106    20.050878    19.999793    20.796867    8339.8228    856.70027    290.12539    465.70754   -234.25289    404.44952   -246.56426   -4895.5592 
 5787000    78.039654   -5104.0952   -4953.5892   -5104.0952            0    987.92092    20.087371     20.00499    20.707817    8321.3879    657.17956    1224.9046    1081.6786   -54.886528   -521.85571    217.62435   -4833.6962 
 5788000    75.806199   -5094.6031   -4948.4045   -5094.6031            0   -36.021917    20.034681    19.962734    20.982484    8391.8818    570.60509   -1172.8537    494.18281    -110.3123    544.74291    406.77685   -4952.8131 
 5789000    73.768095   -5100.4218   -4958.1538   -5100.4218            0    928.40614    20.097059    19.909539    20.816738    8329.2594   -74.905383    1744.3632    1115.7606   -106.73861    657.45757   -1020.8558   -4845.3769 
 5790000    75.857677   -5102.8317   -4956.5338   -5102.8317            0    1013.2082    20.081608    19.899643    20.846588    8330.6469    1579.2689    387.35178     1073.004    168.61735    280.15902     123.0308   -4833.4351 
 5791000    76.751648   -5097.8042   -4949.7822   -5097.8042            0     57.91433    20.072179    20.029088    20.733984    8335.6309   -451.42023    -23.58809    648.75131   -403.40893    207.77349    534.40989   -4942.7417 
 5792000    74.983724   -5099.3721   -4954.7597   -5099.3721            0    1116.6568    19.938503    20.009129    20.797692    8297.2824    1194.2133    1020.1976    1135.5595    283.54795    247.36275   -169.92443    -4819.636 
 5793000    77.332659   -5095.2247   -4946.0821   -5095.2247            0    546.47547    19.964224     19.93145    20.996514    8354.8475    712.86979    783.94374    142.61289     159.5221    227.18961   -189.86736   -4879.4958 
 5794000    75.912375   -5109.7388   -4963.3354   -5109.7388            0    895.18603    20.070196    19.976967    20.753355    8320.8844    1256.9397   -188.54598    1617.1644   -66.397868    804.84516    191.72957   -4854.7031 
 5795000    71.038523   -5100.7404   -4963.7366   -5100.7404            0    229.45039    20.090931    19.928791    20.906147    8370.5697    650.75884    -257.7104    295.30272    44.195914    696.62344    454.30951   -4935.7262 
 5796000    76.402939   -5104.6397   -4957.2902   -5104.6397            0    385.39471    20.064908     19.93208    20.879584    8350.4839    864.15574    158.33215    133.69623   -49.053074    181.05746   -16.981464   -4910.3555 
 5797000    75.860845   -5099.9831   -4953.6791   -5099.9831            0    1359.5893    19.987339    20.057751    20.706501    8301.2586    1658.6991     995.0932    1424.9756    75.534776    -36.05106    288.14405   -4789.0799 
 5798000     73.91243   -5105.2364   -4962.6901   -5105.2364            0    991.17042    19.888069     20.01374    20.889569    8314.7721    1291.0322    1366.5578     315.9213     -50.0575    191.24885    484.31115   -4842.4984 
 5799000    76.420425   -5097.4828   -4950.0996   -5097.4828            0   -207.55547    19.940953    19.961911     20.95216    8340.2067     203.1154   -346.02806   -479.75374    -311.6719   -273.28432     462.7465   -4975.3453 
 5800000    78.075289   -5110.8586   -4960.2839   -5110.8586            0    1433.1903    19.947469    19.913005    20.900357    8301.9157    1633.8041    1370.5968    1295.1701    38.443721   -122.38881     710.7155   -4786.7605 
 5801000    82.550474   -5090.7192   -4931.5136   -5090.7192            0    907.61117    20.057615    19.849296    21.032606    8373.7017    657.79848    1335.9402    729.09483    -94.45727    429.62202   -74.981214   -4820.6745 
 5802000    76.050944   -5104.9855   -4958.3149   -5104.9855            0    1249.3229    20.034366    19.859838    20.905046    8317.6842    1267.3612    2061.5229     419.0846    53.734136   -186.95544   -256.58669   -4806.7659 
 5803000    72.533399   -5103.3314   -4963.4447   -5103.3314            0    314.77334     20.01044    20.004642    20.813506    8331.6811   -250.52167    1107.3592     87.48252   -156.23873    198.63163    198.46087   -4925.1969 
 5804000    77.179185   -5092.5391   -4943.6925   -5092.5391            0    1234.5205    19.993227    19.954422    20.853672     8319.641    724.03539    2186.0802    793.44607    252.42658    1077.6044    122.84763   -4793.9039 
 5805000    76.002049   -5099.4578   -4952.8814   -5099.4578            0    -95.47887    19.994132    19.982703    20.890583    8346.5568    1057.8937   -836.12338   -508.20688   -318.07884    151.70186    339.56395   -4964.5037 
 5806000    80.209389    -5093.598   -4938.9074    -5093.598            0    696.78527    20.050791    19.992223    20.859591    8361.7733    830.01353     135.0298    1125.3125    -397.4619     296.0357   -162.21071   -4853.9359 
 5807000    71.181455   -5099.6034    -4962.324   -5099.6034            0    63.563231    20.009312    20.048013      20.8209    8352.2402   -96.812436   -31.770153    319.27228   -108.82125    630.93582   -574.80575   -4954.5814 
 5808000    75.320409   -5098.1413   -4952.8796   -5098.1413            0    670.98364     20.03902    19.882469    20.919556    8334.8784    817.65587    381.93818    813.35687   -198.50308    819.86999    -379.1557   -4871.3177 
 5809000    74.402284   -5099.0151   -4955.5241   -5099.0151            0     1430.717    20.045771    19.872165    20.920916    8333.9069    677.57156    2093.5859    1520.9935   -77.168377    729.10582   -66.089401   -4781.6326 
 5810000    77.705288   -5100.8009   -4950.9397   -5100.8009            0    371.69809    20.041632    19.951665    20.933184    8370.4253   -1148.5959    1393.9561    869.73405   -20.436261    271.91115    99.194202    -4905.565 
 5811000    79.448881   -5103.9917   -4950.7679   -5103.9917            0   -333.85015    19.995738    20.088969    20.873177    8384.6249   -147.91661   -888.42703    34.793193    154.16174    347.52604    -686.3182   -4991.5915 
 5812000    82.387024   -5098.6768   -4939.7865   -5098.6768            0    872.77055    19.968114    19.989997    20.876983    8333.3097    1964.5519    80.449429    573.31028   -54.169075    29.559463   -559.52718   -4833.7162 
 5813000    78.268922   -5096.2085   -4945.2603   -5096.2085            0    953.73751    19.985576     20.07831     20.67542    8296.5622    1164.7558    428.85305    1267.6037    24.427797    427.93889    -107.6111   -4829.8611 
 5814000    76.629528   -5102.2397   -4954.4532   -5102.2397            0    1309.8484    19.988106     19.98795    20.797784    8309.1568    1343.7425    1348.3411    1237.4616   -345.43459    1163.3776   -248.96237   -4795.7251 
 5815000    76.100324   -5103.5718   -4956.8059   -5103.5718            0    688.63631    19.992478    19.987568     20.94762    8370.6904    9.7503582    1202.7313    853.42721   -568.08362   -49.010836    517.45704   -4872.7386 
 5816000    77.196457   -5090.3024   -4941.4226   -5090.3024            0    523.37103    20.032453    19.959349    20.859758    8340.4555    117.98739    958.54346    493.58224    93.166594    -452.2868    -423.6133   -4877.7613 
 5817000    75.359928    -5103.576    -4958.238    -5103.576            0    1188.9349    19.958209    19.911732    20.928623    8317.0874     591.1843    2559.8815    415.73899   -28.736346   -426.01952    115.63326   -4814.0247 
 5818000    72.835405   -5092.6791   -4952.2099   -5092.6791            0    1728.2696    19.884126    20.009051    20.921618    8323.9269    2870.7876    825.22457    1488.7966    41.646772    4.7603498   -48.905754   -4742.4049 
 5819000     73.49431   -5106.5015   -4964.7615   -5106.5015            0    699.77146    20.035826    19.979535    20.780752    8318.6695    1018.3564    223.52408    857.43386      188.313    609.68919   -755.70758   -4879.8658 
 5820000    77.216242    -5098.504   -4949.5859    -5098.504            0   -348.08646    20.056606    20.069429    20.875984    8403.0979   -188.32135   -792.84388    -63.09414    323.54049   -298.22293    1066.5741   -4992.2441 
 5821000    77.947699   -5099.6204   -4949.2917   -5099.6204            0    1606.4333    19.986712    19.951356    20.886161    8328.6075    2789.5299    1114.7116    915.05828    100.45168   -380.57378    164.52343   -4754.1676 
 5822000    82.193708   -5093.3213   -4934.8038   -5093.3213            0    804.64162    19.998428    20.114598    20.844828    8385.0477    1238.6708     114.0748    1061.1793     56.39789    148.89528    1019.8602   -4836.4063 
 5823000     72.49788   -5103.9936   -4964.1754   -5103.9936            0    468.51644    19.933216    20.050601    20.789675    8309.0711    933.20782    -307.9789     780.3204   -77.845618   -112.02227   -838.20674   -4907.4009 
 5824000    75.534937   -5106.1673   -4960.4918   -5106.1673            0    805.26429    19.981025    20.032759    20.803445    8327.1002    975.58018    1228.0849    212.12776      128.885    339.85355   -91.792597   -4862.6987 
 5825000    77.073303   -5106.3475   -4957.7051   -5106.3475            0    1314.3099    19.965845    19.988672    20.789813    8297.0216     1597.782    1142.8734    1202.2743   -503.90454    1013.2166   -332.27588    -4798.669 
 5826000     78.94572   -5107.3955    -4955.142   -5107.3955            0    1077.2845    20.049967    19.823113     20.99139    8343.0858    934.60483    1540.9718     756.2767   -123.09603   -608.46647   -34.379178    -4824.063 
 5827000     72.94108    -5107.472    -4966.799    -5107.472            0    1395.9437    20.038251    19.922552    20.780779    8295.9589    850.43278    2057.1549    1280.2436   -12.387616    230.80296    316.62049   -4797.9064 
 5828000    78.010662   -5094.0305   -4943.5804   -5094.0305            0    1070.4685    20.013219    19.935936    20.832975    8311.9873    1314.6747    1219.1456    677.58507   -129.33334   -414.86406     705.6764   -4813.8163 
 5829000    75.811579   -5106.3755   -4960.1665   -5106.3755            0    583.00588    19.969629     19.93259    20.981356    8351.5539   -69.433649    988.97134    829.47994   -218.65983    274.79087    488.90205    -4889.157 
 5830000    80.210325   -5101.8976   -4947.2053   -5101.8976            0   -349.63174    20.017106    20.038232    20.833309    8356.3948   -546.04457   -517.79714    14.946483    47.969889    288.27488    890.28883   -4989.8147 
 5831000    78.803134    -5101.868   -4949.8896    -5101.868            0     118.6614    19.977668     20.01209    20.929543    8367.5243   -10.381128    2.0209645    364.34437   -556.76603    228.42398   -910.08798   -4935.4091 
 5832000    74.821621   -5104.5784   -4960.2786   -5104.5784            0    529.18584    19.949822    20.046452    20.827665    8329.4654    2447.1565   -698.22057   -161.37843    145.51394     344.7358    402.67174   -4895.9949 
 5833000    78.512625   -5101.2461   -4949.8279   -5101.2461            0    1085.0166    19.961938    19.959767    20.923033    8336.4823    411.65831    2136.9919    706.39969    153.98368    224.61466    618.62606   -4817.9126 
 5834000    77.765441   -5092.0458   -4942.0686   -5092.0458            0    1147.5846    19.983848    19.990251    20.854422    8330.9687    1847.4635    601.29281    993.99729   -47.047955    68.774937   -441.03071   -4802.6387 
 5835000    77.555186   -5109.7647    -4960.193   -5109.7647            0    578.54197    20.072559     19.89001    20.856424    8326.7901    791.15104   -13.119429    957.59431     184.0594    922.89113    658.62315   -4889.9361 
 5836000    76.837775   -5104.5878   -4956.3997   -5104.5878            0    405.67744    19.897438    19.942591    20.966016     8319.451    693.30127    587.48584   -63.754802   -215.77762    457.38232    121.48117   -4907.1786 
 5837000     77.41442   -5105.8403   -4956.5401   -5105.8403            0    693.05163    20.034397    19.897265    20.877461    8322.3765    1007.1567    777.57778    294.42039   -243.98139    320.42851   -577.97012   -4872.4221 
 5838000    75.388365   -5098.7626   -4953.3698   -5098.7626            0    153.30763    20.048345    20.059408    20.735849     8339.086   -257.88893    217.63541    500.17641    359.64069     750.2273    626.78639    -4934.725 
 5839000    77.004359   -5114.5029   -4965.9935   -5114.5029            0    1111.9787    19.930742    20.058565    20.694629    8273.3419    1663.6943   -24.709367    1696.9512   -196.88137    67.186311    449.58783   -4831.8241 
 5840000    75.689933   -5101.6722   -4955.6978   -5101.6722            0    1000.9909    19.966984    19.934287    20.875292    8308.9422    1306.8283    839.98006    856.16429   -377.77121    471.64007    412.24674   -4834.4003 
 5841000    75.647974   -5105.4832   -4959.5897   -5105.4832            0    168.30571    20.024823    19.977169    20.943751    8378.3234   -217.31134    581.54402    140.68445    77.637001    153.33591    106.31866   -4939.0246 
 5842000    74.415973   -5099.7037   -4956.1863   -5099.7037            0    1425.3222     20.05316    19.835041    20.943931    8330.5587    588.08171    1836.3976    1851.4874   -73.565522   -176.21782   -589.86297   -4783.0201 
 5843000    76.920378   -5091.8939   -4943.5465   -5091.8939            0    356.10075    19.971422    19.960222    20.924274    8341.1271    989.37145    662.40807   -583.47726   -614.38848     443.0204   -378.12002   -4900.2279 
 5844000    72.164239   -5092.6172   -4953.4424   -5092.6172            0    579.53664    20.029018    19.930676    20.886502    8337.7217    267.71011    543.97368    926.92613    -18.31043   -57.543639    50.633571   -4882.9724 
 5845000    71.324838   -5102.0759     -4964.52   -5102.0759            0    328.57849    19.977117    19.999026    20.889573    8345.8624    -220.0709     596.7813    609.02509    470.80319     35.01839    513.24409   -4924.5268 
 5846000    79.973922   -5105.0101   -4950.7737   -5105.0101            0    728.62257    19.982528    20.044579    20.782051    8324.0711    1106.4979    340.58168     738.7881   -128.05301    874.09677   -90.658365   -4862.3203 
 5847000    79.647993   -5106.1928    -4952.585   -5106.1928            0    680.84228    20.009484    19.958134    20.839517    8322.3021     997.9394    861.45396    183.13349    190.99633    513.90007   -1144.2093   -4869.9496 
 5848000    76.020175   -5102.0809   -4955.4696   -5102.0809            0    149.58835    19.873498    20.085095    20.924689    8352.3223    965.94664    -390.1376   -127.04399    -44.22246   -467.33527    630.06607   -4937.2482 
 5849000    75.996816   -5101.5749   -4955.0086   -5101.5749            0    2.4089199    19.978358    19.959484    20.953235     8355.264    -414.1763    718.41314   -297.01009   -7.8502466    380.57255     234.0862   -4954.7151 
 5850000    75.863368   -5101.5156   -4955.2067   -5101.5156            0    1164.6618    19.938173    19.951423    20.866131    8300.4407    1651.9984    1454.2283    387.75873    72.083115    770.59439   -192.54379   -4814.2204 
 5851000    74.271143   -5107.5214   -4964.2833   -5107.5214            0    295.18161    20.147786    19.974576    20.715912    8336.9838   -114.34899    1118.5721   -118.67828   -96.951661    679.86219   -328.26679   -4928.3932 
 5852000    74.849625   -5097.1566   -4952.8028   -5097.1566            0    534.21435    20.095226     19.91558    20.879517    8356.1513    340.82102    661.70016    600.12186   -331.02955    471.03675   -881.80595   -4887.7003 
 5853000    78.481702   -5099.1385     -4947.78   -5099.1385            0    444.35777    20.039714    19.957445    21.031043    8411.1869    512.52283    309.15476    511.39573   -61.284832    178.11977   -470.36693   -4893.2712 
 5854000    75.291506   -5092.7362   -4947.5302   -5092.7362            0    1589.3904    20.002628    19.896491    20.865878    8304.2461    606.59384    1849.9583    2311.6191   -51.909059    741.92608   -13.406842   -4755.0409 
 5855000    78.825263   -5090.8027   -4938.7816   -5090.8027            0    1539.8767    19.908961    19.963261    20.951474    8327.1168    3201.9844    995.15258    422.49309   -183.30726    695.60785   -794.92707   -4751.7751 
 5856000    72.810227   -5100.0196    -4959.599   -5100.0196            0    1048.7502    19.911854    20.068117    20.791422    8308.1155    1173.1253    431.56128    1541.5641    285.65152      337.555   -818.83453   -4832.5268 
 5857000    72.935342   -5092.9902   -4952.3283   -5092.9902            0   -362.20177     20.00084    20.057137     20.85396    8365.7661   -111.59628   -703.06009   -271.94894     200.4735    320.05334   -344.95522   -4996.5191 
 5858000     75.71373   -5094.9731   -4948.9528   -5094.9731            0    1187.1481    19.919885    19.922071    21.050521    8353.8017    1862.9749    1246.1988    452.27051   -198.57588    549.68819    58.045955   -4804.3206 
 5859000    77.373195   -5102.9914   -4953.7707   -5102.9914            0    649.15884    19.997536    19.941078    20.925475    8344.5023    389.86571     1096.744    460.86686    84.701473  -0.49505586   -88.239054   -4874.7706 
 5860000    79.596059   -5097.5599   -4944.0522   -5097.5599            0    987.95342    20.038611    20.003499    20.745336    8315.6088     1906.326    48.147688    1009.3866   -278.95056    415.29929   -492.69458   -4824.2385 
 5861000    81.501739   -5100.9186   -4943.7357   -5100.9186            0    597.23454    19.973013    19.953621     20.97724     8360.142    1291.6288    29.664299    470.41053    10.493635    316.88058   -106.47023   -4870.9184 
 5862000    76.186198    -5095.908   -4948.9765    -5095.908            0    683.13683    20.104485    19.902472    20.863708    8348.1738    8.3961035    1427.1796    613.83481   -71.734984   -667.80117   -297.51412   -4865.8049 
 5863000    72.431049   -5100.6604    -4960.971   -5100.6604            0    467.84336    20.018505    19.942151    20.860621     8327.811    1972.7389   -757.16057    187.95173   -217.98726   -77.433521     560.8214   -4904.1502 
 5864000    77.335233   -5098.5086   -4949.3611   -5098.5086            0    188.11446    19.970512     19.96805    20.976942    8365.0209     195.5555    251.85275    116.93512   -315.08832   -99.129001    -840.6454    -4926.412 
 5865000    75.751031   -5098.2473   -4952.1551   -5098.2473            0    257.84872    19.983858    19.975187    20.958166    8366.1081    1295.5361   -1130.4688    608.47885    -302.6304    1345.1199   -297.40447   -4920.6946 
 5866000     73.18543   -5103.2696   -4962.1253   -5103.2696            0    699.87654    19.972051    19.998815    20.930954    8360.1864    953.50903    801.82589    344.29469    118.56279    156.06288   -508.03898   -4876.7931 
 5867000    71.962446   -5099.9511   -4961.1655   -5099.9511            0    768.92707    19.994338     20.03736    20.826572    8343.8274    1462.7963   -151.99548    995.98043   -548.33304   -137.88852    435.30918   -4867.5977 
 5868000    75.315715   -5106.6042   -4961.3516   -5106.6042            0     928.0494    20.065949    19.935819    20.841182    8337.1214    964.04807    953.38728    866.71286    -178.5281    324.88237    60.341087   -4848.5115 
 5869000    74.649009   -5103.3069     -4959.34   -5103.3069            0    1091.6784    20.024538    19.991024    20.872081    8355.3238    1279.6388    785.57485    1209.8217   -473.44971     424.6371   -507.13431   -4826.3148 
 5870000    75.873402   -5099.6418   -4953.3135   -5099.6418            0    668.72759    19.994597     19.98492    20.854931     8333.431    674.94306    505.90367    825.33605    178.49854   -389.85194     762.5413     -4872.04 
 5871000    73.135404   -5105.0313   -4963.9835   -5105.0313            0    534.70011    20.012656    19.942641    20.908164    8344.5569    34.643497    518.93217    1050.5247   -20.634303    170.16493    366.03956   -4898.9122 
 5872000     74.75352   -5088.3154   -4944.1469   -5088.3154            0   -50.680772    19.938753     20.08796    20.896685    8369.7256      142.101    40.925052   -335.06837   -4.4739109    562.97312    264.45579   -4950.3332 
 5873000    77.444666   -5102.7798   -4953.4212   -5102.7798            0     1530.405    19.827842    19.967196    20.984775    8308.0067    2219.0829    1165.1577    1206.9743   0.64379455    379.85967    323.74491   -4767.9916 
 5874000     76.52451   -5097.0511   -4949.4672   -5097.0511            0    803.81603    20.043054    19.978902    20.847695    8348.2134    1013.6617    826.66957    571.11686   -205.03068    798.85672    581.61609   -4851.6025 
 5875000    75.126511    -5090.997   -4946.1092    -5090.997            0   -161.23091    20.119225    19.905597    20.901886    8370.8958   -244.64284    213.97716   -453.02705   -41.890942    365.70376   -896.93734   -4965.7924 
 5876000    71.496903   -5101.4863   -4963.5985   -5101.4863            0    1072.2615    19.902258    19.993556    20.810067    8280.6773    1074.5921     1043.894    1098.2984   -248.00184   -337.86545    -680.0056   -4834.1066 
 5877000    75.786842   -5100.8003    -4954.639   -5100.8003            0    932.37972    19.965709     19.99174    20.801743    8303.0004    2144.9417    610.48612    41.711347    200.39904   -561.04665    326.21885   -4841.7365 
 5878000    76.970659   -5104.3689   -4955.9245   -5104.3689            0    572.80728    20.093632    19.890245     20.82091    8321.4362    341.07407    417.23365     960.1141    102.73098   -143.90699   -286.71653   -4886.4088 
 5879000    79.965852   -5095.7032   -4941.4824   -5095.7032            0    428.82757    20.044804    19.862322    20.943595    8338.4061   -602.57692    1729.1285    159.93117   -122.18216   -280.54618    138.73525   -4889.3339 
 5880000    73.105325   -5106.0263   -4965.0365   -5106.0263            0    311.38345    19.938703    19.988238    20.960246    8353.4871    1323.5478   -460.36738    70.969904   -244.44811   -258.44415   -489.47177   -4927.1016 
 5881000    75.158535   -5111.0996     -4966.15   -5111.0996            0    831.95413    19.943256    19.974071    20.824034     8295.212    1059.1087    478.14596    958.60771   -192.34939    114.18855   -649.24029   -4865.5026 
 5882000    78.608435   -5092.9647   -4941.3618   -5092.9647            0   -663.63321    20.112048    19.916468    20.801263    8332.1737   -1418.6012    66.069416   -638.36782   -74.599632    381.97201   -258.39575   -5022.0039 
 5883000     81.75972   -5098.6354   -4940.9549   -5098.6354            0     1393.409    20.012101    19.976236     20.76866    8302.6135    489.77568    1806.8048    1883.6464    75.383228    1024.7215    472.61998   -4772.2339 
 5884000    76.290041   -5103.9981   -4956.8664   -5103.9981            0    1349.9126    19.994124    19.868243    20.942846    8319.5063    1029.9486     2145.084    874.70518    -175.7466    103.04628    304.15618   -4793.0795 
 5885000     75.86214   -5102.3883   -4956.0818   -5102.3883            0   -106.86844    19.920561    19.984122    20.967542    8347.0723   -146.76997    456.97757   -630.81293    206.20557   -707.19866   -323.36725   -4969.0913 
 5886000    77.218812   -5097.8576   -4948.9346   -5097.8576            0    400.98607    19.893433    19.955669    21.039217    8352.2908    648.49627     21.40506    533.05687   -157.95581   -724.45612    947.45553   -4900.0907 
 5887000    73.891519   -5101.6286   -4959.1226   -5101.6286            0    829.19223     20.02012    19.955576    20.891283    8346.3398    1178.2384    1347.1829   -37.844553   -340.59186   -470.36321   -213.60885    -4858.191 
 5888000    75.124233    -5102.106   -4957.2226    -5102.106            0    1805.7049    19.900703    19.888787    21.026595    8322.3439     3235.455    633.91942    1547.7403   -399.26034   -266.27472   -44.073295   -4738.0591 
 5889000    70.314125   -5103.6198   -4968.0131   -5103.6198            0    261.06655    19.985359    19.989283    20.899716    8349.2906    834.73872   -621.77733    570.23827   -42.574745   -356.49928    59.453519   -4936.2241 
 5890000    78.927449   -5100.0114   -4947.7932   -5100.0114            0    1373.1091    19.956012    19.795493     20.99612    8294.2881     486.8453    2427.0655    1205.4167    131.89682   -92.749493    -727.5474   -4781.6969 
 5891000    74.994147   -5101.4057   -4956.7732   -5101.4057            0    1284.2593    20.022581     19.95823    20.862419    8336.9411    1363.0564    1612.6787     877.0428   -531.70015    1126.0234   -198.53063   -4800.6256 
 5892000      77.1021   -5101.8304   -4953.1325   -5101.8304            0     625.4502    19.970833    19.967209    20.861146    8318.6282    1080.6532    393.50794     402.1895   -233.39159    29.663179   -310.14676   -4877.2537 
 5893000    75.294382   -5103.2735   -4958.0619   -5103.2735            0    487.00392    19.969853    19.985003    20.891384    8337.7007    1107.5208    -132.5849    486.07587    132.32446    567.42489   -615.11803   -4898.8438 
 5894000    78.366888    -5103.357   -4952.2198    -5103.357            0    1442.1319     19.89888    19.968465    20.835466    8278.9742    1660.7182    1272.8247    1392.8529    91.453257   -70.991118    119.01001   -4778.0963 
 5895000    75.607517   -5098.3774   -4952.5619   -5098.3774            0    1650.4425    20.022058     19.80685    20.936897    8303.0271    1376.9773    2090.7706    1483.5796   -24.106056   -1114.7185    592.99766   -4752.7079 
 5896000     72.10362   -5098.7504   -4959.6925   -5098.7504            0    791.85083    20.065811    19.955794    20.752444    8309.8844    1184.9716    298.24159    892.33932    134.30601    104.59434     59.54463   -4863.7272 
 5897000    71.533581   -5101.3735    -4963.415   -5101.3735            0     4.717747    19.993476    19.997879     20.91089    8360.7408    341.02677    396.35258   -723.22611    327.62397    434.62305    224.93985   -4962.8397 
 5898000    75.584486   -5104.8689   -4959.0979   -5104.8689            0    368.65056    20.142047    19.978231     20.79084    8366.2854    240.60398   -163.16761    1028.5153    615.49835    49.508002   -657.57289   -4914.1175 
 5899000    79.762917   -5103.0323   -4949.2028   -5103.0323            0      876.192    19.975032    19.926414    20.961536    8343.3365    806.84979    1216.8846    604.84161   -107.34112    474.73512    102.34302   -4842.5886 
 5900000    75.254246   -5102.5289   -4957.3947   -5102.5289            0    629.90543    19.894222    19.984759    20.971097     8337.715    251.48648    1205.5393    432.69049   -209.97337    193.41604    119.45885   -4880.8001 
 5901000    77.481591   -5092.0812   -4942.6514   -5092.0812            0   -302.72324    20.059229    19.874509    21.118779    8419.3669   -1455.3648     352.7882    194.40685    280.06065   -549.33712    1209.0784   -4979.8221 
 5902000    80.660299   -5105.6086   -4950.0485   -5105.6086            0    27.598999    20.011284    20.038066     20.90242    8381.6079    834.61078   -962.25571    210.44192    170.48357    416.89121    367.08081   -4946.6749 
 5903000    74.714935   -5097.8875   -4953.7935   -5097.8875            0    824.97862    20.034658     20.03513    20.756071    8331.4242    1185.6987    102.14105    1187.0961    156.52216    144.08539   -89.921491   -4853.5542 
 5904000     77.30558   -5102.8052   -4953.7149   -5102.8052            0    239.18208    20.085468    19.897563    20.917525    8359.7274   -29.519363    289.81014    457.25547    49.003306   -636.55839    340.10278   -4924.5543 
 5905000    78.167788   -5105.8199   -4955.0668   -5105.8199            0    256.97753    20.101691    19.881299    20.908157    8355.8975    59.654389    839.69248   -128.41427    -164.5474    466.85196   -651.92355   -4923.7509 
 5906000    74.376212   -5103.8811   -4960.4404   -5103.8811            0    61.998651    19.964846    19.930187    20.999295     8355.685    358.93786    817.82002   -990.76193   -177.62559     -520.092   -234.76343   -4952.8853 
 5907000    78.953931   -5103.5043    -4951.235   -5103.5043            0     783.0281    19.981054     19.98198     20.95156    8365.1411    1872.0692    485.56542   -8.5503342    179.99662    25.497591   -228.52424   -4855.7079 
 5908000    73.118217   -5104.5435   -4963.5288   -5104.5435            0    263.41488    20.076606    19.952651    20.832379    8345.0659   -617.59511    243.43054    1164.4092   -32.303027    89.016568    503.75177   -4931.4701 
 5909000    75.986391   -5105.0458   -4958.4997   -5105.0458            0    347.05713    20.054261    20.076284    20.750432    8354.4365   -284.32073    84.782292    1240.7098   -348.28533    672.32663    -639.8773   -4916.2139 
 5910000    77.870766   -5102.7906   -4952.6103   -5102.7906            0    630.19732    20.041036    19.906765    20.856644    8320.8039    80.720323    961.90883    847.96282    147.09657   -62.325442   -297.37304   -4876.1356 
 5911000    73.022183   -5099.9191   -4959.0897   -5099.9191            0      193.379    20.015477    19.954287    20.986395    8381.8522   -424.84419    732.62663    272.35457    76.593245    699.48147    542.71992   -4935.4509 
 5912000    72.506098   -5092.0701    -4952.236   -5092.0701            0    1229.9802    19.961696    20.051854    20.787189    8320.4676    1714.6129    1023.1775    952.15021   -86.698243    732.77079   -181.23324   -4802.9834 
 5913000    75.718436   -5097.7711   -4951.7418   -5097.7711            0    936.04039    19.991561    19.910272    20.956355    8341.4135    1544.4031    622.76628    640.95179   -497.24046   -206.11178    481.29452   -4837.8716 
 5914000    75.096445   -5104.6067   -4959.7769   -5104.6067            0    516.35733    20.019724    20.003762    20.908304    8373.1442    824.80323    11.581244    712.68752    102.87814    182.59751   -245.04922   -4896.7226 
 5915000    75.861727   -5101.0975   -4954.7917   -5101.0975            0    601.05746    20.047476    19.992177    20.954078    8398.2411    454.58175    458.99569    889.59496     42.64856    305.34615     302.9147   -4881.1744 
 5916000    75.434116   -5093.4196   -4947.9386   -5093.4196            0    971.56132    20.106558    19.919918    20.779996    8322.8245   -147.66089    1421.2137    1641.1312  -0.21221681    602.51012    896.62432   -4830.0106 
 5917000    79.309634   -5105.2052   -4952.2499   -5105.2052            0    1222.6871    20.062019    19.908351    20.875281    8337.6229    542.03384    1696.4031    1429.6243   -293.69815   -459.30972   -56.525975   -4803.5764 
 5918000    76.611683   -5090.8838   -4943.1317   -5090.8838            0    1091.7238    20.064926    20.008394    20.811784    8355.2432    756.36776    764.58406    1754.2197   -203.19188    581.21275    551.50683   -4810.1023 
 5919000    79.183965   -5095.7358   -4943.0229   -5095.7358            0     677.7726    19.933085    20.017138    20.972022    8367.9064    983.28168    442.60801    607.42809    115.21194    908.73813    469.04118   -4860.3093 
 5920000    73.825024   -5094.9965   -4952.6187   -5094.9965            0    185.92612    20.032428    19.937618    20.980252    8379.4897   -384.53485     1331.404   -389.09078   -331.82209   -398.53774   -410.37227   -4929.8973 
 5921000    77.549427    -5096.924   -4947.3634    -5096.924            0    1095.5742    19.963992    20.011323    20.875838    8340.0204    1018.0175    949.68442    1319.0206   -227.20169    1101.6309   -917.76112    -4814.108 
 5922000    74.463031    -5102.673   -4959.0648    -5102.673            0     861.4375    19.968947    20.005267    20.873757    8338.7346    1687.1163     184.0855    713.11065   -89.530676    543.83668   -40.278323   -4854.3037 
 5923000     73.65996    -5103.056   -4960.9966    -5103.056            0    370.60367    20.054956    19.915398    20.887578    8342.5494    90.997734    717.48397     303.3293   -292.43164   -51.193908   -411.14347   -4915.9062 
 5924000    76.807516   -5103.4078    -4955.278   -5103.4078            0    236.14379     19.96773    20.003696    20.990777    8384.3123     1458.521   -337.65181   -412.43779   -384.64778    984.64778    901.48975   -4926.4032 
 5925000     75.99093   -5101.6078   -4955.0529   -5101.6078            0    1629.1557    19.915607    19.939133    20.958608     8322.662    2584.4677    704.90141    1598.0979   -210.60212   -472.08021    -146.2661   -4757.3101 
 5926000    74.523804   -5107.3094   -4963.5839   -5107.3094            0    791.40598    20.062394    19.951104    20.825753    8335.8597    1461.6485    89.870407    822.69905    7.7502464   -6.0269014    545.20911   -4867.3727 
 5927000    77.782498   -5102.9069   -4952.8968   -5102.9069            0    564.29631    20.014933    19.949796    20.789574    8301.1487    379.44035    419.82961    893.61898   -438.37394    1003.8508   -588.71651    -4884.581 
 5928000     73.86817   -5094.1701   -4951.7092   -5094.1701            0    1053.0684    20.175107    19.755459    20.906892    8332.8288    507.28911    1417.0597    1234.8564   -54.511852    393.83281    358.89705   -4823.7342 
 5929000    77.924822   -5096.8851   -4946.6006   -5096.8851            0    769.98036    19.906176    20.029181    20.861124    8317.4217    125.95147    1363.8924    820.09723   -243.18888    262.57567    666.13278   -4853.2011 
 5930000    80.546139   -5103.8517   -4948.5117   -5103.8517            0    957.28344    19.948982    20.032529    20.824403    8322.0263    592.55322    1103.9765    1175.3206   -489.68965    885.69731   -334.38917    -4832.328 
 5931000    76.960004   -5105.4791   -4957.0552   -5105.4791            0   -70.884602    19.975286    20.006003    20.942611    8369.2041    66.322115     2.374724   -281.35064    169.82598   -144.35503   -396.04881   -4965.7071 
 5932000    74.179618   -5096.5494   -4953.4878   -5096.5494            0    593.79003    20.055574    20.012892    20.788639    8343.9369   -255.50141    1186.6943    850.17723   -459.37982    332.81499     333.2751   -4881.2308 
 5933000    75.183396   -5109.8105    -4964.813   -5109.8105            0   -141.71747    19.997559    19.980923    20.988694    8386.4458   -1312.5243    1474.0964    -586.7245   -269.88299   -60.450965    437.99273   -4982.1462 
 5934000    73.763546   -5102.9276   -4960.6684   -5102.9276            0    609.97415    19.918399    20.019015    20.885985    8328.2185    813.34663    679.24164    337.33418   -81.604424      70.1713   -34.140589   -4886.5819 
 5935000    77.791311   -5097.7327   -4947.7056   -5097.7327            0    674.86798    19.989488    20.013316    20.875199    8351.2471    823.01384    688.67334    512.91677    -202.2751    202.47692   -78.395112   -4865.5105 
 5936000    79.198837   -5098.6264   -4945.8848   -5098.6264            0   -64.345454    19.992246    20.003886    20.887694    8353.4615    453.81715   -597.85682   -48.996695   -103.97859   -89.828347   -136.99025   -4953.7238 
 5937000    77.245915   -5107.0148   -4958.0396   -5107.0148            0    844.49722    19.931176    19.938997    20.962128      8330.51    852.45304    830.88143     850.1572   -193.28004    872.24467    -173.2429     -4855.44 
 5938000    79.892874   -5103.7667   -4949.6866   -5103.7667            0     1292.028    20.040545    19.903721    20.917991    8343.7978    964.66199    1952.2754    959.14671   -247.79111    -345.8031    -486.3717   -4792.4652 
 5939000    76.205636   -5108.5446   -4961.5756   -5108.5446            0    354.19287    20.027378    19.910595    20.815498    8300.3257    382.39811   -135.85991     816.0404   -45.620991    1392.9601   -46.342587   -4918.6999 
 5940000    79.921179   -5096.6133   -4942.4786   -5096.6133            0    966.68743    20.007615    19.946015    20.887653    8335.6813    906.01336    786.78009    1207.2688   -68.996958     150.7816    356.69736    -4824.961 
 5941000    76.201959   -5098.2264   -4951.2645   -5098.2264            0     488.9705    19.990693    19.881216    20.970011    8334.3063    570.32892    898.07595   -1.4933599    229.67976    193.77398    538.54942   -4891.8314 
 5942000    76.081382   -5096.1958   -4949.4665   -5096.1958            0    1361.1667    19.897635    20.089441      20.8149    8320.3891    1765.1328    1346.4135    971.95388    100.80961    287.83242   -548.59149   -4784.2966 
 5943000    75.145264     -5098.84    -4953.916     -5098.84            0    286.93883    20.007495    20.053754    20.862517    8370.5717   -296.67916    1144.7315    12.764176   -272.46723    113.63358    194.69936   -4918.8876 
 5944000     80.11924   -5099.9733   -4945.4566   -5099.9733            0    1029.8221    20.010331    19.952132    20.798153    8303.6366    1364.4689     476.5426    1248.4549    63.949272    828.39809    319.77902   -4820.7451 
 5945000    75.603814   -5097.3818   -4951.5735   -5097.3818            0    723.74154    20.028159    19.882169    20.855546    8304.7461    1127.4618    565.86421    477.89863   -331.20427   -306.66353    303.87772   -4863.9167 
 5946000    76.022652    -5101.832   -4955.2159    -5101.832            0     1309.099    19.966336    19.943989    20.820991    8291.0935    1283.1899     1064.116     1579.991   -144.53363   -398.57329   -525.88164   -4796.9235 
 5947000    76.209535   -5098.7907   -4951.8142   -5098.7907            0     855.6725    19.950561    19.920815    20.903313    8307.6336     1092.453    1123.5547    351.00987   -339.09034    422.67812   -130.17471   -4848.1424 
 5948000    76.326786   -5099.0268   -4951.8242   -5099.0268            0    86.183058    19.970207    20.061479    20.900806    8373.5295   -1013.8584    674.45801    597.94958    69.988409    496.18349   -904.78287   -4941.2996 
 5949000    78.082413   -5096.1959   -4945.6074   -5096.1959            0    765.66799    20.094645    19.894172    20.921009    8363.5151    216.75586    1255.3393    824.90878    333.30046    401.15977    400.66627   -4852.2164 
 5950000    73.506563   -5098.1848   -4956.4213   -5098.1848            0    1136.2585    20.000523    19.998865    20.779654    8311.6072    667.30264    1129.0954    1612.3774    -136.2416    457.64479     355.3724   -4818.6882 
 5951000    77.829474   -5104.7645   -4954.6638   -5104.7645            0    878.77684    20.055296    19.989264    20.758697    8321.9664    1724.6158   -144.65146    1056.3662   -57.762079   -8.6323695   -182.19676    -4848.009 
 5952000    76.359927   -5101.5889   -4954.3224   -5101.5889            0    17.188036    19.977392    20.103469    20.903816    8395.2836    1091.7775   -1455.8619     415.6485   -337.14477     -189.948    732.93121   -4952.2179 
 5953000    75.089236   -5104.8823   -4960.0663   -5104.8823            0    350.99968    19.963134    19.950923    20.994079    8361.5835    1078.4746    404.07118   -429.54669   -341.65232    142.83035   -382.13037   -4917.2636 
 5954000    73.647604   -5102.2566    -4960.221   -5102.2566            0    -134.0389    20.093888    19.950488    20.827002    8349.1885    492.64646   -488.66284   -406.10033   -96.945359    -62.48482    306.29433   -4976.5422 
 5955000    72.411314   -5104.1017   -4964.4503   -5104.1017            0     1237.813    19.926624    20.014425    20.872241    8324.2654    2847.1426   -476.48841    1342.7849   -168.65724   -655.06589   -430.84903   -4814.1788 
 5956000    74.697453   -5104.8728   -4960.8125   -5104.8728            0    610.60145    19.977841    20.027465    20.878179    8353.4741    480.04959    474.21635    877.53842   -22.978534    207.71943   -270.75906   -4886.4249 
 5957000    74.251265   -5097.5376   -4954.3378   -5097.5376            0    1041.4885    20.030195    19.941967    20.898787     8347.843    935.86092    1248.1239     940.4807   -297.11751    532.73908    888.70227   -4827.5421 
 5958000    80.720179   -5107.2049   -4951.5293   -5107.2049            0    120.36089    20.002429     19.96303    20.982358     8378.446    171.41381   -39.557901    229.22677    -124.7411    -221.5955   -683.44644   -4936.8222 
 5959000    76.193907   -5100.4157   -4953.4693   -5100.4157            0   -449.28487    20.062125    20.007548    20.833435    8362.4144   -818.01457   -264.45757   -265.38247    79.357202   -133.91576   -602.92081   -5008.2629 
 5960000    79.210962   -5097.9078   -4945.1428   -5097.9078            0    953.23099     19.95292    19.957379    20.966678    8349.0988     758.2781    1551.7089      549.706    36.812036   -91.134188    6.5610314   -4829.0745 
 5961000    77.245177   -5101.4611   -4952.4873   -5101.4611            0    267.25224     20.04552    19.960918    20.838446    8338.0244    303.67835   -154.82491    652.90328   -155.56987    511.30843    1009.6136    -4919.989 
 5962000    75.049829   -5097.1276   -4952.3877   -5097.1276            0    1059.2516    20.027679    19.882809    20.912622    8327.5424    1720.3816    601.85486    855.51832    68.298505   -575.26806    3.6389998    -4823.743 
 5963000    79.526438   -5099.6968   -4946.3234   -5099.6968            0    170.80185    20.022038    19.977881    20.928039    8371.1719    444.75207   -189.42531    257.07878    352.67533    592.62741    285.37279   -4925.4711 
 5964000    79.599956    -5103.499   -4949.9838    -5103.499            0    2057.2718    20.059774    19.838157     20.79343    8274.7232    842.71647    2804.2268    2524.8721    120.95084   -163.03442   -202.97478   -4701.7156 
 5965000    74.494448   -5108.7816   -4965.1128   -5108.7816            0    1382.9151    19.929029    19.934246    20.947695    8321.8944    2302.4409    630.08568    1216.2186   -365.09351   -189.92417   -208.65764   -4797.2735 
 5966000    75.324819   -5104.7123    -4959.442   -5104.7123            0    1123.3914     19.93653    19.955752    20.846261    8293.6525    1637.5095    1387.7583    344.90642    68.677275   -190.75108   -492.71106   -4823.5629 
 5967000    72.588621   -5106.6453    -4966.652   -5106.6453            0   -110.64898    19.978583    19.973919    20.953099    8361.3465   -908.07831     560.2482    15.883182    21.933388   -43.653968    281.39489   -4980.1447 
 5968000    79.884002   -5101.7622   -4947.6992   -5101.7622            0     572.7973    19.926616    19.924775    20.975298    8327.8927    372.96431    1710.6288   -365.20117   -326.28136    102.07992    149.43125   -4878.1308 
 5969000    77.050739   -5099.7804   -4951.1816   -5099.7804            0    1478.3242     20.00061    19.932285    20.846343    8310.5582    1485.8486    553.52635    2395.5976   -210.95613     208.7449   -160.27827   -4772.0073 
 5970000    73.482533   -5101.8043    -4960.087   -5101.8043            0    507.58378    20.095456    19.902451     20.82648    8329.5263   -200.87767    701.28467    1022.3443   -281.34469   -329.21421     45.69376    -4898.427 
 5971000    74.152209   -5098.9147    -4955.906   -5098.9147            0     1015.832    19.967985    20.013155    20.839334     8327.864    1912.3241    220.77647     914.3954   -70.544497   -1022.0518     295.8863   -4832.5298 
 5972000    74.554969   -5105.4521   -4961.6666   -5105.4521            0    1534.9142    19.996494    19.978973    20.745436    8287.9969    2048.4539    1037.7403    1518.5484     33.30058   -42.396072   0.52781631   -4776.1385 
 5973000    75.478375   -5103.3434    -4957.777   -5103.3434            0    498.17643     20.05677     19.89918    20.953768    8362.9269   -731.87218    1958.4026    267.99883   -54.432371    590.24557   -251.75366   -4897.0171 
 5974000    73.106208   -5095.5859   -4954.5944   -5095.5859            0    1415.9911    19.889412    19.980623    20.940005    8321.6174    2021.8936    746.94507    1479.1346   -70.225071   -259.94591    105.92457   -4782.7466 
 5975000    76.586541   -5108.4202   -4960.7166   -5108.4202            0    574.91736    19.943911    19.945873    20.995221    8351.8721    548.84716     995.9188    179.98611   -182.20956   -215.17475    501.75489   -4890.6896 
 5976000    75.967321   -5101.9924    -4955.483   -5101.9924            0    287.24357    19.987302    19.993481     20.86091    8336.3475    94.870707     549.9368     216.9232   -228.83088    202.84339   -199.75738   -4920.5608 
 5977000    77.349557   -5082.2992   -4933.1241   -5082.2992            0    752.08176    20.060788    19.998359    20.755648    8326.8097    497.91871   -103.30265    1861.6292   -198.45299    338.52973   -367.69351   -4841.7928 
 5978000    81.185048    -5102.372   -4945.7998    -5102.372            0    1128.0967    20.047714    19.981013    20.825432    8342.1187     1045.866    995.94842    1342.4756    38.089253    429.57445   -378.05718   -4808.5541 
 5979000    79.070833   -5102.0813   -4949.5866   -5102.0813            0    294.72096    20.011376    19.995261    20.882029    8355.5828    1097.3896   -145.25425   -67.972464    52.376796    22.523089   -545.77666   -4913.6726 
 5980000    78.127174   -5094.0124   -4943.3376   -5094.0124            0    1023.1405     19.95554    19.965716    20.961398    8351.5798    1021.8532    1183.7708    863.79748   -271.90371    335.54848   -378.94351   -4818.7198 
 5981000    78.370934   -5099.6866   -4948.5417   -5099.6866            0    884.62405    20.048237     19.90564    20.933379     8353.946    805.93106    768.83908     1079.102   -246.66287   -151.89478   -60.367722   -4840.7646 
 5982000    76.700166   -5099.8488    -4951.926   -5099.8488            0   -502.88759    20.050109    19.935797    21.112229    8438.8728   -95.442605   -616.69755   -796.52261     74.27879    355.19708   -228.57683   -5013.8176 
 5983000    78.107731   -5110.5808   -4959.9435   -5110.5808            0    451.76666    20.077299    19.926546    20.927709    8372.5739   -136.72243      1020.68     471.3424    197.61738    651.86398    461.36251   -4904.7803 
 5984000    76.450108   -5095.4337   -4947.9933   -5095.4337            0    755.55674    20.026382    20.027653    20.735766    8316.7307    1144.3469    20.443182    1101.8801   -91.594083    60.751585    336.18348    -4856.351 
 5985000    75.739274   -5106.9537   -4960.8841   -5106.9537            0    162.54635    20.035027    20.053713    20.770697    8345.1816    579.66107   -367.36127    275.33926   -10.326062    392.52744   -112.08899   -4941.1012 
 5986000    76.538269   -5106.6472   -4959.0367   -5106.6472            0    700.50128    20.059035    20.039635    20.734625    8334.8158    501.32402    250.22276    1349.9571    307.99359    1268.9851    722.35044   -4873.8875 
 5987000    73.024211   -5095.9637   -4955.1304   -5095.9637            0    355.44751    20.025071    19.973637    20.857767    8342.5545    43.552343    279.86861    742.92159   -257.45406    549.19253    459.91759    -4911.884 
 5988000    79.546182   -5102.6309   -4949.2194   -5102.6309            0    432.61609    20.034627      19.9524    20.948715    8374.0159    958.15754    359.66938   -19.978637    14.167766     585.2649     309.1207   -4896.3856 
 5989000    76.403478   -5101.7355   -4954.3849   -5101.7355            0    606.24181    20.039863    19.965949    20.876851    8353.1388     1688.331    88.553683    41.840726    -307.7827    306.23861   -59.070359   -4880.5314 
 5990000    78.998431   -5101.6138   -4949.2587   -5101.6138            0    901.29028    19.994387     19.93302    20.874009    8319.3051    1285.4162    1105.4993    312.95526   -67.959041   -139.31664   -402.02198   -4839.9065 
 5991000     75.60505    -5105.618   -4959.8073    -5105.618            0    397.57112    20.064262    19.977315     20.80753    8340.2839   -279.86939    1012.4396    460.14319   -272.29312    338.22391    282.89859    -4911.449 
 5992000    77.221603   -5104.4809   -4955.5525   -5104.4809            0    572.97386    20.068306    19.985399    20.876155    8372.8642    245.21696    969.02132    504.68329   -106.45886    701.06583   -286.45716   -4885.5869 
 5993000    78.428342   -5100.2032   -4948.9475   -5100.2032            0    574.00644    20.041904    20.073386    20.693285    8325.0923   -117.23849    534.79179     1304.466      78.3038    1156.8097   -250.92352   -4879.2557 
 5994000    75.463975   -5094.1074   -4948.5688   -5094.1074            0   -63.081519    20.127676    19.844638    20.918885    8355.5559   -493.39066    126.75005    177.39605    -310.3553     -202.834    104.25721   -4956.2557 
 5995000     79.97776   -5095.4594   -4941.2156   -5095.4594            0     350.8941    20.051705    20.024964    20.851185    8372.4736     1192.812   -244.72576     104.5961   -67.879618   -242.60266   -240.65796     -4898.37 
 5996000    77.596901   -5099.3321   -4949.6799   -5099.3321            0    320.91907    20.073179    19.963011    20.937312    8390.0229   -52.663084    605.40896    410.01134    165.86338    75.406005   -211.47464   -4910.4123 
 5997000    75.649387   -5100.6909   -4954.7947   -5100.6909            0    525.31523    20.043929    19.905938    20.952964    8360.0903    711.66901    410.14137     454.1353   -139.32788   -85.283372   -757.72802   -4890.7465 
 5998000    77.098807   -5095.4425    -4946.751   -5095.4425            0   -225.48476    20.132214    19.994595    20.814386    8378.5286   -1117.3565    366.47685    74.425383    309.78721    400.52385   -764.35746   -4974.3035 
 5999000    75.427273   -5105.5888   -4960.1209   -5105.5888            0    26.093364    20.074133    20.068015    20.702633    8340.0146    595.06576   -1249.9101    733.12439   -42.971557    468.98618   -42.538106   -4956.9472 
 6000000      78.6648   -5091.5958   -4939.8841   -5091.5958            0    226.54052    20.042904    19.965276    20.813715    8328.8598   -497.28458    974.31563    202.59052   -518.51073   -277.99069   -190.28478   -4912.3667 
Loop time of 345.632 on 64 procs for 250000 steps with 972 atoms

Performance: 124.989 ns/day, 0.192 hours/ns, 723.313 timesteps/s
99.1% CPU use with 64 MPI tasks x 1 OpenMP threads

MPI task timing breakdown:
Section |  min time  |  avg time  |  max time  |%varavg| %total
---------------------------------------------------------------
Pair    | 17.695     | 27.027     | 36.391     |  87.7 |  7.82
Bond    | 0.25896    | 0.27455    | 0.29088    |   1.2 |  0.08
Kspace  | 137.64     | 146.76     | 156.44     |  38.0 | 42.46
Neigh   | 0.14641    | 0.15092    | 0.15495    |   0.6 |  0.04
Comm    | 80.551     | 81.393     | 82.706     |   6.3 | 23.55
Output  | 0.51305    | 0.51445    | 0.51659    |   0.1 |  0.15
Modify  | 80.384     | 81.843     | 84.902     |  11.8 | 23.68
Other   |            | 7.67       |            |       |  2.22

Nlocal:        15.1875 ave          19 max          10 min
Histogram: 1 0 5 10 11 9 6 11 9 2
Nghost:        2231.44 ave        2246 max        2212 min
Histogram: 3 3 4 7 7 12 4 10 6 8
Neighs:        4732.03 ave        6424 max        2994 min
Histogram: 1 5 4 13 15 4 5 7 5 5

Total # of neighbors = 302850
Ave neighs/atom = 311.57407
Ave special neighs/atom = 2.0000000
Neighbor list builds = 473
Dangerous builds = 0

unfix		3
unfix		2
unfix		1

write_data	data.final.${pid}
write_data	data.final.1
System init for write_data ...
PPPM initialization ...
  extracting TIP4P info from pair style
  using 12-bit tables for long-range coulomb (../kspace.cpp:340)
  G vector (1/distance) = 0.37236433
  grid = 24 24 25
  stencil order = 5
  estimated absolute RMS force accuracy = 0.0034129879
  estimated relative force accuracy = 1.0278112e-05
  using double precision FFTW3
  3d grid and FFT values/proc = 2366 288
Last active /omp style is kspace_style pppm/tip4p/omp
WARNING: Not all mixed pair coeffs generated from mixing. Use write_data with 'pair ij' option to store all pair coeffs. (../write_data.cpp:312)

write_restart   restart.lmp.${pid}
write_restart   restart.lmp.1
System init for write_restart ...
PPPM initialization ...
  extracting TIP4P info from pair style
  using 12-bit tables for long-range coulomb (../kspace.cpp:340)
  G vector (1/distance) = 0.37236433
  grid = 24 24 25
  stencil order = 5
  estimated absolute RMS force accuracy = 0.0034129879
  estimated relative force accuracy = 1.0278112e-05
  using double precision FFTW3
  3d grid and FFT values/proc = 2366 288
Last active /omp style is kspace_style pppm/tip4p/omp
Total wall time: 0:05:45
