LAMMPS (30 Jul 2021)
  using 1 OpenMP thread(s) per MPI task
package omp 0
using multi-threaded neighbor list subroutines
echo both

include		in.partitions
variable        pid world 0
include		in.temp
variable	temperature equal 260
variable	melttemp equal 450.0
variable	tempDamp equal 100.0
include		in.pressure
variable        pressure equal 8000
variable        pressureDamp equal 1000.0 # This is 1 ps
include		in.seed
variable        seed world 745823

units		real
atom_style	full



include 	in.box

read_data       ice.data
Reading data file ...
  orthogonal box = (0.0055940000 0.0000000 0.0000000) to (49.454405 24.971228 23.019015)
  7 by 3 by 2 MPI processor grid
  reading atoms ...
  3840 atoms
  scanning bonds ...
  2 = max bonds/atom
  scanning angles ...
  1 = max angles/atom
  reading bonds ...
  2560 bonds
  reading angles ...
  1280 angles
Finding 1-2 1-3 1-4 neighbors ...
  special bond factors lj:    0        0        0       
  special bond factors coul:  0        0        0       
     2 = max # of 1-2 neighbors
     1 = max # of 1-3 neighbors
     1 = max # of 1-4 neighbors
     2 = max # of special neighbors
  special bonds CPU = 0.230 seconds
  read_data CPU = 0.338 seconds
include 	in.setup
variable	out_freq equal 500
variable	out_freq2 equal 500

timestep	1.0

neigh_modify    delay 5 every 1

include		in.tip4p
# This is TIP4P/Ice

# create groups ###
group ox type 2
1280 atoms in group ox
group hy type 1
2560 atoms in group hy

# set charges - beside manually ###
set group ox charge -1.1794
Setting atom values ...
  1280 settings made for charge
set group hy charge 0.5897
Setting atom values ...
  2560 settings made for charge

# ### TIP3P Potential Parameters ###
pair_style lj/cut/tip4p/long 2 1 1 1 0.1577 8.5
pair_coeff 1 1*2 0.000 0.000
pair_coeff 2 2 0.21084 3.1668
bond_style  harmonic
bond_coeff  1 450 0.9572
angle_style harmonic
angle_coeff 1 55 104.52
kspace_style pppm/tip4p 1.0e-5
pair_modify tail yes

thermo          ${out_freq}
thermo          500
thermo_style 	custom step temp pe etotal epair emol press lx ly lz xy xz yz vol pxx pyy pzz pxy pxz pyz cella cellb cellc cellalpha cellbeta cellgamma

restart 	${out_freq} restart.lmp.${pid} restart2.lmp.${pid}
restart 	500 restart.lmp.${pid} restart2.lmp.${pid}
restart 	500 restart.lmp.0 restart2.lmp.${pid}
restart 	500 restart.lmp.0 restart2.lmp.0

include         in.dump
dump            myDump all atom ${out_freq2} dump.water.${pid}
dump            myDump all atom 500 dump.water.${pid}
dump            myDump all atom 500 dump.water.0
dump_modify     myDump append yes


timer           timeout 23:50:00 every 1000
New timer settings: style=normal  mode=nosync  timeout=23:50:00


fix 		0 all shake 1e-6 200 0 b 1 a 1
       0 = # of size 2 clusters
       0 = # of size 3 clusters
       0 = # of size 4 clusters
    1280 = # of frozen angles
  find clusters CPU = 0.152 seconds
fix             1 all nph aniso ${pressure} ${pressure} ${pressureDamp}
fix             1 all nph aniso 8000 ${pressure} ${pressureDamp}
fix             1 all nph aniso 8000 8000 ${pressureDamp}
fix             1 all nph aniso 8000 8000 1000
fix             2 all temp/csvr ${temperature} ${temperature} ${tempDamp} ${seed}
fix             2 all temp/csvr 260 ${temperature} ${tempDamp} ${seed}
fix             2 all temp/csvr 260 260 ${tempDamp} ${seed}
fix             2 all temp/csvr 260 260 100 ${seed}
fix             2 all temp/csvr 260 260 100 745823
velocity        all create ${temperature} ${seed}
velocity        all create 260 ${seed}
velocity        all create 260 745823

run             500000
PPPM initialization ...
  extracting TIP4P info from pair style
  using 12-bit tables for long-range coulomb (../kspace.cpp:340)
  G vector (1/distance) = 0.37376444
  grid = 54 32 30
  stencil order = 5
  estimated absolute RMS force accuracy = 0.0034051979
  estimated relative force accuracy = 1.0254652e-05
  using double precision FFTW3
  3d grid and FFT values/proc = 7296 1350
Last active /omp style is kspace_style pppm/tip4p/omp
Neighbor list info ...
  update every 1 steps, delay 5 steps, check yes
  max neighbors/atom: 2000, page size: 100000
  master list distance cutoff = 10.8154
  ghost atom cutoff = 10.8154
  binsize = 5.4077, bins = 10 5 5
  1 neighbor lists, perpetual/occasional/extra = 1 0 0
  (1) pair lj/cut/tip4p/long/omp, perpetual
      attributes: half, newton on, omp
      pair build: half/bin/newton/omp
      stencil: half/bin/3d
      bin: standard
Per MPI rank memory allocation (min/avg/max) = 9.730 | 9.757 | 9.785 Mbytes
Step Temp PotEng TotEng E_pair E_mol Press Lx Ly Lz Xy Xz Yz Volume Pxx Pyy Pzz Pxy Pxz Pyz Cella Cellb Cellc CellAlpha CellBeta CellGamma 
       0          260   -18883.321   -16900.069   -18883.321            0    2131.6319    49.448811    24.971228    23.019015            0            0            0    28423.823    8955.9257    5058.7424   -7619.7724   -3458.5802   -452.36023    4146.7003    49.448811    24.971228    23.019015           90           90           90 
     500    255.97006    -18334.57   -16382.058    -18334.57            0    6742.0846    50.205795    24.940177    22.974961            0            0            0      28767.9    6455.5437    7581.4078    6189.3022    32.629865    395.88931   -273.49439    50.205795    24.940177    22.974961           90           90           90 
    1000    256.83729   -18201.435   -16242.308   -18201.435            0    7779.0823    49.855632    25.003301    23.066644            0            0            0     28753.85    8424.4616    7187.1961    7725.5893   -17.102248   -47.903273   -220.32212    49.855632    25.003301    23.066644           90           90           90 
    1500    263.32606   -18235.463    -16226.84   -18235.463            0    7708.3181    50.064904    24.943656    23.000115            0            0            0    28722.583    7683.3408    7644.7387    7796.8747   -34.910142   -118.97136    126.86206    50.064904    24.943656    23.000115           90           90           90 
    2000    258.38301    -18182.37   -16211.452    -18182.37            0    8267.0896    49.915086    25.012708    23.007404            0            0            0    28725.007    7982.0095    8406.3512     8412.908    258.40692   -266.73665   -159.24881    49.915086    25.012708    23.007404           90           90           90 
    2500    256.92827   -18147.984   -16188.163   -18147.984            0    7702.5388    50.003212    24.950911    23.090087            0            0            0    28807.786    8185.9461    8182.2253     6739.445   -685.98413    185.41377     654.8345    50.003212    24.950911    23.090087           90           90           90 
    3000    263.62013   -18236.243   -16225.377   -18236.243            0    7298.3588    50.122647    25.073086    22.929079            0            0            0    28815.649    7312.1417    6220.3146    8362.6202    22.866027   -424.38081    1202.9507    50.122647    25.073086    22.929079           90           90           90 
    3500    257.91619   -18277.687    -16310.33   -18277.687            0    7389.9078    49.853033    24.946411    23.125721            0            0            0    28760.401    8931.5671    7204.0287    6034.1274    180.07679    518.74407    350.93731    49.853033    24.946411    23.125721           90           90           90 
    4000    258.93258   -18266.941   -16291.831   -18266.941            0    7385.1192    50.156532    24.998961    22.934571            0            0            0    28756.769    6231.6597     7926.242    7997.4558    80.765231   -1030.4571    141.20067    50.156532    24.998961    22.934571           90           90           90 
    4500    261.01071   -18242.473   -16251.511   -18242.473            0    8057.5279    49.876311    25.001733    23.029832            0            0            0    28718.067    8917.8236    7740.3057    7514.4543    -363.0154    1104.1735   -90.248218    49.876311    25.001733    23.029832           90           90           90 
    5000    259.09999    -18205.27   -16228.883    -18205.27            0    7908.1804    50.066096    24.956246    23.029472            0            0            0    28774.446    6826.9396    8554.5932    8343.0083    103.95955    -464.0462    730.99326    50.066096    24.956246    23.029472           90           90           90 
    5500    260.11781   -18262.564   -16278.413   -18262.564            0    7485.9728    50.000753     25.02892    22.985105            0            0            0     28765.05    8036.5476    6383.8291    8037.5418    134.33963    -359.6088    173.38503    50.000753     25.02892    22.985105           90           90           90 
    6000    262.72136   -18227.683   -16223.673   -18227.683            0    7796.8043     49.98642    24.926657    23.092711            0            0            0    28773.388    7895.1105    8205.3906    7289.9118   -672.35618    311.09402    -271.0163     49.98642    24.926657    23.092711           90           90           90 
    6500    262.28245   -18284.756   -16284.094   -18284.756            0    8344.1797    49.957409    24.988054    22.976002            0            0            0    28681.827    8068.4338    8373.4475    8590.6579    26.735039   -511.13148   -201.61843    49.957409    24.988054    22.976002           90           90           90 
    7000    254.04278    -18166.43   -16228.619    -18166.43            0    8124.2486     49.90329     24.97425    23.059217            0            0            0    28738.638    7881.1475     9107.654    7383.9443   -716.05711    421.62411   -705.89201     49.90329     24.97425    23.059217           90           90           90 
    7500    260.27019   -18197.004   -16211.691   -18197.004            0    8712.1811    50.002514    24.969083    22.945631            0            0            0    28648.008     9392.212    8811.1599    7933.1715     314.7128   -644.67021    244.31475    50.002514    24.969083    22.945631           90           90           90 
    8000    258.62419   -18223.112   -16250.355   -18223.112            0    8939.6075    49.919223    24.883394    23.052211            0            0            0    28634.528    9408.8833    9037.7532     8372.186    214.47759    11.161634    619.11015    49.919223    24.883394    23.052211           90           90           90 
    8500    259.08068   -18212.625   -16236.385   -18212.625            0    9717.9969     49.82639    24.976937    22.960905            0            0            0    28575.089    10034.929    9068.7575    10050.304    423.48445    158.74519    606.58081     49.82639    24.976937    22.960905           90           90           90 
    9000    261.16848   -18141.942   -16149.776   -18141.942            0     9245.177    50.056561    24.925708    22.961482            0            0            0    28648.931    9060.6267    9936.2905    8738.6137   -22.371011    455.07487    239.02903    50.056561    24.925708    22.961482           90           90           90 
    9500    260.71339   -18179.644    -16190.95   -18179.644            0    8829.9837    49.738715    24.973267    23.091566            0            0            0    28682.917    9658.5708    8193.7673    8637.6129   -337.51906    141.14535   -1079.1347    49.738715    24.973267    23.091566           90           90           90 
   10000    266.74794   -18240.837   -16206.113   -18240.837            0    7864.6055    50.092652    24.968814    22.979832            0            0            0    28742.119    7576.3274    7896.1138    8121.3752    512.67601   -262.79824    556.71796    50.092652    24.968814    22.979832           90           90           90 
   10500    267.25258   -18173.411   -16134.837   -18173.411            0    8023.0959    49.816944    25.004708    23.115328            0            0            0    28793.797    8267.9597    8113.8567    7687.4711   -289.84888   -754.73253    529.73792    49.816944    25.004708    23.115328           90           90           90 
   11000     254.6186   -18175.051   -16232.848   -18175.051            0    8215.0047    50.227989    24.942756    22.913935            0            0            0    28707.139    7278.7078    8277.0937    9089.2126    104.70584   -15.424248   -529.38001    50.227989    24.942756    22.913935           90           90           90 
   11500     259.0504   -18269.898   -16293.889   -18269.898            0    8241.6487    49.727245    25.030691    23.055659            0            0            0    28697.547    9037.8343    7597.7841    8089.3277   -13.911017    444.17506    263.77006    49.727245    25.030691    23.055659           90           90           90 
   12000    262.26786    -18176.66   -16176.109    -18176.66            0    8365.3609    50.066056    24.914827    23.014214            0            0            0    28707.635    7494.8702    8105.5411    9495.6713   -572.96873    -939.1858   -538.19759    50.066056    24.914827    23.014214           90           90           90 
   12500    266.25475   -18218.156   -16187.193   -18218.156            0    8710.7891    49.853661    24.992789    23.037078            0            0            0    28703.786    9385.8494     8430.978    8315.5398    307.18988    149.08006   -126.30448    49.853661    24.992789    23.037078           90           90           90 
   13000    256.97251   -18115.413   -16155.254   -18115.413            0    8773.4223    49.968216    24.922901    23.047221            0            0            0    28701.923    7943.6762     8923.023    9453.5677   -165.95506   -312.59102   -192.68145    49.968216    24.922901    23.047221           90           90           90 
   13500    258.73002   -18233.198   -16259.633   -18233.198            0     8201.952    49.892165    24.994957    23.007126            0            0            0    28691.094    8682.7859    7271.0196    8652.0505    99.567675   -230.50046    236.13303    49.892165    24.994957    23.007126           90           90           90 
   14000    255.99984   -18254.943   -16302.204   -18254.943            0    8509.7466    50.037615    24.907045    22.999683            0            0            0    28664.255    8201.1228    9460.7069    7867.4101   -102.35481   -239.57926   -47.058839    50.037615    24.907045    22.999683           90           90           90 
   14500    254.54031   -18263.336    -16321.73   -18263.336            0    8385.4211    49.806746    24.998826    23.020753            0            0            0    28663.374    9616.1908    7268.5174    8271.5552   -405.30285    501.50314   -545.10925    49.806746    24.998826    23.020753           90           90           90 
   15000    267.55238   -18218.391    -16177.53   -18218.391            0    8648.8911     50.10493    24.961188     22.95639            0            0            0    28711.065    7667.1004    9205.5708    9074.0022   -334.66296      621.569    315.17334     50.10493    24.961188     22.95639           90           90           90 
   15500    258.53827   -18211.342   -16239.239   -18211.342            0    8016.3545    49.822159    24.999924    23.091458            0            0            0    28761.571    8693.8901    7566.6217    7788.5517    12.631713    392.38273    258.61219    49.822159    24.999924    23.091458           90           90           90 
   16000    259.72654   -18215.143   -16233.977   -18215.143            0    7786.4373    50.107254      24.9923    22.974761            0            0            0     28771.19     7783.777    7814.8041    7760.7308   -1245.8648    -853.9797    481.52435    50.107254      24.9923    22.974761           90           90           90 
   16500    263.34651   -18213.924   -16205.145   -18213.924            0    8303.7504    49.845031    24.962317    23.079205            0            0            0    28716.242    8905.8344    8736.6555    7268.7614    467.22846   -887.82427    200.82306    49.845031    24.962317    23.079205           90           90           90 
   17000    263.07312   -18239.199   -16232.505   -18239.199            0    8417.5604     49.95678    24.979652    22.971897            0            0            0    28666.699    7597.7216     8441.313    9213.6465    99.411619   -763.33731   -600.00609     49.95678    24.979652    22.971897           90           90           90 
   17500    257.42116   -18211.262   -16247.681   -18211.262            0    8626.8553    49.929521    24.952787    23.036032            0            0            0    28700.148     8838.823    8864.8334    8176.9094   -139.37565    424.68041   -20.937419    49.929521    24.952787    23.036032           90           90           90 
   18000    255.97386   -18255.224   -16302.683   -18255.224            0    8158.8688    49.970341    24.967584    22.998346            0            0            0    28693.627    8376.8005    8051.5029    8048.3031   -240.32511    202.68848    138.10272    49.970341    24.967584    22.998346           90           90           90 
   18500    257.92063   -18222.326   -16254.935   -18222.326            0    8090.2098    49.988575      24.9456    23.026122            0            0            0    28713.459    8164.6632    8329.4385    7776.5278    379.48167    -357.0337    117.59818    49.988575      24.9456    23.026122           90           90           90 
   19000     254.9795   -18187.663   -16242.707   -18187.663            0    9012.1721    49.861405    24.936621    23.049414            0            0            0    28659.065    9058.6792    9156.2228    8821.6143    42.287951    395.27992   -586.42656    49.861405    24.936621    23.049414           90           90           90 
   19500    262.66037   -18240.785    -16237.24   -18240.785            0    8245.7626    50.040021    25.041336    22.880911            0            0            0     28671.36    8429.8342    7684.9484    8622.5051   -575.51259   -129.60664    991.20859    50.040021    25.041336    22.880911           90           90           90 
   20000    253.08929   -18228.821   -16298.283   -18228.821            0    8942.8144    49.820098    24.863557    23.140391            0            0            0    28664.114    8775.4719    9369.5837    8683.3877   -578.42982    307.91496   -31.975285    49.820098    24.863557    23.140391           90           90           90 
   20500    266.14819   -18253.678   -16223.528   -18253.678            0    8788.7773    49.986923    25.023955    22.903129            0            0            0    28648.849    8220.7079    8560.5107    9585.1134   -191.83478   -257.58399    131.11185    49.986923    25.023955    22.903129           90           90           90 
   21000    256.25594   -18258.485   -16303.792   -18258.485            0    8474.4521    49.921354    24.929612    23.068651            0            0            0    28709.397    8136.1497    8585.9947    8701.2118    217.78261    -945.1751   -379.93996    49.921354    24.929612    23.068651           90           90           90 
   21500     257.5619   -18296.089   -16331.435   -18296.089            0    7983.4589    49.970304    24.984092    22.999505            0            0            0    28714.023    7940.0846    7845.1459    8165.1464    165.19109   -217.86487     28.15422    49.970304    24.984092    22.999505           90           90           90 
   22000    262.28029   -18242.459   -16241.813   -18242.459            0    8296.8049    49.981705    24.970753    22.978591            0            0            0    28679.138     8108.574     8478.919    8302.9217     174.7759    519.96596    499.56574    49.981705    24.970753    22.978591           90           90           90 
   22500    262.31689   -18241.219   -16240.294   -18241.219            0    9058.1762    49.833408    24.930208    23.078307            0            0            0    28671.501    9702.6549    9353.0399    8118.8339    578.02475    191.73759    -789.0534    49.833408    24.930208    23.078307           90           90           90 
   23000    259.09507   -18268.458   -16292.108   -18268.458            0    9168.2034    50.086074    24.949347    22.877907            0            0            0    28588.572    8849.8163     9138.029     9516.765   -466.28758    -126.2693    -532.5696    50.086074    24.949347    22.877907           90           90           90 
   23500    259.76222   -18227.058    -16245.62   -18227.058            0    9232.2846     49.69649    24.954972    23.102746            0            0            0    28651.437    11057.523    8135.7159    8503.6153    81.651426    321.95405    938.71128     49.69649    24.954972    23.102746           90           90           90 
   24000    267.56632   -18227.173   -16186.205   -18227.173            0    7953.8623    50.088115    24.974736    22.970332            0            0            0    28734.449    6761.8491    8761.3464    8338.3913   -36.278318   -25.793195   -743.90551    50.088115    24.974736    22.970332           90           90           90 
   24500    254.56635   -18188.325    -16246.52   -18188.325            0    8263.7752    49.963713    24.976969    23.016783            0            0            0    28723.612    8767.8289    8183.7314    7839.7655    56.531047   -696.13859   -60.525161    49.963713    24.976969    23.016783           90           90           90 
   25000    271.35748   -18208.134   -16138.248   -18208.134            0    7878.6851    49.960423    24.984881    23.061106            0            0            0    28786.146    7896.6157    7589.7218    8149.7176   -181.43885   -148.70145   -788.21888    49.960423    24.984881    23.061106           90           90           90 
   25500    256.89447   -18208.458   -16248.894   -18208.458            0    8405.8362    50.067339    24.992072    22.920974            0            0            0    28680.706    8657.1356    7530.3533    9030.0197    58.498958   -802.41939    2.6863141    50.067339    24.992072    22.920974           90           90           90 
   26000    267.24308   -18205.524   -16167.023   -18205.524            0    7681.6797    49.773226    24.947216    23.168683            0            0            0    28768.633      8065.35    8459.8165    6519.8727   -581.68743    36.072479   -379.24726    49.773226    24.947216    23.168683           90           90           90 
   26500    261.38626   -18306.298   -16312.472   -18306.298            0    7772.5579    50.201351    24.992613    22.882418            0            0            0    28709.722    6825.5703    7929.7049    8562.3986   -1382.8589   -269.74974    -64.98041    50.201351    24.992613    22.882418           90           90           90 
   27000    267.22646   -18252.663   -16214.288   -18252.663            0    7470.1118    49.868377    24.971469    23.108175            0            0            0    28776.301    6804.7081     8770.617    6835.0102    340.43294   -463.33654     255.5256    49.868377    24.971469    23.108175           90           90           90 
   27500    262.55256   -18237.663    -16234.94   -18237.663            0    7524.5008     50.16196    24.966954    22.981828            0            0            0    28782.243    6081.7592    8768.4334    7723.3097   -806.64347    31.003746   -283.44123     50.16196    24.966954    22.981828           90           90           90 
   28000    255.78323   -18214.368   -16263.281   -18214.368            0    7913.2481    49.850821     25.02897    23.053689            0            0            0    28764.426    8152.8727    7675.2688    7911.6029   -127.50478   -270.25431   -274.11263    49.850821     25.02897    23.053689           90           90           90 
   28500    263.33087   -18225.273   -16216.613   -18225.273            0    7582.3384    50.114273    24.929078    23.019732            0            0            0    28758.612     7037.132    7287.4707    8422.4125   -328.15002   -126.80532   -391.97208    50.114273    24.929078    23.019732           90           90           90 
   29000    252.12017   -18235.974   -16312.828   -18235.974            0    7647.4546      49.8704    25.045009    23.008591            0            0            0    28737.836    8268.9281    7886.5267     6786.909     245.7194    30.515323    225.59621      49.8704    25.045009    23.008591           90           90           90 
   29500    261.73837   -18235.563   -16239.051   -18235.563            0    7589.5698    50.141494    24.916261    23.045067            0            0            0     28791.09    6979.3208    8272.0097    7517.3789   -404.50072    -429.2022     -543.737    50.141494    24.916261    23.045067           90           90           90 
   30000    270.20442   -18182.018   -16120.928   -18182.018            0    7540.2658    49.948218    25.085806    23.008821            0            0            0    28829.853    8361.1656    6643.9205    7615.7112    312.38565   -444.86699   -369.51874    49.948218    25.085806    23.008821           90           90           90 
   30500     261.6035    -18247.31   -16251.826    -18247.31            0    7410.9286    50.078888    24.948693    23.045074            0            0            0    28792.579    7334.7064    7766.8033     7131.276    265.06858    639.56835    627.95635    50.078888    24.948693    23.045074           90           90           90 
   31000    263.28285   -18168.481   -16160.188   -18168.481            0    7765.7962    49.975857     25.05285    22.998776            0            0            0    28795.333    7932.0565    7541.4901    7823.8419   -126.38341    752.19051     39.15305    49.975857     25.05285    22.998776           90           90           90 
   31500    263.62591   -18252.299   -16241.389   -18252.299            0    7511.8276    50.098508    24.911736    23.062712            0            0            0    28783.206    7161.1357    7781.8635    7592.4836    11.049919    105.01401   -129.13566    50.098508    24.911736    23.062712           90           90           90 
   32000    268.50554    -18277.48   -16229.349    -18277.48            0      7676.28    49.909658    25.041141    22.984516            0            0            0    28725.928     8560.632    6515.7354    7952.4727    358.58471    433.21303   -359.98364    49.909658    25.041141    22.984516           90           90           90 
   32500    267.61011   -18232.872    -16191.57   -18232.872            0    8545.2661    50.091906      24.9017    22.989235            0            0            0    28676.166    8915.0821    8880.6538    7840.0623    526.63022   -164.16845    495.58911    50.091906      24.9017    22.989235           90           90           90 
   33000    262.00451   -18169.834   -16171.292   -18169.834            0    9261.4434    49.774619    24.994729    23.026668            0            0            0     28647.55    9892.6456    8827.6701    9064.0144    15.261043    1121.4766    8.8148003    49.774619    24.994729    23.026668           90           90           90 
   33500    256.16757   -18258.896   -16304.877   -18258.896            0    8817.3154    50.071088    24.888899    22.938163            0            0            0    28585.866    8487.2641    9257.9034    8706.7786    235.84668    163.35347    530.19353    50.071088    24.888899    22.938163           90           90           90 
   34000    252.99515   -18222.292   -16292.472   -18222.292            0    9404.4115    49.731435    24.953522    23.041298            0            0            0    28593.662      9265.08    9588.5751    9359.5793   -309.21214   -977.01473   -544.32295    49.731435    24.953522    23.041298           90           90           90 
   34500    256.58034   -18264.462   -16307.295   -18264.462            0    8733.0652    50.049657    24.922832    22.974857            0            0            0    28658.359    8815.4379    8836.0878    8547.6701    271.47595    426.78027   -62.740321    50.049657    24.922832    22.974857           90           90           90 
   35000    261.59814    -18256.36   -16260.918    -18256.36            0    8098.8752     49.86223    25.001756     23.03736            0            0            0    28719.371    8823.6732    7900.6939    7572.2586   -222.36785    1179.3581   -720.78922     49.86223    25.001756     23.03736           90           90           90 
   35500    256.32902    -18157.53    -16202.28    -18157.53            0    8942.7216     49.94233    24.895112    23.037023            0            0            0    28642.388    8469.1326    9678.4199    8680.6123    197.33027     386.4638    -20.97331     49.94233    24.895112    23.037023           90           90           90 
   36000    260.32065   -18262.083   -16276.385   -18262.083            0    9194.3441    49.809146    25.005198    22.913428            0            0            0     28538.39     9947.116    7780.3623    9855.5539   -254.98294     -259.518    -25.98378    49.809146    25.005198    22.913428           90           90           90 
   36500    266.34365   -18277.777   -16246.137   -18277.777            0    8611.0033    49.990887    24.818119    23.055717            0            0            0    28604.762    8452.7093    9211.7281    8168.5726    137.31626   -238.22857   -373.67577    49.990887    24.818119    23.055717           90           90           90 
   37000     262.8832     -18248.8   -16243.555     -18248.8            0    8593.3114     49.89524    25.017483    22.930126            0            0            0    28622.607     8722.557    8498.1316    8559.2456    538.86955    89.798205    683.84903     49.89524    25.017483    22.930126           90           90           90 
   37500    253.71424   -18179.011   -16243.705   -18179.011            0    8500.0052    49.962245    24.912609    23.065064            0            0            0    28708.851    8334.0519    8612.7861    8553.1775   -402.03126   -219.01999    482.09726    49.962245    24.912609    23.065064           90           90           90 
   38000    260.73512   -18176.408   -16187.548   -18176.408            0    8463.5146    49.937334    25.003508    23.000798            0            0            0    28718.993     8029.262    8348.6342    9012.6477     255.5186    216.71128    286.81419    49.937334    25.003508    23.000798           90           90           90 
   38500    261.23385   -18222.326   -16229.662   -18222.326            0    8206.0402    50.121065    24.923283    22.977599            0            0            0    28703.192    7884.0766    8204.5232    8529.5207   -682.54884   -314.41683    671.52535    50.121065    24.923283    22.977599           90           90           90 
   39000    262.05408   -18253.358   -16254.438   -18253.358            0    8318.5347    49.605401    24.953898    23.187081            0            0            0    28702.084    9376.8721    8047.9623    7530.7695   -134.93219   -241.83657    972.91117    49.605401    24.953898    23.187081           90           90           90 
   39500    268.75218   -18208.884   -16158.871   -18208.884            0      8205.92    50.253227    24.984133    22.879566            0            0            0    28726.057    6944.6323    7967.5114    9705.6163    49.561445    264.26278   -958.17064    50.253227    24.984133    22.879566           90           90           90 
   40000    262.10237   -18266.442   -16267.153   -18266.442            0     7986.044    49.858745    24.957768      23.0982            0            0            0    28742.545    8791.0998    7362.6768    7804.3553   -492.59321    855.27641    97.867419    49.858745    24.957768      23.0982           90           90           90 
   40500     259.3655   -18238.412   -16259.999   -18238.412            0    8551.6837    49.981554    24.985074    22.948175            0            0            0    28657.517    9059.5929    7629.0517    8966.4066   -199.93584    129.21515    590.25219    49.981554    24.985074    22.948175           90           90           90 
   41000    257.37487   -18276.491   -16313.263   -18276.491            0    8410.0687    49.924674    24.953543    22.998923            0            0            0    28652.002     8278.979    8763.1189    8188.1083   -1099.4104    132.27576   -80.122022    49.924674    24.953543    22.998923           90           90           90 
   41500    257.61154   -18202.744   -16237.711   -18202.744            0    8173.7385    49.969498    24.955271    23.031418            0            0            0    28720.231    7398.2381    9389.4844    7733.4929   -319.07789   -136.54865    198.31064    49.969498    24.955271    23.031418           90           90           90 
   42000    265.51981   -18254.819   -16229.462   -18254.819            0    7977.7716    50.020668    25.010163    22.973555            0            0            0    28740.493    8216.4062    7975.4618    7741.4468   -591.07753   -455.03503    84.827668    50.020668    25.010163    22.973555           90           90           90 
   42500    261.10007   -18264.313   -16272.669   -18264.313            0    7358.4588    49.913538     24.88282    23.185227            0            0            0     28795.81    8037.5965    7482.5813    6555.1986   -225.50542    674.17478   -122.82232    49.913538     24.88282    23.185227           90           90           90 
   43000    255.57118   -18206.079    -16256.61   -18206.079            0    7712.7814    50.116901    25.094085    22.895138            0            0            0     28793.79    7350.8506    6834.1949    8953.2986   -574.24749   -222.16892   -118.43603    50.116901    25.094085    22.895138           90           90           90 
   43500     259.9174   -18201.743   -16219.121   -18201.743            0    7383.3776    49.985345    24.929253     23.12078            0            0            0    28810.742    8003.7256    7701.6503    6444.7569    214.00593    399.44096   -249.50546    49.985345    24.929253     23.12078           90           90           90 
   44000    253.93974   -18232.373   -16295.348   -18232.373            0     7920.384    49.953964    25.004017    22.989481            0            0            0    28715.005    7906.0446    7278.4854    8576.6221   -602.12078   -334.08559   -235.45865    49.953964    25.004017    22.989481           90           90           90 
   44500     263.2539   -18234.621   -16226.548   -18234.621            0    8066.8575    50.006775    24.995047    22.977309            0            0            0    28719.837    8464.5025    7631.6218    8104.4481     882.5378   -435.71018   -1062.3083    50.006775    24.995047    22.977309           90           90           90 
   45000    257.50074   -18263.404   -16299.216   -18263.404            0    8679.2707    49.940907      24.9355    23.020149            0            0            0    28667.026    9243.2833    8274.9176    8519.6113   -377.86004   -70.381569    199.09234    49.940907      24.9355    23.020149           90           90           90 
   45500    261.01568   -18279.738   -16288.738   -18279.738            0    8540.7633     49.95209    24.974498    22.971276            0            0            0    28657.318    8584.3412    7781.6694    9256.2794    200.62795    984.12706    379.19032     49.95209    24.974498    22.971276           90           90           90 
   46000    256.31636   -18159.189   -16204.036   -18159.189            0    8867.6367    49.937186     24.94015    23.039944            0            0            0    28694.888    9047.3182    9114.5567    8441.0354    -525.1964    489.42752   -574.11251    49.937186     24.94015    23.039944           90           90           90 
   46500    262.84274   -18190.224   -16185.288   -18190.224            0    9166.0851    49.969528    24.972708    22.951737            0            0            0    28640.886    8767.2611    9472.1209    9258.8732    1212.1837   -533.87149   -681.55145    49.969528    24.972708    22.951737           90           90           90 
   47000    266.25744   -18260.294    -16229.31   -18260.294            0    8230.7498    49.828902    24.931609    23.079108            0            0            0    28671.515    8909.3743    8617.8245    7165.0505   -316.67954   -37.984658   -1036.1813    49.828902    24.931609    23.079108           90           90           90 
   47500    264.84835   -18204.871   -16184.636   -18204.871            0    8786.9881    49.954159    24.981282     22.95912            0            0            0     28651.12    9033.3339    8502.3029    8825.3273    277.25131    343.95013    191.80563    49.954159    24.981282     22.95912           90           90           90 
   48000    255.79197     -18224.6   -16273.447     -18224.6            0    8714.4232    49.950016    24.969956    22.976381            0            0            0    28657.286    8945.1901    8212.6106    8985.4688    662.42549   -217.24756   -153.42951    49.950016    24.969956    22.976381           90           90           90 
   48500    264.71365   -18230.705   -16211.497   -18230.705            0    8865.1254    49.913429    24.935783    23.041514            0            0            0    28678.171    8458.0972    9078.1679    9059.1112   -383.13518    16.924294    84.510122    49.913429    24.935783    23.041514           90           90           90 
   49000    269.82025   -18230.979   -16172.819   -18230.979            0    8209.3856    49.983919    24.975611    23.012033            0            0            0    28727.736    7907.3884    8582.7799    8137.9884   -169.93969    162.84852    682.67515    49.983919    24.975611    23.012033           90           90           90 
   49500    268.49799   -18189.474     -16141.4   -18189.474            0    7951.9577    49.996563    24.972298    23.073983            0            0            0    28808.538    7634.7093    8219.2206    8001.9431    708.54697    109.13144    881.80754    49.996563    24.972298    23.073983           90           90           90 
   50000    257.53979   -18181.598   -16217.112   -18181.598            0    7852.8226    49.971926    25.028446    23.008103            0            0            0    28776.687    8182.7096    7718.5886    7657.1696    574.58963   -34.600678   -580.29406    49.971926    25.028446    23.008103           90           90           90 
   50500    259.41955   -18239.959   -16261.134   -18239.959            0    7095.7872    50.010035    24.915993    23.118733            0            0            0    28807.091    7277.2632    7655.6377    6354.4608   -492.81878   -26.742822     921.0049    50.010035    24.915993    23.118733           90           90           90 
   51000    264.13842   -18180.571   -16165.751   -18180.571            0    7581.2348    50.159349    25.096782    22.884905            0            0            0    28808.394    7097.5656    7491.4582    8154.6808   -199.29386    -17.22171    670.97903    50.159349    25.096782    22.884905           90           90           90 
   51500    258.98771   -18193.723   -16218.193   -18193.723            0    8027.9622    49.897363    24.884658    23.159121            0            0            0     28756.19     8295.624    8627.7114    7160.5512    397.40524   -372.68085   -370.97916    49.897363    24.884658    23.159121           90           90           90 
   52000    262.30781   -18249.127   -16248.271   -18249.127            0    8087.1737    50.049828    24.986053    22.943331            0            0            0    28691.729    7820.4807    7791.6826    8649.3577    53.961946    431.48829   -28.601407    50.049828    24.986053    22.943331           90           90           90 
   52500    258.03287   -18178.136   -16209.889   -18178.136            0    8020.7372    49.880556    24.974539    23.067953            0            0            0    28736.761    8786.7461    8071.4019    7204.0635     295.5473     205.8477     424.3013    49.880556    24.974539    23.067953           90           90           90 
   53000    253.91686   -18196.273   -16259.422   -18196.273            0    8184.2099    49.977328    24.993167    22.986818            0            0            0    28712.644    8475.5193    7830.0794     8247.031   -335.15191   -540.48927     299.6651    49.977328    24.993167    22.986818           90           90           90 
   53500    258.12324   -18220.894   -16251.957   -18220.894            0    8485.6365    49.999146    25.004087    22.960002            0            0            0    28704.204      8569.69    8768.0938    8119.1257    649.86355    7.2805592    254.50945    49.999146    25.004087    22.960002           90           90           90 
   54000    265.80561   -18220.636     -16193.1   -18220.636            0    8290.4745    49.872265    24.881781    23.149655            0            0            0    28726.657    8644.0603    8749.4746    7477.8885   -417.35999   -503.32216   -638.68957    49.872265    24.881781    23.149655           90           90           90 
   54500    258.54491    -18284.81   -16312.657    -18284.81            0    7935.6073    50.044292    25.061387    22.855522            0            0            0    28664.924    7941.7403    6925.6666    8939.4151   -223.95993   -499.65853   -627.05223    50.044292    25.061387    22.855522           90           90           90 
   55000    264.75143     -18188.9   -16169.404     -18188.9            0    8443.2057    49.892003    24.885395    23.124285            0            0            0    28710.701    9328.5785    8494.2319    7506.8066    -324.6049    343.69985   -136.15423    49.892003    24.885395    23.124285           90           90           90 
   55500    258.45803   -18236.782   -16265.292   -18236.782            0    8246.4833    49.934399    25.040998    22.942951            0            0            0    28688.031    7691.5144    8262.3309    8785.6046   -294.81506    266.06283    133.97544    49.934399    25.040998    22.942951           90           90           90 
   56000    254.88255   -18136.013   -16191.796   -18136.013            0     7913.372    50.077836    24.948698    23.044094            0            0            0    28790.756    8071.0924    7777.7045    7891.3193     240.5745    2.7958262   -623.17742    50.077836    24.948698    23.044094           90           90           90 
   56500    259.33407   -18225.233    -16247.06   -18225.233            0    7350.1556     49.90863    25.000896    23.091495            0            0            0    28812.654    6967.9521     8007.307    7075.2077    -608.5886   -689.98771    -467.4516     49.90863    25.000896    23.091495           90           90           90 
   57000    256.26046   -18271.569   -16316.841   -18271.569            0    6887.9006     50.23943    25.006587    22.909871            0            0            0    28782.053    6261.9951    6776.6546    7625.0521   -34.735647    311.75008   -673.24785     50.23943    25.006587    22.909871           90           90           90 
   57500    262.91825   -18244.888   -16239.376   -18244.888            0    7306.7695    49.846709    24.973924    23.139973            0            0            0     28806.21     7429.486    7329.0341    7161.7885    553.45901    72.207077     362.2961    49.846709    24.973924    23.139973           90           90           90 
   58000    261.81032   -18261.979   -16264.918   -18261.979            0    7356.0421    50.155034    24.995423    22.977672            0            0            0    28805.873    6921.5188     7586.307    7560.3005   -281.60274   -115.29018    233.61289    50.155034    24.995423    22.977672           90           90           90 
   58500    262.84496   -18174.694   -16169.741   -18174.694            0    7505.2944    49.993904    24.995274    23.063811            0            0            0      28820.8    7030.2312    8092.1687    7393.4834    127.39873      421.798    575.85228    49.993904    24.995274    23.063811           90           90           90 
   59000    254.88276   -18200.141   -16255.922   -18200.141            0    7817.3456    50.006216    24.975799    23.026946            0            0            0    28759.395    7469.2865    8007.4594     7975.291    800.06766   -610.33031    149.72544    50.006216    24.975799    23.026946           90           90           90 
   59500    260.13752   -18176.256   -16191.955   -18176.256            0    8118.4352    49.976184    24.986595    23.026705            0            0            0    28754.244    7673.4076    8045.9258    8635.9721    208.07967   -368.09591    459.61958    49.976184    24.986595    23.026705           90           90           90 
   60000     260.9227   -18232.319   -16242.029   -18232.319            0    7719.3927    50.110659    24.933131    23.055928            0            0            0    28806.437    7181.8776    8054.8451    7921.4554    16.185158    43.734578    285.45109    50.110659    24.933131    23.055928           90           90           90 
   60500    261.35462   -18251.131   -16257.546   -18251.131            0    8083.2428    49.866187    25.107721    22.960836            0            0            0    28747.571    8916.2593    6999.4951    8333.9738    169.39282    38.737781    -184.7471    49.866187    25.107721    22.960836           90           90           90 
   61000    257.57505   -18228.779   -16264.024   -18228.779            0    7450.9934    50.173994    24.868913    23.098135            0            0            0    28821.221    7132.4425    8453.0808     6767.457    636.09368   -213.22991    649.64607    50.173994    24.868913    23.098135           90           90           90 
   61500    260.95302   -18168.899   -16178.377   -18168.899            0    7913.0378    49.906367    25.063649    23.004584            0            0            0    28774.953    8711.4861    6998.8677    8028.7597    26.923881   -756.96422   -518.63113    49.906367    25.063649    23.004584           90           90           90 
   62000    259.72416   -18184.496   -16203.348   -18184.496            0    7210.6451    50.157886      24.9082    23.106171            0            0            0    28867.524    7191.0978    7927.7707    6513.0668   -359.71779    459.61046    346.17623    50.157886      24.9082    23.106171           90           90           90 
   62500    260.41512   -18267.756   -16281.338   -18267.756            0    6892.3954    49.966873    25.104717    23.009757            0            0            0    28863.536     6977.778    6190.3206    7509.0876    541.99662   -173.00139   -73.734752    49.966873    25.104717    23.009757           90           90           90 
   63000    262.42789   -18135.269   -16133.497   -18135.269            0    7538.6677    50.127328    24.965697     23.06007            0            0            0    28858.841    7342.7364     8328.099    6945.1676   -893.52056   -33.491699   -139.26913    50.127328    24.965697     23.06007           90           90           90 
   63500    256.53147   -18208.888   -16252.094   -18208.888            0    7617.0087    49.881429    25.035584    23.064687            0            0            0    28803.428    8206.1041    6746.4795    7898.4425    43.751131   -170.40135    790.58329    49.881429    25.035584    23.064687           90           90           90 
   64000    264.16853   -18189.261   -16174.212   -18189.261            0    8040.2814     50.04977    24.925762    23.029898            0            0            0    28730.458    7760.3503    8511.3995    7849.0945    473.00744     579.7755    -23.48152     50.04977    24.925762    23.029898           90           90           90 
   64500    258.97472   -18289.646   -16314.214   -18289.646            0    8063.6864    49.845158    25.030507     22.99112            0            0            0    28684.861    9021.0108    7633.9761    7536.0722    136.09577   -309.37459   -754.72099    49.845158    25.030507     22.99112           90           90           90 
   65000    256.31706   -18279.259     -16324.1   -18279.259            0    8613.0067    50.002447    24.912892    22.970847            0            0            0    28614.912    8171.8686    9009.3426    8657.8089   -46.965718   -37.768589     577.0327    50.002447    24.912892    22.970847           90           90           90 
   65500     254.8339   -18216.643   -16272.798   -18216.643            0    9154.2514    49.814114    24.969283    23.015958            0            0            0    28627.772    9812.2347    9099.4038    8551.1158    230.73943    214.54256   -270.33632    49.814114    24.969283    23.015958           90           90           90 
   66000     265.7305   -18195.052   -16168.088   -18195.052            0    8054.5639    50.030228    24.958563    23.016301            0            0            0    28740.055    7620.6197    8929.3652    7613.7069    551.65964    22.292779    612.29734    50.030228    24.958563    23.016301           90           90           90 
   66500    263.55681   -18176.628   -16166.245   -18176.628            0    8390.9708    49.948262    24.937296    23.064845            0            0            0    28728.984    8786.5558    8541.2411    7845.1154    507.35836    6.6346705   -79.554875    49.948262    24.937296    23.064845           90           90           90 
   67000    256.81261   -18242.869    -16283.93   -18242.869            0    7738.0075     50.09019    24.967969    22.953612            0            0            0    28706.941    7554.7684    8363.5926    7295.6616   -834.07099     216.4015    523.92215     50.09019    24.967969    22.953612           90           90           90 
   67500    258.86554   -18252.657   -16278.058   -18252.657            0    8596.8943    49.806934    24.937441    23.087316            0            0            0    28675.773    8935.6031    8687.4616    8167.6182   -388.07525   -145.70565    734.03917    49.806934    24.937441    23.087316           90           90           90 
   68000     257.3928   -18265.457   -16302.092   -18265.457            0    8432.9966    50.156089    24.961273    22.891276            0            0            0    28658.958    7778.0634     9399.965    8120.9613    322.18755    97.186906   -747.85046    50.156089    24.961273    22.891276           90           90           90 
   68500    261.86162   -18185.706   -16188.254   -18185.706            0    8569.9329    49.848737    24.961188    23.085062            0            0            0    28724.366    8982.9416    8770.6544    7956.2028    625.41651   -494.18945   -304.32784    49.848737    24.961188    23.085062           90           90           90 
   69000     257.3008   -18278.238   -16315.575   -18278.238            0    8547.4568    49.928933    24.888415    23.034286            0            0            0    28623.602    8702.5054    8968.2626    7971.6025   -132.36555    535.61704    52.623938    49.928933    24.888415    23.034286           90           90           90 
   69500    252.40896   -18190.729   -16265.381   -18190.729            0    9004.7799    49.943512    24.985537    22.947734            0            0            0    28635.685     9099.412    8537.4966    9377.4312    944.82156    597.58745     217.1503    49.943512    24.985537    22.947734           90           90           90 
   70000     260.8036   -18237.087   -16247.705   -18237.087            0    7903.3159    49.905317    24.955252    23.063437            0            0            0    28723.198    8372.0108    8191.2226    7146.7142   -293.43072    632.90448    116.25981    49.905317    24.955252    23.063437           90           90           90 
   70500    257.81124   -18249.037   -16282.481   -18249.037            0    7978.1791    49.981817    25.017788    23.001357            0            0            0     28761.69    7960.7932    7939.1908    8034.5532    632.91032    434.42577    29.723565    49.981817    25.017788    23.001357           90           90           90 
   71000    252.42618   -18239.506   -16314.026   -18239.506            0    7294.5912    50.041559    24.985521    23.028293            0            0            0    28792.607    7419.5508    7228.9837    7235.2391    175.68732    -778.6039   -310.36252    50.041559    24.985521    23.028293           90           90           90 
   71500     256.9995   -18202.847   -16242.483   -18202.847            0    7634.8167    49.996043    24.999175    23.049482            0            0            0    28808.621    7824.7921    7304.1478      7775.51    791.68386    877.27364    7.3553991    49.996043    24.999175    23.049482           90           90           90 
   72000    268.26958   -18176.963   -16130.632   -18176.963            0    7017.5002     50.13637    25.037032    22.996131            0            0            0    28866.259    7350.7712    6588.9498    7112.7796    422.84233   -743.00747     883.7901     50.13637    25.037032    22.996131           90           90           90 
   72500    253.73509    -18207.55   -16272.086    -18207.55            0    8477.5363    49.889564    24.923651    23.101106            0            0            0     28724.61    8808.8954    8638.0525    7985.6611   -116.54514    304.50428   -638.71873    49.889564    24.923651    23.101106           90           90           90 
   73000    260.60922   -18251.252   -16263.353   -18251.252            0    8126.5769    50.071715    24.993093    22.933687            0            0            0    28700.295    8126.8658    8046.2463    8206.6188    315.65265   -984.44684    1083.5026    50.071715    24.993093    22.933687           90           90           90 
   73500    265.26286   -18187.315   -16163.918   -18187.315            0    7998.6797    49.933294    24.964905    23.067262            0            0            0    28755.186    7538.9076    8427.9353     8029.196    292.58352   -161.81607    129.85981    49.933294    24.964905    23.067262           90           90           90 
   74000    263.74995   -18228.303   -16216.447   -18228.303            0    8126.9376    50.042893    24.951039    23.006197            0            0            0    28726.048    7906.9335    7305.9659    9167.9135    303.11721    642.33701   -173.52644    50.042893    24.951039    23.006197           90           90           90 
   74500    261.09496   -18211.475    -16219.87   -18211.475            0    8047.1223     49.97452    24.975005    23.033996            0            0            0     28749.05    8574.9663    7383.3714    8183.0291     280.3747       296.26    577.74562     49.97452    24.975005    23.033996           90           90           90 
   75000    258.47762   -18197.484   -16225.845   -18197.484            0    8106.5574    49.980505    25.019375    23.012957            0            0            0    28777.266    8304.6133    7485.8131    8529.2458   -96.330407    461.22138   -921.46633    49.980505    25.019375    23.012957           90           90           90 
   75500    259.96546   -18219.476   -16236.488   -18219.476            0    7956.5966    50.101956    24.999457    22.991244            0            0            0    28797.032    7799.3795    8269.9913     7800.419    348.01269   -320.02656   -25.869789    50.101956    24.999457    22.991244           90           90           90 
   76000    255.09449   -18220.507   -16274.674   -18220.507            0    7436.1604     49.88849    24.982029    23.106873            0            0            0    28798.459     7810.559    8213.0309    6284.8912    253.72127    295.50461    785.10958     49.88849    24.982029    23.106873           90           90           90 
   76500    253.11157   -18322.565   -16391.857   -18322.565            0    7639.9924    50.082499    24.994167    22.917295            0            0            0    28687.191    8219.9745     7164.692    7535.3108   -4.2122226   -1221.1282   -297.03115    50.082499    24.994167    22.917295           90           90           90 
   77000    258.23169   -18280.416   -16310.653   -18280.416            0    7853.9902    49.968006    24.914586     23.07807            0            0            0    28730.632    7385.3722    8522.8971    7653.7012    593.45196    263.16826    938.34124    49.968006    24.914586     23.07807           90           90           90 
   77500    263.35831   -18253.824   -16244.955   -18253.824            0    8353.1289    49.960332    25.005761    22.984174            0            0            0     28714.04    8777.9965    7755.8351    8525.5551   -136.96179   -9.5070501   -759.36351    49.960332    25.005761    22.984174           90           90           90 
   78000    261.18054   -18143.423   -16151.166   -18143.423            0    8730.5135    50.090661    24.900386    23.022468            0            0            0    28715.389    7904.1567    9737.7163    8549.6675    234.33708   -229.11993    238.59652    50.090661    24.900386    23.022468           90           90           90 
   78500    252.69738   -18227.285   -16299.737   -18227.285            0    8512.9349    49.851113    25.009225    23.001023            0            0            0    28676.242    9272.5179     7728.445    8537.8419    436.88209   -487.25092   -853.13635    49.851113    25.009225    23.001023           90           90           90 
   79000    251.05581   -18220.048   -16305.021   -18220.048            0    8741.9536    50.044973    24.902396     22.98566            0            0            0    28645.642    8326.6077    9614.1985    8285.0547    402.90686    14.797001   -276.51567    50.044973    24.902396     22.98566           90           90           90 
   79500    261.86559   -18239.289   -16241.807   -18239.289            0    8093.4879    49.910817    24.990413    23.021153            0            0            0    28714.098    9214.0155    7528.1057    7538.3424   -492.94357   -137.42473    245.08515    49.910817    24.990413    23.021153           90           90           90 
   80000    262.20094   -18228.803   -16228.762   -18228.803            0    7763.7074    49.980827    24.933722    23.046408            0            0            0    28720.619     8001.234    8321.2584    6968.6298     -225.253     402.2645    512.99452    49.980827    24.933722    23.046408           90           90           90 
   80500    256.63053   -18211.594   -16254.044   -18211.594            0     8675.726    50.001831    25.002331    22.952827            0            0            0     28694.76    8581.8255    8250.0947    9195.2578    623.40044    512.91802   -218.26059    50.001831    25.002331    22.952827           90           90           90 
   81000    253.89477    -18223.65   -16286.968    -18223.65            0    8208.2521    49.925412    24.937258     23.06805            0            0            0    28719.789    8043.0598    8443.6985    8137.9979    293.02489   -325.77763     566.0851    49.925412    24.937258     23.06805           90           90           90 
   81500     259.0345   -18255.499   -16279.611   -18255.499            0    8566.0971    50.010917    24.999691    22.945628            0            0            0    28687.942    8873.6085     7773.019    9051.6637   -795.15691    27.219548     831.2545    50.010917    24.999691    22.945628           90           90           90 
   82000    257.40774   -18235.251   -16271.772   -18235.251            0    8624.4031    49.923896    24.944012    23.008066            0            0            0    28651.997    8470.6431    8677.9374    8724.6289   -939.13412   -40.790815   -109.38712    49.923896    24.944012    23.008066           90           90           90 
   82500    262.33056   -18144.566   -16143.537   -18144.566            0     8486.711    49.829528    24.943475    23.098616            0            0            0    28709.769    9302.5014       8131.6    8026.0318    -344.7913   -410.79492    363.61814    49.829528    24.943475    23.098616           90           90           90 
   83000    262.97988   -18228.285   -16222.303   -18228.285            0    8686.7503    50.075636    25.001726    22.910438            0            0            0    28683.348    8455.5528    8123.4886    9481.2094    -226.7398    64.026216    -316.0705    50.075636    25.001726    22.910438           90           90           90 
   83500    261.73286   -18255.936   -16259.465   -18255.936            0    7964.4026    49.894438    24.944061    23.063771            0            0            0    28704.475    8157.1593     8318.199    7417.8495    440.70178    257.10588    11.653671    49.894438    24.944061    23.063771           90           90           90 
   84000    261.25513    -18186.85   -16194.024    -18186.85            0    8232.7267    49.981774    25.009833     22.97528            0            0            0    28719.923    7810.4174    8173.4385    8714.3243   -300.34406    -260.5324    -11.84182    49.981774    25.009833     22.97528           90           90           90 
   84500    255.31208   -18257.555   -16310.062   -18257.555            0    7845.6773    49.943055    24.959319    23.047746            0            0            0    28730.044    7998.0665    8017.2168    7521.7487    186.51943    155.68136    498.81559    49.943055    24.959319    23.047746           90           90           90 
   85000     261.6006   -18256.606   -16261.145   -18256.606            0    8003.8334    49.993647    24.996456    22.998764            0            0            0    28740.728    7713.5751    8560.8746    7737.0506   -397.49045   -318.48542    448.50232    49.993647    24.996456    22.998764           90           90           90 
   85500    254.94112   -18163.512   -16218.848   -18163.512            0    7773.1609    50.075863     24.98858    22.999493            0            0            0    28779.833    7306.8067    7839.2546    8173.4213   -283.41688    244.07157   -166.83402    50.075863     24.98858    22.999493           90           90           90 
   86000    255.77317   -18183.135   -16232.125   -18183.135            0     8140.739    49.921494    24.938507     23.11357            0            0            0    28775.644    8022.6436    8794.8018    7604.7717    59.906728    146.80796    285.15044    49.921494    24.938507     23.11357           90           90           90 
   86500    257.10868   -18277.672   -16316.475   -18277.672            0    7431.7125    50.050628    25.051385    22.953313            0            0            0    28779.726    7480.8897    6700.0868     8114.161    123.75061   -307.13647    71.726725    50.050628    25.051385    22.953313           90           90           90 
   87000    255.82242   -18197.144   -16245.758   -18197.144            0    7720.2947    50.027222    24.938121    23.062214            0            0            0    28772.071    7619.6863    7997.7006    7543.4972   -340.41233    1008.4706   -268.87652    50.027222    24.938121    23.062214           90           90           90 
   87500    255.38863   -18215.101   -16267.024   -18215.101            0    7564.8886     49.96613     25.02615    23.030106            0            0            0    28798.223    8215.5671    6780.5494    7698.5493    247.01122    265.58912   -297.71919     49.96613     25.02615    23.030106           90           90           90 
   88000     261.2745   -18215.888   -16222.914   -18215.888            0     7349.223    50.111004    24.958578    23.042485            0            0            0    28819.223    7434.2199    7220.7334    7392.7155    1078.5455    1088.2161    481.30737    50.111004    24.958578    23.042485           90           90           90 
   88500    254.96733   -18197.828   -16252.965   -18197.828            0    7217.2175    49.920623    25.077672    23.042132            0            0            0    28846.283    7029.2089    6949.5168    7672.9268   -356.07145   -355.25138    798.14337    49.920623    25.077672    23.042132           90           90           90 
   89000    244.97491   -18231.404   -16362.761   -18231.404            0    6565.8773    50.259307    24.954282    23.053483            0            0            0    28913.332    5398.2555    7130.1244     7169.252   -176.83464    727.02567   -101.66603    50.259307    24.954282    23.053483           90           90           90 
   89500     253.8841   -18292.407   -16355.806   -18292.407            0    6143.6849    49.950339    25.109593    23.048389            0            0            0    28908.044    7090.0774    5019.9477    6321.0296    298.89598   -241.79308    365.13115    49.950339    25.109593    23.048389           90           90           90 
   90000    256.25566   -18280.524   -16325.833   -18280.524            0    6989.3661    50.041895    24.981895    23.061941            0            0            0    28830.686    6858.1659    7222.3745    6887.5579   -185.65439     332.4189   -170.47728    50.041895    24.981895    23.061941           90           90           90 
   90500    263.14232   -18236.281   -16229.059   -18236.281            0     7252.229    49.965292    25.037475    23.034827            0            0            0    28816.679    8126.9666    6717.3913    6912.3291    142.24295    1341.9845    277.38456    49.965292    25.037475    23.034827           90           90           90 
   91000      258.658   -18250.861   -16277.846   -18250.861            0    7313.0168    50.119133    24.963071    23.013394            0            0            0     28792.69    6846.0264    7489.1148    7603.9094    568.73157    150.79054   -508.87973    50.119133    24.963071    23.013394           90           90           90 
   91500    261.97925   -18294.946   -16296.597   -18294.946            0    7358.6479    49.901741    25.015546    23.059049            0            0            0    28785.057    7886.5975    7443.1236    6746.2225    495.31224   -179.44055   -213.93224    49.901741    25.015546    23.059049           90           90           90 
   92000     264.0193   -18225.279   -16211.368   -18225.279            0    7314.3439     50.15283    24.919799    23.060352            0            0            0    28820.792    6534.2796    7890.7513     7518.001   -23.419745    90.458113    516.53407     50.15283    24.919799    23.060352           90           90           90 
   92500    255.55766   -18222.842   -16273.476   -18222.842            0     8181.867    49.851544    25.058274    23.007878            0            0            0    28741.295    7349.9931     8253.047    8942.5611    237.09684   -240.60543   -419.71066    49.851544    25.058274    23.007878           90           90           90 
   93000    264.40911   -18257.138   -16240.254   -18257.138            0    7065.0305    50.155855    24.907185    23.070077            0            0            0     28820.09     6756.218    7149.1404    7289.7331    72.474533    860.89031    -525.8935    50.155855    24.907185    23.070077           90           90           90 
   93500    250.89226   -18230.781   -16317.002   -18230.781            0    7551.3241    49.960977    25.072043    22.969816            0            0            0    28772.537    8025.2152     6604.528    8024.2291    221.53649     325.1816    168.00911    49.960977    25.072043    22.969816           90           90           90 
   94000    258.53123   -18230.353   -16258.304   -18230.353            0     7069.524    50.094285    24.970026    23.073328            0            0            0    28861.402    6351.7468    7466.9012    7389.9239    245.99624    298.65041    508.29843    50.094285    24.970026    23.073328           90           90           90 
   94500    261.26361   -18248.732   -16255.841   -18248.732            0    7568.7665    49.992668    25.030218    22.999525            0            0            0    28779.936    7439.2296    7336.6869     7930.383    281.12984   -989.64481    691.80967    49.992668    25.030218    22.999525           90           90           90 
   95000    263.88704   -18256.067   -16243.165   -18256.067            0    8100.0357    50.009726    24.947871    23.040153            0            0            0    28745.729    7429.3717    8696.6465    8174.0889   -101.10652    65.711512   -84.913317    50.009726    24.947871    23.040153           90           90           90 
   95500    263.06284   -18263.354   -16256.738   -18263.354            0    7860.8796    49.945101     24.97903    23.025845            0            0            0    28726.588    7123.1651    8813.6317    7645.8422   -478.00406    377.68087    393.68317    49.945101     24.97903    23.025845           90           90           90 
   96000    256.74058   -18248.743   -16290.353   -18248.743            0    7818.6799    49.974699    24.987406    22.998533            0            0            0    28719.144    6627.1811    8386.5826    8442.2759   -529.43156   -529.92565    364.83446    49.974699    24.987406    22.998533           90           90           90 
   96500    253.29125   -18243.875   -16311.796   -18243.875            0    7648.1356    49.926174    24.941041    23.117547            0            0            0    28786.217    7721.7768    7945.5814    7277.0486    267.45702    312.79108    218.35833    49.926174    24.941041    23.117547           90           90           90 
   97000    257.61045   -18214.301   -16249.276   -18214.301            0    7576.1611     50.22551    25.097718    22.825812            0            0            0    28772.978    7183.8495     6065.252    9479.3819   -77.253844    521.45117   -602.85728     50.22551    25.097718    22.825812           90           90           90 
   97500    259.33951   -18242.151   -16263.937   -18242.151            0    7109.6405    49.914931     24.94424    23.155546            0            0            0    28830.738    7212.2808    7308.6631    6807.9776    -30.18342   -579.36489    648.52523    49.914931     24.94424    23.155546           90           90           90 
   98000    263.25704   -18247.736    -16239.64   -18247.736            0    7706.4878    50.021105    24.996128    23.019523            0            0            0    28782.091    7413.3336    7895.0622    7811.0676    16.193278   -7.4102982   -21.410756    50.021105    24.996128    23.019523           90           90           90 
   98500     256.0953   -18242.755   -16289.288   -18242.755            0    7283.4131    50.048718    24.991635    23.028834            0            0            0    28804.449    6776.2262    7984.2031      7089.81   -424.92305   -100.57288   -241.43382    50.048718    24.991635    23.028834           90           90           90 
   99000    257.05933   -18169.761    -16208.94   -18169.761            0    7596.1938    49.991806    24.974183    23.078153            0            0            0    28813.178     8197.425    7147.0291    7444.1274   -30.211608      316.165   -190.16135    49.991806    24.974183    23.078153           90           90           90 
   99500    258.15588   -18170.994   -16201.808   -18170.994            0    7597.4788    50.045771     25.03691     23.01079            0            0            0    28832.324    7902.3231    7036.4107    7853.7026    231.27355    45.242976    519.14526    50.045771     25.03691     23.01079           90           90           90 
  100000    263.03332   -18231.785   -16225.395   -18231.785            0    7550.6666    49.998549    24.981344    23.051158            0            0            0     28791.61     7865.519    7672.9157     7113.565    -727.8054   -112.86617   -798.70671    49.998549    24.981344    23.051158           90           90           90 
  100500    255.39592    -18210.19   -16262.057    -18210.19            0    7749.1836    49.987795    25.031733    23.005273            0            0            0    28786.064    7911.9641    7692.7689    7642.8177   -195.00224    -641.6039   -96.915397    49.987795    25.031733    23.005273           90           90           90 
  101000    257.33632   -18233.682   -16270.748   -18233.682            0    7492.4221    50.010103    24.985287    23.063865            0            0            0    28818.686    7932.7152    7030.9568    7513.5943   -24.817067    72.650078   -12.795663    50.010103    24.985287    23.063865           90           90           90 
  101500    262.27048   -18227.295   -16226.724   -18227.295            0    7854.9074    50.041455    24.997963     22.99737            0            0            0    28768.202    7075.5557    7968.5636    8520.6029     380.9415    298.93361    20.300087    50.041455    24.997963     22.99737           90           90           90 
  102000    258.28674   -18203.037   -16232.854   -18203.037            0    7007.0694    49.993154    25.015045     23.08186            0            0            0    28865.735    7120.7097    6782.9766    7117.5219   -78.874665    539.08243   -28.899531    49.993154    25.015045     23.08186           90           90           90 
  102500    254.88323   -18216.224   -16272.002   -18216.224            0    7352.0013     50.06659     24.97617    23.020313            0            0            0     28786.25    7231.3036    7548.2602    7276.4401    468.47798     499.1885   -166.27506     50.06659     24.97617    23.020313           90           90           90 
  103000    260.36476   -18271.862   -16285.828   -18271.862            0    7053.8889    49.984018     25.04525     23.00382            0            0            0    28797.612    7345.3594    6596.9711    7219.3361    92.096041   -533.26442    410.91576    49.984018     25.04525     23.00382           90           90           90 
  103500    257.46018     -18217.7   -16253.821     -18217.7            0    7456.6717    50.049002    24.931338    23.083921            0            0            0    28803.854    7362.1208    8234.7603    6773.1341   -53.221176    613.01138   -269.75496    50.049002    24.931338    23.083921           90           90           90 
  104000    262.00004   -18244.383   -16245.875   -18244.383            0     8217.116    49.917591    25.047453    22.957294            0            0            0    28703.701    9643.7315    7118.1838    7889.4328    92.997529   -235.64756    9.5515304    49.917591    25.047453    22.957294           90           90           90 
  104500    254.92357    -18227.77   -16283.241    -18227.77            0     8252.678    50.033653    24.851452    23.110651            0            0            0     28735.99      8375.02    8984.0405    7398.9735   -686.15868   -68.251987     848.4284    50.033653    24.851452    23.110651           90           90           90 
  105000    259.99727   -18228.478   -16245.247   -18228.478            0    7981.2555    49.994176    25.134292    22.864457            0            0            0     28730.75    8538.6574    6777.5125    8627.5967    153.15229   -461.23764   -1112.4472    49.994176    25.134292    22.864457           90           90           90 
  105500    262.63145    -18145.44   -16142.115    -18145.44            0    7833.3617    50.030222    24.904504     23.12447            0            0            0    28812.578     7031.661    8776.2975    7692.1267    180.08268    583.80165    359.45827    50.030222    24.904504     23.12447           90           90           90 
  106000    261.82566   -18265.242   -16268.063   -18265.242            0    7546.3138    49.995872     25.03181    22.978774            0            0            0     28757.64    7598.3398    7038.7702    8001.8316   -226.50069   -502.59264    432.18792    49.995872     25.03181    22.978774           90           90           90 
  106500    265.58167   -18220.201   -16194.372   -18220.201            0    7874.7405    50.029678    24.937716    23.053124            0            0            0    28761.674    7392.4212    8029.6585    8202.1419     417.7253   -201.56271   -51.020468    50.029678    24.937716    23.053124           90           90           90 
  107000    257.88345    -18195.94   -16228.833    -18195.94            0     8197.496    49.968311    24.981296    23.003445            0            0            0    28714.583    8314.6112    7773.5086    8504.3682    337.79291   -67.616039    66.150424    49.968311    24.981296    23.003445           90           90           90 
  107500     271.1865   -18223.043   -16154.461   -18223.043            0    7742.2207    50.100173    24.983858     22.98845            0            0            0    28774.542    7903.5337    7719.5396    7603.5889    454.30479    247.97676    151.19623    50.100173    24.983858     22.98845           90           90           90 
  108000    260.15284   -18193.405   -16208.987   -18193.405            0    8090.4359    49.902712    24.945244    23.106911            0            0            0      28764.3    8467.8462    7785.6992    8017.7622   -89.683461     250.1652    248.87359    49.902712    24.945244    23.106911           90           90           90 
  108500    262.28715   -18220.278   -16219.579   -18220.278            0    7796.5345    50.098741    25.039676    22.910418            0            0            0    28740.117    7829.7163    7347.1746    8212.7127   -159.58684    472.37884    175.10972    50.098741    25.039676    22.910418           90           90           90 
  109000    262.27314   -18237.045   -16236.453   -18237.045            0     8031.352     49.83301    24.914766    23.160914            0            0            0    28756.075    8820.5078    8139.1073     7134.441   -354.81126     530.6195    120.10724     49.83301    24.914766    23.160914           90           90           90 
  109500    262.17951   -18226.976   -16227.099   -18226.976            0    8163.8078    50.104577    25.013762    22.921324            0            0            0    28727.387    7209.6103    8660.8686    8620.9443    40.455548   -124.42186   -640.21205    50.104577    25.013762    22.921324           90           90           90 
  110000    256.35939   -18207.143   -16251.661   -18207.143            0    7851.2778    49.903395     24.98184    23.074208            0            0            0    28766.122    7891.3259    7772.7702    7889.7375   -353.43292   -524.20955    -317.6137    49.903395     24.98184    23.074208           90           90           90 
  110500    259.72988   -18264.233   -16283.041   -18264.233            0    8073.9912    50.000579    24.974456    22.990095            0            0            0    28708.588    7655.6242     7783.226    8783.1233      351.343   -772.04297     158.8466    50.000579    24.974456    22.990095           90           90           90 
  111000    260.32362   -18246.844   -16261.123   -18246.844            0    8087.2918    49.983821    25.000817    23.019014            0            0            0    28765.397     8360.169    8012.1214     7889.585   -533.51683   -384.36343   -575.90386    49.983821    25.000817    23.019014           90           90           90 
  111500    261.57054   -18222.433     -16227.2   -18222.433            0    7884.7028    49.998778    24.950596    23.075799            0            0            0    28787.043    7552.3606    8149.7432    7952.0046   -528.55926   -68.201334    358.37864    49.998778    24.950596    23.075799           90           90           90 
  112000    253.60062    -18235.18   -16300.742    -18235.18            0    7407.6984    50.007788    25.041165     22.99564            0            0            0    28796.365    6548.4872    8221.9576    7452.6503    13.609283   -328.81427    78.769811    50.007788    25.041165     22.99564           90           90           90 
  112500    259.02559   -18250.421   -16274.601   -18250.421            0    6784.4575    50.050517    24.964205    23.075118            0            0            0    28831.698    7560.4295    6362.7742    6430.1689    16.233128     959.4682   -67.456603    50.050517    24.964205    23.075118           90           90           90 
  113000    262.10086   -18227.888   -16228.611   -18227.888            0    7071.8596    49.952296    25.000027    23.091801            0            0            0    28837.243    6657.8305     7759.841    6797.9073   -292.36099    -129.2923     112.2322    49.952296    25.000027    23.091801           90           90           90 
  113500    255.98781   -18235.607   -16282.959   -18235.607            0     7998.126    50.119633    25.016977    22.927479            0            0            0     28747.43    8489.4954    7409.3819    8095.5007   -326.10244    -466.0478     223.4936    50.119633    25.016977    22.927479           90           90           90 
  114000    259.84472   -18173.111   -16191.043   -18173.111            0    7481.1055     49.99886    24.951357    23.098402            0            0            0    28816.166    6826.7144     8213.595     7403.007     599.7408   -544.18591    318.27771     49.99886    24.951357    23.098402           90           90           90 
  114500    256.02662   -18176.721   -16223.777   -18176.721            0    7604.5709    49.989987    25.031394    22.992724            0            0            0    28771.233    7408.5233     7935.854    7469.3356   -343.64905    678.91031     82.23829    49.989987    25.031394    22.992724           90           90           90 
  115000    263.23048   -18195.293   -16187.399   -18195.293            0     7463.183    50.039978    24.954459    23.097424            0            0            0    28842.229    7835.7324    7126.9857    7426.8308   -96.235512   -451.28071    -228.4903    50.039978    24.954459    23.097424           90           90           90 
  115500    261.81985   -18224.291   -16227.157   -18224.291            0    7371.2345    49.941266    25.039703    23.031764            0            0            0    28801.555    7671.9941    6808.8309    7632.8785   -495.34509    643.61963   -1014.2111    49.941266    25.039703    23.031764           90           90           90 
  116000    260.67921    -18293.36   -16304.927    -18293.36            0    6857.5662    50.123981    24.961438    23.033965            0            0            0    28819.329    6365.1006     7262.161    6945.4372    36.664377   -130.59552   -137.06198    50.123981    24.961438    23.033965           90           90           90 
  116500    254.19671   -18157.706   -16218.721   -18157.706            0    7450.2907    49.857708    25.041456    23.104342            0            0            0    28845.993    7585.1025    7513.4584    7252.3111   -251.98002   -554.40025    318.24132    49.857708    25.041456    23.104342           90           90           90 
  117000    259.38514   -18255.171   -16276.609   -18255.171            0      7374.43      50.1725    24.966582    22.977745            0            0            0    28782.747    6671.6064    8000.8434    7450.8401    233.54854    311.07104   -451.20055      50.1725    24.966582    22.977745           90           90           90 
  117500    258.34043   -18291.664    -16321.07   -18291.664            0    7414.6929     49.87857     25.03836    23.067858            0            0            0     28808.93    8243.2949    6330.7705    7670.0133   -325.07684    53.011339   -636.70134     49.87857     25.03836    23.067858           90           90           90 
  118000    264.02937   -18241.214   -16227.226   -18241.214            0    8325.4695    50.106267    24.908471    23.028502            0            0            0    28741.194    7622.4843    8727.1378    8626.7864   -281.57456   -34.517007   -649.41324    50.106267    24.908471    23.028502           90           90           90 
  118500    259.47694   -18225.291   -16246.028   -18225.291            0    7893.8656    49.972558    25.035475    22.976833            0            0            0    28746.011    8450.8003    7009.3248    8221.4718    186.03901    -139.5894    180.19346    49.972558    25.035475    22.976833           90           90           90 
  119000    264.04582   -18183.546   -16169.433   -18183.546            0    8591.4535    49.956277    24.918226    23.063287            0            0            0    28709.682    8989.6913     8882.941    7901.7281    343.78978    594.55004       1286.6    49.956277    24.918226    23.063287           90           90           90 
  119500    260.19058    -18208.32   -16223.614    -18208.32            0    8686.7372    49.909764     24.97174     22.97588            0            0            0    28635.613    9304.3349    7891.5402    8864.3364    214.67166   -1383.2601     123.9548    49.909764     24.97174     22.97588           90           90           90 
  120000    263.00935   -18253.818   -16247.611   -18253.818            0    9048.7417    49.871656    24.929114    23.014324            0            0            0      28612.7    9066.6245    9214.2281    8865.3726    152.81969    436.17728    251.06249    49.871656    24.929114    23.014324           90           90           90 
  120500    263.97513   -18237.198   -16223.624   -18237.198            0    8715.2962    49.911232    24.986007    22.979483            0            0            0    28657.309    8731.1132    8474.9454    8939.8299   -79.578316    210.31232    587.40093    49.911232    24.986007    22.979483           90           90           90 
  121000    262.80315   -18251.471   -16246.837   -18251.471            0    9213.9028    49.960728    24.906601    22.989408            0            0            0    28606.915    8982.7691    9388.9517    9269.9876    170.84521    -178.6753   -379.53762    49.960728    24.906601    22.989408           90           90           90 
  121500    262.07131   -18209.128   -16210.076   -18209.128            0    8869.9003    49.935523    25.022827    22.941207            0            0            0     28665.68    8835.2537    8717.3299    9057.1173   -171.58625    301.16954    249.15815    49.935523    25.022827    22.941207           90           90           90 
  122000    259.90846   -18252.785   -16270.231   -18252.785            0    8426.0969    49.956428    24.901852    23.060347            0            0            0    28687.246    8607.7605    8813.5985    7856.9316   -21.089944   -9.3294894    315.12837    49.956428    24.901852    23.060347           90           90           90 
  122500    260.44804   -18212.556   -16225.887   -18212.556            0    7846.7768    50.006911     25.02716    22.996072            0            0            0    28780.297    7756.2497    7381.6945    8402.3863    95.351172    989.90561   -296.09067    50.006911     25.02716    22.996072           90           90           90 
  123000    256.83155   -18282.225   -16323.141   -18282.225            0    7883.9108      50.0441    24.953145    23.008717            0            0            0    28732.311    7286.0935      7981.46    8384.1788   -427.58922    911.73812   -94.519037      50.0441    24.953145    23.008717           90           90           90 
  123500     249.8612   -18137.222   -16231.308   -18137.222            0    7538.9112    49.862293    25.029473    23.095642            0            0            0    28823.983    8218.4947    7093.8796    7304.3592    470.70551   -776.75652     607.7984    49.862293    25.029473    23.095642           90           90           90 
  124000    258.02873   -18186.115   -16217.899   -18186.115            0    7286.0083    50.268285    24.986273    22.971291            0            0            0    28852.335    7204.9954    7228.2613    7424.7683   -438.33968   -260.50148   -1060.1972    50.268285    24.986273    22.971291           90           90           90 
  124500     257.1564   -18218.995   -16257.433   -18218.995            0    7612.2726     49.89922    25.014581    23.103985            0            0            0     28838.58     8184.836    7065.7225    7586.2594   -215.97967    1621.5667    485.95334     49.89922    25.014581    23.103985           90           90           90 
  125000    265.02981   -18168.066   -16146.447   -18168.066            0    7400.8137     50.12623    25.023342    23.001167            0            0            0    28850.957    6294.5744    8654.5653    7253.3015   -383.77637     249.6637    735.73217     50.12623    25.023342    23.001167           90           90           90 
  125500    258.23882   -18253.203   -16283.385   -18253.203            0    7437.2858    49.984638    24.972087    23.096322            0            0            0    28829.308    6697.2987     8349.375    7265.1836    110.72533    324.81808   -573.18008    49.984638    24.972087    23.096322           90           90           90 
  126000    262.97847   -18208.432   -16202.461   -18208.432            0    7517.7806    50.051038    25.016156    23.011698            0            0            0    28812.592    7615.0203    7176.0925     7762.229    89.341968   -646.36289    212.44451    50.051038    25.016156    23.011698           90           90           90 
  126500    262.25461     -18263.5    -16263.05     -18263.5            0    6957.5261    49.997694    24.977708    23.079721            0            0            0    28822.598     7550.845    6650.1633      6671.57   -99.708258    1368.5116   -659.56243    49.997694    24.977708    23.079721           90           90           90 
  127000    251.71574   -18141.876   -16221.815   -18141.876            0    7519.7367    49.967918    25.017328     23.07767            0            0            0     28848.56    7877.7298     7172.434    7509.0465    54.975069    79.006267   -48.387056    49.967918    25.017328     23.07767           90           90           90 
  127500    258.80886   -18233.957   -16259.791   -18233.957            0    7196.3722    50.098817    25.043277    22.957964            0            0            0    28803.947    7552.3972    6995.0919    7041.6275    203.34483    904.90229   -902.77257    50.098817    25.043277    22.957964           90           90           90 
  128000    264.80628   -18245.136   -16225.222   -18245.136            0    7567.0047    49.926504    24.961118    23.086445            0            0            0    28770.822    7610.6116    8037.4017    7053.0009    372.76274   -233.51492    34.521289    49.926504    24.961118    23.086445           90           90           90 
  128500    260.59683   -18214.013   -16226.208   -18214.013            0    8125.8839    50.014006    25.022923    22.957013            0            0            0    28730.624    7776.4401    7908.0562    8693.1555    613.05284   -791.59806    53.399919    50.014006    25.022923    22.957013           90           90           90 
  129000    259.52378   -18236.147   -16256.528   -18236.147            0    6572.3541    49.993192     24.94902    23.133608            0            0            0    28854.113    6685.0788    6322.6894    6709.2941    38.020683     219.7985   -284.21735    49.993192     24.94902    23.133608           90           90           90 
  129500    263.35933   -18226.269   -16217.392   -18226.269            0    7297.8828    50.106606    25.040643    22.964523            0            0            0    28813.625    6545.4032    7157.2101     8191.035    156.07828   -17.601149    172.09315    50.106606    25.040643    22.964523           90           90           90 
  130000    258.38852   -18227.509   -16256.549   -18227.509            0    7546.6838    49.912076    24.960368    23.088912            0            0            0    28764.717    7911.8615    8062.8356    6665.3542   -41.716653   -584.69823   -228.87404    49.912076    24.960368    23.088912           90           90           90 
  130500    262.53488   -18170.042   -16167.454   -18170.042            0    8157.7559    50.083574    24.967058    23.004097            0            0            0    28765.231    7816.0239    8611.0453    8046.1984    184.89441    576.02698    436.07333    50.083574    24.967058    23.004097           90           90           90 
  131000    251.08949   -18250.048   -16334.764   -18250.048            0    8053.3275    49.942479    25.018575    22.977891            0            0            0    28710.637    8311.7672    8234.2297    7613.9857    1065.5718    607.09979   -55.557647    49.942479    25.018575    22.977891           90           90           90 
  131500    249.57082   -18227.809    -16324.11   -18227.809            0    8058.0069    49.906426    24.878437    23.112729            0            0            0    28696.623    8275.8018    7938.8748     7959.344    465.22449    -259.6886   -72.581128    49.906426    24.878437    23.112729           90           90           90 
  132000    266.13486   -18267.912   -16237.864   -18267.912            0    7591.0352    50.027067    25.075539    22.904571            0            0            0     28732.77    6896.9413    7587.2646    8288.8999    425.84645   -318.47585      458.356    50.027067    25.075539    22.904571           90           90           90 
  132500    261.69223   -18191.753   -16195.592   -18191.753            0    7930.0484    49.902926    24.952647    23.105744            0            0            0    28771.506    8459.7591    8357.5602    6972.8259   -130.34654    541.89698   -543.10378    49.902926    24.952647    23.105744           90           90           90 
  133000    261.70187   -18204.747   -16208.514   -18204.747            0    7663.7004    49.978033    24.995676    23.016883            0            0            0    28753.489    7902.4491     7586.081    7502.5709   -575.56814   -1052.9845   -97.564081    49.978033    24.995676    23.016883           90           90           90 
  133500    261.59416   -18262.015   -16266.603   -18262.015            0    7574.5092    50.031951    24.964939    23.022469            0            0            0     28756.09    7392.0852    7497.5807    7833.8618    411.48678    446.16391    683.59164    50.031951    24.964939    23.022469           90           90           90 
  134000    256.60716   -18210.581   -16253.209   -18210.581            0    7888.0258    49.859739    25.003577    23.070757            0            0            0    28761.663    8054.7825    7727.5092    7881.7857   -348.77753    449.74363    35.915225    49.859739    25.003577    23.070757           90           90           90 
  134500    262.00455   -18212.393    -16213.85   -18212.393            0    7905.9199    50.137567    24.958797    22.953034            0            0            0    28722.815    6975.0119    8127.0888    8615.6589   -143.24164   -111.74989    463.46015    50.137567    24.958797    22.953034           90           90           90 
  135000    259.85783    -18259.49   -16277.322    -18259.49            0     8298.958    49.675388    24.966894    23.133158            0            0            0    28690.671    9544.1908    8360.7743    6991.9089   -381.87965   -134.89076   -168.71634    49.675388    24.966894    23.133158           90           90           90 
  135500    257.23203   -18210.851   -16248.712   -18210.851            0    9122.6191    50.215485    24.887454    22.935449            0            0            0    28663.246    8634.5144    9769.7743    8963.5685    130.18692    174.56347   -809.19843    50.215485    24.887454    22.935449           90           90           90 
  136000    260.30576   -18227.251   -16241.666   -18227.251            0    8653.3601    49.818035    25.025535    22.998907            0            0            0    28673.265    9134.4609    7863.0325    8962.5871    -45.22425    148.86352    -383.7215    49.818035    25.025535    22.998907           90           90           90 
  136500     267.6121   -18277.354   -16236.038   -18277.354            0    8386.2396    49.941903    24.906683    23.063948            0            0            0    28688.948    8205.5287    8586.3348    8366.8553    274.44334    29.532728   -69.797298    49.941903    24.906683    23.063948           90           90           90 
  137000    259.38338   -18208.558   -16230.009   -18208.558            0    8837.9817    49.957136    25.013796    22.930314            0            0            0    28654.124    9407.2958     8175.325    8931.3243   -676.68863   -248.97346    304.80814    49.957136    25.013796    22.930314           90           90           90 
  137500    264.22649   -18213.942    -16198.45   -18213.942            0    8535.1817    49.950233    24.880996    23.102855            0            0            0    28712.495    8020.4216    9800.7801    7784.3434    78.317436    275.41677   -761.59558    49.950233    24.880996    23.102855           90           90           90 
  138000    265.48328    -18236.16   -16211.082    -18236.16            0    9718.6631    49.853006    25.040061    22.876551            0            0            0    28557.309    9697.0523    9252.1307    10206.806   -215.10914    170.78325    153.19326    49.853006    25.040061    22.876551           90           90           90 
  138500    259.10053   -18240.543   -16264.152   -18240.543            0    9104.6785    49.936857    24.896127    23.025847            0            0            0    28626.524    8853.5794    9685.4124    8775.0438     692.2113   -79.584195   -434.07494    49.936857    24.896127    23.025847           90           90           90 
  139000    257.21023    -18323.51   -16361.538    -18323.51            0    8080.1152     49.89281     24.96017    23.013523            0            0            0      28659.5    8252.9201     8093.169    7894.2563   -553.09059   -247.94589    1268.6959     49.89281     24.96017    23.013523           90           90           90 
  139500    261.57937   -18195.087   -16199.788   -18195.087            0    8435.9344    49.994924    24.985727    23.003678            0            0            0    28735.264       9091.1     7651.638    8565.0651    880.16248   -179.11734   -311.24436    49.994924    24.985727    23.003678           90           90           90 
  140000    262.78727   -18177.165   -16172.652   -18177.165            0    8603.5684    49.965387    24.946417    23.037938            0            0            0    28715.807    8890.4323    8284.2653    8636.0077   -255.29149    867.13376    770.54434    49.965387    24.946417    23.037938           90           90           90 
  140500    257.66125   -18145.801   -16180.388   -18145.801            0     9318.753    49.949437    25.015139    22.940439            0            0            0    28663.898    8896.9647    8960.2505    10099.044   -76.442148    68.553751    41.906289    49.949437    25.015139    22.940439           90           90           90 
  141000    265.11917   -18284.153   -16261.853   -18284.153            0    8428.3765    49.843222     24.86778    23.116966            0            0            0    28653.255     8583.164    9611.6707    7090.2948   -234.92928    752.56216    -207.3877    49.843222     24.86778    23.116966           90           90           90 
  141500    260.57522   -18227.791   -16240.152   -18227.791            0    8460.0163     50.00749    25.031753    22.884962            0            0            0    28646.827     7546.936    8452.0512    9381.0616    261.93013    332.76449    20.537396     50.00749    25.031753    22.884962           90           90           90 
  142000    258.40132   -18197.105   -16226.047   -18197.105            0     8618.603    49.909335    24.915474    23.062524            0            0            0    28678.589    8814.7861    8838.7006    8202.3222   -211.14491    161.92603   -902.37914    49.909335    24.915474    23.062524           90           90           90 
  142500    265.71963    -18201.26   -16174.379    -18201.26            0    8403.0136    49.983869    24.968429    23.001616            0            0            0    28706.446    8431.3873     8392.239    8385.4145    97.115298    200.98775    802.50274    49.983869    24.968429    23.001616           90           90           90 
  143000    258.82089   -18248.995   -16274.737   -18248.995            0    7939.9772    49.993085    24.959042    23.006672            0            0            0    28707.255    7270.2161    8581.8381    7967.8773   -271.78025   -128.74259   -79.834259    49.993085    24.959042    23.006672           90           90           90 
  143500    261.37242   -18223.038   -16229.317   -18223.038            0    7926.5222    49.964201    24.969373    23.028302            0            0            0    28729.529    8310.4535     8618.222    6850.8911    277.38375    272.10367   -320.08523    49.964201    24.969373    23.028302           90           90           90 
  144000    263.81807   -18231.964   -16219.588   -18231.964            0    8729.1198    49.935644    25.013473    22.943582            0            0            0        28658    9843.3319    7543.9346    8800.0929   -782.84135    24.203601   -392.15376    49.935644    25.013473    22.943582           90           90           90 
  144500    263.13201   -18220.166   -16213.023   -18220.166            0    9022.4666    49.862461    24.905477    23.064063            0            0            0     28642.07    9111.0412    9319.7465    8636.6122    620.55857    -428.0076   -71.174547    49.862461    24.905477    23.064063           90           90           90 
  145000    254.84081   -18187.907   -16244.009   -18187.907            0    8961.9463    49.911945    25.002125    22.951143            0            0            0    28640.839    8787.8203    8949.0957    9148.9231   -478.33068    -216.7045   -50.278614    49.911945    25.002125    22.951143           90           90           90 
  145500    263.96386    -18230.74   -16217.252    -18230.74            0     8711.309    49.944861    24.950528     23.00982            0            0            0    28673.702    8123.5577    9146.4911    8863.8783   -56.951974   -239.29187    434.60824    49.944861    24.950528     23.00982           90           90           90 
  146000    260.82033   -18241.912   -16252.403   -18241.912            0    8514.1534    49.897605    25.001412    22.988292            0            0            0    28678.138    7735.1356    9017.8907     8789.434   -90.427355    240.42043    251.56719    49.897605    25.001412    22.988292           90           90           90 
  146500    253.27671   -18190.378    -16258.41   -18190.378            0    8588.1588    50.033148    24.908371    23.059562            0            0            0    28737.845    8850.6261    8626.2428    8287.6074   -400.69241   -40.760268    283.36968    50.033148    24.908371    23.059562           90           90           90 
  147000    254.09478   -18218.985   -16280.777   -18218.985            0    8881.7108    49.797059    25.013728    23.003652            0            0            0    28653.581    8940.9175    8581.3678    9122.8472    -714.1694   -101.00895   -160.74852    49.797059    25.013728    23.003652           90           90           90 
  147500    260.57466   -18206.856    -16219.22   -18206.856            0    8773.5458    50.124115     24.89117    22.960799            0            0            0    28646.992    8045.7213    9158.4861      9116.43   -50.303652   -281.56017    891.98235    50.124115     24.89117    22.960799           90           90           90 
  148000    261.43863   -18260.151   -16265.925   -18260.151            0    8701.5922    49.794279    25.012846    22.998498            0            0            0    28644.552    9602.4151     8008.462    8493.8996   -259.33092  -0.70303434   -507.93099    49.794279    25.012846    22.998498           90           90           90 
  148500    259.19595    -18188.32   -16211.201    -18188.32            0    8577.0167    50.036988    24.896611    23.012126            0            0            0    28667.389    7874.8049    9726.0596    8130.1855   -305.52737   -458.73985   -126.43357    50.036988    24.896611    23.012126           90           90           90 
  149000    261.74154   -18144.083   -16147.547   -18144.083            0    8966.4946    49.815608    25.007274    23.014915            0            0            0    28670.889     9935.349    8264.4031    8699.7317   -99.552963   -489.78879   -196.08689    49.815608    25.007274    23.014915           90           90           90 
  149500    259.66323   -18215.263    -16234.58   -18215.263            0    8394.4709    50.022356     24.94012    23.004376            0            0            0    28699.421      8031.43    8426.1988    8725.7838   -71.792401    539.61433   -245.48208    50.022356     24.94012    23.004376           90           90           90 
  150000    256.53766   -18258.999   -16302.158   -18258.999            0    8846.2557    49.876483    24.999206    22.956289            0            0            0    28623.565    8712.1523    8453.6483    9372.9663    1028.3308    297.54361   -21.898303    49.876483    24.999206    22.956289           90           90           90 
  150500    262.98405   -18220.748   -16214.734   -18220.748            0    9206.0453    50.024126    24.855863     23.01407            0            0            0    28615.529     9734.311    9261.3299    8622.4951   -409.66508   -346.36034    171.19048    50.024126    24.855863     23.01407           90           90           90 
  151000    264.20451   -18248.197   -16232.874   -18248.197            0    8566.6824    49.720994    25.054235    22.980315            0            0            0    28627.072    9473.3846     8276.462    7950.2007    348.54463    4.6781169    -231.6612    49.720994    25.054235    22.980315           90           90           90 
  151500    262.87651   -18221.868   -16216.675   -18221.868            0    9335.3221    50.113188    24.849766    22.988628            0            0            0    28627.761    8260.3638    10004.575    9741.0274     39.85563   -214.00507    909.46552    50.113188    24.849766    22.988628           90           90           90 
  152000    252.15944   -18186.762   -16263.317   -18186.762            0    8673.2851    49.836429    24.983824    23.031849            0            0            0    28677.061    10055.487    8081.9265    7882.4417   -571.86239     716.5441   -304.13556    49.836429    24.983824    23.031849           90           90           90 
  152500    256.24029   -18255.644    -16301.07   -18255.644            0    7983.1439    49.988951    24.926326    23.018286            0            0            0    28681.726    8502.2941    8290.2784    7156.8593    51.221016    193.65448     41.28632    49.988951    24.926326    23.018286           90           90           90 
  153000    256.51819   -18203.384   -16246.691   -18203.384            0    8167.1173    49.944137    25.049908    23.002443            0            0            0    28778.266    7999.9073    7434.9863    9066.4582      636.333   -1393.2104   -623.90654    49.944137    25.049908    23.002443           90           90           90 
  153500    261.10741   -18257.867   -16266.167   -18257.867            0    7873.9445    49.990618    24.901732    23.097431            0            0            0    28752.906    7387.5315    8779.3483    7454.9536    284.22801    57.652007   -127.79779    49.990618    24.901732    23.097431           90           90           90 
  154000    265.51855   -18229.878   -16204.531   -18229.878            0    8329.0876    49.901423     25.10301    22.910537            0            0            0    28699.477    9422.3872    6297.8734    9267.0022     226.0834   -884.08546     62.99282    49.901423     25.10301    22.910537           90           90           90 
  154500    255.53021   -18231.475   -16282.318   -18231.475            0    8950.5822    50.032978    24.814587    23.046606            0            0            0     28613.46    7832.0507    10189.267     8830.429    5.7517357   -221.33857    52.491212    50.032978    24.814587    23.046606           90           90           90 
  155000    261.42454   -18196.543   -16202.425   -18196.543            0    9600.6652    49.765773    25.011879    22.973829            0            0            0     28596.34    9890.9902    8742.9676    10168.038    739.96966   -451.14186   -118.32935    49.765773    25.011879    22.973829           90           90           90 
  155500     256.1347   -18200.546   -16246.778   -18200.546            0    9044.4593    50.043862    24.875028     23.00861            0            0            0    28642.095    8617.4142    10250.743    8265.2206    119.23448    92.755624    423.38162    50.043862    24.875028     23.00861           90           90           90 
  156000    256.51243   -18298.585   -16341.935   -18298.585            0    8212.5731    49.811748    25.005023    23.030835            0            0            0    28685.916    8895.6696    8003.4577    7738.5919   -135.52233    337.06292   -32.637698    49.811748    25.005023    23.030835           90           90           90 
  156500    256.54327   -18258.106   -16301.222   -18258.106            0    8254.4994    50.122504    24.888487    22.997802            0            0            0    28689.144    7630.4868    9013.9498    8119.0617   -627.80259    21.371282   -1.5400032    50.122504    24.888487    22.997802           90           90           90 
  157000    260.27155   -18252.284   -16266.961   -18252.284            0    7968.8633    49.820127    25.070125    22.985749            0            0            0    28709.128    8520.7383    7526.7252    7859.1264   -9.1615899   -693.78255    409.73369    49.820127    25.070125    22.985749           90           90           90 
  157500    256.60585   -18260.989   -16303.627   -18260.989            0    8033.7032    50.065222    24.860951    23.088868            0            0            0    28737.998    7895.1436    8612.4202    7593.5458   -25.186173    44.166273   -107.22341    50.065222    24.860951    23.088868           90           90           90 
  158000    257.34279   -18259.089   -16296.106   -18259.089            0    7988.6527    49.893006    25.075784    22.957412            0            0            0     28722.16    8474.0665    7026.1703    8465.7213   -149.68181   -510.07758   -559.50767    49.893006    25.075784    22.957412           90           90           90 
  158500    260.44581   -18222.139   -16235.486   -18222.139            0    8421.3046    50.085419    24.860516    23.060432            0            0            0    28713.683    8289.7119    9190.1115    7784.0903   -94.895543   -443.94422    184.31989    50.085419    24.860516    23.060432           90           90           90 
  159000    260.82818   -18182.235   -16192.666   -18182.235            0    8960.5364    49.731522    25.053829    23.013773            0            0            0    28674.356    9731.0688    8854.4092    8296.1311   -225.32279   -561.89204   -403.64418    49.731522    25.053829    23.013773           90           90           90 
  159500    263.56691   -18213.766   -16203.306   -18213.766            0    7976.9472    50.111813    24.939326    22.989954            0            0            0    28731.806    8089.0408    8225.9521    7615.8487    258.68525   -375.99412   -203.07079    50.111813    24.939326    22.989954           90           90           90 
  160000    260.16578   -18234.513   -16249.997   -18234.513            0    7763.4322     49.85874    24.988093    23.071625            0            0            0    28744.357    8669.3697    7593.8661    7027.0607    47.227475    611.20186   -68.506704     49.85874    24.988093    23.071625           90           90           90 
  160500    261.68684   -18161.293   -16165.174   -18161.293            0    8276.6941    50.120835    24.942626    22.976815            0            0            0    28724.357    7057.5573    8879.8454    8892.6798    29.164124   -894.98048   -723.88268    50.120835    24.942626    22.976815           90           90           90 
  161000    263.02161   -18310.698   -16304.397   -18310.698            0    8049.1135    49.730032    24.955208    23.105767            0            0            0    28674.794    8772.4031    8048.3293    7326.6081   -66.844307   -171.82764    119.14754    49.730032    24.955208    23.105767           90           90           90 
  161500    257.66175   -18183.018   -16217.602   -18183.018            0    8421.0422    50.219638    24.962539    22.902664            0            0            0    28711.001    7345.0221    8612.4062    9305.6982    433.79574   -872.00076    693.17845    50.219638    24.962539    22.902664           90           90           90 
  162000    258.23249   -18232.372   -16262.602   -18232.372            0    7973.7035    49.758247    24.985782    23.105447            0            0            0    28725.817    9069.5813    7120.6614    7730.8679   -147.61739    54.319886   -585.57603    49.758247    24.985782    23.105447           90           90           90 
  162500    258.60297   -18276.577   -16303.982   -18276.577            0    7941.1388    50.075266    24.983189    22.963011            0            0            0    28727.641    7542.3337    8159.5936     8121.489    75.498971    242.32313    505.37316    50.075266    24.983189    22.963011           90           90           90 
  163000     252.0342   -18214.012   -16291.522   -18214.012            0    7782.5355     49.94177    24.980044    23.038944            0            0            0    28742.179    8100.5266     7850.898    7396.1819   -544.94981   -1067.6664    78.664804     49.94177    24.980044    23.038944           90           90           90 
  163500    259.17247   -18250.954   -16274.014   -18250.954            0    8015.9643    50.048622    24.937799    23.026282            0            0            0     28739.16    8313.5022     7695.987    8038.4036    626.07982    704.90995   -853.07094    50.048622    24.937799    23.026282           90           90           90 
  164000    256.20463   -18177.786   -16223.485   -18177.786            0    8347.2494    49.917597    25.027442    22.997374            0            0            0    28730.844    8107.0218    8581.9236    8352.8027    362.33497    73.419151   -138.41308    49.917597    25.027442    22.997374           90           90           90 
  164500    265.72981   -18158.828   -16131.869   -18158.828            0    8857.0651    50.003635    24.932805    23.000403            0            0            0    28675.312    8027.1392     9507.865     9036.191     -244.385    301.19009   -745.12046    50.003635    24.932805    23.000403           90           90           90 
  165000    263.74383   -18200.349    -16188.54   -18200.349            0     9550.927    49.812069    24.976037    23.013269            0            0            0    28630.994    10455.348    8603.8981    9593.5349    321.23907    65.090126    418.09425    49.812069    24.976037    23.013269           90           90           90 
  165500    260.44152   -18200.786   -16214.166   -18200.786            0    9771.0596    49.910257    24.884784     22.97413            0            0            0    28534.007    9988.6008    10562.936    8761.6415   -356.09529   -397.88513   -773.27928    49.910257    24.884784     22.97413           90           90           90 
  166000    263.78551   -18205.104   -16192.976   -18205.104            0    9578.6454    49.882144    24.989719    22.928655            0            0            0    28581.503    10281.598    9144.7875    9309.5505   -38.500972   -75.540979    3.3379673    49.882144    24.989719    22.928655           90           90           90 
  166500     260.0733   -18304.068   -16320.257   -18304.068            0    9169.5387    49.838653    24.881705    23.035379            0            0            0    28565.497    8871.1632    9264.2445    9373.2083    100.29755      545.655    288.34672    49.838653    24.881705    23.035379           90           90           90 
  167000    256.23122   -18289.641   -16335.136   -18289.641            0     8635.697    49.934412    24.956639    22.941754            0            0            0    28589.901    9135.7167    8060.0756    8711.2988    223.32883    278.47927   -114.42599    49.934412    24.956639    22.941754           90           90           90 
  167500    255.80174   -18237.047   -16285.819   -18237.047            0    8452.6421    49.930189    24.957856    23.002765            0            0            0    28664.906    8030.2689    8789.3206    8538.3368    106.41679    36.896318   -109.79847    49.930189    24.957856    23.002765           90           90           90 
  168000    258.77978   -18197.814   -16223.869   -18197.814            0    8437.9347    49.904616    24.969206      23.0363            0            0            0    28705.041    8985.8803    8546.1268    7781.7969    260.19653   -948.72148    107.83556    49.904616    24.969206      23.0363           90           90           90 
  168500    257.27966   -18180.762   -16218.261   -18180.762            0    9617.0991    49.986319    24.934937    22.923729            0            0            0    28572.266     9703.625    9933.1101    9214.5622   -259.52609   -413.01271    183.04588    49.986319    24.934937    22.923729           90           90           90 
  169000    261.68544   -18233.067   -16236.958   -18233.067            0    8724.5493    49.747821    24.920976    23.090148            0            0            0     28626.34    9632.7463    9039.7353    7501.1664    30.303922   -563.57437    473.08103    49.747821    24.920976    23.090148           90           90           90 
  169500    269.30445    -18278.26   -16224.035    -18278.26            0    8267.5241    50.110031    24.991348    22.897955            0            0            0    28675.503    7827.4977    8099.6262    8875.4486    200.34396   -204.72764   -340.38899    50.110031    24.991348    22.897955           90           90           90 
  170000    257.80099   -18223.271   -16256.793   -18223.271            0    8130.9756    49.859513    24.971099     23.08545            0            0            0    28742.466    8378.1143    8618.0328    7396.7799    345.17699    198.38691   -1040.8085    49.859513    24.971099     23.08545           90           90           90 
  170500    252.76883   -18320.397   -16392.304   -18320.397            0    7886.3852     50.04234    24.956825    22.952418            0            0            0    28665.228     7124.802    8949.5194    7584.8343    270.02569   -445.85904   -504.35901     50.04234    24.956825    22.952418           90           90           90 
  171000    254.34562    -18216.83   -16276.709    -18216.83            0    7888.0905    49.948389     25.01993    23.001392            0            0            0     28744.96     8488.486    7047.0578    8128.7277   -316.25857   -203.52982    282.22531    49.948389     25.01993    23.001392           90           90           90 
  171500    261.12486   -18226.151   -16234.318   -18226.151            0    8857.0134    49.919882    24.928457     23.06976            0            0            0    28708.601    8760.2655    8548.0937     9262.681   -287.59889   -276.39761    228.09079    49.919882    24.928457     23.06976           90           90           90 
  172000    261.61918   -18226.313    -16230.71   -18226.313            0    9026.9106    50.013137    25.012358    22.909803            0            0            0    28658.938     8413.879    8543.8889    10122.964   -160.67788   -592.14086    50.084177    50.013137    25.012358    22.909803           90           90           90 
  172500    261.31478   -18206.525   -16213.244   -18206.525            0    9051.2449    49.926008    24.867795    23.093266            0            0            0    28671.438    8790.1578    9304.4596    9059.1173   -82.337982   -239.18855   -248.30259    49.926008    24.867795    23.093266           90           90           90 
  173000    257.24033   -18187.174   -16224.972   -18187.174            0    9428.2035    49.922314    25.024255    22.901878            0            0            0    28610.599    9758.6399    8431.2574    10094.713   -127.00423    534.61382   -189.85106    49.922314    25.024255    22.901878           90           90           90 
  173500    264.91365   -18249.748   -16229.015   -18249.748            0    8135.7416    49.950516    24.906681    23.051791            0            0            0    28678.769    8492.8932    8942.2623    6972.0694    79.361542   -301.90524    349.36567    49.950516    24.906681    23.051791           90           90           90 
  174000    252.95854   -18248.221   -16318.681   -18248.221            0    7981.4398    49.926165    25.022479    22.966167            0            0            0    28691.091    8408.7398    7726.2294      7809.35   -218.79166    -754.8897    14.963109    49.926165    25.022479    22.966167           90           90           90 
  174500    261.66983     -18210.4    -16214.41     -18210.4            0    8242.9486    50.102585    24.901487    23.034821            0            0            0    28738.907    8098.5459    8762.4455    7867.8544   -440.68588    932.70265   -340.23831    50.102585    24.901487    23.034821           90           90           90 
  175000    257.47721   -18233.106   -16269.098   -18233.106            0    8940.5595    49.732139    25.026019     23.00877            0            0            0    28636.657    9048.6545     9225.335     8547.689   -333.77461    -713.6558   -256.97854    49.732139    25.026019     23.00877           90           90           90 
  175500    261.93904   -18278.243     -16280.2   -18278.243            0    8942.1829    50.157558    24.841088    22.962348            0            0            0    28610.357    7566.4405    10028.291    9231.8173   -283.48201    795.09533    57.510628    50.157558    24.841088    22.962348           90           90           90 
  176000    252.70151   -18240.993   -16313.413   -18240.993            0    9196.0451    49.575056    25.014813    23.043141            0            0            0    28576.046    10727.858    8545.7597    8314.5178    294.86969     90.31046   -89.550411    49.575056    25.014813    23.043141           90           90           90 
  176500    263.20614   -18208.344   -16200.636   -18208.344            0    8779.8475    50.084391    24.938324    22.926268            0            0            0    28635.385    8561.4251    8332.7787    9445.3387   -214.72128    731.74437     50.02302    50.084391    24.938324    22.926268           90           90           90 
  177000    259.97054   -18231.622   -16248.594   -18231.622            0    8618.9456    49.832805    24.956155    23.052893            0            0            0     28669.39    8971.3626    8390.1053    8495.3687    321.17065    686.02232    340.61901    49.832805    24.956155    23.052893           90           90           90 
  177500    258.05321   -18228.448   -16260.045   -18228.448            0    8581.3963    49.953957    24.913307    23.030184            0            0            0    28661.484    8169.9727    8718.4883    8855.7278    82.660753    241.93698    428.29242    49.953957    24.913307    23.030184           90           90           90 
  178000    265.69894   -18227.466   -16200.743   -18227.466            0    8714.6258    49.875471    25.028664    22.950181            0            0            0    28649.087    10007.693    7897.2655    8238.9193    208.68705   -46.823594   -287.48882    49.875471    25.028664    22.950181           90           90           90 
  178500    249.95594   -18239.006   -16332.369   -18239.006            0    8713.1258    50.019005    24.843704    23.044477            0            0            0    28636.388    8076.1012    9935.9693    8127.3068     32.29874   -585.87596   -51.984008    50.019005    24.843704    23.044477           90           90           90 
  179000    259.49589   -18243.252   -16263.846   -18243.252            0    8588.0528    49.830426    25.042343    22.954546            0            0            0    28644.303     9263.104    7687.4528    8813.6015    370.31118    270.50881    462.74563    49.830426    25.042343    22.954546           90           90           90 
  179500    264.42135   -18226.728    -16209.75   -18226.728            0    8364.0386    50.030808     24.90005    23.027829            0            0            0     28687.37    8274.4163    8925.3302    7892.3691   -123.14685    312.66172    310.50413    50.030808     24.90005    23.027829           90           90           90 
  180000    257.34775   -18229.895   -16266.874   -18229.895            0    8242.2015    49.829629     25.00288    23.028462            0            0            0    28690.798    8637.8963     7828.744    8259.9644   -101.02609   -853.50011    180.54648    49.829629     25.00288    23.028462           90           90           90 
  180500    270.02533    -18265.78   -16206.056    -18265.78            0    8208.0134     50.14542    24.955032    22.933766            0            0            0    28698.868    7381.5041    8146.0032    9096.5329   -254.16625   -282.37483   -457.84758     50.14542    24.955032    22.933766           90           90           90 
  181000    256.21093   -18226.523   -16272.174   -18226.523            0    8752.8228    49.698957    24.967698    23.093628            0            0            0    28656.156    8425.5559    8680.8379    9152.0745    289.95167   -698.80993   -561.86621    49.698957    24.967698    23.093628           90           90           90 
  181500    261.74657   -18267.024   -16270.449   -18267.024            0    8025.8737    50.206827    24.945621    22.909451            0            0            0    28692.723    7156.3416    7455.9403    9465.3392    393.74328   -397.09103   -815.55076    50.206827    24.945621    22.909451           90           90           90 
  182000    258.98436   -18220.139   -16244.635   -18220.139            0    7976.7025    49.880757    24.987351      23.0634            0            0            0    28745.945    8448.3997    7807.6913    7674.0165   -911.96711    410.04172    811.15841    49.880757    24.987351      23.0634           90           90           90 
  182500    254.56806   -18209.901   -16268.083   -18209.901            0    7641.5506    49.995983    24.982438    23.018129            0            0            0    28750.138    7292.7103    7539.9265     8092.015   -973.18576   -253.11942   -274.53337    49.995983    24.982438    23.018129           90           90           90 
  183000    261.66755   -18213.665   -16217.692   -18213.665            0    7968.0348    49.961524    24.972468    23.051603            0            0            0    28760.623    7332.5426    8365.3909     8206.171   -190.29249   -202.31582    11.036853    49.961524    24.972468    23.051603           90           90           90 
  183500    260.58664   -18180.717    -16192.99   -18180.717            0    7912.9563    50.018372    25.007754    23.025655            0            0            0    28801.575    7748.8489    7574.9267    8415.0933     351.2387   -113.49343     295.6438    50.018372    25.007754    23.025655           90           90           90 
  184000    258.79476   -18209.238   -16235.179   -18209.238            0    8153.2975    50.011296     25.01468    23.006742            0            0            0    28781.815    8247.1643    8141.4193    8071.3089    -369.7043   -584.60063   -250.93076    50.011296     25.01468    23.006742           90           90           90 
  184500    259.63813   -18228.786   -16248.294   -18228.786            0    7464.7061    49.945691    24.956993      23.1061            0            0            0    28801.621    7840.4901    7823.2402    6730.3879    568.01655   -671.48678   -744.31858    49.945691    24.956993      23.1061           90           90           90 
  185000    257.11221   -18261.286   -16300.062   -18261.286            0    6800.4904     50.06027    25.061921    22.998304            0            0            0    28853.822    5996.6147    6979.7021    7425.1545   -525.27683     141.9188    634.62354     50.06027    25.061921    22.998304           90           90           90 
  185500    263.03301   -18240.838   -16234.451   -18240.838            0    7364.4342    50.008914    24.958332    23.077188            0            0            0     28803.54    7693.9036    7420.5279    6978.8711   -86.374451   -387.19562    372.41493    50.008914    24.958332    23.077188           90           90           90 
  186000    263.51902    -18215.27   -16205.175    -18215.27            0    7781.2387    50.026077    25.002853    23.009588            0            0            0    28780.268    7432.1673    8815.7687    7095.7802   -353.47032   -1185.1092    93.418636    50.026077    25.002853    23.009588           90           90           90 
  186500    255.64066    -18253.68    -16303.68    -18253.68            0    8130.2897    49.938753    24.956462    23.052655            0            0            0    28730.399    8554.4779    7727.3934    8108.9977   -190.20818   -506.30904    67.661677    49.938753    24.956462    23.052655           90           90           90 
  187000    262.79579   -18282.502   -16277.924   -18282.502            0    7850.6617    49.965857    24.948348    23.052309            0            0            0    28736.215     7164.979    8116.8485    8270.1574    96.861982   -72.242697    216.73707    49.965857    24.948348    23.052309           90           90           90 
  187500    256.74499   -18228.259   -16269.836   -18228.259            0    7431.2445    49.989962    25.029868    23.003333            0            0            0    28782.739    7841.1512    7005.4845    7447.0977   -646.23875    117.13087   -289.81915    49.989962    25.029868    23.003333           90           90           90 
  188000    256.44683   -18186.565   -16230.416   -18186.565            0    7806.4046    50.019804    24.951704    23.058989            0            0            0    28779.448    7562.9438    8648.4079    7207.8621    460.66992   -611.33252   -495.57214    50.019804    24.951704    23.058989           90           90           90 
  188500    262.74164   -18221.427   -16217.262   -18221.427            0    8048.4128    50.016165    24.976661    23.009207            0            0            0    28743.948    7362.4396    8967.5117    7815.2873   -497.09882   -755.86333    424.40166    50.016165    24.976661    23.009207           90           90           90 
  189000    251.14671   -18236.509   -16320.789   -18236.509            0    8637.2835    49.900182    24.944947    23.027246            0            0            0    28663.335    8745.1459     8917.861    8248.8437   -40.695715   -67.351711   -11.545134    49.900182    24.944947    23.027246           90           90           90 
  189500    255.77206   -18196.766   -16245.764   -18196.766            0    8448.2218    49.962704    24.969184    22.995192            0            0            0    28687.144    8667.7748    8983.1615    7693.7289    562.06826    331.91176    13.483343    49.962704    24.969184    22.995192           90           90           90 
  190000    265.70459   -18182.391   -16155.625   -18182.391            0    8333.5996    50.015504     24.95349    23.015998            0            0            0    28725.379    8153.1762    8901.3132    7946.3093   -17.591265   -105.06292    16.366433    50.015504     24.95349    23.015998           90           90           90 
  190500    265.26213   -18146.728   -16123.337   -18146.728            0    8470.0767    49.841627    24.986133    23.060917            0            0            0    28718.901    8865.6478    7942.7033     8601.879    280.37255   -576.34698     392.6261    49.841627    24.986133    23.060917           90           90           90 
  191000    262.27956   -18222.876   -16222.236   -18222.876            0    8624.3648    50.131705    24.932752    22.929064            0            0            0    28659.527     7394.294     9312.952    9165.8485    570.80308   -23.488676   -757.31502    50.131705    24.932752    22.929064           90           90           90 
  191500    262.19695   -18219.837   -16219.827   -18219.837            0    8424.9269     49.82225    25.005167    23.049496            0            0            0    28715.378    8370.2792    8344.0361    8560.4652     91.21991   -536.79708    772.63679     49.82225    25.005167    23.049496           90           90           90 
  192000    260.30126    -18257.16    -16271.61    -18257.16            0    8207.7161    50.024496    24.935446    23.005238            0            0            0    28696.346    8003.9187    8505.4309    8113.7988   -22.748243    477.88901   -176.94981    50.024496    24.935446    23.005238           90           90           90 
  192500    266.01592   -18225.369   -16196.229   -18225.369            0    7582.6464     49.98776    25.011894    22.995992            0            0            0    28751.626    8033.7019    7348.1305    7366.1069    84.732271    360.65584   -318.87631     49.98776    25.011894    22.995992           90           90           90 
  193000    259.12191   -18209.278   -16232.724   -18209.278            0      7578.23    49.967955     24.97487    23.064005            0            0            0    28782.568    7574.9054    8007.0995    7152.6852   -726.15248    465.28606    349.38303    49.967955     24.97487    23.064005           90           90           90 
  193500    258.04218   -18235.722   -16267.404   -18235.722            0    7672.6966     50.02435    25.012795    22.965407            0            0            0    28735.438    7757.6867    7453.4039    7806.9992   -188.18139   -168.91607   -452.24015     50.02435    25.012795    22.965407           90           90           90 
  194000    260.76996   -18239.357   -16250.231   -18239.357            0     7536.997    49.977097    24.968939    23.078568            0            0            0     28799.17    6959.0666    8534.0869    7117.8376    271.05855    -117.1882   -835.30649    49.977097    24.968939    23.078568           90           90           90 
  194500    257.40081   -18181.654   -16218.228   -18181.654            0    7860.3243    50.034595    24.986203    22.998108            0            0            0    28751.649     8014.269    7668.8881    7897.8158   -91.941006     -625.723    229.88484    50.034595    24.986203    22.998108           90           90           90 
  195000    259.32726   -18205.524   -16227.403   -18205.524            0    7465.2607    50.003369    24.985513    23.081151            0            0            0    28836.662    7198.5529     7533.634    7663.5954   -427.60207    95.271187   -240.59251    50.003369    24.985513    23.081151           90           90           90 
  195500    259.89554   -18154.478   -16172.022   -18154.478            0    6750.9949     50.14896    25.071292    22.990763            0            0            0    28906.269    7037.5521    6246.8693    6968.5633    206.78006    150.91641   -156.19509     50.14896    25.071292    22.990763           90           90           90 
  196000    255.72787   -18171.988   -16221.323   -18171.988            0    6572.7922    50.019935    24.989971    23.155034            0            0            0    28943.717    7729.9056    6545.1495    5443.3215    -465.1967    166.88999   -541.15225    50.019935    24.989971    23.155034           90           90           90 
  196500    259.73357   -18158.876   -16177.657   -18158.876            0    6855.7144    50.084761    25.065007    23.035579            0            0            0    28918.287    6792.8684     6669.181    7105.0938   -475.57563    -587.1197     1309.304    50.084761    25.065007    23.035579           90           90           90 
  197000    258.47776   -18206.396   -16234.756   -18206.396            0    6990.3525     50.04986     25.00639    23.047516            0            0            0    28845.494    7132.4311    8006.6431    5831.9832    95.330363   -348.86066    687.10034     50.04986     25.00639    23.047516           90           90           90 
  197500    258.45026   -18229.491    -16258.06   -18229.491            0    6945.2656    50.008808    25.001645    23.056918            0            0            0     28828.12     7247.111    7123.6587     6465.027    328.60484    904.89008    881.90813    50.008808    25.001645    23.056918           90           90           90 
  198000     255.6867   -18196.076   -16245.725   -18196.076            0    7148.2844    50.075396    24.988553    23.048015            0            0            0    28840.251    7629.3052    7376.5877    6438.9602    39.021311   -705.31425    358.39892    50.075396    24.988553    23.048015           90           90           90 
  198500    256.24192   -18227.505    -16272.92   -18227.505            0    7136.5405    50.001125    24.990951    23.066244            0            0            0    28823.018    6785.0407    7077.5105    7547.0704    -495.0001   -662.59327    243.00868    50.001125    24.990951    23.066244           90           90           90 
  199000    266.12651   -18226.714   -16196.729   -18226.714            0    6936.8368    50.082615    25.005383    23.025893            0            0            0    28836.132    7101.6172    7160.2985    6548.5948    113.62432    168.63448    985.93583    50.082615    25.005383    23.025893           90           90           90 
  199500    261.85708   -18175.058   -16177.641   -18175.058            0    6953.1452    49.984184    25.019605    23.099072            0            0            0    28887.342    7787.9319    6764.5915    6306.9122   -349.62284    195.45493   -267.28352    49.984184    25.019605    23.099072           90           90           90 
  200000    255.96931   -18217.424   -16264.917   -18217.424            0    7046.2818    50.116655    25.014009    23.019295            0            0            0    28857.413    7159.5198    6740.0611    7239.2645    606.65364   -251.45905   -68.718386    50.116655    25.014009    23.019295           90           90           90 
  200500    247.49399   -18199.685   -16311.827   -18199.685            0    7650.5228    49.970807    24.967034    23.089812            0            0            0    28807.377    7604.5724     7156.362    8190.6341   -97.379506    573.33736    160.55931    49.970807    24.967034    23.089812           90           90           90 
  201000    257.04184   -18178.702   -16218.015   -18178.702            0    7249.8987    50.148688     25.02824    22.989743            0            0            0    28855.194    6576.2167     7435.471    7738.0083    45.796544    263.05859     565.2848    50.148688     25.02824    22.989743           90           90           90 
  201500    251.56189   -18170.219   -16251.332   -18170.219            0    7649.5345    49.918139    24.970658    23.105851            0            0            0    28801.184    8128.8254    7626.7849    7192.9933   -93.903493    407.41537   -624.79022    49.918139    24.970658    23.105851           90           90           90 
  202000    263.06005    -18239.76   -16233.167    -18239.76            0    6786.4147    50.104893    25.027306    22.996239            0            0            0    28837.065    6542.4393    7062.4357     6754.369    442.63226    148.75841   -823.39819    50.104893    25.027306    22.996239           90           90           90 
  202500    255.95339   -18218.516   -16266.131   -18218.516            0    7389.4124    50.021712    24.990357    23.047281            0            0            0    28810.494    8139.0993    7119.0634    6910.0745    41.392672    410.79785   -336.04011    50.021712    24.990357    23.047281           90           90           90 
  203000    255.24878   -18305.349   -16358.339   -18305.349            0    7131.7881    50.020038    24.985813    23.004253            0            0            0    28750.515    7318.9332    7399.3572     6677.074    238.04467    305.18241   -367.90574    50.020038    24.985813    23.004253           90           90           90 
  203500    255.46888   -18183.618   -16234.929   -18183.618            0    7569.9104    50.035381     24.99975     23.02196            0            0            0    28797.526    7047.3211     7632.734    8029.6761    262.78117    271.81854   -286.88136    50.035381     24.99975     23.02196           90           90           90 
  204000    261.10107   -18233.057   -16241.406   -18233.057            0     7056.584    49.924632    25.010923    23.082664            0            0            0    28822.425    7159.2282    6545.7504    7464.7736    268.15668    106.83002    279.08222    49.924632    25.010923    23.082664           90           90           90 
  204500    254.90354   -18207.767   -16263.391   -18207.767            0    8272.3398    50.173171    24.898275    22.990231            0            0            0    28719.981    7297.0428    9897.7721    7622.2044    535.31114    289.74654   -59.886727    50.173171    24.898275    22.990231           90           90           90 
  205000    262.55384   -18306.865   -16304.132   -18306.865            0    7806.5626    49.789878    25.033129    23.014036            0            0            0    28684.613    7928.8234    8284.0304     7206.834   -49.210323    300.68834   -32.867743    49.789878    25.033129    23.014036           90           90           90 
  205500    263.85957   -18179.079   -16166.386   -18179.079            0    8609.5403    50.053407    24.928945    23.037433            0            0            0    28745.618    8764.5509    9662.6954    7401.3747    186.95922   -7.6395364    -83.39205    50.053407    24.928945    23.037433           90           90           90 
  206000    261.16104   -18328.298    -16336.19   -18328.298            0    7797.8235    49.857734    25.041223    22.971091            0            0            0    28679.376    8193.5505    7460.5229    7739.3973   -255.47665   -616.21764   -172.61327    49.857734    25.041223    22.971091           90           90           90 
  206500    267.79217   -18243.059   -16200.369   -18243.059            0    8618.6301    50.040031    24.880581     23.05525            0            0            0    28704.363    7820.1926    9657.2829    8378.4147    972.77851    100.13735   -159.51309    50.040031    24.880581     23.05525           90           90           90 
  207000    256.52635   -18192.325    -16235.57   -18192.325            0    8624.7483    49.850565    25.079133    22.948745            0            0            0    28690.727    9242.0432    8012.4926    8619.7091   -143.80761    142.99111   -211.39213    49.850565    25.079133    22.948745           90           90           90 
  207500    259.25236   -18240.626   -16263.077   -18240.626            0     8522.654    50.038688    24.824124    23.086861            0            0            0    28677.728    8609.4811    8787.0386    8171.4423    213.30854    781.60665    716.42589    50.038688    24.824124    23.086861           90           90           90 
  208000    263.83794   -18246.622   -16234.094   -18246.622            0    8769.5437    49.797037     25.03101    22.986694            0            0            0    28652.228    9199.8943     8111.566    8997.1709    167.70152   -775.42563   -118.15235    49.797037     25.03101    22.986694           90           90           90 
  208500    260.93554   -18233.303   -16242.914   -18233.303            0    8555.6339    50.066307    24.895838    23.008725            0            0            0    28679.057    8147.1094    8423.4266    9096.3657   -255.24746    458.27977    63.207734    50.066307    24.895838    23.008725           90           90           90 
  209000    268.17228   -18262.632   -16217.043   -18262.632            0    8222.7901    49.774069      25.0284    23.054929            0            0            0    28721.032    8677.6623     7572.481    8418.2269   -122.11968    429.51252   -683.55812    49.774069      25.0284    23.054929           90           90           90 
  209500    266.85526   -18251.139   -16215.596   -18251.139            0    8133.4885    50.221761    24.911697    22.961013            0            0            0    28726.737    7418.2983    8753.4487    8228.7186   -49.482487    377.90777   -40.100799    50.221761    24.911697    22.961013           90           90           90 
  210000     256.2174   -18191.315   -16236.916   -18191.315            0    8486.1223    49.677468     25.05125    23.067908            0            0            0    28707.612    9209.7845     7872.003    8376.5794   -285.10816   -444.58601   -31.558882    49.677468     25.05125    23.067908           90           90           90 
  210500    268.92843   -18277.922   -16226.564   -18277.922            0    7800.8139    50.245223    24.918015    22.957167            0            0            0    28742.631    6507.7839    8797.8066    8096.8513    35.632581   -440.66963   -29.908888    50.245223    24.918015    22.957167           90           90           90 
  211000    258.23313   -18219.178   -16249.403   -18219.178            0    8197.1143     49.84794    25.015051    23.043882            0            0            0    28734.541    8734.4639    7703.3576    8153.5214   -247.66726    -805.6778    127.47627     49.84794    25.015051    23.043882           90           90           90 
  211500    258.06189   -18260.387   -16291.918   -18260.387            0     7594.441    50.036679    24.965459    23.003571            0            0            0      28735.8    7702.9842    7371.6776    7708.6613   -468.54793    549.98583   -185.92077    50.036679    24.965459    23.003571           90           90           90 
  212000    256.72784   -18240.592     -16282.3   -18240.592            0    7467.3748    49.936432    25.005424    23.054105            0            0            0    28787.239    7831.1122    7255.1496    7315.8626    484.84005    292.17797   -871.22348    49.936432    25.005424    23.054105           90           90           90 
  212500    262.12799   -18200.021   -16200.537   -18200.021            0    8124.6662     50.06427    24.943564     23.04007            0            0            0    28772.009    7958.2023    8533.5168    7882.2795   -161.62091    262.44166    509.08015     50.06427    24.943564     23.04007           90           90           90 
  213000    261.33805   -18236.651   -16243.192   -18236.651            0     8002.656    49.912412    25.046763    22.980644            0            0            0    28729.122    8079.7751     7594.228    8333.9648   -694.73713    201.60777    606.64234    49.912412    25.046763    22.980644           90           90           90 
  213500     257.7093   -18173.003   -16207.224   -18173.003            0     8504.074    50.087826    24.846112    23.069371            0            0            0    28709.549    7876.9777    8942.6646    8692.5797   -446.42748   -1339.8205   -324.75656    50.087826    24.846112    23.069371           90           90           90 
  214000    265.59917   -18225.563     -16199.6   -18225.563            0    8288.6523    49.821003      25.1167    22.922206            0            0            0    28683.455    8279.2486     7894.585    8692.1233   -647.69105   -614.85524   -179.29662    49.821003      25.1167    22.922206           90           90           90 
  214500    257.05894   -18198.709   -16237.891   -18198.709            0    8392.2926    50.064275    24.874875    23.046483            0            0            0    28700.767     8780.536    8261.9301    8134.4116   -156.39172    623.60811   -668.90411    50.064275    24.874875    23.046483           90           90           90 
  215000    253.22513   -18276.519   -16344.945   -18276.519            0     8178.942    49.832966    25.019122    22.992351            0            0            0    28666.337    8291.0527    8143.5151    8102.2582   -165.43922    940.10774    4.7973128    49.832966    25.019122    22.992351           90           90           90 
  215500    264.24831   -18182.996   -16167.338   -18182.996            0    8044.1598     50.08203    24.928277    23.037579            0            0            0    28761.466    8278.4492    8022.5668    7831.4635   -505.08348   -453.76596    169.20174     50.08203    24.928277    23.037579           90           90           90 
  216000      259.308   -18251.773   -16273.799   -18251.773            0    7843.4761    49.830472     25.00761    23.064787            0            0            0    28741.977    8304.3371    7595.2171     7630.874    443.49251   -172.10342   -211.83545    49.830472     25.00761    23.064787           90           90           90 
  216500    263.66096   -18272.171   -16260.994   -18272.171            0    8162.7706    50.153309    24.912402    22.982834            0            0            0    28715.658    7668.9046    8085.7784    8733.6289   -104.50585   -392.78494    487.42453    50.153309    24.912402    22.982834           90           90           90 
  217000    262.36148   -18180.171   -16178.906   -18180.171            0    9435.3384    49.659903    24.991189    23.092496            0            0            0    28659.174    10550.005    8911.6579    8844.3523    215.42861   -464.66829   -852.81905    49.659903    24.991189    23.092496           90           90           90 
  217500    264.90397   -18234.018   -16213.359   -18234.018            0    8793.6226    50.152943     24.88427    22.943116            0            0            0    28633.453    8130.7161    8997.5941    9252.5577   -179.13039    445.90748   -524.96311    50.152943     24.88427    22.943116           90           90           90 
  218000    262.54231   -18217.195    -16214.55   -18217.195            0    7982.7671    49.844045    24.997293    23.065877            0            0            0    28739.303    8901.1484    7839.9139    7207.2389     374.7033    95.028238   -383.29083    49.844045    24.997293    23.065877           90           90           90 
  218500    262.68339   -18227.371    -16223.65   -18227.371            0    7962.6301    50.056668    24.934679    22.996943            0            0            0    28703.564    7642.9982    8715.7212    7529.1708     184.2378    -244.6024   -577.80685    50.056668    24.934679    22.996943           90           90           90 
  219000    261.41197   -18259.033    -16265.01   -18259.033            0    8269.9997    49.862588    24.998712    23.017955            0            0            0    28691.892    9439.9948    7317.6435    8052.3609   -133.11713   -439.02067     18.60715    49.862588    24.998712    23.017955           90           90           90 
  219500    255.77952    -18240.15   -16289.092    -18240.15            0    8219.4655    49.989033    24.947342    23.027816            0            0            0    28717.839    7622.3951    8555.0161    8480.9854   -96.106882    252.49311    222.41539    49.989033    24.947342    23.027816           90           90           90 
  220000    255.44789    -18205.68    -16257.15    -18205.68            0     7967.002    49.975612    24.976651    23.011607            0            0            0    28723.627    7597.3938    8421.8474    7881.7647    44.860822   -298.18357   -564.36196    49.975612    24.976651    23.011607           90           90           90 
  220500    258.48761   -18274.076    -16302.36   -18274.076            0    8137.4221    49.940522    24.981339     22.99611            0            0            0    28689.511    8388.9635    7285.1739    8738.1288   -68.655929   -88.049769    420.68631    49.940522    24.981339     22.99611           90           90           90 
  221000    260.50424   -18200.497   -16213.398   -18200.497            0    9041.0861    49.893391    24.921771    23.059498            0            0            0     28672.91    8679.3658    9303.6927    9140.1998    9.0652874   -752.87341   -19.358836    49.893391    24.921771    23.059498           90           90           90 
  221500    258.16253   -18257.108   -16287.872   -18257.108            0    8214.9278      49.9704     24.99995    22.932979            0            0            0    28649.197    8560.2509    7745.4494    8339.0831   -340.30939   -253.62292    622.22539      49.9704     24.99995    22.932979           90           90           90 
  222000    250.27906    -18208.01   -16298.908    -18208.01            0    8659.4685    49.910919    24.927244     23.04981            0            0            0    28677.229    8996.9492    9346.7746    7634.6817    376.01967    913.06052     169.3642    49.910919    24.927244     23.04981           90           90           90 
  222500     264.2448   -18207.069   -16191.438   -18207.069            0    8183.8793    50.049429    25.010084    22.957494            0            0            0    28736.824    8577.5578    7830.8532    8143.2269   -651.41457    74.062448    664.53387    50.049429    25.010084    22.957494           90           90           90 
  223000    259.98938   -18206.901    -16223.73   -18206.901            0    8599.0302    49.910619    24.967179    23.046064            0            0            0    28718.331    8548.2703    8836.7636    8412.0566    -348.7137   -486.75241    266.82555    49.910619    24.967179    23.046064           90           90           90 
  223500     261.2665   -18190.284   -16197.371   -18190.284            0    9049.1608    49.897545    25.003818    22.979496            0            0            0    28669.888     9621.792    8243.2133    9282.4772   -53.640513   -423.65992   -466.13454    49.897545    25.003818    22.979496           90           90           90 
  224000    268.02353   -18253.645   -16209.191   -18253.645            0    8968.7849    49.992151    24.890027     23.00047            0            0            0    28619.623    8349.7241    9233.9978    9322.6329    97.111893    827.22995   -225.89514    49.992151    24.890027     23.00047           90           90           90 
  224500    261.48892    -18249.64    -16255.03    -18249.64            0    8759.9598    49.838842    24.947017    23.029034            0            0            0    28632.699    9795.4137    8041.7417    8442.7239   -375.79214    -222.1933    222.70494    49.838842    24.947017    23.029034           90           90           90 
  225000    258.37866    -18182.65   -16211.765    -18182.65            0     8910.748    49.987596    24.968287    22.954602            0            0            0    28649.746    9086.8427    9131.8241    8513.5772   -4.1955892    343.37503   -387.61796    49.987596    24.968287    22.954602           90           90           90 
  225500    263.92745   -18204.661   -16191.451   -18204.661            0    8685.4117    49.890437     24.93753     23.03798            0            0            0    28662.571    8473.3228    8659.5842    8923.3281   -111.32103    177.25196   -377.42003    49.890437     24.93753     23.03798           90           90           90 
  226000    253.82879    -18233.75   -16297.571    -18233.75            0    8890.7136    49.973962    24.949581    22.971738            0            0            0    28641.838     8786.406    9047.8319    8837.9028   -180.75045    326.88847    110.44457    49.973962    24.949581    22.971738           90           90           90 
  226500    258.67232   -18239.674   -16266.549   -18239.674            0    8636.9063    49.910067    24.988883     22.96968            0            0            0    28647.712    9306.3606    8309.4345    8294.9239    94.441493   -315.64174   -61.443433    49.910067    24.988883     22.96968           90           90           90 
  227000     265.2856   -18235.394   -16211.824   -18235.394            0    8702.2052    50.056907    24.880526    23.037303            0            0            0    28691.628    7907.4269    9564.4782    8634.7106    91.148941    67.974352     509.9081    50.056907    24.880526    23.037303           90           90           90 
  227500    262.57898   -18235.373   -16232.449   -18235.373            0    8159.3095    49.935173    25.020904    22.967387            0            0            0    28695.986    8386.0657    7517.4498     8574.413    254.14121   -603.29746   -237.50858    49.935173    25.020904    22.967387           90           90           90 
  228000     262.3546   -18161.148   -16159.935   -18161.148            0    8633.0664    49.981041    24.920562    23.061147            0            0            0    28723.942    8759.7619    9204.2748    7935.1624    307.56141   -145.12157   -113.01248    49.981041    24.920562    23.061147           90           90           90 
  228500    255.51955   -18165.535   -16216.459   -18165.535            0     8671.708    49.960675     24.98184    23.017325            0            0            0    28728.143    8881.9199    8453.7711    8679.4331    -732.0933    467.06345    161.18568    49.960675     24.98184    23.017325           90           90           90 
  229000    259.83294   -18202.175   -16220.197   -18202.175            0    8004.5852    50.022237    24.983073    23.018271            0            0            0    28766.145    7712.8367    8189.8016    8111.1173    875.76541   -375.67638    -668.0332    50.022237    24.983073    23.018271           90           90           90 
  229500    258.05604    -18209.09   -16240.666    -18209.09            0    7694.0685    49.874306    24.999187    23.105899            0            0            0     28808.83    8385.7452    7596.0771    7100.3833   -627.18305   -384.34039   -306.50909    49.874306    24.999187    23.105899           90           90           90 
  230000    260.15427   -18258.509    -16274.08   -18258.509            0     7030.099    50.196997    25.033091    22.933479            0            0            0    28817.889    5837.8188    7246.6256    8005.8524   -503.75068    34.020383    140.09691    50.196997    25.033091    22.933479           90           90           90 
  230500    257.77618   -18219.527   -16253.238   -18219.527            0    6856.4324    49.908687    24.993518    23.123408            0            0            0    28843.992    7345.4212    6890.1449    6333.7312    362.24803    573.08956    652.34574    49.908687    24.993518    23.123408           90           90           90 
  231000    268.83622   -18228.358   -16177.704   -18228.358            0    7245.4866    50.134088    25.013186    22.974672            0            0            0    28810.543    6923.6182    7181.4247    7631.4169    180.16839     168.6182   -748.54404    50.134088    25.013186    22.974672           90           90           90 
  231500    259.22601   -18237.221   -16259.873   -18237.221            0    7709.6696    49.835136    25.009036    23.066874            0            0            0    28748.907    8333.0971    6826.9166    7968.9951    297.42149   -650.78988      399.619    49.835136    25.009036    23.066874           90           90           90 
  232000    256.61437   -18220.515   -16263.088   -18220.515            0    7882.2434    50.044218    24.938208    23.052536            0            0            0    28769.867    7190.9405    8622.9631    7832.8265    417.26946    552.60159    430.44428    50.044218    24.938208    23.052536           90           90           90 
  232500    253.97064   -18231.194   -16293.933   -18231.194            0    6744.1353    50.014273    25.060851    23.008158            0            0            0    28838.431    7398.2244    6071.6887     6762.493   -73.310346    -394.6561    -141.0537    50.014273    25.060851    23.008158           90           90           90 
  233000    262.38951   -18227.787   -16226.308   -18227.787            0    7557.9074    50.012419    24.931536     23.09217            0            0            0    28793.314    7328.0617    7991.1027    7354.5578   -41.909918    497.60749    291.14438    50.012419    24.931536     23.09217           90           90           90 
  233500    260.32415   -18229.517   -16243.793   -18229.517            0    7039.8066    50.063629    25.094047    22.963907            0            0            0    28849.534    7711.5234     5830.906    7576.9903   -94.607617   -481.93294    853.32268    50.063629    25.094047    22.963907           90           90           90 
  234000    259.22712   -18208.693   -16231.337   -18208.693            0    6962.4037    50.013218    24.935744    23.135052            0            0            0    28852.113     7298.682    7122.8682     6465.661   -360.46106   -364.72982   -536.26472    50.013218    24.935744    23.135052           90           90           90 
  234500    255.04907    -18248.83   -16303.343    -18248.83            0    7642.3777    50.049142    25.053396     22.95787            0            0            0    28786.896    7751.6014    7479.7793    7695.7524    32.066168   -208.81092   -1252.6269    50.049142    25.053396     22.95787           90           90           90 
  235000    253.93255   -18250.646   -16313.676   -18250.646            0     7417.354    50.008969    24.926985     23.09126            0            0            0    28784.937    7434.9778    7787.1103    7029.9739     214.3686    564.63871    535.84017    50.008969    24.926985     23.09126           90           90           90 
  235500    264.26042   -18190.527   -16174.776   -18190.527            0    7552.9723    49.996664    24.988379    23.034356            0            0            0     28777.64     7400.829    7633.9792    7624.1086    20.450307   -5.5194735    541.01271    49.996664    24.988379    23.034356           90           90           90 
  236000    258.40209   -18278.831   -16307.767   -18278.831            0    7519.8207     50.10523     24.97259    23.019029            0            0            0    28802.731    7170.7134    7832.7778    7555.9709     91.03282    297.89209    602.38237     50.10523     24.97259    23.019029           90           90           90 
  236500    256.19083   -18184.519   -16230.323   -18184.519            0    8012.6731    49.796719     24.99201    23.147979            0            0            0    28808.125    8747.3364    7508.6779    7782.0049   -396.91737    43.076395    111.43167    49.796719     24.99201    23.147979           90           90           90 
  237000    254.90085   -18233.485   -16289.128   -18233.485            0    7783.2865    50.265125    24.990948    22.889052            0            0            0    28752.612     6637.319    7812.1344    8900.4062    285.12413    872.27435    948.06644    50.265125    24.990948    22.889052           90           90           90 
  237500    255.24328   -18252.612   -16305.644   -18252.612            0    7771.3805    49.755958    24.982828    23.126543            0            0            0    28747.323    8622.8985    7298.6481     7392.595   -351.79287    162.20149    -555.0443    49.755958    24.982828    23.126543           90           90           90 
  238000    261.07268   -18194.157   -16202.723   -18194.157            0    7933.7522    50.173577    24.965338    22.974877            0            0            0    28778.338     7442.648    7681.9644    8676.6442   -441.44346   -121.44338    653.39265    50.173577    24.965338    22.974877           90           90           90 
  238500    261.31449   -18264.039    -16270.76   -18264.039            0    7699.1193    49.856506    24.993201    23.097245            0            0            0    28780.869    8447.8182    7073.9627     7575.577   -371.98979   -28.344744   -92.113984    49.856506    24.993201    23.097245           90           90           90 
  239000    255.14491   -18214.474   -16268.256   -18214.474            0    7510.1906    50.161197    24.974967    22.974984            0            0            0    28782.468    7137.6531    7567.1264    7825.7923    710.69333    79.243582     251.8104    50.161197    24.974967    22.974984           90           90           90 
  239500    262.14919   -18226.977   -16227.331   -18226.977            0    6739.6527    49.912664    25.064815    23.072465            0            0            0    28864.847    7462.0579    5996.1805    6760.7196   -364.96509   -610.20067    34.337298    49.912664    25.064815    23.072465           90           90           90 
  240000    257.60236   -18226.182   -16261.218   -18226.182            0    6728.3791    50.176536    24.934402     23.09224            0            0            0    28891.208    6050.1783    7076.4499    7058.5091   -271.07381    63.724077    -332.7149    50.176536    24.934402     23.09224           90           90           90 
  240500    256.58751   -18197.221   -16239.999   -18197.221            0     7736.255    49.998479    25.064326    22.989371            0            0            0    28809.778    7918.0164    7419.6003    7871.1483   -90.658061   -1034.4796    391.27462    49.998479    25.064326    22.989371           90           90           90 
  241000    256.04227   -18188.702   -16235.639   -18188.702            0    7677.1349    50.019173    24.946173    23.091903            0            0            0    28813.776    7205.8293     8541.975    7283.6004   -488.42066   -63.187527   -808.78905    50.019173    24.946173    23.091903           90           90           90 
  241500     266.0105   -18182.568   -16153.468   -18182.568            0    7963.7619     49.95706    25.048189    22.980712            0            0            0    28756.544    7480.4953    7949.1823    8461.6081    324.10778   -303.81863   -34.454637     49.95706    25.048189    22.980712           90           90           90 
  242000    264.71396   -18246.802   -16227.592   -18246.802            0     7845.107    50.096611    24.890517    23.077017            0            0            0    28775.438    6095.7195    9337.1565    8102.4451   -263.85099    265.20267     24.85806    50.096611    24.890517    23.077017           90           90           90 
  242500    265.49514   -18182.778   -16157.609   -18182.778            0    7791.2027    49.923796    25.099161    22.976936            0            0            0    28791.143    8313.0395    7100.2211    7960.3474    391.60151    459.69565   -493.23263    49.923796    25.099161    22.976936           90           90           90 
  243000    260.66934   -18196.147   -16207.789   -18196.147            0    8310.7127    50.159685    24.847858    23.057197            0            0            0    28737.585    7584.2906     9100.117    8247.7304    474.40603   -685.26311   -175.87281    50.159685    24.847858    23.057197           90           90           90 
  243500     262.3604   -18306.739   -16305.482   -18306.739            0    7379.8572    49.714833    25.113415    23.019662            0            0            0     28740.26    8120.0663    6694.0787    7325.4267    -491.9513    693.78495   -112.22866    49.714833    25.113415    23.019662           90           90           90 
  244000     257.2186   -18229.035   -16266.999   -18229.035            0    7883.2903    50.230366    24.884991    22.999667            0            0            0    28749.176    7252.8015    8389.6626    8007.4069   -686.76979    551.05437   -44.356724    50.230366    24.884991    22.999667           90           90           90 
  244500    264.90842   -18179.212   -16158.519   -18179.212            0    7747.3978    49.895303    25.024204    23.080968            0            0            0    28818.672    8644.5633     6831.117    7766.5131   -672.79492   -116.97806    416.31576    49.895303    25.024204    23.080968           90           90           90 
  245000    265.35185   -18206.342   -16182.267   -18206.342            0    7439.1449    50.146962    24.968831    22.970815            0            0            0     28762.01    7221.8911    8204.4042    6891.1395   -46.379149   -66.534218    528.20877    50.146962    24.968831    22.970815           90           90           90 
  245500    262.31119   -18165.689   -16164.808   -18165.689            0    8404.1457    49.825521    24.995979    23.069863            0            0            0    28732.077    9009.2924    8545.0943    7658.0504    170.73036   -40.215251    385.35354    49.825521    24.995979    23.069863           90           90           90 
  246000    262.08464     -18241.9   -16242.746     -18241.9            0    8218.8506    50.090446     24.93835    22.990655            0            0            0    28719.306    7934.1307    8454.0994    8268.3217   -136.99861    76.110044   -529.71596    50.090446     24.93835    22.990655           90           90           90 
  246500    259.53061   -18236.887   -16257.216   -18236.887            0    7858.0146     49.82408    25.005433    23.049941            0            0            0    28717.293    8785.3915     7871.711    6916.9412   -176.84573   -487.97837    470.48208     49.82408    25.005433    23.049941           90           90           90 
  247000    264.05467   -18230.626   -16216.445   -18230.626            0    7922.0148    50.128995    24.895776    23.033836            0            0            0    28746.234    6845.6802    9044.1644       7876.2   -117.49199   -519.13248   -458.77578    50.128995    24.895776    23.033836           90           90           90 
  247500    262.16825   -18269.494   -16269.703   -18269.494            0    7402.7211    49.922016    25.084249    22.980765            0            0            0    28777.807     8923.563    6053.0989    7231.5013    206.68164   -943.64323    597.12968    49.922016    25.084249    22.980765           90           90           90 
  248000    257.60754   -18257.572   -16292.569   -18257.572            0    7311.7061    50.073991    24.922798    23.081402            0            0            0    28805.219    6679.7351    7469.3968    7785.9865   -250.10462   -26.782362   -270.93737    50.073991    24.922798    23.081402           90           90           90 
  248500    258.51709   -18238.025   -16266.085   -18238.025            0     7686.455    49.956043    25.052896    22.979638            0            0            0    28760.018     7768.074    7250.2608    8041.0303    161.09304   -44.537433    769.86286    49.956043    25.052896    22.979638           90           90           90 
  249000    260.73894   -18257.932   -16269.043   -18257.932            0    7716.7456    50.045195     24.92521    23.048025            0            0            0    28749.807    7247.7396    8099.2715    7803.2256    126.77808     18.68372     675.6584    50.045195     24.92521    23.048025           90           90           90 
  249500    256.81328   -18252.814    -16293.87   -18252.814            0    8149.6242    49.903109    25.036067    22.992198            0            0            0    28725.937    7985.4253    7602.2853     8861.162    213.61385    123.62365    18.355814    49.903109    25.036067    22.992198           90           90           90 
  250000    267.56568   -18190.802   -16149.839   -18190.802            0    6862.5093    50.126385     24.89539    23.115008            0            0            0    28845.586    7390.2445    7327.1431    5870.1404    68.849218    486.98999   -107.37947    50.126385     24.89539    23.115008           90           90           90 
  250500     258.1753   -18170.771   -16201.438   -18170.771            0     7939.565    49.841685    25.116481    22.992939            0            0            0    28783.659    8277.4024    7333.3868    8207.9059      326.846    19.728855    168.68348    49.841685    25.116481    22.992939           90           90           90 
  251000    258.94375   -18150.299   -16175.104   -18150.299            0    8077.4253    50.145393    24.841603    23.077895            0            0            0    28747.948    7676.3046    8798.6617    7757.3097   -83.494198    1185.1855   -241.78244    50.145393    24.841603    23.077895           90           90           90 
  251500    264.32407   -18223.118   -16206.882   -18223.118            0    8155.6887    49.836702    25.054486    22.986791            0            0            0    28702.065    8049.0708    8057.6477    8360.3477   -172.85894   -1204.8732    -173.2954    49.836702    25.054486    22.986791           90           90           90 
  252000    260.88578   -18292.171   -16302.163   -18292.171            0    7988.1442    50.092136    24.873223    23.050275            0            0            0    28719.556    7673.8751    9272.1271    7018.4304   -7.0038379    26.912773   -584.81084    50.092136    24.873223    23.050275           90           90           90 
  252500    260.33871   -18195.884   -16210.048   -18195.884            0     8553.897    49.917752     25.01838     22.99151            0            0            0    28713.207    8022.4121    8613.7153    9025.5636    783.64562   -407.04456    64.599473    49.917752     25.01838     22.99151           90           90           90 
  253000    255.44651    -18213.97   -16265.452    -18213.97            0    8469.6912    50.078404     24.89248    22.993429            0            0            0    28663.048    7907.1773    9604.5562    7897.3401   -120.91051    407.06673    425.80471    50.078404     24.89248    22.993429           90           90           90 
  253500    264.90049   -18205.151   -16184.519   -18205.151            0    8172.4999    49.879048    25.004175    23.009016            0            0            0    28696.488    8581.6837    8082.6144    7853.2015    200.63879    233.47412   -8.7473557    49.879048    25.004175    23.009016           90           90           90 
  254000     254.6816   -18173.972   -16231.288   -18173.972            0    9480.7386    50.034427     24.87712    22.990145            0            0            0     28616.12    8776.2502    10198.643    9467.3226   -72.240359    -372.3199    902.68013    50.034427     24.87712    22.990145           90           90           90 
  254500    266.72245   -18167.875   -16133.345   -18167.875            0    9840.4427    49.804293    24.973058    22.981309            0            0            0    28583.359    11171.517    8859.1183    9490.6931   -198.22829   -31.190209    161.94054    49.804293    24.973058    22.981309           90           90           90 
  255000    262.85985   -18223.043   -16217.976   -18223.043            0    9182.9362    49.948776    24.881297    23.023703            0            0            0    28613.635    8640.2192    9672.0908    9236.4984    16.110893   -26.644182   -123.04062    49.948776    24.881297    23.023703           90           90           90 
  255500     260.8573   -18258.208   -16268.416   -18258.208            0    8682.5939    49.839602     25.01899    22.970522            0            0            0    28642.782    9222.6126    7916.3266    8908.8424    -66.98816    360.34111    798.97684    49.839602     25.01899    22.970522           90           90           90 
  256000    265.40005   -18195.098   -16170.655   -18195.098            0    8415.7928    50.092211    24.876965    23.062595            0            0            0    28739.273    7968.3226    9695.5351    7583.5207   -145.60818   -208.98278     566.7489    50.092211    24.876965    23.062595           90           90           90 
  256500    265.44537   -18247.523   -16222.734   -18247.523            0    8059.0602    49.815693    25.057852    22.996366            0            0            0    28705.772    8716.0247    7744.6456    7716.5103   -463.16953    161.11282    96.094361    49.815693    25.057852    22.996366           90           90           90 
  257000    254.43848   -18174.734   -16233.904   -18174.734            0    8299.6578    50.067998    24.891645    23.040655            0            0            0    28714.989    8343.1353    9186.1095    7369.7287     221.2903   -150.96841   -277.46963    50.067998    24.891645    23.040655           90           90           90 
  257500    255.18474   -18257.242    -16310.72   -18257.242            0    7263.2844    49.861357    25.086215    23.007036            0            0            0    28777.954    8067.6263    6243.7935    7478.4335   -197.36647    974.77143   -419.41248    49.861357    25.086215    23.007036           90           90           90 
  258000    260.84093   -18274.235   -16284.568   -18274.235            0    7260.2102    50.277379    24.877112    23.027875            0            0            0    28802.252     6109.557    7634.2149    8036.8586    318.40791    227.48992    822.79471    50.277379    24.877112    23.027875           90           90           90 
  258500    264.61672    -18245.57   -16227.102    -18245.57            0    7443.6805    49.725225    25.021923    23.117351            0            0            0    28763.088    8277.5542    7790.3725    6263.1147    24.696954   -446.63538   -1046.0938    49.725225    25.021923    23.117351           90           90           90 
  259000     256.0982   -18228.319   -16274.829   -18228.319            0    8054.0427    50.129467    24.940822    22.964877            0            0            0    28712.299    7072.7558    8489.3406    8600.0316    309.88477   -544.09143   -164.38982    50.129467    24.940822    22.964877           90           90           90 
  259500    264.29244   -18295.666   -16279.672   -18295.666            0    8114.5802    49.796156    24.981361    23.065769            0            0            0    28693.258    8320.0781    8129.6293    7894.0333   -450.13239    361.53218    576.92162    49.796156    24.981361    23.065769           90           90           90 
  260000    257.45413   -18269.325   -16305.493   -18269.325            0    8739.5103    50.106198    24.888467    22.956827            0            0            0    28628.689    7086.2022    9577.3545    9554.9742    495.10175   -619.28344    528.48208    50.106198    24.888467    22.956827           90           90           90 
  260500    259.56874   -18239.512   -16259.549   -18239.512            0     8711.258    49.832699    25.002092     23.01711            0            0            0    28677.516    9717.2075    8506.7242    7909.8423   -259.95087   -26.292899   -437.78893    49.832699    25.002092     23.01711           90           90           90 
  261000    249.97075   -18185.835   -16279.085   -18185.835            0    8632.0355    50.075534    24.927457    22.976084            0            0            0    28680.029    8741.7657    8969.6702    8184.6707    215.29063    281.14477    474.07537    50.075534    24.927457    22.976084           90           90           90 
  261500    263.80683   -18217.124   -16204.833   -18217.124            0    8582.1987    49.726013    25.039387    23.015859            0            0            0    28657.251    9105.5234    7970.2435    8670.8291      802.477   -1009.2462    28.102542    49.726013    25.039387    23.015859           90           90           90 
  262000    262.23088   -18205.944   -16205.675   -18205.944            0    8957.0647    50.121374    24.823261    23.011216            0            0            0    28630.001    7874.3636    9641.5344    9355.2962    196.67368    836.12948    350.67459    50.121374    24.823261    23.011216           90           90           90 
  262500    260.63401   -18258.863   -16270.775   -18258.863            0    8799.1843    49.810366    25.057475    22.925124            0            0            0    28613.351      9523.32    7676.6205    9197.6125    585.47712   -947.32874    104.63957    49.810366    25.057475    22.925124           90           90           90 
  263000    268.47959   -18191.375   -16143.442   -18191.375            0    8729.8469     50.04885    24.882042    23.011274            0            0            0    28656.344    9043.9449    8804.0726    8341.5233   -496.46239    295.12881    130.53382     50.04885    24.882042    23.011274           90           90           90 
  263500    266.69815   -18189.411   -16155.066   -18189.411            0    8920.9788    49.870122    24.997283    22.983808            0            0            0    28652.018    8973.1402    8524.5697    9265.2266    336.19039   -68.669898   -247.90267    49.870122    24.997283    22.983808           90           90           90 
  264000    259.12197   -18247.481   -16270.926   -18247.481            0    8741.3003    50.015501    24.915633    23.016424            0            0            0    28682.328    8418.5362    9141.1099    8664.2549   -8.2751699   -366.28699    690.19748    50.015501    24.915633    23.016424           90           90           90 
  264500    260.21578   -18277.596   -16292.698   -18277.596            0    8010.4383    49.895682    25.020527    23.007839            0            0            0    28723.359     8086.039    7794.0202    8151.2557   -432.56959    567.28918   -719.42081    49.895682    25.020527    23.007839           90           90           90 
  265000    256.63668   -18194.663   -16237.066   -18194.663            0    8502.2759     50.03196    24.928531    23.018516            0            0            0     28709.23    8399.7736    9189.4669    7917.5872   -13.186559   -169.36362   -141.02276     50.03196    24.928531    23.018516           90           90           90 
  265500    251.73115   -18203.999   -16283.821   -18203.999            0    8200.1828    49.900284    25.050093    23.001088            0            0            0    28751.516    8827.6673    7151.0801    8621.8011     254.4614   -479.78033   -187.83577    49.900284    25.050093    23.001088           90           90           90 
  266000    251.99365   -18219.486   -16297.305   -18219.486            0    7710.2396    50.085618    24.929161    23.016281            0            0            0    28737.955    7010.5062    8170.2601    7949.9526   -149.26276    151.45613   -536.87877    50.085618    24.929161    23.016281           90           90           90 
  266500    263.94473   -18204.208   -16190.866   -18204.208            0    7364.6987    49.942162    25.019214    23.048662            0            0            0    28799.618    7499.5336    7173.3833    7421.1793   -245.97948   -318.48413   -265.22724    49.942162    25.019214    23.048662           90           90           90 
  267000    263.96128   -18194.466   -16180.997   -18194.466            0    8084.6221    50.017479    24.942151    23.023612            0            0            0    28722.958    7996.1121    7951.3322    8306.4221   -217.36091   -221.42642    346.88427    50.017479    24.942151    23.023612           90           90           90 
  267500    261.71076    -18251.56   -16255.258    -18251.56            0    8000.2247    49.974789    24.961075    23.017183            0            0            0    28712.197    8046.9262    8070.0029    7883.7451    182.14823   -293.74932    159.62475    49.974789    24.961075    23.017183           90           90           90 
  268000    258.85145   -18258.363   -16283.872   -18258.363            0    8104.1354    50.047069    24.929292    22.991396            0            0            0     28684.94     7751.946    8570.1223    7990.3379   -93.823537    153.61301   -324.57436    50.047069    24.929292    22.991396           90           90           90 
  268500    259.16164   -18247.913   -16271.056   -18247.913            0    8444.4902    49.878031    24.984423    23.010309            0            0            0    28674.845     9050.932    7898.9447     8383.594    106.37792   -828.71878   -589.01367    49.878031    24.984423    23.010309           90           90           90 
  269000     263.8056   -18306.986   -16294.706   -18306.986            0    7893.7722    50.011942    24.936739     22.99073            0            0            0    28672.539    8000.6141    8242.0817    7438.6208   -232.56315   -54.795678    243.28437    50.011942    24.936739     22.99073           90           90           90 
  269500    265.14339   -18159.652   -16137.167   -18159.652            0    8510.7402    49.878154    24.979978    23.054153            0            0            0    28724.442    8635.0204     8874.949    8022.2514    516.08561   -385.02927    154.68524    49.878154    24.979978    23.054153           90           90           90 
  270000    258.81869   -18221.843   -16247.602   -18221.843            0    8410.1137    50.004085    24.942925    23.017001            0            0            0    28707.911    7949.5266    9624.6731    7656.1415    -521.7037    180.65084    981.87328    50.004085    24.942925    23.017001           90           90           90 
  270500    260.59583   -18243.422   -16255.625   -18243.422            0    8054.0698    49.970557    24.970782    22.984728            0            0            0    28680.433    7684.4844    7881.9226    8595.8023   -12.043159    -322.5989    177.81286    49.970557    24.970782    22.984728           90           90           90 
  271000    260.33837    -18270.66   -16284.827    -18270.66            0     8581.385    49.876546     24.92668     23.05587            0            0            0    28664.365    8938.4656    8648.8626    8156.8268    236.92772   -445.74588   -116.64976    49.876546     24.92668     23.05587           90           90           90 
  271500    265.42037   -18210.101   -16185.503   -18210.101            0    9359.9539     49.99599    24.963778    22.936863            0            0            0    28627.242    9336.2975    9254.4981    9489.0661   -599.41327    63.844804    862.47134     49.99599    24.963778    22.936863           90           90           90 
  272000    264.81763     -18194.5     -16174.5     -18194.5            0    8976.7797    49.892327    24.897382    23.074168            0            0            0    28662.462    9909.0894     8772.559    8248.6908     3.226843   -487.67176   -36.900478    49.892327    24.897382    23.074168           90           90           90 
  272500    264.90329   -18230.935   -16210.281   -18230.935            0    7803.3843    49.987891    25.021766     22.98343            0            0            0    28747.336     7326.237    7955.6209    8128.2951    411.85041   -828.03586   -563.83893    49.987891    25.021766     22.98343           90           90           90 
  273000    255.87235   -18170.165   -16218.398   -18170.165            0     8113.978    50.086696    24.944045    22.992531            0            0            0    28726.058    7609.3065    9089.6243    7643.0032   -754.98107    329.10252    160.08251    50.086696    24.944045    22.992531           90           90           90 
  273500    261.94217   -18272.306   -16274.239   -18272.306            0    8081.6246    49.848428    24.961261    23.058999            0            0            0    28691.843    8636.2131    8534.7852    7073.8754   -315.75198   -455.72998    482.05001    49.848428    24.961261    23.058999           90           90           90 
  274000    263.22506   -18184.524   -16176.671   -18184.524            0    8144.1033    50.096084    24.967805    22.980171            0            0            0    28743.351    7683.4912    8110.3027     8638.516   -654.59293   -763.53782   -46.716489    50.096084    24.967805    22.980171           90           90           90 
  274500    265.08427    -18258.47   -16236.436    -18258.47            0    8033.4377    49.763953    24.984407    23.101506            0            0            0     28722.63    9147.4659    7067.8612    7884.9859   -245.44643   -355.89953   -90.699594    49.763953    24.984407    23.101506           90           90           90 
  275000    263.32528   -18214.007    -16205.39   -18214.007            0    8032.8596     50.08962    24.969401    22.982391            0            0            0    28744.256    7025.6421    9035.9347     8037.002   -218.62425    144.26366    442.12144     50.08962    24.969401    22.982391           90           90           90 
  275500    256.49578   -18252.835   -16296.312   -18252.835            0    8185.2831    49.887463    24.967871    23.021649            0            0            0     28675.39    9064.9548    8548.8865     6942.008    695.17999    43.414419   -183.78752    49.887463    24.967871    23.021649           90           90           90 
  276000    259.71259   -18185.515   -16204.456   -18185.515            0     8095.439    50.082598    24.935813    23.007994            0            0            0     28733.54    8201.4116    8292.4007    7792.5046    493.50992   -150.51966    92.348372    50.082598    24.935813    23.007994           90           90           90 
  276500    261.17429   -18266.421   -16274.211   -18266.421            0    7550.1793    49.896477    25.029712    23.018776            0            0            0    28748.021     7765.137    7152.4305    7732.9704    96.374085    98.916652   -108.88323    49.896477    25.029712    23.018776           90           90           90 
  277000     265.5398   -18241.703   -16216.194   -18241.703            0    7503.8054    50.122583    24.924772    23.058813            0            0            0    28807.235    7406.9322    7796.1993    7308.2848   -6.0383369   -476.72627      472.289    50.122583    24.924772    23.058813           90           90           90 
  277500    254.83043   -18224.723   -16280.904   -18224.723            0    8031.8631    49.978778    25.026023    22.959954            0            0            0    28717.622    8281.4681    7849.5095    7964.6118    111.78488    209.65254   -281.80871    49.978778    25.026023    22.959954           90           90           90 
  278000    259.68226   -18210.077   -16229.249   -18210.077            0    8109.9377    50.007675    24.965953    23.037909            0            0            0    28762.583    8004.0955    8528.7567    7796.9609    -234.3568    346.02868   -378.22417    50.007675    24.965953    23.037909           90           90           90 
  278500    262.98176   -18183.981   -16177.984   -18183.981            0    7886.0549    49.963331    25.000744    23.039518            0            0            0    28779.133    8731.1948    7106.9181    7820.0519   -168.51986   -313.93117   -156.43543    49.963331    25.000744    23.039518           90           90           90 
  279000    263.70047   -18187.625   -16176.146   -18187.625            0    8014.9674    50.047026    24.965922    22.998017            0            0            0    28735.336      7869.69    8082.8823      8092.33   -498.48876   -260.39471     523.6463    50.047026    24.965922    22.998017           90           90           90 
  279500    263.67084   -18230.156   -16218.903   -18230.156            0    8097.8888    49.884141    24.988784    23.040776            0            0            0    28721.341    8137.7454     7950.401      8205.52   -206.30436    -663.9104    161.62525    49.884141    24.988784    23.040776           90           90           90 
  280000    267.14058   -18156.953   -16119.233   -18156.953            0     9099.237    49.986632    24.945553    23.008436            0            0            0    28690.236    9178.9645    8364.2352    9754.5112   -23.853957    168.76568   -274.24756    49.986632    24.945553    23.008436           90           90           90 
  280500    264.10891   -18161.999   -16147.405   -18161.999            0    9423.9739    49.762483    24.969207    23.018456            0            0            0    28601.116    9839.0725    9209.8957    9222.9535     142.8747    33.159771    308.05397    49.762483    24.969207    23.018456           90           90           90 
  281000     260.6376    -18206.17   -16218.055    -18206.17            0    9973.5359    49.968858     24.86332     22.97451            0            0            0    28543.341    9792.5494    10317.596    9810.4622   -362.48723    198.06593   -633.59101    49.968858     24.86332     22.97451           90           90           90 
  281500    264.31636   -18222.314   -16206.137   -18222.314            0     8963.508    49.799231    24.994151    23.018545            0            0            0     28650.94    9466.0763    8256.9831    9167.4647    173.10127   -62.587894   -222.64191    49.799231    24.994151    23.018545           90           90           90 
  282000    257.09129   -18184.163   -16223.098   -18184.163            0     8653.119    50.055967    24.919646    22.986743            0            0            0    28673.134    8674.9896    8562.0982    8722.2691   -819.42394   -165.23362    235.27149    50.055967    24.919646    22.986743           90           90           90 
  282500    261.50623   -18252.072   -16257.331   -18252.072            0    8584.3547    49.889385    24.992868    23.027389            0            0            0    28712.363    8195.9539    8995.7335    8561.3767    12.828819   -684.71036    45.189799    49.889385    24.992868    23.027389           90           90           90 
  283000    264.67731   -18221.032   -16202.102   -18221.032            0    8375.9878    49.946783    24.904118    23.065497            0            0            0    28690.724     8221.517    8616.2284     8290.218    67.821062    362.32566   -469.88301    49.946783    24.904118    23.065497           90           90           90 
  283500    260.01151   -18272.513   -16289.174   -18272.513            0    8832.6549    49.916106    25.001742     22.93912            0            0            0    28627.783    9343.9788    8645.9256    8508.0602    44.994975    905.02701   -6.0455851    49.916106    25.001742     22.93912           90           90           90 
  284000    269.89818   -18209.197   -16150.443   -18209.197            0    8801.3226    49.947729     24.86194    23.078097            0            0            0    28658.321    9275.9931    9197.6282    7930.3466    56.268944   -53.496546   -316.23522    49.947729     24.86194    23.078097           90           90           90 
  284500    264.39611   -18129.106    -16112.32   -18129.106            0    9336.6679     49.90821    25.077364    22.929453            0            0            0    28697.732    9626.7376     8847.616    9535.6501   -682.39998    67.125596   -370.38517     49.90821    25.077364    22.929453           90           90           90 
  285000    258.77002    -18247.72    -16273.85    -18247.72            0     8821.464    50.000353    24.860572    23.040465            0            0            0    28640.159    8297.2325    9369.3016    8797.8579    411.21618   -754.75526    76.270945    50.000353    24.860572    23.040465           90           90           90 
  285500    256.69239   -18215.852    -16257.83   -18215.852            0    8535.0485    49.861659    25.033823    22.978197            0            0            0    28682.028    8796.2555    8484.0684    8324.8217   -632.07038    263.55567   -57.098942    49.861659    25.033823    22.978197           90           90           90 
  286000    252.73041   -18244.394   -16316.593   -18244.394            0    8343.2997    50.091325    24.878521    23.032233            0            0            0    28702.724    7995.1451    8755.3794    8279.3746   -184.64953   -430.35005    480.86832    50.091325    24.878521    23.032233           90           90           90 
  286500    259.68025   -18187.636   -16206.823   -18187.636            0     7764.624     49.88217    25.068084    22.994751            0            0            0    28753.796    7167.9598    8240.4447    7885.4676   -400.26387    222.31868    299.33752     49.88217    25.068084    22.994751           90           90           90 
  287000    259.85472    -18256.68   -16274.536    -18256.68            0    8438.9445    50.037719    24.898269    22.995231            0            0            0    28648.668    8253.9549    8815.8291    8247.0495    609.89478    -156.9644   -545.38572    50.037719    24.898269    22.995231           90           90           90 
  287500    266.91809   -18207.617   -16171.594   -18207.617            0    8380.2677    49.898497    24.993058    23.006005            0            0            0    28691.157    8774.1633    7803.2576    8563.3823    133.01698   -138.15555   -112.74834    49.898497    24.993058    23.006005           90           90           90 
  288000    254.75978   -18270.245   -16326.964   -18270.245            0    8854.0173    49.894965    24.924107    23.022077            0            0            0    28629.967    9333.0571     8959.314    8269.6808    394.36984    576.31962    694.56843    49.894965    24.924107    23.022077           90           90           90 
  288500    261.02069   -18253.671   -16262.633   -18253.671            0    8976.2105     49.92026    24.934793    22.991281            0            0            0    28618.428    8344.0098    9304.6527    9279.9689    102.26945    97.820564   -202.00955     49.92026    24.934793    22.991281           90           90           90 
  289000    272.17916   -18234.047   -16157.893   -18234.047            0     8937.147    49.807891    24.925224    23.062216            0            0            0    28631.114    9040.1367    9405.9881    8365.3163   -638.29737   -514.41502   -118.27781    49.807891    24.925224    23.062216           90           90           90 
  289500     253.3049   -18214.314   -16282.131   -18214.314            0    9295.5137    49.935922     24.95418    22.921865            0            0            0    28563.166    9893.1078    8969.5487    9023.8848   -55.877454    179.28617    144.47898    49.935922     24.95418    22.921865           90           90           90 
  290000     267.0448   -18237.036   -16200.047   -18237.036            0     8442.025    49.902439    24.935518    23.054208            0            0            0    28687.346    8783.7097    8906.8854    7635.4799   -55.056527    101.18736   -369.91428    49.902439    24.935518    23.054208           90           90           90 
  290500    255.38973   -18218.989   -16270.903   -18218.989            0    7850.6984    50.028558    24.956574    23.026324            0            0            0    28749.318    7899.7308    8429.7892    7222.5753     221.6812    11.891307    38.561866    50.028558    24.956574    23.026324           90           90           90 
  291000    264.38584   -18208.008   -16191.301   -18208.008            0    7431.1049    49.954488    25.005931    23.059459            0            0            0     28804.92    8052.1359    6919.8386    7321.3403   -497.78554   -141.70449   -244.22502    49.954488    25.005931    23.059459           90           90           90 
  291500    267.28763   -18222.546   -16183.705   -18222.546            0    7819.6727    50.022866    24.969307      23.0459            0            0            0    28785.166    7496.8093    8211.2903    7750.9184     217.1389   -113.17522    -88.33042    50.022866    24.969307      23.0459           90           90           90 
  292000    259.22131   -18227.559   -16250.247   -18227.559            0    8234.3817    50.025423     24.98388    22.952236            0            0            0    28686.374    8188.9498    8169.7362    8344.4591    345.92768    45.867206   -803.41036    50.025423     24.98388    22.952236           90           90           90 
  292500    250.39019   -18188.738   -16278.788   -18188.738            0    8368.0011    49.823778    24.903796    23.155757            0            0            0    28731.691    8317.0925    8623.4376    8163.4731   -205.48269   -437.56736   -221.61386    49.823778    24.903796    23.155757           90           90           90 
  293000    256.73359   -18250.576   -16292.239   -18250.576            0    8526.6378    50.055461    24.997802    22.912262            0            0            0    28669.574    7496.2852    8760.8248    9322.8033   -427.20895   -255.95935    615.11544    50.055461    24.997802    22.912262           90           90           90 
  293500    256.87655   -18191.586   -16232.159   -18191.586            0    8229.1441    49.874878    24.939798    23.114755            0            0            0    28751.735    9254.3446    7691.4469    7741.6408   -7.9833613    449.64671   -25.540447    49.874878    24.939798    23.114755           90           90           90 
  294000    265.27686   -18253.377   -16229.874   -18253.377            0    7396.4262    50.077206    24.967814    23.004987            0            0            0    28763.558    7086.1923    7154.8568    7948.2294    366.63273   -333.45011   -217.20189    50.077206    24.967814    23.004987           90           90           90 
  294500     265.0151   -18195.215   -16173.708   -18195.215            0    8132.3672    49.938843    25.012327     23.02623            0            0            0    28761.757    8372.1492     7722.741    8302.2116    668.59482   -292.09953    159.98425    49.938843    25.012327     23.02623           90           90           90 
  295000    265.45046   -18194.462   -16169.634   -18194.462            0    7669.1702    49.950319    24.915209    23.123834            0            0            0    28778.136      7637.86    7974.4217     7395.229   -34.191514   -633.57828     616.6154    49.950319    24.915209    23.123834           90           90           90 
  295500    257.33088   -18212.234   -16249.341   -18212.234            0    7596.7235    50.010314    25.032907    22.987961            0            0            0    28778.709    7420.1185    7808.9195    7561.1327   -498.70495    580.72107    -2.115524    50.010314    25.032907    22.987961           90           90           90 
  296000    260.10336   -18191.784   -16207.743   -18191.784            0    7683.2658    49.959548    24.959645    23.083987            0            0            0    28785.098    7483.7673    7537.8495    8028.1806   -238.51466   -264.09587    92.212754    49.959548    24.959645    23.083987           90           90           90 
  296500    252.80418   -18248.839   -16320.476   -18248.839            0    6893.4524    50.095217      25.0471    22.973657            0            0            0    28825.964    6912.5125    6280.4624    7487.3824   -209.15732    187.92814    441.59326    50.095217      25.0471    22.973657           90           90           90 
  297000    255.84415   -18256.072    -16304.52   -18256.072            0    7073.5391    49.998093    24.985577    23.065478            0            0            0    28814.115    6908.2229    7506.5828    6805.8114    349.34638   -1103.0331    683.34662    49.998093    24.985577    23.065478           90           90           90 
  297500    260.66624   -18202.493   -16214.159   -18202.493            0    7091.2749    50.017045    25.017094    23.081466            0            0            0    28881.401    6301.3086    7494.4011    7478.1151   -131.19761    1694.4294    16.980955    50.017045    25.017094    23.081466           90           90           90 
  298000    255.33389   -18276.829   -16329.169   -18276.829            0    7730.9097    50.091243    24.985911    23.001626            0            0            0    28788.268    7492.5951    7041.3402    8658.7939    527.25705   -528.12951   -351.88242    50.091243    24.985911    23.001626           90           90           90 
  298500    258.03777   -18225.074   -16256.789   -18225.074            0    7539.2029    49.953504    25.024359     23.03656            0            0            0    28796.954    6969.7756    8009.0241     7638.809    100.63661    -159.0727   -730.77245    49.953504    25.024359     23.03656           90           90           90 
  299000    256.81902   -18236.381   -16277.393   -18236.381            0    7206.4302     50.10783    24.961559     23.03852            0            0            0    28815.879    6374.5621    7822.1554    7422.5731   -60.577197    146.60158    742.92125     50.10783    24.961559     23.03852           90           90           90 
  299500    256.42564   -18256.549   -16300.562   -18256.549            0    7224.6589    49.938172    25.004259    23.040942            0            0            0    28770.464     7792.779    7178.1485    6703.0491   -570.49108   -549.94577   -5.4465342    49.938172    25.004259    23.040942           90           90           90 
  300000    264.89681   -18201.243   -16180.638   -18201.243            0    7432.2739    50.079721    24.940538    23.051522            0            0            0    28791.701    6733.7742    8487.2071    7075.8403    228.35698   -737.85525    561.87079    50.079721    24.940538    23.051522           90           90           90 
  300500    261.50755   -18221.376   -16226.624   -18221.376            0     7603.432    49.827887    25.033836    23.058762            0            0            0    28763.111    8370.0756    7236.2851    7203.9352    195.28429    -329.3995    214.35511    49.827887    25.033836    23.058762           90           90           90 
  301000    256.98065    -18210.36    -16250.14    -18210.36            0    8411.5258    50.156133    24.942358    22.938312            0            0            0    28696.109    7840.0371    8472.1745    8922.3658   -1041.1249   -304.47626    76.343227    50.156133    24.942358    22.938312           90           90           90 
  301500    257.85493   -18226.144   -16259.255   -18226.144            0    8827.7797    49.640831    25.021315    23.064263            0            0            0    28647.633    9669.9711    8382.8302    8430.5378   -34.682369    873.60271    320.60368    49.640831    25.021315    23.064263           90           90           90 
  302000    257.85456   -18210.119   -16243.232   -18210.119            0    8617.2572    50.169693    24.878655    22.962848            0            0            0    28661.182    8291.8125    9085.5133    8474.4457    -458.8716    392.41172    303.47925    50.169693    24.878655    22.962848           90           90           90 
  302500    253.45923   -18282.862   -16349.502   -18282.862            0    7779.1441    49.811748    25.023039    23.043207            0            0            0    28722.005    8820.1983    7458.4813    7058.7528   -563.84228    250.59128    919.60332    49.811748    25.023039    23.043207           90           90           90 
  303000    254.65776   -18200.418   -16257.916   -18200.418            0    7975.4939    50.101809    24.956613    23.013083            0            0            0    28774.901    6646.8678    8619.6057    8660.0082   -368.89656   -121.77244   -274.30514    50.101809    24.956613    23.013083           90           90           90 
  303500    266.33852   -18225.906   -16194.304   -18225.906            0    7707.6954    49.940348    25.025547    23.031292            0            0            0    28784.152    8320.9786    6848.0988    7954.0089    -258.3357      229.767    487.78868    49.940348    25.025547    23.031292           90           90           90 
  304000     254.9701   -18225.308   -16280.424   -18225.308            0    8419.1228    50.010658     24.92495    23.020994            0            0            0    28695.972    8096.4119     8565.708    8595.2484    160.74365    -73.91959   -300.04305    50.010658     24.92495    23.020994           90           90           90 
  304500    256.17618   -18222.986   -16268.901   -18222.986            0    7777.8994    50.040513    24.983828    23.018528            0            0            0    28777.846    7778.6794    7439.3815    8115.6375    732.60846   -108.45189    932.76576    50.040513    24.983828    23.018528           90           90           90 
  305000    262.26999   -18211.614   -16211.047   -18211.614            0    7446.8189    49.988584    24.970187    23.074742            0            0            0    28802.454    6903.3884    8196.3262    7240.7419     356.5305    430.77403   -280.45903    49.988584    24.970187    23.074742           90           90           90 
  305500    267.40695   -18257.914   -16218.162   -18257.914            0    7374.7958    50.038553    24.997533    23.002607            0            0            0     28772.59    6554.7661    7491.7945    8077.8269    90.322138   -764.56521    628.11366    50.038553    24.997533    23.002607           90           90           90 
  306000    260.86864   -18260.529   -16270.651   -18260.529            0    7453.1493     49.95486    25.015601    23.039794            0            0            0    28791.698    7840.7373    6761.7673    7756.9434    415.54442    1242.0815   -461.08102     49.95486    25.015601    23.039794           90           90           90 
  306500    259.09329   -18230.563   -16254.227   -18230.563            0    7034.1563    50.075783    25.013871    23.034991            0            0            0     28853.38    6471.6499    6989.6688    7641.1503    382.03217    117.17061    39.323552    50.075783    25.013871    23.034991           90           90           90 
  307000     256.3202   -18175.515   -16220.332   -18175.515            0    7511.3864    50.028877    24.988871    23.057596            0            0            0    28825.803    7017.5322    7569.0779    7947.5491   -407.12789   -127.09919   -323.02288    50.028877    24.988871    23.057596           90           90           90 
  307500    263.50893   -18267.916   -16257.898   -18267.916            0    7238.7662    49.969109    25.027139    23.028889            0            0            0    28799.556    7678.9375    7193.8079    6843.5533   -117.74956    34.465287    82.817497    49.969109    25.027139    23.028889           90           90           90 
  308000    251.14494    -18182.73   -16267.023    -18182.73            0     7346.474    50.161702    24.918291    23.095082            0            0            0    28867.556    6524.6719    8271.4047    7243.3453   -13.801549   -259.73911    42.869626    50.161702    24.918291    23.095082           90           90           90 
  308500    262.92628   -18230.947   -16225.373   -18230.947            0    7060.9401    50.006106    25.104912    22.987614            0            0            0    28858.625    7359.9877    5961.1758    7861.6568     424.9404    92.541455   -189.50069    50.006106    25.104912    22.987614           90           90           90 
  309000    258.97672   -18226.433   -16250.987   -18226.433            0    7063.5266    50.046359    24.934404    23.125604            0            0            0    28857.889    7633.9504    7486.6488    6069.9806    26.412579   -726.19377    52.856172    50.046359    24.934404    23.125604           90           90           90 
  309500    259.75747   -18186.153   -16204.751   -18186.153            0    7158.1101    50.028248    25.062597    23.012659            0            0            0    28854.143    7856.3284    6128.2396    7489.7624    56.459297    129.74484   -409.11945    50.028248    25.062597    23.012659           90           90           90 
  310000    262.67807   -18209.025   -16205.345   -18209.025            0    7654.1007     50.10924    24.925875    23.063737            0            0            0    28806.992    7005.5259    7852.3976    8104.3787    188.99131   -681.93546    175.96798     50.10924    24.925875    23.063737           90           90           90 
  310500    270.10153   -18187.596    -16127.29   -18187.596            0    7160.4409    49.948589    25.062329    23.056204            0            0            0    28862.401    6549.4916    7828.7015    7103.1295   -191.75888    447.85776   0.56585556    49.948589    25.062329    23.056204           90           90           90 
  311000    265.82524     -18261.9   -16234.214     -18261.9            0    7452.2454    50.170612    24.975792     22.99435            0            0            0    28813.087    6927.6491    7551.7277    7877.3594    315.96579   -32.017592    727.61636    50.170612    24.975792     22.99435           90           90           90 
  311500    261.26698   -18252.974   -16260.058   -18252.974            0    7308.6633     49.84994    24.999667    23.116596            0            0            0     28808.64    8129.7118    6639.4764    7156.8019    286.71611   -1127.3191    -898.3116     49.84994    24.999667    23.116596           90           90           90 
  312000    259.70147   -18235.156   -16254.181   -18235.156            0    7692.0516    50.237796    24.977984    22.931714            0            0            0    28775.605    7188.3932    8057.8131    7829.9487   -481.37109    211.53669   -221.15796    50.237796    24.977984    22.931714           90           90           90 
  312500    254.52779   -18175.059   -16233.548   -18175.059            0    8457.8743    49.709026    24.974136    23.166522            0            0            0    28759.847    8832.6111      8437.14    8103.8719    221.84787    26.058677    354.59856    49.709026    24.974136    23.166522           90           90           90 
  313000    255.76871   -18214.751   -16263.774   -18214.751            0    7645.5207    50.262249     25.01049    22.905394            0            0            0    28793.992    6804.9473    7350.3119     8781.303    436.20915   -470.93646   -363.18394    50.262249     25.01049    22.905394           90           90           90 
  313500    252.33487   -18183.021   -16258.238   -18183.021            0    7440.7241    49.915792    24.996251    23.114342            0            0            0    28839.941     7726.047    7035.1843    7560.9409    344.33756   -345.62982    124.93048    49.915792    24.996251    23.114342           90           90           90 
  314000    267.04877   -18214.528   -16177.509   -18214.528            0    7821.6066    50.052479    24.948676    23.039998            0            0            0    28771.038    7458.7124    8330.8935    7675.2139   -384.34858   -391.45971    -62.86349    50.052479    24.948676    23.039998           90           90           90 
  314500    263.37996   -18186.555   -16177.521   -18186.555            0    8381.7828    49.943406    24.994165    23.012471            0            0            0    28726.323    8662.4974    8498.3945    7984.4564    282.54036   -254.99197    219.10952    49.943406    24.994165    23.012471           90           90           90 
  315000    259.85954   -18212.975   -16230.795   -18212.975            0    8838.5536    49.988059    24.892598    23.032852            0            0            0    28660.531    8580.2142    8568.3904    9367.0562   -243.13332    436.12931    683.85984    49.988059    24.892598    23.032852           90           90           90 
  315500     263.5273   -18251.309   -16241.151   -18251.309            0    8007.5591    49.957565    25.000397    22.958887            0            0            0    28674.708    8032.5846    7528.4458     8461.647    139.71113    275.93667   -486.74937    49.957565    25.000397    22.958887           90           90           90 
  316000    260.16154   -18200.942   -16216.457   -18200.942            0    8689.3243    50.013896    24.884537    23.048791            0            0            0    28685.895    9230.0202    9096.3197    7741.6331    187.43057    499.20805    821.18802    50.013896    24.884537    23.048791           90           90           90 
  316500    265.46775   -18223.495   -16198.536   -18223.495            0    8650.8582    49.871373    25.036245    22.949253            0            0            0    28654.252     8785.434    8201.0731    8966.0676    93.949184    815.31535   -234.47072    49.871373    25.036245    22.949253           90           90           90 
  317000    261.90993   -18277.551    -16279.73   -18277.551            0    8838.5472    50.011789    24.864166    23.023488            0            0            0    28629.741    8468.5517    9387.4894    8659.6004   -271.53325    203.02089   -498.13283    50.011789    24.864166    23.023488           90           90           90 
  317500    253.68242   -18269.446   -16334.384   -18269.446            0    8530.3656    49.850964    25.001609    22.976422            0            0            0    28636.762    9096.8115    7407.2325    9087.0527     765.9193   -436.73451   -361.22612    49.850964    25.001609    22.976422           90           90           90 
  318000    258.89812   -18217.544   -16242.697   -18217.544            0    8555.1208    50.016728    24.910996    23.002731            0            0            0    28660.632     7253.838    9377.9794     9033.545   -473.92844    780.73244   -537.03216    50.016728    24.910996    23.002731           90           90           90 
  318500    256.71124   -18170.168   -16212.002   -18170.168            0    8712.3468    49.895456    24.979476     23.00664            0            0            0    28674.609    9859.9805    8529.6577    7747.4023    57.190991     401.9426   -493.21477    49.895456    24.979476     23.00664           90           90           90 
  319000    267.69759   -18237.816   -16195.848   -18237.816            0    8510.0235    49.949315    24.957974    23.016414            0            0            0    28693.038    8128.2913    8615.0182     8786.761    309.28855    242.48633   -91.501077    49.949315    24.957974    23.016414           90           90           90 
  319500    262.87659   -18255.459   -16250.264   -18255.459            0    8439.2369    49.930255     24.89052    23.065539            0            0            0    28665.621     7931.732    9271.5146     8114.464   -538.60808    599.02958    -147.3428    49.930255     24.89052    23.065539           90           90           90 
  320000    258.36065   -18194.845   -16224.098   -18194.845            0    8927.0797    49.977426    25.025807    22.903742            0            0            0    28646.292    8884.7794    8692.4099    9204.0499   -569.82218    152.34113   -682.64983    49.977426    25.025807    22.903742           90           90           90 
  320500    260.32717    -18236.11   -16250.362    -18236.11            0    8447.5893    49.873213    24.925516    23.065788            0            0            0    28673.441    8569.6233    8749.7119    8023.4326    -572.1133   -1325.1105    149.47618    49.873213    24.925516    23.065788           90           90           90 
  321000    258.62985   -18259.153   -16286.352   -18259.153            0    7783.2749    49.943897    24.998948    22.993296            0            0            0    28708.162    7679.4973    8071.6803    7598.6471   -60.720944    63.859603   -69.400329    49.943897    24.998948    22.993296           90           90           90 
  321500    255.01561   -18241.522    -16296.29   -18241.522            0     7715.422    49.959869    24.971012    23.035065            0            0            0     28737.36    7558.4639     7753.249    7834.5531   -451.37931    321.32385    -759.5186    49.959869    24.971012    23.035065           90           90           90 
  322000    263.38321   -18253.213   -16244.154   -18253.213            0    7856.7618    49.931976    24.943496     23.05792            0            0            0    28718.133    8474.4829    8247.0756    6848.7269   -55.648451     189.7911    615.59909    49.931976    24.943496     23.05792           90           90           90 
  322500    266.45022   -18258.297   -16225.843   -18258.297            0     8477.539    50.064409    24.981065    22.928114            0            0            0    28675.328    8079.0423    8842.3274    8511.2472    -450.5589    255.38247    158.65398    50.064409    24.981065    22.928114           90           90           90 
  323000     267.0194   -18251.687   -16214.892   -18251.687            0    8649.3397    49.765684     24.88385    23.136099            0            0            0    28650.861    8686.5704    9784.0267    7477.4218   -489.00982    239.59256   -11.468358    49.765684     24.88385    23.136099           90           90           90 
  323500    258.51664   -18200.838   -16228.901   -18200.838            0    9042.5281    50.099712    24.993447    22.872491            0            0            0    28640.121    8839.8732      8510.22    9777.4911     67.77503   -445.82514   -397.23103    50.099712    24.993447    22.872491           90           90           90 
  324000    262.54118   -18263.868   -16261.232   -18263.868            0      8313.11    49.813734    24.921681    23.090025            0            0            0    28664.927    8619.1319    8133.9739    8186.2241   -387.89818   -978.49456   -145.96873    49.813734    24.921681    23.090025           90           90           90 
  324500    256.20604   -18214.475   -16260.162   -18214.475            0    8264.8464    50.069934    24.972333    22.966538            0            0            0     28716.51    7906.4986    8073.4493    8814.5911   -421.42051     709.9298    313.07688    50.069934    24.972333    22.966538           90           90           90 
  325000    266.73196   -18209.412    -16174.81   -18209.412            0    7756.9518    49.955836    24.974169    23.057341            0            0            0    28766.465    7826.6226    8146.8269    7297.4057    240.39034   -318.15031    848.22476    49.955836    24.974169    23.057341           90           90           90 
  325500    257.48964   -18217.009   -16252.906   -18217.009            0     7530.711    50.009079    25.007875    23.043058            0            0            0    28818.128    6390.6734    8194.9608    8006.4987   -289.10781    479.75506   -838.40642    50.009079    25.007875    23.043058           90           90           90 
  326000     259.6073    -18266.62   -16286.363    -18266.62            0    7155.3401    50.140994    24.992358    22.986592            0            0            0    28805.456    6889.2921     7250.121    7326.6072    562.17239    19.572435    28.034834    50.140994    24.992358    22.986592           90           90           90 
  326500    254.52436   -18194.845   -16253.361   -18194.845            0    7263.6714    49.870576    24.999983    23.132145            0            0            0    28840.315    7466.9228    7658.6117    6665.4799    400.06734   -451.12997   -657.16692    49.870576    24.999983    23.132145           90           90           90 
  327000    257.50551    -18212.74   -16248.516    -18212.74            0    7191.4623    50.128344    24.976131    23.013817            0            0            0    28813.578    7344.1696    6766.0441    7464.1731    468.88279    1046.3334    17.824677    50.128344    24.976131    23.013817           90           90           90 
  327500    253.89479   -18257.438   -16320.756   -18257.438            0    7804.5555    49.933272    24.992293    23.041949            0            0            0     28755.13    8619.3399    6921.8933    7872.4332    355.75565    456.51095    454.01222    49.933272    24.992293    23.041949           90           90           90 
  328000    264.56328   -18249.621    -16231.56   -18249.621            0    6850.9199    50.061726    25.003227    23.058724            0            0            0    28862.713     6890.095    6947.2651    6715.3996    -642.6061   -139.34297   -129.55205    50.061726    25.003227    23.058724           90           90           90 
  328500     255.1639    -18219.44   -16273.077    -18219.44            0    6450.8995    50.108997    25.043604    23.031178            0            0            0    28902.052    6644.8205    5627.9068    7079.9713   -17.816888   -78.548427    202.67959    50.108997    25.043604    23.031178           90           90           90 
  329000    261.36308   -18249.944   -16256.294   -18249.944            0    6365.0926    50.041694    25.010115    23.104508            0            0            0    28916.412    6648.1113    6259.4075    6187.7591    609.10941    302.12938   -498.13176    50.041694    25.010115    23.104508           90           90           90 
  329500    263.91921   -18272.392   -16259.245   -18272.392            0    6681.1267    50.143905    25.007883    23.009133            0            0            0    28853.289    5831.6403    7416.6051    6795.1347   -388.45929    167.56692   -156.80581    50.143905    25.007883    23.009133           90           90           90 
  330000    257.28545    -18151.23   -16188.684    -18151.23            0    7479.1895    49.943178    25.048922     23.07466            0            0            0    28866.924    7369.3346    7490.5668    7577.6671    666.49105   -87.863283    619.56262    49.943178    25.048922     23.07466           90           90           90 
  330500    256.47277   -18220.182   -16263.836   -18220.182            0    6430.3798    50.157923    24.980265    23.036952            0            0            0    28864.338    5923.0557    7609.8796    5758.2041    273.49852    416.54985   -628.93682    50.157923    24.980265    23.036952           90           90           90 
  331000    260.58215   -18250.856   -16263.163   -18250.856            0    6925.2216    49.927239    25.025272    23.044488            0            0            0    28792.767    6959.6543    6763.7134    7052.2972   -9.4923385   -601.57402    575.73213    49.927239    25.025272    23.044488           90           90           90 
  331500    265.21573   -18226.799   -16203.762   -18226.799            0    6957.3544    50.175926    24.931339    23.038255            0            0            0    28819.774     6576.868    6924.5338    7370.6614    601.86181   -279.77976    249.39758    50.175926    24.931339    23.038255           90           90           90 
  332000     263.6496   -18195.038   -16183.947   -18195.038            0    7130.9296    49.854001    25.111266    23.054183            0            0            0    28861.464    7038.1054    6534.5629    7820.1205    99.033413    -7.824819    843.14694    49.854001    25.111266    23.054183           90           90           90 
  332500    259.68752   -18205.042   -16224.173   -18205.042            0    7162.8669    50.211164    24.888125    23.072958            0            0            0    28833.393    6981.6016    7694.2017    6812.7975   -415.76132   -798.69606    495.53453    50.211164    24.888125    23.072958           90           90           90 
  333000    269.12171   -18223.658   -16170.826   -18223.658            0    7809.1885    49.853459     25.07648    23.006166            0            0            0    28761.142    8568.7866    7029.3795    7829.3995    333.04583    182.12933    372.19959    49.853459     25.07648    23.006166           90           90           90 
  333500      260.729   -18139.654   -16150.841   -18139.654            0    8056.8531    50.083773    24.888131    23.072433            0            0            0    28759.592    7202.1004    8929.2004    8039.2584   -574.36179    333.69334   -320.73888    50.083773    24.888131    23.072433           90           90           90 
  334000    260.26923   -18199.822   -16214.516   -18199.822            0    8030.9045    49.887645    25.044657    22.992341            0            0            0    28727.066    7582.1296    7935.2378    8575.3462   -160.82741   -86.409928    289.98337    49.887645    25.044657    22.992341           90           90           90 
  334500    262.47188   -18230.937   -16228.829   -18230.937            0    7661.1584    50.106745    24.917351    23.021263            0            0            0    28742.677    6968.2521    8950.3441    7064.8789    454.00074   -616.41251   -87.822837    50.106745    24.917351    23.021263           90           90           90 
  335000     256.0803   -18277.159   -16323.806   -18277.159            0    7017.1001    49.749591    25.065305    23.076793            0            0            0    28776.499    8587.9778    5721.2403    6742.0823    164.02991   -96.852574   -815.10523    49.749591    25.065305    23.076793           90           90           90 
  335500    262.08945   -18132.264   -16133.074   -18132.264            0    7332.0504    50.425257    24.905033    22.988178            0            0            0    28869.535    5903.6154    8215.5521    7876.9837    169.34791     422.6093   -147.94605    50.425257    24.905033    22.988178           90           90           90 
  336000    259.94553   -18226.879   -16244.043   -18226.879            0    7307.5144    49.686748    25.078715    23.142396            0            0            0    28837.272    7991.3702    6518.0987    7413.0743   -21.362791    142.73999    -109.8138    49.686748    25.078715    23.142396           90           90           90 
  336500     264.8626   -18266.371   -16246.027   -18266.371            0    7330.9663    50.195805    24.949622    22.973711            0            0            0    28771.502    6316.4094     7431.363    8245.1265   -637.21076   -269.42348    117.57559    50.195805    24.949622    22.973711           90           90           90 
  337000    261.96467   -18223.359   -16225.121   -18223.359            0    7447.3066    49.820757    25.006622    23.087362            0            0            0    28763.362    7714.0424    7640.4863    6987.3911    -109.8242   0.38799438    218.52906    49.820757    25.006622    23.087362           90           90           90 
  337500    265.41869   -18223.011   -16198.426   -18223.011            0    7200.4538    50.152045    24.984194     23.02023            0            0            0    28844.542     5516.228    7864.9101    8220.2233    667.17161    523.67458   -133.59158    50.152045    24.984194     23.02023           90           90           90 
  338000    255.04611   -18273.494    -16328.03   -18273.494            0    7279.2858    49.910214    25.015232    23.062229            0            0            0    28793.552    7131.5842    7131.0423    7575.2308   -486.93078   -381.50662    1009.7961    49.910214    25.015232    23.062229           90           90           90 
  338500    259.05625   -18255.994   -16279.941   -18255.994            0    7708.3949    50.040756    24.888056    23.095322            0            0            0     28763.31    6952.0402    8390.2312    7782.9133    149.54316   -323.12506   -226.04496    50.040756    24.888056    23.095322           90           90           90 
  339000    260.26204   -18170.399   -16185.148   -18170.399            0    7992.2567     49.93318    25.104818    22.940274            0            0            0    28757.087    9409.3465    6567.8679    7999.5555   -13.280794    41.005377   -405.97677     49.93318    25.104818    22.940274           90           90           90 
  339500    263.75462   -18223.923   -16212.031   -18223.923            0    7819.3566    50.042367    24.892835    23.096204            0            0            0    28770.858    7441.5885    8529.2364    7487.2448    40.993172    106.92312    349.74312    50.042367    24.892835    23.096204           90           90           90 
  340000    265.93113   -18211.124   -16182.629   -18211.124            0    7714.5519    49.899212    25.063939    23.008381            0            0            0     28775.91    8181.3384    7103.9629    7858.3544    113.21933    40.061813   -111.54254    49.899212    25.063939    23.008381           90           90           90 
  340500    262.27944    -18191.42   -16190.781    -18191.42            0    7861.5037    50.116796     24.90686    23.050262            0            0            0    28772.536    7636.1454    7921.3881    8026.9775     616.5832    -507.4286   -58.714255    50.116796     24.90686    23.050262           90           90           90 
  341000    261.48425   -18227.222   -16232.648   -18227.222            0    7368.3949    49.860004    25.026873    23.078162            0            0            0    28797.854    7547.4009    7218.6469    7339.1367    90.917086    448.01114    718.17579    49.860004    25.026873    23.078162           90           90           90 
  341500    255.70097   -18244.408   -16293.948   -18244.408            0    7430.6654    50.174705    24.983124    22.932825            0            0            0    28746.775    6833.8233    7561.9248    7896.2481   -210.11309   -378.11524   -179.70344    50.174705    24.983124    22.932825           90           90           90 
  342000    263.33119   -18229.731   -16221.069   -18229.731            0     8181.532    49.708775     24.97864    23.176445            0            0            0     28777.21    8620.1744    8209.7629    7714.6587   -47.034621   -314.67171    228.83177    49.708775     24.97864    23.176445           90           90           90 
  342500    269.23085   -18287.833   -16234.168   -18287.833            0    7206.7022    50.278075    24.962803    22.936992            0            0            0    28787.799    6190.7854    7641.8205    7787.5007   -88.642523   -428.12976    174.78395    50.278075    24.962803    22.936992           90           90           90 
  343000    256.00537   -18210.692    -16257.91   -18210.692            0     7314.727    49.826685    25.041176    23.062001            0            0            0    28774.892    8911.5217    6952.7646    6079.8948     27.02142    976.70512   -283.88694    49.826685    25.041176    23.062001           90           90           90 
  343500    252.76708   -18236.769   -16308.689   -18236.769            0     7886.834    50.030126    24.950037    23.007963            0            0            0     28719.77    7546.2162    7874.1647    8240.1213   -16.139547   -208.23129   -111.74636    50.030126    24.950037    23.007963           90           90           90 
  344000    255.46947   -18273.642   -16324.949   -18273.642            0    7907.4824      49.9516    24.965631    23.036567            0            0            0    28728.285    8272.0921    8078.0369     7372.318   -543.83985   -42.443847   -309.21289      49.9516    24.965631    23.036567           90           90           90 
  344500    258.20976   -18209.266    -16239.67   -18209.266            0    8876.1808    49.956044    24.966726    23.000225            0            0            0    28686.775    8571.9047    8874.5168    9182.1207    234.83968   -433.20079    372.36182    49.956044    24.966726    23.000225           90           90           90 
  345000    264.06763    -18235.96    -16221.68    -18235.96            0    8948.7282    49.925741    24.940255    22.997177            0            0            0    28635.181    9374.2947    8418.9854    9052.9047    146.04391   -185.64805   -766.74515    49.925741    24.940255    22.997177           90           90           90 
  345500    257.90928   -18217.909   -16250.605   -18217.909            0     9161.172    49.947273    24.932561    22.972151            0            0            0    28607.528    9158.5452     9307.604    9017.3668   -34.233119    667.40207   -401.17939    49.947273    24.932561    22.972151           90           90           90 
  346000    257.95531   -18260.208   -16292.553   -18260.208            0    8625.5945    49.955928    24.955141    22.990025            0            0            0    28660.681    8295.4593    8706.6612     8874.663    243.01922   -279.46867   -54.760061    49.955928    24.955141    22.990025           90           90           90 
  346500    258.05017   -18225.912   -16257.533   -18225.912            0    8570.0783    49.922703      24.9742    22.998568            0            0            0    28674.144    8571.7472    8585.6349    8552.8529    -325.5946   -101.92348   -626.96315    49.922703      24.9742    22.998568           90           90           90 
  347000     261.5865   -18233.848   -16238.495   -18233.848            0     8706.347    49.967864    24.943467    23.016512            0            0            0    28687.131    8874.5781    8384.8988     8859.564     68.29768     258.9116   -318.91603    49.967864    24.943467    23.016512           90           90           90 
  347500    263.28178   -18228.383   -16220.098   -18228.383            0    8001.0141    49.924899    25.003004    23.045192            0            0            0    28766.679    8512.2424    7798.5792    7692.2208   -850.63851     90.31071    382.47105    49.924899    25.003004    23.045192           90           90           90 
  348000    250.91716   -18281.955   -16367.986   -18281.955            0    7823.4496    49.969377    24.964142     23.01545            0            0            0    28710.454    8149.8516    8429.5766    6890.9205    299.71649   -156.01131    -121.4235    49.969377    24.964142     23.01545           90           90           90 
  348500    253.25581   -18237.037   -16305.229   -18237.037            0    7571.9272    49.925947    24.993773    23.039572            0            0            0    28749.649    7728.1757    7506.4339     7481.172    265.92332    121.34087    519.72655    49.925947    24.993773    23.039572           90           90           90 
  349000    257.64138   -18224.344   -16259.083   -18224.344            0    8253.8549    49.970012    24.950827    23.029864            0            0            0    28713.476    8405.6511    8316.5357    8039.3778    754.31308   -373.56518    237.08075    49.970012    24.950827    23.029864           90           90           90 
  349500    266.45921   -18198.897   -16166.375   -18198.897            0    8362.6906    50.000247    24.994921     22.95747            0            0            0    28691.149    8027.1695     8251.243    8809.6594    65.182324   -70.196909   -341.73234    50.000247    24.994921     22.95747           90           90           90 
  350000     261.4003   -18255.432   -16261.498   -18255.432            0    8306.0893    49.907866    24.919601    23.050499            0            0            0     28667.54    8812.3096    7925.6579    8180.3003    9.7918698   -232.06604     77.89696    49.907866    24.919601    23.050499           90           90           90 
  350500    263.16772   -18212.503   -16205.088   -18212.503            0    7745.8125    50.008756    25.019504    22.969623            0            0            0     28739.46     7285.036    8000.7143    7951.6874    -388.6583    252.88495   -91.907562    50.008756    25.019504    22.969623           90           90           90 
  351000    260.47163   -18235.088   -16248.239   -18235.088            0    7944.0827    49.915542    24.949588    23.060707            0            0            0    28719.164    8747.7901    7275.8641    7808.5939    99.640873    -380.5324    1020.5916    49.915542    24.949588    23.060707           90           90           90 
  351500    261.43936   -18192.509   -16198.278   -18192.509            0     8563.127    49.973276    24.997352    22.979215            0            0            0    28705.625    7823.6377    8318.2629    9547.4805   -180.41129   -140.17012   -8.8650637    49.973276    24.997352    22.979215           90           90           90 
  352000    261.71695   -18214.594   -16218.245   -18214.594            0    7883.4491    50.055219    24.957582    23.041372            0            0            0    28784.601    7061.9464    8159.1269    8429.2739    1170.6525   -313.53117    283.93207    50.055219    24.957582    23.041372           90           90           90 
  352500     254.3815    -18240.11   -16299.715    -18240.11            0    8008.7659    49.767163    24.996306    23.075589            0            0            0    28705.922    8378.1224    7894.7824    7753.3928    112.68167   -261.22107   -151.12993    49.767163    24.996306    23.075589           90           90           90 
  353000     255.7382   -18290.617   -16339.873   -18290.617            0    7609.0309    50.229993    24.913078    22.981023            0            0            0    28758.079    6737.2212    8681.5682    7408.3033   -94.710878   -70.645882   -552.48407    50.229993    24.913078    22.981023           90           90           90 
  353500    254.66402   -18245.047   -16302.497   -18245.047            0    7976.3378    49.827451    25.020561    23.036636            0            0            0    28720.022    7639.9148    8242.1921    8046.9063   -584.43867    -963.8691   -406.37651    49.827451    25.020561    23.036636           90           90           90 
  354000    264.40688   -18209.411   -16192.544   -18209.411            0    7943.3808    50.053187    24.919033    23.060352            0            0            0    28762.647    7499.7872    8599.1104    7731.2446   -565.98635   -533.63992   -436.54963    50.053187    24.919033    23.060352           90           90           90 
  354500    260.45644   -18143.905   -16157.171   -18143.905            0    8368.9986    49.899935    25.015959    23.019628            0            0            0     28735.28    8622.7751     7967.963    8516.2578   -135.57166   -733.02686     793.2583    49.899935    25.015959    23.019628           90           90           90 
  355000    264.06149   -18235.267   -16221.034   -18235.267            0    7858.6668    50.037511    24.921256    23.030297            0            0            0    28718.725     7108.287    8699.4738    7768.2396    423.09235    -669.8909   -380.65648    50.037511    24.921256    23.030297           90           90           90 
  355500    256.45233   -18260.851    -16304.66   -18260.851            0    8457.0588    49.841961    25.016002    22.994393            0            0            0    28670.481    9105.6324    7873.1712    8392.3728   -527.10432    233.75347    9.6873098    49.841961    25.016002    22.994393           90           90           90 
  356000    257.43636   -18172.713   -16209.016   -18172.713            0    8837.0504    50.127501     24.83252    23.032028            0            0            0    28670.088    9104.4673    8429.2834    8977.4004    -368.4176    540.87307   -100.46837    50.127501     24.83252    23.032028           90           90           90 
  356500    263.89569   -18172.469   -16159.501   -18172.469            0    9614.0224     49.65976    25.092974    22.949776            0            0            0    28597.969    10799.959    8410.8123    9631.2954    153.46717    652.85319    24.455682     49.65976    25.092974    22.949776           90           90           90 
  357000    266.36335   -18246.651    -16214.86   -18246.651            0     8379.194    50.104439    24.839854    23.029891            0            0            0    28662.702    7730.2124    9514.3722    7892.9974    182.30934   -151.88284   -137.13296    50.104439    24.839854    23.029891           90           90           90 
  357500    263.86649   -18220.655   -16207.909   -18220.655            0    7652.4091    49.845165    25.067017    23.038276            0            0            0    28785.626    8539.0891    6863.5096    7554.6285   -16.694897   -42.778845    700.37635    49.845165    25.067017    23.038276           90           90           90 
  358000    256.55282   -18252.238    -16295.28   -18252.238            0    7617.8848    50.071423    24.926856    23.043565            0            0            0    28761.207    7275.6047    7954.6739     7623.376   -19.540814    160.84057     553.2479    50.071423    24.926856    23.043565           90           90           90 
  358500     259.4304   -18251.691   -16272.784   -18251.691            0    7284.9713    49.939378    25.039278    23.025356            0            0            0    28791.963     7724.585    6482.4563    7647.8728   -36.615292    90.462721   -100.36389    49.939378    25.039278    23.025356           90           90           90 
  359000     253.8783   -18162.735   -16226.178   -18162.735            0    7887.7035    50.070048    24.924573    23.060357            0            0            0    28778.739    8098.6886    8072.8256    7491.5962    178.95732   -921.28475   -247.57561    50.070048    24.924573    23.060357           90           90           90 
  359500    263.36288     -18216.2   -16207.296     -18216.2            0    7474.7862    50.045375    25.055944    22.962724            0            0            0    28793.744    7343.2228    7787.6421    7293.4936   -37.918708     210.5719   -405.89899    50.045375    25.055944    22.962724           90           90           90 
  360000    260.47114   -18265.739   -16278.893   -18265.739            0    7223.3533    50.004774    24.936752    23.103341            0            0            0    28808.866    7372.1632    7194.7205    7103.1763   -301.87397    227.66789   -94.806599    50.004774    24.936752    23.103341           90           90           90 
  360500    251.10267   -18214.232   -16298.848   -18214.232            0    7699.8124    49.997768    25.032948    23.009474            0            0            0    28798.463    8010.1798     7380.469    7708.7884    597.95383    -116.0435   -188.82418    49.997768    25.032948    23.009474           90           90           90 
  361000    264.92436   -18239.787   -16218.972   -18239.787            0    7812.5807    50.100427    24.980935    22.993554            0            0            0    28777.708    6979.9359    8446.4943    8011.3119    332.48313     286.3777    612.76602    50.100427    24.980935    22.993554           90           90           90 
  361500     258.3001   -18192.517   -16222.231   -18192.517            0    8255.4791    49.964571     24.95615    23.025327            0            0            0    28710.818    7771.1497    8551.7929    8443.4947   -129.79803   -256.12548    688.85139    49.964571     24.95615    23.025327           90           90           90 
  362000    263.44587   -18297.163   -16287.626   -18297.163            0    7411.4571    49.996162    24.996454      22.9899            0            0            0    28731.093    7450.6818    7360.2683    7423.4212    281.62396     54.18225    507.26382    49.996162    24.996454      22.9899           90           90           90 
  362500    261.30713   -18167.858   -16174.635   -18167.858            0     8581.239    50.016502    24.964283    23.019031            0            0            0    28742.163    8765.0119    8099.5612     8879.144   -300.94516    331.35842     314.2786    50.016502    24.964283    23.019031           90           90           90 
  363000    257.06652   -18185.817   -16224.941   -18185.817            0    8574.0834     49.93937    24.963879    23.025053            0            0            0    28704.882    8494.3241    8494.6605    8733.2657     376.6456    128.48237    993.31792     49.93937    24.963879    23.025053           90           90           90 
  363500    267.60411   -18225.524   -16184.269   -18225.524            0    8816.8919     50.01409      24.9324    22.994811            0            0            0    28673.869    8463.9547    9439.6198     8547.101    -71.35786    222.92349   -242.00739     50.01409      24.9324    22.994811           90           90           90 
  364000    264.16756   -18201.538   -16186.496   -18201.538            0    9173.9715    49.803752    24.964906    23.014905            0            0            0     28615.49      9799.94     8823.234    8898.7405    563.48629   -235.69259    49.677672    49.803752    24.964906    23.014905           90           90           90 
  364500    259.51951    -18247.38   -16267.793    -18247.38            0    8519.4234    50.044779    24.924053    22.990466            0            0            0    28676.439     8326.277    8650.1121    8581.8813    576.65276   -421.77447   -121.82318    50.044779    24.924053    22.990466           90           90           90 
  365000    275.03338   -18264.006    -16166.08   -18264.006            0    7265.0607    49.813688    25.033048    23.053089            0            0            0    28746.936    8592.4688    6500.2957    6702.4177    597.63575   -454.49428    285.24177    49.813688    25.033048    23.053089           90           90           90 
  365500     253.2376    -18179.69    -16248.02    -18179.69            0    8282.3665    50.053901     24.95829    22.983942            0            0            0    28712.914    7816.3268    8552.2169    8478.5558     603.2548   -563.16452    188.85809    50.053901     24.95829    22.983942           90           90           90 
  366000    266.50223   -18200.648   -16167.798   -18200.648            0    8140.7653     49.91304    24.990132    23.031118            0            0            0    28727.485    8162.1707    8002.6807    8257.4445   -165.94097    481.58998     -648.105     49.91304    24.990132    23.031118           90           90           90 
  366500    259.25095   -18219.963   -16242.425   -18219.963            0    8493.1961    49.944839     24.90271    23.047535            0            0            0    28665.644    8350.0697    8895.5047     8234.014      38.5053   -328.11905    504.34542    49.944839     24.90271    23.047535           90           90           90 
  367000    257.06925   -18245.917    -16285.02   -18245.917            0    8456.4809    49.967028    24.968158    22.997737            0            0            0    28691.625    8667.2832    8255.6836    8446.4759    34.517704    527.62899    125.63002    49.967028    24.968158    22.997737           90           90           90 
  367500    261.52247   -18228.215   -16233.349   -18228.215            0    7914.2306    49.936517    24.970254    23.023656            0            0            0    28708.831    8989.6821     6663.172    8089.8376    109.34425    89.752885   -554.55372    49.936517    24.970254    23.023656           90           90           90 
  368000    260.43084   -18179.473   -16192.934   -18179.473            0    8104.4845    50.050756    24.963922    23.001647            0            0            0    28739.711    7457.7377     8452.461    8403.2548    274.61704   -130.27286   -514.73363    50.050756    24.963922    23.001647           90           90           90 
  368500    260.68948   -18248.986   -16260.474   -18248.986            0    7799.8973    49.962271    24.980022    23.012823            0            0            0    28721.352    6710.0116    8352.0702    8337.6102    228.85965   -343.23096    255.83461    49.962271    24.980022    23.012823           90           90           90 
  369000    259.51234    -18207.05   -16227.518    -18207.05            0    7535.9009    49.944063    24.977995    23.071105            0            0            0    28781.263    8343.1392    7867.9496    6396.6139    101.01578    110.70906    -224.6528    49.944063    24.977995    23.071105           90           90           90 
  369500    263.62628   -18234.389   -16223.476   -18234.389            0    7993.4181    50.078063    25.007022    22.929929            0            0            0    28715.223    7935.9866    7601.1887    8443.0791    686.59977   -233.98102   -378.91846    50.078063    25.007022    22.929929           90           90           90 
  370000    255.22109   -18177.101   -16230.302   -18177.101            0    7561.0824    49.878115    24.985462    23.098961            0            0            0    28786.567    8090.2935    8108.6563    6484.2973   -99.236349   -227.37416   -735.58549    49.878115    24.985462    23.098961           90           90           90 
  370500    260.74934   -18279.516   -16290.548   -18279.516            0    7414.4737    50.106916    25.000522    22.956119            0            0            0    28757.108    7578.6865    7123.6729    7541.0616   -775.77617    107.59098    -98.88091    50.106916    25.000522    22.956119           90           90           90 
  371000    253.18697   -18254.152   -16322.869   -18254.152            0    7203.7157    49.875707    25.018312    23.077126            0            0            0    28795.777    8065.9334    6862.5792    6682.6347     339.2123   -365.10007    168.78363    49.875707    25.018312    23.077126           90           90           90 
  371500    256.16619   -18238.965   -16284.957   -18238.965            0    7554.4401    50.092305     24.97633    23.006076            0            0            0    28783.406    6834.7563    7904.4932    7924.0708    387.42807   -690.91547    177.71323    50.092305     24.97633    23.006076           90           90           90 
  372000    254.64403     -18153.4   -16211.003     -18153.4            0    8728.0087    49.938364     24.98942    23.019659            0            0            0    28726.941    9525.3967    7838.0356    8820.5937    -354.8807   -553.24961   -153.07444    49.938364     24.98942    23.019659           90           90           90 
  372500    256.81847   -18237.426   -16278.442   -18237.426            0    8407.5346    49.997708    24.960487    22.997732            0            0            0    28700.414    7908.1665    8792.9345    8521.5029    334.25351     360.9817   -299.22541    49.997708    24.960487    22.997732           90           90           90 
  373000    256.82147   -18290.587    -16331.58   -18290.587            0    7782.5736    49.884793    24.984081     23.03078            0            0            0    28703.854    8544.7116    7536.1417    7266.8674   -74.460032     592.4503    428.85198    49.884793    24.984081     23.03078           90           90           90 
  373500    262.63827   -18219.151   -16215.775   -18219.151            0     8171.735    49.991207    24.969906     23.03993            0            0            0    28760.186    8336.8134    8215.8165    7962.5753    394.15505   -603.91713    720.17001    49.991207    24.969906     23.03993           90           90           90 
  374000     265.5963   -18227.783   -16201.843   -18227.783            0    7064.3134    50.040753    25.045202    23.001167            0            0            0    28826.921    7003.0967    6687.6505    7502.1931    289.71886    158.50844     143.5583    50.040753    25.045202    23.001167           90           90           90 
  374500    265.46469   -18215.927   -16190.991   -18215.927            0    6643.0225    49.965978    24.991969    23.131323            0            0            0    28885.197    7350.2252    6052.3328    6526.5097   -201.73469    422.66404    323.91056    49.965978    24.991969    23.131323           90           90           90 
  375000    260.43187   -18264.732   -16278.185   -18264.732            0    6809.0764    50.070385    25.055351    22.975434            0            0            0    28823.395    6310.9111    6766.8016    7349.5163    136.71438   -158.05521   -809.29531    50.070385    25.055351    22.975434           90           90           90 
  375500    259.18496   -18207.348   -16230.313   -18207.348            0    6656.6988    50.054836    24.961705    23.122818            0            0            0    28890.898    6290.8627    6814.0047     6865.229   -153.60634    212.99294   -583.75002    50.054836    24.961705    23.122818           90           90           90 
  376000    264.15876   -18199.785    -16184.81   -18199.785            0    6797.0664    50.043837     25.03802    23.041241            0            0            0    28870.642    7081.0526    6449.7066    6860.4401    151.56455   -73.274766    -144.2368    50.043837     25.03802    23.041241           90           90           90 
  376500    259.24693   -18237.723   -16260.215   -18237.723            0    6748.5583    50.049912     25.04602    23.058291            0            0            0    28904.745    6338.0182    6965.7314    6941.9253    288.29806    448.01157    594.88652    50.049912     25.04602    23.058291           90           90           90 
  377000    257.29042    -18271.41   -16308.826    -18271.41            0    7066.1579    49.966318    25.000704    23.065064            0            0            0    28812.719    7443.7605    6153.8878    7600.8253    18.296135    112.37658   -193.85211    49.966318    25.000704    23.065064           90           90           90 
  377500    257.44571   -18253.723   -16289.954   -18253.723            0    7338.4843    50.053058    24.963143    23.017168            0            0            0    28759.529     7413.412    7332.5437    7269.4971   -309.55637    123.15521    360.12708    50.053058    24.963143    23.017168           90           90           90 
  378000    260.78168   -18214.279   -16225.064   -18214.279            0      8620.35    49.883378    25.015221    22.982927            0            0            0    28679.101    8974.6174    8238.7748    8647.6579    476.05337   -155.20265   -388.29768    49.883378    25.015221    22.982927           90           90           90 
  378500    256.35309   -18167.581   -16212.147   -18167.581            0     8750.033    49.933261     24.87449    23.072306            0            0            0     28657.29    8323.5319    9258.3251    8668.2421   -548.74635    813.55085   -468.51352    49.933261     24.87449    23.072306           90           90           90 
  379000    261.80048    -18211.48   -16214.494    -18211.48            0    9364.7297    49.860945    25.068742    22.867973            0            0            0     28583.85     10092.39    7904.0528    10097.746   -155.09528   -357.07505    183.32159    49.860945    25.068742    22.867973           90           90           90 
  379500    255.64356   -18250.222     -16300.2   -18250.222            0    8910.2789    49.898985    24.849804    23.086297            0            0            0    28626.546    8461.0088     9870.332     8399.496   -359.87631    340.87311     -278.494    49.898985    24.849804    23.086297           90           90           90 
  380000    261.09561   -18314.736   -16323.127   -18314.736            0     8634.549    49.862841    24.993953    22.970366            0            0            0    28627.266    8068.7812    8538.0909    9296.7748    538.37395    731.44457     114.3943    49.862841    24.993953    22.970366           90           90           90 
  380500    263.12419   -18189.287   -16182.204   -18189.287            0    8264.8679    50.036618    24.948205     23.02387            0            0            0    28741.246     8231.535    8236.7945    8326.2744    116.17602   -354.14571    742.21495    50.036618    24.948205     23.02387           90           90           90 
  381000    264.61461   -18255.639   -16237.187   -18255.639            0    8217.4723    49.866791    24.982502    23.037047            0            0            0    28699.489    8402.2977    8073.5116    8176.6077   -279.61315   -936.81966   -224.97082    49.866791    24.982502    23.037047           90           90           90 
  381500    259.00803   -18151.955   -16176.269   -18151.955            0    9032.8624    50.016534    24.935164    23.019345            0            0            0    28709.048    9082.2004    8829.9293    9186.4574    328.62637    91.540366    267.17445    50.016534    24.935164    23.019345           90           90           90 
  382000    262.45244   -18224.626   -16222.666   -18224.626            0    8972.0374     49.79915    24.977341    23.037979            0            0            0    28655.799    9306.5356    8436.7687    9172.8079    242.72596   -46.998541   -431.32354     49.79915    24.977341    23.037979           90           90           90 
  382500     269.5774   -18216.336   -16160.028   -18216.336            0    8752.6719    50.084384     24.90745    22.982024            0            0            0    28669.483    8014.1365    9066.1505    9177.7286    193.36946    240.59346    206.49134    50.084384     24.90745    22.982024           90           90           90 
  383000    268.24685   -18216.058     -16169.9   -18216.058            0     8609.035    49.822005    24.966806    23.048649            0            0            0     28670.13    9070.6018    8075.7882     8680.715    723.24331    330.07235    351.50346    49.822005    24.966806    23.048649           90           90           90 
  383500    260.24995   -18187.814   -16202.655   -18187.814            0    8833.3846    50.077646     24.90182    23.003876            0            0            0    28686.398    8033.3343    9459.0123    9007.8071   -526.19491   -288.89266    282.46048    50.077646     24.90182    23.003876           90           90           90 
  384000    254.29959   -18261.087   -16321.317   -18261.087            0    8468.5481      49.7705    24.968035     23.06587            0            0            0    28663.302    9590.9277    8233.0062    7581.7104   -730.05893    76.440208   -28.874477      49.7705    24.968035     23.06587           90           90           90 
  384500    257.51203   -18250.311   -16286.037   -18250.311            0    8312.5212    50.146884    24.948977    22.948603            0            0            0    28711.306    7008.9755     9022.556    8906.0321   -49.550063    179.57177   -247.20405    50.146884    24.948977    22.948603           90           90           90 
  385000    252.78738   -18249.914   -16321.679   -18249.914            0    7780.7906    49.825788    24.993973    23.098333            0            0            0    28765.379     8182.527    7812.3552    7347.4896    619.73952    188.21125    671.41601    49.825788    24.993973    23.098333           90           90           90 
  385500    260.35888   -18260.755   -16274.765   -18260.755            0    7383.4807    50.097826    24.931958    23.029592            0            0            0     28764.81    8245.3948    6757.7736    7147.2737    218.00351    585.99801    294.37749    50.097826    24.931958    23.029592           90           90           90 
  386000    262.40071    -18207.27   -16205.706    -18207.27            0    8162.2529    49.940846    25.034582    22.975322            0            0            0    28724.855    8199.9074    7618.9267    8667.9246   -159.66555   -137.34095   -175.48667    49.940846    25.034582    22.975322           90           90           90 
  386500    253.93166    -18189.76   -16252.796    -18189.76            0    8030.3492    49.995069    24.901021     23.08929            0            0            0     28744.51     8110.073    7453.5531    8527.4214   -160.43664   -242.49467    683.21711    49.995069    24.901021     23.08929           90           90           90 
  387000    255.47474   -18191.093   -16242.359   -18191.093            0    8583.4209    50.030118    25.104077    22.855684            0            0            0    28705.823    8821.2499    7750.2909     9178.722   -258.35196    199.17402   -291.52491    50.030118    25.104077    22.855684           90           90           90 
  387500     260.0638   -18257.448   -16273.709   -18257.448            0    8080.4345    49.995952    24.818443    23.148796            0            0            0    28723.528    7426.3518    9633.4988    7181.4527    -334.1025     451.4192   -454.95108    49.995952    24.818443    23.148796           90           90           90 
  388000    258.05309   -18244.765   -16276.363   -18244.765            0    8638.8919    49.900236    25.011843    22.968959            0            0            0    28667.486    8756.1493    8080.5208    9080.0057    323.22279   -607.67082    774.17133    49.900236    25.011843    22.968959           90           90           90 
  388500    253.21791   -18254.373   -16322.854   -18254.373            0    8708.8078    49.992009    24.919868    23.005308            0            0            0    28659.881    8428.1745    9049.2498     8648.999   -1001.0232    237.27428    403.43878    49.992009    24.919868    23.005308           90           90           90 
  389000    249.10947   -18199.668   -16299.487   -18199.668            0    8516.4392    49.826302    24.967228    23.072211            0            0            0    28702.399    8862.3164    8822.5477    7864.4535    146.19453   -418.67145    33.006661    49.826302    24.967228    23.072211           90           90           90 
  389500    255.11105    -18263.12    -16317.16    -18263.12            0    7368.1627    50.173831    24.992864    22.942598            0            0            0    28769.737    6858.1769    7095.9006    8150.4106   -183.38044    4.0694078    118.13227    50.173831    24.992864    22.942598           90           90           90 
  390000    252.09505   -18276.816   -16353.862   -18276.816            0     7417.874    49.803282    24.974963    23.105414            0            0            0    28739.325    7999.4319    7816.6078    6437.5822   -431.30079   -677.75716   -318.81888    49.803282    24.974963    23.105414           90           90           90 
  390500    269.16022    -18281.03   -16227.904    -18281.03            0     6928.533    50.233899    24.998998    22.951811            0            0            0    28822.819    6242.1609    6352.3981      8191.04   -346.17666    241.32023    -559.8493    50.233899    24.998998    22.951811           90           90           90 
  391000    261.05845   -18235.095    -16243.77   -18235.095            0     7575.579    49.894088    24.998269    23.079206            0            0            0    28785.906    8299.1724    7020.7424    7406.8224    -412.8526   -103.93349    324.34522    49.894088    24.998269    23.079206           90           90           90 
  391500    258.39334   -18223.871   -16252.875   -18223.871            0     7062.604    50.071221    24.998214    23.036021            0            0            0    28833.983    5723.9712    7979.0059    7484.8347    881.36303    208.58087    247.80599    50.071221    24.998214    23.036021           90           90           90 
  392000    257.48634   -18249.495   -16285.416   -18249.495            0    7769.9175    49.958131    25.039183    22.973947            0            0            0    28738.359    7834.6082     7333.593    8141.5514   -254.27566    1156.8332    62.248049    49.958131    25.039183    22.973947           90           90           90 
  392500    264.01169   -18214.781   -16200.928   -18214.781            0    8158.4312    50.000845     24.90842    23.069747            0            0            0    28732.033    7276.6364    9374.5923     7824.065    346.90623   -58.536193    665.03097    50.000845     24.90842    23.069747           90           90           90 
  393000    260.45251   -18194.196   -16207.493   -18194.196            0    8538.1857    49.995712    25.035032    22.915657            0            0            0     28682.25    8878.2818    8116.6343     8619.641   -362.68167   -139.45249     497.8178    49.995712    25.035032    22.915657           90           90           90 
  393500    259.13458   -18239.388   -16262.737   -18239.388            0    8533.8301    49.786964     24.88689    23.123803            0            0            0    28651.378      9934.67    8643.5684     7023.252   -159.18422    113.06168    284.25019    49.786964     24.88689    23.123803           90           90           90 
  394000     264.8683    -18287.42   -16267.033    -18287.42            0    8515.2087    50.185895    24.983768    22.810166            0            0            0    28600.133    7916.7064     7984.886    9644.0337    795.32045    102.30795   -354.29998    50.185895    24.983768    22.810166           90           90           90 
  394500    260.33348   -18220.635   -16234.839   -18220.635            0    9264.2697    49.683641    24.907985    23.116414            0            0            0    28607.011    9270.9059    9553.4089    8968.4944   -828.99858    496.23596   -450.91711    49.683641    24.907985    23.116414           90           90           90 
  395000    261.01629   -18248.307   -16257.303   -18248.307            0    8750.8119     49.99109    24.968359    22.956792            0            0            0    28654.564    8899.0859    8772.1758    8581.1739    669.45631   -889.78181    -142.6188     49.99109    24.968359    22.956792           90           90           90 
  395500    255.57117   -18234.652   -16285.183   -18234.652            0    8981.0961    49.918911    24.954408    23.005612            0            0            0    28658.019     8518.282    9444.4563      8980.55    560.00097    -39.76903   -617.16906    49.918911    24.954408    23.005612           90           90           90 
  396000    258.62268   -18259.839   -16287.093   -18259.839            0    8476.7932    49.954739    24.937415    23.014432            0            0            0    28670.045    9097.5691    8606.3461    7726.4645    3.4594358     358.8971   -397.68474    49.954739    24.937415    23.014432           90           90           90 
  396500    266.02545   -18188.095   -16158.882   -18188.095            0     8478.485    49.934455    25.014103    22.971517            0            0            0    28692.932    9260.1058    8061.0449    8114.3043   -310.28596    -711.6196      522.763    49.934455    25.014103    22.971517           90           90           90 
  397000    253.94077   -18244.001   -16306.968   -18244.001            0    8759.5974    49.924239    24.881652    23.045346            0            0            0    28626.872    8609.8671      9239.97    8428.9551   -641.67253    1064.0069   -819.27935    49.924239    24.881652    23.045346           90           90           90 
  397500    261.45912   -18194.692   -16200.309   -18194.692            0    9001.5185    49.923807    24.970897    22.953477            0            0            0    28614.774    8515.1851      9105.51    9383.8605   -697.59659   -496.61982   -743.80156    49.923807    24.970897    22.953477           90           90           90 
  398000     254.5783   -18212.463   -16270.567   -18212.463            0    8387.0756    49.909679     24.91944    23.068005            0            0            0    28690.168    8944.2919    7860.4687    8356.4663   -168.00347    189.60265   -221.74193    49.909679     24.91944    23.068005           90           90           90 
  398500    261.43223    -18276.77   -16282.593    -18276.77            0    7285.3057    50.058717    25.001375    22.991385            0            0            0    28774.563    6670.2017    8206.0709    6979.6444    404.53026    51.499717   -447.99172    50.058717    25.001375    22.991385           90           90           90 
  399000    255.68056   -18300.197   -16349.893   -18300.197            0    7633.6673    49.950393    24.939233    23.083551            0            0            0    28755.745    7239.1694     7776.001    7885.8317   -344.48383   -119.98001    37.755456    49.950393    24.939233    23.083551           90           90           90 
  399500    252.33098   -18234.003   -16309.249   -18234.003            0    7742.9707    49.988139    25.004305    22.975706            0            0            0    28717.765    7576.7975    7702.7698    7949.3447    444.35822    279.44775   -478.98397    49.988139    25.004305    22.975706           90           90           90 
  400000    253.79223   -18238.508   -16302.608   -18238.508            0    7410.3491    50.001689    24.980893    23.039373            0            0            0    28778.178    6793.9789    8596.3187    6840.7498    732.50243   -207.18506   -254.20847    50.001689    24.980893    23.039373           90           90           90 
  400500    260.23968   -18242.204   -16257.124   -18242.204            0    7564.7924    49.929364     24.96849    23.082195            0            0            0     28775.67    8310.4566    7301.5492    7082.3712    287.65877    55.277023   -177.12742    49.929364     24.96849    23.082195           90           90           90 
  401000    262.76566   -18235.761   -16231.412   -18235.761            0    7758.1075    50.087693    24.969512     23.02518            0            0            0    28796.793    7571.8889    8595.3026    7107.1309   -345.86561    -656.5987   -36.879224    50.087693    24.969512     23.02518           90           90           90 
  401500    258.69687   -18197.643   -16224.331   -18197.643            0    7462.8941     50.05068    24.999515    23.033717            0            0            0    28820.771    7391.7204    6876.1444    8120.8175    341.94326    962.30246    238.98539     50.05068    24.999515    23.033717           90           90           90 
  402000    257.41141   -18239.543   -16276.036   -18239.543            0    7616.0486    49.922666    25.021615    23.054022            0            0            0    28797.833    8047.3495    7338.6044     7462.192   -218.67954    395.30605   -162.34568    49.922666    25.021615    23.054022           90           90           90 
  402500    263.38664   -18217.333   -16208.248   -18217.333            0    7325.8082    50.174404    24.975921    23.015128            0            0            0    28841.453    6769.9035    7463.7057    7743.8154    64.789779   -387.48059    290.49321    50.174404    24.975921    23.015128           90           90           90 
  403000    258.59318   -18242.685   -16270.164   -18242.685            0    7106.5761    49.917784    24.984198    23.108222            0            0            0    28819.554    7810.4767    6923.3572    6585.8945   -260.91757    444.88065    1077.2652    49.917784    24.984198    23.108222           90           90           90 
  403500    253.22257   -18200.033   -16268.479   -18200.033            0    8021.1193     50.08754    25.005559    22.960349            0            0            0    28757.078    7623.4013    7405.4474    9034.5092   -765.72643   -1672.6595    340.96056     50.08754    25.005559    22.960349           90           90           90 
  404000    256.90729   -18261.686   -16302.024   -18261.686            0    7452.3433    49.885961    25.022015    23.081136            0            0            0    28810.964      7494.79    7894.7679    6967.4719   -318.53355   -382.77169    103.86553    49.885961    25.022015    23.081136           90           90           90 
  404500     255.9784   -18255.142   -16302.566   -18255.142            0    7364.9989    50.100736    24.956871    22.992375            0            0            0     28748.69    6899.7961    7322.8377    7872.3628    296.24805    374.63717    246.85867    50.100736    24.956871    22.992375           90           90           90 
  405000    258.28982    -18226.34   -16256.133    -18226.34            0    7375.4962    49.830703    25.036705    23.050507            0            0            0    28757.735     8345.958    6768.2692    7012.2614   -130.12481   -771.47601    724.23159    49.830703    25.036705    23.050507           90           90           90 
  405500    267.21417   -18242.265   -16203.984   -18242.265            0    7351.6218    50.159532    24.901603    23.043552            0            0            0    28782.612    7526.3965     7224.796     7303.673   -8.0255164   -361.36768   -403.63235    50.159532    24.901603    23.043552           90           90           90 
  406000    264.85654   -18210.755   -16190.457   -18210.755            0    7688.1475    49.966394    25.076704    22.970139            0            0            0    28781.411    8118.5519    7223.2438    7722.6466   -524.15549    1052.5391    364.65009    49.966394    25.076704    22.970139           90           90           90 
  406500    257.82535   -18265.261   -16298.596   -18265.261            0    7304.0548    49.992386    24.885291    23.121893            0            0            0    28765.371    6894.5792    8412.3722     6605.213   -36.868942    521.00226    5.5716285    49.992386    24.885291    23.121893           90           90           90 
  407000    256.56592   -18212.722   -16255.665   -18212.722            0    8041.3509    49.893914    25.065168    22.973772            0            0            0    28730.984    8825.6142     7146.705    8151.7334    50.153695   -740.59129    138.23433    49.893914    25.065168    22.973772           90           90           90 
  407500    260.36747   -18199.043   -16212.988   -18199.043            0    7910.6273    50.071598    24.926284    23.052385            0            0            0    28771.655    7727.5383    8341.8311    7662.5127   -578.52904    297.68099   -309.58094    50.071598    24.926284    23.052385           90           90           90 
  408000    262.08261   -18208.896   -16209.758   -18208.896            0    7454.4468    49.936257     25.01989    23.037096            0            0            0     28782.54    7859.1211    7152.8276    7351.3915    219.02402    514.98124   -17.441089    49.936257     25.01989    23.037096           90           90           90 
  408500    266.42479    -18229.13    -16196.87    -18229.13            0    8272.0046    50.017787    24.965576    23.007462            0            0            0    28729.943    7674.1096     8445.493     8696.411    304.46624    -595.3029   -449.35221    50.017787    24.965576    23.007462           90           90           90 
  409000    260.87308   -18185.183   -16195.271   -18185.183            0    8497.7707    49.907436    24.949078    23.045347            0            0            0    28694.788    9102.7854    8468.6555    7921.8713    57.920404    464.22676   -286.02226    49.907436    24.949078    23.045347           90           90           90 
  409500    259.37155   -18236.349   -16257.891   -18236.349            0     7940.013    50.127456    24.957059    22.978478            0            0            0    28746.854    7417.4586    8277.5928    8124.9874   -502.19104   -163.17747   -32.076228    50.127456    24.957059    22.978478           90           90           90 
  410000    255.84316   -18203.987   -16252.443   -18203.987            0    8104.7382    49.811981    25.001324    23.084944            0            0            0    28749.192    9398.9195    7640.3259    7274.9692    700.97305    658.69341   -347.41586    49.811981    25.001324    23.084944           90           90           90 
  410500    261.12645   -18225.123   -16233.278   -18225.123            0    7553.9926    50.161735    24.915092    23.050686            0            0            0    28808.384    7538.8851    7125.5998    7997.4931   -556.39209   -239.63767   -498.22158    50.161735    24.915092    23.050686           90           90           90 
  411000    269.98477   -18224.869   -16165.454   -18224.869            0    7512.6283     49.97875    25.068856    22.975046            0            0            0    28785.667    7250.0643    7755.9332    7531.8874   -342.92626    275.53535   -210.35031     49.97875    25.068856    22.975046           90           90           90 
  411500    255.97271   -18278.556   -16326.024   -18278.556            0    7075.6772    50.031364    24.905547    23.124862            0            0            0     28814.93    6730.6103    8083.3036    6413.1179    721.45241    -635.3743   -24.198776    50.031364    24.905547    23.124862           90           90           90 
  412000     259.0644   -18227.961   -16251.846   -18227.961            0      7575.79    50.022605    25.043318    22.981636            0            0            0    28789.831    8267.8614    6551.4044    7908.1041     165.4711    387.99835    224.88898    50.022605    25.043318    22.981636           90           90           90 
  412500    253.16708   -18169.658   -16238.526   -18169.658            0    7705.9114    49.979344    24.947339    23.112204            0            0            0    28817.489    8233.3375    7718.6973    7165.6994    109.46221    450.01766    246.10688    49.979344    24.947339    23.112204           90           90           90 
  413000    256.41317   -18269.424   -16313.532   -18269.424            0    8039.0337    50.003228    25.038203     22.96019            0            0            0     28745.95    7659.2477    7980.2064     8477.647   -306.36014   -498.35036   -510.37288    50.003228    25.038203     22.96019           90           90           90 
  413500    255.53871   -18212.706   -16263.484   -18212.706            0    8061.8734    49.880379    24.943954    23.110415            0            0            0    28754.299    8891.3331    8305.8772      6988.41   -15.769476   -62.478311   -137.64102    49.880379    24.943954    23.110415           90           90           90 
  414000    255.66435   -18217.772   -16267.592   -18217.772            0    8033.8877    50.045845    24.993472    22.943155            0            0            0    28697.744    7496.3396     8253.157    8352.1666    129.80937    212.15371   -162.72597    50.045845    24.993472    22.943155           90           90           90 
  414500    257.66775   -18272.157   -16306.695   -18272.157            0    8455.1486    49.963272    24.948304    23.000893            0            0            0    28670.587    8742.9843    8013.2956    8609.1661   -175.43765   -3.6458572    53.895659    49.963272    24.948304    23.000893           90           90           90 
  415000    259.43012   -18245.724   -16266.819   -18245.724            0    7811.5534    49.940457    24.996312    23.019006            0            0            0    28735.252    8246.6747    7587.2231    7600.7624   -171.37774   -824.16738    -57.61001    49.940457    24.996312    23.019006           90           90           90 
  415500    257.50672   -18226.058   -16261.824   -18226.058            0    7922.9009    50.028732    24.999998    22.973751            0            0            0    28733.689    7200.2191    8349.3556    8219.1278    169.50906    143.78724   -58.316745    50.028732    24.999998    22.973751           90           90           90 
  416000    258.41866   -18211.919    -16240.73   -18211.919            0    7525.0193    49.909779     24.93066    23.124348            0            0            0     28773.25    8032.4925    7454.1088    7088.4567    184.18916    100.90705    897.33689    49.909779     24.93066    23.124348           90           90           90 
  416500    256.78617   -18221.898   -16263.161   -18221.898            0     7715.013    50.100783    25.046227    22.936933            0            0            0     28782.08    7444.0366    7183.0245    8517.9777   -319.69869    66.102919    199.00624    50.100783    25.046227    22.936933           90           90           90 
  417000    253.59023   -18194.299    -16259.94   -18194.299            0    7642.8468    49.920144    24.942877    23.128579            0            0            0    28798.597    7539.1277     8290.883    7098.5295    114.77463   -356.67296    431.97367    49.920144    24.942877    23.128579           90           90           90 
  417500    264.27312   -18225.158   -16209.311   -18225.158            0    7521.5198     50.00533     25.01681     23.01235            0            0            0    28787.848    6976.0635    7519.1965    8069.2993   -43.199651   -3.8691424    71.934675     50.00533     25.01681     23.01235           90           90           90 
  418000    259.18951   -18234.061   -16256.991   -18234.061            0    7635.8627    50.072413    24.972482    22.993868            0            0            0    28752.279    7340.0711    7682.8619    7884.6552   -15.466816   -169.53723    20.361513    50.072413    24.972482    22.993868           90           90           90 
  418500    265.82687   -18159.667   -16131.968   -18159.667            0    7838.6351    49.879361    24.933847    23.156137            0            0            0    28798.926    7893.8193    8764.8428    6857.2434    276.50797   -126.02031   -55.355995    49.879361    24.933847    23.156137           90           90           90 
  419000    258.73025   -18183.355   -16209.788   -18183.355            0    7748.3647    50.162291    25.062427    22.897012            0            0            0    28785.866     7328.479    7656.6722    8259.9429    408.63562   -1.6227757   -707.98805    50.162291    25.062427    22.897012           90           90           90 
  419500    259.49589   -18218.605   -16239.198   -18218.605            0    7794.4065    49.938689    24.951154    23.116003            0            0            0    28803.185    8322.8565    7812.3102    7248.0529    363.29146     783.6371    361.20855    49.938689    24.951154    23.116003           90           90           90 
  420000    257.18114   -18193.856   -16232.106   -18193.856            0    8540.7634    50.018173    25.014272    22.951862            0            0            0    28716.639    8368.6317    8833.9891    8419.6694     185.0741    556.75123   -197.61488    50.018173    25.014272    22.951862           90           90           90 
  420500    266.14523   -18197.839   -16167.712   -18197.839            0    7964.6573    49.983058    24.954429    23.060733            0            0            0    28763.622    7380.5391    9056.0429    7457.3898    163.05276    385.70551     370.1714    49.983058    24.954429    23.060733           90           90           90 
  421000    259.23291   -18228.003   -16250.602   -18228.003            0    7912.9774    49.965797    24.992333    23.009767            0            0            0    28733.718    9081.2383    7481.4202    7176.2738    221.48006   -662.76298   -635.25459    49.965797    24.992333    23.009767           90           90           90 
  421500    268.95226   -18230.645   -16179.106   -18230.645            0    7385.5414    50.092513    24.991364    22.999674            0            0            0    28792.837    7066.0478    6828.7911    8261.7853   -120.87342    159.10398    521.53403    50.092513    24.991364    22.999674           90           90           90 
  422000    262.78908   -18234.188   -16229.661   -18234.188            0    7749.9784     49.86549    24.953583    23.130338            0            0            0    28781.603    7927.3104     7514.957    7807.6679    67.036752    -340.7036     203.0359     49.86549    24.953583    23.130338           90           90           90 
  422500    264.33197   -18191.822   -16175.526   -18191.822            0    7918.4061    50.113432    25.013133    22.937645            0            0            0    28752.199    8087.3956    7286.6375    8381.1853   -10.760191    335.74899    12.799168    50.113432    25.013133    22.937645           90           90           90 
  423000    262.66795   -18191.984   -16188.381   -18191.984            0    8091.3624     49.94902     24.90798    23.110577            0            0            0    28752.543    8002.5704    8683.1697     7588.347    265.07981   -608.06004   -261.53472     49.94902     24.90798    23.110577           90           90           90 
  423500    252.60914    -18247.08   -16320.204    -18247.08            0     7875.983    50.010276    25.021681    22.986312            0            0            0    28763.718    7337.0001    7269.7857    9021.1632   -31.426898    271.17476     38.43057    50.010276    25.021681    22.986312           90           90           90 
  424000    257.58569   -18272.376    -16307.54   -18272.376            0    7162.0477    50.005213    24.928906     23.11659            0            0            0    28816.569    7135.0949    8126.7545    6224.2937    528.15228    473.87904   -94.664922    50.005213    24.928906     23.11659           90           90           90 
  424500    260.92257   -18230.133   -16239.844   -18230.133            0     7343.588    50.005762    25.040679    23.034328            0            0            0    28843.085    7790.0035    6448.7103    7792.0502   -105.83879   -400.85798    -120.8775    50.005762    25.040679    23.034328           90           90           90 
  425000    262.40354   -18229.079   -16227.493   -18229.079            0     6514.801     50.18564    25.048053    23.010756            0            0            0     28925.73     6023.458     6574.884    6946.0609   -356.42049   -267.25586   -537.61838     50.18564    25.048053    23.010756           90           90           90 
  425500    261.67689    -18208.07   -16212.027    -18208.07            0    7078.7682    49.917969    24.997956    23.137541            0            0            0    28872.116    7801.7036    6902.9562    6531.6449    -229.9048   -692.03206   -11.270033    49.917969    24.997956    23.137541           90           90           90 
  426000    250.07764   -18145.812   -16238.246   -18145.812            0    7480.5727    50.133514    25.005475    22.983764            0            0            0     28812.73    7532.2108    7394.1001    7515.4074   -150.11796    258.17111   -26.533392    50.133514    25.005475    22.983764           90           90           90 
  426500    259.46525   -18224.116   -16244.943   -18224.116            0    7852.8437    49.920341    24.974047    23.076598            0            0            0    28769.893    7676.8014    8090.8882    7790.8414    926.10539    215.41935    127.18182    49.920341    24.974047    23.076598           90           90           90 
  427000    251.22772   -18225.227   -16308.889   -18225.227            0    7658.3028    49.985915    25.001869    23.046992            0            0            0    28802.778    7960.9283    7506.2198    7507.7602   -115.72585   -713.09488    544.16781    49.985915    25.001869    23.046992           90           90           90 
  427500    259.35345   -18182.184   -16203.864   -18182.184            0    7642.1596    50.066166    25.028744    23.017128            0            0            0    28842.608    7057.8979    7543.0331    8325.5478    297.37845    996.90431    605.19875    50.066166    25.028744    23.017128           90           90           90 
  428000    263.36101   -18289.617   -16280.727   -18289.617            0    6752.0456    49.960424    24.937343    23.122564            0            0            0    28807.946     7447.656    6555.7726    6252.7082   -671.84745   -684.38111   -479.88366    49.960424    24.937343    23.122564           90           90           90 
  428500    253.70899   -18220.772   -16285.507   -18220.772            0    6905.3574    50.084566     25.11203     22.94513            0            0            0    28858.666    6253.1224    7062.4371    7400.5128    480.62286    527.58462   -295.95769    50.084566     25.11203     22.94513           90           90           90 
  429000     259.2795   -18230.362   -16252.606   -18230.362            0    6354.4939     50.06013    24.947868    23.162062            0            0            0    28926.948    6593.9677    6556.6066    5912.9073    97.509941   -950.82039     -132.192     50.06013    24.947868    23.162062           90           90           90 
  429500    267.45997   -18225.344   -16185.187   -18225.344            0    7103.3437    50.012271    25.049111    23.051593            0            0            0    28878.181    7901.4589    6411.3159    6997.2564    150.55503    4.6611977    358.85648    50.012271    25.049111    23.051593           90           90           90 
  430000    257.74484   -18242.536   -16276.486   -18242.536            0    7923.5303    50.063377     24.96634    22.993851            0            0            0    28739.999    7715.5279    7560.1426    8494.9204   -491.16525    172.11666   -16.267635    50.063377     24.96634    22.993851           90           90           90 
  430500    260.66329   -18211.441   -16223.129   -18211.441            0    7504.5636    49.934386    25.004105     23.05724            0            0            0    28788.455     7991.214    7448.3027    7074.1741    121.89699    753.34844   -1064.0792    49.934386    25.004105     23.05724           90           90           90 
  431000    252.41746   -18182.869   -16257.456   -18182.869            0    7460.0708     50.14464    24.979764    23.006659            0            0            0     28818.17    7511.0769    7505.2807    7363.8549   -300.38404    136.72439    407.78664     50.14464    24.979764    23.006659           90           90           90 
  431500    268.39512   -18228.437   -16181.148   -18228.437            0     6949.335    49.825807    25.044496    23.137862            0            0            0    28872.864    8261.0196    6081.3391    6505.6462    401.13466     -322.074    542.56888    49.825807    25.044496    23.137862           90           90           90 
  432000    265.80156   -18231.846    -16204.34   -18231.846            0    6848.9489    50.171031    24.997131    22.975636            0            0            0    28814.478     5825.871    7603.6877     7117.288    184.50237    238.13797   -567.35538    50.171031    24.997131    22.975636           90           90           90 
  432500    252.80306   -18229.301   -16300.946   -18229.301            0    7340.6641    49.949356    24.981362    23.079601            0            0            0    28798.794    7451.2397    7719.4187    6851.3338     204.4694   -670.42232    60.020745    49.949356    24.981362    23.079601           90           90           90 
  433000    267.05933   -18267.543   -16230.443   -18267.543            0    7369.8518    50.076075    24.973003    23.036006            0            0            0    28807.676    6361.8435    8015.1185    7732.5933   -210.30762   -753.45632    188.12239    50.076075    24.973003    23.036006           90           90           90 
  433500    255.07868   -18216.084   -16270.371   -18216.084            0     6976.855    49.951603    25.054237     23.06868            0            0            0    28870.437    7835.7724    6189.8231    6904.9696    -6.710237   -200.62893    -16.79331    49.951603    25.054237     23.06868           90           90           90 
  434000    260.73253   -18238.133   -16249.293   -18238.133            0    6567.8204    50.134432    24.963208    23.090735            0            0            0     28898.43    5649.9587    6960.1163    7093.3863     181.5029   -603.49771   -290.37639    50.134432    24.963208    23.090735           90           90           90 
  434500    261.73568   -18194.648   -16198.156   -18194.648            0    7047.7062    49.966732    25.113503    23.022888            0            0            0    28890.034     6918.307    6698.2312    7526.5806   -240.29777   -912.00649     189.4222    49.966732    25.113503    23.022888           90           90           90 
  435000     255.6093   -18273.068   -16323.308   -18273.068            0    7698.4073    50.108882    24.916101    23.062703            0            0            0    28794.198    7538.8514    7739.1147    7817.2559    228.50978   -1385.1659     -216.013    50.108882    24.916101    23.062703           90           90           90 
  435500    255.76354   -18286.603   -16335.666   -18286.603            0     7355.482    49.951636    25.031782    23.010825            0            0            0     28772.24     7266.025    7066.4596    7733.9614    198.64861    159.19573    16.364899    49.951636    25.031782    23.010825           90           90           90 
  436000    264.42341   -18261.677   -16244.683   -18261.677            0    7086.5805    50.041074    24.952415    23.076358            0            0            0    28814.194     6720.997     7088.649    7450.0955   -227.38372    943.49678   -97.414016    50.041074    24.952415    23.076358           90           90           90 
  436500    261.80951   -18295.977   -16298.922   -18295.977            0     7477.128    50.052127    25.028355    22.988573            0            0            0    28798.301    6877.6834    6828.1004    8725.6003   -659.66731      10.0797    259.38722    50.052127    25.028355    22.988573           90           90           90 
  437000    256.75923   -18209.992    -16251.46   -18209.992            0    7085.7173    50.071729    24.885984    23.142813            0            0            0    28837.895    6878.9691    7804.3245    6573.8582    369.44732   -681.17314   -130.06069    50.071729    24.885984    23.142813           90           90           90 
  437500    258.71741   -18193.669     -16220.2   -18193.669            0    6755.5378    50.063435    25.168405    22.923804            0            0            0    28884.379    7585.0084     5184.836     7496.769   -605.34357   -386.32227    85.307179    50.063435    25.168405    22.923804           90           90           90 
  438000    258.92682   -18213.952   -16238.886   -18213.952            0    7186.5832    50.037901    24.908706    23.124437            0            0            0    28821.821    7087.3106    7793.9848    6678.4543    644.04872   -91.552929    640.57023    50.037901    24.908706    23.124437           90           90           90 
  438500    262.66431   -18247.108   -16243.533   -18247.108            0    7614.4648    49.965052    25.007405    23.022495            0            0            0    28766.522    6887.0799    7495.6554    8460.6592    3.4366801   -271.81201   -190.47507    49.965052    25.007405    23.022495           90           90           90 
  439000    261.90676   -18217.223   -16219.426   -18217.223            0    8044.5348    49.986852    24.955382    23.045145            0            0            0    28747.459    7923.5059    7696.1386    8513.9599    36.306983   -666.69728    385.79283    49.986852    24.955382    23.045145           90           90           90 
  439500     258.6819   -18191.421   -16218.224   -18191.421            0    7834.4461    50.023547    24.985399    23.023526            0            0            0    28776.144    7609.2512     7684.727      8209.36   -254.98187    230.74706    350.27872    50.023547    24.985399    23.023526           90           90           90 
  440000    264.25607   -18294.554   -16278.837   -18294.554            0    7748.5312    49.958111    25.001234    23.016724            0            0            0    28748.221    8208.8584     7293.292    7743.4431    478.00088    199.83706    -34.52282    49.958111    25.001234    23.016724           90           90           90 
  440500     257.0714   -18244.875   -16283.962   -18244.875            0    7924.6953    49.913483    24.935453    23.080377            0            0            0     28726.19    8665.2592    7545.0869    7563.7397   -567.34646    483.24751    188.62084    49.913483    24.935453    23.080377           90           90           90 
  441000    260.47884   -18267.435    -16280.53   -18267.435            0    8631.8128    49.958111    24.974905    22.958551            0            0            0    28645.363    9001.5801    8224.4773     8669.381   -108.04571    -685.1626    290.20355    49.958111    24.974905    22.958551           90           90           90 
  441500    260.18202   -18218.369   -16233.728   -18218.369            0    8534.9588    49.972669    24.929509    22.980209            0            0            0    28628.609    8363.1079    8770.9706    8470.7979    20.637106    770.14771    71.178485    49.972669    24.929509    22.980209           90           90           90 
  442000     262.6538   -18236.689   -16233.194   -18236.689            0    8911.1687    49.821135    24.923445    23.036048            0            0            0    28604.191    8417.2672    9455.5191    8860.7199   -106.72973   -331.26951    649.73159    49.821135    24.923445    23.036048           90           90           90 
  442500     260.7286   -18172.128   -16183.319   -18172.128            0    8932.8968    50.035521    24.994982    22.922573            0            0            0    28667.817    8680.0376    9069.4906    9049.1623   -526.10746   -579.63195     810.8605    50.035521    24.994982    22.922573           90           90           90 
  443000    264.74696   -18260.843   -16241.382   -18260.843            0     8645.501    49.883299    24.900436    23.060058            0            0            0    28643.265     9114.084    8975.5745    7846.8446    -184.6781   -52.963162   -668.33484    49.883299    24.900436    23.060058           90           90           90 
  443500      262.965   -18215.209    -16209.34   -18215.209            0    8433.3863    49.887095    25.012302    22.984867            0            0            0    28680.312    9087.3497    8183.1632     8029.646   -33.079825    460.02983    728.90005    49.887095    25.012302    22.984867           90           90           90 
  444000    259.66237   -18246.257    -16265.58   -18246.257            0    8941.0018    49.933956     24.85563    23.077273            0            0            0    28642.125    8502.3612    9508.9281    8811.7161   -166.96242   -839.26776    303.33977    49.933956     24.85563    23.077273           90           90           90 
  444500    261.01956   -18248.315   -16257.285   -18248.315            0    8681.8121    49.836473    24.997884    22.978638            0            0            0    28626.933    8182.7929    8814.4013    9048.2423    608.82091    -440.9813   -299.29836    49.836473    24.997884    22.978638           90           90           90 
  445000    262.13502   -18267.988    -16268.45   -18267.988            0    8785.0125    49.983033    24.884377    23.024947            0            0            0    28638.351    8827.9742    9245.2687    8281.7945     349.0014     737.3314    90.963848    49.983033    24.884377    23.024947           90           90           90 
  445500    259.80818   -18165.444   -16183.655   -18165.444            0    8422.5168    49.880082    25.027254    23.007217            0            0            0    28721.323    9062.5792    7412.1652    8792.8059   -412.07221   -352.12239   -492.80338    49.880082    25.027254    23.007217           90           90           90 
  446000    256.67313   -18197.765    -16239.89   -18197.765            0     7595.171    50.036177    24.923929    23.048435            0            0            0    28743.661    7027.1521    8400.7283    7357.6327   -612.42256    69.966797    1021.3922    50.036177    24.923929    23.048435           90           90           90 
  446500    257.37596   -18265.461   -16302.225   -18265.461            0    7578.5836    49.962838    24.993387    23.020724            0            0            0    28746.911    7878.5524    7767.6476    7089.5509    107.55511    160.45877   -152.92543    49.962838    24.993387    23.020724           90           90           90 
  447000    259.80796   -18188.131   -16206.344   -18188.131            0    7090.4188    50.054665      25.0019    23.029285            0            0            0    28820.269    7344.4439    7394.5583    6532.2541   -41.235955    110.69488   -173.33452    50.054665      25.0019    23.029285           90           90           90 
  447500    259.97191   -18213.681   -16230.643   -18213.681            0    7092.2416    49.904562    24.987231    23.124436            0            0            0    28835.635     8218.738      6639.43    6418.5568   -298.74896    103.08172   -341.56202    49.904562    24.987231    23.124436           90           90           90 
  448000    250.72515   -18204.664    -16292.16   -18204.664            0    7184.6113    50.242087    25.068644    22.901999            0            0            0    28845.091    6402.1509    6501.7511    8649.9319    297.75162    96.110577    496.91294    50.242087    25.068644    22.901999           90           90           90 
  448500    256.76254   -18242.594   -16284.037   -18242.594            0    6439.3748    49.858587    25.007157    23.140001            0            0            0    28851.452     7164.635    6362.8063    5790.6831    73.243309    585.23405    477.22121    49.858587    25.007157    23.140001           90           90           90 
  449000    253.68858   -18254.019    -16318.91   -18254.019            0    7610.5724    50.169846    24.955962    22.986556            0            0            0    28780.014    7411.1941    8053.3073    7367.2157    -649.7211   -960.15401   -100.12551    50.169846    24.955962    22.986556           90           90           90 
  449500     251.8769   -18223.323   -16302.033   -18223.323            0    7497.5255    49.811567    25.033479    23.080387            0            0            0    28780.245     8093.513    7293.2453    7105.8182    108.63233   -213.72108    14.622281    49.811567    25.033479    23.080387           90           90           90 
  450000    259.38613   -18202.395   -16223.826   -18202.395            0    7360.3359    50.176655     24.93529    23.036441            0            0            0    28822.492     6847.139    7914.2308    7319.6378     787.6842    391.86127    455.03576    50.176655     24.93529    23.036441           90           90           90 
  450500    258.33816   -18188.904   -16218.328   -18188.904            0    7991.8273    49.900737    25.038935    23.026825            0            0            0    28771.127    8318.8763    7571.5209    8085.0847    537.33304   -299.79719   -200.24502    49.900737    25.038935    23.026825           90           90           90 
  451000    253.27508   -18282.046   -16350.091   -18282.046            0    7906.9623    50.014985    24.930438    23.020614            0            0            0      28704.3    8204.5553    7988.1099    7528.2217    169.79168   -844.54789    981.92827    50.014985    24.930438    23.020614           90           90           90 
  451500    259.57231   -18191.245   -16211.255   -18191.245            0    8052.2345    50.007488    25.003527    23.013919            0            0            0    28775.766    8102.1872    7688.8941    8365.6221    591.62356    271.16609    317.73496    50.007488    25.003527    23.013919           90           90           90 
  452000    254.98945   -18209.503   -16264.471   -18209.503            0    7631.2057    49.951212     24.98527    23.062347            0            0            0    28782.836    7287.7588    7880.0193    7725.8389   -492.29126   -94.637838    205.18397    49.951212     24.98527    23.062347           90           90           90 
  452500    262.05764   -18218.193   -16219.245   -18218.193            0    7852.6485    50.040679    24.986484    23.018572            0            0            0    28781.056    7266.8205    7958.1029     8333.022    75.850518    160.32002   -230.98825    50.040679    24.986484    23.018572           90           90           90 
  453000    256.42098   -18257.344   -16301.392   -18257.344            0     7578.767     49.89519    25.013583    23.070921            0            0            0    28793.835     7641.894    7601.6319    7492.7751    88.948253   -676.91512   -744.54135     49.89519    25.013583    23.070921           90           90           90 
  453500     254.3412   -18158.782   -16218.695   -18158.782            0    7235.5389       50.126    24.968846     23.03072            0            0            0    28824.981    7539.0322    7615.6373    6551.9471    76.064796    1089.0013     607.1772       50.126    24.968846     23.03072           90           90           90 
  454000    265.23249    -18177.41   -16154.245    -18177.41            0    7441.7744    49.983992    25.027193    23.018403            0            0            0    28795.078    7396.0839    7615.2522     7313.987   -411.27301   -536.19875    100.33147    49.983992    25.027193    23.018403           90           90           90 
  454500    262.96566   -18201.563    -16195.69   -18201.563            0    8021.4183    50.043928    24.916443    23.061973            0            0            0    28756.359    7262.8226    8922.0174     7879.415   -108.63668   -498.59749    802.36574    50.043928    24.916443    23.061973           90           90           90 
  455000    264.71773   -18205.054   -16185.815   -18205.054            0    8507.7211    49.888304    25.080566    22.945029            0            0            0    28709.438    10086.326    7666.0159    7770.8218    434.14547   -814.70563   -602.43003    49.888304    25.080566    22.945029           90           90           90 
  455500    253.51399   -18167.642   -16233.865   -18167.642            0     9741.414    49.883729    24.833177    23.073745            0            0            0    28583.097     9981.488    9932.2189    9310.5351   -992.26885   -169.97671     389.7371    49.883729    24.833177    23.073745           90           90           90 
  456000     262.3156   -18192.423   -16191.508   -18192.423            0    9039.3707    49.850621    25.039415    22.949483            0            0            0    28646.242     10022.54    8049.1247    9046.4475    424.46407   -230.06574   -268.94352    49.850621    25.039415    22.949483           90           90           90 
  456500    255.44726   -18223.681   -16275.157   -18223.681            0    9056.6043    49.978863    24.917043    23.024225            0            0            0    28672.654     9290.607    8947.1348     8932.071    630.96287    301.97867    341.35805    49.978863    24.917043    23.024225           90           90           90 
  457000    254.24334   -18257.055   -16317.714   -18257.055            0    8538.0097    49.881404    24.986759    23.005532            0            0            0    28673.511    9129.5477    8100.0455    8384.4358   -80.600828   -2.8302054   -112.33809    49.881404    24.986759    23.005532           90           90           90 
  457500     265.3686   -18232.365   -16208.162   -18232.365            0    8419.7524    49.991023    24.934982    23.015102            0            0            0    28688.906    8258.9866    8668.9101    8331.3606   -175.65816    618.80496   -304.12801    49.991023    24.934982    23.015102           90           90           90 
  458000    265.23443   -18263.248   -16240.068   -18263.248            0    8248.1906    49.899354    24.966295    23.013308            0            0            0    28670.025    8003.4368    9067.1174    7674.0176   -30.469022    727.35369   -244.80365    49.899354    24.966295    23.013308           90           90           90 
  458500     259.1859    -18190.64   -16213.598    -18190.64            0    8785.3843    50.012834    24.947553    22.983788            0            0            0    28676.823    9332.0252    8958.1809    8065.9467    20.104648    270.42642    298.19444    50.012834    24.947553    22.983788           90           90           90 
  459000    253.18585   -18258.202   -16326.927   -18258.202            0    8609.0258    49.861923     24.95724     23.01878            0            0            0    28644.938    9609.1902    8398.8884    7818.9988    236.21921   -161.54333    224.03253    49.861923     24.95724     23.01878           90           90           90 
  459500    255.78594   -18268.143   -16317.035   -18268.143            0    8310.8031    49.966732    24.948308    23.001503            0            0            0    28673.338    8009.7137    8169.4459    8753.2495   -201.75425   -748.29172   -204.85571    49.966732    24.948308    23.001503           90           90           90 
  460000    257.32998   -18189.158   -16226.273   -18189.158            0    8103.6923    49.960445    24.973133    23.034214            0            0            0    28739.071     8164.933    8029.4455    8116.6984   -907.75235   -83.346832   -369.98321    49.960445    24.973133    23.034214           90           90           90 
  460500    259.23331    -18233.95   -16256.546    -18233.95            0    8031.4743    49.937652    24.994853    23.004669            0            0            0    28714.065    7968.0464    7803.2069    8323.1697   -168.80217   -14.032812    41.953506    49.937652    24.994853    23.004669           90           90           90 
  461000     258.1049   -18170.522   -16201.726   -18170.522            0    8763.7709    49.980345    24.933509    23.039123            0            0            0    28711.018    7687.0376    9924.3202    8679.9551    219.94011    -636.2252   -110.27011    49.980345    24.933509    23.039123           90           90           90 
  461500    257.80532   -18259.245   -16292.734   -18259.245            0    8201.8909    49.921214    25.005408    22.985049            0            0            0    28692.243     8684.701    7885.7445    8035.2271    344.93227    638.42726    -881.1802    49.921214    25.005408    22.985049           90           90           90 
  462000    259.95972   -18182.016   -16199.072   -18182.016            0    8071.0521    50.021468    24.904072    23.077913            0            0            0    28749.039    8659.5526       8021.9    7531.7038    64.929215   -504.33499    305.61575    50.021468    24.904072    23.077913           90           90           90 
  462500    267.85156   -18190.273    -16147.13   -18190.273            0    8174.5355     49.97387    25.088335    22.963922            0            0            0    28791.276    8569.0408    7678.7658    8275.7997    52.222967    499.79962     580.2749     49.97387    25.088335    22.963922           90           90           90 
  463000    260.72516   -18189.358   -16200.574   -18189.358            0     7559.228    50.100844    24.881888    23.085362            0            0            0    28778.295    7256.3282    8609.0163    6812.3394     319.5256    69.520848   -765.48602    50.100844    24.881888    23.085362           90           90           90 
  463500    259.55572   -18182.142   -16202.278   -18182.142            0    7863.5682    49.901988    25.056229     23.03918            0            0            0    28807.169    8517.0792     7647.641    7425.9843    20.563281   -732.28651   -109.53118    49.901988    25.056229     23.03918           90           90           90 
  464000    263.94303   -18235.292   -16221.962   -18235.292            0    7334.5356     50.10884    24.984519    23.010671            0            0            0    28808.101    6837.8127    7373.3706    7792.4235   -375.54537    -24.12585    501.88636     50.10884    24.984519    23.010671           90           90           90 
  464500    263.05145   -18249.003   -16242.475   -18249.003            0    7803.2104    49.846873    24.972261    23.082409            0            0            0    28732.732    8634.5549    7980.9254    6794.1509   -108.80724   -521.56106   -74.992925    49.846873    24.972261    23.082409           90           90           90 
  465000    262.33033   -18261.467   -16260.439   -18261.467            0     8074.587    50.032225    24.960895    22.996704            0            0            0    28719.413    8546.0567    7877.2287    7800.4756    41.927474   -796.90951   -90.519434    50.032225    24.960895    22.996704           90           90           90 
  465500    257.59392   -18245.941   -16281.043   -18245.941            0    8220.3061    49.819789    24.986576     23.05951            0            0            0    28705.077    8967.8302     8513.654    7179.4342    16.285318    -807.3095   -307.52151    49.819789    24.986576     23.05951           90           90           90 
  466000    260.95305   -18245.918   -16255.396   -18245.918            0    7640.5833    50.263925     24.93934    22.896005            0            0            0    28701.267    7201.9943    8171.5999    7548.1558    637.10401   -373.35409    172.64003    50.263925     24.93934    22.896005           90           90           90 
  466500    254.44357   -18193.444   -16252.575   -18193.444            0    7986.9099     49.71105     25.01294    23.114906            0            0            0    28741.525    8033.9066     8838.343    7088.4802   -51.569571    181.90341   -46.316643     49.71105     25.01294    23.114906           90           90           90 
  467000    264.03786   -18145.629   -16131.577   -18145.629            0    7616.3147    50.167464    24.952951    23.023926            0            0            0    28821.956    7653.5507    7133.4132    8061.9804   -256.42122   -354.71791    369.04064    50.167464    24.952951    23.023926           90           90           90 
  467500    253.25353   -18234.993   -16303.202   -18234.993            0    8050.8722    49.900258    25.012285    23.019897            0            0            0    28731.582    8784.7539    7294.4456    8073.4172    572.04553   -384.94136   -374.70936    49.900258    25.012285    23.019897           90           90           90 
  468000    253.09476   -18189.784   -16259.204   -18189.784            0    8434.2646    49.980193    24.950003     23.04174            0            0            0    28733.187     7464.136    9564.5268    8274.1309    382.78853   -628.26044   -312.67116    49.980193    24.950003     23.04174           90           90           90 
  468500    262.15142   -18240.504   -16240.841   -18240.504            0    8187.5296    49.911375    25.019798    22.978401            0            0            0    28694.795     7432.492    8494.8348    8635.2622   -540.63529    650.13066    211.27244    49.911375    25.019798    22.978401           90           90           90 
  469000    260.51893   -18206.759   -16219.549   -18206.759            0    8609.9675    49.842153    24.941129    23.088633            0            0            0    28701.932    9712.3839     7950.976    8166.5424   -327.97627   -210.96962   -445.06641    49.842153    24.941129    23.088633           90           90           90 
  469500    260.68493   -18258.716    -16270.24   -18258.716            0    8394.4577    50.042242     24.93816    22.967631            0            0            0    28662.718    8293.2982    8476.6124    8413.4623   -267.95302    498.29388   -216.33792    50.042242     24.93816    22.967631           90           90           90 
  470000    261.99031   -18246.487   -16248.053   -18246.487            0    7772.1632    49.962144    24.987633    23.058115            0            0            0    28786.574    7736.0411    7417.1762    8163.2723   -746.51367      75.2805   -861.21484    49.962144    24.987633    23.058115           90           90           90 
  470500    258.48096   -18176.804   -16205.139   -18176.804            0    7608.7788    50.030373    24.981235    23.017994            0            0            0    28768.361    8094.7063    7179.5777    7552.0524   -124.63768    447.41433    642.94622    50.030373    24.981235    23.017994           90           90           90 
  471000    264.70954    -18220.06   -16200.884    -18220.06            0     7684.607    49.938674    25.010213    23.061175            0            0            0    28802.875    8488.6986     7673.026    6892.0963    563.14974   -139.13805    657.43792    49.938674    25.010213    23.061175           90           90           90 
  471500    262.18775   -18224.994   -16225.053   -18224.994            0    7886.5278    50.115861    24.955833    23.017664            0            0            0    28787.803    7223.5453    8439.1784    7996.8596    105.62981    44.582903   -45.665036    50.115861    24.955833    23.017664           90           90           90 
  472000    257.91259   -18185.383   -16218.053   -18185.383            0     7272.946    49.971092     25.02987    23.093744            0            0            0    28884.961    7315.8488    6998.2499    7504.7394   -319.14199    600.57822    992.42929    49.971092     25.02987    23.093744           90           90           90 
  472500    256.50601   -18226.064   -16269.463   -18226.064            0    6525.7116    50.085646    25.009007     23.02163            0            0            0    28836.716     6095.611    6352.2211    7129.3027   -532.39483   -317.27787      705.369    50.085646    25.009007     23.02163           90           90           90 
  473000    258.16029   -18204.066   -16234.847   -18204.066            0    7014.4622    50.050117    24.989635    23.077668            0            0            0    28864.027    6646.8829    7497.6504    6898.8534   -500.16725   -235.83768   -686.08283    50.050117    24.989635    23.077668           90           90           90 
  473500    255.35269   -18193.409   -16245.606   -18193.409            0     7705.733    50.037805    25.016144    23.025737            0            0            0    28822.534    7486.2682    7282.7558    8348.1749    254.20675   -38.685061    71.820692    50.037805    25.016144    23.025737           90           90           90 
  474000      259.823   -18255.941   -16274.039   -18255.941            0    7279.7905    50.072323    24.957916    23.044351            0            0            0    28798.544    6777.7801    8090.0811    6971.5103    -42.70765    539.93805    914.87676    50.072323    24.957916    23.044351           90           90           90 
  474500    263.02336   -18217.611   -16211.297   -18217.611            0    6959.7737    49.998971    25.018013    23.082866            0            0            0    28873.778     7080.473    6989.2862     6809.562    412.00905    228.25602    229.33383    49.998971    25.018013    23.082866           90           90           90 
  475000    260.04717   -18242.174   -16258.562   -18242.174            0    6659.0408    50.191445    24.979674    23.025364            0            0            0    28868.417    6431.0239    6504.3212    7041.7774    197.72554    585.37903   -506.22431    50.191445    24.979674    23.025364           90           90           90 
  475500     255.7237   -18250.637   -16300.004   -18250.637            0    7220.6726    49.919387    25.035657    23.070213            0            0            0    28832.337    8391.1808    5840.7778    7430.0593    459.18291    735.67461   -537.51009    49.919387    25.035657    23.070213           90           90           90 
  476000    265.09648   -18216.604   -16194.476   -18216.604            0     6733.334    50.173164    24.983457    23.057891            0            0            0    28903.045     5866.215    6942.5873    7391.1997   -96.031691    539.04352   -733.15852    50.173164    24.983457    23.057891           90           90           90 
  476500       254.54   -18200.701   -16259.097   -18200.701            0    7181.4715    49.948051     25.08281    23.027322            0            0            0    28849.492    7252.6894     6797.247    7494.4781    31.560159    367.22541   -123.70303    49.948051     25.08281    23.027322           90           90           90 
  477000    257.70577   -18209.583   -16243.831   -18209.583            0    6712.1404    50.095337    24.975825    23.082729            0            0            0    28880.473      6923.23    6166.2419    7046.9492   -235.96522   -851.73667   -141.35826    50.095337    24.975825    23.082729           90           90           90 
  477500    265.32789    -18149.71   -16125.818    -18149.71            0    7178.9417    50.054173    25.101216     23.00486            0            0            0     28903.78    7138.4757    5964.7536    8433.5958   -207.16844    811.99704   -3.5585362    50.054173    25.101216     23.00486           90           90           90 
  478000    257.07237   -18201.461   -16240.541   -18201.461            0    7667.0394    50.055048      24.9591    23.067428            0            0            0    28818.805    7333.7542    8009.1881    7658.1759   -230.87364    446.58155    -25.42191    50.055048      24.9591    23.067428           90           90           90 
  478500    255.33436    -18225.91   -16278.247    -18225.91            0    7782.2613     49.94698    25.011661    23.032044            0            0            0    28772.941    8009.4119    7528.4227    7808.9493    242.17237    478.15044    -195.1847     49.94698    25.011661    23.032044           90           90           90 
  479000     256.0724   -18257.276   -16303.983   -18257.276            0     7675.937    50.067208    24.926439     23.05255            0            0            0    28769.517     8065.578    7591.7119     7370.521    198.49744   -100.63222    447.07324    50.067208    24.926439     23.05255           90           90           90 
  479500     254.8053   -18291.368    -16347.74   -18291.368            0    7823.1861     49.82156    25.056868    23.001654            0            0            0    28714.626    8997.0514     6317.886    8154.6211   -789.15415    -254.8444    217.05326     49.82156    25.056868    23.001654           90           90           90 
  480000    260.16443    -18204.24   -16219.734    -18204.24            0    8162.1779    50.274814    24.870282    23.003203            0            0            0    28762.027    6734.8202    9409.0696    8342.6439    -224.5021    654.53254    243.40871    50.274814    24.870282    23.003203           90           90           90 
  480500    258.95866   -18181.583   -16206.275   -18181.583            0    7769.1681    49.779698    25.074894    23.079183            0            0            0    28807.912    9561.7468    6928.5638    6817.1938   -785.56055   -278.51576    -410.0558    49.779698    25.074894    23.079183           90           90           90 
  481000     263.3824   -18325.827   -16316.774   -18325.827            0    7475.0421    50.135718    24.904144    23.008822            0            0            0     28728.52    6910.2998    8664.0628    6850.7638    227.26625  -0.34137654   -85.538186    50.135718    24.904144    23.008822           90           90           90 
  481500    260.15088   -18228.597   -16244.194   -18228.597            0    8324.8049    49.831607    25.053151     23.03428            0            0            0    28756.888    8519.1125    7637.6733    8817.6288    -515.0156    311.49656    309.79053    49.831607    25.053151     23.03428           90           90           90 
  482000    259.10254   -18277.031   -16300.625   -18277.031            0    7676.4867    50.106318    24.908335    23.024567            0            0            0    28736.156    7282.6193    8308.8393    7438.0014   -651.70101   -641.46924   -51.883303    50.106318    24.908335    23.024567           90           90           90 
  482500    259.99966   -18181.344   -16198.095   -18181.344            0    8174.4836    49.875861    25.038298    23.039178            0            0            0    28771.479     8768.587    7458.6944    8296.1693    111.95394   -461.92708   -804.48024    49.875861    25.038298    23.039178           90           90           90 
  483000    261.75232   -18281.964   -16285.346   -18281.964            0    8009.1043    50.288538    24.897147    22.938895            0            0            0     28720.44    6086.1608     9263.981    8677.1712   -971.37447   -202.06794   -453.42863    50.288538    24.897147    22.938895           90           90           90 
  483500    261.74839   -18204.848   -16208.259   -18204.848            0    7934.5394     49.63026    25.007167    23.175399            0            0            0     28763.27    8644.8672    7434.4543    7724.2968    19.929446   -104.23913   -4.2693801     49.63026    25.007167    23.175399           90           90           90 
  484000    259.80773   -18233.149   -16251.363   -18233.149            0    8055.5509    50.254735    24.957338     22.91013            0            0            0    28734.444    7158.1253    7960.1525    9048.3749   -305.16942   -871.29801      344.484    50.254735    24.957338     22.91013           90           90           90 
  484500    260.61655   -18222.456   -16234.501   -18222.456            0    7780.6809    49.888438    25.002594    23.055208            0            0            0    28757.692    8012.9796      7766.04     7563.023    671.41695   -176.55009   -49.776308    49.888438    25.002594    23.055208           90           90           90 
  485000    263.10784   -18203.609   -16196.651   -18203.609            0    7613.3886    50.066178    24.971794    23.023729            0            0            0     28785.24    8218.1348    7300.9792    7321.0518   -22.503897    658.07609    286.17132    50.066178    24.971794    23.023729           90           90           90 
  485500    257.77717   -18229.902   -16263.606   -18229.902            0    8010.6687    49.970895     25.00272    23.004277            0            0            0    28741.734    8445.0679    7366.8746    8220.0637   -126.62753   -281.97463    359.79626    49.970895     25.00272    23.004277           90           90           90 
  486000    259.77162   -18328.242   -16346.732   -18328.242            0    8445.0811    49.920391    24.899346    23.038824            0            0            0    28636.915    8534.3624    8825.1746    7975.7063    192.22256   -154.03415     196.7485    49.920391    24.899346    23.038824           90           90           90 
  486500    257.67248   -18219.577   -16254.079   -18219.577            0    9247.4023    49.984558    24.982815    22.926803            0            0            0    28629.959    8940.5133    8684.5716    10117.122    442.61146   -476.91764    647.11431    49.984558    24.982815    22.926803           90           90           90 
  487000    261.58902   -18281.456   -16286.083   -18281.456            0    8545.5292    49.821721    24.945961    23.066274            0            0            0    28667.935    8831.8319    8389.3935    8415.3622   -299.35684    165.82073    78.937973    49.821721    24.945961    23.066274           90           90           90 
  487500    260.31667   -18291.459   -16305.791   -18291.459            0    8284.8859    50.080358    24.965332    22.920496            0            0            0    28656.872    7999.8917    7852.1418     9002.624    246.61522    -149.8583   -164.69939    50.080358    24.965332    22.920496           90           90           90 
  488000    268.92614   -18208.132   -16156.792   -18208.132            0    8245.2564    49.808112    24.970338     23.08145            0            0            0    28706.985    8963.3833    7806.3744    7966.0116   -388.73541    125.91164    5.0154335    49.808112    24.970338     23.08145           90           90           90 
  488500     265.4329   -18249.427   -16224.733   -18249.427            0    7912.0724    50.109066    24.928878    22.993149            0            0            0    28722.187    7639.1343    7766.1004    8330.9826    -165.6142   -52.878509    515.28563    50.109066    24.928878    22.993149           90           90           90 
  489000    260.84387   -18238.144   -16248.455   -18238.144            0    8320.2595    49.910903      25.0109    22.978123            0            0            0    28683.972    8718.5461    8561.0176    7681.2148    503.73916    485.28388   -24.264056    49.910903      25.0109    22.978123           90           90           90 
  489500    260.25752   -18181.784   -16196.568   -18181.784            0    8414.1529    49.966067    24.927882    23.029226            0            0            0    28684.011    7503.3752    9546.1516    8192.9319   -184.52743   -106.83247   -438.49586    49.966067    24.927882    23.029226           90           90           90 
  490000    262.41825   -18213.857   -16212.159   -18213.857            0    7473.7273    50.044306    24.997618    23.015487            0            0            0    28792.109    7840.2348    7484.7415    7096.2056    106.72455   -24.658507   -281.98967    50.044306    24.997618    23.015487           90           90           90 
  490500    261.18302   -18161.208   -16168.932   -18161.208            0    7669.8494    49.977641    25.000925    23.087329            0            0            0    28847.324    7452.4852    8379.4857    7177.5773   -101.31518    -98.22105    -207.7574    49.977641    25.000925    23.087329           90           90           90 
  491000    265.94909   -18218.081    -16189.45   -18218.081            0    7174.4849    50.093805    25.011144    23.039343            0            0            0    28866.071    6456.9831    7447.9436    7618.5279   -104.06488      143.938   -511.38933    50.093805    25.011144    23.039343           90           90           90 
  491500     260.1895    -18202.97   -16218.272    -18202.97            0    6875.2107    50.122074    24.993494    23.044279            0            0            0    28868.163    6810.8462    6548.0046    7266.7814    23.603011     939.0755     168.7647    50.122074    24.993494    23.044279           90           90           90 
  492000     257.2492   -18236.673   -16274.404   -18236.673            0     6817.151    49.956461    25.039125     23.07803            0            0            0    28867.525     8059.952    5876.8776    6514.6232    130.11618    381.10676    634.79133    49.956461    25.039125     23.07803           90           90           90 
  492500    256.80016   -18218.061   -16259.217   -18218.061            0    6830.8453    50.162084    24.998804    23.020654            0            0            0    28867.718    5624.2592    7591.6171    7276.6597    294.22799   -64.950337    367.17558    50.162084    24.998804    23.020654           90           90           90 
  493000    256.01961   -18220.212   -16267.322   -18220.212            0    7643.7648    49.908285    25.025776       23.047            0            0            0    28785.554     8225.917    7928.3815    6776.9958    274.35548     592.6649    299.73462    49.908285    25.025776       23.047           90           90           90 
  493500    265.68715   -18192.198   -16165.565   -18192.198            0    7825.7711    50.046794    24.948186    23.049992            0            0            0    28779.683    7013.1282    8927.9262    7536.2587   -19.355227    -69.57181    66.508696    50.046794    24.948186    23.049992           90           90           90 
  494000    264.78635   -18232.153   -16212.392   -18232.153            0    7197.1777    50.067563     25.01975    23.021581            0            0            0    28838.626    7728.9214    6122.7522    7739.8595    508.24709    138.74872   -179.82519    50.067563     25.01975    23.021581           90           90           90 
  494500    253.20382   -18210.987   -16279.575   -18210.987            0    7167.0226    50.147248    25.000973    23.027948            0            0            0    28870.829    7069.3126    6872.4227    7559.3324   -649.77882   -606.96214     261.8784    50.147248    25.000973    23.027948           90           90           90 
  495000    266.50983   -18293.916   -16261.007   -18293.916            0    6808.6673    49.971225    25.013885    23.062343            0            0            0     28827.34    6869.1672    6426.3945    7130.4402   -431.64718    470.32756    91.100345    49.971225    25.013885    23.062343           90           90           90 
  495500    264.50448    -18221.34   -16203.728    -18221.34            0     7825.185    50.099763    24.965372    23.007664            0            0            0    28777.048    7507.8449    8168.6719    7799.0382    208.22492    276.65188   -964.19917    50.099763    24.965372    23.007664           90           90           90 
  496000    259.48334   -18247.072   -16267.761   -18247.072            0    7636.8374    49.930307    24.967919    23.048326            0            0            0    28733.331    7625.7701    8046.8111    7237.9309    262.25051    673.74028    787.85962    49.930307    24.967919    23.048326           90           90           90 
  496500    258.57013   -18207.626   -16235.281   -18207.626            0    8014.6749    49.951629    24.995058    23.036797            0            0            0    28762.451    8553.2556    7939.7236    7551.0454    119.32691    130.78368    344.96207    49.951629    24.995058    23.036797           90           90           90 
  497000    256.86616   -18297.141   -16337.793   -18297.141            0    7547.0598    50.120501    24.961072    22.990544            0            0            0    28762.584     6729.165     7930.114    7981.9003    541.91106    63.653696   -442.14228    50.120501    24.961072    22.990544           90           90           90 
  497500    250.78092   -18288.486   -16375.556   -18288.486            0    7111.8059    49.868411    24.951406    23.125018            0            0            0    28774.158    7497.2891    7107.8341    6730.2946    -613.2392    126.13422   -818.29026    49.868411    24.951406    23.125018           90           90           90 
  498000     258.7759   -18240.329   -16266.414   -18240.329            0    7712.4161    50.185678    25.003821    22.944705            0            0            0     28791.79    6836.5618    7482.7668    8817.9197    1040.4273    183.38131   -1036.8754    50.185678    25.003821    22.944705           90           90           90 
  498500    265.34872   -18229.805   -16205.753   -18229.805            0    7239.5573    49.882242    25.011724    23.126869            0            0            0    28854.026    7391.1491    6967.8601    7359.6626   -74.414338    265.14225    751.24111    49.882242    25.011724    23.126869           90           90           90 
  499000    261.63909    -18183.14   -16187.385    -18183.14            0     7696.575    50.108685    24.972786    23.003702            0            0            0    28785.762    7006.0511    8061.7399     8021.934    50.262471   -333.65283   -687.45345    50.108685    24.972786    23.003702           90           90           90 
  499500    262.22302   -18278.438   -16278.229   -18278.438            0    7895.1288    49.862392    25.016833    23.023146            0            0            0    28719.053    8488.5223    7205.9014    7990.9626   -478.62773    265.67229    657.98421    49.862392    25.016833    23.023146           90           90           90 
  500000    259.40023    -18163.28   -16184.602    -18163.28            0    8312.1331    49.995525    24.945864    23.082995            0            0            0    28788.687    8417.5712    8234.2067    8284.6214   -902.99244   -368.13921    274.14607    49.995525    24.945864    23.082995           90           90           90 
Loop time of 7505.32 on 42 procs for 500000 steps with 3840 atoms

Performance: 5.756 ns/day, 4.170 hours/ns, 66.619 timesteps/s
96.0% CPU use with 42 MPI tasks x 1 OpenMP threads

MPI task timing breakdown:
Section |  min time  |  avg time  |  max time  |%varavg| %total
---------------------------------------------------------------
Pair    | 378.12     | 434.9      | 494.75     | 181.4 |  5.79
Bond    | 0.93068    | 0.99108    | 1.1296     |   6.5 |  0.01
Kspace  | 4251.9     | 4332.3     | 4408       |  61.7 | 57.72
Neigh   | 57.143     | 58.084     | 59.185     |   6.7 |  0.77
Comm    | 544.37     | 636.85     | 724.49     | 176.0 |  8.49
Output  | 36.938     | 37.01      | 37.27      |   1.0 |  0.49
Modify  | 1676.8     | 1734       | 1781.8     |  69.1 | 23.10
Other   |            | 271.1      |            |       |  3.61

Nlocal:        91.4286 ave         103 max          79 min
Histogram: 1 1 6 5 6 10 4 5 1 3
Nghost:        3760.12 ave        3861 max        3694 min
Histogram: 6 8 0 7 6 8 3 2 0 2
Neighs:        32146.9 ave       37190 max       27222 min
Histogram: 1 2 6 7 9 4 4 6 2 1

Total # of neighbors = 1350169
Ave neighs/atom = 351.60651
Ave special neighs/atom = 2.0000000
Neighbor list builds = 14564
Dangerous builds = 0


write_restart   restart.equil
System init for write_restart ...
PPPM initialization ...
  extracting TIP4P info from pair style
  using 12-bit tables for long-range coulomb (../kspace.cpp:340)
  G vector (1/distance) = 0.37342201
  grid = 54 32 30
  stencil order = 5
  estimated absolute RMS force accuracy = 0.0034467917
  estimated relative force accuracy = 1.0379911e-05
  using double precision FFTW3
  3d grid and FFT values/proc = 7296 1350
Last active /omp style is kspace_style pppm/tip4p/omp
write_data   	water.equil.data nocoeff
System init for write_data ...
PPPM initialization ...
  extracting TIP4P info from pair style
  using 12-bit tables for long-range coulomb (../kspace.cpp:340)
  G vector (1/distance) = 0.37342201
  grid = 54 32 30
  stencil order = 5
  estimated absolute RMS force accuracy = 0.0034467917
  estimated relative force accuracy = 1.0379911e-05
  using double precision FFTW3
  3d grid and FFT values/proc = 7296 1350
Last active /omp style is kspace_style pppm/tip4p/omp
Total wall time: 2:05:06
