LAMMPS (30 Jul 2021)
Processor partition = 1
  using 2 OpenMP thread(s) per MPI task
using multi-threaded neighbor list subroutines
variable        pid world 0 1
variable        phase world IceVI Liquid

shell cd ${phase}
shell cd Liquid
include Restart.lmp
echo both
log log.lammps
#include		in.partitions
include		in.temp
variable        temperature equal 289.88
variable	tempDamp equal 100.0
include		in.pressure
variable        pressure equal 12750.0
variable        pressureDamp equal 1000.0 # This is 1 ps
include		in.seed
variable        seed equal 745823

units		real
atom_style	full
read_restart	restart.lmp.${pid}
read_restart	restart.lmp.1
Reading restart file ...
  restart file = 30 Jul 2021, LAMMPS = 30 Jul 2021
  restoring atom style full from restart
  orthogonal box = (0.69838113 1.9141320 0.85202335) to (17.509191 21.715046 21.361172)
  2 by 4 by 4 MPI processor grid
  restoring pair style lj/cut/tip4p/long/omp from restart
  restoring bond style harmonic/omp from restart
  restoring angle style harmonic/omp from restart
  864 atoms
  576 bonds
  288 angles
Finding 1-2 1-3 1-4 neighbors ...
  special bond factors lj:    0        0        0       
  special bond factors coul:  0        0        0       
     2 = max # of 1-2 neighbors
     1 = max # of 1-3 neighbors
     1 = max # of 1-4 neighbors
     2 = max # of special neighbors
  special bonds CPU = 0.002 seconds
  read_restart CPU = 0.009 seconds
include 	in.setup
variable	out_freq equal 1000
variable	out_freq2 equal 10000
variable	out_freq3 equal 1000

timestep	2.0

neigh_modify    delay 7 every 1

include		in.tip4p
# This is TIP4P/Ice

# create groups ###
group ox type 2
288 atoms in group ox
group hy type 1
576 atoms in group hy

# set charges - beside manually ###
set group ox charge -1.1794
Setting atom values ...
  288 settings made for charge
set group hy charge 0.5897
Setting atom values ...
  576 settings made for charge

# ### TIP3P Potential Parameters ###
pair_style lj/cut/tip4p/long/omp 2 1 1 1 0.1577 8.5
pair_coeff 1 1*2 0.000 0.000
pair_coeff 2 2 0.21084 3.1668
bond_style  harmonic
bond_coeff  1 450 0.9572
angle_style harmonic
angle_coeff 1 55 104.52
kspace_style pppm/tip4p/omp 1.0e-5
pair_modify tail yes

thermo          ${out_freq}
thermo          1000
thermo_style    custom step temp pe etotal epair emol press lx ly lz vol pxx pyy pzz pxy pxz pyz enthalpy

restart 	${out_freq3} restart.lmp.${pid} restart2.lmp.${pid}
restart 	1000 restart.lmp.${pid} restart2.lmp.${pid}
restart 	1000 restart.lmp.1 restart2.lmp.${pid}
restart 	1000 restart.lmp.1 restart2.lmp.1


include         in.dump
dump            myDump all atom ${out_freq2} dump.water.${pid}
dump            myDump all atom 10000 dump.water.${pid}
dump            myDump all atom 10000 dump.water.1
dump            myDump2 all dcd ${out_freq2} dump.dcd
dump            myDump2 all dcd 10000 dump.dcd
dump_modify     myDump append yes
dump_modify     myDump2 append yes


variable natoms 	equal  "count(all)"                        # NUMBER ATOMS
variable H      	equal  "enthalpy/v_natoms"                 # ENTHALPY-per-atom
variable Vol      	equal  "vol/v_natoms"                 # volume-per-atom
fix AVG all 		ave/time ${out_freq} 1 ${out_freq} v_Vol v_H file vol_enthalpy.dat
fix AVG all 		ave/time 1000 1 ${out_freq} v_Vol v_H file vol_enthalpy.dat
fix AVG all 		ave/time 1000 1 1000 v_Vol v_H file vol_enthalpy.dat


timer           timeout 23:50:00 every 1000
New timer settings: style=normal  mode=nosync  timeout=23:50:00

fix 		1 all shake 1e-6 200 0 b 1 a 1
Finding SHAKE clusters ...
       0 = # of size 2 clusters
       0 = # of size 3 clusters
       0 = # of size 4 clusters
     288 = # of frozen angles
  find clusters CPU = 0.001 seconds
fix             2 all nph iso ${pressure} ${pressure} ${pressureDamp}
fix             2 all nph iso 12750 ${pressure} ${pressureDamp}
fix             2 all nph iso 12750 12750 ${pressureDamp}
fix             2 all nph iso 12750 12750 1000
fix             3 all temp/csvr ${temperature} ${temperature} ${tempDamp} ${seed}
fix             3 all temp/csvr 289.88 ${temperature} ${tempDamp} ${seed}
fix             3 all temp/csvr 289.88 289.88 ${tempDamp} ${seed}
fix             3 all temp/csvr 289.88 289.88 100 ${seed}
fix             3 all temp/csvr 289.88 289.88 100 745823

run             250000
PPPM initialization ...
  extracting TIP4P info from pair style
  using 12-bit tables for long-range coulomb (../kspace.cpp:340)
  G vector (1/distance) = 0.37506156
  grid = 24 24 24
  stencil order = 5
  estimated absolute RMS force accuracy = 0.0030709215
  estimated relative force accuracy = 9.2479888e-06
  using double precision FFTW3
  3d grid and FFT values/proc = 3549 432
Last active /omp style is kspace_style pppm/tip4p/omp
Neighbor list info ...
  update every 1 steps, delay 7 steps, check yes
  max neighbors/atom: 2000, page size: 100000
  master list distance cutoff = 10.8154
  ghost atom cutoff = 10.8154
  binsize = 5.4077, bins = 4 4 4
  1 neighbor lists, perpetual/occasional/extra = 1 0 0
  (1) pair lj/cut/tip4p/long/omp, perpetual
      attributes: half, newton on, omp
      pair build: half/bin/newton/omp
      stencil: half/bin/3d
      bin: standard
Setting up Verlet run ...
  Unit style    : real
  Current step  : 11250000
  Time step     : 2
  Walltime left : 23:49:59.93
Per MPI rank memory allocation (min/avg/max) = 10.20 | 10.20 | 10.20 Mbytes
Step Temp PotEng TotEng E_pair E_mol Press Lx Ly Lz Volume Pxx Pyy Pzz Pxy Pxz Pyz Enthalpy 
11250000    300.17207   -3745.0133   -3230.5287   -3745.0133            0    11675.478     16.81081    19.800914    20.509149    6826.8682    12633.679    9445.3251    12947.432    1458.0748   -799.24063   -354.68355   -2068.0845 
11251000    285.01057   -3773.3513   -3284.8529   -3773.3513            0    12228.494     16.89083    19.895166    20.606773    6924.8209    12456.186    12387.421    11841.875     198.0809    827.94388   -813.95122   -2049.8801 
11252000    292.06583   -3757.4851   -3256.8943   -3757.4851            0    12507.702    16.787709    19.773704    20.480966    6798.7632    10619.782    12424.839    14478.484   -474.36844   -784.58869    1085.0645   -2016.7183 
11253000     295.1219    -3750.651   -3244.8222    -3750.651            0    13524.579    16.739072    19.716415    20.421628    6739.8415    12692.955    12903.727    14977.054   -843.14299   -114.77671   -1464.0323   -1915.4416 
11254000    280.97129    -3815.706   -3334.1309    -3815.706            0    11507.646    16.748499     19.72752     20.43313     6751.236    12465.163    11005.201    11052.574    1093.5587   -586.11468    696.58796   -2201.0897 
11255000     291.0248   -3768.8331   -3270.0266   -3768.8331            0    12535.271    16.793012     19.77995    20.487435    6805.2078    13332.699    10591.483    13681.632    206.66265   -753.43202    -807.9942   -2025.9388 
11256000    296.85252   -3776.7756   -3267.9805   -3776.7756            0    14085.046    16.743646    19.721804    20.427209    6745.3689    13289.088    14083.144    14882.907   -1467.4367    2313.0439   -886.44459   -1882.3742 
11257000    288.57806   -3735.1189    -3240.506   -3735.1189            0    13819.777    16.804982    19.794049    20.502038    6819.7699    13350.992     14888.13    13220.209    303.13012   -78.244699    8.4708342        -1866 
11258000    288.11303   -3756.1184   -3262.3025   -3756.1184            0    13644.762    16.818608    19.810099    20.518663    6836.3729    12746.104    16780.633     11407.55   -1863.8145    -710.3479    1549.9372   -1901.8994 
11259000    301.49776   -3728.8528   -3212.0959   -3728.8528            0    14985.186    16.732597     19.70879     20.41373    6732.0243    14967.577    17048.264    12939.717   -1051.4855    470.59095   -262.65446   -1740.8553 
11260000     292.1232   -3754.5013   -3253.8121   -3754.5013            0    10782.967    16.810982    19.801117    20.509359    6827.0781    10184.083    10719.836    11444.981   -1638.2774    1089.8033    899.28818    -2180.196 
11261000    273.83393   -3718.0748   -3248.7329   -3718.0748            0    12127.392    16.789357    19.775645    20.482976    6800.7649    10678.852    12014.361    13688.962    880.04661   -477.58376   -980.27758   -2045.9117 
11262000    294.76312   -3683.2953   -3178.0814   -3683.2953            0    15176.297    16.735763    19.712518    20.417592    6735.8461    14489.933    16388.155    14650.803    -1869.918    -663.7441   -1172.4001   -1687.2317 
11263000    300.53095   -3701.5389   -3186.4391   -3701.5389            0    13748.331    16.797602    19.785357    20.493036    6810.7897    12366.629    15172.402    13705.961    469.71931   -55.103093   -1763.0379   -1820.8397 
11264000    284.63153   -3771.9629   -3284.1142   -3771.9629            0    11705.623    16.787021    19.772894    20.480127    6797.9272    11770.209    11293.135    12053.526   -3105.1126   -396.48221    -18.04491   -2123.6094 
11265000    297.19525   -3773.0626   -3263.6801   -3773.0626            0     13106.72    16.754061     19.73407    20.439915    6757.9634    13462.649    13263.362    12594.149    512.49357   -636.09069   -992.65321   -1971.9085 
11266000    300.73367    -3757.376   -3241.9288    -3757.376            0    14576.779     16.77872    19.763115    20.469999    6787.8469    14730.276    14707.791    14292.268   -848.73972    -167.8655   -293.34697   -1798.9183 
11267000    299.51459   -3728.8052   -3215.4475   -3728.8052            0    13883.132     16.80387    19.792739    20.500682    6818.4162    14572.846    11982.051    15094.498    912.36027    913.48469    1214.2175   -1834.9143 
11268000    274.18025   -3753.5789   -3283.6433   -3753.5789            0    12153.866     16.84588    19.842222    20.551934    6869.6832    11889.339    11114.331    13457.929     380.4154    253.32422    101.19851   -2065.9805 
11269000    290.63897   -3750.0549   -3251.9097   -3750.0549            0    13816.632    16.778164    19.762462    20.469321    6787.1732    14159.718    11517.226    15772.953    1060.5567    301.19895    2190.9136   -1884.2847 
11270000    286.86828   -3776.5685   -3284.8861   -3776.5685            0    11692.569    16.783151    19.768335    20.475405    6793.2266    12730.126    10176.605    12170.977    123.71724    393.10636    726.57867    -2126.477 
11271000     279.7392   -3760.6601   -3281.1967   -3760.6601            0    13023.519     16.74289    19.720913    20.426287    6744.4555    14292.809    13201.254    11576.494     1237.246   -502.04742    580.41705   -2000.1908 
11272000    292.77711   -3751.9582   -3250.1483   -3751.9582            0    13819.512     16.78539    19.770972    20.478136    6795.9454    11555.186    14578.505    15324.843    964.41023   -1195.5639   -370.49716   -1880.4703 
11273000    285.01122   -3800.0462   -3311.5468   -3800.0462            0    13478.146     16.74396    19.722173    20.427592    6745.7482    13786.733     11646.77    15000.935    -984.9417    1489.9047    726.04117   -1985.5692 
11274000    309.34935   -3746.7635   -3216.5493   -3746.7635            0    11029.794    16.826446     19.81933    20.528224    6845.9347    10409.696    10632.592    12047.095    463.79421    -380.8748   -1007.2059   -2115.3243 
11275000    299.86654   -3778.6036   -3264.6427   -3778.6036            0    12610.697    16.793052    19.779997    20.487485    6805.2566    12104.631    11484.243    14243.216    295.45851    2984.7228    810.39292   -2013.0602 
11276000    303.31573   -3714.7226   -3194.8498   -3714.7226            0    13871.925    16.783946    19.769271    20.476375    6794.1915    13243.678    13853.805    14518.291   -868.03779    1155.8651    1226.0476    -1820.332 
11277000    310.67651   -3759.1279    -3226.639   -3759.1279            0    12766.459    16.802097    19.790651    20.498519    6816.2588    11821.309    13961.883    12516.183   -1504.6465   -1853.4893   -332.34541    -1957.549 
11278000    291.17098   -3777.4723   -3278.4152   -3777.4723            0    12125.331    16.766084    19.748233    20.454584    6772.5237    13453.114     11399.65    11523.227    1050.0449   -567.49804   -1193.8626   -2080.7925 
11279000    283.01449   -3786.3353   -3301.2582   -3786.3353            0    12777.071    16.782413    19.767465    20.474504      6792.33     11458.94    13354.909    13517.366    689.60542   -874.19173   -657.38896   -2035.5722 
11280000    300.92217   -3736.2132   -3220.4428   -3736.2132            0    12585.598    16.820098    19.811854    20.520481    6838.1901    13012.946    12099.485    12644.361     -617.969   -196.41527     408.9759   -1965.3065 
11281000    294.98233   -3713.8072   -3208.2176   -3713.8072            0     11343.94    16.807517    19.797035    20.505132    6822.8575    12249.777    9138.5119    12643.531     417.3378   -694.56618   -1517.4819   -2079.4459 
11282000    287.94704   -3745.0103   -3251.4789   -3745.0103            0    12005.532    16.793248    19.780228    20.487723    6805.4947    13372.363    9692.9634    12951.269   -1048.0615    993.60925    855.15735    -2059.916 
11283000    284.93216   -3734.2736   -3245.9097   -3734.2736            0     13655.32    16.787431    19.773376    20.480626    6798.4247    14591.932    13310.366    13063.663   -302.49257    542.79827   -1924.5866   -1892.0113 
11284000    290.34757   -3764.3716   -3266.7258   -3764.3716            0    14912.594    16.695396    19.664971    20.368344    6687.2222    14072.163    14547.887    16117.733     -503.042    -537.3411   -984.33147    -1812.356 
11285000    273.45333   -3753.7186    -3285.029   -3753.7186            0    16671.541    16.675705    19.641778    20.344321    6663.5891    16120.333    16342.481    17551.808   -435.14962   -204.59495   -264.11794   -1664.8618 
11286000    291.12607   -3797.6024   -3298.6223   -3797.6024            0    12136.058    16.770331    19.753235    20.459765    6777.6716    13153.869    9819.0242    13435.282    634.09589    717.06418   -1160.6022   -2099.0289 
11287000    298.88313   -3784.1794   -3271.9039   -3784.1794            0    15873.884    16.733417    19.709755     20.41473    6733.0139    18146.227    14756.569    14718.856    122.15685    306.79041   -580.25807   -1713.1821 
11288000    288.42547   -3764.8923   -3270.5409   -3764.8923            0    13040.853    16.792089    19.778862    20.486309    6804.0852    14436.581     12511.39    12174.589   -990.54295     287.7243    1899.2798   -1976.4892 
11289000    292.07921    -3780.015   -3279.4013    -3780.015            0    9186.3709    16.833062    19.827123    20.536296    6854.0132    8860.8038    9093.7274    9604.5816   -185.52263    132.82857    1640.3151   -2361.1431 
11290000    307.56913   -3811.8512   -3284.6882   -3811.8512            0    10158.509    16.834393    19.828691     20.53792    6855.6391    11395.134    9350.9219    9729.4711   -1111.9705    -151.7462   -1331.4116   -2269.0155 
11291000    286.92951    -3781.786   -3289.9986    -3781.786            0    12530.052    16.820511     19.81234    20.520984    6838.6933    11386.122     12409.17    13794.863   -244.79868    341.96428   -1279.5605   -2040.3098 
11292000    288.04682   -3778.0308   -3284.3284   -3778.0308            0    13432.798    16.739562    19.716993    20.422226    6740.4339    12727.637    12933.922    14636.835   -863.96866    773.81988     907.2779   -1963.8532 
11293000    302.49627   -3783.7476   -3265.2794   -3783.7476            0    13037.331    16.735938    19.712724    20.417805     6736.057    13056.258    12901.347    13154.389   -897.37612   -1158.8859    418.48324   -1984.5117 
11294000    294.93245    -3778.723   -3273.2189    -3778.723            0    11334.927    16.837699    19.832586    20.541954    6859.6797    10123.096    11544.747    12336.938   -2180.9642    -1197.101    702.75424    -2139.257 
11295000    291.71596   -3819.6548   -3319.6636   -3819.6548            0    13909.566    16.759999    19.741065     20.44716    6765.1521    15264.051    13315.807    13148.841    1387.8162   -273.26804    -1053.665   -1947.3068 
11296000    297.50728   -3747.5669   -3237.6496   -3747.5669            0    14978.148    16.693011    19.662162    20.365435    6684.3572    15594.444    14245.111    15094.888    -76.41042    988.05934    521.40174   -1777.5125 
11297000    286.07239   -3777.6843    -3287.366   -3777.6843            0    12173.253    16.797057    19.784714     20.49237    6810.1262    13170.023    10768.898    12580.838    361.92453    1213.0278   -518.65419   -2078.3343 
11298000    289.72072   -3767.5039   -3270.9325   -3767.5039            0    12790.936    16.758715    19.739552    20.445593    6763.5969    14978.153    13331.706    10062.948    1713.2284    -138.2383    1461.6884    -2009.233 
11299000    294.90454   -3739.6453    -3234.189   -3739.6453            0    13669.598    16.729372    19.704991    20.409795    6728.1325    12546.591    15725.501    12736.702   -2707.8678    90.065028   -870.55763   -1892.8882 
11300000    293.30006   -3783.8619   -3281.1556   -3783.8619            0    13660.427    16.787669    19.773656    20.480917    6798.7137    9676.5306    16559.681    14745.068    429.40359    1482.6793    1095.5228   -1926.6934 
11301000    299.28912   -3754.0876   -3241.1163   -3754.0876            0    13870.866    16.790831    19.777381    20.484775    6802.5565    13227.436    15364.225    13020.936    222.89321   -600.95633   -687.47465   -1865.0111 
11302000    284.25437   -3787.9969   -3300.7946   -3787.9969            0     11174.93    16.840173      19.8355    20.544972     6862.704    10634.193    11265.603    11624.995   -1335.7851   -490.36759    465.22788   -2182.3461 
11303000    278.64992   -3775.9541   -3298.3577   -3775.9541            0    14662.382    16.739589    19.717025     20.42226     6740.467    16220.811    13579.284    14187.052   -1348.7354    1168.4089    682.11906   -1857.0045 
11304000    278.82628   -3748.0262   -3270.1275   -3748.0262            0    12712.761    16.804652    19.793661    20.501637    6819.3691    13138.297    13913.511    11086.474   -197.56055   -387.04097    1681.1725   -2005.7989 
11305000    277.43376   -3752.2993   -3276.7873   -3752.2993            0    11495.291    16.818352    19.809798    20.518351     6836.061    12843.449    11009.198    10633.224    -659.4259    -1009.332   -1115.5874    -2130.742 
11306000    313.79957   -3759.4432   -3221.6015   -3759.4432            0    13610.546    16.784646    19.770095    20.477228    6795.0414    13168.627    12908.733    14754.278   -713.91598   -339.12535    1844.8992   -1872.8139 
11307000    292.91935   -3756.8846   -3254.8308   -3756.8846            0    12417.347    16.842885    19.838694     20.54828    6866.0195    14172.717    9571.0708    13508.252    61.853696    1007.1382    2033.3531   -2011.4341 
11308000      288.724   -3739.3191    -3244.456   -3739.3191            0    11565.689    16.800367    19.788613    20.496409    6814.1534    12936.708    10718.711    11041.646     254.2378    2021.7869    -2708.405   -2095.0875 
11309000    288.36649   -3722.0871   -3227.8368   -3722.0871            0    14220.248    16.697737    19.667729      20.3712     6690.036    13702.338    17792.468    11165.938    848.73145   -1232.3056   -1041.8858   -1840.4054 
11310000    287.72383   -3784.5588     -3291.41   -3784.5588            0    12058.748    16.775348    19.759145    20.465886    6783.7563     12996.69    12639.524    10540.031    244.65643   -666.73645   -158.88436   -2098.3883 
11311000    283.63299   -3756.8476   -3270.7103   -3756.8476            0    11167.545    16.825594    19.818327    20.527185    6844.8949    12874.578    9981.1235    10646.933   -240.97593    149.52007    1310.3156   -2155.9015 
11312000     286.9594   -3729.4133   -3237.5747   -3729.4133            0    12290.772    16.824467       19.817     20.52581    6843.5198    11583.447     12381.77      12907.1   -831.61244   -1239.8753    401.98141   -2010.8854 
11313000    312.72575   -3768.6548   -3232.6536   -3768.6548            0     10561.94    16.842655    19.838423       20.548    6865.7383    9375.3012    11063.644    11246.875   -112.75153    686.78165   -1447.8091   -2175.0891 
11314000    299.21035    -3771.232   -3258.3957    -3771.232            0     13426.35    16.758501    19.739301    20.445332    6763.3382    11256.586    14201.634     14820.83   -18.007708   -795.01679    1277.3828   -1934.0696 
11315000     285.5903    -3791.262     -3301.77    -3791.262            0    12361.341    16.786271     19.77201    20.479211    6797.0157    15020.748    9631.7623    12431.512    1227.6795    648.83467   -738.70235   -2076.4212 
11316000    304.47522   -3762.6294   -3240.7693   -3762.6294            0    15253.493    16.806601    19.795956    20.504014    6821.7413    18081.801    13737.684    13940.993    1163.7259    1856.9018    -1815.921   -1723.2283 
11317000    287.96866   -3778.5568   -3284.9883   -3778.5568            0    12441.603    16.786341    19.772093    20.479297    6797.1012    12281.378    11694.492    13348.939    1492.6864    320.54751   -1020.8574   -2051.6678 
11318000    279.80624   -3741.6708   -3262.0925   -3741.6708            0    14410.381    16.712271    19.684848    20.388932    6707.5208    14216.241    15768.041     13246.86    1543.2214    72.435751   -1759.4592   -1852.4358 
11319000    269.42482   -3768.2005   -3306.4156   -3768.2005            0    11655.338    16.727125    19.702344    20.407053    6725.4211     14207.58    8982.1103    11776.323   -166.68658    -665.5696   -853.57502   -2163.2208 
11320000    289.97729   -3772.4991    -3275.488   -3772.4991            0     11277.87    16.728405    19.703852    20.408615    6726.9655    9889.4078     11022.42     12921.78    414.11988   -672.32266   -863.86948   -2169.0625 
11321000    274.97926    -3732.928    -3261.623    -3732.928            0    12889.434    16.743009    19.721053    20.426432    6744.5992    12366.592    13399.048    12902.663   -133.63014   -737.63519   -727.46289   -1993.7787 
11322000    302.13117   -3704.6773   -3186.8348   -3704.6773            0    12942.606     16.84626    19.842669    20.552398     6870.148    13319.508    12565.073    12943.236    158.39776   -878.34628   -1064.3162   -1890.0625 
11323000    282.37416   -3796.5521   -3312.5725   -3796.5521            0    11467.534    16.834812    19.829185    20.538431    6856.1513    11383.098    11394.202    11625.303   -884.03088   -581.99847   -60.682764   -2165.9344 
11324000    297.81059   -3809.2658   -3298.8287   -3809.2658            0    13019.789     16.79462    19.781844    20.489398    6807.1633    13526.056    10819.522     14713.79    12.078958   -1019.7022   -456.63059   -2006.2827 
11325000    286.78805   -3731.8197   -3240.2748   -3731.8197            0    14541.612    16.704019    19.675127    20.378864    6697.5888    15614.148    14989.897    13020.791   -173.75659    155.24669   -427.94885    -1819.887 
11326000    302.40166   -3809.6759   -3291.3699   -3809.6759            0    12045.107    16.822315    19.814465    20.523184    6840.8937    11937.703    12516.934    11680.684    850.03093     619.1488    760.51959   -2089.6607 
11327000    281.80097   -3781.9988   -3299.0016   -3781.9988            0    13742.995    16.751904    19.731531    20.437284    6755.3545    13148.049    13687.332    14393.603    336.59475    98.041834   -587.04686   -1945.0429 
11328000    297.35621   -3741.4429   -3231.7845   -3741.4429            0     12419.25    16.831604    19.825406    20.534517    6852.2324    13130.055    12111.576    12016.117   -656.04119    612.19207    250.93108   -1990.6944 
11329000    283.45504   -3771.7093    -3285.877   -3771.7093            0    13834.178    16.744118     19.72236    20.427785    6745.9394    16571.112    13937.319    10994.104   -812.05187    220.65502    270.50092   -1924.8345 
11330000    311.46521   -3771.2701   -3237.4294   -3771.2701            0    11879.226    16.847828    19.844516    20.554311    6872.0666    12759.302    10741.076      12137.3   -1481.3866    1342.0804    749.67983   -2046.8691 
11331000    284.12249   -3758.9583    -3271.982   -3758.9583            0    14516.294    16.779197    19.763678    20.470581    6788.4264    13412.252    16278.348    13858.283    1031.1484    1181.8369   -220.79641   -1834.8364 
11332000    285.34586   -3785.1263   -3296.0533   -3785.1263            0    11056.193    16.794463    19.781659    20.489205    6806.9713    11494.716    11010.341    10663.521    637.88723    620.26082    1259.0694   -2198.4752 
11333000    272.24382   -3743.8258   -3277.2092   -3743.8258            0    13663.202    16.767941     19.75042    20.456849    6774.7741    13578.439    14230.249    13180.918    3296.9863   -926.73793      296.835   -1927.2421 
11334000    303.76073   -3737.6569   -3217.0214   -3737.6569            0    13235.916    16.774198     19.75779    20.464483    6782.3613    14013.309    11301.836    14392.603   -244.43936   -391.42722     2294.071   -1907.8068 
11335000    295.51185    -3764.792   -3258.2948    -3764.792            0    13732.905    16.757601     19.73824    20.444234    6762.2481    13337.511    13794.862    14066.343    883.93264    737.73183    618.07214   -1903.9495 
11336000    294.15522   -3762.3691   -3258.1971   -3762.3691            0    12805.871     16.78887    19.775071    20.482382    6800.1729    14867.641    13267.912    10282.061    177.85189     126.3118   -44.625501   -1988.1934 
11337000    289.99077   -3777.6235   -3280.5892   -3777.6235            0    12908.901    16.743368    19.721475    20.426869    6745.0322    12603.553    11788.072     14335.08   -1089.5173    883.43067    1555.6018   -2010.7487 
11338000    291.86589   -3725.8147   -3225.5665   -3725.8147            0    12385.486    16.803865    19.792734    20.500676    6818.4107    13296.636    12739.322    11120.502    273.37692     868.0232    159.70939   -1993.9596 
11339000    291.96423   -3785.7197    -3285.303   -3785.7197            0    13431.555    16.715434    19.688573    20.392791    6711.3296    12281.798    13740.994    14271.872    827.25001   -423.88861   -1415.1832   -1970.6512 
11340000     297.9944   -3800.3059   -3289.5537   -3800.3059            0     13172.65    16.746713    19.725415     20.43095    6749.0755    14430.488    12778.454    12309.008    265.59183    1332.1793     489.1903   -1992.9916 
11341000    280.63181   -3799.7115   -3318.7181   -3799.7115            0    14168.711    16.746478    19.725139    20.430664    6748.7915    15640.133    15417.335    11448.664    468.22391    1401.4633   -2047.8074   -1924.1741 
11342000    295.19962   -3752.7168   -3246.7547   -3752.7168            0    13148.721    16.734142    19.710609    20.415614    6733.8885    14761.075    11395.995    13289.092   -1717.0151   -974.23723   -2100.2167   -1955.4602 
11343000    284.22347   -3770.0295   -3282.8802   -3770.0295            0    12010.975    16.783922    19.769244    20.476346    6794.1633    11341.059    13767.001    10924.864   -475.42732   -1846.3391   -903.40124   -2092.7619 
11344000    293.88859    -3773.759   -3270.0441    -3773.759            0    12772.996    16.749548    19.728755    20.434409    6752.5042     13935.96    11333.332    13049.695   -158.74571    923.62812   -248.74052   -2012.1805 
11345000    278.74638    -3790.055   -3312.2933    -3790.055            0    12066.624    16.806826    19.796221    20.504289    6822.0157    10829.888    11522.407    13847.578    1002.3373   -704.12654   -464.90259   -2111.7595 
11346000      295.597     -3748.93   -3242.2869     -3748.93            0    13253.407    16.733515     19.70987    20.414849    6733.1319    13802.514    14900.289    11057.418   -2508.2103    257.39903    2081.1719   -1940.8577 
11347000    288.08491   -3759.4197    -3265.652   -3759.4197            0     14144.07    16.762595    19.744123    20.450327    6768.2961    16884.559    11079.539    14468.112   -86.368889   -643.15543   -28.803834   -1869.5099 
11348000    273.31871   -3801.1127   -3332.6538   -3801.1127            0    11950.953    16.806109    19.795376    20.503414    6821.1423    11763.261    13039.133    11050.466    1009.2091    454.62209    532.15572   -2143.7806 
11349000    284.94489   -3761.5074   -3273.1217   -3761.5074            0      12164.9    16.760953    19.742189    20.448324    6766.3075     13905.24    10567.768    12021.693   -551.04257   -630.26228   -779.47208   -2072.6935 
11350000    293.66775   -3769.5625    -3266.226   -3769.5625            0    12552.798    16.722061    19.696379    20.400876    6719.3152    11986.729    14361.228    11310.439     1056.274    529.39786    414.41386    -2036.123 
11351000      279.146   -3778.6204   -3300.1737   -3778.6204            0    11779.182    16.813933    19.804592    20.512959    6830.6734    11538.641    12151.706      11647.2   -775.35926   -146.47274   -510.47609   -2126.7508 
11352000    291.11568   -3727.5885   -3228.6262   -3727.5885            0    15685.955    16.769541    19.752304      20.4588    6776.7129    14487.285    18387.131     14183.45   -613.53789   -305.29049    37.474755   -1678.3612 
11353000       284.96    -3764.836   -3276.4243    -3764.836            0     13348.31    16.811099    19.801254    20.509501    6827.2201    17481.344    12796.329    9767.2589     240.1453    -938.6891    1092.3854   -1947.3597 
11354000    293.31995    -3796.004   -3293.2636    -3796.004            0    12624.408    16.839432    19.834627    20.544068    6861.7982    12305.507    13377.267    12190.448   -56.441328    1648.4013   -755.73269   -2029.9103 
11355000    297.63799   -3771.9973   -3261.8559   -3771.9973            0    13624.284    16.826299    19.819158    20.528046    6845.7557    14701.023    15016.473    11155.354    320.61441   -1229.6777   -829.58174   -1901.6303 
11356000    271.74231   -3774.8671   -3309.1101   -3774.8671            0    13197.519    16.797014    19.784664    20.492318    6810.0744    12583.032    14054.266    12955.259    155.67465   -1299.8202    631.72367   -1998.3595 
11357000    282.80807   -3798.9228   -3314.1994   -3798.9228            0    10672.981    16.817155    19.808387     20.51689    6834.6014    10608.063    11472.747    9938.1313   -948.04493    1464.1412    147.46568   -2250.3631 
11358000    285.60113   -3789.6488   -3300.1383   -3789.6488            0    11402.968    16.856308    19.854504    20.564656    6882.4483    12244.883    10770.228    11193.793   -857.72041    483.50982    853.03861   -2155.5831 
11359000    289.10513   -3773.3708   -3277.8544   -3773.3708            0    12623.255    16.752598    19.732348    20.438131    6756.1941    13687.629    12510.492    11671.643   -165.12195   -543.96851   -331.26241   -2034.0579 
11360000    286.28323    -3775.531   -3284.8514    -3775.531            0    13777.397    16.761001    19.742246    20.448383    6766.3659    16358.008    10258.358    14715.823   -2674.7368    296.66856   -16.343743   -1925.2909 
11361000    294.79746     -3768.95   -3263.6772     -3768.95            0    12319.111    16.786002    19.771693    20.478884    6796.6893    12068.283    12382.295    12506.753   -781.81275    751.81189   -112.05294   -2042.5732 
11362000    282.38187   -3754.4157   -3270.4228   -3754.4157            0    11608.871    16.817642    19.808961    20.517484    6835.1946    12218.682    11426.368    11181.562    2261.1001    -1412.845     277.3165   -2113.2006 
11363000    292.93634    -3785.343   -3283.2601    -3785.343            0    12251.232    16.763734    19.745464    20.451716    6769.6755    12805.636    11116.325    12831.734   -63.400596   -150.39274   -283.85375    -2073.711 
11364000    297.99749   -3750.2057   -3239.4482   -3750.2057            0    11044.369     16.80506    19.794141    20.502134    6819.8655    11379.177    10890.702    10863.229   -347.14617     1144.415   -559.53361    -2140.967 
11365000    289.82116   -3774.8875   -3278.1439   -3774.8875            0    10885.651    16.848722    19.845569    20.555402    6873.1607    10375.091    12324.185    9957.6777    1266.7394    1229.0149   -1731.1427    -2186.988 
11366000    284.83806   -3788.2061   -3300.0034   -3788.2061            0    12005.455     16.78206     19.76705    20.474074    6791.9022    13281.862    12973.842    9760.6599   -270.04175     962.7852   -348.64861    -2110.828 
11367000    274.52351   -3796.3143   -3325.7904   -3796.3143            0    11700.622    16.778567    19.762936    20.469813    6787.6618    10906.731    12021.029    12174.105   -1042.6677    543.02042   -910.90055   -2167.5331 
11368000    289.98416   -3808.2637   -3311.2408   -3808.2637            0    11820.482    16.785307    19.770875    20.478036    6795.8452    12152.506    11675.355    11633.586    335.53797   -2036.3634    1102.7422   -2139.7077 
11369000    298.13004   -3757.9462   -3246.9615   -3757.9462            0    13118.594    16.710218    19.682429    20.386427    6705.0485    13659.716    12367.959    13328.108   -858.47983   -963.28747    262.57748   -1964.1433 
11370000    287.61736   -3784.5603    -3291.594   -3784.5603            0    13965.862    16.749452    19.728642    20.434292     6752.388    11998.308    15388.348    14510.929   -93.873905    825.86077    30.894474   -1916.2827 
11371000    287.91896   -3760.4213   -3266.9381   -3760.4213            0    12363.771    16.712331    19.684919    20.389005     6707.593    12256.557    12556.487    12278.269    612.70096    235.20604   -239.52523   -2057.4724 
11372000    315.10714   -3762.5809    -3222.498   -3762.5809            0    13531.568      16.7796    19.764153    20.471073    6788.9157    14570.885    13965.197    12058.623    702.44736   -1346.7943    380.76059    -1882.746 
11373000    272.18267   -3753.4619   -3286.9501   -3753.4619            0    14734.239    16.735485     19.71219    20.417252    6735.5099    15966.959    14718.342    13517.416   -1955.1113     2009.496   -122.25034   -1839.5984 
11374000    295.46478   -3772.9106   -3266.4941   -3772.9106            0    10364.151    16.792649    19.779522    20.486992    6804.7659    10470.553    9793.1417    10828.758   -332.34947   -1032.3784    568.13927   -2237.9502 
11375000    292.95204   -3714.5664   -3212.4566   -3714.5664            0    12197.711    16.797695    19.785466    20.493149    6810.9025    10998.129    14178.737    11416.267   -144.64536   -1309.9402    1046.9822   -2000.8577 
11376000    304.26898   -3760.2645   -3238.7579   -3760.2645            0    12168.597     16.78543    19.771019    20.478185    6795.9942     13263.36    13891.297    9351.1341    719.98509    87.852529   -499.78541   -2032.6966 
11377000    283.94942   -3715.1414   -3228.4618   -3715.1414            0    13100.874    16.789235    19.775501    20.482827    6800.6168    12886.508     12434.13    13981.984   -1147.9088    98.280963   -38.655726   -1929.1169 
11378000    287.87835    -3717.813   -3224.3994    -3717.813            0    16130.006    16.717001    19.690419    20.394703    6713.2175     16892.93    17257.829    14239.259    1418.6494   -945.99865   -511.76874   -1645.1848 
11379000    313.26017   -3769.2686   -3232.3514   -3769.2686            0    12025.601    16.744977    19.723371    20.428833    6746.9771    11905.407    10877.082    13294.314    618.61505   -342.35651   -751.47147   -2049.0594 
11380000    280.11269   -3760.5238   -3280.4203   -3760.5238            0    13168.513    16.738243    19.715439    20.420617    6738.8402    12416.617    14324.311     12764.61     481.9722    359.64329    283.46202    -1986.231 
11381000    293.00006    -3797.251   -3295.0589    -3797.251            0    13489.681      16.6816    19.648721    20.351513    6670.6585    13945.396     13339.07    13184.577   -741.69042    549.93051   -287.76011   -1982.7191 
11382000    299.66052   -3762.3804   -3248.7725   -3762.3804            0    10363.613    16.832478    19.826436    20.535584    6853.3007    9846.9616    12245.078    8998.7985   -1430.8266    724.68985    2362.8856   -2212.9464 
11383000    273.15414   -3752.6426   -3284.4657   -3752.6426            0    12465.638    16.780904    19.765688    20.472663    6790.4978    12999.021    12175.652    12222.242   -800.29345   -1329.9964   -476.87057   -2049.9631 
11384000    275.61659   -3783.9337   -3311.5363   -3783.9337            0    12785.958    16.781648    19.766564    20.473571    6791.4012    12391.145    13835.819     12130.91   -614.08679    94.153554    81.637472   -2045.1432 
11385000    271.01565   -3771.7608   -3307.2493   -3771.7608            0    10947.781    16.789764    19.776124    20.483473    6801.2595    11390.155    9907.1594     11546.03   -1822.5272    864.79519   -26.571137   -2221.3455 
11386000    284.11915   -3751.3472   -3264.3767   -3751.3472            0    13021.742    16.759718    19.740734    20.446817    6764.8116    16401.906    10448.946    12214.374    846.42424     56.19139    207.60735   -1979.6798 
11387000    299.44267   -3799.4714   -3286.2369   -3799.4714            0    15684.862    16.736778    19.713713    20.418829    6737.0709    17488.693    14818.329    14747.564    867.94903    812.38558   -199.90178    -1745.148 
11388000     296.5211   -3787.2022   -3278.9752   -3787.2022            0     12810.13    16.762201    19.743659    20.449847    6767.8193    11418.391    13126.194    13885.805    -1318.332    345.70575    1614.1888   -2014.5936 
11389000    269.82726    -3805.085   -3342.6104    -3805.085            0     11856.05    16.808575    19.798281    20.506422    6824.1455    12229.032    9930.4655    13408.653    1676.8074    463.61144    1072.8421   -2162.6588 
11390000    286.31207   -3753.2376   -3262.5085   -3753.2376            0    12038.241    16.821795    19.813853    20.522551    6840.2598    12817.444    12704.099    10593.179   -277.80803   -584.29868   -384.15802   -2061.5956 
11391000    280.66431   -3780.6591   -3299.6101   -3780.6591            0    12979.231    16.756336    19.736751    20.442691    6760.7178    13120.643    11930.294    13886.756    178.95279    313.50477    742.72664   -2019.8821 
11392000    280.99438   -3781.5571   -3299.9424   -3781.5571            0    11687.068    16.801148    19.789533    20.497361    6815.1032    12258.095     13024.55    9778.5591   -152.41456   -594.08545    -838.5566   -2138.3496 
11393000    269.00979   -3742.0073   -3280.9337   -3742.0073            0    11265.633    16.861411    19.860515    20.570882    6888.7011    11120.674    9480.0579    13196.168     148.4044    267.99163    287.29363    -2149.136 
11394000    282.08408   -3770.7025     -3287.22   -3770.7025            0    10876.129    16.830021    19.823542    20.532587    6850.2998     11212.35    10185.634    11230.403   -1914.5561     1980.594    794.59343   -2200.6448 
11395000    302.84819   -3769.9835   -3250.9121   -3769.9835            0     12402.55    16.807555     19.79708    20.505178    6822.9035    13261.244    10691.061    13255.344    703.26942    104.42134    222.54973   -2016.7957 
11396000    291.65436   -3780.3221   -3280.4365   -3780.3221            0    15059.643    16.795203    19.782531    20.490108    6807.8717    16160.134    14038.802    14979.992   -1542.7788    952.21029    512.89265   -1785.2275 
11397000    262.67549   -3736.9924   -3286.7756   -3736.9924            0    12180.845     16.79987    19.788028    20.495802    6813.5484    13190.173    11091.776    12260.585   -958.44117   -497.03208    678.44365   -2076.3819 
11398000    279.15677   -3776.1225   -3297.6573   -3776.1225            0    13557.586    16.756513    19.736959    20.442907    6760.9315    13906.163    15274.632    11491.964    1185.1576    504.21542    886.69442   -1960.8624 
11399000    323.08373   -3759.2255   -3205.4711   -3759.2255            0    14448.372    16.753596    19.733523    20.439347    6757.4006    15630.586    15228.695    12485.837     90.87081    2138.9919    145.89601   -1781.5875 
11400000    284.98904    -3777.427   -3288.9655    -3777.427            0    13521.312    16.763513    19.745204    20.451447    6769.4083    13939.801    13128.411    13495.725    1024.4811    402.17332   -992.83639   -1954.0757 
11401000    283.97428   -3772.3078   -3285.5856   -3772.3078            0    13225.556    16.752512    19.732246    20.438026    6756.0896    14070.589    13409.167    12196.912    43.272839   -1064.6729   -1158.9177   -1982.4632 
11402000    282.32621   -3785.4262   -3301.5288   -3785.4262            0    12670.681     16.73532    19.711997    20.417052    6735.3113    11386.464    14314.504    12311.075    345.36341   -545.65374    405.67521   -2056.9181 
11403000    293.95681   -3773.1006   -3269.2687   -3773.1006            0    14726.142    16.761432    19.742752    20.448907    6766.8869    13591.554    14639.539    15947.332   -835.13091    -555.9525     114.8675   -1815.9737 
11404000    274.18343   -3749.8266   -3279.8855   -3749.8266            0     13200.21    16.786947    19.772806    20.480036    6797.8368    14493.805     14406.91    10699.916     1147.599    1423.0725    1995.7659   -1971.2236 
11405000    288.06611   -3741.7113   -3247.9758   -3741.7113            0    14204.939     16.75817     19.73891    20.444928     6762.937     14432.15    14069.985    14112.682   -485.23735    278.34262   -1437.6688   -1846.9356 
11406000    267.13947   -3768.9986   -3311.1307   -3768.9986            0    11294.561    16.856031    19.854178    20.564319    6882.1095     9130.172    13032.265    11721.247     677.2061    564.00456      438.095   -2177.5124 
11407000    273.48374   -3724.4152   -3255.6734   -3724.4152            0    14478.219    16.740884    19.718551     20.42384    6742.0317    12897.099    14965.734    15571.826    11.021323   -306.80677   -1184.8584   -1832.0936 
11408000     297.1273    -3796.574    -3287.308    -3796.574            0    12778.712    16.744478    19.722783    20.428224    6746.3744    14319.529    12183.878     11832.73    1328.0475   -1705.3141   -32.174838   -2030.0239 
11409000    273.20354   -3754.0226   -3285.7611   -3754.0226            0    9628.4826    16.858078    19.856589    20.566816    6884.6168    8654.7651    9727.4107    10503.272    -731.7624   -274.49533   -809.45003   -2319.0126 
11410000    309.09385   -3771.2199   -3241.4436   -3771.2199            0     11775.39     16.80381    19.792669    20.500609     6818.344    12911.973    9676.4347    12737.763   -667.00257   -780.44773    1449.3715   -2070.5159 
11411000    286.39418   -3776.3361   -3285.4663   -3776.3361            0    11853.242     16.72537    19.700276    20.404912    6723.3042     10439.94    12199.958    12919.827   -425.86318    1413.9221    696.24682   -2123.2264 
11412000    282.17377   -3769.6252    -3285.989   -3769.6252            0    9161.0947     16.84881    19.845672    20.555509     6873.268    7672.7924    12239.373    7571.1188    747.82979   -2026.1714    1204.8841   -2367.6849 
11413000    282.32524   -3747.2157   -3263.3199   -3747.2157            0    13726.535    16.808024    19.797632     20.50575    6823.4739    14017.789    14702.541    12459.275   -2103.0813    205.23032   -903.19282   -1897.3461 
11414000    274.13964   -3766.5905   -3296.7245   -3766.5905            0    10723.322    16.818629    19.810123    20.518688    6836.3979    10930.674    10387.216    10852.077    1192.4517    2355.9808    126.46034   -2227.5894 
11415000    286.04649   -3750.0525   -3259.7786   -3750.0525            0    13534.967    16.738702     19.71598    20.421177    6739.3948    13467.072    14169.659    12968.171    1556.4335    1428.9191    27.503653   -1929.4651 
11416000    291.68626   -3759.1776   -3259.2373   -3759.1776            0    12937.814    16.797066    19.784725    20.492381    6810.1374    11915.171    14665.174    12233.097   -1902.9056    2086.8839   -718.96799   -1974.2683 
11417000    276.55696   -3767.3493   -3293.3401   -3767.3493            0    11674.898    16.759279    19.740217    20.446281      6764.28    10885.143     11840.51    12299.041    225.85596   -1165.5396    -117.0212   -2141.6104 
11418000    280.39493   -3711.8719   -3231.2846   -3711.8719            0    12878.484    16.799702     19.78783    20.495597    6813.3444    12140.911    13633.471    12861.071   -307.84848    522.40513   -521.42173   -1951.6058 
11419000    301.78346   -3717.5343   -3200.2878   -3717.5343            0    12105.104    16.788056    19.774113    20.481389    6799.1847    11375.804    13746.947    11192.562    847.79221   -988.29644   -387.02294   -1999.9561 
11420000    287.31384   -3722.6722   -3230.2262   -3722.6722            0    13569.311    16.743527    19.721663    20.427063    6745.2243    13594.217     11492.83    15620.885    1293.9236   -832.33563    114.73587   -1895.3835 
11421000    288.47966   -3767.2575   -3272.8132   -3767.2575            0    12190.295     16.76661    19.748852    20.455225    6773.1607    12061.781    12840.371    11668.732     85.23873   -1399.9986    511.38984   -2068.6608 
11422000    281.06401   -3781.5375   -3299.8034   -3781.5375            0    12305.713    16.762658    19.744197    20.450404    6768.3727    12950.984    12967.216     10998.94    1973.2966   -2329.3199   -929.80308   -2085.1092 
11423000    284.34954   -3754.2904    -3266.925   -3754.2904            0     15634.88    16.687597    19.655785    20.358829    6677.8553    14554.481    16561.432    15788.728    791.78883    553.76148    2010.7744   -1744.2492 
11424000    290.03657   -3792.2299   -3295.1172   -3792.2299            0    13717.624    16.748532    19.727558     20.43317    6751.2755    14693.041    12621.734    13838.096    305.23301    72.389585    250.78895   -1944.4741 
11425000    294.95074   -3773.9361   -3268.4006   -3773.9361            0    13828.611    16.737436    19.714489    20.419633    6737.8663    11911.586    13910.966     15663.28    1047.5243    59.408567   -228.91982    -1909.534 
11426000    281.91109   -3776.5947   -3293.4087   -3776.5947            0    14381.806    16.729715    19.705395    20.410214    6728.5464    13602.858    15915.865    13626.694    1155.0357    771.96804    -808.0702   -1882.1373 
11427000    293.90802   -3748.6748   -3244.9266   -3748.6748            0    13002.231    16.800576    19.788859    20.496664    6814.4077    14345.841    12609.115    12051.736     525.9746    134.50117   -510.48336     -1952.75 
11428000     290.7308   -3770.9403   -3272.6377   -3770.9403            0    12863.383    16.735285    19.711955    20.417008    6735.2682    11962.863    13310.897    13316.389    178.28806    1665.7491    625.15975   -2009.1064 
11429000    270.23297   -3739.0691   -3275.8991   -3739.0691            0    11566.686    16.764093    19.745887    20.452154    6770.1108    11055.254    11388.152    12256.653    1221.2597   -1070.6451    1219.4418   -2133.8609 
11430000    280.98677   -3733.6471   -3252.0454   -3733.6471            0    12756.676    16.757505    19.738127    20.444117    6762.1321     13435.69    12479.842    12354.496   -4.7029236   -1821.3611   -1212.2613   -1993.9978 
11431000    293.48593   -3754.5741   -3251.5493   -3754.5741            0    10948.917     16.80997    19.799924    20.508124    6825.8448    11126.585    11348.115    10372.051   -927.69047    985.77837    4.5262723   -2161.6071 
11432000     291.3302    -3746.188    -3246.858    -3746.188            0    13954.405    16.748869    19.727955     20.43358    6751.6825    12319.406    11313.704    18230.104   -2522.5165   -74.676576    657.85765   -1872.8185 
11433000    288.15833   -3782.7441   -3288.8506   -3782.7441            0    14906.458    16.680134    19.646995    20.349725    6668.9004    15446.963    16124.279    13148.133    3568.7631    204.40654    1.6114253   -1839.0623 
11434000    287.87581    -3784.586   -3291.1767    -3784.586            0    12253.472    16.789831    19.776203    20.483555    6801.3412    13783.418    11364.212    11612.786    -1494.096    828.06639    655.35768   -2075.7477 
11435000    296.17924   -3768.1075   -3260.4664   -3768.1075            0    12348.229    16.789788    19.776152    20.483502    6801.2888    12587.271    11784.983    12672.433    1635.3753    160.83429    2943.3546   -2035.6478 
11436000     274.0041   -3715.6737   -3246.0401   -3715.6737            0    12346.282    16.768845    19.751485    20.457952      6775.87    12731.383    13026.563      11280.9    1101.1569    8.2359215    814.90659   -2025.9914 
11437000    281.97646   -3771.7351   -3288.4371   -3771.7351            0    10587.187    16.781484    19.766372    20.473371    6791.2026     12132.25    9781.7825    9847.5276    961.80701    1194.9622    724.61353   -2239.8533 
11438000    300.26412   -3759.3516   -3244.7092   -3759.3516            0    14712.283    16.706912    19.678536    20.382394    6701.0704    14861.968    14211.301    15063.579    504.32499   -833.34059    421.20371   -1806.9037 
11439000    277.12608    -3775.252   -3300.2674    -3775.252            0    10505.861    16.764272    19.746098    20.452373     6770.328    11492.925    10143.206    9881.4526    826.43384   -1547.1311    134.70207   -2262.9367 
11440000    312.66743   -3766.6728   -3230.7715   -3766.6728            0    11829.024    16.774618    19.758284    20.464995    6782.8704    12472.656    9757.1831    13257.234   -898.05453   -1313.1477    74.126912   -2060.6301 
11441000    292.81309   -3768.9262   -3267.0546   -3768.9262            0    11227.659    16.807324    19.796808    20.504896    6822.6222    13472.316    8428.9357    11781.726   -783.41049   -584.42784   -20.305319   -2149.8919 
11442000    276.89253    -3745.377   -3270.7926    -3745.377            0    12506.373     16.81049    19.800537    20.508759    6826.4787    11588.527    11807.608    14122.983   -112.48648   -390.31543   -1859.2113   -2025.6933 
11443000    297.10629   -3757.3559   -3248.1259   -3757.3559            0    13565.296      16.7706    19.753552    20.460093    6777.9973    13024.429    13579.939    14091.521   -98.961303   -345.48748    210.81852   -1907.1944 
11444000    291.87137   -3762.5107   -3262.2532   -3762.5107            0    13893.559    16.813768    19.804398    20.512757    6830.4722    14943.455    11318.726    15418.497    62.657896   -128.27334    1385.9901   -1878.2403 
11445000    281.83048   -3772.0908    -3289.043   -3772.0908            0    11812.568    16.809436    19.799295    20.507472     6825.194    11741.153    10014.546    13682.005    -466.5345   -704.61949   -2498.8775   -2113.2383 
11446000    292.84989   -3794.2991   -3292.3644   -3794.2991            0    11049.005    16.868329    19.868663    20.579322    6897.1831    11462.457    10920.608    10763.949   -316.44806    1417.4757   -185.86423   -2180.9633 
11447000    279.76239   -3734.5946   -3255.0914   -3734.5946            0    12147.206     16.86083    19.859831    20.570174    6887.9895    13110.993    11749.494    11581.132   -229.20948     425.0223   -136.52387   -2034.8528 
11448000    289.87091   -3760.9826   -3264.1538   -3760.9826            0    11832.718    16.771901    19.755084     20.46168    6779.5746    11792.609    11527.377    12178.168    -220.9568    1985.3581    1057.8827   -2094.2158 
11449000    294.06189   -3759.8899   -3255.8779   -3759.8899            0    14363.051    16.782009     19.76699    20.474012    6791.8398    12625.304    14190.145    16273.705   -1775.6349    1217.2155     719.3451   -1833.1887 
11450000    288.55867   -3785.9508   -3291.3712   -3785.9508            0    12482.849    16.755597     19.73588    20.441789    6759.8227    11308.173    10540.572    15599.803    1442.6093    1209.1909   -402.44208   -2060.7484 
11451000    299.51486   -3811.0322    -3297.674   -3811.0322            0    11167.805    16.844776    19.840921    20.550587    6868.3321    11046.028    9944.2732    12513.113    -2290.461    2106.6487   -962.55631    -2179.022 
11452000    286.74617   -3753.0812    -3261.608   -3753.0812            0    13334.395    16.738235     19.71543    20.420607    6738.8307    14603.287    11382.879     14017.02    1302.5997     296.7453    177.67783   -1951.1179 
11453000    284.05494   -3809.8829   -3323.0225   -3809.8829            0    12624.444    16.717863    19.691435    20.395754     6714.256     12205.67    12456.566    13211.096     1319.268   -17.520256   -1459.0847   -2086.8301 
11454000    289.40339    -3819.453   -3323.4255    -3819.453            0    13709.993    16.729753    19.705439     20.41026    6728.5919    15092.335    13516.202     12521.44    102.11562   -288.46427    794.02052   -1978.0692 
11455000    293.84862   -3835.9411   -3332.2946   -3835.9411            0    11479.983    16.728858    19.704385    20.409168    6727.5119    10849.881    13089.416    10500.653   -1976.9034   -97.334297    1141.5337   -2205.9492 
11456000    282.61091   -3769.5077   -3285.1223   -3769.5077            0    12152.267    16.789593    19.775922    20.483264    6801.0514    13789.888    12406.918    10259.996   -2206.5561   -2022.9788   -369.13955   -2079.7831 
11457000    282.16492   -3776.3363   -3292.7153   -3776.3363            0    13150.063    16.743152    19.721221    20.426606    6744.7714    11951.622    15603.545    11895.023    895.73544    826.12219    125.90223   -1999.2018 
11458000    303.02155   -3784.6405    -3265.272   -3784.6405            0    14876.242    16.721709    19.695965    20.400446    6718.8911    15465.528      13786.8    15376.397   -1113.4995    1438.6118    48.250234   -1807.5768 
11459000    283.32137   -3760.9452    -3275.342   -3760.9452            0    11941.575    16.724455    19.699199    20.403796    6722.2013    11451.417    12571.036    11802.272    95.606545    119.54181   -1499.8805   -2104.6329 
11460000    293.40433   -3758.6911   -3255.8061   -3758.6911            0    12995.189     16.76115     19.74242    20.448563    6766.5454    13184.341    13668.706     12132.52   -600.91515   -549.53249   -655.51043   -1973.4002 
11461000     286.4077   -3767.9342   -3277.0411   -3767.9342            0     13906.34    16.730733    19.706593    20.411455    6729.7739    13477.752    14048.998    14192.271   -589.76897   -1267.3717     351.7072   -1912.1777 
11462000    277.24505   -3741.3021   -3266.1136   -3741.3021            0    12873.947    16.818275    19.809706    20.518256    6835.9665    12347.869     11390.61    14883.361    704.22252    2064.0179    1111.8155   -1982.6383 
11463000    296.10611   -3757.2329   -3249.7172   -3757.2329            0    9398.1086    16.851359    19.848675    20.558619    6876.3882    12027.923    8122.0808    8044.3218    111.05621   -361.50835    161.34405   -2307.2272 
11464000    285.07129   -3743.4289   -3254.8264   -3743.4289            0    13536.575    16.749958    19.729238     20.43491         6753    12361.513    15671.444    12576.769    502.98614     1877.147     150.2637    -1921.669 
11465000    273.33582   -3795.6484   -3327.1602   -3795.6484            0    15050.481    16.712646    19.685289    20.389389    6707.9718    15552.489    17264.134    12334.821    391.17222   -2017.7946   -556.32969   -1854.7883 
11466000    280.17461   -3768.5817   -3288.3721   -3768.5817            0    12192.457    16.801112     19.78949    20.497317    6815.0592     12241.24    12052.658    12283.472    -2481.822   -1758.0577    484.98021   -2076.5559 
11467000    282.98446   -3762.9876   -3277.9619   -3762.9876            0    12517.043    16.818934    19.810483     20.51906    6836.7703    9969.0516     13090.11    14491.967    790.75195    1564.6013   -410.48972   -2029.9216 
11468000    279.36114   -3724.6801   -3245.8646   -3724.6801            0    12801.686    16.865322    19.865122    20.575654     6893.496     14612.56    12691.619    11100.879    580.53678    832.71454    171.62952   -1958.8527 
11469000    295.16003   -3765.4438   -3259.5496   -3765.4438            0    11282.455    16.839169    19.834317    20.543747    6861.4764    12158.131    12057.115    9632.1178   -1199.8795    1763.0954   -1584.3693   -2130.5415 
11470000     276.3393   -3789.2344   -3315.5983   -3789.2344            0    13581.535    16.826626    19.819543    20.528444    6846.1545    12940.505    15636.792    12167.307   -1687.6838   -244.61658    390.43384   -1959.5617 
11471000    293.41803   -3778.3739   -3275.4654   -3778.3739            0    14259.165    16.769512    19.752271    20.458766    6776.6787    16405.351    13319.625    13052.519    762.01109     2236.746    1277.9742   -1866.2192 
11472000    290.56554   -3805.5494     -3307.53   -3805.5494            0    10487.621    16.804539    19.793527    20.501498    6819.2311    10914.637    10616.093    9932.1333    1259.4354   -1546.6177    1136.7468   -2264.5205 
11473000     293.6243    -3816.113    -3312.851    -3816.113            0    13249.329    16.748468    19.727483    20.433092    6751.1984     12996.58    13192.544    13558.863   -994.91476   -236.29726    175.68278   -2008.3313 
11474000    291.99582   -3760.8606   -3260.3898   -3760.8606            0    14326.321    16.806159    19.795435    20.503475    6821.2032    12540.023    13871.941    16566.998    965.91971   -1383.9886   -2361.8448   -1835.2037 
11475000    294.59882   -3793.0851   -3288.1528   -3793.0851            0    13567.826    16.793153    19.780116    20.487608    6805.3793    12869.745    12971.818    14861.913   -1228.8101    1562.0959    749.51025   -1941.5532 
11476000     303.4454   -3779.2618   -3259.1668   -3779.2618            0    11569.713    16.854327    19.852171     20.56224    6880.0222    12166.161    11927.318    10615.661     1535.137   -409.68208   -1168.0111   -2098.2841 
11477000    295.34332   -3678.7509   -3172.5426   -3678.7509            0    15184.299    16.828704    19.821991     20.53098    6848.6916    13775.659    15737.148    16040.091     234.4284   -941.35639    438.51899   -1655.9175 
11478000    306.19624   -3723.0956   -3198.2857   -3723.0956            0    16350.602    16.677921    19.644387    20.347024    6666.2453    16941.186    18281.279    13829.339   -137.59634   -1127.3365   -861.91408   -1608.6745 
11479000    295.56522   -3794.1446   -3287.5559   -3794.1446            0    13284.617    16.767185    19.749529    20.455926    6773.8573    13783.283    12128.271    13942.298    402.41747    328.92721    1371.0224   -1975.1717 
11480000    306.57729   -3768.8941   -3243.4312   -3768.8941            0    11114.197    16.761294     19.74259    20.448739    6766.7202    11786.466    11220.434    10335.691    515.56597   -38.201768   -593.86713   -2146.6192 
11481000    285.50998   -3733.7085   -3244.3542   -3733.7085            0    13350.981    16.725194    19.700069    20.404697    6723.0923    13949.381    14063.519    12040.045    1602.1045    230.11389   -1431.6566   -1935.2984 
11482000    287.43867   -3757.3452   -3264.6852   -3757.3452            0    10922.189    16.823417    19.815763    20.524529    6842.2384    12294.467     9898.887    10573.211    1705.4654   -1696.7113    203.90928   -2174.7924 
11483000    278.17576   -3732.1787    -3255.395   -3732.1787            0    14248.235    16.716226    19.689506    20.393757    6712.2836    12644.191    14763.176    15337.337   -705.18384    208.97831    1890.1296   -1860.6101 
11484000    296.06042   -3765.8943   -3258.4569   -3765.8943            0    11890.538    16.826163    19.818997    20.527879    6845.5894    10797.925    11890.734    12982.956    711.16581   -547.32409   -669.71371   -2071.3543 
11485000    287.44243   -3790.5333   -3297.8668   -3790.5333            0    12513.823    16.784576    19.770013    20.477143    6794.9565    13111.145    12869.732    11560.593    -139.5795   -355.10655    2384.0702   -2057.7785 
11486000    293.57189   -3745.5671   -3242.3949   -3745.5671            0    13026.834    16.727895    19.703251    20.407993    6726.3505    13751.046    13075.069    12254.388    444.66649    1264.5407   -1303.4839   -1964.5025 
11487000    293.33765   -3796.3402   -3293.5695   -3796.3402            0    9396.9003    16.842072    19.837736    20.547288    6865.0253    5971.7501    11492.392    10726.559   -196.41428    340.81012   -594.99318   -2352.7579 
11488000    286.40114   -3755.2934   -3264.4116   -3755.2934            0    11954.553    16.750954    19.730412    20.436125    6754.2054    10703.223    14223.367    10937.069    1203.4738    833.80625    821.16059   -2086.8504 
11489000    286.04209    -3735.219   -3244.9527    -3735.219            0    13081.253    16.719126    19.692922    20.397294    6715.7772    13269.863    14228.619    11745.278    990.75931   -789.57247   -948.56022   -1963.7391 
11490000    296.44306   -3769.6302   -3261.5369   -3769.6302            0     14579.23    16.854922    19.852871    20.562965    6880.7503     15049.91    14453.391     14234.39    327.51204    1288.6204    1217.9852   -1798.5303 
11491000    288.83482   -3800.4405   -3305.3875   -3800.4405            0    12521.847    16.750238    19.729568    20.435251    6753.3385    13578.914    8040.1618    15946.466   -884.42659   -663.18656    952.49283   -2072.1042 
11492000    301.57879   -3749.8171   -3232.9213   -3749.8171            0    10858.103    16.750804    19.730235    20.435942    6754.0236      11142.9    12277.936    9153.4735    -1213.152    121.68346   -31.939731   -2163.3927 
11493000    289.74861    -3701.173   -3204.5538    -3701.173            0     13878.31    16.816319    19.807402     20.51587    6833.5815    11914.575    15959.813    13760.541   -1790.6973    605.27606    515.06454   -1821.4307 
11494000    300.64009   -3737.0524   -3221.7656   -3737.0524            0    15639.969    16.754179    19.734209    20.440059    6758.1062    15510.923     16376.23    15032.755    631.65249    416.26264   -376.76037   -1680.2895 
11495000    291.63991   -3727.0353   -3227.1745   -3727.0353            0    11699.249    16.820045    19.811791    20.520415    6838.1251    11599.557    13067.228    10430.963   -1124.5233   -857.22308    378.62622    -2060.443 
11496000    280.94319   -3751.4629   -3269.9358   -3751.4629            0    11334.596    16.822615    19.814818    20.523551    6841.2598    13265.039    11074.312    9664.4372   -917.84313       1166.6     1472.833   -2139.0519 
11497000    276.45607   -3747.8844   -3274.0481   -3747.8844            0    12864.717    16.781841    19.766792    20.473807    6791.6361    15098.576    11899.128    11596.447   -2730.9296    1564.4563    -603.2842   -1999.8102 
11498000    292.65491   -3761.9749   -3260.3744   -3761.9749            0    13274.712    16.755907    19.736246    20.442168    6760.1985    15566.864    11547.623     12709.65     458.1279    264.35715    182.36239   -1951.6131 
11499000    271.21344   -3781.9725   -3317.1219   -3781.9725            0    12794.632    16.814278    19.804998     20.51338    6831.0939    12040.405    14534.562     11808.93    293.38633   -463.55773   -2132.8612   -2042.4631 
11500000    294.96959   -3729.4141   -3223.8463   -3729.4141            0    14817.191    16.795224    19.782556    20.490134    6807.8976    16938.491    12637.207    14875.873   -90.427861    555.64562     193.2614   -1752.7037 
Loop time of 415.299 on 64 procs for 250000 steps with 864 atoms

Performance: 104.022 ns/day, 0.231 hours/ns, 601.976 timesteps/s
191.7% CPU use with 32 MPI tasks x 2 OpenMP threads

MPI task timing breakdown:
Section |  min time  |  avg time  |  max time  |%varavg| %total
---------------------------------------------------------------
Pair    | 28.596     | 34.613     | 40.103     |  51.4 |  8.33
Bond    | 0.92669    | 1.125      | 1.4566     |  12.4 |  0.27
Kspace  | 184.06     | 190.14     | 200.75     |  32.3 | 45.79
Neigh   | 4.5594     | 5.5506     | 6.491      |  25.4 |  1.34
Comm    | 79.933     | 90.091     | 100.89     |  49.8 | 21.69
Output  | 0.56383    | 0.5642     | 0.56611    |   0.0 |  0.14
Modify  | 76.521     | 81.168     | 85.383     |  23.6 | 19.54
Other   |            | 12.04      |            |       |  2.90

Nlocal:        27.0000 ave          35 max          22 min
Histogram: 3 2 6 7 7 2 3 1 0 1
Nghost:        2697.22 ave        2751 max        2655 min
Histogram: 2 3 3 6 7 4 2 2 2 1
Neighs:        9051.88 ave       11764 max        6828 min
Histogram: 1 1 6 8 6 3 2 2 1 2

Total # of neighbors = 289660
Ave neighs/atom = 335.25463
Ave special neighs/atom = 2.0000000
Neighbor list builds = 16637
Dangerous builds = 1

unfix		3
unfix		2
unfix		1

write_data	data.final.${pid}
write_data	data.final.1
System init for write_data ...
PPPM initialization ...
  extracting TIP4P info from pair style
  using 12-bit tables for long-range coulomb (../kspace.cpp:340)
  G vector (1/distance) = 0.37513774
  grid = 24 24 24
  stencil order = 5
  estimated absolute RMS force accuracy = 0.0030624659
  estimated relative force accuracy = 9.2225251e-06
  using double precision FFTW3
  3d grid and FFT values/proc = 3549 432
Last active /omp style is kspace_style pppm/tip4p/omp
WARNING: Not all mixed pair coeffs generated from mixing. Use write_data with 'pair ij' option to store all pair coeffs. (../write_data.cpp:312)

write_restart   restart.lmp.${pid}
write_restart   restart.lmp.1
System init for write_restart ...
PPPM initialization ...
  extracting TIP4P info from pair style
  using 12-bit tables for long-range coulomb (../kspace.cpp:340)
  G vector (1/distance) = 0.37513774
  grid = 24 24 24
  stencil order = 5
  estimated absolute RMS force accuracy = 0.0030624659
  estimated relative force accuracy = 9.2225251e-06
  using double precision FFTW3
  3d grid and FFT values/proc = 3549 432
Last active /omp style is kspace_style pppm/tip4p/omp
Total wall time: 0:06:55
