LAMMPS (30 Jul 2021)
Processor partition = 0
  using 2 OpenMP thread(s) per MPI task
using multi-threaded neighbor list subroutines
variable        pid world 0 1
variable        phase world IceVI Liquid

shell cd ${phase}
shell cd IceVI
include Restart.lmp
echo both
log log.lammps
#include		in.partitions
include		in.temp
variable        temperature equal 289.88
variable	tempDamp equal 100.0
include		in.pressure
variable        pressure equal 12750.0
variable        pressureDamp equal 1000.0 # This is 1 ps
include		in.seed
variable        seed equal 745823

units		real
atom_style	full
read_restart	restart.lmp.${pid}
read_restart	restart.lmp.0
Reading restart file ...
  restart file = 30 Jul 2021, LAMMPS = 30 Jul 2021
  restoring atom style full from restart
  orthogonal box = (-0.079368723 -0.14813735 0.014375800) to (24.809370 24.878138 22.795624)
  4 by 4 by 2 MPI processor grid
  restoring pair style lj/cut/tip4p/long/omp from restart
  restoring bond style harmonic/omp from restart
  restoring angle style harmonic/omp from restart
  1920 atoms
  1280 bonds
  640 angles
Finding 1-2 1-3 1-4 neighbors ...
  special bond factors lj:    0        0        0       
  special bond factors coul:  0        0        0       
     2 = max # of 1-2 neighbors
     1 = max # of 1-3 neighbors
     1 = max # of 1-4 neighbors
     2 = max # of special neighbors
  special bonds CPU = 0.002 seconds
  read_restart CPU = 0.009 seconds
include 	in.setup
variable	out_freq equal 1000
variable	out_freq2 equal 10000
variable	out_freq3 equal 1000

timestep	2.0

neigh_modify    delay 7 every 1

include		in.tip4p
# This is TIP4P/Ice

# create groups ###
group ox type 2
640 atoms in group ox
group hy type 1
1280 atoms in group hy

# set charges - beside manually ###
set group ox charge -1.1794
Setting atom values ...
  640 settings made for charge
set group hy charge 0.5897
Setting atom values ...
  1280 settings made for charge

# ### TIP3P Potential Parameters ###
pair_style lj/cut/tip4p/long/omp 2 1 1 1 0.1577 8.5
pair_coeff 1 1*2 0.000 0.000
pair_coeff 2 2 0.21084 3.1668
bond_style  harmonic
bond_coeff  1 450 0.9572
angle_style harmonic
angle_coeff 1 55 104.52
kspace_style pppm/tip4p/omp 1.0e-5
pair_modify tail yes

thermo          ${out_freq}
thermo          1000
thermo_style    custom step temp pe etotal epair emol press lx ly lz vol pxx pyy pzz pxy pxz pyz enthalpy

restart 	${out_freq3} restart.lmp.${pid} restart2.lmp.${pid}
restart 	1000 restart.lmp.${pid} restart2.lmp.${pid}
restart 	1000 restart.lmp.0 restart2.lmp.${pid}
restart 	1000 restart.lmp.0 restart2.lmp.0


include         in.dump
dump            myDump all atom ${out_freq2} dump.water.${pid}
dump            myDump all atom 10000 dump.water.${pid}
dump            myDump all atom 10000 dump.water.0
dump            myDump2 all dcd ${out_freq2} dump.dcd
dump            myDump2 all dcd 10000 dump.dcd
dump_modify     myDump append yes
dump_modify     myDump2 append yes


variable natoms 	equal  "count(all)"                        # NUMBER ATOMS
variable H      	equal  "enthalpy/v_natoms"                 # ENTHALPY-per-atom
variable Vol      	equal  "vol/v_natoms"                 # volume-per-atom
fix AVG all 		ave/time ${out_freq} 1 ${out_freq} v_Vol v_H file vol_enthalpy.dat
fix AVG all 		ave/time 1000 1 ${out_freq} v_Vol v_H file vol_enthalpy.dat
fix AVG all 		ave/time 1000 1 1000 v_Vol v_H file vol_enthalpy.dat




fix 		1 all shake 1e-6 200 0 b 1 a 1
Finding SHAKE clusters ...
       0 = # of size 2 clusters
       0 = # of size 3 clusters
       0 = # of size 4 clusters
     640 = # of frozen angles
  find clusters CPU = 0.001 seconds
fix             2 all nph aniso ${pressure} ${pressure} ${pressureDamp}
fix             2 all nph aniso 12750 ${pressure} ${pressureDamp}
fix             2 all nph aniso 12750 12750 ${pressureDamp}
fix             2 all nph aniso 12750 12750 1000
fix             3 all temp/csvr ${temperature} ${temperature} ${tempDamp} ${seed}
fix             3 all temp/csvr 289.88 ${temperature} ${tempDamp} ${seed}
fix             3 all temp/csvr 289.88 289.88 ${tempDamp} ${seed}
fix             3 all temp/csvr 289.88 289.88 100 ${seed}
fix             3 all temp/csvr 289.88 289.88 100 745823


run             250000
PPPM initialization ...
  extracting TIP4P info from pair style
  using 12-bit tables for long-range coulomb (../kspace.cpp:340)
  G vector (1/distance) = 0.37455549
  grid = 30 30 30
  stencil order = 5
  estimated absolute RMS force accuracy = 0.0032646742
  estimated relative force accuracy = 9.8314693e-06
  using double precision FFTW3
  3d grid and FFT values/proc = 5400 960
Last active /omp style is kspace_style pppm/tip4p/omp
Neighbor list info ...
  update every 1 steps, delay 7 steps, check yes
  max neighbors/atom: 2000, page size: 100000
  master list distance cutoff = 10.8154
  ghost atom cutoff = 10.8154
  binsize = 5.4077, bins = 5 5 5
  1 neighbor lists, perpetual/occasional/extra = 1 0 0
  (1) pair lj/cut/tip4p/long/omp, perpetual
      attributes: half, newton on, omp
      pair build: half/bin/newton/omp
      stencil: half/bin/3d
      bin: standard
Setting up Verlet run ...
  Unit style    : real
  Current step  : 11250000
  Time step     : 2
Per MPI rank memory allocation (min/avg/max) = 10.54 | 10.55 | 10.56 Mbytes
Step Temp PotEng TotEng E_pair E_mol Press Lx Ly Lz Volume Pxx Pyy Pzz Pxy Pxz Pyz Enthalpy 
11250000    303.78477   -9013.2047   -7855.0386   -9013.2047            0    12418.281    24.888738    25.026276    22.781248    14189.812    12044.412    11731.245    13479.188   -160.92043    -556.9681   -1048.9586   -5285.1517 
11251000    283.54182   -8965.7623   -7884.7716   -8965.7623            0    13810.371    24.676603    24.933428    22.980413    14139.212    15575.406    12694.938    13160.768   -106.13703     14.44917   -137.98749   -5036.9917 
11252000    286.59829    -8968.309   -7875.6656    -8968.309            0    13096.028    24.820717    24.861503    22.948126    14160.837    13884.152    13847.189    11556.742   -1145.5268   -978.37612    760.56155    -5171.057 
11253000    296.55684   -8996.7369   -7866.1269   -8996.7369            0    13908.427    24.891742    24.902745    22.802463    14134.625    13974.967    12952.751    14797.562    156.83352   -2023.1169    332.90568   -4999.0577 
11254000    281.13262   -9002.1758     -7930.37   -9002.1758            0    11492.913    24.919112    24.869375    22.971044    14235.678    11867.029    11353.689    11258.023   -131.75508    908.03443    937.65283   -5544.2946 
11255000    285.48995   -8971.9158   -7883.4979   -8971.9158            0     10553.05    24.950326    24.921914    22.995247    14298.672    10388.183    10977.396    10293.572    268.42193    25.610569    403.11398   -5682.8548 
11256000    297.90772   -8988.9084   -7853.1483   -8988.9084            0     11925.38    24.919008    24.914987    22.951137    14249.368    11292.025    11618.379    12865.734    512.95437   -1598.8231    310.87415   -5374.9063 
11257000    281.43639   -8987.0201   -7914.0563   -8987.0201            0     11732.45    24.891692    24.919092    22.945143    14232.376    12079.111    11732.001    11386.238   -467.60773    303.32728    55.338698   -5478.8149 
11258000    287.14564   -9021.0166   -7926.2865   -9021.0166            0    10998.677    24.980378    24.870518    22.960546    14264.811    9497.7881    13180.717    10317.526   -203.72673    190.52517   -677.16671   -5638.1476 
11259000    295.10195   -8962.5401   -7837.4769   -8962.5401            0    12356.458     24.85374    24.991793    22.882067    14212.956    12254.635    12192.217    12622.522    980.04964    257.98292   -1323.5133   -5276.2131 
11260000    295.40227   -8972.7226   -7846.5144   -8972.7226            0    13082.861    24.769649    24.981899    22.890466    14164.457    14069.135    12220.483    12958.965   -677.43818   -1232.0359    630.94009   -5143.9344 
11261000    285.61835   -8976.6158   -7887.7084   -8976.6158            0    13577.652    24.867934    24.911928    22.875274    14171.419    12550.701    14728.296    13453.958    379.73217   -2178.0645    63.546861   -5081.5389 
11262000     297.1437   -8966.5661   -7833.7188   -8966.5661            0    12473.697    24.804769    24.850253    23.067601     14218.98     13110.61    13210.218    11100.263    -214.3858   -454.50837    792.17532   -5247.0577 
11263000    294.80896   -8986.9092    -7862.963   -8986.9092            0    11973.363    24.994243    24.946987    22.794239    14212.916    12430.292    12688.365    10801.431   -988.97872    245.02736   -499.86998   -5381.1148 
11264000    281.46534   -9010.5451   -7937.4708   -9010.5451            0    12872.346      24.7092    24.841177     23.09593    14176.412    14072.588    12695.439    11849.011    577.93913     144.1707    345.89606   -5276.1336 
11265000    294.08661   -8996.3485   -7875.1562   -8996.3485            0    13278.484    24.923888    25.028487    22.680112    14148.017     12220.91     13379.13    14235.412   -921.63209    532.31946    1418.1906   -5135.3494 
11266000    291.24735   -8979.3362   -7868.9685   -8979.3362            0    12072.154    24.767279    24.805064    23.096151    14189.211    12556.961    13373.857    10285.646   -384.38824   -186.30749     356.6914   -5370.8161 
11267000    297.37442   -8997.8573   -7864.1304   -8997.8573            0    13610.051    24.921589    24.863816    22.824501    14143.107    14293.189    13604.278    12932.686    -183.5398    -558.0209   -840.68882   -5056.8845 
11268000    286.45129     -9016.51   -7924.4271     -9016.51            0    11981.577    24.873665    24.815725    23.044162    14224.194    12067.237    12385.345    11492.151    -25.38822   -48.428355   -434.40872   -5438.9054 
11269000    284.06891   -8978.3147   -7895.3145   -8978.3147            0    13500.892    24.869161    24.849948    22.914241    14160.941     13435.73    13658.722    13408.224    670.01716    290.81717   -146.33593   -5107.0725 
11270000    285.29345   -9012.0171   -7924.3483   -9012.0171            0    12005.585    24.897654    24.933211    22.895766    14213.198    11709.617    11863.122    12444.017    254.51818    538.14593   -366.02062   -5435.7716 
11271000    288.87641   -9000.1494   -7898.8208   -9000.1494            0     12824.21    24.830781    24.911577    22.950297    14196.455    12906.538    13417.565    12148.528   -275.68515    459.95889   -1039.5462   -5243.6869 
11272000    291.14078   -8964.0577   -7854.0963   -8964.0577            0    12334.598     24.95863    24.980147    22.840709    14240.503     11577.17    12063.689    13362.934   -236.90823   -1421.2629   -610.75674   -5292.4084 
11273000    289.92836   -9043.1808   -7937.8416   -9043.1808            0    12290.225    24.805452    24.876882    22.993968     14189.17    11900.666    12328.496    12641.514   -161.07608    2126.0614   -530.16788     -5394.57 
11274000    293.05292   -8926.7922   -7809.5408   -8926.7922            0    11688.183     25.01774     25.08289    22.748896    14275.325    11449.555    11039.722    12575.271   -627.13995   -635.28526    185.29633   -5376.1668 
11275000    287.77149   -8981.5443   -7884.4281   -8981.5443            0    11663.681    24.821952    24.886052    23.081883     14258.15    13038.133    11529.842    10423.067    396.47893    261.18829   -328.65425   -5459.0766 
11276000    296.19654   -8968.6115   -7839.3752   -8968.6115            0     11699.16    24.945566     24.99704    22.803004    14219.162    11271.877    10559.215    13266.389    200.70294   -1648.3077    64.250267   -5413.2981 
11277000     291.4123   -9007.1816    -7896.185   -9007.1816            0    10645.653    24.964855    24.833026    23.091273    14315.501    11127.734    9904.7175    10904.508   -546.71217   -1007.5565    1783.9081   -5673.6186 
11278000     287.9715   -9004.6459   -7906.7672   -9004.6459            0     12638.54    24.948537    24.899315    22.866221     14204.53    12671.251    13064.137    12180.231   -487.67857   -1157.5642   -113.15405   -5288.5861 
11279000    281.58696   -9000.2998   -7926.7619   -9000.2998            0    10227.228    24.902855    24.958464    23.037598     14318.72    10083.904     10404.06    10193.721    504.79198   -264.26536   -863.23855   -5791.0728 
11280000    290.08955   -8967.8631   -7861.9094   -8967.8631            0    11666.132     24.87229    25.082394    22.877187    14272.084    12192.875    10827.126    11978.394   -69.817343   -446.02012    397.89335   -5433.6775 
11281000    286.69455   -8923.9855   -7830.9751   -8923.9855            0    11758.188    24.897358    24.971821    22.986534    14291.472    13146.273    10411.038    11717.254    46.202019   -1114.9481     40.80093   -5380.2575 
11282000     294.3051   -8971.5768   -7849.5515   -8971.5768            0    11953.239    24.970352    24.834473    22.951259    14232.662    11489.423    11810.457    12559.837    207.48112    244.46128    439.99215   -5368.4324 
11283000    297.47864   -8996.9121   -7862.7878   -8996.9121            0    12872.284    25.020745    24.774435      22.8344     14154.47    11319.437    13983.265    13314.151   -461.83228   -1479.9435   -63.047459   -5205.5825 
11284000    280.91969   -9005.1193   -7934.1254   -9005.1193            0    12389.167    24.918385    24.813843    22.906544    14163.595    12112.957     12781.45    12273.094    571.20025    278.74726   -754.29353   -5375.0004 
11285000    277.19761    -9009.351   -7952.5473    -9009.351            0    12138.631     24.90242    24.864607    22.958306    14215.528    12680.714    11931.111    11804.067    531.29002   -455.84067    376.85581   -5435.9797 
11286000    290.62983    -9008.551   -7900.5375    -9008.551            0    11999.999    24.893279    24.938902    22.887766    14208.978    11879.377    11518.943    12601.678    -416.0351   -216.94993   -476.08736   -5413.8572 
11287000    295.06536   -9010.8303   -7885.9066   -9010.8303            0    12912.679     24.79879    24.817062     23.02234     14168.71    13686.394    13222.763    11828.881    -483.4112   -707.34635   -59.438656   -5217.6808 
11288000    298.04978   -8981.3252   -7845.0235   -8981.3252            0    14004.626    24.919536    24.939667     22.72437    14122.854    12964.787    13304.874    15744.218    212.98963   -560.45772    -59.31733    -4960.528 
11289000     287.7497   -9021.5596   -7924.5265   -9021.5596            0     12292.41    24.838538    24.812368     23.02132    14188.108     12428.94    11684.699     12763.59   -16.265767   -1908.6052    915.46929   -5380.9934 
11290000    288.41305    -8990.325   -7890.7629    -8990.325            0    14438.172    24.908785    24.836137     22.77501    14089.487    13742.697    14674.179    14897.639   -209.59681  -0.67182997    708.08247    -4923.997 
11291000    286.88059    -9038.016   -7944.2964    -9038.016            0    13282.762    24.859055    24.867033    22.878946    14143.099    13426.134    12905.896    13516.257    519.05778      2306.77   -1030.7597   -5204.5593 
11292000    291.48328    -9010.608   -7899.3408    -9010.608            0    11709.906    24.913229    24.866592    22.986026    14240.006    11068.692    12267.069    11793.956   -106.41443    88.536824   -16.242753   -5467.4758 
11293000    292.47133   -8981.9898   -7866.9557   -8981.9898            0     12519.45    24.964779     24.81629    22.936455    14209.895    11691.782    12338.543    13528.027    119.05898    709.61839    916.99966   -5272.4655 
11294000    283.71297   -8975.4202    -7893.777   -8975.4202            0    12628.079    25.005164    24.758007    22.952719    14209.524    11242.689    13522.624    13118.924   -796.20588   -89.196278    334.32169   -5276.8433 
11295000    283.01598   -9027.6858   -7948.6998   -9027.6858            0    13121.592    24.920029    24.772928    22.919395    14149.107    13045.349    13356.402    12963.025    836.76319    432.74747    1148.6509   -5241.0565 
11296000    310.96316   -9004.8397   -7819.3063   -9004.8397            0    13165.036    24.927763    24.897518    22.824897    14166.031    13743.051    11965.589    13786.468    334.34892   -2004.5803   -348.70148    -5099.449 
11297000    290.39251   -9009.6806   -7902.5719   -9009.6806            0    13458.646    24.769234    24.929402    22.862255    14117.035    14684.274    11813.602    13878.062   -262.09577   -798.71785    794.60065   -5131.6725 
11298000    292.94835   -9018.2322   -7901.3795   -9018.2322            0    11301.982    24.883768    25.050786    22.765282     14190.92     11084.25    10797.627    12024.069   -637.79855    1076.3628   -1060.0418   -5562.3211 
11299000    292.38632   -8974.5534   -7859.8434   -8974.5534            0    12599.419    24.824611    24.851009    23.019804      14201.3     13416.88    12420.205    11961.172   -934.48284   -1406.9068    -36.65285   -5250.3601 
11300000    294.62766   -8961.1858   -7837.9308   -8961.1858            0    13492.301    24.876223    24.779902    22.961557      14154.2    13482.785    13968.564    13025.554    494.54005    404.14641    1396.5852   -5052.7894 
11301000    298.02698   -9024.7799   -7888.5651   -9024.7799            0    11648.254    24.888679    24.908229     22.95494    14230.523    11329.037    11447.344     12168.38   -206.43465    770.32474    306.65103   -5471.1148 
11302000    287.91687   -9003.2137   -7905.5433   -9003.2137            0    11335.521    24.900419    24.825821    23.037419    14241.119    11262.245    12243.913    10500.406   -150.31639   -700.13672   -199.24859    -5551.245 
11303000    285.96458   -8979.2998   -7889.0724   -8979.2998            0    12858.348    24.960635    24.823029    22.873797    14172.572    12778.995    13282.503    12513.545    226.04597    1058.8987      497.568   -5231.3494 
11304000    294.92684   -9002.8839   -7878.4883   -9002.8839            0     11381.16    24.985874    24.791129    23.002427    14248.348    10545.517    12112.379    11485.583   -19.393132    277.76574    544.91541   -5513.5113 
11305000    296.25459   -8984.0617   -7854.6041   -8984.0617            0    12721.981    24.924208    24.912188    22.828634    14174.677    12375.147     12782.44    13008.357   -540.23072    849.86772   -142.05134   -5224.6763 
11306000    300.23274   -8987.4324   -7842.8083   -8987.4324            0    12576.999    24.679345    24.948427    23.018794    14172.921    13925.787    13167.802    10637.409   -310.67298    980.59096    1095.1108   -5243.1738 
11307000    293.04184   -8992.4995   -7875.2904   -8992.4995            0    12654.491    24.842985    24.881872     22.92447    14170.531    12544.557    12814.667    12604.249   -634.35015   -1131.1426   -1201.7692   -5260.0796 
11308000    290.22267   -9000.8052    -7894.344   -9000.8052            0    13045.989    24.901162    24.897715    22.839123    14159.846    12518.121    13189.525    13430.321    133.98131   -585.66617    -907.2152   -5200.2582 
11309000    287.13278   -8978.2572   -7883.5761   -8978.2572            0    13438.871    24.750945    24.777818     23.10354     14168.81    12907.344    15532.897    11876.373   -191.08004    563.01736   -251.76539   -5106.6005 
11310000    283.31196   -9013.9555   -7933.8411   -9013.9555            0    13405.663    24.895788     24.98565    22.735038    14142.045    14297.438    11687.511    14232.039    244.65359    1208.1049   -708.45564   -5168.9604 
11311000    292.27538   -9024.2493   -7909.9623   -9024.2493            0    11664.731    24.887419    24.769955    23.060408    14215.825    12216.029    12479.814     10298.35    121.72602   -71.885179    115.95451   -5491.5927 
11312000    286.85922   -8979.7856   -7886.1474   -8979.7856            0    13089.572    24.892445    24.914572    22.880304    14190.013    13333.263    12986.095    12949.358   -679.41189    10.740596   -829.91523   -5177.3027 
11313000    296.47051   -8945.6923   -7815.4115   -8945.6923            0    12998.327      24.8069    24.940695    22.939993    14193.004      13029.7    13099.932    12865.349   -69.355737    72.872348    339.03518   -5124.8824 
11314000    289.77991   -8970.9931   -7866.2199   -8970.9931            0    13110.722    24.834937    24.914631    22.960418    14206.834    13205.949    11611.836    14514.381    -1112.634    -47.68596   -104.77754   -5149.7818 
11315000    283.18521   -9021.8586   -7942.2274   -9021.8586            0    12075.141    24.836777    24.878014     22.96174    14187.823    12731.027    11551.268    11943.127    512.02141   -1014.7158   -1011.7657   -5443.7015 
11316000    299.74218   -8952.1969    -7809.443   -8952.1969            0     12875.06    24.918598    24.914607    22.924008    14232.075    10937.351    13450.882    14236.949   -26.789657     324.7349   -327.77184   -5137.0928 
11317000    279.86242    -9007.633   -7940.6698    -9007.633            0    12120.118    24.969938    24.876356    22.877312    14210.496    12200.772    11965.405    12194.177    -695.6762    602.52044    1172.3234   -5428.8298 
11318000    279.39631   -8974.4013   -7909.2152   -8974.4013            0    13428.347    24.932073    24.754403    22.938681    14157.263    13307.562    13657.016    13320.464      558.344   -254.91352    32.329097   -5136.6756 
11319000    285.83151    -9015.392    -7925.672    -9015.392            0    12660.776     24.97443    24.945123     22.76619    14183.114    11704.423    13530.746    12747.159    385.53316    261.40033   -80.788401    -5306.839 
11320000     283.1959   -8995.5844   -7915.9125   -8995.5844            0    12576.293    24.764495    24.807895    23.152352    14223.763    13164.737    13534.047    11030.094    3.6932067    110.97119   -636.51954   -5307.0989 
11321000    284.13882   -8968.4818    -7885.215   -8968.4818            0    12061.654    24.949818    25.023473    22.791229    14229.273    11326.753    11524.053    13334.156   -158.16463   -159.14397    835.18964   -5382.1885 
11322000     293.4765   -8949.3159   -7830.4496   -8949.3159            0    14135.651    24.852164    24.791655    23.005254    14174.141    15093.127    13529.715    13784.111    336.61078   -1404.8048    816.97855   -4908.3941 
11323000     284.1709   -9061.9491   -7978.5601   -9061.9491            0    12097.757    24.857764    24.876993    22.932484    14181.137    12080.278    12681.719    11531.273    99.228766   -1286.1061   -375.78723   -5476.5342 
11324000    291.04836   -8948.8742   -7839.2651   -8948.8742            0    15284.937    24.902592    24.842509    22.773649    14088.755     16390.81    14458.471    15005.532    165.63309   -605.33867   -323.09765   -4698.6684 
11325000    301.77355   -8974.3573   -7823.8589   -8974.3573            0    13748.538    24.774139    24.829521    23.005363    14151.288     14508.52      12721.3    14015.795   -614.66699    929.26131   -692.50656   -4986.4077 
11326000    293.11252    -8982.518   -7865.0393    -8982.518            0    14738.592    24.794033    24.865692    22.786885    14048.588    14220.906    14595.178    15399.693   -767.54847   -1192.4839    -92.40111   -4845.3339 
11327000    281.99827   -8991.3013   -7916.1953   -8991.3013            0    14070.279    24.778446    24.879888    22.903655    14119.759    14600.829    14221.711    13388.296   -457.11687   -956.46318    432.95924   -5018.8124 
11328000    291.51309   -8941.3375   -7829.9566   -8941.3375            0    13488.459    24.863524    24.874555    22.935635    14184.981    13122.348    14544.632    12798.396    662.09545   -470.50715   -267.01441   -5039.5532 
11329000    291.47375   -9023.3791   -7912.1482   -9023.3791            0    11501.468    24.770465    24.973344    23.019374    14239.816    12382.219     11017.76    11104.425   -753.92534    507.73035    981.81242   -5523.6026 
11330000    284.14147   -8986.2179    -7902.941   -8986.2179            0    11709.518    25.025036    24.883744    22.922405    14274.161    10026.394    12685.003    12417.157    -667.0681    -288.5908   -42.324553   -5465.3238 
11331000    298.28194   -8982.5353   -7845.3485   -8982.5353            0     12939.93    24.833252    24.782985    23.004432    14157.896    13075.157    14320.514    11424.119    336.96766    677.33851    674.70765   -5173.5326 
11332000    292.05267    -9008.345    -7894.907    -9008.345            0     12285.66    24.961402    24.866017    22.835603    14173.846    11836.771    12519.852    12500.356   -371.65952   -834.05522    -299.0365    -5355.326 
11333000     273.4109   -8976.7348   -7934.3677   -8976.7348            0    14053.674    24.707282    24.970018    22.878064    14114.422    14476.422    13325.903    14358.698    569.51219   -1408.7039    484.69158   -5041.4979 
11334000    294.25258   -8954.4487   -7832.6237   -8954.4487            0    13135.235    24.814135    24.886618    22.964217     14181.32    13504.217    13560.715    12340.774   -598.68802   -206.42177    254.41859   -5115.9942 
11335000    283.20762   -8988.9762   -7909.2596   -8988.9762            0    12162.003    24.925762    24.958847    22.823195    14198.727    12517.694    12772.803    11195.512   -7.0394867    176.15616   -422.23083   -5390.8266 
11336000    296.58859   -9020.2413   -7889.5103   -9020.2413            0    11628.697    24.898248    24.787717     23.04957     14225.52    12629.962    11745.275    10510.854   -804.34123    983.81962    467.95385   -5476.9671 
11337000      289.216   -8984.8083    -7882.185   -8984.8083            0    13555.348    24.947512    24.854981    22.790502    14131.705    12361.433    14542.236    13762.374    780.38502    889.53232   -1560.8324   -5088.4764 
11338000    299.08613   -8958.2913   -7818.0386   -8958.2913            0    14069.611    24.858544    24.725172    22.969428     14117.74    13289.338    14453.598    14465.896    72.006637    779.49747    895.97745   -4921.2076 
11339000    285.70144   -9019.2669   -7930.0427   -9019.2669            0    15440.292    24.793007    24.852655    22.793105    14044.475    15999.012    14557.003    15764.863    789.86042   -777.89807   -320.17162   -4767.4963 
11340000    298.31493   -9011.4843   -7874.1717   -9011.4843            0    13488.655    24.775466    24.863787    22.984651    14158.819    13911.063      12458.3    14096.604    166.54961    1703.5241   -1.2041408   -5088.8743 
11341000    283.63797   -8994.3902    -7913.033   -8994.3902            0    13579.416    24.833903     24.97538    22.771825     14123.91    14029.691    12964.337    13744.221   -672.70737   -547.12584    358.49919   -5115.9076 
11342000    298.60541   -9003.4111   -7864.9911   -9003.4111            0    14345.121    24.722341    24.879531    22.932514    14105.337    15221.777    12932.097    14881.488   -120.12609    -670.8609   -1810.7757   -4914.0296 
11343000    295.37301   -8990.6443   -7864.5477   -8990.6443            0    13018.226    24.886715    24.866933    22.879805    14159.311    12467.924     12967.51    13619.243   -186.62428    545.70844    284.21629   -5176.2967 
11344000    290.22812   -9004.5976   -7898.1156   -9004.5976            0    12819.325    24.810684    24.808419    23.032868    14177.049      12597.8    13383.925    12476.251   -775.89435    770.95995    493.24416   -5247.6211 
11345000    279.98706   -9027.6116   -7960.1732   -9027.6116            0    12640.114    25.019617     24.79304    22.813612    14151.566    11503.262    13566.642    12850.439   -13.686446    242.17852    416.62118   -5351.4297 
11346000     285.1892   -8975.4332   -7888.1619   -8975.4332            0     12834.92    24.855513    24.790455     23.02233    14185.887    12088.838    14178.116    12237.805    31.727525     22.48958    -53.44181   -5232.7888 
11347000    294.72991    -8997.548   -7873.9032    -8997.548            0    13258.821     24.91531    24.901197    22.891071    14202.102    13236.104    11528.696    15011.663   -1024.0385    83.127698    645.59759   -5127.6953 
11348000    292.61244   -9065.2301    -7949.658   -9065.2301            0    12467.811    24.938308    24.761332    22.912957    14148.882    10537.078    14150.352    12716.005   -739.47579   -1086.3304    941.86569   -5376.9634 
11349000    287.72681   -8963.6891   -7866.7433   -8963.6891            0    12884.072    24.861323    24.862501    22.975196    14201.305    13438.191     13344.63    11869.395    4.2673366    921.05019    109.26034   -5198.3042 
11350000    283.07457   -9016.6627   -7937.4534   -9016.6627            0    12559.077    24.893905    24.899586    22.862093    14171.021    12153.314    12450.982    13072.935    656.91799    306.28557    178.38848   -5341.8713 
11351000    292.75376   -9014.9868   -7898.8759   -9014.9868            0    12870.888    24.750745    24.952536    22.917163    14153.499    12938.894    12093.016    13580.755   -1662.6886   -905.15637    98.468663    -5242.141 
11352000    297.04971   -8978.3944   -7845.9055   -8978.3944            0    12625.348    24.807551    24.983887    22.933944    14214.208    12904.165     12581.77     12390.11   -65.912201   -68.299226    454.64099   -5228.6753 
11353000    284.61256   -8980.1993   -7895.1264   -8980.1993            0    10898.446       24.888    24.991043     22.98974    14299.091    11608.528    10231.464    10855.346   -970.31052   -542.33304    557.55595   -5622.3909 
11354000    289.00494    -9002.906   -7901.0874    -9002.906            0    11783.824    24.888676    24.896643    22.926899    14206.526    10887.992     12805.87    11657.609    899.26711    288.33893   -825.97687    -5459.625 
11355000    284.11096   -8961.7497   -7878.5891   -8961.7497            0    11648.834    24.977945    24.890822    22.919607    14249.614    11759.936    11236.486    11950.081    59.241199   -575.88286   -507.15782    -5457.775 
11356000     291.2261   -9033.2037    -7922.917   -9033.2037            0    12803.339    24.760755    24.840075    23.031922    14165.991     13802.98    13228.634    11378.403    -277.6259   -305.66227   -160.07967   -5277.7927 
11357000    294.03424   -9003.7827   -7882.7901   -9003.7827            0    12983.139    24.917878    25.007076    22.717693    14155.923    12880.693    12002.588    14066.136   -379.73231    872.24734    498.08065    -5202.426 
11358000    294.47383   -9003.1834   -7880.5148   -9003.1834            0    13909.626    24.787789    24.778388    23.004561    14129.435    14172.354    14766.137    12790.387    370.18253    1024.1645    78.830862   -5014.2512 
11359000    291.57253   -9022.5024    -7910.895   -9022.5024            0     11454.92    25.005321    24.939831    22.831642    14238.463    10618.828    11687.921     12058.01    -1380.274   -507.51874   -42.080922   -5532.2423 
11360000    287.13828    -9013.166    -7918.464    -9013.166            0    11962.759    24.921579    24.867065    22.916966    14202.252     11562.39    12514.304    11811.584    208.25581   -333.18052    417.76365   -5440.6742 
11361000    290.34962   -8977.0537   -7870.1086   -8977.0537            0    11923.164    25.004118    24.738022    23.023591    14241.298    10484.712    13187.555    12097.225   -467.98783   -318.02652    897.85753   -5393.7303 
11362000    287.59489   -8971.0387   -7874.5958   -8971.0387            0     11812.96    24.883083    24.917172    22.990185    14254.284    11530.731    12347.644    11560.504    337.64422    257.84939    253.74906   -5418.8691 
11363000    291.18882   -9003.4897   -7893.3451   -9003.4897            0    11800.336    24.911377    24.943487    22.897038    14227.684    12942.234    9731.9768    12726.796   -65.355129   -443.75967    1056.7316   -5444.8206 
11364000    307.67145   -8981.2958   -7808.3119   -8981.2958            0    14405.605    24.592405    24.934481    23.017655      14114.4    16274.621    13752.683     13189.51    175.75587   -1165.6653    41.163744   -4843.0041 
11365000    298.51469   -8963.7044   -7825.6303   -8963.7044            0    14210.549      24.8563    24.973708    22.815604    14162.877    13775.589    14518.688     14337.37    496.85062   -267.70515   -724.12306   -4890.4267 
11366000    289.46572   -8998.7203    -7895.145   -8998.7203            0     14561.54    24.663288    24.881755     22.95078    14084.111    15675.349    13765.645    14243.626   -373.48649    170.79974   -337.81013    -4904.171 
11367000    287.69957   -9041.7722   -7944.9302   -9041.7722            0    13044.024    24.912528    24.922074    22.788677    14148.848    12213.521      12903.2    14015.351   -72.857581   -717.95282    -241.7957   -5253.3423 
11368000    281.22345   -9026.3302   -7954.1782   -9026.3302            0    13260.362    24.826229    24.753204    23.051113     14165.57     12562.33    14846.301    12372.454    551.15371    586.33391    342.48571   -5214.7159 
11369000     288.5309   -8976.1618   -7876.1504   -8976.1618            0    13097.339    25.021839    24.819888    22.772993    14142.922     12285.95    12808.806    14197.263   -866.24171    5.3888122    452.95866    -5174.693 
11370000    285.86855   -9000.9396   -7911.0783   -9000.9396            0     12089.22    24.982769    24.915879    22.853544    14225.592     12459.78    10992.673    12815.207    853.65989   -152.97483   -233.29689   -5402.9803 
11371000    289.41603   -9017.2236   -7913.8377   -9017.2236            0    11407.684    24.718731    24.946211    23.082885      14233.8    13141.924    11068.537    10012.592    243.50332   -683.70258    145.42078   -5545.7693 
11372000    290.54156   -8975.8805   -7868.2036   -8975.8805            0    11566.041    24.883342    24.974958     22.92193    14245.072    11304.135    11749.423    11644.564   -301.54276   -237.12155   -788.63441   -5465.3614 
11373000    291.10706   -9059.0652   -7949.2324   -9059.0652            0    9716.3105    24.984439    24.914121    22.932409    14274.629     9810.062    9922.1713    9416.6983   -23.841639   -75.186378     681.3569   -5926.4828 
11374000    295.43191   -8972.1672    -7845.846   -8972.1672            0    13149.096    24.893699    24.863324    22.923328    14188.167    12477.337    13681.823    13288.128   -401.86938   -865.29871    475.97145   -5125.0369 
11375000    298.16511   -8953.5941   -7816.8528   -8953.5941            0    13282.213    24.978011    24.752138    22.881457     14146.67    12373.178    15729.936    11743.525   -472.32562   -525.00728    1046.9689   -5076.5373 
11376000    297.64327   -9016.7834   -7882.0315   -9016.7834            0    14058.063    24.865119    24.723436    22.978565      14126.1    13675.834    14185.429    14312.926    451.64199   -1339.9443   -1003.9373   -4985.8642 
11377000    292.80181   -8978.0043   -7861.7103   -8978.0043            0    13105.627    24.904058    24.898661    22.858102      14173.8    13903.284    12456.867     12956.73   -331.72921   -435.96984   -1000.0398   -5152.6418 
11378000    288.43723   -8999.2944   -7899.6401   -8999.2944            0    12457.318    24.699629    24.909307    23.073274    14195.847    12945.334    12702.364    11724.256   -687.99711   -1167.8682    1100.0489   -5320.5784 
11379000    286.77751   -8969.8629   -7876.5363   -8969.8629            0    12552.664    24.872786    25.012441     22.84647    14213.454    12755.996    11533.961    13368.034   -692.34666    97.789196    252.81528   -5274.5116 
11380000    279.18616   -8993.2236   -7928.8386   -8993.2236            0    13204.516    24.873198     24.77594    22.974289    14158.063     12000.25    14582.081    13031.217   -677.22628   -898.40685    1554.9619   -5202.3593 
11381000    286.34991    -9016.831   -7925.1345    -9016.831            0     13077.72    24.912199    24.838079     22.82808    14125.358    12636.144    13287.469    13309.547   -26.450415    49.623683    1294.0741   -5231.0738 
11382000    297.61176   -9014.7763   -7880.1446   -9014.7763            0    11806.193    25.067531    24.708924     22.94056    14209.193    10355.708    12705.291     12357.58     1222.409    95.914974   -680.55275   -5433.5885 
11383000    279.36668    -8978.581   -7913.5078    -8978.581            0     11922.35    24.916503     24.93311    22.936496    14249.204    11119.921      11838.5     12808.63   -15.874806   -147.20845    145.67216   -5435.9239 
11384000    282.70409   -9032.4808   -7954.6839   -9032.4808            0    10882.579    24.861149    24.898281    23.012662    14244.835    10161.747    11255.235    11230.755   -334.65886   -628.57157   -174.16634   -5693.8683 
11385000      279.506   -9021.4662   -7955.8619   -9021.4662            0     12311.59    24.979677    24.941557    22.713273    14151.097     12753.92    11072.922    13107.929    18.563605    715.17064    96.747787   -5415.0053 
11386000    286.72436   -8972.4987   -7879.3747   -8972.4987            0     12393.84    24.862923    24.860585    22.987593    14208.788    13290.527    12425.112    11465.883   -568.58698     429.6081    1355.9881   -5311.1157 
11387000    290.81304   -9017.4886   -7908.7767   -9017.4886            0    14395.107    24.872161    24.884288    22.758251    14085.673    12680.334    14605.695    15899.292   -513.36619   -20.260944    256.42447   -4951.6605 
11388000    295.98612   -9006.4948   -7878.0607   -9006.4948            0    13984.465    24.726122    24.877492    22.931014    14105.415    14342.064    13425.066    14186.266   -244.91535    460.19536    -842.3479   -5001.2743 
11389000    274.25084   -8964.7362   -7919.1669   -8964.7362            0     15457.39    24.846685    24.732845    22.926231    14088.838    14594.967     16740.86    15036.344    168.44135   -713.32065    1249.0545   -4743.1175 
11390000    285.67589   -8969.2809   -7880.1541   -8969.2809            0    12733.747    25.103876    24.890639    22.717577    14195.112    11132.241    13003.468    14065.534    380.08683   -78.850533   -1227.2797    -5243.999 
11391000    288.93037   -9037.8245   -7936.2902   -9037.8245            0    11276.289    24.834905    24.935081    22.968483    14223.472    11111.804    11708.037    11009.028   -462.64686   -452.67109   -454.34349    -5597.196 
11392000    290.89609   -9055.5587   -7946.5302   -9055.5587            0    11714.728    24.865942    25.001821    22.898311    14235.738    11401.124    11242.775    12500.287    168.11131    949.29645   -899.40531   -5514.3927 
11393000    283.90555   -8981.5865   -7899.2091   -8981.5865            0    11568.081    24.908549    24.942978    22.970608    14271.487    12646.424    11031.663    11026.156    881.52133     191.0018    1070.3526   -5491.4866 
11394000    292.47501   -9021.3694   -7906.3213   -9021.3694            0    11815.773     25.00075     24.81913    22.880212      14197.1    10525.342    12881.875    12040.102    410.69381    864.55758    -773.0135   -5459.8639 
11395000    301.25187   -8961.8465   -7813.3369   -8961.8465            0     13939.49    24.906073    24.670898    23.024631    14147.604    13223.734    15298.106    13296.629    441.50857   -848.62045   -182.12673   -4937.2259 
11396000    287.82644    -9014.753   -7917.4274    -9014.753            0    11717.733     24.97872    24.871932    22.898067     14225.86    11127.347    12073.096    11952.755   -369.37853    280.95618   -115.84815   -5486.3543 
11397000    287.73744    -9003.201   -7906.2146    -9003.201            0    12219.439    24.894105    24.889498     22.89409    14185.219    13150.641     11806.02    11701.656   -484.73495   -237.17663     938.9622   -5378.2954 
11398000    283.66729    -9014.334   -7932.8649    -9014.334            0    12820.876    24.830051    24.908136    22.893465    14158.928    11891.485    12874.957    13696.185    183.47432   -64.137543    1141.8138   -5285.4381 
11399000    275.65652   -8935.5466   -7884.6183   -8935.5466            0    12151.225    24.879985    24.913069    22.964354    14234.151    12529.386    12041.461    11882.829   -242.60315   -109.96443   -1517.3929   -5362.1395 
11400000    289.88898   -9018.7282   -7913.5392   -9018.7282            0    13275.566    24.747992    25.018845    22.835186    14138.776     14060.46    11951.899    13814.339    602.72512    38.855909    383.72789   -5176.1236 
11401000    297.94121   -9003.4422   -7867.5544   -9003.4422            0     13496.81    24.725156    24.921421    22.944467     14138.06    14892.706    12185.026    13412.699   -1355.2514    24.232081    709.93867   -5084.6592 
11402000    282.99771   -8982.2766   -7903.3603   -8982.2766            0      12398.3    24.882392    24.899492    22.907832    14192.752    13514.804    11585.857    12094.238   -401.05733    272.15526    -857.9054   -5337.0768 
11403000    295.65739   -9002.0099   -7874.8291   -9002.0099            0    12151.823    24.972967    24.819616    22.936596    14216.548    10726.319    13299.082    12430.067    151.38264    228.89618   -419.43477   -5355.3459 
11404000    286.12527   -9023.8214   -7932.9814   -9023.8214            0    12092.317    24.983797    24.765976    22.899839    14169.232    11107.858    12654.413     12514.68    597.76531   -497.90407    269.96584   -5434.1801 
11405000    304.74307   -9064.8791   -7903.0596   -9064.8791            0    11951.105    24.934934    24.809732    22.932107    14186.467    11140.308    13097.986    11615.021    399.93936   -1635.7135   -57.276206   -5430.4349 
11406000    270.98388   -9021.7442   -7988.6301   -9021.7442            0    12930.672    24.892792    24.971872    22.767489    14152.718     12471.09    12735.028    13585.897   -1066.2395    1015.2909   -50.433366   -5319.7022 
11407000    295.58725   -9036.8855   -7909.9721   -9036.8855            0    10454.626    24.809951    25.055539    22.912243    14242.862    11643.079    9590.0932    10130.704   -623.38912   -1040.0388    115.38097   -5738.3631 
11408000    287.30543   -8997.8014    -7902.462   -8997.8014            0    10934.068    24.855307    25.025179    22.961407    14282.191    11578.762    10483.745    10739.697     46.09169   -447.64387   -1021.4173    -5624.993 
11409000    298.68547   -9011.5146   -7872.7894   -9011.5146            0    12722.474    24.879283     24.90278    22.916185    14198.028    13715.354    11586.343    12865.724    279.47888    383.94835   -335.20743   -5238.4273 
11410000     287.6617   -8993.9388   -7897.2412   -8993.9388            0    13406.987    24.677921    24.898902     23.01144    14139.451    14700.124    14523.535    10997.301   -683.30402    1339.8051      517.692   -5132.5947 
11411000    292.45317   -9063.2894   -7948.3246   -9063.2894            0     12315.33    24.840122     24.92158    22.866943    14155.897    12453.794    12179.072    12313.124    291.42365   -522.68735   -901.18657    -5405.834 
11412000    290.53262   -9004.0608   -7896.4179   -9004.0608            0    10638.883    24.944122    24.868429    22.984327    14257.664    11454.148    10901.845    9560.6574     32.66997   -999.08702     438.7543   -5684.2387 
11413000    285.63049   -8974.5823   -7885.6286   -8974.5823            0    11720.627    25.046238    24.849583    22.872645    14235.673    10720.019    12160.761      12281.1    -1215.446    45.671354    1835.5027   -5452.2778 
11414000    280.01987   -8979.5078   -7911.9444   -8979.5078            0     13624.48    24.794467    24.839095    22.925561    14119.214    15300.713    12016.906    13555.821    1122.2716   -801.78367   -12.489172   -5106.4698 
11415000    295.62585   -9019.5936    -7892.533   -9019.5936            0    13045.313    24.755135    25.038349    22.836831    14154.901    14236.928     11623.91      13275.1   -976.01579     1598.865     499.3534   -5199.5277 
11416000     297.7961    -8983.254   -7847.9195    -8983.254            0    12763.449    24.766329    24.918517    22.971306    14176.516    11740.491    13410.301    13139.555    66.567729    855.48285    976.18719   -5209.0772 
11417000    279.21265   -9045.7454   -7981.2595   -9045.7454            0    11196.535    24.880346    25.034348    22.830336    14220.177    12638.255    9247.8587    11703.492    375.21087   -780.57762    1052.8424   -5659.2471 
11418000    285.84833   -8938.7533   -7848.9691   -8938.7533            0    12662.253    24.991458    24.840389    22.941118     14241.79    13064.775    13116.808    11805.176    224.17741   -95.522402   -4.5194588   -5218.9952 
11419000    284.66429   -8979.9479   -7894.6778   -8979.9479            0    11875.829    24.942677    24.857744    22.964011    14238.116     12036.58     11239.18    12351.726   -345.97918    -1424.817   -133.79561   -5428.6819 
11420000    284.92707   -8964.1808   -7877.9089   -8964.1808            0    14684.083    24.763809    24.984311    22.782575    14095.732    15963.565    12826.354     15262.33    198.63397    346.44872  -0.50981979   -4859.2757 
11421000    287.89726   -9004.8062   -7907.2106   -9004.8062            0    13190.022    24.773482    24.897364    22.967538    14166.248    13746.796    12427.817    13395.453    329.41403    1064.8958    1054.4544   -5182.1494 
11422000    293.87218   -9019.4974   -7899.1226   -9019.4974            0    12783.943    24.976896    24.872063    22.822535    14177.973    10544.396    14062.847    13744.585    387.32634   -1407.9588    29.891162   -5255.7715 
11423000    290.35031   -8997.3527   -7890.4049   -8997.3527            0    13539.674    24.876879    24.772007    22.977168    14159.685    12245.712     15386.65     12986.66    214.65603    815.10745   -231.43127   -5094.4015 
11424000    284.57519   -8994.8163   -7909.8859   -8994.8163            0    13645.992    24.969591     24.82737    22.755796    14106.984    12901.969    13614.887    14421.119   -70.708448   -1293.2163   -1135.2241   -5102.4157 
11425000    293.96994   -9018.1821   -7897.4347   -9018.1821            0    11857.325    24.855263    24.910036    22.897501    14176.885    12504.972    11203.247    11863.755   -89.981348   -1814.6758    -1032.699   -5445.8697 
11426000    294.27253   -9034.8276   -7912.9265   -9034.8276            0    12996.712    24.685272    24.948724    22.917033    14113.823    14019.405    12662.792     12307.94   -122.92371    1036.7655   -122.10258   -5237.7401 
11427000    295.61684   -9012.7352    -7885.709   -9012.7352            0    13218.315    24.802268    24.898574    22.953851    14174.946    12950.753    13350.968    13353.225   -744.71376    167.94119   -141.25845   -5153.1257 
11428000    281.69852   -8986.9045   -7912.9413   -8986.9045            0    11172.546    24.922388    25.022906    22.826126     14235.07    11109.749     10669.85    11738.041    103.55116   -1035.4603    1326.2312   -5593.4772 
11429000    283.27358   -8997.0244   -7917.0563   -8997.0244            0    10666.442    24.804778    24.803844    23.176648    14259.522    11706.818    11015.595     9276.913      277.596   -1217.4696   -509.60166   -5698.8577 
11430000    284.88532   -9017.0412   -7930.9284   -9017.0412            0    11209.552    24.954161     24.92706    22.889988    14238.348    11190.004     11785.91    10652.742    535.37003   -390.67307    46.424148    -5603.246 
11431000    292.32151   -9015.6233   -7901.1604   -9015.6233            0    11786.934    24.813138    24.921702    23.036704    14245.567     13425.27    11509.313    10426.219   -649.29794    776.34389    138.30526   -5452.3425 
11432000    285.12053   -8938.2664    -7851.257   -8938.2664            0    13795.584    24.967978    24.914374    22.800403    14183.254    14067.344    12753.249    14566.159    161.11664   -738.27922     1646.956   -4997.6651 
11433000    287.03143   -8989.3246   -7895.0299   -8989.3246            0    13632.866    24.860152    24.766639    22.978187    14147.725     13582.82    13819.022    13496.757   -254.97288    442.15715    757.91428   -5082.1598 
11434000      288.235   -8972.8694   -7873.9861   -8972.8694            0    14090.598    24.932273    24.812028     22.83652    14127.134    13698.527    14946.597    13626.669   -388.84836    374.58949    330.56573   -4970.9038 
11435000    299.47435   -8954.3932   -7812.6605   -8954.3932            0    14885.996    24.841631     24.79745    22.875848    14091.731    15771.722    15631.903    13254.362   -1120.4485   -748.22759     732.4502   -4753.3882 
11436000     293.9603   -8956.1741   -7835.4634   -8956.1741            0    12693.114    24.949668    24.964138    22.865136    14241.481    11813.918    13404.796    12860.627   -71.289308   -43.503771    607.53855   -5199.1368 
11437000    283.50516   -9041.9139    -7961.063   -9041.9139            0    10498.773    24.884496    24.901839    23.037701    14275.766    10435.563    10538.228     10522.53    328.08212   -867.86976   -2.8950002   -5775.2456 
11438000    296.62738   -8994.4548   -7863.5759   -8994.4548            0    12505.808    24.920909     25.00864    22.789433    14203.241     12224.25    12088.411    13204.761   -562.82303    688.25596   -177.27077   -5273.1266 
11439000    276.27276   -9013.3954   -7960.1176   -9013.3954            0    11349.408    24.650215    24.930044    23.134589    14216.921    13443.967    11304.875    9299.3809    21.509436    109.97741   -340.49057   -5606.9403 
11440000    301.66838    -8990.812   -7840.7146    -8990.812            0     11866.07    24.868791    24.977147    22.855578    14196.775    13309.469    9968.4661    12320.275    172.87828     166.0829   -987.94329   -5383.8994 
11441000    294.74221   -9022.7674   -7899.0757   -9022.7674            0    11782.708    24.818534    24.936179    22.978326    14220.813    10922.632    11857.041    12568.452    1114.6281   -75.500449    717.78152   -5455.3895 
11442000    294.42062   -8996.4104   -7873.9447   -8996.4104            0    12681.542     24.96781    24.840915    22.871108    14185.192    12584.889    11907.272    13552.464    286.76395    211.75459   -393.85526    -5250.432 
11443000    294.61498   -9011.4012   -7888.1945   -9011.4012            0     12762.61    24.926205    24.789064    22.928443    14167.423    11709.875    13677.839    12900.117    1164.3807   -638.15915    821.29356    -5251.218 
11444000    290.93594   -9015.0946   -7905.9141   -9015.0946            0    11289.711    25.048152    24.792146    22.908767    14226.285    9737.2976    11492.178    12639.656    218.00522   -899.98956   -30.877528   -5563.5726 
11445000    290.61966   -8995.2951   -7887.3204   -8995.2951            0    12225.045    25.010891     24.65697    23.034734    14205.354    11599.219    13737.469    11338.448   -480.01286   -266.45707    585.07325   -5354.6514 
11446000    287.59011   -8961.6939   -7865.2692   -8961.6939            0    13169.758    24.918232    24.878772    22.848314     14164.47     12638.86    14105.224     12765.19   -1083.6515    138.66925    1212.8823   -5144.7362 
11447000    294.43216   -9025.3144   -7902.8047   -9025.3144            0    11348.517    24.845124    24.963098    22.958369    14239.039    11971.166    11556.517    10517.869    172.28666   -384.77583    851.13878   -5546.1514 
11448000    284.42435   -8955.8663    -7871.511   -8955.8663            0    12922.139    24.792428    24.940172    22.940054    14184.464    12653.892    12994.558    13117.965   -202.62115   -1208.0841    260.16375   -5198.3617 
11449000    298.75065   -8984.7729   -7845.7991   -8984.7729            0    13696.181    24.956926    24.905456    22.762199    14148.155    12629.635    14006.362    14452.546    31.121821   -619.00746    -1356.451   -5019.7794 
11450000     292.4427   -8990.1741   -7875.2491   -8990.1741            0    13794.935    24.877092    24.752509    22.942925    14127.575    13515.541     13557.19    14312.074   -1155.8627   -73.454209   -297.88775   -5032.9933 
11451000    304.48508    -8988.995    -7828.159    -8988.995            0    15146.085    24.832292    24.852329    22.804388    14073.507     16333.26    13349.188    15755.808   -491.77062    1051.4483    107.85322   -4719.4604 
11452000    288.35173   -8982.1193    -7882.791   -8982.1193            0    14201.981     24.79467    24.864967    22.856124    14091.227    13519.973     13414.39    15671.582    262.75894    12.576638    706.52226   -4964.1975 
11453000    278.51517   -9007.6849   -7945.8581   -9007.6849            0    13808.095     24.78557    24.865053    22.941737    14138.866    13963.178    13535.458     13925.65    2.5862367   -1400.6305    523.68652    -5098.617 
11454000    287.38649    -8973.525   -7877.8767    -8973.525            0    12781.839    24.881279    25.002217    22.812206    14191.179    12820.698    12533.165    12991.655   -1011.5141   -971.43186   -1119.3577   -5232.4988 
11455000     296.5189   -9071.8086   -7941.3433   -9071.8086            0        12198    24.883831    24.835002    22.935272    14173.768    11447.052    12971.207    12175.742   -419.02094   -150.89255    309.38055   -5419.8962 
11456000    281.03229   -9060.5398   -7989.1165   -9060.5398            0    11936.964    24.906773    24.894285    22.845121    14164.804    12675.319    11320.233    11815.339    777.00067    585.68191   -671.63291   -5523.1888 
11457000    285.62513   -8967.0002   -7878.0669   -8967.0002            0    15119.378    24.888045    24.803773    22.864486    14114.646     15442.85     14902.01    15013.275   -733.16039    673.17117    193.22043   -4765.7787 
11458000    284.94084   -8964.1353   -7877.8108   -8964.1353            0    12426.831    24.912574    24.802666    22.973157    14195.074    11676.397    14181.561    11422.536   -7.5868034   -113.16512    674.93609   -5305.2008 
11459000    291.56213    -8975.979   -7864.4112    -8975.979            0    11819.485    25.007511    24.876793     22.87293    14229.403    10459.172    12173.998    12825.285   -302.72415     790.3963   -962.34136    -5411.617 
11460000    288.19995   -8981.3595   -7882.6098   -8981.3595            0    12032.409    24.894876    24.949939    22.922231    14237.586     10985.16    12344.926    12767.141   -235.51861     179.6316   -858.40172   -5384.1933 
11461000    289.10658   -8970.0411   -7867.8349   -8970.0411            0    11002.644     24.78234    25.034561     22.94469     14235.23    11567.977    9498.5066    11941.448   -448.53728   -26.937864   -983.54651   -5583.6175 
11462000    293.05334   -9029.1482   -7911.8953   -9029.1482            0    11377.611    24.748006    24.937974    23.052873    14227.429    12942.305    9959.5375     11230.99    331.39893   -822.84091   -999.66595   -5551.1268 
11463000    274.70798   -8953.5853   -7906.2732   -8953.5853            0    13811.259    24.797997    24.984017    22.853799    14159.153     13934.58    12947.495    14551.701   -729.05241   -949.06924     613.1213   -5054.2935 
11464000    287.03443   -8966.8396   -7872.5335   -8966.8396            0    13213.008    24.819404    24.796285    23.032183    14174.673    12360.696    14801.726    12476.602   -202.18572   -544.34023    64.524017   -5141.0999 
11465000    288.60395   -9010.0833   -7909.7934   -9010.0833            0    13094.637     24.96759    24.849525    22.787106    14137.867    12589.914    12691.042    14002.955    136.15083   -9.5022278    429.87995   -5209.8587 
11466000    286.61265   -9028.4068   -7935.7087   -9028.4068            0    13195.112    24.866046    24.724644    23.033442    14161.056    12856.814    14121.575    12606.946   -268.26787   -170.97095    601.28807   -5210.5952 
11467000    292.48917   -8979.8747   -7864.7726   -8979.8747            0    13070.278    24.983909    24.887904    22.788785    14170.001    12677.192    13917.502    12616.139   -652.44111   -417.75471    -247.9484   -5163.7352 
11468000    293.22444   -8984.8998   -7866.9945   -8984.8998            0    14046.099    24.920181    24.651346     23.04916    14159.469    13233.582    15728.499    13176.215    263.59878   -207.73035   -74.855303   -4966.4565 
11469000    286.46953   -9010.8568   -7918.7043   -9010.8568            0    13403.858      24.9235    24.841484    22.805583    14119.773    12960.544    13749.703    13501.326   -473.56067   -614.19004    346.97639   -5158.5496 
11470000    286.79911   -9001.4824   -7908.0734   -9001.4824            0    12872.692    24.884806    24.708644    23.067799    14183.693    12837.435    12414.473    13366.169   -432.91682   -794.37768    884.27956   -5245.2976 
11471000    289.32789   -8995.1679    -7892.118   -8995.1679            0    14101.444    24.858577    24.898956    22.821103    14125.181    13164.854     13858.07    15281.408    333.42741    -397.7411    946.31282   -4987.2025 
11472000     285.0711    -9000.705   -7913.8839    -9000.705            0    13098.976    24.782908    24.902308    22.897031    14130.939    14703.691    11405.447    13187.788   -238.37853    817.04339    23.530664   -5214.3783 
11473000    287.88339   -8980.5792   -7883.0364   -8980.5792            0    13955.572    24.804667    24.995023    22.807242    14140.336    14692.768    12584.573    14589.374   -107.26012     154.3179    310.87998   -5005.0864 
11474000    292.66349   -8925.2865   -7809.5199   -8925.2865            0    14835.633    24.729544      24.8511    23.067875     14176.51    15993.075     13307.24    15206.584   -758.57071    1407.3281    663.28462   -4742.2549 
11475000    288.80844   -9011.2617   -7910.1922   -9011.2617            0    12487.768    24.868953    24.920887    22.893549    14188.422    13442.526    11481.704    12539.074    5.0215301     679.9794    560.14468   -5326.1785 
11476000    293.86351   -8991.7877    -7871.446   -8991.7877            0    14011.573    25.054615    24.639034    22.842185    14100.972    13239.692    15353.508    13441.519    -477.6801    414.92995    -178.9916    -4989.991 
11477000    300.12511   -9003.9436   -7859.7298   -9003.9436            0     12698.82    25.096427    24.734583    22.868174    14195.411     11015.16    14419.426    12661.875   -811.51239    135.80864    1350.3178     -5230.75 
11478000    286.95834   -8957.5123   -7863.4962   -8957.5123            0      12448.2    24.910005    24.853534     22.98362    14229.197    11023.533    12278.065    14043.001   -1216.5541   -363.05544    21.075048   -5280.2677 
11479000    281.73354   -9000.0931   -7925.9963   -9000.0931            0    11236.218    24.877857    25.039862    22.880749     14253.29    11666.097    11040.288     11002.27    53.544624   -461.77575    542.27756    -5590.328 
11480000    288.74602   -8973.5325    -7872.701   -8973.5325            0    11473.991    24.776381    25.028434    22.947586    14230.119    12258.854    11213.253    10949.865   -354.58355   -614.30051    792.06204   -5491.4843 
11481000    297.21956   -8997.0692   -7863.9327   -8997.0692            0    11651.341    24.863669    24.967405    22.937827    14239.374    12036.862    11936.709    10980.454   -127.38785    732.53728    480.08717   -5444.3375 
11482000    296.02519   -9010.1194   -7881.5364   -9010.1194            0    12423.523    24.875816    24.876113    22.880926    14159.028    12774.859     12000.67    12495.041   -206.33016    665.60067    -616.9328   -5316.1421 
11483000     286.2037   -8945.2179   -7854.0789   -8945.2179            0    14035.644    24.798741    24.808914    22.990671    14144.547    14315.202    15200.515    12591.214    232.25276    782.19541   -132.99408   -4958.7542 
11484000    296.82613   -9004.0147   -7872.3781   -9004.0147            0    12799.274    24.982201    24.928091    22.781689    14187.492    11237.401    13887.175    13273.247    379.88772    610.68517    67.409838     -5224.08 
11485000    278.55518   -8990.2987   -7928.3193   -8990.2987            0    13312.194    24.731231    24.849419    23.074443    14180.554    14337.275    13237.666    12361.639   -181.97351   -742.90771     163.5197   -5175.2401 
11486000    293.81786   -8993.3447    -7873.177   -8993.3447            0    13834.209    24.832622    24.911703    22.840166    14129.449    13299.158    14025.541    14177.926    -507.7053    119.69678   -571.00856   -5022.4512 
11487000    294.03167   -9017.5749    -7896.592   -9017.5749            0    14381.431    24.689419    24.967254    22.850548    14085.695    14803.487    14096.103    14244.701    469.88559   -68.314313   -633.75307   -4942.2808 
11488000    296.01635   -8955.8358   -7827.2865   -8955.8358            0    13099.537    24.809546     24.87924    22.994073    14192.923    14263.776    11301.466    13733.369   -750.91296    131.93522    70.423492   -5115.8236 
11489000    292.19341   -8992.5659   -7878.5914   -8992.5659            0    12730.773    25.020885    24.949988    22.692715    14166.399    10818.276    12586.635    14787.408     709.1383    178.29538   -415.47935   -5248.3832 
11490000    299.99711   -8996.1366   -7852.4108   -8996.1366            0    12624.979    24.870493    24.801823    23.029873    14205.599    12194.524    12215.088    13465.326   -359.30559   -988.41594    78.669195   -5236.8421 
11491000    295.99337   -8993.4556   -7864.9939   -8993.4556            0    13906.519    25.002833    24.904858    22.716131    14145.153    12806.667    13617.601    15295.289   -223.49296    456.53998    172.95322   -4996.1826 
11492000    290.49825    -8944.556   -7837.0442    -8944.556            0    14661.117    24.759357    24.839342    22.955488    14117.765    15023.695    14891.482    14068.174    468.24956    -429.9208    1327.1818    -4818.421 
11493000     289.7596   -9001.0658     -7896.37   -9001.0658            0    12946.768    24.868642    24.940264    22.822043    14154.927    13747.579     11969.88    13122.845   -207.22761   -1269.0457   -367.31952   -5223.7028 
11494000    284.49898   -9015.0097   -7930.3698   -9015.0097            0    11390.533    24.942725     24.74138    23.084099      14245.6    10318.106    11953.316    11900.177   -1035.3999    1511.3667   -720.67774   -5563.9016 
11495000    293.67101   -8993.8741   -7874.2663   -8993.8741            0    12525.702    24.882693    24.919408    22.884696     14189.93     13505.55    11757.533    12314.023    86.741421   -342.48536   -1619.9195   -5282.1277 
11496000    284.72337   -8990.3805   -7904.8851   -8990.3805            0    12076.636    24.805633    24.978403     22.91038    14195.388    12852.782    11523.764     11853.36    256.10656    -887.9845     408.0361   -5404.7175 
11497000    301.09593   -8978.7551   -7830.8401   -8978.7551            0    12447.052    24.858575    24.869497    22.948774    14187.397    12793.275    12777.692    11770.188    131.36959   -390.67159   -831.70877   -5255.4376 
11498000    279.89351   -9015.8973   -7948.8156   -9015.8973            0    11395.643    24.799069    25.073516    22.910859    14245.969    12085.063    9719.0965     12382.77    302.23114   -1122.4184   -819.90546   -5581.2244 
11499000    275.10924   -9013.4665   -7964.6246   -9013.4665            0     12161.07     24.79793     24.89124    22.987463     14189.04    11958.835      12951.8    11572.573   -573.34616   -1397.2285   -75.303499    -5448.103 
11500000    297.49843   -8986.1692   -7851.9695   -8986.1692            0    12067.899    25.050404    24.777186    22.868687    14194.103    11161.613    12897.057    12145.026    241.54081   -452.96646    133.64821   -5353.8368 
Loop time of 591.94 on 64 procs for 250000 steps with 1920 atoms

Performance: 72.980 ns/day, 0.329 hours/ns, 422.340 timesteps/s
194.8% CPU use with 32 MPI tasks x 2 OpenMP threads

MPI task timing breakdown:
Section |  min time  |  avg time  |  max time  |%varavg| %total
---------------------------------------------------------------
Pair    | 70.343     | 75.205     | 79.43      |  26.0 | 12.70
Bond    | 0.83571    | 1.1126     | 1.4384     |  15.3 |  0.19
Kspace  | 269.89     | 284.35     | 297.06     |  49.1 | 48.04
Neigh   | 6.0193     | 7.7341     | 9.3082     |  40.1 |  1.31
Comm    | 88.659     | 103.98     | 120.71     |  95.9 | 17.57
Output  | 0.59107    | 0.59153    | 0.59705    |   0.1 |  0.10
Modify  | 98.37      | 104.26     | 107.4      |  21.2 | 17.61
Other   |            | 14.71      |            |       |  2.49

Nlocal:        60.0000 ave          64 max          56 min
Histogram: 1 2 5 3 0 9 4 6 1 1
Nghost:        3405.97 ave        3429 max        3362 min
Histogram: 1 0 2 1 3 3 6 7 5 4
Neighs:        21412.1 ave       23121 max       19761 min
Histogram: 2 2 4 4 6 1 6 5 0 2

Total # of neighbors = 685186
Ave neighs/atom = 356.86771
Ave special neighs/atom = 2.0000000
Neighbor list builds = 14323
Dangerous builds = 0

unfix		3
unfix		2
unfix		1

write_data	data.final.${pid}
write_data	data.final.0
System init for write_data ...
PPPM initialization ...
  extracting TIP4P info from pair style
  using 12-bit tables for long-range coulomb (../kspace.cpp:340)
  G vector (1/distance) = 0.37459308
  grid = 30 30 30
  stencil order = 5
  estimated absolute RMS force accuracy = 0.0032575153
  estimated relative force accuracy = 9.8099104e-06
  using double precision FFTW3
  3d grid and FFT values/proc = 5400 960
Last active /omp style is kspace_style pppm/tip4p/omp
WARNING: Not all mixed pair coeffs generated from mixing. Use write_data with 'pair ij' option to store all pair coeffs. (../write_data.cpp:312)

write_restart   restart.lmp.${pid}
write_restart   restart.lmp.0
System init for write_restart ...
PPPM initialization ...
  extracting TIP4P info from pair style
  using 12-bit tables for long-range coulomb (../kspace.cpp:340)
  G vector (1/distance) = 0.37459308
  grid = 30 30 30
  stencil order = 5
  estimated absolute RMS force accuracy = 0.0032575153
  estimated relative force accuracy = 9.8099104e-06
  using double precision FFTW3
  3d grid and FFT values/proc = 5400 960
Last active /omp style is kspace_style pppm/tip4p/omp
Total wall time: 0:09:52
