LAMMPS (30 Jul 2021)
Processor partition = 1
  using 2 OpenMP thread(s) per MPI task
using multi-threaded neighbor list subroutines
variable        pid world 0 1
variable        phase world IceIh IceIII

shell cd ${phase}
shell cd IceIII
include Restart.lmp
echo both
log log.lammps
#include		in.partitions
include		in.temp
variable        temperature equal 2.72
variable	tempDamp equal 100.0
include		in.pressure
variable        pressure equal 2220.6
variable        pressureDamp equal 1000.0 # This is 1 ps
include		in.seed
variable        seed equal 745823

units		real
atom_style	full

read_restart	restart.lmp.${pid}
read_restart	restart.lmp.1
Reading restart file ...
  restart file = 30 Jul 2021, LAMMPS = 30 Jul 2021
  restoring atom style full from restart
  orthogonal box = (0.064526749 0.050219210 0.075280536) to (19.935474 19.949782 20.624717)
  2 by 4 by 4 MPI processor grid
  restoring pair style lj/cut/tip4p/long/omp from restart
  restoring bond style harmonic/omp from restart
  restoring angle style harmonic/omp from restart
  972 atoms
  648 bonds
  324 angles
Finding 1-2 1-3 1-4 neighbors ...
  special bond factors lj:    0        0        0       
  special bond factors coul:  0        0        0       
     2 = max # of 1-2 neighbors
     1 = max # of 1-3 neighbors
     1 = max # of 1-4 neighbors
     2 = max # of special neighbors
  special bonds CPU = 0.005 seconds
  read_restart CPU = 0.017 seconds
include 	in.setup
variable	out_freq equal 1000
variable	out_freq2 equal 10000
variable	out_freq3 equal 1000

timestep	2.0

neigh_modify    delay 7 every 1

include		in.tip4p
# This is TIP4P/Ice

# create groups ###
group ox type 2
324 atoms in group ox
group hy type 1
648 atoms in group hy

# set charges - beside manually ###
set group ox charge -1.1794
Setting atom values ...
  324 settings made for charge
set group hy charge 0.5897
Setting atom values ...
  648 settings made for charge

# ### TIP3P Potential Parameters ###
pair_style lj/cut/tip4p/long/omp 2 1 1 1 0.1577 8.5
pair_coeff 1 1*2 0.000 0.000
pair_coeff 2 2 0.21084 3.1668
bond_style  harmonic
bond_coeff  1 450 0.9572
angle_style harmonic
angle_coeff 1 55 104.52
kspace_style pppm/tip4p/omp 1.0e-5
pair_modify tail yes

thermo          ${out_freq}
thermo          1000
thermo_style    custom step temp pe etotal epair emol press lx ly lz vol pxx pyy pzz pxy pxz pyz enthalpy

restart 	${out_freq3} restart.lmp.${pid} restart2.lmp.${pid}
restart 	1000 restart.lmp.${pid} restart2.lmp.${pid}
restart 	1000 restart.lmp.1 restart2.lmp.${pid}
restart 	1000 restart.lmp.1 restart2.lmp.1


include         in.dump
dump            myDump all atom ${out_freq2} dump.water.${pid}
dump            myDump all atom 10000 dump.water.${pid}
dump            myDump all atom 10000 dump.water.1
dump            myDump2 all dcd ${out_freq2} dump.dcd
dump            myDump2 all dcd 10000 dump.dcd
dump_modify     myDump append yes
dump_modify     myDump2 append yes


variable natoms 	equal  "count(all)"                        # NUMBER ATOMS
variable H      	equal  "enthalpy/v_natoms"                 # ENTHALPY-per-atom
variable Vol      	equal  "vol/v_natoms"                 # volume-per-atom
fix AVG all 		ave/time ${out_freq} 1 ${out_freq} v_Vol v_H file vol_enthalpy.dat
fix AVG all 		ave/time 1000 1 ${out_freq} v_Vol v_H file vol_enthalpy.dat
fix AVG all 		ave/time 1000 1 1000 v_Vol v_H file vol_enthalpy.dat


timer           timeout 02:55:00 every 1000
New timer settings: style=normal  mode=nosync  timeout=02:55:00

fix 		1 all shake 1e-6 200 0 b 1 a 1
Finding SHAKE clusters ...
       0 = # of size 2 clusters
       0 = # of size 3 clusters
       0 = # of size 4 clusters
     324 = # of frozen angles
  find clusters CPU = 0.001 seconds
fix             2 all nph aniso ${pressure} ${pressure} ${pressureDamp}
fix             2 all nph aniso 2220.6 ${pressure} ${pressureDamp}
fix             2 all nph aniso 2220.6 2220.6 ${pressureDamp}
fix             2 all nph aniso 2220.6 2220.6 1000
fix             3 all temp/csvr ${temperature} ${temperature} ${tempDamp} ${seed}
fix             3 all temp/csvr 2.72 ${temperature} ${tempDamp} ${seed}
fix             3 all temp/csvr 2.72 2.72 ${tempDamp} ${seed}
fix             3 all temp/csvr 2.72 2.72 100 ${seed}
fix             3 all temp/csvr 2.72 2.72 100 745823


run             250000
PPPM initialization ...
  extracting TIP4P info from pair style
  using 12-bit tables for long-range coulomb (../kspace.cpp:340)
  G vector (1/distance) = 0.37186455
  grid = 24 24 24
  stencil order = 5
  estimated absolute RMS force accuracy = 0.0035498384
  estimated relative force accuracy = 1.0690233e-05
  using double precision FFTW3
  3d grid and FFT values/proc = 3211 432
Last active /omp style is kspace_style pppm/tip4p/omp
Neighbor list info ...
  update every 1 steps, delay 7 steps, check yes
  max neighbors/atom: 2000, page size: 100000
  master list distance cutoff = 10.8154
  ghost atom cutoff = 10.8154
  binsize = 5.4077, bins = 4 4 4
  1 neighbor lists, perpetual/occasional/extra = 1 0 0
  (1) pair lj/cut/tip4p/long/omp, perpetual
      attributes: half, newton on, omp
      pair build: half/bin/newton/omp
      stencil: half/bin/3d
      bin: standard
Setting up Verlet run ...
  Unit style    : real
  Current step  : 50500000
  Time step     : 2
  Walltime left : 2:54:59.93
Per MPI rank memory allocation (min/avg/max) = 10.19 | 10.19 | 10.19 Mbytes
Step Temp PotEng TotEng E_pair E_mol Press Lx Ly Lz Volume Pxx Pyy Pzz Pxy Pxz Pyz Enthalpy 
50500000    2.6896685   -5246.1454   -5240.9581   -5246.1454            0     2200.066    19.870948    19.899563    20.549437    8125.7234    2094.6853    2201.4047    2304.1079   -31.750986    197.74087    11.523223   -4980.2386 
50501000    2.6407036   -5246.0901   -5240.9973   -5246.0901            0    2188.7244    19.871473     19.83476    20.623915    8128.8314     2188.274    2279.0087    2098.8906   -63.192432    105.87695    87.975132   -4981.5226 
50502000    2.7411205   -5247.1306   -5241.8441   -5247.1306            0    2195.5495    19.903142    19.843249    20.590501    8132.0746    2177.9923    2178.5467    2230.1094   -81.737541    178.56633    83.713702   -4981.4564 
50503000     2.647207   -5246.4036   -5241.2982   -5246.4036            0    2199.3551    19.833066    19.866779    20.614379    8122.4602    2305.6914    2098.0995    2194.2744   -78.311609    269.68798    4.8282128   -4980.7676 
50504000    2.5563505   -5246.9536   -5242.0234   -5246.9536            0    2173.6596    19.883289    19.858017    20.589958    8129.7946    2033.6664    2266.9122    2220.4001   -92.781478    180.25599    174.13471   -4984.3041 
50505000    2.7089492   -5247.2226   -5241.9982   -5247.2226            0    2199.1396    19.881856    19.827546    20.629117    8132.1715    2204.8559    2253.1282    2139.4345    -111.3996    251.98253    200.70638   -4981.1816 
50506000    2.8252654   -5246.6538   -5241.2051   -5246.6538            0    2228.1635     19.89287    19.873522    20.566638    8130.8436    2056.8202    2201.4424    2426.2279   -6.9635049    79.270542    146.86543   -4976.9894 
50507000    2.8063722   -5246.8049   -5241.3926   -5246.8049            0    2253.9693    19.858624    19.862777    20.614104    8131.1799    2312.1656     2229.327    2220.4152   -168.56454    222.68683    1.0043139   -4974.1058 
50508000    2.7807946   -5246.5714   -5241.2084   -5246.5714            0    2207.8634    19.905875     19.81617    20.598003    8125.0513    2210.0252    2259.4993    2154.0657   -157.39684    67.306057    135.68282   -4979.5864 
50509000    2.7942642   -5246.7664   -5241.3775   -5246.7664            0    2210.8954    19.885769    19.860147     20.58129    8128.2572    2147.0005    2177.9642    2307.7215   -136.64138    192.58498    28.500984   -4979.2928 
50510000    2.7440957   -5246.5562    -5241.264   -5246.5562            0    2157.6721    19.856702    19.886785    20.592158    8131.5542    2258.3449     2037.317    2177.3545   -141.07524    250.38774    141.83494   -4985.3848 
50511000    2.5992994   -5246.2247   -5241.2117   -5246.2247            0    2251.3174    19.892784    19.821953    20.620286    8130.8637    2278.1898    2324.0571    2151.7053   -203.01458    97.100795    123.23466   -4974.2498 
50512000    2.9430176    -5246.543   -5240.8671    -5246.543            0    2245.2384    19.890516    19.835141    20.600813    8127.6631     2207.944     2247.503    2280.2681   -151.51214    133.32567    32.902361   -4974.7309 
50513000    2.7807375   -5246.1589    -5240.796   -5246.1589            0    2239.6359    19.897773    19.868881    20.554632    8126.2015    2202.9989    2203.7212    2312.1877   -136.27349    284.71528    146.33991   -4975.3716 
50514000    2.5830309   -5246.5518   -5241.5702   -5246.5518            0    2244.4687    19.884803    19.824226    20.618749     8127.928    2307.6911    2269.7412     2155.974   -114.70559    280.62556   -14.051454   -4975.5165 
50515000    2.8653691    -5246.908   -5241.3819    -5246.908            0    2234.1541    19.888508    19.867484    20.556473     8122.574    2149.8336    2251.8603    2300.7685   -126.04589    426.79491   -81.171782   -4976.7253 
50516000    2.7650527   -5246.7478   -5241.4151   -5246.7478            0    2207.9338    19.882262     19.85547    20.578175    8123.6805    2242.5605    2142.8719    2238.3691    -62.96118    224.87472   -83.205238    -4979.829 
50517000    2.7641944   -5246.9549    -5241.624   -5246.9549            0    2222.8138     19.86591    19.841299    20.629954    8131.6156     2376.687    2156.4908    2135.2634   -127.68072    237.65792    101.56545   -4978.0176 
50518000    2.6377915   -5247.4843   -5242.3971   -5247.4843            0    2230.2272    19.857705     19.85736    20.642728    8139.8731    2198.1631    2289.3391    2203.1795   -113.67717    280.65096    161.67585   -4977.6431 
50519000     2.740898   -5246.2915   -5241.0054   -5246.2915            0    2201.1539     19.86989    19.865075    20.580918    8123.6357    2258.0887    2158.9563    2186.4165    -80.44164    58.942032   -48.621406   -4980.2239 
50520000    2.7454945   -5246.6094   -5241.3145   -5246.6094            0    2227.6687    19.866298      19.8223    20.645247    8130.0098    2121.1605    2402.1254    2159.7203   -94.700651    213.31698    42.620086   -4977.1846 
50521000    2.6158758   -5246.5205   -5241.4756   -5246.5205            0    2226.5209    19.861824    19.841993    20.613159    8123.6081    2299.4418    2207.4722    2172.6487   -42.118102    275.31547    47.097128   -4977.6897 
50522000    2.6482918   -5246.0654    -5240.958   -5246.0654            0     2219.368    19.886841    19.855693    20.586653      8128.99    2115.4134    2227.9063    2314.7844   -166.05039    393.22098   -26.974397   -4977.8453 
50523000    2.6408621   -5246.7063   -5241.6132   -5246.7063            0    2189.4779    19.867618    19.829251    20.643021    8132.5243    2157.5871    2310.1551    2100.6915   -87.109927    280.74459    72.196762   -4981.9312 
50524000    2.8631747   -5246.7652   -5241.2433   -5246.7652            0    2179.4543    19.888268     19.85288    20.603271    8134.9834    2065.6651    2218.8748    2253.8231   -160.47012    77.531268   -120.93387    -4982.672 
50525000    2.6994845   -5246.3089   -5241.1027   -5246.3089            0    2280.3855    19.884289    19.860498    20.575428    8125.4809    2246.7011    2240.2358    2354.2197   -106.28018    396.02696    54.404041   -4970.8729 
50526000    2.8347702   -5246.6443   -5241.1772   -5246.6443            0    2229.2525    19.887589    19.847326    20.598475    8130.5365    2172.8884    2233.0111     2281.858   -81.165748    252.42851   -76.684471   -4976.8424 
50527000    2.8336286   -5246.4978   -5241.0329   -5246.4978            0    2182.0199    19.885889    19.843162    20.611317    8133.2032    2191.9677    2148.7613    2205.3307   -83.828468    75.929705   -44.840344   -4982.2139 
50528000    2.6750415   -5246.3461   -5241.1871   -5246.3461            0     2268.819    19.901795    19.873382    20.524885    8117.9199    2149.8604    2246.3243    2410.2724    -110.8663     229.5309    57.327922   -4972.5781 
50529000    2.8447926   -5247.0361   -5241.5497   -5247.0361            0    2228.5292    19.892589    19.838698    20.594999    8127.6736    2244.5339    2254.6111    2186.4424   -140.37611    327.47247   -15.344933   -4977.3937 
50530000    2.6172521   -5246.3033   -5241.2558   -5246.3033            0    2198.2813    19.862189    19.848532    20.619966    8129.1181    2096.9306    2359.0357    2138.8777   -64.886409    243.66381    67.592969   -4980.6389 
50531000    2.7126102   -5246.1084   -5240.8769   -5246.1084            0    2231.0594       19.892    19.851351    20.575721    8125.0042    2267.7141    2088.2178    2337.2462   -139.63004     352.3895    18.141047   -4976.5079 
50532000     2.807493   -5246.3314   -5240.9169   -5246.3314            0    2211.0562    19.910462    19.826282    20.580326    8124.0923    2141.2984    2310.7894    2181.0807   -44.408004    119.97494   -145.69526   -4978.9475 
50533000     2.619719    -5246.411   -5241.3587    -5246.411            0    2254.4067    19.872068     19.83261    20.630588    8130.8235     2225.751    2352.8493    2184.6198   -139.02326    125.57168    164.75887   -4974.0317 
50534000    2.7145198   -5246.5268   -5241.2917   -5246.5268            0     2208.421    19.879291    19.860054    20.581468    8125.6418    2216.2702     2123.062    2285.9308   -106.51283    292.18979    184.57187   -4979.5846 
50535000    2.6442911   -5246.8177    -5241.718   -5246.8177            0    2215.8497    19.883132    19.845535    20.594326     8126.344    2073.6399    2296.5178    2277.3915   -189.86997    94.567843    172.66131   -4979.1079 
50536000    2.5653502    -5246.652   -5241.7045    -5246.652            0    2257.0684    19.868105    19.863596    20.592762    8126.9747    2238.7188    2290.5229    2241.9636   -54.595647    144.07753    82.285614   -4974.1887 
50537000    2.7140118   -5246.6273   -5241.3931   -5246.6273            0    2227.0945    19.880509    19.871174    20.561921    8122.9678    2263.4887    2161.5111    2256.2838   -57.309774    153.83848    40.207596     -4977.56 
50538000    2.8302414   -5246.6635   -5241.2051   -5246.6635            0    2270.5701    19.888029    19.844397    20.590049    8126.1909     2251.445    2227.6642    2332.6009   -184.82351    59.910429    133.09348    -4972.115 
50539000    2.6403992   -5246.5642    -5241.472   -5246.5642            0    2185.2462    19.876651    19.842056     20.62045    8132.5738    2123.3538    2349.2367    2083.1481   -64.017753    279.09736    26.498621   -4982.2903 
50540000    2.7619761   -5246.5776   -5241.2509   -5246.5776            0     2246.443     19.92301     19.84983    20.533447    8120.3287    2160.6381    2162.9635    2415.7273   -100.81664    320.06414   -153.23072   -4975.2121 
50541000    2.7797362   -5246.3203   -5240.9594   -5246.3203            0    2223.5327     19.87491    19.874943    20.582667    8130.4151    2159.1105    2162.9397    2348.5479   -123.23374    221.36924   -39.255595   -4977.3067 
50542000    2.7618225   -5247.3578   -5242.0314   -5247.3578            0    2195.7234    19.839782     19.84756    20.661546    8135.9229    2384.4106    2148.2446    2054.5151    -6.998163    419.89848    116.62567   -4981.4998 
50543000    2.7907967   -5246.5102   -5241.1279   -5246.5102            0    2250.1639    19.904675    19.828196     20.60183    8131.0023    2208.5727    2305.9253    2235.9937   -71.044407    167.57582    11.758132   -4974.2982 
50544000    2.6806317   -5246.8263   -5241.6565   -5246.8263            0     2201.122    19.882976    19.844267    20.598391    8127.3649    2286.6807     2121.206    2195.4793   -158.90993    94.979961    26.639986   -4980.7591 
50545000    2.6280758   -5246.8555   -5241.7871   -5246.8555            0    2207.9852    19.868595    19.838252    20.633202    8132.7453    2358.9981     2172.489    2092.4685   -99.332149    37.927917   -20.621611   -4979.9029 
50546000    2.7302361   -5247.0518   -5241.7863   -5247.0518            0      2295.77    19.894402    19.844014    20.599767    8132.4747    2215.9324    2391.3527    2280.0248   -190.95149    131.39091    22.183437   -4969.4993 
50547000    2.7770345   -5246.1902   -5240.8345   -5246.1902            0    2181.1846    19.876318    19.844294    20.595199    8123.3954    2116.6067    2212.8567    2214.0903   -98.896591    304.16389    148.80933   -4982.4265 
50548000    2.5423886   -5246.3871   -5241.4839   -5246.3871            0    2249.6716     19.85371    19.832402     20.63785    8126.0866    2279.8728    2375.3257    2093.8162   -106.59881    307.28145    49.376717   -4974.8739 
50549000    2.8376502   -5246.4668   -5240.9942   -5246.4668            0    2205.7664    19.876565    19.873999    20.568268     8125.018     2148.968    2183.7479    2284.5834   -53.388012    295.02072    140.85598   -4979.6218 
50550000    2.6458232   -5246.5616   -5241.4589   -5246.5616            0    2236.5386     19.87759    19.866995    20.564836     8121.218    2165.9243    2169.9691    2373.7226   -102.78375     271.1046    62.374064   -4976.5641 
50551000    2.7264651   -5245.8987   -5240.6404   -5245.8987            0    2242.5865    19.845735    19.850473    20.624565    8124.9902     2260.247    2305.6608    2161.8516   -174.93751    116.51081   -93.079051   -4974.9059 
50552000    2.6010794   -5246.5001   -5241.4837   -5246.5001            0    2239.1855    19.874494    19.865553    20.588681    8128.7786    2275.8545    2153.6533    2288.0488   -76.476685      321.699    158.41831   -4976.0284 
50553000     2.686621   -5246.5881   -5241.4067   -5246.5881            0    2231.7744    19.886406    19.876536     20.55002    8122.8653    2212.9608    2135.0886    2347.2738   -82.221885    334.64687    101.29543   -4977.0225 
50554000    2.7633847   -5246.0676   -5240.7382   -5246.0676            0    2187.6489    19.875161    19.843796    20.608476    8127.9553    2159.6671     2222.482    2180.7977   -88.705714    141.52595   -34.873128   -4981.4189 
50555000    2.7149248   -5246.4711   -5241.2351   -5246.4711            0    2208.5452    19.844937     19.83721    20.650366    8129.3924    2355.5878    2163.0976    2106.9502   -119.42779    249.57633    227.87594   -4979.3925 
50556000    2.7903156   -5246.6539   -5241.2725   -5246.6539            0    2234.5469    19.908569    19.861427    20.552202    8126.5996     2198.934    2137.9872    2366.7193    38.459055     325.2207    14.559069   -4976.4382 
50557000    2.6101294   -5246.9161   -5241.8822   -5246.9161            0    2233.3539    19.865746    19.838502    20.638594    8133.8072    2162.2546    2367.9639     2169.843   -82.959961    296.51103    74.316372   -4976.9545 
50558000    2.6850616   -5246.9384   -5241.7601   -5246.9384            0    2215.0519    19.884758    19.847293    20.599199    8129.6515    2139.8988    2312.2311    2193.0257   -84.533964    309.92553   -63.282543   -4979.1377 
50559000    2.7160055   -5246.5216   -5241.2836   -5246.5216            0    2178.2715    19.903503    19.846807     20.58295    8130.6968     2143.838    2070.5204    2320.4561   -117.33533    39.807303   -7.8794506   -4982.9888 
50560000    2.7451054   -5247.0391   -5241.7449   -5247.0391            0     2224.508    19.872027     19.83697    20.634994    8134.3312    2298.6172    2215.4791    2159.4277   -57.015798    244.34764    126.36889   -4977.8496 
50561000    2.7106373   -5246.3446    -5241.117   -5246.3446            0    2230.4324    19.865577    19.849631    20.607928    8126.2081    2174.7249    2318.7816    2197.7905   -103.70283    130.66763    47.951584    -4976.783 
50562000     2.918567   -5246.2438   -5240.6151   -5246.2438            0    2261.1403    19.890131    19.867643    20.557055    8123.5314    2180.1058    2285.2278    2318.0872   -88.459473    345.05377     6.943329   -4972.7302 
50563000    2.8431847   -5246.2933     -5240.81   -5246.2933            0    2203.8251    19.875126     19.83177    20.612676    8124.6702    2228.7768    2172.8444    2209.8541   -82.890719    74.464159    10.942852   -4979.6788 
50564000    2.7879786   -5247.1968     -5241.82   -5247.1968            0    2229.2725    19.866568    19.823342    20.641407    8129.0355    2281.8711    2290.6092    2115.3373   -79.611804     398.4267    112.46942   -4977.5316 
50565000     2.690067   -5246.8187   -5241.6307   -5246.8187            0    2251.6943    19.883324    19.859888      20.5635    8120.1269    2107.4325    2298.7707    2348.8798   -70.409761    321.01777    48.446315   -4974.9767 
50566000    2.9172415   -5246.3192   -5240.6931   -5246.3192            0    2264.8196    19.853316    19.847326    20.614408    8122.8033     2297.327    2321.6024    2175.5295    -159.9764    264.59943    201.94974   -4972.3963 
50567000    2.6005669   -5246.4969   -5241.4815   -5246.4969            0    2222.8728     19.86023    19.842998    20.638522    8133.3629    2230.2758    2263.2482    2175.0943   -73.212737    233.79459    3.1361888   -4977.8115 
50568000    2.7322811   -5246.4929   -5241.2234   -5246.4929            0    2172.6671    19.881967    19.864738    20.558245    8119.4803     2146.695    2079.9304    2291.3759   -123.17319    263.13515   -27.801115   -4983.9486 
50569000    2.7571378   -5247.2003   -5241.8829   -5247.2003            0    2191.2415    19.845072    19.868244     20.61642    8128.7809    2299.5684    2125.8448    2148.3115   -76.399349    84.931424    82.201223   -4982.1114 
50570000    2.8289128   -5246.8124   -5241.3566   -5246.8124            0    2243.3335    19.867246    19.839799    20.620739     8127.915    2170.2733    2370.2385    2189.4889   -104.60413    328.94795   -75.109131   -4975.4379 
50571000     2.694859    -5246.551   -5241.3538    -5246.551            0    2162.0556      19.8839    19.857609    20.574306     8123.697    2156.0252    2169.7092    2160.4322    15.322475     182.7283      139.205   -4985.2025 
50572000    2.8051988   -5246.4869   -5241.0768   -5246.4869            0    2181.7928    19.856585    19.880662    20.589719    8128.0396    2211.4541    2144.6652    2189.2591   -41.001231    121.08279    46.462538    -4982.449 
50573000     2.622866   -5246.9472   -5241.8888   -5246.9472            0    2206.4467    19.872737    19.852839    20.610971    8131.6516    2187.3063    2252.0724    2179.9614   -89.674554    220.61516    84.577512   -4980.2223 
50574000    2.6263118   -5247.0076   -5241.9425   -5247.0076            0    2244.2726    19.895316      19.8286    20.612122     8131.405    2251.5167    2280.6759    2200.6252   -119.62895    322.88138   -116.92026   -4975.7983 
50575000    2.7610362    -5246.706   -5241.3811    -5246.706            0    2182.2279    19.907658    19.849772    20.569107    8128.1391    2163.8072    2134.8957    2247.9808   -167.77659    248.60148    208.70837   -4982.6986 
50576000    2.7946853   -5246.4229   -5241.0331   -5246.4229            0    2239.4242    19.862642    19.833325    20.632282    8127.9273     2300.621    2235.6599    2181.9916    -49.43096    351.59058   -24.002864   -4975.5774 
50577000    2.6278057   -5246.9423   -5241.8743   -5246.9423            0    2198.0359    19.887179    19.821559    20.618612    8127.7514    2088.0577    2366.7854    2139.2646    -59.00081    153.46953    97.622364   -4981.3303 
50578000    2.8111536   -5246.1959   -5240.7743   -5246.1959            0    2213.0321    19.903489     19.86517    20.556623     8127.805     2117.421    2207.3367    2314.3385   -181.66746    296.97591   -8.1352364    -4978.451 
50579000    2.6973717   -5246.5405   -5241.3384   -5246.5405            0    2211.9378    19.862634    19.830775    20.637245     8128.834    2284.8417    2243.9477    2107.0241   -108.02311    317.03379    60.032137   -4979.1116 
50580000    2.7788548   -5246.5594   -5241.2001   -5246.5594            0    2218.5876    19.887219    19.854294    20.582321    8126.8616    2123.4204    2279.7738    2252.5686   -117.94895    235.70151    8.6424112   -4978.2488 
50581000    2.8090123   -5247.0058   -5241.5884   -5247.0058            0    2209.2383    19.849034    19.875897    20.618555     8134.378    2182.2749     2221.632    2223.8078   -148.73406      223.097   -27.718514    -4979.503 
50582000    2.5160204   -5246.7423   -5241.8899   -5246.7423            0    2190.2762    19.866605    19.834748    20.629722    8129.1235    2245.2039    2130.7304    2194.8943   -19.071513    215.85369    6.5043423   -4982.2219 
50583000    2.7949314   -5246.8294   -5241.4392   -5246.8294            0    2205.1387    19.893239    19.856492    20.576399    8127.8818    2192.8982    2203.4838    2219.0341   -161.81953    243.65317    39.905441    -4980.049 
50584000    2.7632964   -5246.0139   -5240.6847   -5246.0139            0    2197.5987    19.868789    19.895047    20.548321    8122.5562    2204.5609    2091.9862    2296.2492   -58.015228    271.27722   -9.5838508    -4980.359 
50585000     2.680697   -5246.6808   -5241.5109   -5246.6808            0    2192.0224    19.869022    19.845568    20.610865    8127.1123    2242.1186    2090.8447    2243.1038   -74.383835    121.04402    120.87641   -4981.7001 
50586000    2.6415932   -5246.5189   -5241.4243   -5246.5189            0    2223.4413     19.86354     19.84037    20.608987    8122.0014    2200.7949     2239.146    2230.3828   -182.29614    272.23375    48.188429   -4978.0554 
50587000    2.7757656   -5246.7769   -5241.4236   -5246.7769            0    2184.2985    19.852287    19.861189    20.631635    8134.8479    2167.7994    2218.3954    2166.7007   -71.532582    243.54633    63.885963   -4982.2819 
50588000    2.8078873   -5247.0159   -5241.6007   -5247.0159            0    2196.4997    19.894512    19.836939    20.603386    8131.0486    2121.3396    2211.1984    2256.9612   -142.80852    291.94514    52.230011   -4981.1332 
50589000    2.7190637   -5247.1306   -5241.8867   -5247.1306            0    2223.5162    19.859629     19.85159    20.618805    8128.8652    2307.7962    2218.8686    2143.8838   -75.251807    211.11472    43.913478   -4978.2862 
50590000    2.7048532   -5247.3748   -5242.1582   -5247.3748            0    2200.1713    19.858068    19.867165    20.629317    8138.7505    2214.7122    2137.4762    2248.3255   -119.93654    320.82251   -66.482009   -4981.0082 
50591000    2.5800616   -5246.2339    -5241.258   -5246.2339            0    2243.0012    19.893971    19.831102    20.580128    8119.2591    2273.0967    2209.0296    2246.8771   -41.099392     251.0203    72.137726   -4975.6619 
50592000    2.7730581   -5246.9042   -5241.5561   -5246.9042            0    2264.6416    19.852351    19.836021    20.641744    8128.5467    2374.0057    2209.5947    2210.3245   -108.53563    341.12565   -69.075496   -4973.0908 
50593000    2.8229133   -5246.9641   -5241.5198   -5246.9641            0    2203.8154    19.872867    19.886353    20.574838    8131.1522    2253.5417    2112.2438    2245.6608   -138.28834    255.40952    2.7892959   -4980.1815 
50594000    2.7392359   -5246.7648    -5241.482   -5246.7648            0    2195.6896    19.886038    19.842348    20.617294    8135.2892    2201.5896    2187.3747    2198.1045   -158.63089    305.79243    189.34449   -4980.9747 
50595000    2.5975394   -5246.8981   -5241.8885   -5246.8981            0    2195.6907    19.879822    19.835896    20.604692     8125.132    2116.3909    2232.9354    2237.7457   -135.39587    274.80467    61.673978   -4981.7064 
50596000    2.7403339   -5246.2371   -5240.9521   -5246.2371            0    2199.5874    19.894774    19.869309    20.547903    8122.4916    2119.2376    2130.4245    2349.0999   -146.86103    95.258701   -45.869877   -4980.3929 
50597000    2.7113462    -5246.725   -5241.4959    -5246.725            0    2249.9061     19.86875    19.863796    20.600752    8130.4739    2275.0474    2219.6483    2255.0224   -148.29273     208.0507    91.703563   -4974.7141 
50598000    2.7307951   -5246.4758   -5241.2093   -5246.4758            0    2227.2856    19.863079    19.826161    20.645829    8130.5049    2255.6644    2306.7475     2119.445   -59.164152    104.50162    50.144871   -4977.1087 
50599000    2.7486971   -5247.0156   -5241.7145   -5247.0156            0    2250.3512    19.879367    19.869551    20.568842    8124.5712     2266.824    2193.7949    2290.4348   -167.18748    216.84693    29.472037   -4975.0737 
50600000    2.5638218   -5246.3266    -5241.382   -5246.3266            0    2228.3606    19.850364    19.840684    20.624686    8122.9251    2238.0385    2310.0374    2137.0059   -128.08328    161.83896   -12.828098   -4977.4003 
50601000    2.6101758   -5246.8579   -5241.8239   -5246.8579            0    2235.7726    19.871978     19.84563    20.618757    8131.4585     2350.571    2186.1105    2170.6364   -85.529344     311.2978     29.65548   -4976.6859 
50602000    2.7346035   -5247.0742   -5241.8002   -5247.0742            0    2260.2444     19.86409    19.856856    20.612232    8130.2553    2244.6838    2208.7043     2327.345   -158.04115    171.90235    52.178626   -4973.7998 
50603000    2.8171498   -5246.3818   -5240.9487   -5246.3818            0      2236.89    19.880149    19.845654    20.601625    8128.0529    2300.9633    2143.3202    2266.3866   -128.36582    407.37804    96.653424   -4975.7893 
50604000    2.7232971   -5246.7126   -5241.4605   -5246.7126            0    2175.7433    19.869053     19.85213    20.613869    8130.9967    2169.0413    2203.5795    2154.6091    -124.6518    353.23855    183.31357    -4983.456 
50605000      2.81733   -5246.3343   -5240.9009   -5246.3343            0     2204.795    19.880278    19.887756    20.557703    8127.9838    2128.5171    2170.5426    2315.3255   -137.86043     398.3714   -68.623861   -4979.5482 
50606000    2.5993139   -5246.8672   -5241.8542   -5246.8672            0    2210.2703    19.880902    19.856474    20.581985    8125.0395    2198.3082    2158.1339    2274.3687   -99.652847    375.56351   -43.148038   -4979.9474 
50607000    2.7887198   -5246.5982     -5241.22   -5246.5982            0    2231.5099    19.855246    19.840365    20.621109    8123.3835    2277.0835    2307.7248    2109.7214   -56.011001    236.19693    21.174789   -4976.8503 
50608000    2.7075052   -5246.2804   -5241.0587   -5246.2804            0    2222.3841    19.878328    19.880499    20.556993    8123.9404    2171.8867    2095.0019    2400.2635   -193.57456    138.38408    56.476173   -4977.7521 
50609000    2.7285599   -5246.7661   -5241.5039   -5246.7661            0    2203.4264    19.903692    19.857886    20.580242    8134.2425    2106.3901     2310.131    2193.7582   -189.75437      377.252    133.77317   -4980.1123 
50610000    2.8276675   -5247.2275   -5241.7741   -5247.2275            0      2294.77    19.873073    19.834196    20.637589    8134.6445    2386.6575    2336.3698    2161.2827    -109.4527    197.30186    14.740613    -4969.533 
50611000    2.8078766   -5246.9834   -5241.5682   -5246.9834            0    2170.5937    19.856377    19.840686    20.651572    8135.9794    2206.5202    2229.6355    2075.6254   -139.43529    81.317565    52.284731   -4984.0166 
50612000    2.7055733   -5246.4239    -5241.206   -5246.4239            0    2227.5672    19.898376    19.842362    20.592024     8130.365    2267.1145    2187.6651    2227.9219   -59.231042    365.60117    80.349588   -4977.0766 
50613000    2.6848034   -5246.8193   -5241.6414   -5246.8193            0    2205.3406    19.844134    19.825616     20.66798    8131.2417    2369.6077    2258.7481    1987.6661   -138.44301    175.11875   -27.424159   -4980.1193 
50614000    2.7050373   -5246.9167   -5241.6998   -5246.9167            0    2192.8548    19.884058    19.848454    20.625328    8140.1528    2204.9958    2184.6941    2188.8745   -161.29874    216.71844    134.07774   -4981.3733 
50615000    2.6916422    -5246.227   -5241.0359    -5246.227            0    2254.8984    19.882773    19.836361    20.601962    8125.4519    2321.9752    2237.0197    2205.7003   -90.557221    315.19241   -87.324642   -4973.8273 
50616000    2.7043425   -5246.3978   -5241.1822   -5246.3978            0    2231.2108     19.84482    19.855149    20.640985    8132.9992    2366.5123    2230.1782    2096.9417   -152.29181    279.13891   -28.191969   -4976.5351 
50617000    2.6593802   -5246.6262   -5241.4974   -5246.6262            0     2202.267    19.854957    19.852263     20.60348    8121.1878    2320.0969    2177.9866    2108.7175   -120.80824    155.69631   -67.524016   -4980.6627 
50618000    2.6408014      -5246.8    -5241.707      -5246.8            0    2260.3174    19.895196    19.853535    20.584576    8130.7013    2299.4354    2228.5974    2252.9195   -88.460188    347.13793    177.20606   -4973.6832 
50619000    2.6395557   -5246.8144   -5241.7238   -5246.8144            0    2237.8732    19.872319    19.832595    20.625203    8128.7982     2167.641    2401.6305    2144.3482   -130.97994    185.64577   -126.42866   -4976.4235 
50620000     2.728898   -5246.2973   -5241.0344   -5246.2973            0     2234.307    19.854353    19.869539    20.595114    8124.7075    2311.9594    2117.4788    2273.4827   -72.820446    193.73791    0.7200029   -4976.2902 
50621000    2.7109833   -5246.8838   -5241.6555   -5246.8838            0    2206.5219    19.861147    19.873147     20.58391    8124.5411    2223.6831    2116.9941    2278.8884   -176.24879    402.43306    174.49718   -4980.2089 
50622000    2.7883737   -5246.1776      -5240.8   -5246.1776            0    2215.0339    19.889774     19.81618    20.622429    8128.1105    2242.9608    2211.4478    2190.6932   -112.18437    201.95457    26.590256   -4978.2295 
50623000    2.7383776   -5246.8257   -5241.5445   -5246.8257            0    2231.5926    19.876452    19.857098    20.599014    8130.1971    2217.7964    2231.6552    2245.3262   -87.507525    211.12533    195.24534   -4976.9433 
50624000    2.6788621   -5246.0156   -5240.8492   -5246.0156            0    2305.7411    19.861793    19.856734    20.597952    8123.6328    2183.8687    2368.5657    2364.7887   -121.13945    144.34788     27.94416   -4967.6768 
50625000    2.8299862   -5246.7924   -5241.3345   -5246.7924            0    2226.8825    19.871569     19.84222    20.622415    8131.3365    2277.1854    2197.9962    2205.4659    -31.88351    199.96418    112.64036   -4977.2548 
50626000    2.4856904   -5246.5547   -5241.7608   -5246.5547            0    2228.1134    19.852857    19.837052     20.64552    8130.6632    2136.0372    2390.0759     2158.227   -95.589949    108.46271   -93.587889    -4977.557 
50627000    2.6584193   -5246.9498   -5241.8228   -5246.9498            0    2204.7332    19.882024    19.864674    20.588798     8131.544    2258.4763    2125.4148    2230.3086     -120.794    280.76305    76.695775    -4980.363 
50628000    2.7809693   -5246.2753    -5240.912   -5246.2753            0     2216.058    19.881953    19.846698    20.579219    8120.3773    2272.7923     2086.167    2289.2146   -11.574979    291.40312     167.9018   -4978.4701 
50629000    2.9216253    -5247.014   -5241.3794    -5247.014            0    2268.9371    19.867958    19.846934    20.619683    8130.7131    2301.6204    2242.6523    2262.5386   -110.34064    203.04195    9.5619272   -4972.3331 
50630000    2.5691962   -5246.7718   -5241.8169   -5246.7718            0    2213.1971    19.900336    19.856972    20.571889    8129.1958    2179.2653     2136.815     2323.511   -80.854415    318.13418    -30.05502   -4979.4291 
50631000    2.5914164   -5247.2841   -5242.2863   -5247.2841            0    2244.3074    19.872074    19.842067    20.610586    8126.8163    2271.8543    2227.3229     2233.745   -148.15493    340.19131    118.57004   -4976.2881 
50632000    2.7286533   -5246.5327   -5241.2703   -5246.5327            0    2210.4727    19.864765     19.85356    20.597848    8123.5093    2226.3021    2170.7823    2234.3337   -73.142073     186.6443    11.090504   -4979.3888 
50633000    2.7732275   -5246.2384     -5240.89   -5246.2384            0    2256.7771     19.89926    19.854363    20.556684    8121.6811      2182.73    2257.1344    2330.4669    -109.9828    249.43005   -52.068409   -4973.5829 
50634000    2.6547114   -5246.3877   -5241.2678   -5246.3877            0    2227.2692    19.872889    19.872119     20.58776    8130.4446    2189.7936    2203.2496    2288.7643   -76.354864    188.92808   -95.841161   -4977.1712 
50635000    2.6548608   -5246.7874   -5241.6673   -5246.7874            0    2197.9231    19.859616    19.844065    20.637241    8133.0439    2242.7502    2228.4325    2122.5865   -94.260123    245.41604    123.59907    -4980.967 
50636000    2.7369077   -5246.0823    -5240.804   -5246.0823            0    2226.9459    19.886569    19.856149    20.576033    8124.8719     2171.932    2210.6404    2298.2655   -104.76185    203.72166    77.154187   -4976.9266 
50637000    2.6934747    -5247.159   -5241.9644    -5247.159            0    2271.0928    19.868674    19.854393    20.618605    8133.6368    2291.8334    2268.7104    2252.7346   -85.718087     80.91152   -81.622589   -4972.5656 
50638000    2.6148557   -5246.9768   -5241.9339   -5246.9768            0    2150.3027    19.848163    19.854798    20.618761    8125.4675    2194.0462    2172.8795    2083.9824   -85.288668     101.7184   -130.16665   -4987.1195 
50639000    2.5457904   -5246.5692   -5241.6594   -5246.5692            0     2253.025    19.899445    19.845865    20.575025    8125.5237    2215.0525    2264.5462    2279.4764    14.606767     179.8635    116.72535   -4974.6705 
50640000    2.6779734   -5246.5159   -5241.3512   -5246.5159            0    2226.9474    19.890236    19.843345      20.6008     8130.905    2215.6125    2271.7814    2193.4484   -75.494973     181.0988   -104.75712   -4977.2778 
50641000    2.7457424   -5246.8798   -5241.5844   -5246.8798            0    2221.4576    19.838069    19.850165    20.652866    8132.8702    2349.6327    2245.9007    2068.8393   -64.060937    320.51234    80.762737   -4978.0983 
50642000    2.7397642   -5246.7652   -5241.4814   -5246.7652            0    2213.9439    19.879244    19.861219     20.58501    8127.4975    2113.0539    2178.1802    2350.5977   -63.754222     303.9887    146.70449   -4979.0599 
50643000    2.6243902   -5246.3069   -5241.2456   -5246.3069            0    2189.8854     19.90751    19.845032    20.569583    8126.3257     2142.315    2222.7056    2204.6357   -150.88852    217.98464   -9.9556495   -4981.7132 
50644000    2.6543921   -5246.2556   -5241.1364   -5246.2556            0    2241.6225    19.869172     19.84951     20.61407     8130.052    2249.4948    2283.5139    2191.8589   -42.609112    402.35826    31.429812   -4975.3506 
50645000    2.7702834   -5246.2164   -5240.8737   -5246.2164            0    2209.9874    19.881956    19.865239    20.561629    8121.0168    2207.5543    2133.7439     2288.664   -131.44482    180.84566    134.56168   -4979.1301 
50646000    2.6429178   -5246.7851    -5241.688   -5246.7851            0    2208.2905    19.877119    19.833265    20.618387    8128.3489    2237.7267    2194.3443    2192.8005   -67.560953    248.29935    33.566782   -4979.9093 
50647000     2.678386   -5247.1663   -5242.0009   -5247.1663            0    2250.3791     19.85863    19.844625    20.639738    8133.8538    2340.2064    2182.7441    2228.1868   -133.70973    395.12129    109.82382   -4975.0521 
50648000    2.7210204   -5246.7023   -5241.4546   -5246.7023            0    2228.2742    19.877826    19.850421    20.591461     8125.045    2220.9395    2237.5186    2226.3646    -153.1791    336.12784   -20.935238   -4977.4142 
50649000    2.7876534   -5246.4719   -5241.0957   -5246.4719            0    2203.2719    19.916549    19.839742    20.566001    8126.4328    2024.4285    2245.4949    2339.8923   -111.73689    305.09131   -27.002204   -4979.9734 
50650000    2.5883734   -5247.3901   -5242.3982   -5247.3901            0    2188.8599    19.862921    19.853364    20.642047    8140.1045    2244.0858    2222.9398    2099.5541   -185.03245     103.7399    130.00543   -4982.5475 
50651000    2.8893583   -5247.0594   -5241.4871   -5247.0594            0    2219.0735    19.869795    19.854231    20.626494    8137.1414    2309.5986    2192.8219    2154.7999   -137.55361    266.16057   -208.63023   -4978.1455 
50652000    2.7442772   -5246.5251   -5241.2325   -5246.5251            0    2217.3346    19.900139     19.85603    20.563636     8125.469    2185.6147    2162.2376    2304.1515    -73.23304    57.276708     141.4145   -4978.4747 
50653000    2.6778481   -5246.4772   -5241.3128   -5246.4772            0    2221.5025    19.870888    19.848044    20.605757    8126.8747     2238.801    2253.8182    2171.8884   -108.10824    124.54124   -20.396049   -4978.0156 
50654000     2.762798   -5247.3626   -5242.0343   -5247.3626            0    2249.8329    19.859443    19.871636    20.604622    8131.3999    2318.1576    2222.9709    2208.3702   -85.059539    21.860836   -87.359665   -4975.2309 
50655000    2.6761124   -5246.3109   -5241.1498   -5246.3109            0    2216.8397    19.896134    19.862928    20.569715    8129.0582    2182.0059    2180.9039    2287.6094   -115.07513    108.68869    55.618698   -4978.3347 
50656000    2.7309694   -5247.1498   -5241.8829   -5247.1498            0    2225.8781      19.8708    19.839529    20.622278    8129.8653    2291.0268    2225.6418    2160.9656   -103.84946    167.41592    34.975882     -4977.97 
50657000    2.8117304   -5246.6613   -5241.2386   -5246.6613            0    2240.4194    19.870684    19.853186     20.59447    8124.4436    2295.8651    2227.4347    2197.9585   -18.533845    236.13587   -29.516095   -4975.7788 
50658000    2.5925944   -5246.5553   -5241.5553   -5246.5553            0    2237.6845    19.886759    19.861987    20.587489    8131.8635    2244.8058    2151.3678    2316.8798   -123.33283    199.98635   -194.56857   -4976.1773 
50659000    2.6695777   -5246.4768   -5241.3283   -5246.4768            0    2231.4683    19.873498     19.83436    20.624763    8129.8301    2302.2127    2189.8026    2202.3897    -158.6677    89.366328     121.5489   -4976.7537 
50660000    2.7262565   -5246.9226   -5241.6648   -5246.9226            0    2198.8603    19.874701     19.84609    20.617583    8132.2987    2148.0146    2199.6464    2248.9198   -166.33711    224.18327   -34.124107   -4980.8773 
50661000    2.6410312    -5246.712   -5241.6186    -5246.712            0    2235.6473    19.891153    19.845565    20.576073    8122.4289    2217.7907    2231.0394    2258.1118   -172.71469    253.99596    57.889398   -4976.7899 
50662000    2.6346357   -5246.7364   -5241.6553   -5246.7364            0    2140.1998    19.854877    19.846189    20.664946    8142.8903     2221.189    2180.1397    2019.2708   -119.44975    131.18906    59.974782   -4987.4944 
50663000    2.8603363   -5247.2739   -5241.7575   -5247.2739            0    2205.1693    19.856229    19.855866    20.619803    8129.6178    2225.9439    2261.9333    2127.6306   -130.55765    220.62582    123.81667   -4980.3079 
50664000    2.6484926    -5246.412   -5241.3041    -5246.412            0    2185.5064    19.905955    19.839193    20.576035    8125.8482     2091.404    2248.2275    2216.8876   -173.52608    81.308711   -34.083569    -4982.306 
50665000    2.7200542   -5246.8229    -5241.577   -5246.8229            0    2169.2938    19.876299     19.84138    20.627909    8135.0948    2169.1956    2197.7665    2140.9194   -91.756686    326.25062    150.74331   -4984.2076 
50666000    2.7520063   -5246.4036   -5241.0961   -5246.4036            0    2208.5895    19.859606    19.867027    20.588317    8123.1478    2253.7141    2167.3763    2204.6782   -70.440337    229.03133    45.684663   -4979.4494 
50667000    2.7072887   -5246.8253   -5241.6041   -5246.8253            0    2244.3297    19.900905    19.843139    20.591788    8131.6234    2086.9668    2296.9699    2349.0525   -108.49601    366.26942   -52.219832   -4975.4459 
50668000    2.7477814   -5246.3438   -5241.0444   -5246.3438            0    2175.9185    19.869109    19.853245    20.604897    8127.9372    2229.9792     2072.324    2225.4523   -119.08071    216.28861    103.67875   -4983.1162 
50669000    2.7223768     -5246.52   -5241.2697     -5246.52            0    2179.4008    19.857204    19.871797    20.610227    8132.7612    2301.3926    2042.1586    2194.6511   -58.762829    157.24199    133.39925   -4982.7754 
50670000    2.6660805   -5246.2391   -5241.0973   -5246.2391            0    2239.7783    19.894055    19.853195    20.583235     8129.566    2325.6896    2184.1468    2209.4985   -146.97403    258.74753    -49.15702   -4975.5461 
50671000    2.7353309   -5246.6581   -5241.3828   -5246.6581            0    2206.9653    19.877334    19.844442    20.631582    8138.2222    2247.6154    2194.4547    2178.8257   -139.06584    147.91584    54.052525   -4979.4434 
50672000    2.6776926   -5246.4707   -5241.3065   -5246.4707            0    2214.7424    19.855981    19.851632    20.617914    8127.0383    2190.8753    2259.5555    2193.7964   -127.91211    274.48847    12.285354   -4978.8052 
50673000    2.5075705   -5246.8679   -5242.0318   -5246.8679            0    2255.0657    19.887786    19.851266    20.575684     8123.233    2232.7957    2208.3066    2324.0948   -58.602341    323.66873    122.56248   -4974.8764 
50674000    2.6936284   -5246.8913   -5241.6964   -5246.8913            0    2207.2795    19.880867    19.838427    20.621408     8133.189    2218.6209      2221.03    2182.1875   -112.80225    254.83245   -32.874872   -4979.8817 
50675000    2.6107136   -5246.6665   -5241.6315   -5246.6665            0     2226.957      19.8782    19.862606    20.590706    8129.8873    2195.6146    2204.0252    2281.2312   -165.53066    275.10928  -0.59469218     -4977.59 
50676000    2.6318192   -5247.1372   -5242.0616   -5247.1372            0    2227.8398     19.89401    19.867907    20.556452    8124.9857    2205.0676    2141.1474    2337.3044   -142.53097    245.59062   -145.92633   -4978.0746 
50677000    2.8265363   -5247.0116   -5241.5603   -5247.0116            0    2206.6176    19.878724    19.864103    20.608632    8137.7927    2194.6883    2202.7043    2222.4602   -117.94007    199.61818    74.546041    -4979.676 
50678000    2.6290086    -5246.768   -5241.6978    -5246.768            0    2226.9747    19.844861    19.852648    20.630076    8127.6935    2323.4295    2272.5568     2084.938   -85.101094    154.51131    103.54766   -4977.7254 
50679000    2.6193482   -5246.4077    -5241.356   -5246.4077            0     2233.258    19.887062     19.87996    20.570942    8132.8042    2262.8228    2117.0457    2319.9054   -91.789792    279.15189    24.107495   -4976.4724 
50680000    2.7991275   -5246.7014    -5241.303   -5246.7014            0    2208.5192    19.887801    19.854838    20.587919    8129.5323    2161.6095    2263.1723    2200.7759   -74.793733    242.54653   -99.293197    -4979.459 
50681000    2.8612955   -5246.8186   -5241.3004   -5246.8186            0    2189.5118     19.85785    19.833405    20.640455    8129.2177    2210.0377    2306.8016    2051.6959   -99.662741    368.30127    3.5366906     -4981.72 
50682000    2.6411648   -5246.7005   -5241.6068   -5246.7005            0    2244.2211    19.864063    19.873159    20.578573    8123.6321    2183.3747    2286.4443    2262.8443   -54.979779    213.89301   -38.745491   -4975.7231 
50683000    2.6600786   -5246.5554   -5241.4252   -5246.5554            0    2240.8457    19.879377    19.852411    20.590089     8125.952    2146.9853    2283.9649    2291.5869   -89.226743    225.80555    152.51542   -4975.8655 
50684000    2.6872968   -5247.4719   -5242.2892   -5247.4719            0    2222.6912    19.861293    19.838863    20.660389    8140.7194    2297.2891    2254.1895     2116.595   -15.558808    54.188196    191.24457   -4978.4023 
50685000    2.8021317   -5246.2172    -5240.813   -5246.2172            0    2266.9888    19.875549    19.871311    20.563085    8121.4564    2411.6015     2125.474    2263.8909   -173.35194    205.32331   -139.52106   -4972.3038 
50686000    2.7978033   -5245.9969   -5240.6011   -5245.9969            0    2205.0188      19.8988    19.852703    20.570789    8126.3867    2145.8585    2206.5166    2262.6814   -68.537089    219.92411    170.93802   -4979.2732 
50687000    2.6520016   -5247.1409   -5242.0263   -5247.1409            0    2236.8982    19.860408    19.816489    20.662824    8132.1347    2236.1106    2317.4788    2157.1054   -81.287122    389.38387   -164.18738   -4976.7327 
50688000    2.7563935   -5246.0896   -5240.7737   -5246.0896            0    2213.5835    19.893328    19.864547    20.567998    8127.8958    2229.8538    2111.8389    2299.0579    -103.2828    271.37129    3.7079687   -4978.3821 
50689000    2.6482871   -5246.7787   -5241.6713   -5246.7787            0    2234.7808    19.889604    19.857048    20.578389    8127.4101    2237.9399    2153.0841    2313.3183   -142.75735    157.60988    13.127314   -4976.7829 
50690000    2.7755605   -5246.3579    -5241.005   -5246.3579            0    2232.2776     19.85512    19.829306    20.659105    8133.7637    2355.1514     2227.337    2114.3445   -75.746086    407.39658    57.174712   -4976.2064 
50691000     2.795477   -5247.2141   -5241.8228   -5247.2141            0    2239.1579    19.870442     19.86222    20.606303    8132.7124    2203.8194    2245.6251    2268.0292   -130.45012    108.13612     261.6212   -4976.2424 
50692000     2.817777   -5246.1762   -5240.7419   -5246.1762            0    2281.0681    19.881423     19.86473    20.564578    8121.7557    2181.1685    2306.8473    2355.1883   -104.12817    139.89559    18.347861   -4970.5551 
50693000    2.6854852   -5246.5226   -5241.3434   -5246.5226            0    2231.9352    19.889032     19.84177      20.6006     8129.689     2230.945    2179.0135     2285.847   -24.057131    243.41115    183.32284   -4976.7181 
50694000    2.7684103   -5246.5477   -5241.2086   -5246.5477            0    2219.7674    19.848122    19.851066    20.631636    8128.9963    2291.5038    2230.8696    2136.9287    -167.5086    328.70977   -43.862952   -4978.0484 
50695000    2.8435147   -5247.0106   -5241.5266   -5247.0106            0    2204.6574    19.896869    19.865796    20.568442    8130.0293    2217.2358    2128.1802    2268.5564   -73.448116    394.45449    183.98614   -4980.1245 
50696000    2.7753272   -5247.2651   -5241.9127   -5247.2651            0    2207.2191    19.874273     19.83993    20.621045    8130.9643     2204.621    2272.5558    2144.4806   -133.00147    301.28459    26.413444   -4980.1767 
50697000    2.7025272   -5246.7471    -5241.535   -5246.7471            0    2212.8394    19.871528    19.864829    20.600632    8131.9863    2238.9912    2192.5551     2206.972   -114.54138    155.03451    50.628553   -4979.0996 
50698000    2.6872554   -5246.8479   -5241.6653   -5246.8479            0    2237.7303    19.894209    19.871058    20.582659    8136.7156    2218.0437    2144.0573    2351.0898   -100.88159    29.601699    128.00231   -4976.1236 
50699000    2.7053673   -5246.3103   -5241.0927   -5246.3103            0    2252.2473     19.86695    19.841671     20.63139    8132.7598    2320.9697    2285.5137    2150.2586   -65.800326     50.91554   -6.0918094   -4973.9583 
50700000    2.7179552   -5247.1277   -5241.8859   -5247.1277            0    2237.8898    19.867118    19.846241    20.626929    8132.9425    2198.4549    2350.2248    2164.9898   -166.99002     261.9084    64.138745   -4976.4483 
50701000    2.6559511   -5246.5544   -5241.4322   -5246.5544            0    2215.6845     19.88408    19.855615    20.574688    8123.1057     2228.112    2189.7922    2229.1493     -44.4736    172.67301   -40.845391   -4978.9463 
50702000    2.8191262   -5246.9117   -5241.4748   -5246.9117            0    2167.5811    19.889838    19.861303    20.564946    8123.9369    2249.9023    2024.6393    2228.2017   -115.06764     164.2004      80.2775   -4984.6613 
50703000    2.5936337   -5246.9734   -5241.9713   -5246.9734            0    2229.7149    19.853627    19.829872    20.653692    8131.2532    2269.5566    2341.8847    2077.7033   -29.321909    355.86781    35.171531   -4977.5584 
50704000    2.6965208   -5247.0985    -5241.898   -5247.0985            0     2227.275    19.884188    19.858547    20.576774     8125.173    2187.3729    2203.9257    2290.5262   -89.646314    182.78758   -107.54211   -4977.9719 
50705000    2.6660567   -5247.0072   -5241.8654   -5247.0072            0     2277.557    19.885077    19.861113    20.586915    8130.5915     2269.519    2215.4767    2347.6753   -79.894236    220.99108    114.66186   -4971.8011 
50706000    2.6601576    -5247.032   -5241.9017    -5247.032            0    2301.4677    19.864095    19.821063    20.641741    8127.2205    2318.4889     2395.223    2190.6913   -87.299411    270.53027    134.71304   -4969.1152 
50707000    2.7570424    -5246.698   -5241.3808    -5246.698            0    2184.8249    19.887754    19.862366    20.572404    8126.4666    2154.6577    2148.9207    2250.8963   -226.61692    151.28104   -61.430129   -4982.4437 
50708000    2.7815395   -5246.7049   -5241.3405   -5246.7049            0    2234.4204    19.878591    19.867062    20.583553    8129.0461    2256.1871    2142.5334    2304.5407   -57.310026    215.56258    43.999061   -4976.4414 
50709000    2.7543253   -5246.6809    -5241.369   -5246.6809            0    2207.8706    19.861081    19.831163    20.636793    8128.1792    2256.6109    2275.1387    2091.8623   -115.60082    293.28921    59.177348   -4979.6454 
50710000    2.8718116   -5246.5035   -5240.9649   -5246.5035            0    2213.4734    19.896905    19.844202    20.584962    8127.7295    2205.8567    2203.7841    2230.7795   -103.41862    184.58695    200.90985   -4978.5918 
50711000    2.6930256   -5246.4954   -5241.3017   -5246.4954            0    2207.9205    19.888102    19.852272    20.590978    8129.8123    2281.2936    2126.7993    2215.6686   -178.90176    272.25877   -28.044177   -4979.5196 
50712000    2.6019199   -5246.1398   -5241.1218   -5246.1398            0    2272.5939    19.876004    19.821009    20.624782    8125.3897    2279.7306    2290.3543    2247.6969   -47.789476    195.82015    25.472628   -4971.8183 
50713000     2.832952   -5246.9829   -5241.5194   -5246.9829            0    2172.7225    19.874329    19.854302    20.593355    8125.9512    2182.4935    2190.3254    2145.3487   -182.68389    395.42179   -48.347528   -4984.0329 
50714000     2.677546   -5246.3649    -5241.201   -5246.3649            0    2226.3992    19.884871    19.877009    20.561807    8127.0905    2111.3907    2228.8165    2338.9903   -95.527368    308.75475    17.236648   -4977.3164 
50715000     2.602624   -5247.1355   -5242.1161   -5247.1355            0    2189.3954    19.877253    19.833375      20.6362    8135.4711    2193.1932    2249.4074    2125.5857   -131.10954    306.54352    72.952013   -4982.3498 
50716000     2.726032   -5246.6828   -5241.4255   -5246.6828            0    2233.1928    19.867583    19.852094    20.613715    8130.3196    2301.2028    2193.1096    2205.2659   -56.833424    174.52774    147.44968   -4976.6305 
50717000    2.6407085   -5246.5606   -5241.4678   -5246.5606            0    2212.3343    19.892737    19.870871    20.554546    8124.9244    2172.5878     2135.631     2328.784   -66.599674    121.56668    107.40484   -4979.3201 
50718000    2.7336158   -5246.6596   -5241.3876   -5246.6596            0    2148.3378    19.859657     19.83083    20.640866    8129.0641    2156.2455    2285.9644    2002.8036   -169.93088    153.17423    14.711755   -4986.6934 
50719000    2.7219356   -5247.1576   -5241.9082   -5247.1576            0    2192.5208    19.866071    19.871334    20.613754    8137.5952    2287.0064    2092.6865    2197.8695   -108.62884    367.88497   -181.97799   -4981.7031 
50720000    2.6405623   -5246.5866    -5241.494   -5246.5866            0    2195.3163    19.892344    19.850295    20.582982    8127.5794    2071.8689    2309.8719    2204.2082   -109.63792    178.15677      28.0315   -4981.2779 
50721000    2.7302243   -5246.4198   -5241.1544   -5246.4198            0    2215.8105    19.868718    19.840893    20.620511    8128.8759    2165.6037    2291.9034    2189.9244   -64.499882    25.748968    8.9072257   -4978.4671 
50722000     2.676359    -5246.867   -5241.7055    -5246.867            0    2205.8685    19.850315    19.850592    20.634119     8130.679    2234.1468    2231.1351    2152.3235   -82.403608    192.84311    229.91466   -4980.1388 
50723000    2.6578482   -5246.7754   -5241.6495   -5246.7754            0    2196.7733    19.913346    19.868727    20.541269    8127.2115     2048.165    2164.3413    2377.8137   -125.38883    286.19345   -61.555238   -4981.2725 
50724000     2.653279   -5247.1869   -5242.0699   -5247.1869            0    2216.1253    19.879109    19.859091    20.606006    8134.8604     2122.046    2304.2037    2222.1262   -91.530148    310.60814   -103.63048   -4979.1519 
50725000    2.6058449   -5247.1017   -5242.0761   -5247.1017            0    2212.6051    19.877694    19.834825    20.624571    8131.6617    2259.0383    2291.8753    2086.9018   -97.646602    350.44722    11.891565   -4979.6789 
50726000    2.7695674   -5246.7053   -5241.3639   -5246.7053            0    2212.9891    19.875694    19.866706    20.592566    8131.2748    2316.6063    2053.4734    2268.8875    -166.0225    185.06433   -13.382608   -4978.9337 
50727000    2.9440128   -5246.4905   -5240.8127   -5246.4905            0    2212.9104    19.875338     19.85738    20.611033    8134.6007     2186.827    2310.5844    2141.3199   -58.765756    265.72041    117.89735   -4978.2845 
50728000    2.7388889   -5246.0792    -5240.797   -5246.0792            0    2269.3186    19.865779    19.838321    20.605985    8120.8949    2343.0348     2248.831    2216.0902   -122.55895    362.40605   -53.753305   -4972.0305 
50729000    2.7515551   -5246.8053   -5241.4987   -5246.8053            0    2207.3862    19.879757    19.881407    20.562426    8127.0429    2192.3922    2171.6759    2258.0906   -189.24743    135.67789    55.995593   -4979.8692 
50730000    2.7576992    -5246.578   -5241.2595    -5246.578            0    2211.4652    19.863518    19.844758     20.63494    8134.0189    2331.5597    2181.8187    2121.0171   -67.245498    187.24596     106.2605   -4978.9216 
50731000    2.6899956   -5246.7119   -5241.5241   -5246.7119            0    2200.3312    19.884779    19.837629    20.625209    8135.9615    2217.6241    2230.8628    2152.5066   -176.42204    70.190334   -28.482237   -4980.4445 
50732000    2.6938105   -5246.7312    -5241.536   -5246.7312            0    2192.8176     19.88504    19.894419    20.545429    8127.7988    2346.2165     1969.248    2262.9882    -105.8418    69.659241   -45.026165    -4981.609 
50733000    2.7442499   -5246.2988   -5241.0062   -5246.2988            0    2265.2602    19.863585    19.838889    20.596503    8116.4939     2282.582    2338.8925     2174.306   -128.00319    324.85599    85.195086   -4972.8657 
50734000    2.7571759   -5246.8396   -5241.5221   -5246.8396            0    2174.9403    19.880945    19.825464    20.634827    8133.1957    2204.2158    2328.7562    1991.8489   -138.80594    447.66728    105.38236   -4983.5431 
50735000    2.4859062   -5246.7639   -5241.9696   -5246.7639            0    2175.9016    19.886524    19.853933    20.602425    8134.3671    2266.9868    2050.8376    2209.8802   -103.47957    334.11301    66.446496   -4983.8394 
50736000    2.5715494   -5246.7124   -5241.7529   -5246.7124            0    2148.6208    19.890133    19.887511     20.55796    8132.0144     2111.852    2066.8331    2267.1771   -102.68278    299.95012   -3.8825909   -4986.9327 
50737000    2.7579949     -5246.49   -5241.1709     -5246.49            0    2258.0954    19.869482    19.836891    20.625552    8129.5354    2242.3362     2352.981     2178.969   -81.751819    375.66083    132.37086    -4973.449 
50738000    2.8154526   -5246.8675   -5241.4376   -5246.8675            0    2181.4478     19.87751    19.848353    20.596287    8125.9731    2172.0456    2185.6177    2186.6802   -150.16404    322.28507   -21.489704   -4982.9165 
50739000    2.6228619   -5246.4165   -5241.3581   -5246.4165            0    2265.2041    19.902158    19.841538    20.573686    8124.3308     2170.943    2290.6711    2333.9982   -123.40355    262.04111    -32.02501   -4972.9653 
50740000    2.7421568   -5246.6384   -5241.3499   -5246.6384            0     2256.137    19.872781    19.835225    20.638431    8135.2792    2227.3812    2358.8497    2182.1801   -113.17642    80.474751   -95.962747   -4973.6712 
50741000    2.5898497   -5246.8101   -5241.8154   -5246.8101            0    2264.4428    19.889373    19.863061    20.577493     8129.423    2272.0207    2189.9001    2331.4076    -103.5073    165.12326    113.12549   -4973.3446 
50742000    2.6301175   -5247.1026   -5242.0302   -5247.1026            0    2228.7612    19.885429    19.857288    20.595619    8132.6065    2263.5921    2159.0601    2263.6315   -185.76719    211.69991    212.44776   -4977.6864 
50743000    2.7730016    -5246.589    -5241.241    -5246.589            0    2210.3063     19.85659    19.850293    20.629014    8131.1142    2240.6906    2248.4011    2141.8272   -98.646565    296.62741    121.10888   -4979.1341 
50744000    2.7387944   -5246.7804   -5241.4984   -5246.7804            0    2165.3519    19.848167    19.852576     20.62969     8128.866    2184.8226    2237.7482    2073.4848   -102.64275    321.87677    56.303753   -4984.7934 
50745000    2.9211517   -5246.9507    -5241.317   -5246.9507            0    2191.7789    19.886168    19.863031    20.565378    8123.3155    2204.2229    2119.1196    2251.9942   -91.753956    376.22132   -74.866655   -4981.6565 
50746000    2.9135768   -5247.2154   -5241.5963   -5247.2154            0    2158.2201    19.876774    19.851939    20.606645    8131.2277    2206.5125    2094.2482    2173.8996    -48.69903    397.49249   -82.115564   -4985.6625 
50747000    2.6095586   -5246.8632   -5241.8304   -5246.8632            0    2242.1945    19.853039    19.832227     20.66139    8135.0082    2257.4946    2365.8162    2103.2727   -147.77106    253.34095    138.25719   -4975.8148 
50748000    2.7126222   -5246.3661   -5241.1346   -5246.3661            0    2162.4425    19.896148    19.874821    20.551698    8126.8065    2130.4333    2090.8954    2265.9987   -165.40097    318.58338   -100.93076   -4984.8394 
50749000    2.6530544   -5246.7746    -5241.658   -5246.7746            0    2205.6504      19.8586    19.846722    20.608623    8122.4378    2163.9797    2262.5957     2190.376   -47.865791    258.48411   -26.086891   -4980.3823 
50750000    2.8084321   -5246.6611   -5241.2448   -5246.6611            0     2241.747    19.872413    19.849093    20.610232     8129.693    2237.9448      2208.36    2278.9362   -170.62227     243.5961   -66.837619   -4975.4561 
Loop time of 332.504 on 64 procs for 250000 steps with 972 atoms

Performance: 129.923 ns/day, 0.185 hours/ns, 751.870 timesteps/s
195.9% CPU use with 32 MPI tasks x 2 OpenMP threads

MPI task timing breakdown:
Section |  min time  |  avg time  |  max time  |%varavg| %total
---------------------------------------------------------------
Pair    | 25.705     | 33.358     | 41.317     |  70.5 | 10.03
Bond    | 0.97837    | 1.2428     | 1.4519     |   9.4 |  0.37
Kspace  | 143.69     | 151.55     | 158.84     |  31.3 | 45.58
Neigh   | 0.078383   | 0.082337   | 0.087799   |   0.9 |  0.02
Comm    | 60.708     | 63.503     | 66.445     |  17.6 | 19.10
Output  | 0.50997    | 0.51118    | 0.51311    |   0.1 |  0.15
Modify  | 68.451     | 69.946     | 71.385     |   9.2 | 21.04
Other   |            | 12.31      |            |       |  3.70

Nlocal:        30.3750 ave          36 max          26 min
Histogram: 1 2 7 5 2 3 6 1 3 2
Nghost:        2695.41 ave        2718 max        2672 min
Histogram: 2 2 3 4 5 3 5 4 2 2
Neighs:        9695.06 ave       12077 max        7869 min
Histogram: 3 5 3 5 2 4 5 2 2 1

Total # of neighbors = 310242
Ave neighs/atom = 319.17901
Ave special neighs/atom = 2.0000000
Neighbor list builds = 250
Dangerous builds = 0

unfix		3
unfix		2
unfix		1

write_data	data.final.${pid}
write_data	data.final.1
System init for write_data ...
PPPM initialization ...
  extracting TIP4P info from pair style
  using 12-bit tables for long-range coulomb (../kspace.cpp:340)
  G vector (1/distance) = 0.37183182
  grid = 24 24 24
  stencil order = 5
  estimated absolute RMS force accuracy = 0.0035552294
  estimated relative force accuracy = 1.0706468e-05
  using double precision FFTW3
  3d grid and FFT values/proc = 3211 432
Last active /omp style is kspace_style pppm/tip4p/omp
WARNING: Not all mixed pair coeffs generated from mixing. Use write_data with 'pair ij' option to store all pair coeffs. (../write_data.cpp:312)

write_restart   restart.lmp.${pid}
write_restart   restart.lmp.1
System init for write_restart ...
PPPM initialization ...
  extracting TIP4P info from pair style
  using 12-bit tables for long-range coulomb (../kspace.cpp:340)
  G vector (1/distance) = 0.37183182
  grid = 24 24 24
  stencil order = 5
  estimated absolute RMS force accuracy = 0.0035552294
  estimated relative force accuracy = 1.0706468e-05
  using double precision FFTW3
  3d grid and FFT values/proc = 3211 432
Last active /omp style is kspace_style pppm/tip4p/omp
Total wall time: 0:05:32
