LAMMPS (30 Jul 2021)
Processor partition = 0
  using 2 OpenMP thread(s) per MPI task
using multi-threaded neighbor list subroutines
variable        pid world 0 1
variable        phase world IceIh IceIII

shell cd ${phase}
shell cd IceIh
include Restart.lmp
echo both
log log.lammps
#include		in.partitions
include		in.temp
variable        temperature equal 2.72
variable	tempDamp equal 100.0
include		in.pressure
variable        pressure equal 2220.6
variable        pressureDamp equal 1000.0 # This is 1 ps
include		in.seed
variable        seed equal 745823

units		real
atom_style	full
#include		in.box
read_restart	restart.lmp.${pid}
read_restart	restart.lmp.0
Reading restart file ...
  restart file = 30 Jul 2021, LAMMPS = 30 Jul 2021
  restoring atom style full from restart
  orthogonal box = (0.16939945 0.19528510 0.17036931) to (18.038173 23.433893 22.042826)
  2 by 4 by 4 MPI processor grid
  restoring pair style lj/cut/tip4p/long/omp from restart
  restoring bond style harmonic/omp from restart
  restoring angle style harmonic/omp from restart
  864 atoms
  576 bonds
  288 angles
Finding 1-2 1-3 1-4 neighbors ...
  special bond factors lj:    0        0        0       
  special bond factors coul:  0        0        0       
     2 = max # of 1-2 neighbors
     1 = max # of 1-3 neighbors
     1 = max # of 1-4 neighbors
     2 = max # of special neighbors
  special bonds CPU = 0.002 seconds
  read_restart CPU = 0.006 seconds
include 	in.setup
variable	out_freq equal 1000
variable	out_freq2 equal 10000
variable	out_freq3 equal 1000

timestep	2.0

neigh_modify    delay 7 every 1

include		in.tip4p
# This is TIP4P/Ice

# create groups ###
group ox type 2
288 atoms in group ox
group hy type 1
576 atoms in group hy

# set charges - beside manually ###
set group ox charge -1.1794
Setting atom values ...
  288 settings made for charge
set group hy charge 0.5897
Setting atom values ...
  576 settings made for charge

# ### TIP3P Potential Parameters ###
pair_style lj/cut/tip4p/long/omp 2 1 1 1 0.1577 8.5
pair_coeff 1 1*2 0.000 0.000
pair_coeff 2 2 0.21084 3.1668
bond_style  harmonic
bond_coeff  1 450 0.9572
angle_style harmonic
angle_coeff 1 55 104.52
kspace_style pppm/tip4p/omp 1.0e-5
pair_modify tail yes

thermo          ${out_freq}
thermo          1000
thermo_style    custom step temp pe etotal epair emol press lx ly lz vol pxx pyy pzz pxy pxz pyz enthalpy

restart 	${out_freq3} restart.lmp.${pid} restart2.lmp.${pid}
restart 	1000 restart.lmp.${pid} restart2.lmp.${pid}
restart 	1000 restart.lmp.0 restart2.lmp.${pid}
restart 	1000 restart.lmp.0 restart2.lmp.0


include         in.dump
dump            myDump all atom ${out_freq2} dump.water.${pid}
dump            myDump all atom 10000 dump.water.${pid}
dump            myDump all atom 10000 dump.water.0
dump            myDump2 all dcd ${out_freq2} dump.dcd
dump            myDump2 all dcd 10000 dump.dcd
dump_modify     myDump append yes
dump_modify     myDump2 append yes


variable natoms 	equal  "count(all)"                        # NUMBER ATOMS
variable H      	equal  "enthalpy/v_natoms"                 # ENTHALPY-per-atom
variable Vol      	equal  "vol/v_natoms"                 # volume-per-atom
fix AVG all 		ave/time ${out_freq} 1 ${out_freq} v_Vol v_H file vol_enthalpy.dat
fix AVG all 		ave/time 1000 1 ${out_freq} v_Vol v_H file vol_enthalpy.dat
fix AVG all 		ave/time 1000 1 1000 v_Vol v_H file vol_enthalpy.dat


timer           timeout 23:50:00 every 1000
New timer settings: style=normal  mode=nosync  timeout=23:50:00

fix 		1 all shake 1e-6 200 0 b 1 a 1
Finding SHAKE clusters ...
       0 = # of size 2 clusters
       0 = # of size 3 clusters
       0 = # of size 4 clusters
     288 = # of frozen angles
  find clusters CPU = 0.001 seconds
fix             2 all nph aniso ${pressure} ${pressure} ${pressureDamp}
fix             2 all nph aniso 2220.6 ${pressure} ${pressureDamp}
fix             2 all nph aniso 2220.6 2220.6 ${pressureDamp}
fix             2 all nph aniso 2220.6 2220.6 1000
fix             3 all temp/csvr ${temperature} ${temperature} ${tempDamp} ${seed}
fix             3 all temp/csvr 2.72 ${temperature} ${tempDamp} ${seed}
fix             3 all temp/csvr 2.72 2.72 ${tempDamp} ${seed}
fix             3 all temp/csvr 2.72 2.72 100 ${seed}
fix             3 all temp/csvr 2.72 2.72 100 745823


run             250000
PPPM initialization ...
  extracting TIP4P info from pair style
  using 12-bit tables for long-range coulomb (../kspace.cpp:340)
  G vector (1/distance) = 0.37226804
  grid = 24 27 25
  stencil order = 5
  estimated absolute RMS force accuracy = 0.0030959961
  estimated relative force accuracy = 9.3235004e-06
  using double precision FFTW3
  3d grid and FFT values/proc = 4410 672
Last active /omp style is kspace_style pppm/tip4p/omp
Neighbor list info ...
  update every 1 steps, delay 7 steps, check yes
  max neighbors/atom: 2000, page size: 100000
  master list distance cutoff = 10.8154
  ghost atom cutoff = 10.8154
  binsize = 5.4077, bins = 4 5 5
  1 neighbor lists, perpetual/occasional/extra = 1 0 0
  (1) pair lj/cut/tip4p/long/omp, perpetual
      attributes: half, newton on, omp
      pair build: half/bin/newton/omp
      stencil: half/bin/3d
      bin: standard
Setting up Verlet run ...
  Unit style    : real
  Current step  : 50500000
  Time step     : 2
  Walltime left : 23:49:59.93
Per MPI rank memory allocation (min/avg/max) = 10.21 | 10.22 | 10.23 Mbytes
Step Temp PotEng TotEng E_pair E_mol Press Lx Ly Lz Volume Pxx Pyy Pzz Pxy Pxz Pyz Enthalpy 
50500000     2.912534   -4734.8135   -4729.8216   -4734.8135            0    2197.3879    17.868774    23.238608    21.872457    9082.4376    1971.0849    2354.0358    2267.0429   -123.36793     11.07339    145.72225   -4438.7599 
50501000    2.7707487   -4735.0237   -4730.2747   -4735.0237            0    2234.6985    17.902584    23.224088    21.841088    9080.8948    2135.3505    2307.1134    2261.6314    21.751188    36.113672   -7.2083201   -4434.3212 
50502000    2.7729565   -4734.7437    -4729.991   -4734.7437            0    2211.3323    17.891448     23.21915    21.857049    9079.9474     2165.983    2185.2687    2282.7453    -83.11733   -6.3745476    83.861951   -4437.1626 
50503000    2.7819842   -4735.3225   -4730.5543   -4735.3225            0    2212.8581    17.858933    23.271446     21.85326    9082.2847    2239.7519    2216.9577    2181.8648        -72.5   -34.813393    109.50798   -4437.4484 
50504000    2.5270236   -4734.7336   -4730.4024   -4734.7336            0    2189.0279    17.820491    23.285108    21.890115    9083.3486    2257.0426    2133.3971     2176.644   -88.065575   -21.166814   -4.3016705   -4440.4189 
50505000    2.8472197    -4735.099    -4730.219    -4735.099            0    2197.1192    17.832659    23.276407    21.879388    9081.7012     2217.113    2142.3236    2231.9211   -15.092705    64.985055   -28.919384   -4439.2165 
50506000    2.8737157   -4735.2986   -4730.3732   -4735.2986            0    2205.2909    17.852673    23.246733    21.883722     9082.102     2202.864    2199.3528     2213.656    14.817621   -76.857781     85.35753   -4438.2755 
50507000    2.7731883   -4735.0799   -4730.3267   -4735.0799            0     2200.818    17.906886    23.207252    21.861931     9085.154    2092.7906     2261.709    2247.9543   -90.029751   -44.278443    34.165185   -4438.7235 
50508000    2.7949745    -4734.887   -4730.0965    -4734.887            0    2234.8306    17.918669     23.19248    21.849991    9080.3833    2178.0091    2302.3712    2224.1114    62.845969    3.1503633    31.232554   -4434.1422 
50509000    2.8234842      -4734.9   -4730.0606      -4734.9            0     2197.944    17.887761    23.226664    21.861185    9082.7324    2181.9119    2237.1317    2174.7883   -42.306675    52.038688    75.991565   -4438.9158 
50510000    2.7819749   -4735.1908   -4730.4226   -4735.1908            0    2196.7475    17.823135    23.296966    21.877573    9084.1147    2299.4507    2105.0902    2185.7015   -27.912386   -74.021513    66.360411    -4439.392 
50511000    2.7373007   -4734.8562   -4730.1646   -4734.8562            0    2217.2088    17.824603    23.310477    21.858073    9082.0293     2277.384    2123.5394     2250.703   -148.20139   -8.5498391    80.449571   -4436.4906 
50512000    2.8382562   -4734.9573   -4730.0926   -4734.9573            0    2212.0478    17.878075    23.253063    21.850699    9083.7727    2221.0558    2170.1248    2244.9628   -42.769707    50.259785    74.769103    -4437.046 
50513000      2.79526   -4734.7074   -4729.9164   -4734.7074            0    2207.7698    17.893938    23.240048    21.838581    9081.7043    2158.8767    2216.6284    2247.8042   -28.466337   -16.566167    119.49495   -4437.5032 
50514000    2.5696789   -4735.1042   -4730.6999   -4735.1042            0    2215.3433    17.917172    23.195727    21.854313    9082.6924    2167.0685    2299.3845    2179.5769    36.712244   -42.945774    71.639175   -4437.2516 
50515000     2.769304   -4735.2245    -4730.478   -4735.2245            0    2213.5753    17.887349    23.224723    21.862459    9082.2936    2245.4671    2238.9753    2156.2834    -69.52365    72.698494    81.125721   -4437.2768 
50516000    2.6659797   -4734.7112   -4730.1418   -4734.7112            0    2236.4397    17.843042    23.277905    21.855469    9077.6395    2303.3951    2163.1483    2242.7757   -200.31829    27.346038    101.23668   -4434.0639 
50517000    2.6603896   -4734.8188   -4730.2589   -4734.8188            0    2217.5629    17.825859    23.280821    21.883213    9081.5476    2250.5479    2160.2839     2241.857   -108.88636   -138.63457    13.197407   -4436.5537 
50518000    2.5704023   -4735.1227   -4730.7171   -4735.1227            0    2215.5162    17.826625    23.278743    21.886377      9082.44    2338.1338    2222.7274    2085.6876    24.538909   -14.524637    105.92257   -4437.2541 
50519000    2.7940946   -4735.1869    -4730.398   -4735.1869            0    2194.3325      17.8884    23.236068    21.851678    9082.7823    2185.3893    2206.7903    2190.8179    24.916268    127.41783    97.810964     -4439.73 
50520000    2.6318543   -4734.9608   -4730.4499   -4734.9608            0    2225.6357    17.914477    23.188705    21.857338    9079.8339    2182.3581    2352.8388    2141.7102   -156.71488    14.331749   -25.970497   -4435.7311 
50521000    2.8218723   -4735.5387   -4730.7021   -4735.5387            0     2250.184    17.887792    23.234915     21.84581    9079.5844    2225.4479    2243.4602    2281.6438   -72.554106   -204.88343    64.992426   -4432.7408 
50522000    2.8613366   -4735.1289   -4730.2247   -4735.1289            0    2209.9201    17.856302    23.247276    21.875233     9080.636    2276.9584    2224.6833    2128.1186    48.015078   -2.1976185    141.70724   -4437.5611 
50523000    2.6303586   -4735.0127   -4730.5044   -4735.0127            0    2198.6927    17.823215    23.299471    21.867821    9081.0825     2222.439    2168.0999    2205.5392   -91.412858    90.899665   -6.7650225   -4439.3133 
50524000    2.9069825   -4734.6652   -4729.6828   -4734.6652            0     2226.353    17.841704     23.26442    21.870389    9077.8931    2239.7224    2237.9726    2201.3639   -43.901495   -44.395892    7.9583907    -4434.932 
50525000    2.6434044    -4734.892   -4730.3613    -4734.892            0    2217.5236    17.875152    23.254459    21.850539    9082.7661    2225.9008    2253.6558    2173.0143   -81.143952   -100.42603    147.81534   -4436.6218 
50526000    2.8192263   -4734.6798   -4729.8478   -4734.6798            0    2244.8248    17.923853    23.189395    21.845848    9080.0805    2181.2193     2294.225    2259.0301   -144.47639    108.19306    73.054525   -4432.5798 
50527000    2.7095533   -4734.8156   -4730.1715   -4734.8156            0      2211.74    17.899921    23.221735    21.849948    9082.3069     2187.718    2242.1144    2205.3876   -82.779309     93.27567   -29.646054    -4437.213 
50528000     2.609153   -4735.0131   -4730.5411   -4735.0131            0    2190.8316    17.853703    23.250517    21.880653    9082.8305    2196.2053    2212.1228    2164.1668   -12.614368   -160.25189     57.41435   -4440.3353 
50529000     2.602107   -4735.1778   -4730.7179   -4735.1778            0    2228.6418    17.849099    23.284571    21.853411    9082.4657    2255.8509    2161.2441    2268.8305   -85.341565   -73.935257    163.00649   -4435.5155 
50530000    2.7732235   -4734.9383   -4730.1851   -4734.9383            0    2211.8711    17.831505    23.299776    21.854597    9079.9312    2233.0081    2163.8719    2238.7332   -139.01679    140.55295    -28.40528   -4437.2858 
50531000    2.8606091   -4734.9659   -4730.0629   -4734.9659            0    2227.1599    17.870549    23.245661    21.859959     9080.905     2182.032    2208.8946    2290.5531   -48.211239   -39.008809   -15.129869   -4435.1075 
50532000    2.8437202   -4735.0291    -4730.155   -4735.0291            0    2226.4647    17.901573     23.21416    21.849386    9079.9484    2169.1197    2218.0698    2292.2045   -27.915963   -111.60608    228.42442   -4435.3227 
50533000     2.672389   -4735.0134    -4730.433   -4735.0134            0    2205.6458    17.916327    23.213352    21.837751    9082.2767    2129.6098    2243.5811    2243.7466   -63.469414    -27.23847    68.812989   -4438.2826 
50534000    2.6687885   -4735.0901   -4730.5159   -4735.0901            0    2244.2634    17.866119    23.266855    21.840413    9078.8064    2242.3882    2234.4007    2256.0014   -4.1533534    54.764211   -35.964628    -4433.364 
50535000    2.7296777   -4735.5523   -4730.8737   -4735.5523            0    2193.3069    17.835594    23.289234    21.863724    9081.6953    2232.9382    2171.2896     2175.693    -72.84444    6.2760148    98.942283   -4440.3763 
50536000    2.5843825   -4735.0512   -4730.6217   -4735.0512            0    2221.6087     17.83154     23.27929    21.879668    9082.3723    2307.2583    2174.3733    2183.1947    23.702717   -73.461353    120.49199   -4436.3539 
50537000    2.8010032   -4735.2516   -4730.4507   -4735.2516            0    2202.6192    17.875207    23.251446    21.849982     9081.386    2146.4583    2213.8671    2247.5322    11.221536   -14.185295    -22.02752   -4438.7299 
50538000    2.7905189    -4735.031   -4730.2482    -4735.031            0    2229.5266    17.913029    23.198065    21.848804    9079.2184    2164.0972    2355.1135    2169.3692    96.357748    105.52003   -18.445104   -4435.0341 
50539000    2.6087989   -4734.7993   -4730.3279   -4734.7993            0    2273.2382    17.900267    23.220703      21.8456    9080.2716    2229.9051    2317.2825     2272.527    -141.3716   -41.402183    164.90586   -4429.2911 
50540000    2.7364997   -4735.2768   -4730.5865   -4735.2768            0    2229.4675    17.887212     23.21943    21.864713    9081.0899     2210.628    2252.6096     2225.165   -79.838978   -98.673221   -10.116745   -4435.3195 
50541000    2.7177723   -4734.8944   -4730.2362   -4734.8944            0    2214.1655     17.85126    23.263395    21.866734    9080.8375    2236.4644    2160.4437    2245.5884    -27.33099    38.890116   -6.0211824   -4437.0039 
50542000    2.6460104   -4734.9255   -4730.3904   -4734.9255            0    2246.8567    17.835317    23.290579    21.860344    9080.6744    2303.8001    2248.5239    2188.2461    86.005057    45.856387    61.374824   -4432.8339 
50543000    2.7757737   -4734.8234   -4730.0658   -4734.8234            0    2193.6231    17.852632    23.273051     21.85904    9082.1081    2263.8781    2136.8991     2180.092   -74.993492   -72.400355    108.39267   -4439.5134 
50544000    2.8700851   -4735.2341   -4730.3149   -4735.2341            0     2227.615    17.888944    23.242597    21.840796    9081.0866    2214.5385     2254.914    2213.3923   -215.83442   -65.316365   -70.577935   -4435.2933 
50545000    2.4956423   -4735.3307   -4731.0533   -4735.3307            0    2233.0919    17.928409    23.187286    21.842656    9080.2359    2173.0754    2257.6707    2268.5295   -71.112962    51.132828    52.721183    -4435.334 
50546000    2.8027418   -4735.1559   -4730.3521   -4735.1559            0    2235.1219    17.877473     23.24009    21.855066    9080.2134    2239.6091     2233.867    2231.8897   -17.935572    -30.93149    124.46713   -4434.3647 
50547000    2.6938891   -4735.0467   -4730.4295   -4735.0467            0    2232.0738    17.850031    23.288049    21.847809    9081.9677    2253.8488    2163.2139    2279.1586   -89.076198   -63.918297    4.6377416   -4434.7887 
50548000    2.6365747   -4735.0002   -4730.4812   -4735.0002            0    2198.5423    17.829873    23.290665     21.87008    9081.9794    2294.1593    2153.4176    2148.0501   -96.916291    9.0405012    20.738358   -4439.2813 
50549000    2.8297677   -4734.9638   -4730.1137   -4734.9638            0    2228.6015    17.856121    23.275723    21.845377    9079.2471    2293.5517    2182.6827    2209.5702    -50.22688    18.186043    73.163176   -4435.0212 
50550000    2.6785161   -4734.9535   -4730.3626   -4734.9535            0    2227.2499    17.898814    23.214565    21.855248    9081.1433    2099.6314    2274.9635    2307.1547   -136.98147   -67.868985    49.195852   -4435.3875 
50551000    2.7898299   -4735.0162   -4730.2345   -4735.0162            0    2207.4988    17.896779    23.233161    21.839192    9080.7082     2170.109     2236.257    2216.1305    -138.7606    -5.158987    30.831005   -4437.8892 
50552000    2.8426676   -4735.3456   -4730.4733   -4735.3456            0    2215.9116    17.897974    23.228848    21.842544    9081.0223    2105.9153    2233.8465     2307.973   -91.902287    8.9696021    102.13908   -4437.0038 
50553000    2.7035504   -4735.0211   -4730.3873   -4735.0211            0    2233.2558    17.826527    23.293816    21.861953    9078.1286    2325.9958    2175.5659    2198.2057    7.3343985     28.91815   -37.375224    -4434.715 
50554000    2.7406048   -4734.9026   -4730.2053   -4734.9026            0    2212.0022    17.826657    23.312427    21.852815    9081.6503     2268.222    2092.2759    2275.5086    77.343101    4.8656389    41.858891   -4437.2332 
50555000    2.7984674   -4735.1948   -4730.3984   -4735.1948            0    2199.2342    17.860695    23.276176    21.851002    9084.0882       2168.3    2158.3998    2271.0027   -6.5400371   -13.509744    84.230461   -4439.0392 
50556000    2.7818769   -4734.7087   -4729.9406   -4734.7087            0    2203.4681    17.918409    23.217647     21.82885    9081.3101    2153.8913    2256.8472    2199.6658   -126.89298    27.251317     56.76275   -4438.1098 
50557000    2.6863152   -4734.9663   -4730.3621   -4734.9663            0    2236.2142    17.912604    23.224832    21.822084    9078.3626    2132.0556    2236.3503    2340.2367   -89.955377   -8.9106479    4.0797116   -4434.2904 
50558000    2.7082098   -4735.3706   -4730.7288   -4735.3706            0    2175.4066    17.908372    23.229913    21.837534    9084.6309    2102.7421    2192.9261    2230.5517   -39.348139     26.11953    149.92642   -4442.5092 
50559000     2.765716    -4735.151   -4730.4106    -4735.151            0    2197.6904    17.859955     23.27776    21.842978    9080.9943    2236.9969     2165.419    2190.6554   -48.625029    19.559007    100.78515   -4439.3551 
50560000    2.6397207   -4735.2368   -4730.7124   -4735.2368            0    2226.7572     17.83168    23.300309    21.859619    9082.3148      2285.85    2208.2649    2186.1566   -139.04475   -54.551832   -38.360376   -4435.7645 
50561000     2.733749   -4735.1063   -4730.4208   -4735.1063            0    2219.6297    17.847434    23.271731    21.866909    9082.2172    2229.6977    2181.0031    2248.1882   -64.889672   -16.296224    92.104456   -4436.4201 
50562000    2.8244254   -4735.4201   -4730.5792   -4735.4201            0     2182.006    17.880944    23.254053    21.844525    9083.0502    2194.5615    2127.2955    2224.1611    42.813616    20.796901     32.34165   -4441.5354 
50563000    2.6530514   -4734.6581   -4730.1109   -4734.6581            0    2241.3616    17.926449    23.180696     21.85181    9080.4666    2092.9317    2316.7828    2314.3704   -64.982289   -57.143321   -62.572563   -4433.2889 
50564000    2.8006075   -4735.0898   -4730.2897   -4735.0898            0    2254.0237    17.909034    23.224833    21.833319    9081.2271    2182.1883    2273.0952    2306.7876   -88.835134   -15.560059    103.28338   -4431.7659 
50565000    2.7201746   -4735.4249   -4730.7626   -4735.4249            0    2203.4154    17.877438     23.25723    21.845068    9082.7354    2169.0503    2187.8709     2253.325   -25.136138    18.755633    129.63122    -4438.893 
50566000    2.9176943   -4735.1333   -4730.1324   -4735.1333            0    2232.3345    17.825462    23.298762     21.86952    9082.6567      2303.64    2190.4486    2202.9149     1.570478   -57.709471    32.383442   -4434.4347 
50567000     2.607812   -4735.4718   -4731.0021   -4735.4718            0    2235.2343    17.849976    23.279449    21.856249    9082.0933    2301.2884    2205.5964     2198.818   -43.846369   -90.362115    7.0899813   -4434.9386 
50568000      2.78163   -4735.2723   -4730.5047   -4735.2723            0    2224.0144    17.879781    23.251277    21.846361    9082.1377    2177.7444    2216.6701    2277.6287   -135.81002   -6.5250854    107.19293   -4435.9259 
50569000    2.5986395    -4735.252    -4730.798    -4735.252            0    2215.4758    17.908336    23.211417    21.848002    9081.7304    2155.5368    2289.8613    2201.0293    28.081667    13.127723    57.137351   -4437.3633 
50570000    2.6462323   -4734.7559   -4730.2204   -4734.7559            0    2256.3602     17.90349    23.214164    21.844219    9078.7754     2204.119    2277.4175    2287.5442   -11.794207   -74.889316    -18.77078   -4431.4678 
50571000    2.7292647   -4735.1478   -4730.4699   -4735.1478            0    2227.8762    17.878557    23.262199    21.834241    9080.7422    2199.4003    2207.1099    2277.1185   -19.845364   -45.136407    58.592855   -4435.4249 
50572000    2.8020881   -4734.5578   -4729.7552   -4734.5578            0    2216.3474    17.821654    23.308805    21.857742    9079.7382      2276.76    2164.2039    2208.0783   -17.225943  -0.33161677    107.81741   -4436.2694 
50573000     2.590606   -4735.2259   -4730.7857   -4735.2259            0    2242.1987    17.841937    23.282264    21.860073    9080.6895    2282.8217    2180.0349    2263.7396    36.527035    35.170892   -24.428938   -4433.8456 
50574000     2.922109   -4735.2745   -4730.2661   -4735.2745            0     2250.514    17.854246    23.274125    21.849292    9079.2976    2279.7896    2233.1996    2238.5526   -84.627227   -101.34331    4.7074944   -4432.2705 
50575000    2.6764928   -4734.9476   -4730.3602   -4734.9476            0    2226.8519    17.899855    23.203853    21.862808     9080.621    2160.9382    2267.7319    2251.8854   -61.848418   -19.101831    106.81926   -4435.4547 
50576000    2.6030098   -4735.0645   -4730.6031   -4735.0645            0    2199.3425    17.918647     23.20175    21.845937    9082.3165    2120.7826    2264.8039    2212.4411     44.15135   -26.266346    42.654503   -4439.2864 
50577000    2.7543442   -4735.4922   -4730.7713   -4735.4922            0    2192.0233    17.882345    23.225742    21.868672    9082.7314     2131.808    2208.4987    2235.7634   -47.616971   -4.6423698   -6.4317066   -4440.4108 
50578000    2.9201508   -4735.0499   -4730.0449   -4735.0499            0    2263.1917    17.837871    23.278503    21.865123    9079.2506     2301.822    2206.3109    2281.4421   -82.697217    4.9114288    99.507003   -4430.3721 
50579000    2.7550193   -4734.9255   -4730.2035   -4734.9255            0    2238.4237    17.831367     23.31335    21.841469    9079.6933    2310.2974    2159.7003    2245.2734   -59.142043    1.5594463    127.94616   -4433.7959 
50580000    2.8794295   -4734.9275   -4729.9923   -4734.9275            0    2223.4734    17.849698    23.282226    21.848998    9080.0222    2242.6184    2213.3662    2214.4355    -6.457378   -87.378458   -3.1662448   -4435.5537 
50581000    2.7532777   -4735.2219   -4730.5028   -4735.2219            0    2234.1451    17.892839    23.231664    21.845296    9080.6619    2208.7924    2272.9636    2220.6793   -1.8868239   -36.969907    44.813249   -4434.6302 
50582000    2.5828033    -4735.005   -4730.5782    -4735.005            0    2252.5725     17.91367    23.214619    21.836014    9080.7036     2189.337    2309.9604    2258.4201   -55.539527    59.349703    212.61795   -4432.2638 
50583000    2.5875708   -4735.1348   -4730.6998   -4735.1348            0    2217.3284    17.891886    23.230421    21.842305    9078.4491    2178.3591    2239.1173     2234.509   -88.759392   -118.84175    24.319904   -4437.1258 
50584000    2.7570041   -4734.8014    -4730.076   -4734.8014            0    2250.8023    17.858186    23.261502    21.856416    9079.3349    2256.5275    2195.3939    2300.4855    92.553515   -124.58972    30.602423    -4432.041 
50585000    2.6389969   -4735.0332   -4730.5101   -4735.0332            0    2223.6667    17.824806    23.290223    21.877795    9082.4288    2310.1403    2197.7367     2163.123   -56.025591    53.533404    195.89294   -4435.9678 
50586000    2.7528926   -4735.1059   -4730.3875   -4735.1059            0    2220.4822    17.849765    23.276593    21.857819    9081.5238    2274.4569    2159.0549    2227.9347   -27.421127    41.184626   -2.7877137   -4436.2964 
50587000    2.7319089   -4735.2819   -4730.5995   -4735.2819            0     2241.333    17.886479    23.237736    21.846922    9080.4824    2212.8004    2250.8617     2260.337   -65.510351   -83.614588   -29.163835   -4433.7808 
50588000    2.7570706   -4734.7473   -4730.0218   -4734.7473            0    2244.4514    17.905645    23.205992    21.846081    9077.4456    2173.3945    2313.6997      2246.26    62.616774    59.260136    120.17379   -4432.8896 
50589000    2.5408714   -4735.0149   -4730.6599   -4735.0149            0     2227.192    17.908862    23.205727    21.854417    9082.4368    2132.0335    2318.6323    2230.9104   -45.199391     10.77581    94.316657   -4435.6504 
50590000    2.6925332   -4735.1067   -4730.4918   -4735.1067            0    2214.3735    17.854866    23.264841    21.857816    9079.5315    2236.8058    2223.1405    2183.1743    -83.46605   -26.120834    -30.85713   -4437.2741 
50591000    2.6345871   -4735.2881   -4730.7725   -4735.2881            0    2179.2998    17.833685    23.294999    21.860773    9081.7452    2183.5071    2145.5918    2208.8004    -19.16921   -61.775331    50.170958   -4442.1288 
50592000    2.8540995   -4735.1051   -4730.2132   -4735.1051            0    2209.3603    17.821333    23.304003    21.862243    9079.5731      2261.54    2185.4838    2181.0571   -55.406253    31.619453    80.376148    -4437.658 
50593000    2.5907597   -4735.0818   -4730.6414   -4735.0818            0    2216.4777    17.885957    23.256593    21.833322    9081.9287    2251.7365    2196.6664    2201.0301   -82.938077   -97.936249    -8.390979   -4437.0675 
50594000    2.6735467   -4735.1519   -4730.5695   -4735.1519            0    2177.9054    17.902969     23.21238    21.853555     9081.693    2122.9015    2182.6252    2228.1896   -98.231645     3.340479    61.465212   -4442.1121 
50595000    2.5624382   -4734.9758   -4730.5839   -4734.9758            0    2240.8554    17.912539    23.206956    21.846663    9081.5592     2132.649    2254.2216    2335.6957   -67.043591   -3.9182619    174.72641   -4433.7933 
50596000    2.8330405   -4734.9204   -4730.0647   -4734.9204            0     2185.311    17.871604    23.253534    21.855307    9082.5836    2189.8507    2154.9151    2211.1672   -16.060475      12.5375   0.16193493    -4440.598 
50597000     2.816446   -4735.0258   -4730.1985   -4735.0258            0    2211.4079    17.828063    23.305654     21.85739    9081.6292    2311.3858    2114.3989    2208.4391   -5.6440963   -68.590144     44.59405   -4437.3058 
50598000    2.6510131   -4735.5576   -4731.0138   -4735.5576            0    2211.5333    17.835597     23.28159    21.871932     9082.124    2245.7477    2124.0696    2264.7827     12.69835    33.970163    86.619635   -4438.0886 
50599000    2.7151165   -4735.1006    -4730.447   -4735.1006            0    2226.0987    17.871225    23.267928    21.838448     9081.003    2250.4066    2256.4671    2171.4223   -175.26148   -4.5265252    31.041604   -4435.6289 
50600000    2.7942832   -4735.4425   -4730.6532   -4735.4425            0    2223.0763    17.910488    23.220093    21.834699     9080.684    2204.2836    2235.9122    2229.0333    -104.7378   -45.523104   -44.646967   -4436.2458 
50601000    2.6544355   -4735.2247   -4730.6751   -4735.2247            0    2229.7442    17.915442    23.205604    21.841838     9080.496    2166.5906    2248.3768    2274.2653   -46.388557    15.981992    114.22178   -4435.3907 
50602000    2.8174602   -4735.1298   -4730.3008   -4735.1298            0    2217.0039    17.884524    23.235422    21.857972    9083.1779    2202.5179    2257.1706    2191.3232   -17.409976    -55.65706    45.333966   -4436.6169 
50603000    2.7271233   -4734.7189   -4730.0447   -4734.7189            0    2226.7967    17.832057    23.283126    21.870718    9080.4167    2282.1273    2162.1359    2236.1269   -30.296465    -3.280284    41.839655   -4435.1533 
50604000    2.7485235   -4735.1067   -4730.3959   -4735.1067            0    2186.3842    17.828602    23.289859    21.874488     9082.848    2284.1643    2101.2363    2173.7521   -151.02158   -57.335403    72.627318   -4440.7786 
50605000     2.844481   -4735.2417   -4730.3663   -4735.2417            0     2185.293    17.852913    23.277442    21.854666    9082.1469    2207.1717    2148.6662    2200.0411   -40.656883     64.24649    106.07223    -4440.916 
50606000    2.6327262   -4735.3467   -4730.8343   -4735.3467            0    2228.5497     17.89867    23.210682    21.859094    9081.1495    2161.1928     2225.356    2299.1003     -50.2581   -31.541158   -12.930877   -4435.6868 
50607000    2.6097333   -4735.1242   -4730.6512   -4735.1242            0    2221.1841    17.907536    23.198943    21.856995    9080.1808    2168.4444    2268.0426    2227.0652    37.918095     22.51307    143.35153   -4436.5106 
50608000    2.7067774   -4734.9191   -4730.2798   -4734.9191            0    2212.2279    17.898842    23.217839    21.850656    9080.5305    2120.0697    2278.4623    2238.1517   -80.240412   -89.334837    76.995423    -4437.314 
50609000    2.7174888   -4734.9583   -4730.3006   -4734.9583            0    2220.2095    17.834488    23.269629    21.880097    9080.2817    2219.2996    2200.9752    2240.3536   -59.327931    45.027341    52.830974   -4436.2858 
50610000    2.6354216   -4734.9441   -4730.4271   -4734.9441            0    2239.0187    17.819217    23.307966    21.862949    9080.3323    2343.7634    2152.4479    2220.8447    62.056989   -43.081907    17.366604   -4433.9199 
50611000    2.7722465   -4734.9671   -4730.2155   -4734.9671            0    2214.5136     17.85991    23.261307    21.863367    9083.0235    2243.5892    2251.7751    2148.1763    52.031903   -92.171448    70.690956   -4436.8665 
50612000    2.8416475   -4735.3221   -4730.4516   -4735.3221            0    2215.7529    17.890779    23.237217    21.844593    9081.4946    2187.8881    2237.8336    2221.5369    -143.5844    74.114904    24.389485   -4436.9878 
50613000     2.687096   -4734.9734   -4730.3678   -4734.9734            0    2218.4794    17.921785    23.212079    21.833569     9082.806    2192.7833    2220.8917    2241.7632   -31.914394    58.267538    18.863324   -4436.5004 
50614000    2.9367952    -4734.794   -4729.7604    -4734.794            0    2191.8391    17.883874    23.221964    21.865858    9080.8623    2171.8439    2198.2479    2205.4254    -37.01408   -31.913032    96.747909   -4439.4841 
50615000    2.9632957    -4735.555    -4730.476    -4735.555            0    2182.8483    17.850264    23.287442     21.84962     9082.603    2249.4702    2098.8534    2200.2214   -77.992777   -45.840139    6.5198094   -4441.3349 
50616000    2.5866134   -4734.9346   -4730.5013   -4734.9346            0    2218.9384    17.834431    23.285242    21.871423    9082.7434    2294.4356    2223.1339    2139.2459   -63.413033    83.129222    67.941679   -4436.5751 
50617000    2.6849678   -4735.3598   -4730.7578   -4735.3598            0    2223.0598    17.836177    23.303712    21.844324    9079.5744    2215.2347    2171.0778     2282.867    10.674791   -69.506691   -5.7841432   -4436.3885 
50618000    2.7071074   -4735.1769    -4730.537   -4735.1769            0    2227.8934    17.889801    23.240402    21.836571    9078.9079    2153.8728    2246.2137    2283.5936   -113.37681    -39.91014    99.752008   -4435.5493 
50619000       2.7021   -4734.9871   -4730.3558   -4734.9871            0    2222.8639    17.923448    23.204304    21.835947     9081.595    2200.5701    2201.2732    2266.7485   -90.246704   -7.2934868    49.921267   -4435.9469 
50620000    2.5896222   -4735.2765    -4730.838   -4735.2765            0    2231.4874    17.900755    23.220324    21.843129     9079.344    2129.4658    2270.7929    2294.2036   -57.769789    65.300604    44.445226   -4435.3602 
50621000    2.7681236   -4735.1382   -4730.3937   -4735.1382            0    2240.5335    17.874208    23.255292     21.84672    9081.0246    2289.9586    2203.5946    2228.0471   -121.05027   -108.19865    16.064638   -4433.6632 
50622000    2.8192396   -4734.9352   -4730.1031   -4734.9352            0    2249.3024    17.831425    23.310235    21.844992    9079.9735    2346.5554    2135.2174    2266.1345   -202.30891    22.695387    158.96652   -4432.2457 
50623000    2.6216367   -4735.2601   -4730.7667   -4735.2601            0    2217.0785    17.830634    23.296669    21.860897    9080.8937    2289.6894    2161.7781     2199.768   -90.255245   -6.9141027    3.8492056   -4437.1468 
50624000    2.7303149   -4734.9514   -4730.2718   -4734.9514            0    2220.7281    17.870353    23.260567    21.848369    9081.8107    2211.4699    2219.0506    2231.6639   -43.165788   -23.277081    41.012608   -4436.1388 
50625000    2.7877491   -4735.2419   -4730.4638   -4735.2419            0    2187.5711    17.915315    23.217092    21.833855    9081.6064     2110.969    2262.1188    2189.6255   -74.824318   -34.518651      89.8738   -4440.7289 
50626000    2.6340638   -4735.1184   -4730.6037   -4735.1184            0    2253.0047    17.916382    23.205418    21.841564     9080.786    2194.7927    2324.5591    2239.6622    -147.4731    72.219584    46.322236   -4432.2294 
50627000    2.7663923   -4735.2679   -4730.5264   -4735.2679            0    2209.3411    17.863075    23.275211    21.842378    9081.3366    2171.8583    2252.6926    2203.4724    14.955669    40.863998    31.149667   -4437.9169 
50628000    2.7740441   -4735.2546      -4730.5   -4735.2546            0    2251.1702    17.837655    23.297632    21.853426    9081.7404    2306.6385     2198.545    2248.3271   -79.223936   -39.125137    127.83546   -4432.3373 
50629000    2.7970845   -4734.9167   -4730.1226   -4734.9167            0    2219.7002    17.842406    23.291235    21.858159    9083.6317      2280.54    2126.6183    2251.9424   -158.13693   -89.228086     20.44002   -4436.0668 
50630000    2.7429849   -4735.5277   -4730.8263   -4735.5277            0    2215.7104    17.848274    23.280694    21.850793    9079.4459    2252.5287    2196.2466    2198.3557   -163.16311   -49.165142    97.468466   -4437.4344 
50631000    2.6269796   -4735.1738   -4730.6713   -4735.1738            0    2244.8161     17.91066    23.233998    21.819771    9079.9976    2159.1752      2284.48     2290.793    15.351388    24.656003    15.842141   -4433.4072 
50632000     2.760351   -4734.8282    -4730.097   -4734.8282            0    2187.1099    17.923234    23.197005    21.850589    9084.7179    2110.2937    2206.1352    2244.9007    -76.02827    -61.72746    75.873928    -4440.324 
50633000    2.6071067   -4735.0371   -4730.5686   -4735.0371            0    2237.7414     17.88804    23.233634    21.848995    9080.5336     2234.141    2241.9344    2237.1487    -64.66823   -19.143372    75.313051    -4434.224 
50634000    2.8299135   -4735.1013    -4730.251   -4735.1013            0    2235.9084    17.841577    23.294977    21.850089    9081.3147    2249.8441    2194.7815    2263.0998   -8.0758291    58.246772    63.390425   -4434.1235 
50635000    2.4994485   -4735.1612   -4730.8772   -4735.1612            0    2202.5801    17.840078    23.294438    21.856065    9082.8253    2282.9643    2165.7449    2159.0311    -122.9204   -42.967584   -4.1732558   -4439.1153 
50636000    2.8303513   -4735.2449   -4730.3937   -4735.2449            0    2246.5756    17.850451    23.286497     21.84226    9079.2701    2235.1564    2180.3198    2324.2506   -9.0628906   -17.755851    120.84376   -4432.9205 
50637000    2.6590783   -4735.2187   -4730.6611   -4735.2187            0    2218.3225    17.916207    23.199768    21.852107    9082.8691    2162.4002    2294.4727    2198.0948   -108.56648   -30.404757     86.78143   -4436.8125 
50638000    2.7193706   -4735.0748   -4730.4139   -4735.0748            0    2216.8139    17.906305    23.217062    21.843206    9080.9153    2162.2784    2267.9101    2220.2533   -151.92358    20.071919    32.749468   -4436.8283 
50639000    2.6241674   -4735.2664   -4730.7687   -4735.2664            0    2220.6204    17.879043    23.240792    21.850622    9079.4385    2208.9884    2244.0214    2208.8512   -40.295356    -49.32855    13.245089   -4436.7268 
50640000    2.7768492   -4735.2149   -4730.4555   -4735.2149            0    2205.0536    17.856149    23.263662     21.86602    9083.1319    2262.2777    2168.3745    2184.5086   -91.525794   -66.049399    67.930511   -4438.3561 
50641000    2.6772188   -4735.1698   -4730.5812   -4735.1698            0    2207.5219    17.817335    23.312907    21.861056    9080.5114    2274.0037    2120.9805    2227.5814   -20.028857   -12.673583     30.20448   -4438.2392 
50642000    2.7008727   -4735.1318   -4730.5026   -4735.1318            0    2241.0048    17.873016    23.247574    21.853394    9080.1782    2215.3875    2289.4771    2218.1499    21.578838    -83.13126    38.138428   -4433.7373 
50643000     2.668039    -4735.114   -4730.5411    -4735.114            0    2230.5253     17.88514    23.237227    21.846957    9079.6187    2181.2244    2224.0981    2286.2536   -83.747815    3.7831564    64.482342   -4435.1818 
50644000    2.6896943    -4735.126    -4730.516    -4735.126            0    2228.3585    17.926998    23.207706    21.825789    9080.4991    2129.9392    2282.7567    2272.3797    56.905107   -8.3218857    5.1317099    -4435.415 
50645000    2.7532737   -4734.9619   -4730.2429   -4734.9619            0    2218.1978    17.897829    23.230831    21.842552    9081.7278    2221.4331    2243.8334    2189.3268   -126.50537    37.750914    39.996917   -4436.4477 
50646000    2.7295129   -4735.2315   -4730.5532   -4735.2315            0    2221.9105    17.845694     23.25684    21.881204    9081.4533    2209.6466     2240.944    2215.1408    79.853424   -75.714827    55.596721   -4436.2752 
50647000    2.6123252   -4735.1376   -4730.6602   -4735.1376            0    2188.3723    17.826795    23.298729     21.86345    9080.8016     2252.974    2192.1159    2120.0272   -57.284779   -23.595599    60.353462   -4440.8449 
50648000    2.6660958   -4735.4303   -4730.8607   -4735.4303            0    2241.7263    17.861178    23.287045    21.833093    9081.1271    2328.4483    2183.9412    2212.7893   -31.332562    19.651545    73.135872   -4433.9689 
50649000     2.864117    -4735.009      -4730.1    -4735.009            0    2217.9561     17.88863    23.245979    21.835361    9079.9889    2145.2908     2246.083    2262.4945   -124.89022   -55.226354    29.906706   -4436.3931 
50650000    2.5762391   -4734.7617   -4730.3461   -4734.7617            0    2256.2114    17.918819    23.204025    21.835087    9078.7828     2185.132    2316.6501    2266.8521    10.437688    13.979789    14.592718    -4431.613 
50651000    2.7375744   -4734.8563   -4730.1642   -4734.8563            0    2226.7477    17.902315    23.194204    21.872342    9082.0516    2192.3544    2287.6419    2200.2469    80.574109   -5.9369389    97.706916   -4435.2261 
50652000    2.6746426   -4735.3504   -4730.7661   -4735.3504            0     2216.538     17.85107    23.276437    21.858169    9082.2727     2238.384    2175.1192    2236.1107   -207.30085    11.758307    40.405822   -4437.1732 
50653000     2.730659   -4734.8401   -4730.1599   -4734.8401            0    2176.6843    17.855487    23.275466     21.85856    9084.3033    2200.9572    2124.5344    2204.5612   -131.17131   -82.412723    126.78982   -4441.7813 
50654000    2.5519923   -4735.0261   -4730.6521   -4735.0261            0    2243.6261    17.850472    23.289996    21.847305    9082.7422    2258.6792    2186.9848    2285.2143   -92.486999    12.403201    150.62639   -4433.4558 
50655000    2.7326734   -4735.4223   -4730.7386   -4735.4223            0    2206.3779    17.886358    23.254015    21.838733     9083.376    2156.9576     2213.099    2249.0772   -143.52742    12.180346    100.38266   -4438.4559 
50656000     2.502242   -4734.9639   -4730.6751   -4734.9639            0    2221.7027    17.910453    23.217259    21.839383     9081.506    2150.5962    2271.1776    2243.3344   -200.19122   -28.247035    30.512159   -4436.4229 
50657000    2.5939779   -4735.1412   -4730.6952   -4735.1412            0    2236.8384    17.918533    23.222709    21.820769    9079.9901    2197.3814    2286.8856    2226.2481   -15.459499   -26.308009    83.955992   -4434.4878 
50658000    2.7734718   -4735.3058   -4730.5521   -4735.3058            0    2225.5413    17.875924    23.256264    21.846723    9082.2767    2167.0039    2236.6246    2272.9954   -33.075145    32.707667    24.744297   -4435.7665 
50659000    2.6893876   -4734.9013   -4730.2918   -4734.9013            0     2226.087    17.819123    23.313016    21.862927    9082.2423    2352.8204      2170.83    2154.6106   -190.18058    24.920159    25.396563    -4435.435 
50660000    2.9719264   -4735.2465   -4730.1527   -4735.2465            0    2188.9181    17.852443    23.287045    21.850137    9083.7711    2237.0841    2132.5904    2197.0797   -230.33377   -25.550532    62.266998   -4440.1704 
50661000    2.6921486   -4735.3083   -4730.6941   -4735.3083            0    2240.0826    17.872963    23.262004    21.836619    9078.8128    2242.7091    2197.0972    2280.4415   -64.799905   -28.759951    36.636441   -4434.0955 
50662000    2.7282852   -4735.6152    -4730.939   -4735.6152            0    2189.2024    17.925306    23.227677     21.81518    9083.0388    2188.4601    2154.8583    2224.2887   -23.400965     24.98408   -71.393842   -4440.9424 
50663000    2.6197033   -4734.8068   -4730.3167   -4734.8068            0    2224.2224    17.904062    23.221089    21.841641    9080.7019    2176.2607     2291.087    2205.3195   -102.80469   -3.2748101    96.135776   -4435.7569 
50664000    2.7605803   -4735.2069   -4730.4753   -4735.2069            0    2244.2403    17.877004    23.238253    21.853379    9078.5566    2197.9267    2261.8333    2272.9609   -90.832969   -100.03955    90.856071   -4433.3347 
50665000    2.6867902   -4734.8411   -4730.2361   -4734.8411            0    2224.1336    17.851804    23.266099    21.859659    9079.2308    2268.7418    2184.2498    2219.4092   -172.37263   -21.476895   -11.386176   -4435.7357 
50666000    2.8179331   -4735.0337   -4730.2039   -4735.0337            0    2231.2651    17.832046    23.308322    21.844903    9079.5079     2232.135    2179.6358    2282.0243   -241.59749    61.174029    91.631706   -4434.7502 
50667000    2.6337482   -4735.0826   -4730.5684   -4735.0826            0    2242.8639    17.883094    23.257829    21.824726    9077.3826    2170.1511    2257.9336    2300.5068   -58.731487   -54.968941    119.72923   -4433.6484 
50668000    2.9522694   -4735.0577   -4729.9976   -4735.0577            0    2215.1328    17.904936    23.240999    21.818249    9079.1978    2164.2451    2239.8785    2241.2748    2.0146647   -23.473115    45.145906   -4436.6901 
50669000    2.7763398   -4735.0519   -4730.2934   -4735.0519            0    2192.2928    17.928042     23.20988    21.825502    9081.7596    2080.9322    2265.1525    2230.7936   -108.98206   -21.681422    9.5189438   -4439.9282 
50670000    2.8948823   -4735.1924   -4730.2307   -4735.1924            0    2232.5685    17.891818     23.23934    21.842449    9081.9603    2196.3411    2259.8941    2241.4705   -172.76997     44.34598    105.14536   -4434.5246 
50671000    2.6953783   -4735.3891   -4730.7693   -4735.3891            0    2199.7057    17.849841    23.279473    21.860471    9083.7881    2227.7423    2143.8375    2227.5372   -4.5309081    44.897274     88.93533   -4439.3572 
50672000    2.6359493   -4735.0332   -4730.5153   -4735.0332            0    2220.8164    17.829601    23.299343    21.858806    9080.5408    2314.6629    2115.4141    2232.3721    25.384223   -58.319812   -18.487913   -4436.4117 
50673000    2.6586139    -4735.132   -4730.5752    -4735.132            0    2235.1063    17.847043    23.288076    21.847807     9080.457    2289.4026    2181.1688    2234.7474   -42.672057    7.8917276    41.191382    -4434.582 
50674000     2.515631   -4735.0729   -4730.7612   -4735.0729            0    2204.2465    17.919382    23.193774    21.851791    9081.9995    2144.6324    2257.7068    2210.4002    -7.360094    25.155937    102.31235   -4438.8051 
50675000    2.7256864   -4735.0988    -4730.427   -4735.0988            0    2236.8579    17.904271    23.208917    21.857717    9082.7282    2200.8862    2332.8992    2176.7882    12.431713   -89.026754     5.039577   -4434.1278 
50676000    2.6820285   -4735.0959    -4730.499   -4735.0959            0    2247.6997    17.890143    23.223664    21.855958     9080.597    2162.4689    2326.0407    2254.5896   0.95729313   -40.274177    49.691712   -4432.8334 
50677000     2.825359    -4734.766   -4729.9234    -4734.766            0    2225.3984    17.826288     23.27446    21.886506    9080.6506     2317.183    2183.4567    2175.5554    82.852423   -35.380025    117.09102   -4435.2095 
50678000    2.6649014   -4734.6744   -4730.1069   -4734.6744            0    2214.7712    17.839459    23.291993    21.857081    9081.9787    2274.8949    2205.9307    2163.4881   -134.58253    6.2438004    31.877722   -4436.7575 
50679000    2.7744481    -4735.041   -4730.2857    -4735.041            0    2231.9814    17.854649    23.251751    21.868645    9078.8084    2252.7057    2200.2906    2242.9478   -55.650244   0.18792491    25.322017     -4434.76 
50680000    2.6285768   -4734.7888   -4730.2836   -4734.7888            0    2256.0699    17.886984    23.210983    21.872106    9080.7399    2249.7075    2245.3717    2273.1306    3.5851885   -26.327144    146.32476   -4431.5048 
50681000    2.7887031   -4734.9974   -4730.2176   -4734.9974            0    2205.8909    17.917979    23.196494    21.850264    9081.7192     2138.995    2288.6889    2189.9889   -37.407103    28.552625      27.8616   -4438.0528 
50682000    2.8664042   -4734.9795   -4730.0666   -4734.9795            0    2186.3451    17.893292    23.213676    21.868129    9083.3447    2145.4438    2254.7865     2158.805   -195.03705   -25.836139    12.499945   -4440.4387 
50683000    2.7020078   -4735.2116   -4730.5804   -4735.2116            0      2189.62    17.854959    23.246555    21.883433    9083.0749    2237.5278    2164.6117    2166.7205   -162.94525   -48.525262     91.02146   -4440.5273 
50684000     2.662392   -4735.2338   -4730.6705   -4735.2338            0    2233.8294    17.820103    23.279042    21.888274    9080.0208    2286.1416    2219.8002    2195.5464   -23.528199    48.757133     103.5086   -4434.8606 
50685000    2.7187874   -4734.9912   -4730.3313   -4734.9912            0    2199.6458    17.836437    23.274936    21.881979    9084.1268    2228.8636    2210.8439    2159.2301   -121.70287   -25.472218    1.3298275   -4438.9163 
50686000    2.9233278   -4735.1633   -4730.1528   -4735.1633            0    2239.8412    17.869326    23.237218    21.863446    9078.4334     2225.255    2207.4013    2286.8673   -210.30178   -44.596785    -6.451521   -4433.5987 
50687000    2.6091652   -4734.7954   -4730.3233   -4734.7954            0    2271.5787    17.905149    23.196823    21.857864    9078.5014    2242.4019    2351.5988    2220.7354    -7.837246   -21.125488     73.60143   -4429.5649 
50688000    2.7985093   -4734.8021   -4730.0056   -4734.8021            0    2200.8779    17.908652    23.199042    21.862809    9083.2008    2168.6189    2217.9677     2216.047   -39.078069   -29.492765    88.079667   -4438.4571 
50689000    2.6504848   -4735.2616   -4730.7187   -4735.2616            0    2189.6653    17.864344    23.240501     21.87333    9081.2887    2243.8262    2207.4795    2117.6902   -112.85547    -10.94259   -5.8826715   -4440.7167 
50690000    2.7880359   -4734.4816    -4729.703   -4734.4816            0     2217.904    17.833344    23.280425     21.87284    9080.9001    2312.4333    2111.3036    2229.9752   -201.62679   -33.564289    156.90457   -4435.9736 
50691000    2.7067717   -4734.9932   -4730.3539   -4734.9932            0    2216.2896     17.83221    23.301788    21.859207    9082.9894    2276.7828    2161.7612    2210.3248    -106.1071     18.11589    19.745925   -4436.7707 
50692000    2.8552696   -4735.2282   -4730.3344   -4735.2282            0    2217.7978    17.875838    23.241415    21.854525     9079.676    2197.2818    2244.4603    2211.6514   -20.842335   -33.620723    21.824087   -4436.6585 
50693000    2.8292841   -4735.2546   -4730.4053   -4735.2546            0    2177.7711    17.904026    23.214756    21.852245    9082.6143    2157.3957    2193.8615    2182.0561    -108.8636    35.667217    57.478498   -4441.9364 
50694000    2.8254964   -4735.0136   -4730.1708   -4735.0136            0    2218.2314    17.917317    23.219562    21.830382    9082.1427    2153.3852    2225.6548    2275.6541   -21.980097    23.790945    83.045997   -4436.3578 
50695000    2.7466044   -4735.4427   -4730.7351   -4735.4427            0    2206.2577    17.862278     23.25638    21.866574    9083.6355    2229.4356    2189.4186     2199.919   -182.46712    -9.373191    38.554432     -4438.46 
50696000    2.6981361    -4735.162   -4730.5374    -4735.162            0    2205.8369    17.847726    23.294513    21.843631    9081.5788    2271.7562    2174.2469    2171.5076    38.562749    10.285704    93.055383   -4438.3843 
50697000    2.7450419   -4735.0248   -4730.3199   -4735.0248            0    2222.8172    17.823999    23.309239    21.856767    9080.6967    2332.1603    2140.1175    2196.1737   -70.895217    75.109208    106.18309   -4435.9464 
50698000    2.7070444   -4734.7181   -4730.0783   -4734.7181            0    2224.7073    17.848196    23.280594    21.855724    9081.4162    2202.7096    2206.8726    2264.5396   -24.101706   -14.077333    49.271233   -4435.4311 
50699000    2.9092199   -4734.9575   -4729.9712   -4734.9575            0    2241.8518    17.902419    23.211575    21.845295    9077.6669    2162.6251    2304.6907    2258.2397   -81.040021   -45.158119    52.311218   -4433.1759 
50700000    2.6843552   -4734.8763   -4730.2755   -4734.8763            0    2218.6824    17.900623    23.214841    21.849187    9079.6505    2098.5705    2197.8302    2359.6464   -40.123302    24.397202    143.28669   -4436.4833 
50701000    2.7654071   -4735.0678    -4730.328   -4735.0678            0    2201.5511    17.882598     23.23482    21.855724    9081.0298    2171.6597    2279.2939    2153.6997   -88.669542    13.262639    61.658877   -4438.7601 
50702000    2.7189226   -4734.8331    -4730.173   -4734.8331            0    2214.8883    17.825113    23.290096    21.881803       9084.2    2302.6925    2154.8206    2187.1517    52.495111   -24.457346   -23.508089   -4436.7363 
50703000    2.6361045   -4734.8328   -4730.3146   -4734.8328            0    2238.9053     17.82314    23.290684    21.870143    9078.5832    2256.3181    2201.8341    2258.5638   -43.060659    2.8592761    86.460505   -4433.8794 
50704000    2.5666718   -4735.2182   -4730.8191   -4735.2182            0    2215.3124    17.850255    23.262814     21.86818    9080.6999    2240.0211    2236.1154    2169.8006    6.1512031    -22.57152    70.470101   -4437.4393 
50705000    2.7565911   -4735.4196   -4730.6949   -4735.4196            0     2221.377     17.89241    23.222771     21.85757    9082.0685    2194.4284    2256.9032    2212.7995   -12.224061   -4.9050297    53.298281   -4436.4676 
50706000    2.5411675   -4735.0231   -4730.6676   -4735.0231            0    2240.4152    17.904758    23.210665    21.844221    9078.0509    2196.2058    2259.5395    2265.5002    194.27237   -62.612939      53.3993     -4434.05 
50707000    2.7976445   -4735.2226   -4730.4275   -4735.2226            0    2209.8794    17.896993    23.230086    21.845847    9082.3822    2143.8738    2318.1481    2167.6162    16.381242   -61.166846    97.279139    -4437.713 
50708000    2.7989526   -4734.6258   -4729.8284   -4734.6258            0    2236.2125    17.835293    23.276322    21.871198    9079.6094    2294.8762    2188.2074     2225.554   -120.78802    15.388981    51.107344   -4433.7164 
50709000     2.659455   -4734.8879   -4730.3297   -4734.8879            0    2197.7313    17.815107     23.30504    21.875502    9082.3097    2235.7218    2177.1303    2180.3416   -94.787017    40.493851    48.788882   -4439.2267 
50710000    2.6929927   -4734.6744   -4730.0587   -4734.6744            0    2243.2335    17.846922    23.251838    21.887223    9082.6229    2253.0832    2257.1852     2219.432   -58.250945   -114.96128    36.340363   -4432.9184 
50711000    2.7838206    -4735.326   -4730.5546    -4735.326            0    2197.5923    17.888615    23.247844    21.842875    9083.8345    2167.2666    2233.2613    2192.2491   -28.171207   -10.594053    93.392899   -4439.4211 
50712000     2.719055   -4734.9075   -4730.2471   -4734.9075            0    2241.0078    17.916075    23.206488     21.83848    9079.7667    2177.1657    2303.0998    2242.7578   -59.898637    44.767169    44.386257   -4433.4949 
50713000    2.9109266   -4735.3106   -4730.3214   -4735.3106            0    2234.4013    17.895718    23.228329    21.846257    9081.2185    2215.9708    2290.4751    2196.7581   -62.273625   -31.739379    91.877277   -4434.3967 
50714000    2.8110318   -4735.1986   -4730.3806   -4735.1986            0    2238.3124    17.846361    23.258923    21.875851    9080.3848     2283.679    2185.2258    2246.0325   -93.566506   -113.98634    37.123998   -4433.9651 
50715000    2.4295402   -4735.1998   -4731.0356   -4735.1998            0    2226.8038    17.834081     23.28402    21.870293    9081.6193    2288.8333     2151.451    2240.1272    9.3823198     20.86999    169.73387   -4436.1041 
50716000    2.6321406   -4735.1324    -4730.621   -4735.1324            0    2228.4523    17.835795    23.305348    21.844529    9080.1025    2275.3716    2162.8692    2247.1162   -171.76944    14.365072     87.49324   -4435.5205 
50717000    2.5697845   -4735.1043   -4730.6998   -4735.1043            0    2213.4909    17.880708    23.227778    21.863864    9080.6993      2148.27    2237.6467    2254.5559     47.44025   -76.156156    39.382877   -4437.5612 
50718000    2.6887386   -4734.9628   -4730.3544   -4734.9628            0    2224.6001    17.900201    23.227456     21.84249     9081.586     2247.891    2249.3556    2176.5539   -177.89657  -0.43899994     89.41603   -4435.7158 
50719000    2.7424022   -4734.8032   -4730.1029   -4734.8032            0    2248.2969    17.896178    23.212117    21.857921     9079.959     2198.035    2267.1652    2279.6904   -13.179763    44.074095    33.115677   -4432.3791 
50720000    2.7633183    -4735.299   -4730.5627    -4735.299            0    2215.5027    17.854016    23.242849    21.888357    9083.1907    2193.2589    2226.9242    2226.3251   -22.235316   -55.348316    40.071906   -4437.0773 
50721000    2.5924481   -4734.9486   -4730.5052   -4734.9486            0    2210.1306    17.833074    23.279996    21.876239    9082.0056    2308.7245    2137.8442     2183.823    41.891515   -4.0879061    101.15213   -4437.7696 
50722000    2.6681117   -4735.1885   -4730.6155   -4735.1885            0    2217.9274    17.835264    23.292998    21.866364    9084.0921    2257.2434    2192.4242    2204.1147    67.208936   -75.171563    83.141752   -4436.7797 
50723000    2.8006193   -4735.5175   -4730.7173   -4735.5175            0    2239.5549    17.876696    23.256754    21.847331    9083.1137    2216.4067    2223.0817    2279.1762   -102.45124    45.319034    20.092418   -4434.0482 
50724000    2.8112322   -4735.0812   -4730.2628   -4735.0812            0    2254.1669    17.917717    23.226723    21.819476    9080.6083    2206.6201    2301.7082    2254.1724   -165.69914   -6.3151202    117.84677   -4431.7404 
50725000     2.654296   -4735.0798   -4730.5304   -4735.0798            0    2236.2666    17.918805    23.194939    21.844678    9079.2071    2144.7738    2284.8622    2279.1636   -24.755003   -119.18404    74.936345   -4434.4243 
50726000    2.7161459   -4735.2672   -4730.6119   -4735.2672            0    2227.0039    17.860692    23.265125     21.85143    9079.9518    2235.2038    2218.0129     2227.795    16.446575    22.383034    87.231165    -4435.708 
50727000    2.9096589    -4734.777     -4729.79    -4734.777            0    2220.3708     17.83838    23.291398     21.85904    9082.0121    2239.1538    2194.7344    2227.2242    1.1414181    -14.12878    -52.48093   -4435.6978 
50728000     2.804202   -4734.7659   -4729.9596   -4734.7659            0    2218.4243    17.820425    23.299491    21.869437    9080.3398    2251.4184    2169.9246    2233.9299   -52.670859   -98.461515    107.66769   -4436.1793 
50729000    2.8497185   -4735.2585   -4730.3742   -4735.2585            0    2205.3734    17.865605    23.248305    21.867561    9082.5826    2173.7638    2281.4952    2160.8613   -78.455138   -89.223875    125.48483   -4438.2501 
50730000    2.9186162   -4734.8571   -4729.8547   -4734.8571            0     2230.537    17.901617     23.23092    21.837534     9081.598    2171.5238    2242.0566    2278.0307    -63.71195    109.19057   -31.376184   -4434.4295 
50731000    2.7771912   -4735.0199   -4730.2599   -4735.0199            0    2233.4271    17.918099    23.198362    21.846549     9080.967    2159.5562    2332.5116    2208.2135   -16.921546   -59.395156    11.027671   -4434.4724 
50732000    2.7580966   -4734.9932   -4730.2659   -4734.9932            0    2216.6604     17.87976    23.222639    21.873668      9082.28     2205.645    2226.4624    2217.8738    21.275217   -67.643777    196.80789   -4436.6565 
50733000    2.6103965   -4734.9331    -4730.459   -4734.9331            0    2238.1212    17.840842    23.292153    21.847277    9078.6714     2283.654     2184.599    2246.1106   -131.42588    -93.59131    24.354476   -4434.1248 
50734000    2.7704536   -4735.0234    -4730.275   -4735.0234            0    2210.7541    17.816805    23.306391    21.872972    9082.6515    2259.6411    2142.5818    2230.0394   -57.453213     103.2079     27.49148   -4437.4359 
50735000    2.7175807   -4735.2198    -4730.562   -4735.2198            0    2250.6562    17.855044    23.277302    21.844899     9079.117    2305.2823    2159.2148    2287.4714   -23.492402   -64.595181    75.552154   -4432.5535 
50736000    2.7522773   -4735.2802   -4730.5629   -4735.2802            0    2275.8211    17.912963    23.222309    21.825962    9079.1716    2235.6985    2311.9716    2279.7933    19.027795   -46.517202    98.642702   -4429.2205 
50737000    2.6194527   -4735.1643   -4730.6747   -4735.1643            0    2218.3804     17.91113    23.210352    21.848316    9082.8612    2103.1745    2252.8344    2299.1322   -130.80943    42.745462   -68.720501   -4436.8186 
50738000    2.7839291   -4735.1051   -4730.3335   -4735.1051            0     2207.178    17.901817    23.237425    21.833291    9082.4772    2163.6367     2213.527    2244.3703    74.508778    89.355665    67.854629   -4437.9738 
50739000     2.612883    -4734.882   -4730.4036    -4734.882            0    2208.5744     17.83698    23.298977    21.853988    9082.1542     2299.953    2110.4473    2215.3229   -64.906511   -82.830641     84.39658   -4437.8693 
50740000    2.6331256   -4734.9514   -4730.4383   -4734.9514            0    2199.1773    17.828959    23.293928    21.867913    9081.8861    2293.9329    2162.1277    2141.4711   -139.41427   -55.144105    32.465785   -4439.1573 
50741000    2.5991336   -4735.2648     -4730.81   -4735.2648            0    2215.9672    17.855679    23.265329    21.859155    9080.6916    2267.5851    2189.0983    2191.2183    10.597822     68.08397    -2.073513   -4437.3437 
50742000     2.791478   -4735.4138   -4730.6293   -4735.4138            0    2200.5016    17.917972    23.223492    21.828426    9083.1986     2136.548    2242.0163    2222.9405    11.627789   -57.810157    74.474325   -4439.1308 
50743000    2.7274075   -4734.7656   -4730.0909   -4734.7656            0    2245.2756    17.905996    23.216106    21.840314    9079.1822    2221.6683    2273.8218    2240.3367   -73.482177   -31.162189    40.510743   -4432.7927 
50744000    2.8079407   -4735.2141   -4730.4014   -4735.2141            0    2210.2635    17.893483    23.246463    21.834705    9082.3681    2188.4477    2239.6348    2202.7079    -68.28659   -17.521142    21.748431   -4437.6365 
50745000    2.8130737    -4735.096   -4730.2745    -4735.096            0    2193.2809    17.857947    23.258515    21.867822    9082.7853    2238.2192     2248.344    2093.2796   -109.59194     108.3378    37.089987   -4439.7457 
50746000    2.6579272   -4734.9157   -4730.3601   -4734.9157            0    2234.6773    17.833377     23.29378    21.857525    9079.7637    2276.0746     2196.728    2231.2292   -146.44747   -81.192427    53.887419   -4434.4463 
50747000    2.6304058   -4734.9453   -4730.4368   -4734.9453            0    2226.1765     17.87066    23.266387    21.839876    9080.7076    2219.4076    2214.1009     2245.021   -211.87016   -51.978704     116.3012    -4435.618 
50748000    2.8299565   -4734.9973   -4730.1469   -4734.9973            0    2238.3185     17.86499    23.259741    21.845169    9077.4328    2207.8064    2258.3223     2248.827   -124.39476    49.920183    49.670838    -4433.827 
50749000     2.520456   -4735.0025   -4730.6826   -4735.0025            0     2233.188     17.92763    23.203895    21.830857    9081.4368    2153.0404    2252.6318    2293.8917   -23.649683    10.700026     4.638513   -4434.9115 
50750000    2.7847859   -4734.7643   -4729.9912   -4734.7643            0    2196.2047    17.905023    23.230295    21.839528    9083.9111    2120.6507    2244.6956    2223.2677   -116.89348   -64.773997    67.092701   -4439.0391 
Loop time of 338.947 on 64 procs for 250000 steps with 864 atoms

Performance: 127.454 ns/day, 0.188 hours/ns, 737.578 timesteps/s
195.6% CPU use with 32 MPI tasks x 2 OpenMP threads

MPI task timing breakdown:
Section |  min time  |  avg time  |  max time  |%varavg| %total
---------------------------------------------------------------
Pair    | 17.288     | 24.478     | 32.974     | 109.8 |  7.22
Bond    | 0.99864    | 1.2197     | 1.5252     |   9.6 |  0.36
Kspace  | 168.9      | 179.36     | 187.03     |  42.3 | 52.92
Neigh   | 0.069452   | 0.074071   | 0.078866   |   1.0 |  0.02
Comm    | 50.287     | 53.088     | 56.086     |  20.7 | 15.66
Output  | 0.53664    | 0.53704    | 0.53912    |   0.1 |  0.16
Modify  | 62.984     | 65.19      | 68.357     |  15.4 | 19.23
Other   |            | 15         |            |       |  4.43

Nlocal:        27.0000 ave          38 max          18 min
Histogram: 1 8 6 1 0 4 3 1 3 5
Nghost:        2184.91 ave        2300 max        2074 min
Histogram: 8 4 4 0 0 0 0 5 3 8
Neighs:        6695.97 ave        9567 max        4517 min
Histogram: 5 7 4 0 3 2 3 2 2 4

Total # of neighbors = 214271
Ave neighs/atom = 247.99884
Ave special neighs/atom = 2.0000000
Neighbor list builds = 250
Dangerous builds = 0

unfix		3
unfix		2
unfix		1

write_data	data.final.${pid} nocoeff
write_data	data.final.0 nocoeff
System init for write_data ...
PPPM initialization ...
  extracting TIP4P info from pair style
  using 12-bit tables for long-range coulomb (../kspace.cpp:340)
  G vector (1/distance) = 0.37230499
  grid = 24 27 25
  stencil order = 5
  estimated absolute RMS force accuracy = 0.0030895531
  estimated relative force accuracy = 9.3040975e-06
  using double precision FFTW3
  3d grid and FFT values/proc = 4410 672
Last active /omp style is kspace_style pppm/tip4p/omp

write_restart   restart.lmp.${pid}
write_restart   restart.lmp.0
System init for write_restart ...
PPPM initialization ...
  extracting TIP4P info from pair style
  using 12-bit tables for long-range coulomb (../kspace.cpp:340)
  G vector (1/distance) = 0.37230499
  grid = 24 27 25
  stencil order = 5
  estimated absolute RMS force accuracy = 0.0030895531
  estimated relative force accuracy = 9.3040975e-06
  using double precision FFTW3
  3d grid and FFT values/proc = 4410 672
Last active /omp style is kspace_style pppm/tip4p/omp
Total wall time: 0:05:39
