#include		in.partitions
include		in.temp
variable        temperature equal 220.77
variable	tempDamp equal 100.0
include		in.pressure
variable        pressure equal 8334.3
variable        pressureDamp equal 1000.0 # This is 1 ps
include		in.seed
variable        seed equal 745823

units		real
atom_style	full
read_restart    restart.lmp.${pid}
read_restart    restart.lmp.1
Reading restart file ...
  restart file = 30 Jul 2021, LAMMPS = 30 Jul 2021
  restoring atom style full from restart
  triclinic box = (-3.1247034 -0.14491692 -0.013363815) to (14.734702 22.724916 19.243362) with tilt (-0.29372118 -6.4508770 -0.10226475)
  2 by 4 by 4 MPI processor grid
  restoring pair style lj/cut/tip4p/long/omp from restart
  restoring bond style harmonic/omp from restart
  restoring angle style harmonic/omp from restart
  1008 atoms
  672 bonds
  336 angles
Finding 1-2 1-3 1-4 neighbors ...
  special bond factors lj:    0        0        0       
  special bond factors coul:  0        0        0       
     2 = max # of 1-2 neighbors
     1 = max # of 1-3 neighbors
     1 = max # of 1-4 neighbors
     2 = max # of special neighbors
  special bonds CPU = 0.002 seconds
  read_restart CPU = 0.008 seconds

include 	in.setup
variable	out_freq equal 1000
variable	out_freq2 equal 10000
variable	out_freq3 equal 1000

timestep	2.0

neigh_modify    delay 7 every 1

include		in.tip4p
# This is TIP4P/Ice

# create groups ###
group ox type 2
336 atoms in group ox
group hy type 1
672 atoms in group hy

# set charges - beside manually ###
set group ox charge -1.1794
Setting atom values ...
  336 settings made for charge
set group hy charge 0.5897
Setting atom values ...
  672 settings made for charge

# ### TIP3P Potential Parameters ###
pair_style lj/cut/tip4p/long/omp 2 1 1 1 0.1577 8.5
pair_coeff 1 1*2 0.000 0.000
pair_coeff 2 2 0.21084 3.1668
bond_style  harmonic
bond_coeff  1 450 0.9572
angle_style harmonic
angle_coeff 1 55 104.52
kspace_style pppm/tip4p/omp 1.0e-5
pair_modify tail yes

thermo          ${out_freq}
thermo          1000
thermo_style    custom step temp pe etotal epair emol press lx ly lz vol pxx pyy pzz pxy pxz pyz enthalpy

restart 	${out_freq3} restart.lmp.${pid} restart2.lmp.${pid}
restart 	1000 restart.lmp.${pid} restart2.lmp.${pid}
restart 	1000 restart.lmp.1 restart2.lmp.${pid}
restart 	1000 restart.lmp.1 restart2.lmp.1


include         in.dump
dump            myDump all atom ${out_freq2} dump.water.${pid}
dump            myDump all atom 10000 dump.water.${pid}
dump            myDump all atom 10000 dump.water.1
dump            myDump2 all dcd ${out_freq2} dump.dcd
dump            myDump2 all dcd 10000 dump.dcd
dump_modify     myDump append yes
dump_modify     myDump2 append yes


variable natoms 	equal  "count(all)"                        # NUMBER ATOMS
variable H      	equal  "enthalpy/v_natoms"                 # ENTHALPY-per-atom
variable Vol      	equal  "vol/v_natoms"                 # volume-per-atom
fix AVG all 		ave/time ${out_freq} 1 ${out_freq} v_Vol v_H file vol_enthalpy.dat
fix AVG all 		ave/time 1000 1 ${out_freq} v_Vol v_H file vol_enthalpy.dat
fix AVG all 		ave/time 1000 1 1000 v_Vol v_H file vol_enthalpy.dat



fix 		1 all shake 1e-6 200 0 b 1 a 1
       0 = # of size 2 clusters
       0 = # of size 3 clusters
       0 = # of size 4 clusters
     336 = # of frozen angles
  find clusters CPU = 0.000 seconds
fix             2 all nph tri ${pressure} ${pressure} ${pressureDamp}
fix             2 all nph tri 8334.3 ${pressure} ${pressureDamp}
fix             2 all nph tri 8334.3 8334.3 ${pressureDamp}
fix             2 all nph tri 8334.3 8334.3 1000
fix             3 all temp/csvr ${temperature} ${temperature} ${tempDamp} ${seed}
fix             3 all temp/csvr 220.77 ${temperature} ${tempDamp} ${seed}
fix             3 all temp/csvr 220.77 220.77 ${tempDamp} ${seed}
fix             3 all temp/csvr 220.77 220.77 100 ${seed}
fix             3 all temp/csvr 220.77 220.77 100 745823


run             250000
PPPM initialization ...
  extracting TIP4P info from pair style
  using 12-bit tables for long-range coulomb (../kspace.cpp:340)
  G vector (1/distance) = 0.37978265
  grid = 24 27 32
  stencil order = 5
  estimated absolute RMS force accuracy = 0.0023908012
  estimated relative force accuracy = 7.1998267e-06
  using double precision FFTW3
  3d grid and FFT values/proc = 5355 672
Last active /omp style is kspace_style pppm/tip4p/omp
Neighbor list info ...
  update every 1 steps, delay 7 steps, check yes
  max neighbors/atom: 2000, page size: 100000
  master list distance cutoff = 10.8154
  ghost atom cutoff = 10.8154
  binsize = 5.4077, bins = 5 5 4
  1 neighbor lists, perpetual/occasional/extra = 1 0 0
  (1) pair lj/cut/tip4p/long/omp, perpetual
      attributes: half, newton on, omp
      pair build: half/bin/newton/tri/omp
      stencil: half/bin/3d/tri
      bin: standard
Per MPI rank memory allocation (min/avg/max) = 10.31 | 10.32 | 10.33 Mbytes
Step Temp PotEng TotEng E_pair E_mol Press Lx Ly Lz Volume Pxx Pyy Pzz Pxy Pxz Pyz Enthalpy 
 8500000    228.08227   -4896.2528     -4440.06   -4896.2528            0    8055.7981    17.859406    22.869833    19.256726    7865.2483    9389.2185     8142.643    6635.5329    1199.3685   -725.06068    293.26527    -3516.007 
 8501000    217.32781   -4909.5585    -4474.876   -4909.5585            0    9564.8242    18.005501    22.670553    19.208722    7840.8981    8555.3065     9895.417    10243.749    -345.7259    -853.9748    132.99226   -3381.1244 
 8502000    218.85436   -4908.3884   -4470.6527   -4908.3884            0    9517.3466    17.942092    22.517364    19.405483    7839.9824    9077.7026    10076.703    9397.6337    -206.6974   -643.19118    228.77089   -3382.4573 
 8503000    214.87803   -4918.0513   -4488.2687   -4918.0513            0    6228.4257    18.101481    22.738902    19.319644    7952.1162    4692.0709     7669.346    6323.8604   -731.82823     574.6125     195.9013   -3765.9366 
 8504000    222.51606   -4953.8789   -4508.8193   -4953.8789            0    7934.1032    17.880666    22.857742     19.27767    7879.0082    8539.6971    8464.2275     6798.385   -11.086385   -41.720376    184.38368   -3597.1333 
 8505000     226.2963   -4924.8917   -4472.2711   -4924.8917            0    8088.0684    17.897477    23.170786    19.046553     7898.579    8264.9788    6980.6345    9018.5918   -128.90714   -411.99566     642.7728   -3540.5849 
 8506000     233.0948   -4929.2505   -4463.0321   -4929.2505            0    7651.6352    17.829295    23.055597    19.187545    7887.3288     6919.724    8376.9718    7658.2098    711.74071    1020.2454    225.17485   -3582.8752 
 8507000    218.11924   -4913.9009   -4477.6355   -4913.9009            0    8744.5531     17.80248    22.958749    19.293624    7885.7413    8632.6257    9035.1166    8565.9169   -1565.3403   -86.889034   -1009.5402   -3471.9643 
 8508000    228.31057   -4931.0933   -4474.4439   -4931.0933            0    8502.3309    18.007456    22.810856    19.213243    7892.1371    8086.4819    8197.1087    9223.4021    903.88272   -754.23641    -106.3906   -3495.8365 
 8509000    235.20321   -4924.9869   -4454.5514   -4924.9869            0    8435.8869    18.083561    22.560561    19.303407    7875.3127    6885.0147    10555.481     7867.165   -1674.4464    117.40463    287.14671   -3485.6615 
 8510000    219.05805   -4906.6875   -4468.5443   -4906.6875            0    7846.0188    18.029186    22.658928    19.397667    7924.3746    5707.5841    9279.7271    8550.7452   -582.27868    406.94325    221.81197   -3561.7887 
 8511000    218.75796   -4926.2156   -4488.6727   -4926.2156            0    7066.9636      17.9994    22.705429    19.399921    7928.4394    8032.2373    6608.0833    6560.5702    181.18067   -42.192596    221.78856   -3671.5327 
 8512000    219.80399   -4879.5384   -4439.9033   -4879.5384            0    6775.9646    18.002027    22.798196    19.282245    7913.6982    5654.4331    7542.3728    7131.0878   -568.91503    911.74452   -2705.4596   -3657.8677 
 8513000    229.02777   -4899.2663   -4441.1824   -4899.2663            0     7122.021    18.039994    22.851672    19.224444     7925.162    6552.7253    6812.8758    8000.4618   -601.17965   -386.67901    1838.0503   -3618.0167 
 8514000    220.39124   -4920.3212   -4479.5115   -4920.3212            0    8813.0963    17.884498    22.922384    19.233528    7884.8875     8306.515    8764.6372    9368.1366   -641.38289    873.77732    407.33501   -3466.0672 
 8515000    219.49282   -4912.0675   -4473.0547   -4912.0675            0    9268.7007    17.839034    22.862071    19.269527    7858.8312    8601.7835     9159.614    10044.705   -1807.3629    564.18253    282.16177   -3410.7412 
 8516000     224.4328    -4923.667   -4474.7737    -4923.667            0    7440.8797    17.933818    23.042527    19.097722    7891.9523    6102.3241    7344.4843    8875.8307   -159.10909   -480.72956    727.76846    -3618.358 
 8517000    219.59709   -4918.9367   -4479.7154   -4918.9367            0    8959.8447    17.854855     22.89521    19.273657     7878.891    10476.403      8046.44    8356.6909   -1061.2454   -703.03538   -648.15059   -3450.1796 
 8518000    216.03848   -4931.7964   -4499.6928   -4931.7964            0    7620.4765    17.895518    22.905403    19.264736    7896.6932    6620.2085    7414.1579    8827.0632   -259.30163   -1130.8387    1119.7905   -3622.0793 
 8519000    228.65624   -4928.0484   -4470.7077   -4928.0484            0    7851.4776    17.936449    22.775995    19.229042    7855.4576    7411.8084     8750.882    7391.7425    925.68329    76.580713   -1830.7794   -3571.2126 
 8520000    225.37432   -4931.6985    -4480.922   -4931.6985            0    8350.2555    17.958324    22.692405     19.34604    7883.8513     7747.269    9497.2646    7806.2328    1007.4435    127.88379     1248.468   -3520.8273 
 8521000    222.94395    -4946.808   -4500.8926    -4946.808            0    7684.7636    18.144077     22.60713    19.252482    7897.0893    7593.1175     7686.168    7775.0054   -502.39857   -53.076584   -104.98499   -3615.8311 
 8522000     212.6461   -4904.3845    -4479.066   -4904.3845            0    7320.3827    18.137233    22.555144    19.393786    7933.7634    7833.4996    7649.2785    6478.3699    -789.5151     1224.931     379.9708   -3632.0553 
 8523000    217.34998    -4940.313   -4505.5862    -4940.313            0    7756.1943    18.020819    22.565664    19.427416    7900.1926    8145.4834    8241.0041    6882.0955   -378.41512     591.4646    320.43006   -3611.9469 
 8524000    229.46187   -4894.3143   -4435.3622   -4894.3143            0    8364.1549    18.254562    22.542958    19.227658    7912.4083    5856.9865     10483.77     8751.708    885.30747     932.0909    982.78028    -3470.186 
 8525000    228.47764   -4905.3353   -4448.3518   -4905.3353            0    9331.8317    18.080513    22.644126      19.2523     7882.227    8199.6511    9589.1942     10206.65     181.1202      438.001    293.81384   -3375.6186 
 8526000    224.73439   -4901.1801   -4451.6835   -4901.1801            0    8192.8901    17.811155    22.832313    19.427559     7900.603    8737.6956    7656.0242    8184.9505    372.24148    401.89252    871.44123   -3507.6808 
 8527000    222.85828   -4898.0019   -4452.2578   -4898.0019            0    7933.3714    17.950949     23.01002    19.187696    7925.5102    6812.1263    7679.0148     9308.973   -1273.1971   -174.07808   -837.80126   -3535.2756 
 8528000    216.20409   -4917.4474   -4485.0126   -4917.4474            0    8366.8816     17.85511    23.149349    19.110294    7898.9377    7568.5474    8549.3123    8982.7851     288.0726    -52.02014    259.15759   -3521.1653 
 8529000    220.77332   -4910.5559    -4468.982   -4910.5559            0    8409.0538    17.724061    23.315679    19.046191      7870.81    10501.606    6497.5854    8227.9702    560.94694   -153.03697   -80.406516   -3503.7261 
 8530000    226.32598   -4908.9953   -4456.3154   -4908.9953            0     8338.289    17.713646    23.102675    19.286514    7892.6704    8997.4712    8100.7928    7916.6031   -245.74718    469.39666    29.648024   -3496.5241 
 8531000    228.80603   -4906.8543    -4449.214   -4906.8543            0    8152.7749    17.969669    23.046188    19.085981    7904.1223    9470.2715     6925.124    8062.9292   -212.27853   -297.78083   -353.35185    -3509.415 
 8532000    217.61806   -4901.5303   -4466.2673   -4901.5303            0    8996.5573    18.029123    22.762138    19.224305    7889.2972    7349.8739    9899.6892    9740.1088    1397.5077   -741.10062   -568.56947   -3431.1477 
 8533000    219.96267   -4916.2548   -4476.3023   -4916.2548            0    7832.7225    18.005562    22.644147    19.390538    7905.9214     8482.021    7540.0942    7476.0522     1294.627    230.80436   -203.31267   -3573.1913 
 8534000    217.21554   -4937.4001   -4502.9422   -4937.4001            0    6322.2497    18.181686    22.551503    19.333755    7927.3104     4865.587    6632.9656    7468.1964    830.89028    -300.6205   -805.30173   -3772.0162 
 8535000    214.81388   -4936.1795   -4506.5252   -4936.1795            0     7781.464     18.11425    22.500577    19.296753    7864.9913    6810.6601    9033.2321    7500.4998    683.72703    1593.7584    539.81012   -3613.9693 
 8536000    219.14104   -4941.7822   -4503.4731   -4941.7822            0    6930.6063    17.936275    22.732949     19.37288    7899.1837    7086.3005    7961.7914     5743.727    321.74978    509.91521   -356.85443   -3705.0569 
 8537000    225.28248   -4921.9908    -4471.398   -4921.9908            0    8783.9344    17.808395    22.947874    19.220631    7854.7954    9023.1186    8376.0525    8952.6322   -753.78372    741.72775    1925.0241    -3465.162 
 8538000    209.69851   -4893.2208   -4473.7978   -4893.2208            0    9473.3774    17.857244    23.152067    18.963235    7840.0101    10356.171    8215.2418    9848.7198    1265.1754   -669.05969    739.52313    -3390.626 
 8539000    223.21182   -4926.7065   -4480.2553   -4926.7065            0    8519.1367    17.885008    23.064705    19.077499    7869.7056    10276.975    7762.4244    7518.0102    -794.8341   -805.42435   -714.99569   -3502.5005 
 8540000    232.47996   -4935.5709   -4470.5822   -4935.5709            0    6964.9356    17.684076    23.121579    19.321817    7900.3775    9554.3588    6346.1831    4994.2648    576.85005   -335.94387     87.85201     -3668.09 
 8541000    220.30165   -4905.1461   -4464.5156   -4905.1461            0    8566.4445    17.915614    22.876867    19.185299    7863.1547    8695.5136    8376.6123    8627.2076   -1239.7807   -264.79168    1810.7049   -3482.1496 
 8542000    230.62871   -4926.8878   -4465.6019   -4926.8878            0    9901.4105     17.78904    22.829499    19.224203     7807.235    11647.129    8781.1194    9275.9828    -877.9566   -1067.9541   -633.92426   -3338.2222 
 8543000    233.91354   -4922.8889    -4455.033   -4922.8889            0    8894.4442    18.007153    22.669287     19.24579    7856.3106    9148.7302    8524.4343    9010.1681     303.7002    73.791269    794.64405   -3435.9411 
 8544000     217.1062    -4930.197   -4495.9578    -4930.197            0    10088.226    17.870504    22.633206    19.372535    7835.5473    9797.0889    10167.049     10300.54   -236.32139   -386.73704    1067.4561   -3343.1417 
 8545000    219.09027   -4943.4511   -4505.2435   -4943.4511            0    9038.9097    18.073669    22.679636    19.218433    7877.7168    9019.9963    8852.1414    9244.5913    550.17856   -1330.5904   -1719.1211   -3466.7775 
 8546000    228.42874   -4948.4405   -4491.5549   -4948.4405            0    6724.5203    18.132829    22.685754    19.218067    7905.4846    6770.0584     6718.112    6685.3905    1324.1933    106.03417   -283.90168   -3716.2622 
 8547000    228.04763    -4927.603   -4471.4796    -4927.603            0    8646.8548    17.919144    22.892535    19.136898    7850.2355    7238.7464    8261.0619    10440.756    560.22976    377.25856   -699.86494   -3481.5216 
 8548000    223.31038   -4930.3076   -4483.6593   -4930.3076            0    8817.6258    17.763138    23.041933    19.112097    7822.5244    8150.0903    8757.4508    9545.3364    1553.5288   -88.233491    264.33777   -3477.7137 
 8549000    231.09091   -4913.6287   -4451.4183   -4913.6287            0    9838.0953    17.733452    23.135513     19.08794    7831.2573    9433.7228    9472.4786    10608.084    1945.8538   -513.08551    1079.3679    -3327.801 
 8550000    210.42739   -4920.0906   -4499.2099   -4920.0906            0    7600.0839    17.746089    23.283786    19.109776    7896.0859    7193.6209    8391.2486    7215.3821   -95.935255    645.28268    462.78522   -3624.0122 
 8551000    231.51979   -4885.5088   -4422.4406   -4885.5088            0    7905.5984    17.767975    23.143357    19.250366    7915.9545    8127.2721    8128.8307    7460.6925   -860.31785     644.1745    2385.6856   -3509.7703 
 8552000    216.48774   -4932.3489   -4499.3467   -4932.3489            0    7814.8892    17.979667    22.924126    19.191158    7909.9843    8479.9167    7725.2317    7239.5193    985.47965    827.04496    3628.5477   -3597.8288 
 8553000    219.49214   -4947.4575   -4508.4461   -4947.4575            0    8277.7538    17.958939    22.888441     19.17161    7880.5308    7911.5391    8268.7848    8652.9374   -145.33857    1161.9197     878.2867   -3557.0883 
 8554000    240.06276   -4926.3435   -4446.1883   -4926.3435            0    8065.4958    17.915742    22.799087    19.260239    7867.0867    8574.5767    8247.3144    7374.5962    85.801818    1022.4363   -467.36953   -3520.8067 
 8555000    227.52079   -4911.3555   -4456.2858   -4911.3555            0    8694.2087    18.102748    22.636381    19.221717    7876.6889    6560.9252    9499.0106     10022.69   -738.70329   -270.75694   -177.03831   -3457.5522 
 8556000    236.12114   -4905.9471   -4433.6757   -4905.9471            0    9783.0614    18.014796    22.653986    19.251987    7856.8693    9272.9276    10901.108    9175.1481   -474.26082   -7.2669654   -703.42809   -3312.6897 
 8557000    208.02323   -4920.0114   -4503.9392   -4920.0114            0    8235.5073    17.956502      22.6897    19.348102    7882.9513     9544.273    7962.6734    7199.5755    695.06669     161.5444    573.89972   -3557.1461 
 8558000     223.2633   -4917.6858   -4471.1316   -4917.6858            0    7076.9219    17.843588    22.877787    19.368018    7906.4474    8709.5587    5670.8087    6850.3984    1629.1549   -1658.9164    1840.1521     -3655.11 
 8559000    218.47164   -4919.5515   -4482.5812   -4919.5515            0     7580.891    17.963263     22.89321    19.254937    7918.3378    6848.2339    7492.7649    8401.6743    684.75042   -17.519013    1915.0099   -3607.1336 
 8560000    228.03632   -4938.4759   -4482.3751   -4938.4759            0    7969.8065    17.940004    22.958643    19.154532    7889.3331    5889.7125    8164.7743    9854.9327    250.27178    395.81938   -1758.7664   -3565.3865 
 8561000     230.1099   -4923.2373   -4462.9891   -4923.2373            0    6467.3999    17.851487    22.999659    19.301825    7924.9067    6844.2626    6453.4367    6104.5004   -142.30759    416.53614   -328.76707   -3715.5088 
 8562000    231.77785   -4895.5546   -4431.9703   -4895.5546            0    8312.0935    18.033658    22.972095    19.022626    7880.5205    8185.4615    7115.0854    9635.7335    1672.2155    518.42212    827.98102   -3476.6671 
 8563000    225.09133   -4903.0293   -4452.8188   -4903.0293            0    7617.1147    17.868089    23.072799    19.161738    7899.7487    8801.7362    6069.1591    7980.4487   -19.228161   -54.912624    200.63601   -3575.2531 
 8564000     210.1662   -4906.9553   -4486.5969   -4906.9553            0    8216.8418     17.83105    22.893936    19.341003    7895.4406    8893.8225    7930.6866    7826.0164    1113.1956   -859.61385    369.44274    -3540.453 
 8565000    214.13654   -4924.3753   -4496.0758   -4924.3753            0    9289.4505    18.045035    22.590515    19.293371     7864.878    7540.3139    10341.089    9986.9485    1084.9101    475.83237   -271.26694   -3430.5649 
 8566000    229.38099   -4904.8168   -4446.0265   -4904.8168            0    7710.2115    18.039827    22.573036    19.500662    7940.9363    6617.9308    8237.9561    8274.7476    845.27793   -687.38617    243.72441   -3553.1038 
 8567000    224.06612   -4933.9229   -4485.7629   -4933.9229            0    8767.0983    18.054566    22.586683    19.320046    7878.5747    7517.4489    9974.7105    8809.1355   -111.57434    643.55313   -1403.6054   -3478.4152 
 8568000    212.22184   -4894.1656   -4469.6957   -4894.1656            0    9536.6288    18.024133    22.714717    19.239444    7876.8801    8870.1165    9738.9443    10000.825    864.54596    -153.1918    860.55427   -3374.1639 
 8569000    215.36828   -4937.9636   -4507.2004   -4937.9636            0    9021.8525    17.897681    22.692023    19.354829    7860.6658    10738.251    7547.4774    8779.8291   -501.93338   -751.88287    231.12798   -3472.9376 
 8570000    224.76205   -4920.1534   -4470.6015   -4920.1534            0    7404.5295    17.909472    22.817899    19.320893    7895.6088    6847.9254    8997.5913    6368.0718   -1014.1543    478.33671    511.30723   -3617.9747 
 8571000    223.98777   -4927.5184   -4479.5152   -4927.5184            0    7127.9694     17.99061    22.830523    19.246464    7905.1972    5342.4568    8370.7941    7670.6573   -1812.6954   -206.83237   -509.15862   -3657.7373 
 8572000     223.5146   -4873.3981   -4426.3413   -4873.3981            0    8291.1071    17.945785    22.789416    19.356104    7916.1426    9130.8923     7833.802    7908.6268    361.47337   -453.91868    342.57188   -3469.1428 
 8573000    210.52254   -4936.3834   -4515.3123   -4936.3834            0    6881.3968    18.006028    22.943268    19.169556    7919.2718    7683.3145    6434.4272    6526.4488    307.86673     3.574695    1038.3214   -3720.5491 
 8574000    213.98884   -4937.0195   -4509.0154   -4937.0195            0    7317.2979    18.001893    22.774855    19.293669    7910.2212     6171.765    7502.3901    8277.7385    1069.6483    1041.0937   -426.74412   -3664.8739 
 8575000    222.82494   -4932.3866   -4486.7092   -4932.3866            0    8383.4161     18.08166    22.797047    19.072082    7861.6733    7899.4562    8642.6637    8608.1282    -888.3602    358.35454    1019.6141   -3525.5133 
 8576000     215.5969   -4898.9308   -4467.7103   -4898.9308            0    8110.0913     17.85061    22.979029    19.305881    7919.0735    9327.7163    8238.1145     6764.443    1396.3779    1013.7327    551.63541   -3531.0632 
 8577000    216.38605   -4946.1141   -4513.3153   -4946.1141            0    7306.5933    17.786858    23.036519    19.246115    7886.0436    7199.1822     6531.493    8189.1049    1253.0806   -1156.1733   -684.67474    -3672.985 
 8578000    232.32164   -4900.9454   -4436.2734   -4900.9454            0    8694.3437    17.982159     22.93965    19.104423    7880.6592    7455.6223    8830.1198    9797.2891   -187.33507   -469.23161   -283.77434   -3437.0209 
 8579000    229.54208   -4945.4502   -4486.3377   -4945.4502            0    8615.8601    17.917968    22.729139    19.281438    7852.5578    7562.6514    8968.3803    9316.5486    26.579033    -613.5267   -47.042696   -3499.6365 
 8580000    231.05625   -4911.7012   -4449.5602   -4911.7012            0    9759.1828    18.013969    22.586737    19.366969    7879.9695    11785.097    8231.9052    9260.5466    1502.8101    92.595886   -1081.8572   -3328.0225 
 8581000    229.44159   -4920.3931   -4461.4815   -4920.3931            0    9594.4774    18.033742    22.478646    19.390828    7860.5393     8771.193    11041.172     8971.067    985.09896    134.46399    -133.5549   -3361.5908 
 8582000     218.1046   -4943.0208   -4506.7847   -4943.0208            0    9527.6548    18.010917    22.661391    19.241873    7853.6174    10280.006    9132.8272    9170.1313   -149.49627     590.8715   -84.016459   -3415.5161 
 8583000      222.517   -4916.2674   -4471.2059   -4916.2674            0    7196.4236    18.091107    22.816477    19.174977    7914.9576    5795.5122    7615.4321    8178.3265   -282.70159    669.62412   -889.11301   -3640.5117 
 8584000    226.78773   -4900.0694    -4446.466   -4900.0694            0    8388.1771    17.897206    22.837716    19.344424    7906.6719    7592.7221    9214.2265    8357.5827    -1717.791    92.242447   -922.75064   -3479.2194 
 8585000    209.83916   -4907.5062   -4487.8019   -4907.5062            0    10271.929     17.83168     22.76845    19.347607    7855.1229    10962.562    11155.757    8697.4686   -612.62211   -155.48795   -213.25833   -3311.0609 
 8586000    214.96573   -4916.7533   -4486.7953   -4916.7533            0    7172.7119    17.952044    22.912325    19.225085    7907.7209    7627.3216    6717.5418    7173.2721   -1529.8072   -1196.2511    1038.6543   -3659.5952 
 8587000    223.02722    -4934.042     -4487.96    -4934.042            0    8312.1181     17.91896    22.823074    19.248218    7871.8624    9263.5521    7988.1815    7684.6205   -814.89823   -879.31987    942.11109   -3533.7036 
 8588000    213.54515   -4905.0142   -4477.8975   -4905.0142            0    6210.8172    18.039642    22.937873    19.217565    7952.0557    6808.7879    5572.3975    6251.2662   -513.36613    -734.7744    751.96801   -3757.6131 
 8589000    220.47244   -4961.1437   -4520.1716   -4961.1437            0    7254.1464    17.758839    23.071465     19.23948    7882.8464     7974.357    7849.7115    5938.3707    1180.3595    395.20809   -2617.3077   -3686.2115 
 8590000    220.30417   -4930.1201   -4489.4846   -4930.1201            0    9817.6586    17.904518    22.930958    19.090082    7837.7719     9886.383    9205.7048    10360.888   -249.23799    1757.6201   -1978.6954   -3367.2686 
 8591000    219.57941   -4931.7343   -4492.5484   -4931.7343            0    8507.2569    17.875557    22.987368    19.192882    7886.5857    10741.253    7150.5608    7629.9567   -344.87304    718.55296    561.94442   -3514.0628 
 8592000    225.26868   -4929.1619   -4478.5967   -4929.1619            0    10157.446     17.81347     22.75677    19.309628    7827.6796    8816.7632    10956.761    10698.815   -109.49936   -272.77905   -1753.7799   -3319.0361 
 8593000    224.41317   -4904.4433   -4455.5893   -4904.4433            0    7181.7249    18.060638    22.685612    19.254887    7889.0474    7769.2754    6966.5445    6809.3547    1242.1959   -427.11649   -485.48043   -3629.3055 
 8594000    221.19227   -4926.2171   -4483.8053   -4926.2171            0    7703.7192    17.989951      22.4901    19.537482    7904.7831    7956.5091      9178.45    5976.1984   -61.980422    25.642216   -424.64226   -3595.6962 
 8595000    211.29531   -4938.5713   -4515.9546   -4938.5713            0    7659.0757    17.985148    22.620968    19.414157    7898.4838    8304.8999    7796.1231    6876.2041    827.06112    295.11882    1014.0738   -3633.6958 
 8596000    217.33266   -4903.3652    -4468.673   -4903.3652            0    8941.7165    18.041972     22.85793    19.134754    7891.2134    7195.8009     8834.236    10795.113   -951.38269    362.59452   -776.94293   -3439.6133 
 8597000      215.739   -4915.7206   -4484.2159   -4915.7206            0    7099.1971    17.934524    23.059197    19.089003    7894.3664    5680.9998    7916.9623    7699.6293   -784.16325    1273.5622    1490.6725   -3666.8766 
 8598000    210.63562   -4906.9019   -4485.6047   -4906.9019            0    7783.9614    17.751927    23.098589    19.300746    7914.1643     9891.318    6784.9046    6675.6616    324.94835   -485.43293    555.56906   -3587.1801 
 8599000    221.86413   -4930.4607   -4486.7051   -4930.4607            0    8703.6792    17.924386    22.907752     19.22871    7895.4503    8106.9191    8626.7922    9377.3263   -661.30065    175.66976   -423.57396   -3484.5021 
 8600000    221.43792   -4929.8506   -4486.9474   -4929.8506            0    8344.1641    18.030219    22.751478    19.263329    7902.0896    9609.6616    8396.7201    7026.1105    299.78628   -677.43011   -349.83946   -3525.3336 
 8601000    216.64379   -4953.2347   -4519.9203   -4953.2347            0    6177.3887    18.039314     22.57175    19.471927    7928.5572    7054.1487    6870.3782    4607.6393    340.39195   -241.39461   -600.46012   -3805.6297 
 8602000     215.5274   -4906.5779   -4475.4964   -4906.5779            0    7534.6191    18.024978    22.857984    19.262919    7936.6051    7793.6093    7587.6169    7222.6311   -58.215885   -465.27155    1101.1314    -3603.385 
 8603000    228.39825   -4918.2434   -4461.4187   -4918.2434            0    8081.8093    18.015597    22.609623    19.361447    7886.4181    8156.2284    8831.1519    7258.0475    144.30806   -410.02723    1724.7948   -3531.8868 
 8604000    226.02749   -4921.2873   -4469.2044   -4921.2873            0    6005.9209    17.921088     22.57594    19.566221    7916.2074    6251.5217    6567.4256    5198.8155     83.00838   -963.65678    151.94849   -3775.8222 
 8605000    232.03508   -4894.8644   -4430.7656   -4894.8644            0    8754.4853    18.008003    22.595879    19.350331    7873.7786    9511.2723     9147.927    7604.2565    536.83532    1482.7577   -136.23026   -3425.4794 
 8606000    217.24972   -4934.3827   -4499.8565   -4934.3827            0    9496.9806    18.096499    22.663196    19.158267     7857.275    8435.4228    9602.2785     10453.24   -319.87331    228.45518    1285.3531   -3411.5947 
 8607000    228.26286   -4918.4405   -4461.8865   -4918.4405            0    9552.2386    17.849586    22.634399    19.322556    7806.5956    10299.196    9651.2034    8706.3164    439.07113    585.20869    152.22577   -3374.3528 
 8608000    223.95643   -4899.8119   -4451.8714   -4899.8119            0    10415.417    17.840288    22.872257    19.193075    7831.6892     11068.66    10011.879    10165.713   -72.755536   -483.98371   -1127.9245   -3262.2521 
 8609000    216.11602   -4911.9967    -4479.738   -4911.9967            0    8784.4283    17.873761    23.026146    19.090365    7856.9036     6633.747     10094.49    9625.0479    558.33861    253.34378   -1127.4322   -3473.1754 
 8610000    223.70185   -4905.7009   -4458.2695   -4905.7009            0    7306.9825    17.830788    23.003799    19.260208     7900.072    7343.6624    6809.6752    7767.6098   -1434.2201    144.70655   -1139.6645   -3616.3996 
 8611000    225.59811   -4897.0383   -4445.8142   -4897.0383            0    7908.9776    17.871908    23.251361    19.088649    7932.2152     8069.333    7237.5051    8420.0945    -1924.543    319.65488   -1947.5745   -3530.8782 
 8612000    215.58225   -4900.9823   -4469.7911   -4900.9823            0    7704.5157    17.787855    23.086274    19.193208    7881.7926    8393.4623    7243.3483    7476.7364   -325.61845    1057.0621    743.57018   -3584.1735 
 8613000    217.67831   -4924.0471   -4488.6635   -4924.0471            0    9125.2258    17.857092    23.001437    19.177135    7876.7929    8416.3763    9468.9071    9490.3941   -643.58086    1843.3918    -547.2643   -3440.4037 
 8614000    218.32808   -4895.1189   -4458.4358   -4895.1189            0    9074.6544    17.875172    23.045455    19.111309    7872.7407    9267.5925    7941.6192    10014.752    153.34006   -119.18645   -611.09077   -3416.5216 
 8615000    220.94446   -4920.4326   -4478.5163   -4920.4326            0    8314.1348    17.893759    22.681529    19.394764    7871.5164    8871.3477    8877.2747    7193.7821    528.07134   -377.93305    868.79758   -3524.0704 
 8616000    222.59787   -4944.5755   -4499.3523   -4944.5755            0     8505.772    18.095496    22.571637    19.238252    7857.7674    7959.1656    8912.3652    8645.7852   -1050.3625   -637.51814   -239.90814   -3524.6123 
 8617000    215.57397   -4936.2877   -4505.1131   -4936.2877            0    8327.1471    17.951765    22.513409    19.418209    7847.9745    7933.0603    9477.2872    7571.0938    402.17412   -1547.1575     784.2141   -3552.0324 
 8618000    215.76197   -4922.1619   -4490.6113   -4922.1619            0    8925.3044    17.942041     22.63362    19.330686     7850.063    8475.5476    8633.6005     9666.765      -649.68   -1547.2748   -495.35344   -3468.7968 
 8619000    223.88336   -4943.0018   -4495.2074   -4943.0018            0    8103.6686    17.878234    22.889611    19.273931    7887.3902    7694.5834    7840.7229    8775.6996   -1000.2427   -527.35782    1118.8211   -3563.0465 
 8620000    225.15868   -4936.0134   -4485.6682   -4936.0134            0    7422.5178     17.92869     23.03103    19.123943    7896.5859    6991.4776    6814.4566    8461.6193   -992.02459   -474.12438      1516.61   -3630.8643 
 8621000    218.60569   -4927.2273   -4489.9889   -4927.2273            0    9200.4606    17.803759    22.896647    19.224625     7836.849     9217.294    10289.893    8094.1948   -820.09618     1037.034   -1730.8256   -3438.4462 
 8622000    228.80103   -4912.1778   -4454.5475   -4912.1778            0    8945.5086     17.94289    22.768711    19.266337    7871.0015    8180.1228    10363.684    8292.7189    2087.0317    1614.5611   -22.958091   -3427.6882 
 8623000    216.87396   -4923.2471   -4489.4724   -4923.2471            0    6912.0597     18.14037    22.686368    19.265033    7928.3143    4062.2959    7986.1807    8687.7025    516.66992    608.84678   -958.89651   -3690.2563 
 8624000    227.07642    -4915.456   -4461.2752    -4915.456            0    9095.8094    18.057655    22.735135    19.162334    7866.9664    8143.9489    9267.3046    9876.1747    877.17147    86.607463    1101.0949   -3417.6981 
 8625000     230.1871   -4908.4945   -4448.0919   -4908.4945            0     8801.072    17.845652    22.697407     19.46338    7883.6421    10292.055    8139.3742     7971.787    415.15961    122.40924   -1491.7689   -3436.1901 
 8626000    222.76826   -4934.4232   -4488.8592   -4934.4232            0     8626.188    17.991145    22.719879    19.258859     7872.186    9705.6677    8573.8911    7599.0053   -528.57915    -622.0068   -629.02204   -3498.5059 
 8627000    212.60987   -4917.0866   -4491.8406   -4917.0866            0    7942.8709    17.961584    22.790507    19.308482    7903.9967    8210.0572    7650.1743    7968.3812    1822.0659   -494.30223    1314.5996   -3576.2525 
 8628000    214.04786   -4919.7034   -4491.5812   -4919.7034            0    7748.6051    17.870978    22.850786    19.381922    7914.9158     8312.088    6818.3002    8115.4271    133.62174    371.74926   -149.31794   -3597.1525 
 8629000    239.28867    -4906.671   -4428.0641    -4906.671            0    9146.5531    18.012836    22.810973    19.125909    7858.6511    8877.1888    9816.9557    8745.5149   -1302.9256    835.64061   -740.79464   -3379.7743 
 8630000    213.32406   -4926.3223   -4499.6478   -4926.3223            0    9193.4514    17.989501    22.739458    19.193857    7851.6603    9852.4867    9373.3655     8354.502    170.32412    516.58401    1361.6485   -3446.9203 
 8631000    214.29416   -4936.6278   -4508.0129   -4936.6278            0    9221.1108    17.853691    22.707708    19.277884    7815.5704    9003.3499    10241.766    8418.2165   -1404.7588   -645.75585   -51.389617   -3456.9716 
 8632000    227.22428   -4905.2355   -4450.7589   -4905.2355            0    6089.5638    18.009221    22.731794    19.404465    7943.8366    6378.8135    7446.7713    4443.1066   -1069.0256   -564.34412    907.19005   -3745.2664 
 8633000    222.59375   -4902.1027   -4456.8877   -4902.1027            0       8178.3    17.931925    22.782617    19.322841    7894.0797    9055.2212    8052.6579    7427.0209   -422.23411   -1305.3584   -561.37151   -3515.3441 
 8634000    217.85876   -4933.9444      -4498.2   -4933.9444            0    8556.9723    17.951011    22.805873    19.233387    7873.9269     7025.266    8164.0744    10481.577    1098.0605    36.911177    1066.6923   -3515.5759 
 8635000    224.88393   -4942.8399   -4493.0442   -4942.8399            0    8142.0666    17.843135    22.805865    19.329868    7865.8669    10122.182    7685.9067     6618.111    119.11213   -458.79421    -1148.702   -3559.0222 
 8636000    220.65692   -4902.2209   -4460.8798   -4902.2209            0    8637.5817    17.958431    22.753942    19.306008    7888.9192    8206.3575    9347.6256     8358.762    751.16845    228.92091   -17.119806   -3467.1105 
 8637000    213.92949   -4917.7559   -4489.8705   -4917.7559            0    8044.3673    18.002346    22.790851    19.203634    7879.0358    6142.9844    9091.8669    8898.2507    1585.2489    1126.0596    238.25832   -3565.5111 
 8638000    218.72997   -4918.3153   -4480.8284   -4918.3153            0    10006.479    17.967229    22.640329    19.328659    7862.5888    10458.415    9498.8259    10062.197    16.859985    979.46662    1216.1559   -3333.4075 
 8639000    213.58066   -4930.0351   -4502.8473   -4930.0351            0    10724.185    17.786089    22.728891    19.310645    7806.4843    11254.136    11398.329    9520.0888    -43.34382     711.2053   -616.21496   -3281.9036 
 8640000    218.47591   -4904.0084   -4467.0296   -4904.0084            0     8427.256     17.81984    22.966652    19.256205    7880.8342      8191.36    8015.7739     9074.634    663.15569     179.6834    927.11176   -3498.4524 
 8641000    215.55942   -4914.8065    -4483.661   -4914.8065            0    8620.0464    17.859084    22.940017    19.239805    7882.3113    8352.1046    8776.8071    8731.2276    661.75292    299.91949   -931.98619   -3492.7399 
 8642000    221.96455   -4917.1855    -4473.229   -4917.1855            0    9513.3296    17.929143    22.651923    19.328665    7849.9421    8343.5978    10511.085    9685.3058   -660.08794   -121.78616   -962.90685   -3384.1111 
 8643000    225.76667   -4947.7425   -4496.1812   -4947.7425            0    6768.2811    17.846438    23.023767    19.358715    7954.3455    6721.5001    6998.7813     6584.562    177.57021    19.578506    343.72393   -3711.0202 
 8644000    225.46638   -4929.1876    -4478.227   -4929.1876            0    7899.5321    17.890839    22.963542    19.187207    7882.8149    6824.9496    8014.7519     8858.895   -258.96136    276.78059   -298.57649   -3570.0749 
 8645000    224.23948   -4927.4713   -4478.9646   -4927.4713            0    8546.5171    17.908605    22.950331    19.151269    7871.3327     7262.524    7292.4349    11084.592   -628.40773   -324.57036   -2414.0945   -3497.8645 
 8646000    218.17631   -4924.9765   -4488.5969   -4924.9765            0    7744.6227    17.718023    22.927442     19.37675     7871.397    9165.0769    7149.5682     6919.223    581.63489   -1186.3076   -351.35289   -3599.5433 
 8647000    213.69563   -4936.8802   -4509.4626   -4936.8802            0    7181.9779    17.869867    22.866554    19.319721    7894.4686    5917.4386    8345.3016    7283.1934   -744.34404    356.06863    105.96948   -3682.5819 
 8648000    219.56907   -4928.5229   -4489.3577   -4928.5229            0     8784.643    17.972833    22.826227    19.207133    7879.7643    8533.3964    9154.2801    8666.2527     279.1276     108.9723    1241.5768   -3479.8416 
 8649000    235.98611   -4925.7297   -4453.7283   -4925.7297            0     8703.424    17.886099    23.007771    19.185931    7895.3804    8903.2424    7597.8896    9609.1401   -1190.5813   -691.55414    95.469643   -3451.5636 
 8650000    220.28386   -4931.3593   -4490.7643   -4931.3593            0     7949.358    17.915862    22.908865    19.202548    7881.3416     9859.411    7296.4604    6692.2026    -347.8148    1362.4151    2127.5428   -3577.0549 
 8651000      229.057   -4897.7317   -4439.5894   -4897.7317            0    8083.1689    17.863105    23.050714    19.243384    7923.6044    10002.478    6099.0681    8147.9605    -1137.585    280.05711   -860.93615   -3505.5174 
 8652000    212.72552   -4898.4297   -4472.9523   -4898.4297            0    7100.2416     17.99098    22.772938    19.293008    7904.4891    6379.6912    7251.3984    7669.6353   -394.79349    184.33755    -1899.407   -3654.4445 
 8653000      229.887   -4919.7311   -4459.9287   -4919.7311            0    9432.6457    17.974694    22.632043    19.206946    7813.4636    8945.8623    9647.1668    9704.9079   -1057.6976    413.17856    514.04634   -3385.0659 
 8654000     222.9392   -4930.2084   -4484.3024   -4930.2084            0    8436.8898    18.097149    22.509666    19.329817    7874.2093    8247.4781     8516.185    8547.0064     1044.492   -1363.5971    1938.6336    -3515.433 
 8655000    215.04658   -4919.5683   -4489.4486   -4919.5683            0    7449.0957    17.969872    22.562561    19.489088    7901.7791     7252.225    8583.4618    6511.6002   -237.11231   -320.52038   -996.17197   -3631.0197 
 8656000    218.56595   -4945.1425   -4507.9836   -4945.1425            0     8238.723     17.98855     22.71256    19.297751    7884.4056    7258.3061    8611.1085    8846.7544    -102.6003   -412.31905    -58.58806    -3560.646 
 8657000    220.73996   -4927.4973   -4485.9901   -4927.4973            0     8116.706    17.884068    22.861763    19.313609    7896.5877    10152.874    7605.7845    6591.4594   -62.356514   -479.06649    519.25105   -3551.2408 
 8658000     216.7472   -4939.4668   -4505.9456   -4939.4668            0    7117.8681    17.765435    23.040128    19.224075    7868.7579    9459.8091    5160.9512     6732.844   -113.28859   -474.95994   -694.32002    -3689.115 
 8659000    209.34378   -4913.4202   -4494.7068   -4913.4202            0    8222.0631    17.850891    23.147471    19.022111     7859.993    7640.7349    7694.7441    9330.7103   -732.28709    193.77452   -709.98203   -3552.2122 
 8660000    228.75637   -4926.7773   -4469.2363   -4926.7773            0    7999.8954    17.840675    23.055418     19.18839    7892.6493    9667.1518    6642.2284    7690.3062    347.12853    452.10464    1161.1368   -3548.3988 
 8661000    214.65568   -4924.7897   -4495.4518   -4924.7897            0    9342.9424    17.875824     22.89797     19.20004    7858.9616    8182.4088    9862.4078    9984.0108    591.86445    1414.7833      519.936   -3424.6114 
 8662000    220.31697   -4911.6898   -4471.0286   -4911.6898            0    7449.8327    17.921257    22.969402    19.237944     7919.118    6205.7247    8142.7021    8001.0715    799.75749    770.35171    66.894981    -3610.631 
 8663000    220.76358   -4923.1488   -4481.5944   -4923.1488            0    8308.4709    17.941725    22.817119    19.246743    7879.2021    6279.3106    8817.0432    9829.0589   -1231.8126   -226.35703    1996.0671   -3526.8673 
 8664000    210.70994   -4906.4481   -4485.0022   -4906.4481            0    8394.8271    17.915466    22.700789    19.377849    7880.8784    8335.6149    8889.2913    7959.5751   -1031.9026   -31.767974    64.900837   -3520.1467 
 8665000     219.9189   -4932.6597   -4492.7947   -4932.6597            0      7597.76    18.012021    22.613157    19.398729    7901.2702    8296.7932    7053.1316    7443.3552    441.46118   -572.16544   -342.43401   -3617.2903 
 8666000    231.34606   -4905.6207      -4442.9   -4905.6207            0    7458.1662    18.081917    22.650646    19.356641    7927.8433    8631.4622      7328.82    6414.2163   -987.95405   -689.58973    -313.9683   -3580.5908 
 8667000     219.3317   -4930.1368   -4491.4463   -4930.1368            0    7386.6804    17.980726    22.715189    19.354453    7905.0478    7994.2141    8417.0405    5748.7866   -351.22688    1150.7935    -353.8849    -3639.858 
 8668000    226.64015   -4910.5084   -4457.2001   -4910.5084            0    7423.4158    18.020878    22.941296    19.119152    7904.2832    6492.6212     7512.688     8264.938   -304.18812   -544.86501    287.47062   -3601.4595 
 8669000    232.01581   -4916.1247   -4452.0644   -4916.1247            0    9017.2872    17.872927    22.927661    19.243598    7885.7262    10313.453    7327.5365    9410.8724   -1797.7326    350.50282   -224.49333   -3415.0293 
 8670000    226.02292    -4916.903   -4464.8292    -4916.903            0      9547.36    17.745238    22.818946    19.325312    7825.3528     11649.16    9429.0502    7563.8697    364.69513    113.84454   -939.12148   -3375.2392 
 8671000    216.46838   -4902.2705   -4469.3069   -4902.2705            0     7222.076    18.092047     22.98635    19.029718     7913.891    5416.9485    7350.1513    8899.1282   -540.66888    143.12375   -2367.3951   -3635.7639 
 8672000    209.11662   -4912.6419   -4494.3829   -4912.6419            0    7336.6206    17.840006    22.927238    19.321562    7902.9453    7575.4442    7223.8261    7210.5915    485.94384    648.85936     2383.324   -3648.7907 
 8673000    216.56208   -4932.3892   -4499.2383   -4932.3892            0    9039.8245    17.799749    22.860776    19.279902    7845.3019    9602.5434    9561.7241     7955.206   -225.74317    465.54934     537.6158   -3464.9407 
 8674000    232.73526   -4950.2795   -4484.7802   -4950.2795            0    8305.1032    17.884052     22.86516    19.206021    7853.7586    7960.8952    7601.9768    9352.4374    136.10402   -108.91575    288.02942   -3533.5219 
 8675000    216.05765   -4924.6416   -4492.4996   -4924.6416            0    8059.1382    18.056217    22.743112     19.18775     7879.537    6702.7239      7827.42    9647.2708    114.64445    300.41898    104.91778    -3566.384 
 8676000    217.30459   -4924.0372   -4489.4012   -4924.0372            0    8583.8116     18.08923    22.528875    19.336636    7880.2596    9261.4318    8383.6493    8106.3537    174.64933   -794.18084   -141.96053   -3502.9024 
 8677000    226.93909   -4913.7252    -4459.819   -4913.7252            0    7405.4866    17.885166    22.722807    19.459454    7908.3449    8068.4736    8009.8537    6138.1325   -338.27449    790.28198    1149.1821   -3605.7065 
 8678000    229.99455   -4931.8831   -4471.8656   -4931.8831            0    8419.8163    18.049262    22.830869    19.150559    7891.5689    8864.2225    8314.1184    8081.1081    208.54661   -64.811748    244.34535   -3502.8252 
 8679000    213.28145    -4892.215   -4465.6257    -4892.215            0    8410.5078    17.997749    22.875704    19.238698    7920.7871    8606.9965     8272.609    8351.9179   -1888.4838    765.22446    373.09971   -3494.0728 
 8680000    227.62404   -4929.8835   -4474.6073   -4929.8835            0    8101.2703     17.83122    22.798571    19.373213    7875.7213    8406.0061     9567.255    6330.5499   -108.94812     542.0775    759.90032   -3544.1009 
 8681000    232.18715    -4958.042    -4493.639    -4958.042            0    7817.9253    17.926546    22.878958    19.242749    7892.2346    8500.9411    7890.5163    7062.3185   -603.39451   -263.68754   -666.24938   -3593.7947 
 8682000    217.65557    -4896.155    -4460.817    -4896.155            0    9124.8726    17.893839    22.778448     19.21746    7832.9191     8818.861    9590.7247     8965.032   -481.13883    1389.0117   -753.39817   -3418.4364 
 8683000    206.90822   -4912.4267   -4498.5847   -4912.4267            0    8649.6444    17.917741    22.938629    19.203959    7892.9889    8915.9554    8232.2029    8800.7749   -869.26359   -33.751324   -2501.4322   -3502.9143 
 8684000    204.21396   -4917.4631   -4509.0099   -4917.4631            0    7858.1528    17.906777    22.983074    19.297464    7941.9248    8266.1654    7911.0054    7397.2875   -733.70833    816.73597   -361.64914   -3598.8407 
 8685000    231.49586   -4916.1806   -4453.1603   -4916.1806            0    10372.539    17.909824    22.800447    19.197677    7839.4096    8707.8767    11745.083    10664.657   -1257.8546    1659.7197   -1074.6173   -3267.2705 
 8686000    222.42111   -4911.3312   -4466.4615   -4911.3312            0    8478.6739    17.955818    22.694496    19.352141    7885.9633    8281.5277    8212.5643    8941.9296    81.940841    538.28993   -488.00589   -3491.3403 
 8687000    217.99585   -4926.6301   -4490.6114   -4926.6301            0    8619.4564    18.093638    22.559785    19.294513    7875.8001    7159.2228    9127.1589    9571.9876    813.53606    211.43856   -1255.0234   -3500.5767 
 8688000    223.01846   -4910.9496   -4464.8851   -4910.9496            0    7686.8212    17.965488    22.711426    19.336534    7889.7279    8199.0448    7476.6784    7384.7405    300.57564   -920.19654   -1777.9498   -3580.4119 
 8689000    205.02517   -4908.2932   -4498.2175   -4908.2932            0    9164.9026    17.797881    22.867095    19.346388    7873.7059    10674.047    9250.6786    7569.9819   -53.152256    108.84568   -434.34484   -3445.8124 
 8690000    232.22326   -4895.4548   -4430.9796   -4895.4548            0    9694.0525    17.755881     22.89511    19.336249    7860.6269    11214.249    9754.7721    8113.1362    631.14042    5.2652597   -634.85667   -3319.6614 
 8691000    228.05811   -4931.5376   -4475.3932   -4931.5376            0    7661.0015     17.97854    22.946618    19.135334    7894.2187    7159.5048    7575.0363    8248.4635     1407.018    464.84854   -644.46351   -3593.3891 
 8692000    225.49266   -4922.4436   -4471.4304   -4922.4436            0    8031.0202     17.97333    22.913973    19.163218    7892.1871    7153.8756    7145.0631    9794.1219   -977.62818   -227.36332   -1454.0246   -3547.0644 
 8693000     222.2623   -4919.8612   -4475.3092   -4919.8612            0    10722.555    17.761616    22.744432     19.37109    7825.4913    11781.934    11289.543    9096.1862   -435.44668    2337.6007    2573.6847   -3251.5787 
 8694000    217.30557   -4909.3036   -4474.6656   -4909.3036            0    7971.7191    18.029454    22.849943    19.121606    7877.5667     7206.996    8526.9289    8181.2323    381.53909    255.43814   -165.58944   -3558.8249 
 8695000    221.73252   -4918.7032   -4475.2108   -4918.7032            0    7102.2051    18.069423    22.821172    19.193354    7914.6752    6342.3855    7534.4536    7429.7761   -1151.2924    332.83319   -583.00145   -3655.4216 
 8696000    219.84419    -4920.888   -4481.1725    -4920.888            0    8151.5104    17.766622    22.906006    19.323836    7864.0736    9927.3937    7280.9442    7246.1932    1000.9257     461.7755    820.88073   -3546.2803 
 8697000    217.17043   -4909.7215   -4475.3538   -4909.7215            0    8308.1251    17.864534    22.827743    19.330289    7883.0267    8264.2524    9235.5861    7424.5369   -439.10184    104.48989   -40.726775   -3520.2031 
 8698000    223.99456   -4929.1373   -4481.1205   -4929.1373            0    8281.5135    17.958301    22.786948    19.269007    7885.1641    7650.7314    8404.5477    8789.2615   -1328.5898    160.07002    556.51333   -3528.7711 
 8699000    228.23609   -4920.6387   -4464.1383   -4920.6387            0    7880.9932    17.866307    22.691673      19.5034     7906.998    7895.1696    8806.6584    6941.1516    -436.2206    688.35288    1393.9549    -3555.338 
 8700000    215.88634    -4921.035   -4489.2357    -4921.035            0     6288.013    18.052798    22.925879    19.154772    7927.7055    7226.1658    5227.8019    6410.0712   -1600.0667   -143.34996    -1530.886   -3762.2316 
 8701000    218.70469   -4912.9295    -4475.493   -4912.9295            0    9229.1055    17.863357    22.902633    19.185974    7849.3259    8968.6664    8020.9986    10697.652    313.69156   -162.32705    622.11596    -3418.997 
 8702000     218.4898   -4920.5331   -4483.5265   -4920.5331            0    8228.5231    17.792388    22.862397    19.368468    7878.6406    7657.8951    7982.3534    9045.3208    479.92671    210.18098   -1705.1057   -3538.0536 
 8703000    216.97787    -4934.128   -4500.1455    -4934.128            0    7834.3843    17.823987    22.961099    19.178583    7848.9948    9783.9565     6579.749    7139.4472   -376.74495   -1198.1877   -1925.0878   -3603.3471 
 8704000    222.36174   -4955.8372   -4511.0862   -4955.8372            0      7780.06     17.85835    22.702847     19.44046    7881.8505    8797.5696    8120.1985    6422.4119    1258.9785   -144.76308   -333.10246   -3616.7784 
 8705000    214.56914   -4932.2744   -4503.1096   -4932.2744            0    8820.6599    18.137999    22.541359     19.22192    7858.9809    7423.3684    9337.9189    9700.6924   -452.87807    216.85415   -1183.3925   -3492.1281 
 8706000    220.81342   -4938.3208   -4496.6667   -4938.3208            0    8473.3293    18.099687    22.599157    19.305313    7896.6004    6667.5911     8762.885    9989.5118    1298.0962   -269.98672   -1424.5902   -3520.8458 
 8707000    214.28972   -4902.5752   -4473.9693   -4902.5752            0    8469.4481    17.882919    22.867505    19.321406    7901.2524    10874.929    7255.8286    7277.5869   -1079.4721   -61.323789   -1305.5715   -3498.0207 
 8708000    227.43159   -4911.1753    -4456.284   -4911.1753            0    9552.4774    17.909875    22.920203     19.16686    7867.9572    11059.314    8139.6881    9458.4305    329.81977   -744.17665    600.12989   -3360.1746 
 8709000    211.20865   -4908.6443   -4486.2009   -4908.6443            0    8602.8748    17.961754    22.911057    19.221828    7910.2194     7744.484      8518.12    9546.0205    781.48344   -61.417099    -818.0505   -3493.7523 
 8710000    219.48413   -4904.2182   -4465.2229   -4904.2182            0    9454.4647      17.7823    23.028661    19.199921     7862.417    9118.6054    10066.621    9178.1677   -832.46508    1422.9834   -835.90737   -3381.1239 
 8711000     227.7634    -4932.312   -4476.7571    -4932.312            0    7484.8703    17.926349    23.023401    19.125517    7893.5886     5852.325    7957.9793    8644.3065   -730.63535      63.2846   -316.66036   -3615.0996 
 8712000     217.5865    -4914.373   -4479.1731    -4914.373            0    8520.9544     17.98386    22.796611    19.225541    7881.9154    7789.6672    8787.3563    8985.8396    703.44123    90.123461    1028.1803   -3499.6924 
 8713000    217.78807   -4916.2953   -4480.6923   -4916.2953            0    8743.8214    17.761471    22.707241     19.50865    7868.1121    11590.246    8238.0077    6403.2108    909.85582    -1334.626      420.605   -3477.3532 
 8714000    225.25638   -4932.8325   -4482.2919   -4932.8325            0    8369.9971    17.963357    22.636904    19.323504    7857.6091    8752.6923    9694.2278    6663.0712    103.01166    241.87402    503.67288   -3523.1307 
 8715000    212.01918   -4948.2465    -4524.182   -4948.2465            0    8476.8724    18.066433    22.762849    19.134846    7869.0812    6809.1272    9094.4098    9527.0802    845.35325   -161.44007    1553.5838   -3551.3551 
 8716000    221.15064   -4927.3539   -4485.0253   -4927.3539            0    7886.0419    17.874415    22.884171    19.255549    7876.3124    7174.4461    8485.3691    7998.3107   -204.91174    1643.8835    -671.7862   -3579.1719 
 8717000     216.1699   -4942.0527   -4509.6862   -4942.0527            0    8517.5771    17.888676    22.879809    19.261942    7883.7104    8324.6022    8156.6803    9071.4487    491.67652    1498.3688   -532.70721   -3530.3707 
 8718000    228.84174   -4923.7853   -4466.0736   -4923.7853            0    6588.8589    18.077181    22.908892    19.175128    7940.9613    6514.7788    5399.0024    7852.7956     1225.585    140.83217   -1968.4242   -3703.0127 
 8719000    218.73185   -4913.3479   -4475.8572   -4913.3479            0    9295.8955    17.750372      22.8574    19.334315    7844.4605    11453.971    8751.3563    7682.3591   -719.94914   -333.20796    -450.8517    -3412.375 
 8720000    215.14249   -4936.8013   -4506.4897   -4936.8013            0    9101.5662    17.906644    22.749676    19.290411    7858.3416    7959.5568    9462.8943    9882.2476   -519.76766    327.94798    44.812827    -3463.397 
 8721000    221.08158   -4921.5394   -4479.3489   -4921.5394            0    8639.8059    18.002978    22.705927    19.179279    7839.9964    7742.7885    10267.006    7909.6231   -966.59771    -704.2333   -2646.8092   -3491.4881 
 8722000    212.41743    -4936.106   -4511.2449    -4936.106            0    8702.0759    17.881798    22.632512    19.409752    7855.3208    8987.9702     9260.945    7857.3126   -373.46013    232.19959    1854.4666   -3514.3194 
 8723000    207.96531   -4928.0177   -4512.0614   -4928.0177            0    7477.0277     17.97009    22.932548    19.192932    7909.4065    7570.1088    7013.3106    7847.6635   -419.58834    1020.0818   -34.072933   -3649.5819 
 8724000    217.34552   -4921.1683   -4486.4504   -4921.1683            0    8249.5687     17.86739     23.06928    19.176183    7904.1891    8619.6189    8273.1248    7855.9625    -633.4257    895.83493    580.41715   -3535.4856 
 8725000     212.5875     -4933.77   -4508.5688     -4933.77            0    7165.9916    17.856845    23.043034    19.188233    7895.4956    7555.8079    5976.7153    7965.4517    425.42998   -642.99906    1513.8716   -3683.4213 
 8726000    209.04083   -4901.2948   -4483.1873   -4901.2948            0    7958.9202    18.042523     22.84057    19.174091    7901.6717    6779.1543    8675.6929    8421.9132    761.19925   -218.24022   -113.02994    -3566.019 
 8727000    227.70555    -4881.292   -4425.8528    -4881.292            0    8813.5043     17.95681    22.851946    19.215917    7885.2142    7899.7713    9069.1024    9471.6393   -1241.4606    152.29664    216.49415   -3412.3195 
 8728000    225.94871   -4909.8764    -4457.951   -4909.8764            0    9297.0217    17.813502    22.748853    19.433967    7875.3576    10402.826     8979.462    8508.7768    169.04377   -442.99795    -1451.692   -3390.1508 
 8729000    230.33129   -4918.6484   -4457.9573   -4918.6484            0    9787.8074    17.970483    22.804286    19.164558    7853.7131    10506.563    8804.7731    10052.086    1362.1576     436.1883   -379.37354    -3336.878 
 8730000    239.54647    -4921.062   -4441.9394    -4921.062            0    9034.6583    18.001181    22.850536    19.178864    7888.9694    9480.7401    8678.2298    8945.0048   -619.83164    135.98733   -926.11508   -3402.4792 
 8731000    226.74609   -4904.2842    -4450.764   -4904.2842            0    10215.924    17.837362    22.687399    19.370805    7839.0421    9761.4239    11643.405    9242.9435    1261.2011     1024.091    526.49605   -3282.8347 
 8732000    220.81607   -4919.5196   -4477.8602   -4919.5196            0    7753.8885    18.073464    22.864576    19.143592     7910.938    8279.7981    7437.2281    7544.6392   -214.87876   -644.86933   -974.81513   -3583.2715 
 8733000    213.94787   -4918.9992    -4491.077   -4918.9992            0     7474.959    17.916898    22.868644     19.28349    7901.1237    8805.1242    6842.1063    6777.6465    1245.0416    -651.8061   -509.30353   -3629.7391 
 8734000    229.37271   -4923.7471   -4464.9734   -4923.7471            0    8114.1638     17.86763    22.904119    19.259725     7881.895    7937.6893    8939.0996    7465.7026    1642.2726   -110.81717     3022.534   -3532.2555 
 8735000     211.4673   -4926.4728   -4503.5121   -4926.4728            0    7228.4394     17.99175    22.865134    19.278204    7930.7403    8033.3763    5643.4004    8008.5415    1370.2949   -790.97135   -800.38071   -3667.4584 
 8736000    218.91124   -4917.7533   -4479.9037   -4917.7533            0    9060.7305    17.927438    22.840025     19.22833    7873.2924    8110.8784    9183.1932      9888.12    -837.5932   -150.31762   -572.34439   -3439.5154 
 8737000    214.45185   -4914.4939   -4485.5637   -4914.4939            0    8729.4371    17.851779    22.925389    19.214399    7863.6651    10303.613    8652.5926    7232.1058    -47.36956    96.932631   -5.6515582   -3484.4414 
 8738000    220.21466   -4899.6227   -4459.1662   -4899.6227            0    8282.9697    17.965435    23.121084    18.974442      7881.61    6089.4922    8340.8144    10418.603   -1810.6194    105.96822   -1346.4901   -3507.0786 
 8739000    218.36517   -4917.2139   -4480.4566   -4917.2139            0    7461.2773    17.913078     22.91246    19.251324    7901.3727    7680.2409    8004.8171    6698.7739   -1649.4328     1059.063   -910.75693   -3620.6681 
 8740000    220.42426   -4903.1909   -4462.3151   -4903.1909            0     8566.498    17.850487    22.964156    19.217846    7877.8059    10724.628    6854.0666    8120.7999   -1112.4923    475.93658   -1008.8887   -3478.1126 
 8741000    221.00815   -4935.1799   -4493.1363   -4935.1799            0    10353.643    17.859575    22.605471    19.362291     7817.024    11252.657    10839.342    8968.9297   -1434.0475    190.67333   -477.99506   -3312.7871 
 8742000    228.12432   -4941.5199   -4485.2431   -4941.5199            0    8504.1431    18.030742    22.763994    19.163671    7865.7615    9134.4972    8492.2028    7885.7294    449.71801   -1012.8558    1450.5792   -3509.6983 
 8743000    230.26557   -4914.9181   -4454.3586   -4914.9181            0    8330.5515    17.848651    22.940676    19.235405    7876.1312    8660.2467    7413.5703    8917.8374   -865.51485    190.51515   -715.25943   -3497.4673 
 8744000    228.16442   -4919.1053   -4462.7482   -4919.1053            0      9074.82    17.810418    22.911199     19.25688    7857.9246    8092.4197    9474.9397    9657.1007    651.60005    429.14721   -1131.1303    -3422.776 
 8745000    218.02339   -4891.8065   -4455.7328   -4891.8065            0    9112.7864     17.90645    22.960612    19.207129    7896.8776    8469.5705     9509.367    9359.4217     1466.871    908.23943     210.0191   -3406.2327 
 8746000    216.63117   -4924.7387   -4491.4496   -4924.7387            0    6999.3089    17.862112    23.132068     19.16645    7919.3394    6390.8632    6669.6174    7937.4462    405.77216   -112.95368    26.812561   -3683.0613 
 8747000    229.09342   -4936.2378   -4478.0226   -4936.2378            0    7724.0589    17.778851    23.001423    19.277049    7883.1351    8604.0363    7021.7611    7546.3794    8.9943983   -833.78706    186.56285   -3590.0074 
 8748000     215.0982   -4891.6317   -4461.4087   -4891.6317            0    8152.7936    17.904941    22.547104    19.554009    7894.0432    8375.2046    9155.2401    6927.9362    971.74661    429.13352    291.36563   -3522.8059 
 8749000    221.26309   -4933.1923   -4490.6387   -4933.1923            0    9967.5696    17.987823     22.73953    19.173734    7842.7213    9047.9674    10595.706    10259.035   -1292.3993    127.37224   -1343.7145   -3350.5676 
 8750000    230.26168   -4917.7336   -4457.1818   -4917.7336            0    7639.7645    18.026029     22.84683    19.267688    7935.1587     6013.799    7784.8447    9120.6497    102.53577    1530.8397    1329.5339   -3573.0613 
Loop time of 459.98 on 64 procs for 250000 steps with 1008 atoms

Performance: 93.917 ns/day, 0.256 hours/ns, 543.502 timesteps/s
193.3% CPU use with 32 MPI tasks x 2 OpenMP threads

MPI task timing breakdown:
Section |  min time  |  avg time  |  max time  |%varavg| %total
---------------------------------------------------------------
Pair    | 36.951     | 39.895     | 43.422     |  22.7 |  8.67
Bond    | 0.85952    | 0.98857    | 1.1411     |   7.4 |  0.21
Kspace  | 222.6      | 226.22     | 230.88     |  12.7 | 49.18
Neigh   | 2.702      | 2.8097     | 2.8614     |   2.6 |  0.61
Comm    | 77.613     | 80.988     | 83.911     |  15.7 | 17.61
Output  | 0.69439    | 0.69468    | 0.69618    |   0.0 |  0.15
Modify  | 90.503     | 91.792     | 93.55      |   7.8 | 19.96
Other   |            | 16.59      |            |       |  3.61

Nlocal:        31.5000 ave          37 max          25 min
Histogram: 1 0 4 3 4 8 5 1 4 2
Nghost:        2913.66 ave        2938 max        2876 min
Histogram: 1 1 0 2 4 7 6 5 4 2
Neighs:        10542.5 ave       12382 max        8330 min
Histogram: 1 0 4 3 6 5 6 1 4 2

Total # of neighbors = 337359
Ave neighs/atom = 334.68155
Ave special neighs/atom = 2.0000000
Neighbor list builds = 6694
Dangerous builds = 0

unfix		3
unfix		2
unfix		1

write_data	data.final.${pid}
write_data	data.final.1
System init for write_data ...
PPPM initialization ...
  extracting TIP4P info from pair style
  using 12-bit tables for long-range coulomb (../kspace.cpp:340)
  G vector (1/distance) = 0.37872197
  grid = 24 27 32
  stencil order = 5
  estimated absolute RMS force accuracy = 0.0025226583
  estimated relative force accuracy = 7.5969105e-06
  using double precision FFTW3
  3d grid and FFT values/proc = 5355 672
Last active /omp style is kspace_style pppm/tip4p/omp
WARNING: Not all mixed pair coeffs generated from mixing. Use write_data with 'pair ij' option to store all pair coeffs. (../write_data.cpp:312)

write_restart   restart.lmp.${pid}
write_restart   restart.lmp.1
System init for write_restart ...
PPPM initialization ...
  extracting TIP4P info from pair style
  using 12-bit tables for long-range coulomb (../kspace.cpp:340)
  G vector (1/distance) = 0.37872197
  grid = 24 27 32
  stencil order = 5
  estimated absolute RMS force accuracy = 0.0025226583
  estimated relative force accuracy = 7.5969105e-06
  using double precision FFTW3
  3d grid and FFT values/proc = 5355 672
Last active /omp style is kspace_style pppm/tip4p/omp
Total wall time: 0:07:40
