LAMMPS (30 Jul 2021)
Processor partition = 0
  using 2 OpenMP thread(s) per MPI task
using multi-threaded neighbor list subroutines
variable        pid world 0 1
variable        phase world IceVI Liquid

shell cd ${phase}
shell cd IceVI
include Restart.lmp
echo both
log log.lammps
#include		in.partitions
include		in.temp
variable        temperature equal 262.64
variable	tempDamp equal 100.0
include		in.pressure
variable        pressure equal 8250.0
variable        pressureDamp equal 1000.0 # This is 1 ps
include		in.seed
variable        seed equal 745823

units		real
atom_style	full
read_restart	restart.lmp.${pid}
read_restart	restart.lmp.0
Reading restart file ...
  restart file = 30 Jul 2021, LAMMPS = 30 Jul 2021
  restoring atom style full from restart
  orthogonal box = (-0.18658048 -0.059435133 -0.10850462) to (24.916581 24.789436 22.918505)
  4 by 4 by 2 MPI processor grid
  restoring pair style lj/cut/tip4p/long/omp from restart
  restoring bond style harmonic/omp from restart
  restoring angle style harmonic/omp from restart
  1920 atoms
  1280 bonds
  640 angles
Finding 1-2 1-3 1-4 neighbors ...
  special bond factors lj:    0        0        0       
  special bond factors coul:  0        0        0       
     2 = max # of 1-2 neighbors
     1 = max # of 1-3 neighbors
     1 = max # of 1-4 neighbors
     2 = max # of special neighbors
  special bonds CPU = 0.002 seconds
  read_restart CPU = 0.009 seconds
include 	in.setup
variable	out_freq equal 1000
variable	out_freq2 equal 10000
variable	out_freq3 equal 1000

timestep	2.0

neigh_modify    delay 7 every 1

include		in.tip4p
# This is TIP4P/Ice

# create groups ###
group ox type 2
640 atoms in group ox
group hy type 1
1280 atoms in group hy

# set charges - beside manually ###
set group ox charge -1.1794
Setting atom values ...
  640 settings made for charge
set group hy charge 0.5897
Setting atom values ...
  1280 settings made for charge

# ### TIP3P Potential Parameters ###
pair_style lj/cut/tip4p/long/omp 2 1 1 1 0.1577 8.5
pair_coeff 1 1*2 0.000 0.000
pair_coeff 2 2 0.21084 3.1668
bond_style  harmonic
bond_coeff  1 450 0.9572
angle_style harmonic
angle_coeff 1 55 104.52
kspace_style pppm/tip4p/omp 1.0e-5
pair_modify tail yes

thermo          ${out_freq}
thermo          1000
thermo_style    custom step temp pe etotal epair emol press lx ly lz vol pxx pyy pzz pxy pxz pyz enthalpy

restart 	${out_freq3} restart.lmp.${pid} restart2.lmp.${pid}
restart 	1000 restart.lmp.${pid} restart2.lmp.${pid}
restart 	1000 restart.lmp.0 restart2.lmp.${pid}
restart 	1000 restart.lmp.0 restart2.lmp.0


include         in.dump
dump            myDump all atom ${out_freq2} dump.water.${pid}
dump            myDump all atom 10000 dump.water.${pid}
dump            myDump all atom 10000 dump.water.0
dump            myDump2 all dcd ${out_freq2} dump.dcd
dump            myDump2 all dcd 10000 dump.dcd
dump_modify     myDump append yes
dump_modify     myDump2 append yes


variable natoms 	equal  "count(all)"                        # NUMBER ATOMS
variable H      	equal  "enthalpy/v_natoms"                 # ENTHALPY-per-atom
variable Vol      	equal  "vol/v_natoms"                 # volume-per-atom
fix AVG all 		ave/time ${out_freq} 1 ${out_freq} v_Vol v_H file vol_enthalpy.dat
fix AVG all 		ave/time 1000 1 ${out_freq} v_Vol v_H file vol_enthalpy.dat
fix AVG all 		ave/time 1000 1 1000 v_Vol v_H file vol_enthalpy.dat




fix 		1 all shake 1e-6 200 0 b 1 a 1
Finding SHAKE clusters ...
       0 = # of size 2 clusters
       0 = # of size 3 clusters
       0 = # of size 4 clusters
     640 = # of frozen angles
  find clusters CPU = 0.001 seconds
fix             2 all nph aniso ${pressure} ${pressure} ${pressureDamp}
fix             2 all nph aniso 8250 ${pressure} ${pressureDamp}
fix             2 all nph aniso 8250 8250 ${pressureDamp}
fix             2 all nph aniso 8250 8250 1000
fix             3 all temp/csvr ${temperature} ${temperature} ${tempDamp} ${seed}
fix             3 all temp/csvr 262.64 ${temperature} ${tempDamp} ${seed}
fix             3 all temp/csvr 262.64 262.64 ${tempDamp} ${seed}
fix             3 all temp/csvr 262.64 262.64 100 ${seed}
fix             3 all temp/csvr 262.64 262.64 100 745823


run             250000
PPPM initialization ...
  extracting TIP4P info from pair style
  using 12-bit tables for long-range coulomb (../kspace.cpp:340)
  G vector (1/distance) = 0.37430635
  grid = 30 30 30
  stencil order = 5
  estimated absolute RMS force accuracy = 0.0032889636
  estimated relative force accuracy = 9.9046163e-06
  using double precision FFTW3
  3d grid and FFT values/proc = 5400 960
Last active /omp style is kspace_style pppm/tip4p/omp
Neighbor list info ...
  update every 1 steps, delay 7 steps, check yes
  max neighbors/atom: 2000, page size: 100000
  master list distance cutoff = 10.8154
  ghost atom cutoff = 10.8154
  binsize = 5.4077, bins = 5 5 5
  1 neighbor lists, perpetual/occasional/extra = 1 0 0
  (1) pair lj/cut/tip4p/long/omp, perpetual
      attributes: half, newton on, omp
      pair build: half/bin/newton/omp
      stencil: half/bin/3d
      bin: standard
Setting up Verlet run ...
  Unit style    : real
  Current step  : 7000000
  Time step     : 2
Per MPI rank memory allocation (min/avg/max) = 10.54 | 10.55 | 10.55 Mbytes
Step Temp PotEng TotEng E_pair E_mol Press Lx Ly Lz Volume Pxx Pyy Pzz Pxy Pxz Pyz Enthalpy 
 7000000    275.37755   -9106.6335   -8056.7686   -9106.6335            0    8509.6471    25.103162    24.848871    23.027009    14363.908    6840.2253    10178.493    8510.2227   -14.649659   -795.51929     526.5019   -6274.1433 
 7001000     269.7726   -9122.4435   -8093.9473   -9122.4435            0     7577.808    25.193086    24.887036    22.934532    14379.522     6046.814    9023.2934    7663.3167   -469.00117   -336.88306   -833.54035   -6504.8009 
 7002000    260.80092   -9087.2024   -8092.9104   -9087.2024            0    8037.0347    25.076191    24.903577    23.043709    14390.493    7625.5242    8265.8055    8219.7744    662.83502    -652.0578    348.45021   -6406.1732 
 7003000    262.65356   -9082.4867   -8081.1315   -9082.4867            0    9547.9243    24.963133     24.90453    22.993539     14294.97    9887.0664    8749.1892    10007.517   -669.52153     372.8559     84.86447   -6090.6043 
 7004000    265.97427   -9144.3857   -8130.3705   -9144.3857            0    7783.3815    24.967871    24.937884     23.02069    14333.738    7196.5306    8841.2043    7312.4097   -669.18753   -607.70025    15.148195   -6503.3101 
 7005000    259.82251   -9070.6561   -8080.0942   -9070.6561            0    7839.7997    24.983698    25.011121    22.979082    14358.945    7468.5962    8187.3952    7863.4076   -479.42486   -629.97321    261.48062    -6438.358 
 7006000    272.21999   -9098.0273   -8060.2006   -9098.0273            0    7972.1822    24.920405    24.987191    23.068505    14364.548    9128.8468    6891.8263    7895.8735    353.77277    690.37551   -99.632165   -6390.0906 
 7007000    254.72861   -9092.3041   -8121.1624   -9092.3041            0    8335.2008    24.981738    24.882097    23.109337    14364.718    7226.9595    9896.8203    7881.8227   -903.64022   -636.75929    632.78794   -6374.9823 
 7008000    259.36115   -9107.9803   -8119.1773   -9107.9803            0    8146.3576    25.030133    24.957111    22.945267    14333.445    6312.3123    10028.021    8098.7399    132.37708   -100.57183    755.64793   -6416.2742 
 7009000    267.62309   -9064.4031   -8044.1018   -9064.4031            0     8962.021    24.838203    24.839976    23.236761    14336.625    9159.2762    10102.207    7624.5801     287.7699     284.9337    1063.1731   -6170.2779 
 7010000    266.90428   -9079.7559   -8062.1951   -9079.7559            0    8741.5509    25.010278    24.995068      22.9116    14322.811     8821.274    8729.1778    8674.2008   -133.50799   -524.67979    1227.7752   -6236.2293 
 7011000    250.90141   -9063.7144   -8107.1638   -9063.7144            0    7763.4119    24.985864    25.032607     23.03078    14404.862     8122.811    7090.0004    8077.4243      -131.01   -938.28122    -374.0128   -6476.2252 
 7012000    269.85927   -9082.6106    -8053.784   -9082.6106            0    7742.3558    24.877669    25.028567    23.158415    14419.643    8954.2019    7739.9937    6532.8719    1137.4351     -281.084    567.27405   -6425.5998 
 7013000    265.71576   -9081.7249   -8068.6952   -9081.7249            0    8418.6178    24.952894    25.076921    22.956973    14365.136    8773.2999    8092.0104     8390.543    71.426073   -111.00733    1224.8776   -6304.9882 
 7014000    258.78209   -9117.2576   -8130.6623   -9117.2576            0     9491.053    24.985099    24.841016    22.996348    14272.804    8541.1253     10585.71    9346.3238    279.46668   -34.936195    1176.4253   -6155.0597 
 7015000    264.50545   -9095.1438   -8086.7284   -9095.1438            0    8778.2928    24.968721    24.915569     23.01461    14317.617    8550.8248    8593.9858    9190.0679   -363.32199   -1074.6301    352.68108   -6253.7528 
 7016000    269.07539   -9108.1329   -8082.2948   -9108.1329            0    7232.5414    25.063917    24.997578    22.944506    14375.587    6534.8572    6587.9601    8574.8069   -681.80854    402.35766    -76.40137   -6565.9694 
 7017000    266.92052   -9095.1225   -8077.4997   -9095.1225            0    7907.5468    25.119417    25.004395    22.894334    14379.836    6158.6751    8541.9914     9021.974   -626.73118   -611.98841   -868.27718   -6419.1673 
 7018000    253.59371   -9099.6773   -8132.8625   -9099.6773            0    8372.5829    24.934289    24.907706    23.131986    14366.257    7082.6323    10079.068     7956.048    396.16674   -593.79404   -313.89703    -6378.663 
 7019000    264.46244   -9119.0029   -8110.7515   -9119.0029            0    7452.2346    24.999984    25.024231    22.975872    14373.829    7615.5829    6733.3574    8007.7636      -213.88    766.08956   -1127.8485   -6548.5578 
 7020000    265.83297   -9134.6573   -8121.1808   -9134.6573            0     7694.893    25.037637    25.047591    22.892266    14356.484    7620.6597    7532.3808    7931.6385    9.8758142   -373.64082    1172.6297   -6510.0657 
 7021000     258.8083   -9093.2727   -8106.5774   -9093.2727            0    8410.1905    24.991633     24.99694    22.970614    14350.072    8998.7665    8250.2532    7981.5518    179.61867   -363.67412    173.60085   -6346.4837 
 7022000    267.85556    -9096.235   -8075.0475    -9096.235            0    6996.1532    24.978481    24.927629    23.202571    14447.181    7355.6833    7478.6854     6154.091    152.93091    721.06019    -91.65782   -6600.9768 
 7023000    254.43896   -9115.2407   -8145.2034   -9115.2407            0    7440.8851    25.069874    25.007021    22.961201    14394.902    7251.2065    7784.8311    7286.6177   -909.52113   -645.79309   -697.39877    -6583.102 
 7024000    268.53892   -9049.9642   -8026.1714   -9049.9642            0    7986.4866    25.112615     25.01974    22.948543    14418.824    8172.6016    7366.4851    8420.3729    416.30474   -328.37299    69.409718    -6346.743 
 7025000    264.79392   -9096.3172    -8086.802   -9096.3172            0    7744.6887    24.963742    24.883619    23.194528    14408.168    8962.7825    7926.8403    6344.4434     156.4596    683.74081   -422.60496   -6459.4233 
 7026000     263.4707   -9061.6552   -8057.1848   -9061.6552            0     7872.728    25.049414    24.986519    22.964158    14373.213    8409.0709    6617.3156    8591.7974   -554.27528   -689.08987    1678.7526   -6406.9148 
 7027000    262.08577   -9088.4267   -8089.2362   -9088.4267            0    7895.7724    25.065735    25.114073    22.846237    14381.767    7209.1941    7391.5445    9086.5785    332.87432   -406.40968    696.37805   -6433.1507 
 7028000    258.71935   -9103.3414   -8116.9852   -9103.3414            0    7930.1228    24.940434    24.914181    23.152616    14386.352    6725.4326    8698.3826    8366.5533   -249.89499   -28.036197   -4.1128725   -6453.1646 
 7029000     269.9366   -9146.8754   -8117.7539   -9146.8754            0    6171.1983    25.034369     25.04504    23.023678    14435.542     5683.036    6567.5329    6263.0261    -1612.481    1150.1146    485.67149   -6818.5466 
 7030000    260.93236    -9062.278   -8067.4849    -9062.278            0    7199.7808    25.034048    25.100093    22.959019    14426.459    6875.8699    7510.9941    7212.4784   -196.76821    -529.2662     335.1241   -6552.6862 
 7031000     261.8436   -9043.9306   -8045.6634   -9043.9306            0    7257.8674    24.996615    24.910018    23.239163    14470.239    6374.7646    8467.7273    6931.1101   -145.16771     1318.034   -1042.9524   -6514.0095 
 7032000    264.59312   -9076.0863   -8067.3366   -9076.0863            0    7608.5463     25.03096     25.02586    22.987126    14399.625    7424.4244    7221.6746    8179.5398    -866.3927   -255.05801   -241.71735   -6469.5133 
 7033000     264.2959   -9087.6641   -8080.0476   -9087.6641            0    7991.4779    25.043711    25.072714    22.923911    14394.241    7036.3082    7354.0101    9584.1154     878.1934   -186.23692    724.93624   -6402.4348 
 7034000    259.65458   -9133.7333   -8143.8116   -9133.7333            0    7104.5357     24.90846    25.007935    23.111142    14396.142    7917.6968    7199.0272    6196.8832   -653.56256    92.832453   -293.01762   -6652.1933 
 7035000    258.75478   -9140.5394   -8154.0482   -9140.5394            0    8099.5713    24.934053    24.961033    23.019758    14327.031    7686.8613    9304.3754    7307.4773    607.05978    944.84034   -358.80797   -6461.6829 
 7036000    265.92492   -9104.9787   -8091.1516   -9104.9787            0    8721.9537    25.038502    25.061887     22.78602    14298.504    7911.3673    8297.5118    9956.9821    444.60377    40.081487    278.40824   -6272.3712 
 7037000    265.88684   -9104.8032   -8091.1213   -9104.8032            0    8882.7869    24.949309    24.829503    23.151389    14341.798    8358.8289    9906.4653    8383.0665   -212.74292   -719.38652    937.18294   -6233.1939 
 7038000    265.43234   -9075.8944   -8063.9452   -9075.8944            0     9037.508    24.977402    24.971319     23.01386    14354.174     8278.562    9888.1883    8945.7738    308.72811   -1178.3149    373.35086   -6172.0251 
 7039000    257.69817   -9096.0919    -8113.629   -9096.0919            0     8494.051    24.994527    25.055383    22.921038    14354.241    8611.5689    7777.0746    9093.5095   -247.34204    821.97019    454.04896   -6335.4684 
 7040000    260.44475   -9089.8885   -8096.9543   -9089.8885            0    9583.5535    24.846172    24.909552    23.065332    14275.295     9784.598    8913.6825     10052.38    -1226.217   -609.21502    728.28545   -6101.7491 
 7041000    263.03482   -9140.4831   -8137.6744   -9140.4831            0    9305.2643    24.944726    24.951234    22.948173    14282.981    9117.7792    8957.0755    9840.9381   -185.61308   -1246.4053   -3.7470082   -6199.3633 
 7042000    264.03776    -9108.243   -8101.6107    -9108.243            0    8619.7812    24.974909    24.986354    22.965745    14331.358    8402.8305    7927.3698    9529.1433    168.72214   -405.30071   -117.14546   -6300.0061 
 7043000    267.29987   -9087.0752   -8068.0062   -9087.0752            0    8729.0876     24.87016    24.873167    23.137292     14312.72     9532.206    9292.1985    7362.8583    482.04517   -1136.7735   -96.818155   -6245.9283 
 7044000    261.73836    -9092.348   -8094.4821    -9092.348            0    9872.9463    24.939685    25.002177    22.892041    14274.251    9509.2885    9408.0556    10701.495   -67.667264   -948.08411    43.210171   -6039.1784 
 7045000    262.94877    -9148.018   -8145.5374    -9148.018            0    9807.2599    24.842148    25.015973    22.936048    14253.619    10127.014     8980.711    10314.055    351.63931   -830.61335     380.5745   -6106.8591 
 7046000    270.31969   -9062.7188   -8032.1369   -9062.7188            0    9004.0172    24.864989    24.957819    23.066579    14314.562    10481.463    8801.5086    7729.0799    543.44601    797.13531    67.941761   -6152.4293 
 7047000    263.14349    -9109.753   -8106.5301    -9109.753            0     10146.85    24.922253    24.948868    22.888975    14231.953     10394.65    9868.6843    10177.215    148.39807   -774.29973   -661.05117   -6000.4658 
 7048000    263.99304   -9110.9299    -8104.468   -9110.9299            0    7956.4772    25.048052    24.977961    22.944541    14355.235    7178.8587    7891.3301    8799.2426    716.49742    -341.3206    1048.6399   -6438.7288 
 7049000    265.36393   -9075.5582   -8063.8699   -9075.5582            0    8195.6958    24.959902      24.8414    23.175553    14369.745      8026.96     8707.277    7852.8502    81.285267    347.77772    741.28817   -6346.3144 
 7050000    266.62122   -9072.4405   -8055.9589   -9072.4405            0     10332.33    25.013056    24.938907    22.916642    14295.362    10867.516     9681.573      10447.9   -853.15889    897.01427   -1230.2023   -5901.8418 
 7051000    268.47775   -9100.8581   -8077.2985   -9100.8581            0    9077.8025     24.98099    24.923195    22.977076    14305.667    8541.6332    8770.7766    9920.9978   -309.01366    317.01796    1454.7556   -6183.3649 
 7052000    257.05522   -9082.0037    -8101.992   -9082.0037            0    7889.2251    24.968633    24.826253    23.180189     14368.88    7707.4991    9657.4585    6302.7176    674.46587   -207.11171   -270.89598   -6448.7625 
 7053000    262.12163   -9097.6146   -8098.2874   -9097.6146            0     8795.057    25.001261    24.957102    22.949801    14319.736    8530.7942    8485.4124    9368.9645    366.29345    1478.3625    173.34099   -6261.5395 
 7054000    261.18984   -9077.2983   -8081.5235   -9077.2983            0    7468.4597    25.065642    24.979708    23.026529    14417.656    7269.5995    7642.1959    7493.5839   -742.88527    493.70417   -544.30812   -6511.1549 
 7055000    271.48376   -9103.3085   -8068.2886   -9103.3085            0    7880.2548    24.959429    24.982437    23.051018    14373.401     8443.906    7296.8875    7899.9708    484.97596      526.375    617.13409   -6416.4193 
 7056000    262.47085   -9055.3169   -8054.6583   -9055.3169            0    9271.7402    24.847467    25.083576    23.010499      14341.6    10102.995    8033.7286    9678.4964   -1131.3876     153.7434    236.29606   -6115.4041 
 7057000    253.04626    -9059.836   -8095.1082    -9059.836            0    8967.4348    24.895659    25.044782    23.004633    14343.535    8228.0273    10121.813    8552.4641   -389.42557   -472.13178   -170.52924   -6219.2487 
 7058000    264.04537   -9123.3057   -8116.6443   -9123.3057            0     8188.791     24.92177    25.008014    23.016079    14344.633    8333.8997    7664.6751    8567.7982    344.60404    204.77766   -504.08217   -6403.5349 
 7059000    259.02983   -9076.2158    -8088.676   -9076.2158            0    9937.3123    24.876064    24.980811    22.969568    14273.846    9619.5259    9434.3814     10758.03   -540.18923   -745.90749   -446.98495   -6020.0316 
 7060000    259.00937   -9113.8913   -8126.4295   -9113.8913            0    9774.6368    24.788768    25.128464    22.832767    14222.615    10091.873    8892.7584    10339.279   -470.31712   -194.50484   -645.33975   -6098.9524 
 7061000    254.70444   -9085.5364   -8114.4869   -9085.5364            0    8927.8913    24.837333    25.014447    23.070435     14333.48    9694.5168    8416.6511    8672.5061   -342.03811   -52.906583    844.77236   -6248.2085 
 7062000    267.84791   -9109.3902   -8088.2318   -9109.3902            0    8184.4394    24.966686      25.0614    22.953833    14362.216    8555.6842    7426.1489    8571.4851   -222.20051    644.17402    134.60562    -6373.934 
 7063000    275.97079   -9087.5567   -8035.4302   -9087.5567            0    8131.4256    24.981043    25.018306    23.039048    14399.022    8043.0115    8513.6482    7837.6171   -730.09882   -159.03084   -1270.7019   -6327.8717 
 7064000    273.46372   -9110.7113   -8068.1429   -9110.7113            0     8560.942    24.996644    24.986271    22.982621    14354.323    7709.6311    8683.5177    9289.6772    1183.2794    330.70384    -114.2607    -6275.969 
 7065000    258.43352   -9128.7725    -8143.506   -9128.7725            0    6433.6489    25.067766    25.034091    22.995545    14430.825    5424.9411     6731.687    7144.3185    632.94597    1333.4732   -84.975066   -6789.4881 
 7066000    272.84874   -9055.1083   -8014.8845   -9055.1083            0    7322.4782    25.009666    25.009079    23.083186     14437.81    7229.9291    7484.7188    7252.7867    631.62764    -958.6909   -677.36229   -6473.0586 
 7067000    254.91777   -9108.0091   -8136.1463   -9108.0091            0    6191.8316    24.942504    24.995437     23.18195    14452.758    6544.3763    7093.8466     4937.272    311.98757    890.89843   -120.27914   -6831.0403 
 7068000    256.23926   -9105.5574   -8128.6565   -9105.5574            0    8191.5552    24.990773    24.984684    22.948094    14328.482    6594.2778    9185.1411    8795.2467    -84.68685   -862.61604     1245.249   -6416.8982 
 7069000    256.46469   -9103.3929   -8125.6325   -9103.3929            0    9243.8548    25.031225    24.905446    22.920911    14289.213    7991.9999    10450.392    9289.1722   -457.64352   -835.33373   -11.150311   -6199.2731 
 7070000    258.80911   -9108.0521   -8121.3538   -9108.0521            0    8201.6349    24.948893    24.762933    23.196082     14330.72    8165.6377    9943.0591    6496.2078    269.17617   -463.39788    141.05408   -6407.2216 
 7071000    261.33182   -9087.0925   -8090.7765   -9087.0925            0    8231.4423    25.099388    24.934534    22.933633     14352.82    7753.6218    8623.1266    8317.5785   -279.23085    238.18154   -472.11108   -6367.7614 
 7072000     268.1392   -9074.9395   -8052.6706   -9074.9395            0    8245.9224    25.097108    24.806776    23.094116    14377.896    7584.8256    9462.9153    7690.0264     186.2923   -524.33331    427.31802   -6323.6089 
 7073000    257.33603    -9153.596   -8172.5137    -9153.596            0    8076.9592    25.103352    24.889771    22.965056     14348.95    7291.3779    8550.5748    8388.9249   -636.66822   -546.92593   -693.96928   -6482.2912 
 7074000    270.63064   -9103.7787   -8072.0113   -9103.7787            0    8512.1592    25.073236    24.929963    22.938039    14337.992    6701.1225    10146.916    8688.4391   -147.83228     1041.883      572.352   -6292.0771 
 7075000    267.15238   -9072.7382   -8054.2315   -9072.7382            0     9158.923    24.948539    24.857446    23.129232    14343.755    7596.8434     10832.21    9047.7154   -107.76549   -337.35603    1565.3232   -6138.2861 
 7076000    259.18907   -9074.6693   -8086.5224   -9074.6693            0    9611.1336    24.980789    24.907019    22.963292    14287.691    10021.699    9866.8774    8944.8247    -25.90794    222.68798   -246.61588   -6083.8378 
 7077000    259.91558   -9129.9211   -8139.0044   -9129.9211            0    10064.596    24.877555    24.930833    22.968186    14245.286    11208.543    9079.7462    9905.4999    235.33673    135.02246    278.51546   -6048.0555 
 7078000    268.73917    -9080.189   -8055.6327    -9080.189            0    7854.9323    24.957838    25.099642    22.940063    14370.408    7694.0368    7546.4472    8324.3129      55.0444   -40.628053      704.591   -6409.4144 
 7079000    265.06811   -9116.8552   -8106.2947   -9116.8552            0    9993.6801    24.760666    25.001956     23.06011    14275.709    10508.533    9618.8366    9853.6707    442.42423     656.7044     8.073358   -6025.6448 
 7080000    259.52354   -9079.9822   -8090.5601   -9079.9822            0    8158.9042    24.903673    25.040471    22.994086    14339.105    8483.6774    8505.9197    7487.1155    117.54501     1212.656    78.984744   -6384.3608 
 7081000     262.9051   -9058.4436   -8056.1294   -9058.4436            0    9031.4608    24.815964    25.061162    23.079639    14353.618    9589.0093    8780.6335    8724.7396   -198.52819    420.37929    499.28821   -6165.5485 
 7082000    267.77007   -9128.2211   -8107.3595   -9128.2211            0    7993.7341    24.939641    25.042633    22.981004    14352.884     8604.913    7310.5035    8065.7859   -179.24008     1047.367    931.59661   -6434.0943 
 7083000    262.26769   -9157.3778   -8157.4938   -9157.3778            0    7576.9117    25.003614    25.047819    22.930314    14360.934     7713.139    6966.3881     8051.208   -205.45068   -1218.5693    1264.2995   -6570.5892 
 7084000    268.13767    -9064.835    -8042.572    -9064.835            0    8716.6749    24.908883     25.11304    22.943982    14352.328    9723.0924    7367.1382    9059.7941    360.45915    174.00269    574.97812   -6218.0501 
 7085000    257.47084   -9088.1752    -8106.579   -9088.1752            0    8992.3089    24.836977    24.971583    23.096251    14324.725    10481.211    7744.3092     8751.406   -1275.9165    303.35467    132.41221    -6227.983 
 7086000    264.85089   -9100.5312   -8090.7988   -9100.5312            0    7574.6171    25.008123    25.166766    22.853948    14383.671    7159.6895    6264.4284    9299.7334   -376.89373   -726.04697    250.65278   -6501.8631 
 7087000    257.81758   -9076.2277   -8093.3095   -9076.2277            0    8919.7497    24.934264    24.991074    23.003166    14334.055    8167.4465    8891.1139    9700.6887     526.1376    229.01395    519.43834   -6228.6582 
 7088000    270.64938   -9057.2002   -8025.3614   -9057.2002            0    10500.521    24.803247    24.926557     23.08444    14272.175    11122.795    10147.745    10231.025     1439.611     -554.723    645.59685   -5839.7299 
 7089000    260.25294    -9135.155   -8142.9521    -9135.155            0    9473.8355    24.991743    24.928356    22.865164    14245.067    9032.5665    9562.4561    9826.4839   -9.1145161    18.930748    1021.2906   -6174.7657 
 7090000    273.17397   -9114.0239   -8072.5602   -9114.0239            0    8223.9136    24.921248     24.89101    23.137797    14352.723    7873.3799    8487.7729    8310.5881    64.376923   -1221.7327   -138.09605   -6351.1327 
 7091000    263.27664    -9138.666   -8134.9354    -9138.666            0    8093.6064    24.930467    25.001997    23.022498    14350.186    7854.6134    7606.7997     8819.406   -158.68836   -690.22603    410.91154   -6441.0832 
 7092000    266.09361   -9108.4875   -8094.0173   -9108.4875            0    8368.2428    25.024866    25.096695    22.841889    14345.653    8957.5635    7220.5332    8926.6317   -760.15481   -76.494393    -112.5488   -6343.2418 
 7093000      260.524   -9074.3603    -8081.124   -9074.3603            0    8350.2306    24.894645    24.981734    23.104662    14369.053    9047.2551    8725.2758    7278.1609    275.12015   -692.00557    174.60156   -6331.2672 
 7094000    262.20441   -9094.2732   -8094.6304   -9094.2732            0     8257.865    24.923891    25.047424    22.984145    14348.525    7830.2204    9691.0682    7252.3063    197.23923   -1678.5634   -1145.0789   -6366.6018 
 7095000    259.93202   -9143.9703   -8152.9909   -9143.9703            0    9050.2019    24.876849    25.080836    22.884849    14278.594    9083.6951    8273.2317    9793.6787   -360.00727   -267.01263    266.67713   -6268.3892 
 7096000    263.45409   -9090.3331    -8085.926   -9090.3331            0    9461.9784    24.878298    25.087423     22.92931    14310.925    10118.577    7840.8798    10426.479    87.193289   -868.19748    1027.8569   -6111.1149 
 7097000    260.79029   -9062.9214   -8068.6699   -9062.9214            0     9172.118    24.828188     25.09441     23.00944    14336.002    9569.2116    8192.7654     9754.377   -857.07893   -365.58241    403.16275   -6151.0012 
 7098000    254.96578   -9126.1429   -8154.0971   -9126.1429            0    8880.8256    24.817777    25.053443    23.039288    14325.156    10370.014    8042.8038    8229.6593    649.26114    136.30617     250.2402   -6298.7354 
 7099000    263.52028   -9076.0245    -8071.365   -9076.0245            0    7886.1283    24.923084    25.113828    23.020147    14408.633    7997.0198    6984.9705    8676.3947   -82.842065    936.03839    1147.9528   -6414.2123 
 7100000    260.09643   -9125.0861   -8133.4799   -9125.0861            0    8039.0834    24.857208    25.031787    23.064056    14350.925    7907.9518    8315.3035     7893.995   -658.90147   -491.96405     413.0503   -6450.9518 
 7101000    267.45784   -9122.5932   -8102.9219   -9122.5932            0    9461.5286      24.8493    25.058512    22.963603    14299.125    9695.8753    8653.0923    10035.618   -864.97545    828.35616    838.30089    -6129.833 
 7102000    271.55135   -9101.1381   -8065.8605   -9101.1381            0    8414.9916    24.919792    25.044149    23.013755    14362.769    9440.7055    8809.4688    6994.8004   -732.17539    661.33427   -1129.5665   -6303.2037 
 7103000    263.21545   -9091.6662   -8088.1688   -9091.6662            0    6841.1341    24.823416     25.20505    23.069504    14434.022    8675.1365    5225.2468    6623.0189    359.60535    665.65171   -15.400202   -6648.0732 
 7104000    267.57841    -9127.652   -8107.5211    -9127.652            0    7097.6159    24.912397     25.05249    23.082458    14406.168    8112.0772    6571.8745    6608.8959   -120.87436    255.34775    488.59824   -6616.3178 
 7105000    267.63939   -9093.6004   -8073.2369   -9093.6004            0    7446.8001    24.952014    25.128618    22.966512    14400.224    7592.9227    7153.3592    7594.1184    128.03681    358.30297    -441.7794   -6509.3159 
 7106000    262.31919   -9120.9884    -8120.908   -9120.9884            0    9000.8834     24.84744    25.024273    22.996416    14298.921     9184.388    9244.1247    8574.1375   -430.83501   -596.34916   -708.28614   -6243.9078 
 7107000    271.36337   -9119.6837   -8085.1228   -9119.6837            0    7939.2303    24.951437       25.024    23.022548    14374.928     7674.394    7248.5986    8894.6982   -993.55115    478.05523    279.94177   -6420.7141 
 7108000    260.63641   -9074.6747   -8081.0098   -9074.6747            0    8884.8794    24.913813    25.136757     22.89953    14340.887    10375.989    7209.8134     9068.836   -386.42708    1076.4454   -669.48034   -6222.7628 
 7109000    255.10858   -9085.5768   -8112.9866   -9085.5768            0    7493.1676    24.993144    24.987544    23.092351    14421.573    7413.9554    6983.0824    8082.4649   -410.79699     1493.503    87.152254   -6536.9948 
 7110000    258.97981   -9114.3079   -8126.9588   -9114.3079            0     7115.096    25.029804    25.020233    23.036072    14426.375    7822.4889     6204.881    7317.9181   -676.59195    956.89936    547.64858   -6629.9861 
 7111000    262.87585   -9101.9068   -8099.7041   -9101.9068            0    5535.3962    25.071988     25.09837    23.015679    14482.985    4351.8669    5849.5014    6404.8203    258.36534   -1003.0821     231.1609   -6930.5206 
 7112000    268.89233   -9114.9708   -8089.8306   -9114.9708            0    7570.6368    24.967911     25.01112    23.052909    14395.975    8100.0121    7294.3545    7317.5438     693.4715   -520.59429    612.24063   -6500.3714 
 7113000      258.514   -9085.3112   -8099.7379   -9085.3112            0    7039.0216     24.90268    25.070402    23.091995    14416.799     8283.171    6186.2743    6647.6195   -449.23685   -1349.5009    89.134001   -6619.7539 
 7114000    274.68331   -9082.6735   -8035.4555   -9082.6735            0    9455.9853    24.930665    25.083001    22.917891    14331.379    10926.162     8371.876    9069.9175   -492.30238     379.1594    765.08022   -6059.0745 
 7115000    266.28809   -9052.9314   -8037.7197   -9052.9314            0    9140.5965     24.85524    24.984285    23.085412    14335.819    8958.1486    9116.5278    9347.1132   -886.47456   -330.39722   -1527.8185   -6126.6658 
 7116000    263.65564   -9116.0241   -8110.8486   -9116.0241            0    8976.9717      24.8998      25.1177    22.862005    14298.486    9614.2213    8046.0243    9270.6696    649.72231    951.57089    865.28653   -6238.8919 
 7117000    255.24731   -9133.9999   -8160.8808   -9133.9999            0    8497.6986     24.85531    25.038064    23.037964     14337.19    8778.4857    7514.8638    9199.7462   -248.33974    -267.5839    14.977211   -6384.0697 
 7118000    256.04796   -9129.7529   -8153.5813   -9129.7529            0    8946.5783    24.894063    24.984505    22.990605    14299.371    9258.2622    8526.8562    9054.6165    269.70289     399.2731    484.48235    -6287.847 
 7119000    262.74316   -9106.2177    -8104.521   -9106.2177            0    7473.8056     25.11352    25.040091    22.867101    14379.859    6741.8875    7459.9795    8219.5498   -415.33711   -553.33381   -226.54306   -6537.1482 
 7120000    264.98526   -9128.2212   -8117.9765   -9128.2212            0    7348.8867    24.998344     24.97351    23.067969     14401.25    7455.8806    7336.9879    7253.7917    1059.0659   -219.24719     -782.607   -6574.5085 
 7121000    257.51052   -9096.7258   -8114.9783   -9096.7258            0    7718.1559    24.971857     24.94799      23.1008    14391.744    7723.6178    7988.3828    7442.4672    174.50885    43.159393   -169.02651   -6495.0236 
 7122000    256.41527   -9056.1521   -8078.5802   -9056.1521            0    6589.6714    25.114682    25.053893     22.97318    14455.197    5589.2164     7450.681    6729.1169   -415.43752    473.80689    375.65446   -6689.3837 
 7123000    258.44233   -9124.0304   -8138.7304   -9124.0304            0    6459.8357    25.061719     24.93828    23.106607    14441.541    6736.0143    6214.0393    6429.4535   -320.23408   -1568.7121   -583.91814   -6778.1917 
 7124000    274.12191   -9114.2633   -8069.1856   -9114.2633            0    7161.6379    25.257845    24.975446    22.869051    14426.391    4740.5611    7734.7916    9009.5611   -377.34078    178.44132    687.37121   -6562.4191 
 7125000    268.25223   -9075.1613   -8052.4614   -9075.1613            0    8702.4609    24.992689    24.930549    23.035537    14353.016    8491.0113     8973.417    8642.9545    620.18759   -590.39728    75.445715   -6230.8273 
 7126000    268.00884   -9126.1984   -8104.4265   -9126.1984            0    9098.8766    24.949085    24.882076    23.034809    14299.665    8773.2006    10446.456     8076.973   -140.14837    3.7679697     15.16571   -6206.8926 
 7127000    270.90158   -9097.5268   -8064.7264   -9097.5268            0    9070.0627    24.981877    25.022138     22.89884    14314.064    8728.1201    8727.1042    9754.9638   -360.63255   -447.69146   -103.00869   -6171.2969 
 7128000    261.80612   -9104.8751   -8106.7508   -9104.8751            0    8080.7087    24.968454    24.942668    23.057197    14359.558     8404.102    8530.9286    7307.0955   -176.11258    318.65595    265.60667   -6414.4934 
 7129000    259.64151   -9075.0655   -8085.1936   -9075.0655            0    8610.8747    24.857403    24.985692    23.140933    14372.357    8359.6147     9554.224    7918.7853     171.0855    417.26529   -25.783482   -6280.3019 
 7130000    257.78767    -9118.028   -8135.2238    -9118.028            0    8591.4695    24.882101    25.114894    22.884027    14300.488    9340.6542    7605.2758    8828.4784    107.01196   -318.34606    1324.9809   -6343.4045 
 7131000    263.45932   -9124.6918   -8120.2647   -9124.6918            0    9175.5592    24.616431    25.020065    23.213536    14297.326    11419.224    7841.6214    8265.8322   -629.80965    298.37222   -109.67493    -6207.052 
 7132000    263.40509   -9109.9776   -8105.7573   -9109.9776            0    7680.2866    24.873298    25.077069    23.069756    14389.746      7654.46    7897.9818    7488.4181   -586.26321    815.55301    583.23501   -6493.9747 
 7133000    263.67622   -9113.2436   -8107.9896   -9113.2436            0    6035.3077     25.08751    25.119866    22.923366    14446.188    5427.1953    6007.0985    6671.6293   -456.09276     -746.505    1221.9011   -6836.4539 
 7134000    256.88698   -9131.6657   -8152.2954   -9131.6657            0    6659.5248     24.99526    25.002182    23.083305    14425.589    7642.4841     6593.808    5742.2824   -269.71493     444.7792   -394.44769   -6751.2484 
 7135000    258.26616   -9151.1816   -8166.5532   -9151.1816            0    7855.4097    24.908788    25.127392    22.950077    14364.289     8548.005    6523.7596    8494.4645   -14.771236    22.888965   -361.35763   -6520.9358 
 7136000    258.84552   -9079.6058   -8092.7687   -9079.6058            0    7977.5875    24.909679    25.061696    23.018087    14369.704    8556.3573    6703.8041     8672.601   -32.393498    1308.8499    -265.9018   -6420.9264 
 7137000    266.30788   -9143.7182   -8128.4311   -9143.7182            0    7533.9188    24.927482    24.962779     23.06405    14351.818    8038.3532     7150.604    7412.7992   -796.74803   -897.57161    1396.2462   -6551.5325 
 7138000    269.50572   -9124.6896   -8097.2109   -9124.6896            0    8097.5156    25.000951    25.095829    22.869283    14348.636    7972.9219    6928.0593    9391.5657    33.104666    245.02345    -76.36134   -6402.7236 
 7139000    263.71875   -9136.6295   -8131.2134   -9136.6295            0     8897.104    24.986474    24.924748    23.004045    14326.495    9625.1763    9072.8418    7993.2939    160.83897   -1131.9456   -894.61848   -6272.2771 
 7140000    264.03273   -9096.5337   -8089.9205   -9096.5337            0    8016.1869    24.895281    24.915627    23.184416    14380.865     7033.153    9031.3805    7984.0272   -117.68161    306.22949   -69.676407   -6408.6843 
 7141000    251.90885   -9094.3205   -8133.9291   -9094.3205            0    7277.3474    25.027734    25.047325    22.969562    14399.108    7221.5131    7556.5846    7053.9444   -736.42807    -51.92309    501.38961   -6605.7136 
 7142000    258.90992   -9134.5374   -8147.4547   -9134.5374            0    7000.5755    25.014672     25.07262    22.953167    14395.844    7357.3286    5372.6216    8271.7764    59.083332    1049.2575    113.57596   -6677.6935 
 7143000    263.57627   -9101.5282   -8096.6552   -9101.5282            0    7776.1785    24.922644    24.993347    23.064753    14367.042    7843.3725     7580.508     7904.655   -151.50507   -406.67111    763.67274   -6467.3237 
 7144000    255.47495   -9089.2513   -8115.2643   -9089.2513            0    7745.9423    24.836535    25.051671    23.141137    14398.339     8986.264    7546.4579    6705.1049   -695.10828   -379.35433   -556.64106   -6488.7325 
 7145000    277.21497   -9088.0779    -8031.208   -9088.0779            0    8789.9425    24.919173       25.074    22.981498    14359.376    8861.3661    8959.6713      8548.79   -40.561747    350.61963   -500.52877   -6190.4467 
 7146000    259.12837   -9097.3178   -8109.4023   -9097.3178            0    8518.7522    24.809792    25.059938    23.088699    14354.979    9052.9206    8776.4305    7726.9056    309.44487   -87.542302    441.35153    -6325.979 
 7147000    253.33807   -9070.2546   -8104.4143   -9070.2546            0     9451.956    24.849271     25.08278     22.94242    14299.753    9647.5449    8696.6016    10011.721     510.1049    72.664204   -1127.1182   -6133.2351 
 7148000    255.52567   -9113.5118   -8139.3314   -9113.5118            0    8657.1672     24.87466    25.032928    22.978038    14308.092    8943.4049     8646.699    8381.3978    126.85419   -241.59176    353.51366   -6332.8503 
 7149000    262.31719   -9085.9646   -8085.8918   -9085.9646            0    7525.4102    24.855073    25.082275    23.061505    14377.044    7999.5624    7226.8008    7349.8676    413.93917     243.0023   -348.76636   -6508.0056 
 7150000    255.03162   -9092.6699   -8120.3731   -9092.6699            0    7405.9158    25.028667    25.106462    22.904109    14392.513    8323.4307    5318.1948    8576.1219    866.47952   -961.83377   -434.26602   -6565.8711 
 7151000     265.6926    -9107.702   -8094.7606    -9107.702            0    7983.0962    24.915389    24.938562    23.173205    14398.763     9292.423    7276.2631    7380.6026     310.3594   -971.83923    190.41752   -6418.3808 
 7152000    263.96686   -9133.3352   -8126.9731   -9133.3352            0    7925.0926    24.953135    25.089526    22.943207    14363.878     7609.277    7646.4224    8519.5785   -580.11882    354.90401   -293.33199   -6466.8055 
 7153000    266.90182   -9095.9485    -8078.397   -9095.9485            0    7459.8415    25.041401    24.991709    22.982871    14383.311     7185.072    7563.0853    7631.3671    74.576778   -843.47941    1090.5584   -6513.5771 
 7154000    256.76347   -9115.8437   -8136.9443   -9115.8437            0    7455.0521    24.935909    24.919644    23.136917    14377.141    7289.1137     7907.941    7168.1017   -971.28462   -421.17271    420.03475   -6573.7998 
 7155000    257.70623   -9082.8966   -8100.4029   -9082.8966            0    8588.7903    25.078847    25.055237    22.822104    14340.416    8189.3551    8401.5408     9175.475   -207.17027    40.798486    1470.6206   -6304.1411 
 7156000    244.44015   -9121.4628   -8189.5455   -9121.4628            0    9048.8912    24.978673    24.888058    23.031678    14318.118    7967.7757    9356.7097    9822.1882    697.85216    464.24673    445.58413   -6300.0007 
 7157000    255.15296   -9086.2923   -8113.5328   -9086.2923            0    8015.3111     25.12343    24.896152    23.046183    14414.851    6944.9605    7659.2137     9441.759    86.959263    802.46771    685.14945   -6428.5075 
 7158000    259.34328   -9086.5057   -8097.7709   -9086.5057            0    7966.7887     25.01085     24.96272    22.986433    14351.322    7463.7186    8041.5456    8395.1018    560.81537   -678.69754    1418.8553   -6430.3274 
 7159000     269.6231   -9101.4692    -8073.543   -9101.4692            0    9132.1742    24.976468    24.819654    23.060713    14295.504    9096.4969    10008.261    8291.7649    341.91401    262.05967   -961.53439   -6169.6192 
 7160000    262.87119   -9103.6553   -8101.4704   -9103.6553            0    8837.4484    25.032609    24.961007    22.930506    14327.877    8609.6315    8370.1392    9532.5746    611.15709   -853.18011     616.3517   -6254.8202 
 7161000    251.39498   -9100.1892   -8141.7569   -9100.1892            0    10865.124    24.745751     24.93365    23.087007    14244.728    12320.062        10553     9722.309   -112.17557   -387.33327    1531.0632   -5884.5846 
 7162000    264.64062   -9120.9549   -8112.0242   -9120.9549            0    7734.5338    24.970514    24.985417    23.033824    14370.773    7123.6802    8914.1844    7165.7368     -165.475    569.02805    569.17599   -6490.9975 
 7163000    263.22391    -9086.878   -8083.3484    -9086.878            0    8103.2932    24.929557    25.064188    23.014252    14380.205    8114.7582    7446.9331    8748.1883    603.54148    164.23989    580.74141   -6383.9214 
 7164000    262.62918   -9121.6268   -8120.3646   -9121.6268            0    8213.9443    24.914002    24.958589    23.056077    14336.691    8525.2627    8224.6548    7891.9153   -972.76743    212.63964    873.05554   -6402.9444 
 7165000    261.31678   -9086.6794   -8090.4207   -9086.6794            0    8898.9269    24.947465    24.971603     23.01047    14335.021     9114.704     8947.286    8634.7906   -97.983946   -270.86701   -820.03833   -6229.9971 
 7166000     261.8271   -9069.0148   -8070.8105   -9069.0148            0    6892.5879    25.062446    24.975435    23.033524    14417.731    7560.6615    6247.6725    6869.4298    412.27619   -494.06336    604.59586   -6621.5211 
 7167000    266.07972   -9192.5598   -8178.1425   -9192.5598            0    6226.8558     24.93414    24.951626     23.15808    14407.737    6313.9451    6168.2964    6198.3259    -613.4197   -611.83095   -133.46332   -6869.7427 
 7168000    270.11919   -9079.8582   -8050.0407   -9079.8582            0     7874.007    25.017672    24.940846    23.040087    14376.137    8602.6222    7814.7792    7204.6195   -626.16682   -1086.5672    127.31912   -6399.1668 
 7169000    263.29663   -9102.6158    -8098.809   -9102.6158            0    8057.3884    25.106154    24.968507    22.894674    14351.828    7109.0852    8632.2659    8430.8142    112.96652    426.78797    1016.7205   -6412.3436 
 7170000    259.44639   -9087.8932   -8098.7653   -9087.8932            0     9549.256    24.923266    24.906692    23.053821    14310.801    9861.8388    8776.4775    10009.452   -772.90799    728.23774    853.28813   -6105.7558 
 7171000    261.14205   -9111.9185   -8116.3259   -9111.9185            0    7918.3841    24.926438    24.913124    23.119325    14356.995    7938.5667    8689.8014    7126.7842    102.79512     482.0854    145.47729   -6458.3584 
 7172000    256.68107   -9079.8781   -8101.2927   -9079.8781            0     9292.674    24.995096    24.967051    22.933782    14311.914    9347.0124     8942.217    9588.7925    431.11907   -242.97283   -63.392097   -6161.6832 
 7173000    265.26615   -9102.4796   -8091.1641   -9102.4796            0    10458.926    24.833358    25.012152     22.94264    14250.493    11010.157    8455.7143    11910.907   -737.34604   -769.38591    1712.5419   -5917.4978 
 7174000    267.28493   -9139.5763   -8120.5643   -9139.5763            0    9204.7296     24.83922    24.951862    23.045104    14283.005    8765.9373    9295.6211    9552.6303    704.20356    42.644067    218.82216   -6203.1917 
 7175000    275.62536   -9150.1088   -8099.2993   -9150.1088            0     8419.473    25.019461     24.99356    22.822709     14271.62    7777.2594    9171.5395      8309.62    656.22547   -435.75542    1250.0929   -6346.8959 
 7176000    263.43439   -9126.4821     -8122.15   -9126.4821            0    9587.8301    24.864095    24.880574    23.030922    14247.688    8747.2369     9879.473     10136.78   -112.34218    934.49623    995.01924   -6129.9149 
 7177000    256.57254   -9071.3551   -8093.1835   -9071.3551            0    8914.8953    24.962129    24.871415    23.132391    14361.594    8081.7383    9553.4754    9109.4722    366.62939   -1687.6951    489.52434   -6225.9665 
 7178000    260.95537   -9106.3964   -8111.5156   -9106.3964            0    6621.5671    25.085243    25.097521    22.894419    14413.809    6753.3306    6491.1519    6620.2189    -761.3276     676.2054   -529.79199   -6719.5918 
 7179000     259.8789    -9106.288   -8115.5111    -9106.288            0    6214.1326    24.960284    24.946336    23.238268    14469.718    5963.5992    6492.1962    6186.6026     672.5082    232.20888    60.120159   -6804.1676 
 7180000    257.42038   -9112.5447   -8131.1408   -9112.5447            0    7712.9019    24.987668    25.008838    23.036752    14395.954    6891.4922    8124.6337    8122.5799    167.89269   -496.75553     175.5906   -6511.8152 
 7181000    258.65059   -9094.8191   -8108.7251   -9094.8191            0    7661.5964    25.014392    25.038193    22.944882    14370.727    8204.4065    7090.0327      7690.35    678.30568    30.042525    712.83196   -6502.9899 
 7182000    256.36359   -9038.3844   -8061.0095   -9038.3844            0    8553.3176    25.020152     24.94905     23.02885    14375.277    8655.7421    8889.3503    8114.8605   -109.73427    80.946581    1566.5733   -6267.8179 
 7183000    260.09595   -9093.7637   -8102.1594   -9093.7637            0     8411.457    25.022434    24.885904    23.056704    14357.545    8288.8279    9069.0134    7876.5298   -22.190762   -937.94747    412.29944   -6340.8837 
 7184000    263.27067   -9090.4977   -8086.7899   -9090.4977            0    8664.1912    25.013279    24.986759    22.934156    14333.865    7925.0231    8281.2884    9786.2621    -778.5735    1081.8219   -476.01516   -6275.5864 
 7185000     274.1505   -9074.8739   -8029.6872   -9074.8739            0    10626.942    24.899437    24.907848    23.017829    14275.459      11171.2    9867.9968    10841.631   -500.23157   -788.68894   -514.00667   -5817.2329 
 7186000    274.00006   -9105.9435   -8061.3303   -9105.9435            0    8172.4106    24.995878    24.934214    23.060414    14372.462    7995.9934    7336.1319    9185.1066   -595.09008   -241.22558    258.30866   -6348.3308 
 7187000    258.03659   -9135.6668   -8151.9136   -9135.6668            0     7726.875    25.025306    25.064967    22.856371    14336.853    5943.8636    8328.8184    8907.9428    408.42413   -1056.8622    311.26196   -6536.3145 
 7188000    265.18449   -9070.8194   -8059.8152   -9070.8194            0     9146.554    24.854056    24.899807     23.12845    14313.301    8253.8852    10377.899    8807.8777    539.96248    369.53511   -664.54802   -6150.5196 
 7189000    256.63574   -9140.0867   -8161.6742   -9140.0867            0    7627.4612    24.992075    25.015672    23.019088    14391.385    7146.4977    8135.8626    7600.0232    106.08875    494.92973    639.94836   -6560.7953 
 7190000    272.06383   -9098.8632   -8061.6318   -9098.8632            0    7812.4529    25.026801    25.028283    22.950578    14375.733    6882.3398    7752.6192    8802.3997   -1262.3076    634.38886    488.95326   -6423.7095 
 7191000    262.76174   -9117.3488   -8115.5812   -9117.3488            0    7486.1774    25.011732    24.891738    23.138403    14405.634    8059.8092    6818.2879    7580.4352    752.00037    842.37266    -1019.179   -6542.7998 
 7192000    268.99431   -9090.0983   -8064.5693   -9090.0983            0    9121.7035    24.935816    24.975725    22.981263    14312.502    10313.957    7843.5929    9207.5601   -181.28935    462.89037    -1134.203   -6160.5672 
 7193000    260.99208   -9093.5379   -8098.5171   -9093.5379            0    9514.4492    24.951735    24.832174    23.049658    14281.702    8848.5768    10413.116    9281.6547   -708.02041   -104.77484   -237.66855   -6116.8097 
 7194000    255.37183   -9085.3237   -8111.7298   -9085.3237            0     7526.723    25.062321    25.057384     22.92332    14395.758    6757.9559    7540.3815    8281.8315    -210.5185    1027.4801   -326.18046   -6531.5141 
 7195000    260.67421   -9088.1169   -8094.3079   -9088.1169            0    8016.4369    24.966544    25.089652     22.90977    14350.724    9149.4321    7296.5837    7603.2949   -316.18812    190.40898   -410.23672   -6416.5432 
 7196000    265.27381   -9074.9698   -8063.6251   -9074.9698            0    8266.6568     24.85641    24.990416    23.137224    14372.197    9516.4638    7120.9857    8162.5208   -667.87969   -298.78526    957.62349   -6330.9028 
 7197000    259.89933   -9093.4842   -8102.6295   -9093.4842            0    8429.1641    24.989509    25.060153    22.955763    14375.838    8709.5139    6512.9692    10065.009    205.73453    1761.8864    574.39574   -6335.3975 
 7198000    269.13769    -9100.803   -8074.7274    -9100.803            0     7711.584    25.097402    24.980668    22.929949    14375.928    5948.2674       8656.5    8529.9846   -482.40182   -10.839233   -768.11722   -6457.9308 
 7199000    271.23385    -9090.317   -8056.2499    -9090.317            0    8877.4244    24.908136    24.867285    23.168489    14350.509    10126.278    9069.9952    7436.0004    400.73738    722.49562   -234.74709   -6198.3163 
 7200000    258.95511   -9082.1074   -8094.8524   -9082.1074            0    9302.4874     25.00726    25.043891     22.85452    14313.308    8646.1079    8181.7281    11079.626   -338.57086   -59.235939   -66.783444   -6153.0054 
 7201000    267.28574   -9073.7611   -8054.7459   -9073.7611            0    8970.4704    24.964191     24.99077    22.963084    14326.079    8157.2638    9648.8239    9105.3234   -60.138917   -946.80194    853.11669    -6180.535 
 7202000    269.15231   -9131.6651   -8105.5337   -9131.6651            0    9539.3513    24.786329    24.940288    23.077569     14266.05     9751.579    9406.8311    9459.6437    409.49218   -989.41207   -352.74742   -6120.8173 
 7203000     257.4351   -9128.2071    -8146.747   -9128.2071            0    8993.0662    24.955883    25.094737    22.845161    14307.041    8166.5919    8520.0055    10292.601   -494.29538   -482.51425    195.96297   -6270.3122 
 7204000    263.23443    -9087.583   -8084.0133    -9087.583            0    7734.9802    24.902648    25.060879    23.105259    14419.582    8143.3317    7344.9531    7716.6556   -395.46863   -58.338389   -183.71856   -6457.3871 
 7205000    259.04522   -9125.5293   -8137.9308   -9125.5293            0    7603.9082    24.922029    25.038401     23.04686    14381.419    7819.9835    7400.9018    7590.8391   -87.405965     968.3778   -33.367095   -6543.1004 
 7206000    248.36131   -9137.8598   -8190.9932   -9137.8598            0    7252.8559    24.934752    25.129396    22.945618    14377.615    7234.4381    6160.8721    8363.2573    482.94121   -1677.6749   -953.64246   -6670.1943 
 7207000    268.15675   -9116.7335   -8094.3977   -9116.7335            0    7899.3308    24.840479    25.044016    23.089853    14364.321    8742.3169    6992.2415    7963.4341   -242.85198    863.54597     529.4033   -6439.5757 
 7208000    262.02135   -9095.9825   -8097.0377   -9095.9825            0    8615.2419    24.920529     25.07682    22.909385    14316.708    8887.9618    7500.4541    9457.3097    -64.62952   -485.70674    675.55915   -6298.2226 
 7209000     259.6815   -9049.9039   -8059.8796   -9049.9039            0    7924.6049    24.849124    25.023115    23.154933    14397.795    8812.2686    7886.6523    7074.8938   -317.36448    1160.7803   -382.98805   -6395.8942 
 7210000     265.8613   -9096.5888   -8083.0042   -9096.5888            0    8304.4293    24.999968    25.028826    22.934877    14350.808    7931.2086     7915.184    9066.8951    203.18075   -253.16336    1365.5761   -6344.9552 
 7211000    267.47404   -9104.9817   -8085.2487   -9104.9817            0    7279.5522    24.913726    25.095518    23.054138    14413.974    8051.4569    6818.4148    6968.7849   -339.58512    73.878274    235.87024    -6554.992 
 7212000    261.06421    -9110.455   -8115.1592    -9110.455            0    7702.8764    24.947922    24.997454     23.04829     14373.71    7240.9751    8281.3584    7586.2956     112.6172    479.68895    233.68708   -6500.4374 
 7213000    254.97247   -9094.7658   -8122.6945   -9094.7658            0    7602.0981    24.939517    25.056545    23.017111     14383.35    6739.7332    8194.4017    7872.1595    -302.3834   -176.59772   -160.59061   -6528.0297 
 7214000    263.52435   -9082.3671   -8077.6921   -9082.3671            0    9096.5813    24.936626    24.959779    23.007958    14320.444    9718.6448    7833.9526    9737.1465   -444.04233   -258.94813    599.25854   -6177.8803 
 7215000      257.564   -9090.3082   -8108.3568   -9090.3082            0    9428.9187    24.903838    24.795533    23.126155    14280.492     9425.364    10721.437     8139.955   -264.74262   -256.08365     4.144661   -6144.6306 
 7216000    257.59454   -9118.2825   -8136.2146   -9118.2825            0    8067.5841    25.105584    24.898146    22.940462    14339.681    7184.9137    8947.4888    8070.3499     258.7546   -128.95176   -155.18401   -6449.0445 
 7217000    262.11504    -9068.747   -8069.4449    -9068.747            0    8333.5737    25.050167    24.743476    23.198516    14379.095    7024.2737    10704.848    7271.5997   -120.48658   -744.82108   -641.15125   -6321.8582 
 7218000    261.31461   -9090.6287   -8094.3782   -9090.6287            0    7711.1413    25.002528    24.948751      23.0893    14402.687    8020.8754    7447.2108    7665.3376    625.54345    780.57653     614.9045   -6474.6652 
 7219000    256.25895    -9116.567    -8139.591    -9116.567            0    7637.8519    25.047502    25.021796     22.91956    14364.456     7542.118     7122.744    8248.6937   -90.273758   -652.99655    164.65662   -6539.5309 
 7220000     263.1461   -9114.1254   -8110.8924   -9114.1254            0    7287.5541    24.987794    24.942924    23.078699     14384.23    5946.4921    7911.2682    8004.9018    390.57992    90.247384    506.92484   -6582.1149 
 7221000    261.36785   -9099.5195   -8103.0661   -9099.5195            0    7197.0952    24.965247    24.947999    23.162886    14426.609    7734.1759    7544.0682    6313.0415   -408.12558    72.880473    28.911716   -6588.8167 
 7222000     255.5872    -9103.485     -8129.07    -9103.485            0    8766.8337    25.003193    25.067441    22.835058    14312.239    8712.7848    6972.3696    10615.347   -11.637645    246.33403    1009.5843   -6299.1747 
 7223000    261.31891   -9100.9329    -8104.666   -9100.9329            0    8828.7617    24.902502    24.977868    23.037918    14329.848    8630.5681    9949.3255    7906.3914   -898.42274   -2333.1239   -223.99825   -6259.5773 
 7224000    270.41598   -9059.5359   -8028.5868   -9059.5359            0    9233.6838    24.894112    25.013046    23.007047    14325.972    9746.2826    9136.0641    8818.7047    -925.2524   -798.48081   -480.87276   -6099.3969 
 7225000    259.32702   -9114.8399    -8126.167   -9114.8399            0    7616.9358    24.976941    25.090703     22.97187    14396.218    6497.6213    7480.0875    8873.0986    284.62605   -420.32038    522.43088   -6526.9603 
 7226000    260.42335   -9101.3988   -8108.5462   -9101.3988            0    8189.1773    24.899736      24.9891    23.100401    14373.577    9284.1365    7429.5661    7853.8293   -118.95674   -396.48702    155.28293   -6391.8991 
 7227000    260.61507    -9068.764   -8075.1805    -9068.764            0    6870.8118    25.075423    25.100791    22.928879    14431.733    6536.0011    6841.4934    7234.9409    708.15253    -1170.219    900.51046   -6629.0668 
 7228000    268.62519   -9107.3041   -8083.1823   -9107.3041            0    6431.1709    24.953706    25.043466    23.097213    14434.079    7572.5668    5912.2217    5808.7241   -298.92721   -86.566666   -108.36436   -6729.3808 
 7229000    256.84605   -9099.4042   -8120.1899   -9099.4042            0    8375.2658    24.948732    24.940327    23.041009    14336.796    8224.9884    9403.1272    7497.6819    205.90174   -905.52541    557.77748   -6369.0268 
 7230000    256.40593   -9054.6529   -8077.1165   -9054.6529            0    8058.5731    25.099399     25.01035    22.895146    14372.308     7186.402    8145.5823    8843.7351   -204.75024   -727.39027    667.50103   -6387.9963 
 7231000    263.92791   -9078.4895    -8072.276   -9078.4895            0    7489.0576    24.919185    25.058382    23.114869     14433.72    8747.7679    7082.1546    6637.2503   -296.26371    869.42028   -947.44041   -6495.8218 
 7232000    263.80314   -9089.3235   -8083.5856   -9089.3235            0    8192.2591    24.971188    25.005494    23.009485    14367.511    8518.2542    8667.0238    7391.4992    371.15692   -240.12785   -55.897131   -6367.0172 
 7233000    266.55733   -9075.3837   -8059.1456   -9075.3837            0    8913.1467    25.050772    24.963837    22.888441    14313.593    8553.6083    9810.1417      8375.69    248.71372    1061.2534    1470.9249   -6198.5344 
 7234000    266.21659   -9101.0896   -8086.1506   -9101.0896            0    8145.4212    24.993622    24.942461    23.078501    14387.194    7304.2591    9191.0572    7940.9474   -641.65629   -996.96268     71.89697   -6377.0582 
 7235000    257.76508   -9114.6671   -8131.9491   -9114.6671            0    8613.5942     25.08436    24.889869    22.936821    14320.523    7690.7677    9190.6262    8959.3887   -743.79763    1280.0415   -461.37126   -6332.9987 
 7236000    264.79731   -9083.7308   -8074.2027   -9083.7308            0    10069.895    24.929561    24.906928    22.993888    14277.337     9506.009    11157.369    9546.3073    148.57787   -298.21586    345.53695    -5977.446 
 7237000    257.95903   -9093.3595   -8109.9021   -9093.3595            0    8692.7112    25.022933    24.925744    22.975886     14330.41    8096.6753    8872.1441    9109.3141    660.70483    547.40393   -255.69003   -6293.1747 
 7238000    271.41254   -9070.0515   -8035.3031   -9070.0515            0    8066.7058    25.091654    24.938209    22.974529    14376.103    6563.5824    9465.7337    8170.8014     128.9924   -1384.7704   -441.60206   -6344.0318 
 7239000    265.37128   -9094.5299   -8082.8136   -9094.5299            0    8648.6751    25.031463    24.934435    22.968234    14335.517    8549.7047    8674.1515    8722.1692     84.54933    1064.9345    190.08814   -6274.6453 
 7240000     272.3577   -9092.3185   -8053.9667   -9092.3185            0    8305.9992    24.976376    24.954992    23.054782    14369.706    8602.9075    8171.9454    8143.1446   -320.37344    1112.2412   -47.954188   -6313.2999 
 7241000    259.71032   -9064.2298   -8074.0956   -9064.2298            0    8202.3347    25.055608    25.067031    22.830511    14339.152    7402.3309     7185.316    10019.357    290.20492    121.14582    327.81923   -6358.8085 
 7242000    275.98123   -9109.3509   -8057.1846   -9109.3509            0    8143.0286    24.949351    24.918401    23.103815    14363.594    8154.3118    8419.8592    7854.9148    -1029.986    643.74167     510.7445   -6351.3969 
 7243000    267.59604   -9116.2567   -8096.0586   -9116.2567            0    8142.9871    24.915263    24.980666    23.051254    14347.097    7256.4916    9361.7615    7810.7081   -348.27049   -1419.5811    902.95333   -6392.2387 
 7244000    264.86219   -9138.1969   -8128.4214   -9138.1969            0    6111.8203    25.039045    25.159243     22.85916    14400.434    4949.1407    6313.3895    7072.9307   -2120.5108    119.30343   -1070.8322    -6844.844 
 7245000    269.50196   -9103.6011   -8076.1368   -9103.6011            0    7892.8227    24.954042    25.009593    23.072993    14399.635    8278.2152     7832.865    7567.3878    367.67998   -234.50572    -249.4202   -6418.6132 
 7246000    259.32674   -9106.5975   -8117.9257   -9106.5975            0    7758.1647    24.987052    25.110653    22.933337     14389.32    8261.7486    6823.8025    8188.9428   -323.54073    864.51359   -536.78488   -6489.8479 
 7247000    266.84517   -9055.5494   -8038.2139   -9055.5494            0    8150.1214    24.941337    25.058405     23.03151    14394.466    7408.5016     8703.011    8338.8515   -317.00783   -333.83468   -192.16102    -6327.271 
 7248000    260.44751   -9139.1915   -8146.2468   -9139.1915            0    6573.1207     24.94777    25.002683    23.138432    14432.856     6539.411    7141.4842    6038.4668    172.99592    10.561164   -471.84076   -6762.6811 
 7249000    254.00522    -9134.529   -8166.1452    -9134.529            0     7539.022    24.973531    25.031959    22.947393    14345.251    7784.5106    6949.6785     7882.877   -151.56723   -703.60108    263.60969   -6588.9006 
 7250000    264.61739   -9079.7121   -8070.8699   -9079.7121            0    7491.8449    25.005386     24.88204    23.206812     14438.93    7246.4583    7232.8138    7996.2627   -473.25408      -427.72   -79.260654   -6493.2598 
Loop time of 514.081 on 64 procs for 250000 steps with 1920 atoms

Performance: 84.033 ns/day, 0.286 hours/ns, 486.305 timesteps/s
194.5% CPU use with 32 MPI tasks x 2 OpenMP threads

MPI task timing breakdown:
Section |  min time  |  avg time  |  max time  |%varavg| %total
---------------------------------------------------------------
Pair    | 69.05      | 73.568     | 78.808     |  26.4 | 14.31
Bond    | 0.83607    | 1.1397     | 1.5268     |  15.6 |  0.22
Kspace  | 231.62     | 240.8      | 251.7      |  26.6 | 46.84
Neigh   | 4.792      | 5.2769     | 6.2922     |  17.2 |  1.03
Comm    | 78.983     | 87.252     | 94.799     |  42.1 | 16.97
Output  | 0.52609    | 0.5265     | 0.52813    |   0.0 |  0.10
Modify  | 84.832     | 89.935     | 94.908     |  28.9 | 17.49
Other   |            | 15.58      |            |       |  3.03

Nlocal:        60.0000 ave          64 max          55 min
Histogram: 2 3 1 1 4 6 5 6 2 2
Nghost:        3344.91 ave        3375 max        3318 min
Histogram: 2 2 2 8 4 4 5 3 1 1
Neighs:        21028.8 ave       22346 max       19081 min
Histogram: 2 3 1 1 1 5 6 5 4 4

Total # of neighbors = 672921
Ave neighs/atom = 350.47969
Ave special neighs/atom = 2.0000000
Neighbor list builds = 11245
Dangerous builds = 0

unfix		3
unfix		2
unfix		1

write_data	data.final.${pid}
write_data	data.final.0
System init for write_data ...
PPPM initialization ...
  extracting TIP4P info from pair style
  using 12-bit tables for long-range coulomb (../kspace.cpp:340)
  G vector (1/distance) = 0.37424158
  grid = 30 30 30
  stencil order = 5
  estimated absolute RMS force accuracy = 0.00329193
  estimated relative force accuracy = 9.9135495e-06
  using double precision FFTW3
  3d grid and FFT values/proc = 4950 960
Last active /omp style is kspace_style pppm/tip4p/omp
WARNING: Not all mixed pair coeffs generated from mixing. Use write_data with 'pair ij' option to store all pair coeffs. (../write_data.cpp:312)

write_restart   restart.lmp.${pid}
write_restart   restart.lmp.0
System init for write_restart ...
PPPM initialization ...
  extracting TIP4P info from pair style
  using 12-bit tables for long-range coulomb (../kspace.cpp:340)
  G vector (1/distance) = 0.37424158
  grid = 30 30 30
  stencil order = 5
  estimated absolute RMS force accuracy = 0.00329193
  estimated relative force accuracy = 9.9135495e-06
  using double precision FFTW3
  3d grid and FFT values/proc = 4950 960
Last active /omp style is kspace_style pppm/tip4p/omp
Total wall time: 0:08:34
