#include		in.partitions
include		in.temp
variable        temperature equal 192.60
variable	tempDamp equal 100.0
include		in.pressure
variable        pressure equal 2094.4
variable        pressureDamp equal 1000.0 # This is 1 ps
include		in.seed
variable        seed equal 745823

units		real
atom_style	full
#include		in.box
read_restart	restart.lmp.${pid}
read_restart	restart.lmp.1
Reading restart file ...
  restart file = 30 Jul 2021, LAMMPS = 30 Jul 2021
  restoring atom style full from restart
  orthogonal box = (0.26020726 0.14244120 -0.088698414) to (17.947365 23.486737 22.301894)
  2 by 4 by 4 MPI processor grid
  restoring pair style lj/cut/tip4p/long/omp from restart
  restoring bond style harmonic/omp from restart
  restoring angle style harmonic/omp from restart
  864 atoms
  576 bonds
  288 angles
Finding 1-2 1-3 1-4 neighbors ...
  special bond factors lj:    0        0        0       
  special bond factors coul:  0        0        0       
     2 = max # of 1-2 neighbors
     1 = max # of 1-3 neighbors
     1 = max # of 1-4 neighbors
     2 = max # of special neighbors
  special bonds CPU = 0.002 seconds
  read_restart CPU = 0.008 seconds
include 	in.setup
variable	out_freq equal 1000
variable	out_freq2 equal 10000
variable	out_freq3 equal 1000

timestep	2.0

neigh_modify    delay 7 every 1

include		in.tip4p
# This is TIP4P/Ice

# create groups ###
group ox type 2
288 atoms in group ox
group hy type 1
576 atoms in group hy

# set charges - beside manually ###
set group ox charge -1.1794
Setting atom values ...
  288 settings made for charge
set group hy charge 0.5897
Setting atom values ...
  576 settings made for charge

# ### TIP3P Potential Parameters ###
pair_style lj/cut/tip4p/long/omp 2 1 1 1 0.1577 8.5
pair_coeff 1 1*2 0.000 0.000
pair_coeff 2 2 0.21084 3.1668
bond_style  harmonic
bond_coeff  1 450 0.9572
angle_style harmonic
angle_coeff 1 55 104.52
kspace_style pppm/tip4p/omp 1.0e-5
pair_modify tail yes

thermo          ${out_freq}
thermo          1000
thermo_style    custom step temp pe etotal epair emol press lx ly lz vol pxx pyy pzz pxy pxz pyz enthalpy

restart 	${out_freq3} restart.lmp.${pid} restart2.lmp.${pid}
restart 	1000 restart.lmp.${pid} restart2.lmp.${pid}
restart 	1000 restart.lmp.1 restart2.lmp.${pid}
restart 	1000 restart.lmp.1 restart2.lmp.1


include         in.dump
dump            myDump all atom ${out_freq2} dump.water.${pid}
dump            myDump all atom 10000 dump.water.${pid}
dump            myDump all atom 10000 dump.water.1
dump            myDump2 all dcd ${out_freq2} dump.dcd
dump            myDump2 all dcd 10000 dump.dcd
dump_modify     myDump append yes
dump_modify     myDump2 append yes


variable natoms 	equal  "count(all)"                        # NUMBER ATOMS
variable H      	equal  "enthalpy/v_natoms"                 # ENTHALPY-per-atom
variable Vol      	equal  "vol/v_natoms"                 # volume-per-atom
fix AVG all 		ave/time ${out_freq} 1 ${out_freq} v_Vol v_H file vol_enthalpy.dat
fix AVG all 		ave/time 1000 1 ${out_freq} v_Vol v_H file vol_enthalpy.dat
fix AVG all 		ave/time 1000 1 1000 v_Vol v_H file vol_enthalpy.dat


timer           timeout 23:50:00 every 1000
New timer settings: style=normal  mode=nosync  timeout=23:50:00

fix 		1 all shake 1e-6 200 0 b 1 a 1
       0 = # of size 2 clusters
       0 = # of size 3 clusters
       0 = # of size 4 clusters
     288 = # of frozen angles
  find clusters CPU = 0.000 seconds
fix             2 all nph aniso ${pressure} ${pressure} ${pressureDamp}
fix             2 all nph aniso 2094.4 ${pressure} ${pressureDamp}
fix             2 all nph aniso 2094.4 2094.4 ${pressureDamp}
fix             2 all nph aniso 2094.4 2094.4 1000
fix             3 all temp/csvr ${temperature} ${temperature} ${tempDamp} ${seed}
fix             3 all temp/csvr 192.6 ${temperature} ${tempDamp} ${seed}
fix             3 all temp/csvr 192.6 192.6 ${tempDamp} ${seed}
fix             3 all temp/csvr 192.6 192.6 100 ${seed}
fix             3 all temp/csvr 192.6 192.6 100 745823


run             250000
PPPM initialization ...
  extracting TIP4P info from pair style
  using 12-bit tables for long-range coulomb (../kspace.cpp:340)
  G vector (1/distance) = 0.37418148
  grid = 24 27 27
  stencil order = 5
  estimated absolute RMS force accuracy = 0.0027646822
  estimated relative force accuracy = 8.3257584e-06
  using double precision FFTW3
  3d grid and FFT values/proc = 4725 672
Last active /omp style is kspace_style pppm/tip4p/omp
Neighbor list info ...
  update every 1 steps, delay 7 steps, check yes
  max neighbors/atom: 2000, page size: 100000
  master list distance cutoff = 10.8154
  ghost atom cutoff = 10.8154
  binsize = 5.4077, bins = 4 5 5
  1 neighbor lists, perpetual/occasional/extra = 1 0 0
  (1) pair lj/cut/tip4p/long/omp, perpetual
      attributes: half, newton on, omp
      pair build: half/bin/newton/omp
      stencil: half/bin/3d
      bin: standard
Per MPI rank memory allocation (min/avg/max) = 10.19 | 10.22 | 10.25 Mbytes
Step Temp PotEng TotEng E_pair E_mol Press Lx Ly Lz Volume Pxx Pyy Pzz Pxy Pxz Pyz Enthalpy 
 9500000    199.81443   -4355.1461    -4012.671   -4355.1461            0    2592.5629    17.687158    23.344295    22.390593    9244.9467    4389.2521    2730.6969    657.73976   -621.65737   -240.52174   -603.82197   -3663.1208 
 9501000    200.44142   -4389.5455   -4045.9958   -4389.5455            0    2752.9089     17.92068    23.494401    21.918412    9228.4326    2636.1505    3141.5327    2481.0434   -392.13126    573.33209    292.49615   -3675.4894 
 9502000    192.58847   -4376.7638   -4046.6737   -4376.7638            0    3035.5049    18.033942    23.082917    22.104156    9201.4291    2963.2851    3055.0807    3088.1489    845.27217   -696.99642    298.37739    -3639.329 
 9503000    195.46037   -4390.9043   -4055.8919   -4390.9043            0    1070.5098    18.165602    23.404749    21.908806    9314.7777    863.98556    237.40599     2110.138   -267.52024    155.57895    55.399731   -3910.4669 
 9504000    179.54273   -4389.0061    -4081.276   -4389.0061            0    2195.4478    17.806338     23.56039    22.073177    9260.2335    4727.9507    1385.2554    473.13746   -1057.2914    520.72338    296.07273   -3784.7786 
 9505000    190.39705   -4368.6368   -4042.3028   -4368.6368            0    1234.5854    18.108462    23.392028    22.109534    9365.4581    1342.7479    2162.1072    198.90115   -975.20121   -22.553649   -776.98815   -3873.6762 
 9506000    200.31329   -4377.2582   -4033.9281   -4377.2582            0    1302.6328    18.217375    23.269477    21.934494    9298.2243    877.53514    473.51006    2556.8533    514.51159    1158.5303   -15.332173   -3857.2844 
 9507000    196.76073    -4386.778   -4049.5368    -4386.778            0    1159.9472    17.839501    23.520928    22.195086    9313.0939    601.50714    1423.1574     1455.177    491.89873   -990.96041    84.857237   -3891.9906 
 9508000    192.26376   -4364.1307   -4034.5972   -4364.1307            0    2103.2441    18.097204    23.515439    21.832532    9291.1335    660.72724    2059.4716    3589.5335     502.1002    65.500489    199.04804   -3749.6041 
 9509000    207.73204   -4379.8829   -4023.8373   -4379.8829            0    1569.8972    18.133342    23.066979      22.2255    9296.5139    1145.6802    2009.3153    1554.6962   -299.24981   -805.77444    314.47734   -3810.9905 
 9510000    193.42872   -4376.6809   -4045.1507   -4376.6809            0    1448.1173    17.989332    23.514846    21.985167    9300.0856    1264.7703    1247.0878    1832.4937   -4.5727342   -401.08885     33.67053   -3848.7393 
 9511000    194.45382   -4386.0896   -4052.8024   -4386.0896            0    972.35255    17.987008    23.254702    22.263352    9312.3709    1507.5683    291.87173    1117.6176   -1069.8685    519.63813      140.663   -3920.7458 
 9512000    205.71217   -4363.2335   -4010.6499   -4363.2335            0    1680.7574    18.084046    23.383502    21.931852    9274.2859    1103.2887    1292.1652    2646.8184   -208.65315   -103.99434   -221.15862   -3783.3174 
 9513000    204.63995   -4379.1594   -4028.4135   -4379.1594            0    1347.9976    17.842023     23.49991    22.101963    9267.0421    2055.7984    1172.1752    816.01916     -384.488    522.28789    79.171023   -3846.2312 
 9514000    185.83814    -4385.872   -4067.3518    -4385.872            0    1619.4267    18.128333    23.368445    21.923162    9287.3299    1784.0403    973.90721    2100.3325   -680.58465     27.48777    50.097408   -3848.0067 
 9515000    193.12613   -4378.9628   -4047.9512   -4378.9628            0    2673.6144    17.947312    23.265146    22.039092     9202.353    2997.7816    2256.3691    2766.6924   -256.39221    221.19267    382.70626   -3689.1337 
 9516000    195.23936   -4383.9251   -4049.2915   -4383.9251            0     2423.777    17.895096    23.517742    21.959873     9241.862    3650.0922    423.59786    3197.6411   -630.60956    277.16977    -277.1628   -3722.6074 
 9517000     194.7648    -4377.996   -4044.1758    -4377.996            0     1283.532     18.33551    23.041267    22.011246    9299.1658    1441.9327    1145.3819    1263.2814    382.20646   -889.83704    553.49375   -3870.1048 
 9518000     185.0823   -4387.8177    -4070.593   -4387.8177            0    1976.9577    17.954115    23.357496    22.042138     9243.661    1384.0278    1559.0481    2987.7971    -139.6628    606.51346   -229.50409   -3804.0807 
 9519000     191.2331   -4373.2687   -4045.5017   -4373.2687            0    2716.4419    17.867399    23.619483    21.798062    9199.1901    2464.0414    3208.4472     2476.837    143.71648     14.00736   -830.87482   -3681.0618 
 9520000    188.62645   -4386.4299   -4063.1307   -4386.4299            0    1695.2979    18.013958    23.275293     22.12367    9276.0156    2167.7758    1771.6256    1146.4922    48.044111    -1036.238    95.103569   -3833.7888 
 9521000    193.49714   -4398.4426   -4066.7952   -4398.4426            0    1916.5404    18.069965    23.461557    21.792769    9239.0338    1470.0449    1867.2232    2412.3532   -211.76788   -978.35696   -396.05475    -3808.557 
 9522000    197.36665   -4371.2888   -4033.0092   -4371.2888            0    1646.7736    17.970966    23.462556    22.054819    9299.2999    113.84812    2352.0154    2474.4573   -25.750344    630.67379    -164.0598   -3809.6725 
 9523000    187.08721    -4388.744    -4068.083    -4388.744            0    1730.5851    18.249464    23.342218    21.735941    9259.1404    6.6039544    1642.0334    3543.1178    387.18729    546.96576    -524.4187   -3834.3933 
 9524000    207.50992   -4360.4453   -4004.7804   -4360.4453            0    1713.8477    17.896834    23.509187    22.061699    9282.2394    2401.6202    937.20366    1802.7193    689.22883    453.54512   -384.46209   -3772.7735 
 9525000    195.80019   -4376.2904   -4040.6955   -4376.2904            0    2582.5416    18.307614    23.331529    21.726893    9280.5259    1014.5167    2691.6264    4041.4819    740.93228   -160.99478    194.08697   -3691.1564 
 9526000    199.24524   -4366.8328   -4025.3333   -4366.8328            0    2440.7628    17.898781    23.335436    22.156983    9254.4369    2819.9884    2617.2501    1885.0499    85.690282   -111.33704   -689.30671   -3695.9121 
 9527000    196.30107   -4367.4125   -4030.9592   -4367.4125            0    4156.0706    17.920485    23.557138     21.75496    9183.9727    4424.1998    2437.6589    5606.3529   -275.63395    293.87101    661.68883      -3474.3 
 9528000    193.65615   -4387.5584   -4055.6384   -4387.5584            0    3610.2214      17.9539    23.178569    22.066131    9182.7255    4566.8029    3551.8548    2712.0066   -412.63957   -661.02768    275.41813   -3572.1553 
 9529000    190.28159   -4401.9662   -4075.8301   -4401.9662            0    2267.2614    18.020169    23.592465    21.704381     9227.405    1099.8506    908.46171    4793.4719   -199.43901    26.885202    425.76623   -3770.7196 
 9530000    201.90186   -4374.5394   -4028.4866   -4374.5394            0     3034.977    17.947643    23.302792    22.028626    9213.0364     3896.167    3230.9816    1977.7823    99.534975   -20.309672    385.43448   -3620.6989 
 9531000    197.28951   -4358.7415   -4020.5941   -4358.7415            0    3102.9909    17.945149    23.330264    22.027679    9222.2193    2803.7855    3412.2872    3092.8998    707.65371   -146.22169    395.85355   -3603.2523 
 9532000    193.23638   -4362.2913   -4031.0908   -4362.2913            0     2822.338    17.878475    23.598123    21.858467    9222.0531    2411.7347    2754.8341    3300.4452   -338.20303    548.81558   -894.58243   -3651.5027 
 9533000    195.74425   -4374.8345   -4039.3356   -4374.8345            0    3186.5536    18.070133    23.016427    22.118922    9199.4787    2522.7285    3523.4506    3513.4817    997.80956   -301.29291   -471.37298   -3611.8118 
 9534000    187.83308   -4386.8368   -4064.8974   -4386.8368            0    866.99132    17.978149    23.614183    21.902409    9298.4333    1253.6156   -982.91049    2330.2688   -1026.8985     347.9426    539.15065   -3947.3263 
 9535000    180.64131   -4384.8287   -4075.2157   -4384.8287            0    2831.4511    18.021127    23.307546    21.987271    9235.2752    1599.0058    2948.9934    3946.3541   -1237.4738   -251.05934    824.25488    -3693.856 
 9536000     191.0556   -4390.7773   -4063.3145   -4390.7773            0    1419.0373    18.200432    23.175078     21.96282    9263.8391   -370.53784    2529.5844    2098.0654   -1196.3078    68.800192    48.006655   -3871.5975 
 9537000    186.73077    -4359.956   -4039.9058    -4359.956            0    1254.8005    17.852382    23.546467    22.078791    9281.0521    1891.5349    1595.9914    276.87526     37.32637    6.0960954     583.4946   -3870.0628 
 9538000    189.94496   -4372.0047   -4046.4455   -4372.0047            0    2720.3607     18.04027    23.357402    21.879982    9219.6521    967.63803    3689.9376    3503.5065    388.96027   -82.562302    376.27587   -3680.6681 
 9539000    190.58263   -4367.0273   -4040.3752   -4367.0273            0    2354.9173    17.958631    23.260143    22.082487    9224.3035    2964.3551    2186.3769    1914.0198    -618.6048   -571.87322    455.04188   -3723.5753 
 9540000    190.35271   -4384.5775   -4058.3195   -4384.5775            0    2159.6866    17.946794    23.533649    21.829329    9219.6946    1199.9019    1011.8153    4267.3427     19.53225    220.46315   -389.40643   -3767.9285 
 9541000    193.81502   -4386.1311   -4053.9388   -4386.1311            0    2880.2887    18.045657    23.321428    21.874271     9205.798    3526.4984    2221.7846     2892.583   -888.21973    365.45904   -223.47207   -3667.2395 
 9542000    187.46585   -4377.5379   -4056.2278   -4377.5379            0    1184.3134    17.820265    23.392684    22.299249    9295.7505    2434.8329     725.0927    393.01455    197.58809    22.183524   -317.10015   -3895.6717 
 9543000    198.55557   -4380.9535    -4040.636   -4380.9535            0     3155.113    18.023016    23.415711    21.818497    9207.8801    2597.7738     3189.812    3677.7531   -425.35987     1269.044   -219.48519   -3616.9438 
 9544000    191.59776   -4371.0386   -4042.6466   -4371.0386            0    2004.1002    17.959423    23.319762    22.090222    9251.5944    3251.9674    2394.7895    365.54363   -412.11249   -321.10072    297.94652   -3772.2434 
 9545000    181.18515   -4394.6384   -4084.0932   -4394.6384            0    3281.6112    18.074738     23.48169    21.654063    9190.5339    2864.3225    2778.3138    4202.1973    230.52328    394.28693    1066.6785   -3644.2441 
 9546000    201.00504   -4382.8935   -4038.3777   -4382.8935            0    1940.9485    17.864116    23.358353    22.240692     9280.514    2105.9821    2811.9203    904.94299    477.39447    595.54481   -504.87622   -3775.6766 
 9547000    183.16201   -4371.8714    -4057.938   -4371.8714            0    2593.1218    18.091208    23.507286    21.735231    9243.4551    2743.4949    2900.6235     2135.247   -4.7598305   -105.04215    224.72683   -3708.3688 
 9548000    206.62798   -4395.9346   -4041.7813   -4395.9346            0     2811.646    17.805697    23.321014    22.248927    9238.7984      3407.95    4886.3946    140.59327   -237.26014   -156.47044   -93.058687   -3662.9446 
 9549000    190.22966   -4359.1719   -4033.1247   -4359.1719            0    3087.4251     18.01359    23.398308    21.852142    9210.4051    4625.1382    510.01151    4127.1255   -124.13484   -904.66094    857.10913   -3618.4085 
 9550000    190.94141   -4388.4305   -4061.1634   -4388.4305            0    810.18395    17.990116     23.34486    22.194077    9320.9965    1710.6075    538.28568    181.65871     968.8905   -463.59825    39.196903   -3951.0293 
 9551000     197.8117   -4366.5864   -4027.5439   -4366.5864            0    2677.2865    18.063129    23.448601    21.747073    9211.0835    2903.1566    1812.9343    3315.7685    368.55454     123.7154   -338.83901   -3667.8928 
 9552000    192.47705   -4385.5656   -4055.6665   -4385.5656            0     1636.882    18.053297    23.288289    22.125165    9302.0919    1050.9643    2288.0678    1571.6138    68.456825   -230.70875    293.98988   -3833.6047 
 9553000    195.51793   -4397.9852   -4062.8741   -4397.9852            0    2458.5895    17.862782    23.594875    21.871544     9218.202    2093.6647    2203.3147    3078.7892    191.89103    662.99515     589.1922   -3732.3462 
 9554000     200.4784   -4377.8993   -4034.2862   -4377.8993            0    1769.6663    18.072096    23.237638    22.091935    9277.5701    1628.3788    2082.1561    1598.4641   -67.912548   -691.45811  -0.13221907   -3794.8435 
 9555000    185.03425   -4367.0417   -4049.8993   -4367.0417            0    1054.3391    18.148858    23.433241    21.925561    9324.6459    565.23812    511.42815     2086.351   -266.80466    641.54591   -154.86858   -3906.5193 
 9556000    195.00152   -4355.6186   -4021.3927   -4355.6186            0    2064.5601     17.84615    23.510314    22.106357    9275.1331    4151.5601      2201.31   -159.18988   -174.29585    32.390709   -16.234114   -3742.1231 
 9557000    196.56295     -4387.42   -4050.5179     -4387.42            0    1812.3224    18.097729    23.340983    21.986655     9287.576     1760.444    1471.1284    2205.3947   -542.05247     -481.749    106.09994   -3805.0392 
 9558000     188.4464   -4371.0696   -4048.0789   -4371.0696            0    2731.0446    17.973604      23.3954    21.977956    9241.7231    1975.4941    3340.3309    2877.3089    799.64762   -526.68944    955.68299   -3679.9859 
 9559000    193.02647    -4380.668   -4049.8272    -4380.668            0    1832.5006    17.883506    23.426454    22.062758     9243.129    2561.1602     1995.091    941.25073   -132.87048    236.10968   -132.29491   -3802.8033 
 9560000    188.28107   -4402.9952   -4080.2879   -4402.9952            0     2579.749    18.057975    23.270764    21.919015    9210.8712     1299.364    3321.6447    3118.2383    58.632729    -652.5699   -103.10976   -3733.7473 
 9561000    188.48347   -4373.5508   -4050.4966   -4373.5508            0    2569.9709    17.786819    23.484301    22.067462    9217.8223    2881.0494    3252.2508    1576.6126   -689.68325    550.68224   -397.05317    -3705.009 
 9562000    185.86134   -4354.3055   -4035.7455   -4354.3055            0    1924.1132    18.242276    23.431401    21.667022     9261.397    786.25767    1353.2172    3632.8648   -769.99385    349.92483    144.87979   -3775.8594 
 9563000    204.61002   -4367.0739   -4016.3793   -4367.0739            0    2022.3737    17.939453    23.306975    22.147531     9260.201    3021.5677    2407.7502     637.8031   -887.08947   -69.923427   -241.22211   -3743.2566 
 9564000    195.57272   -4383.5368   -4048.3319   -4383.5368            0    3026.6108    18.049314    23.561301    21.632772    9199.6676    4216.2737    1541.5895    3321.9692   -574.97939   -3.3694673   -454.14026   -3642.2584 
 9565000    187.14305   -4387.5068     -4066.75   -4387.5068            0    4187.9466    17.886544    23.188958    21.995118    9122.9219    4409.5596    4707.0506    3447.2296    372.13686   -705.45012    96.611522   -3509.5502 
 9566000    198.10929   -4371.2859   -4031.7333   -4371.2859            0    872.31225    17.972338    23.471462    22.058649    9305.1553    402.35754   -37.961906    2252.5411    922.91625   -223.57978   -259.47455   -3913.3552 
 9567000     190.4795   -4401.4199   -4074.9446   -4401.4199            0    3249.5172     18.05632    23.190949       21.985    9206.0689    3966.1376    2520.9836    3261.4304   -607.07502   -35.825651     123.3442   -3638.6609 
 9568000    188.77048   -4378.9674   -4055.4213   -4378.9674            0    1719.2765    18.019965    23.394888    21.968153    9261.2257    1240.1983    2536.0251    1381.6061    386.02442    4.9680291   -865.91096   -3823.2064 
 9569000    187.43302   -4401.7849   -4080.5311   -4401.7849            0    1877.3392     17.86732    23.457424    22.060186    9245.8936    1998.8322    1180.3631    2452.8221   -422.64595   -290.05929    238.96426   -3827.3871 
 9570000    189.52195    -4374.261   -4049.4269    -4374.261            0    1444.3663    18.196752    23.133232    22.053759     9283.523    1258.9064   -91.786985    3165.9794    80.343277    21.147669   -810.54024   -3853.8732 
 9571000    191.71638   -4374.2045   -4045.6092   -4374.2045            0    2966.6075    17.838264    23.472028    21.956639    9193.2497    3694.7803    3356.5154    1848.5266   -380.15109   -669.71773   -536.00099   -3647.8639 
 9572000      203.396   -4350.7422   -4002.1284   -4350.7422            0    2918.4524    17.940513    23.314269    22.052157    9223.7546    2464.7664    3277.0043    3013.5863   -137.79376   -303.48024   -163.11397   -3609.5411 
 9573000    181.04335   -4383.8778   -4073.5757   -4383.8778            0    2252.8211    18.114701    23.464866    21.764968    9251.3962    2501.7672    2570.2158    1686.4803   -39.326709    -219.5516   -34.017715   -3769.6203 
 9574000    191.97322   -4382.9636   -4053.9281   -4382.9636            0    2491.7305    17.870858     23.40257    22.090412    9238.7406     2410.556    2327.2012    2737.4344    886.37845    117.56667    1346.0428   -3718.1984 
 9575000    183.19088   -4368.8679    -4054.885   -4368.8679            0    1472.1797    18.112069    23.455188    21.860485    9286.8145    1136.3436    2386.5941    893.60135    181.22966    86.059568   -164.04704    -3855.495 
 9576000    192.02736   -4384.9148   -4055.7865   -4384.9148            0    1349.8269    17.904775    23.132233    22.384049    9270.9677    1398.5115    1537.1715    1113.7976    196.79443   -76.814294   -127.65535   -3873.2797 
 9577000    195.48827   -4396.5337   -4061.4735   -4396.5337            0    2527.9229     17.97706    23.503056    21.841173    9228.2419    3325.0748    1672.5881    2586.1057   -3.9790042    720.33008    496.06735   -3721.2544 
 9578000    208.21958   -4370.3464   -4013.4652   -4370.3464            0    2979.0164    17.890205    23.225242    22.063864     9167.631    3096.3075    2793.5855    3047.1563    20.686046   -121.23228    1205.8346   -3615.1692 
 9579000    185.68377   -4370.3458   -4052.0901   -4370.3458            0      2941.52    18.010853    23.335295    21.922712    9213.8651    3281.6908    2207.6768    3335.1923    629.02875    482.11778    201.71728   -3656.8241 
 9580000    210.71015   -4378.9327   -4017.7827   -4378.9327            0    1349.1208     17.96523    23.401333    22.031786      9262.39    884.04002    1534.4327    1628.8896   -891.78512   -570.85066    233.41082   -3835.5402 
 9581000    193.83761   -4379.9999   -4047.7689   -4379.9999            0    2224.9276    18.006148    23.362546    21.961647    9238.5939    2724.7975     2869.044    1080.9412     192.6058     174.6154    78.622344   -3747.9924 
 9582000    191.38726    -4396.106   -4068.0748    -4396.106            0    1696.5748    17.971042    23.392052    22.001442    9248.9565      2169.23    1641.0025    1279.4919   -720.73764   -259.54046   -44.608982   -3839.2297 
 9583000    179.84604   -4376.2118   -4067.9618   -4376.2118            0    1297.7317    18.073378    23.205936    22.091441    9265.3637    547.33439    1902.7468     1443.114   -21.247729    291.14225    289.47468   -3892.6048 
 9584000    196.80807   -4356.3212   -4018.9989   -4356.3212            0    1525.0989    18.015308    23.650234    21.846066    9307.8716    707.96119    2610.2526    1257.0829    320.09842   -704.79321    106.99169   -3811.9732 
 9585000    202.05895   -4399.2906   -4052.9685   -4399.2906            0    1599.8788    17.962734    23.420046    22.064095    9282.1016    3147.4119    85.505617    1566.7189    8.2168811   -688.12886    22.104961    -3836.393 
 9586000    197.76734   -4390.4807   -4051.5143   -4390.4807            0    1141.7986     18.11432    23.384639      21.9329     9290.707    1746.8278    847.97721    830.59086   -805.52875   -312.37887   -443.30531   -3896.8058 
 9587000     187.6816   -4383.1838    -4061.504   -4383.1838            0    1648.5114    17.877585    23.362483    22.173024    9260.8911    2092.0752    2155.5595    697.89948   -78.859107    403.53016    -181.8353    -3838.855 
 9588000    195.63831   -4359.7552   -4024.4379   -4359.7552            0     2590.649    18.138715     23.33211    21.747964    9204.0534     2162.871    2671.4834    2937.5927    1007.9217   -279.82418    99.726427   -3676.6907 
 9589000    185.63813   -4386.5585   -4068.3811   -4386.5585            0    2251.2794    18.011346    23.211163    22.019623    9205.6182    2335.2345    2885.7118    1532.8918   -160.97463   -498.04624   -408.19189   -3766.1368 
 9590000    193.60731   -4374.3904   -4042.5541   -4374.3904            0     2508.571    17.929512    23.627783    21.749383    9213.7915    2363.6914    1690.2086     3471.813   -222.38782   -416.36514   -166.68209   -3705.4681 
 9591000    184.90883   -4383.9826   -4067.0552   -4383.9826            0    3371.4687     18.02488    23.129408    22.063297    9198.2946    3459.5431    4041.3763    2613.4868    686.14785    740.78427   -222.39676   -3614.7804 
 9592000    201.67572   -4379.6303    -4033.965   -4379.6303            0    2618.5195    17.879122    23.592486    21.848138    9215.8271    2521.6596    1332.1454    4001.7534     718.9121  -0.68827546    274.09981   -3682.0271 
 9593000    188.28735   -4391.1651    -4068.447   -4391.1651            0    972.06828    18.005084    23.402446    22.042659    9287.9607    1564.7708    668.53421    682.89985    191.64869    32.624949   -211.92534   -3936.7751 
 9594000    191.03159   -4384.1157   -4056.6941   -4384.1157            0    2068.7301    18.110069    23.288048    21.861386    9219.9996    1736.9176    1646.3921    2822.8807   -903.57074    -354.1469    640.91796   -3778.5238 
 9595000     189.0006   -4390.2009   -4066.2603   -4390.2009            0    1499.6775     17.87334    23.649103    22.014372    9305.2214    3036.3873    596.00486    866.64031   -217.89601    5.0588637   -568.41936   -3862.7434 
 9596000    191.90409   -4370.0321    -4041.115   -4370.0321            0    2280.3296    18.081199    23.145114     22.10537    9250.9071    2686.4301    1785.8131    2368.7456    592.62699    30.733587   -211.90296   -3733.4644 
 9597000    193.82931   -4377.9708    -4045.754   -4377.9708            0    1567.2277    17.967658    23.601366    21.858173    9269.2044    1609.1673    1218.0155    1874.5003   -755.90846    872.22393    455.91327   -3833.8932 
 9598000    184.97421   -4381.8561   -4064.8167   -4381.8561            0    2975.8654     18.02212    23.126597    21.978394    9160.3815    4409.5717    2336.8983     2181.126   -1296.7501    563.60809   -200.11839   -3667.2566 
 9599000    187.89056   -4366.7536   -4044.7156   -4366.7536            0    2320.7498    18.003991    23.446475    21.912409     9249.888    2338.0967    2505.6626      2118.49    58.274702   -93.087797    -701.9011   -3731.6461 
 9600000    188.20083    -4386.273   -4063.7032    -4386.273            0     2421.312    17.916513    23.348442    22.026335    9214.1149    1388.0138    2020.3291     3855.593    1352.7332    785.50194    322.91083   -3738.3312 
 9601000    195.58736   -4413.2563   -4078.0263   -4413.2563            0    1466.4288    18.113028    23.349593    21.992001    9301.1169    956.63339    1230.0397    2212.6133    -466.7371   -239.63069    919.43929   -3879.1092 
 9602000    190.53018   -4358.5564   -4031.9942   -4358.5564            0    2050.1878    18.006437    23.315305    21.965258    9221.5772    1821.7968     2476.883    1851.8837   -735.75528    38.199718    275.79261   -3756.2701 
 9603000    199.92196   -4384.3478   -4041.6884   -4384.3478            0    1298.7647    17.791826    23.562071    22.102263    9265.5401    1809.1018    521.22903    1565.9633   -7.4118729    608.77932    180.53853   -3866.1884 
 9604000     195.6066   -4387.1898   -4051.9268   -4387.1898            0    1414.0659    18.118968    23.431727    21.949608    9318.8974     945.9777    1028.7102    2267.5098   -207.77217    503.51839    501.04004    -3859.746 
 9605000    202.06162   -4376.5444   -4030.2177   -4376.5444            0    2468.6311     18.13576      23.2884    21.886661    9243.8932     1551.143    2130.3679    3724.3825    415.20671    192.66084    492.81396   -3697.4148 
 9606000     185.2025   -4386.4636   -4069.0328   -4386.4636            0    3035.2224    17.777928    23.657887    21.937603    9226.6976    4666.4777    2429.6331    2009.5565   -1396.6906   -652.75973   -649.35065   -3660.6075 
 9607000    197.28874   -4406.9069   -4068.7607   -4406.9069            0    1700.1624    18.046046    23.220592    22.124127    9270.8915    1490.2758    1539.1089    2071.1024   -72.465532   -169.69145   -69.873624   -3838.8878 
 9608000    186.46847   -4362.0649   -4042.4644   -4362.0649            0    1766.4957    18.025212    23.332641    21.892713    9207.5456    2279.5342    1421.0402    1598.9126   -105.20475    54.609881    200.97669   -3805.2547 
 9609000     189.8909   -4379.0413   -4053.5748   -4379.0413            0    2404.5967    17.881053    23.411172    21.950365    9188.7826    2980.0157    1293.1483    2940.6261    318.37493    970.49157    70.981437   -3731.3373 
 9610000    194.09432   -4387.4155   -4054.7445   -4387.4155            0     2323.643    18.310081    22.953266    21.913815    9209.8539    1293.3776    2409.7788    3267.7727   -89.380607    541.89654   -244.11108   -3742.6414 
 9611000    196.36038   -4380.6493   -4044.0944   -4380.6493            0    2962.6575    17.891276    23.381557    22.025012    9213.6325    2806.6036    3855.6571     2225.712   -508.24618    710.66167    448.71829    -3645.998 
 9612000    197.40008   -4384.8966   -4046.5596   -4384.8966            0    2111.6846    17.991979    23.461014    21.933249    9258.2458    1404.3543    934.40832    3996.2913    305.40502   -84.487628    965.26421   -3761.4357 
 9613000    191.86397    -4387.936   -4059.0877    -4387.936            0    1754.2329    18.208792    23.064631    22.077699    9272.1718    1035.0868    2910.2225    1317.3893    377.27813   -259.29658    442.34231   -3821.8713 
 9614000    200.25199   -4364.2909   -4021.0658   -4364.2909            0    2920.8889    17.888254    23.413353    22.030184    9226.7697    4007.4657    2726.7933    2028.4076    472.50255     69.10259   -1327.0097   -3628.0223 
 9615000    190.98764   -4359.4365   -4032.0902   -4359.4365            0     2754.102    18.157861    23.444797    21.631648    9208.7521    3434.6573    1123.3412    3704.3074   -115.39808   -990.83855   -127.79973   -3662.2137 
 9616000    181.49916   -4379.5588   -4068.4755   -4379.5588            0    1661.0088    17.974399    23.332574    22.139446    9285.0398    3022.1341    1745.2075    215.68476   -486.48252   -303.35182    629.80193   -3843.5536 
 9617000    183.10784   -4391.7299   -4077.8893   -4391.7299            0    179.03452    17.954925    23.607594     22.03226    9338.8705     792.0211    849.73238   -1104.6499   -563.66238    490.19624   -916.84414   -4053.5052 
 9618000    185.81043   -4390.7611   -4072.2883   -4390.7611            0    1380.0318    18.099976    23.256649    22.071894     9291.049    1570.6157    1113.1606    1456.3191    208.05581   -108.83518   -417.86727   -3885.2935 
 9619000    198.71761    -4380.534   -4039.9389    -4380.534            0    2328.5108    17.928501    23.550673    21.939837    9263.6193    2929.9334    2081.6201     1973.979    31.733994    -105.2514    340.92538   -3725.3562 
 9620000    191.72584   -4386.5795   -4057.9679   -4386.5795            0    2997.7962    17.894124    23.272237    22.056372    9185.0735    3606.4958    3424.5143    1962.3786   -1775.6362    300.49518    510.23487   -3656.3985 
 9621000     185.0372   -4381.5299   -4064.3824   -4381.5299            0    2203.4761    18.139936     23.26226    21.947486    9261.3104    1080.5214    3521.5071    2008.3997   -745.23741   -220.45328    196.66359   -3766.7662 
 9622000    189.75242   -4359.4186   -4034.1894   -4359.4186            0    958.31427    17.851731    23.650717    22.090112     9326.583    1723.2234    90.768951    1060.9505    231.53426    404.35257   -177.54054   -3903.8408 
 9623000    188.64709   -4400.4527    -4077.118   -4400.4527            0      3425.13    18.021317    23.264507    21.867516    9168.1101    3193.0066    2403.0149    4679.3686   -1122.9188    127.29016     384.4949   -3619.1525 
 9624000    195.49803   -4375.8345   -4040.7575   -4375.8345            0    1985.1822    18.015956    23.459169    21.960422    9281.3388    1872.5602    1654.8952    2428.0911   -111.95325    -617.8923   -187.05533   -3772.0457 
 9625000    202.61258   -4367.2536   -4019.9826   -4367.2536            0    2484.3715     17.86266    23.561264    21.982366    9251.6493    2961.6832    2906.7374     1584.694   -862.94825    368.00143   -642.31291   -3684.7767 
 9626000    199.50004   -4392.9936   -4051.0573   -4392.9936            0    1756.7289    18.099286    23.219853    22.070351    9275.3469     1960.278    1955.5664    1354.3424    1537.3512    525.59784    1152.0998   -3813.4221 
 9627000    198.27444   -4380.5467   -4040.7111   -4380.5467            0    2316.8987      17.9924    23.347391    22.005911    9244.1457    2771.3471    1284.6382    2894.7108   -509.98226   -7.3409161    322.48333   -3728.3551 
 9628000    196.18944   -4385.4799   -4049.2179   -4385.4799            0    1735.9525    17.948214    23.466835    21.983642     9259.241    1004.8936    2719.1928     1483.771   -1184.4748   -331.87341   -312.74645   -3814.8009 
 9629000    201.52007     -4378.24   -4032.8415     -4378.24            0    3245.7028    18.064407    23.140968    21.955073    9177.8318    2806.0366    3531.8564    3399.2153    498.76087   -841.40561   -530.51057   -3598.4066 
 9630000    189.51843   -4402.6037   -4077.7756   -4402.6037            0     987.6112     17.94878     23.60432    21.993292    9317.8703    2456.3396    1356.7589   -850.26493    20.029195    115.46389    350.82509   -3943.5675 
 9631000    191.46239   -4404.9608   -4076.8009   -4404.9608            0    1462.1659    17.961885    23.348499     22.11211    9273.4442    2188.6131    471.48137    1726.4032   -266.70897    79.223399    391.04872   -3879.0522 
 9632000    197.95906   -4362.2669   -4022.9718   -4362.2669            0    3079.9743    18.038883     23.42084    21.715758    9174.5993    2789.1732    1001.5513    5449.1985    570.88549    266.65151    237.00651   -3610.8647 
 9633000    186.51583   -4377.9867    -4058.305   -4377.9867            0    2972.5139    17.844453     23.51032    21.975151    9219.2086    3666.3169    1956.4154    3294.8095    824.37237    65.660294    59.978582   -3658.6425 
 9634000    179.51054   -4379.6468   -4071.9719   -4379.6468            0    2205.5031    18.157091    23.303513    21.879438    9257.7156    2528.8675    2424.5872    1663.0547    566.88926   -248.84897    882.81601   -3774.1974 
 9635000    182.58424   -4392.8559   -4079.9128   -4392.8559            0    1270.6522    18.127048    23.271472    22.116866    9329.8467    356.38069    2491.0774    964.49848    939.21203   -371.26589   -108.57018   -3907.0199 
 9636000    195.16834   -4381.3194   -4046.8075   -4381.3194            0    2338.1461    17.876932    23.602292    21.842517    9216.1568      2156.33    2569.0616    2289.0468    437.67054   -6.1931753    21.120159   -3732.5415 
 9637000    184.62837   -4383.9542   -4067.5075   -4383.9542            0    1454.7738    18.025819    23.275654    22.004117    9232.1073     1017.426    1544.5944    1802.3009    87.424504   -621.13896      728.541   -3871.6356 
 9638000    198.00282   -4388.7559   -4049.3858   -4388.7559            0     2518.345    17.944583    23.472008    21.968461    9253.0143      2927.82    3171.0314    1456.1837   -218.10387   -172.44078    521.31296   -3709.5459 
 9639000     186.0717   -4412.1396   -4093.2191   -4412.1396            0    1117.3613    18.026487    23.401544    21.947467    9258.4864     778.8801    1164.9927     1408.211    142.39119    160.35708    102.00702   -3942.3468 
 9640000    185.49014   -4371.9307    -4054.007   -4371.9307            0    2160.0751    17.985058    23.401576    21.919161    9225.3084    2035.9659    1285.4268    3158.8326    50.092767   -469.61002   -338.74242   -3763.3869 
 9641000    185.24452   -4392.1391   -4074.6363   -4392.1391            0    772.96593    18.048623    23.476114    22.008749    9325.3607    1530.3793   -524.13532    1312.6538   -2.2231224    112.21818    495.72719   -3969.5123 
 9642000    192.06648   -4392.2648   -4063.0694   -4392.2648            0    1259.5545    17.958543    23.504157    22.025384    9296.9236    548.06531    791.03901    2439.5591   -757.74067   -131.69756    79.966437   -3892.2913 
 9643000    183.62145   -4383.3198   -4068.5989   -4383.3198            0    2480.6669    18.189541    23.213865    21.830013    9217.7131    1812.4947     3909.183    1720.3232   -458.61703    -153.8059   -263.77672   -3735.1206 
 9644000    184.13084   -4371.1745   -4055.5805   -4371.1745            0    2413.2638    17.839317    23.413609    22.108503    9234.3411    1136.6686    2280.3755    3822.7474   -761.57391    422.93561   -917.86216   -3730.5781 
 9645000    206.04337   -4380.2323   -4027.0811   -4380.2323            0    2958.8431    18.017418    23.541076    21.633254    9175.7318    4067.0266    2239.7776    2569.7253    426.99697     439.5398   -577.30817   -3631.1327 
 9646000    185.35249   -4384.0035   -4066.3157   -4384.0035            0    2556.9189    17.903365    23.165082    22.226371    9218.0077    1065.1576    4695.7401     1909.859   -237.73178   -202.13612   -42.585421   -3722.5758 
 9647000    188.23813   -4395.1221   -4072.4884   -4395.1221            0    3570.5653    18.003771    23.377098    21.767091    9161.2446    2670.7552    3134.9803    4905.9603   -153.20351   -375.27323    89.060648   -3595.4346 
 9648000    183.25287   -4396.9597   -4082.8705   -4396.9597            0    2425.9166    17.900888    23.389728    22.061478    9237.0722    3057.2888    730.42611    3490.0349   -673.94353    484.74835    518.55366   -3756.0675 
 9649000    202.05406   -4366.5396   -4020.2259   -4366.5396            0    2823.1642    18.165002    23.450868    21.574373    9190.3606    2219.6117    3192.2082    3057.6727   -246.78166   -73.015019   -252.97227   -3641.8316 
 9650000     191.2587   -4384.8693   -4057.0585   -4384.8693            0    1661.1757    18.024982    23.394393    21.993539    9274.3123    1941.0543    2028.9281    1013.5447    183.02342   -18.455756    247.87734   -3832.3739 
 9651000    189.74945   -4363.5309   -4038.3068   -4363.5309            0    1429.4427    17.878187        23.68    21.974289    9302.9355    2657.6771    129.34366    1501.3075   -303.84339   -64.101636   -368.53271   -3844.3689 
 9652000     189.7537   -4400.5338   -4075.3025   -4400.5338            0    541.98303    18.034083    23.332122    22.116599    9306.0772    2159.1662   -394.41101   -138.80614    892.79368     348.5301   -344.17108   -4001.7448 
 9653000     186.3665    -4371.565   -4052.1392    -4371.565            0    2124.5976    18.061251     23.46865    21.948668    9303.4518    1902.4364    1863.5798    2607.7766   -208.03686   -252.36724    970.16572    -3763.871 
 9654000    185.05804   -4388.1286   -4070.9455   -4388.1286            0    2493.9843    17.945055    23.438556    21.982396    9245.9312    3317.7154    1856.5272    2307.7103   -774.50436   -408.23811    -259.2368   -3734.6506 
 9655000     190.2127   -4383.0091   -4056.9911   -4383.0091            0    1517.2715    18.071715    23.260499    22.127929     9301.632    1031.8868    2000.3024    1519.6255    427.65687   -616.54009    499.84867    -3851.166 
 9656000    175.53626   -4389.8914   -4089.0282   -4389.8914            0    3366.2786     17.98521    23.486348    21.798165    9207.6952    3206.1737    4255.0949    2637.5671   -26.094655      173.137    -427.2517   -3636.9882 
 9657000    183.63818   -4379.2544   -4064.5049   -4379.2544            0    1022.1979    17.871305     23.51106    22.115433    9292.3145     1519.187    1050.0381    497.36877    -161.4611    714.57636    442.53756   -3925.9778 
 9658000    191.96724   -4388.9589   -4059.9337   -4388.9589            0    4036.1411    17.989774    23.208408    21.894473    9141.2494    3483.9058    4632.2046    3992.3128   -290.47491    189.02559    427.26967   -3521.8525 
 9659000    187.69193   -4379.7497   -4058.0522   -4379.7497            0    1353.3339      17.9221    23.473314    22.079728    9288.7445    1819.1116    897.25771    1343.6324    179.66764    -160.9028    305.03255   -3874.7203 
 9660000    202.13003   -4376.4859   -4030.0419   -4376.4859            0    2878.6971    17.932581    23.453311    21.894186    9208.2218    2696.1325    2050.0602    3889.8987    196.48763   -60.823771    812.80881   -3643.4546 
 9661000    186.34298   -4392.0653   -4072.6798   -4392.0653            0    4086.1422    18.058877    23.139355    21.857731    9133.7064    3594.3381    3944.3088    4719.7797   -193.40748    12.783069   -1148.5696   -3528.3822 
 9662000    188.38538   -4385.1672   -4062.2811   -4385.1672            0    2622.6646     17.80122    23.586157    21.984959    9230.6573    3300.2659    1541.8189    3025.9091   -943.72591    561.77188    217.44355   -3709.2189 
 9663000    191.98098   -4378.7878    -4049.739   -4378.7878            0    2634.5251    18.085861    23.168438    21.927187    9187.9554    2415.2219    4219.7556    1268.5977    242.29025    377.92065     116.0518   -3696.7208 
 9664000    188.83069   -4383.0786   -4059.4293   -4383.0786            0    1481.6215    18.010796    23.373354    21.987387      9256.09    645.57457    1706.9116    2092.3784    998.21648   -61.290605     232.5757   -3859.4243 
 9665000    195.74447   -4388.5189   -4053.0195   -4388.5189            0    1471.2242    17.955251     23.50897    21.921965    9253.4689    3025.3378    327.43904    1060.8957     211.0211    -47.25178   -464.57036   -3854.4744 
 9666000    182.63771   -4355.3686   -4042.3338   -4355.3686            0    2514.6538    18.008192    23.287897    22.033429    9240.2235    3645.9562    2485.5833    1412.4218   -837.32402   -830.37624   -145.02283   -3703.4611 
 9667000    194.57643   -4407.5402   -4074.0428   -4407.5402            0    1635.2567    17.912777    23.565532    21.958863    9269.3656    921.88895     857.7134    3126.1677    240.59303   -332.94902   -251.82811    -3852.982 
 9668000    189.51078    -4346.711    -4021.896    -4346.711            0    3045.6953    18.009034    23.258356    22.057486    9239.0104    3735.4469    3665.3322    1736.3068    -410.9847   -286.31021    358.24338   -3611.5145 
 9669000    191.66993   -4364.2669   -4035.7512   -4364.2669            0    1356.2797    18.157263    23.364666    21.948194    9311.2664    803.45784    1718.2465    1547.1347   -228.70593   -613.65481    180.82336   -3851.5748 
 9670000    188.01664   -4370.1571    -4047.903   -4370.1571            0    1850.7728    17.925637    23.422663    22.079612    9270.4817     2433.859    1709.8914    1408.5681    -494.9579    336.72329     599.1131   -3797.6777 
 9671000    186.10095   -4373.5638   -4054.5932   -4373.5638            0    1760.9067    17.991638    23.291717    22.099793    9261.0545    1997.1539    1342.2998    1943.2665   -459.34436    832.91043    448.48573   -3816.7598 
 9672000    187.09261   -4383.0538   -4062.3835   -4383.0538            0     1037.552    18.036207    23.535064    21.930239    9309.0198    1274.1154   -117.12362    1955.6642    414.68851      1001.42    60.917904   -3921.5228 
 9673000    185.31169   -4379.6486   -4062.0307   -4379.6486            0    1831.7057    17.943143    23.408532    22.091806    9279.0587    1798.5954    1444.7197     2251.802     277.5222    709.00229   -70.763766   -3814.1541 
 9674000    192.63069   -4397.1979   -4067.0355   -4397.1979            0    1978.9504    18.112177    23.366241    21.842368    9243.9848    2129.4728    2656.5267    1150.8517     21.05785   -118.47604   -72.829834   -3800.2452 
 9675000     193.5947   -4376.6222   -4044.8075   -4376.6222            0    1995.1149    17.840285    23.351444    22.224939    9258.8297    3762.4726    2327.5952   -104.72305   -966.15395    8.8850885      82.2615   -3775.4061 
 9676000    187.92916   -4386.0924   -4063.9883   -4386.0924            0    1417.1359    18.027991    23.393396    21.942123     9253.782    1397.7324    743.56306    2110.1123    200.63947    337.17088     297.8177    -3872.736 
 9677000    191.59584   -4356.0234   -4027.6347   -4356.0234            0    2696.3719    18.000236    23.262888      21.9238    9180.3166     2876.123    3114.5699    2098.4228   -201.28566    998.28648   -435.95468   -3666.6296 
 9678000    191.32689   -4362.3538    -4034.426   -4362.3538            0    3336.1057    17.726562    23.469065    22.026336    9163.5244    3813.8855    2463.3506     3731.081    318.13311   -566.22618     491.9957   -3588.5868 
 9679000    191.73742   -4382.1559   -4053.5245   -4382.1559            0    1229.7289    18.192104    23.233712    21.936735    9272.0023    -70.42075    2274.7566    1484.8509   -324.85154   -48.953447    36.396695   -3887.2373 
 9680000    182.06222    -4368.602   -4056.5536    -4368.602            0    2881.6313    18.014759    23.288819    21.921077    9196.8229    3064.2036    3008.8559    2571.8343   -76.892582    16.366758    200.15355   -3670.0512 
 9681000    197.32879   -4387.9761   -4049.7613   -4387.9761            0    750.57734    17.927512    23.727314    21.919102    9323.7657    1838.4675     638.2373   -224.97281   -971.67214   -588.94366    381.54477   -3947.6996 
 9682000    202.22324    -4371.006   -4024.4023    -4371.006            0    2553.1896    18.034613    23.171227    22.071254    9223.2262    2561.3431    3757.2366     1340.989   -60.068278    594.05873    589.28494   -3680.9695 
 9683000    196.63526   -4408.3845   -4071.3584   -4408.3845            0    2162.4049    17.969466    23.426925     21.93599    9234.3787    451.24952    3170.1603    2865.8049   -600.75419   -311.81898   -261.81158   -3780.1388 
 9684000    194.89756   -4405.1064   -4071.0587   -4405.1064            0    2096.5375    17.914123    23.457122    22.064752    9271.9128    3165.0957    2379.1039    745.41285   -207.62009   -275.63152    603.14526   -3787.5621 
 9685000    199.97654    -4376.932    -4034.179    -4376.932            0    2469.0374    18.242475    23.124935    21.955051    9261.8707     2570.003    3203.0434    1634.0659    588.07715   -469.43405   -6.4336068   -3700.6741 
 9686000    199.52893    -4378.156   -4036.1703    -4378.156            0    2821.5089    17.862186    23.391059     21.95492    9173.1049    3136.4395    2846.1741     2481.913    279.08951    324.73415    55.143611   -3658.7079 
 9687000     188.0121   -4383.4081   -4061.1618   -4383.4081            0    2108.8843    18.011623    23.405597    21.979775    9266.0753     1188.599    2250.2124    2887.8414    681.82874   -184.11271   -826.97449   -3776.1751 
 9688000    202.65585   -4373.2637   -4025.9185   -4373.2637            0    2114.4442    18.195089    23.094171    22.151674    9308.1441    1263.5334    3369.6747    1710.1244   -348.05517   -262.62094   -29.427717   -3738.8833 
 9689000    187.19098   -4396.7716   -4075.9327   -4396.7716            0    1261.1669    17.867325    23.715374    21.958278    9304.3876    584.69856    1563.0603    1635.7417    606.35531    406.50171    223.62658   -3904.7987 
 9690000    205.56626    -4372.818   -4020.4845    -4372.818            0    1844.7663    18.136909    23.172755    22.015549     9252.742    2237.5896    910.49444     2386.215   -604.69234   -358.26258    -291.3846   -3771.5485 
 9691000    197.88574   -4384.1659   -4044.9966   -4384.1659            0    1630.8888    18.050146    23.326273    22.057503    9287.1489    865.92501    2178.8519    1847.8895   -502.76418    258.81104    444.65992   -3824.1032 
 9692000    189.74269   -4369.8827   -4044.6702   -4369.8827            0    1788.8122     17.91025       23.517    21.941623    9241.7095    1055.5572    1521.3575    2789.5218     654.2106    -496.7441    97.190525   -3803.5726 
 9693000    189.85265   -4370.8892   -4045.4883   -4370.8892            0    1701.0519    18.136255     23.07107    22.021682    9214.3742    401.97943    3261.8683    1439.3079    130.62975    462.90452   -194.60439   -3816.8972 
 9694000    205.37003    -4384.838   -4032.8408    -4384.838            0    1667.9153    17.931554    23.504385    22.066671    9300.4432    1867.2521    1282.6313    1853.8626    -399.6449    560.55482   -712.33162    -3806.609 
 9695000     188.2331   -4377.4858   -4054.8607   -4377.4858            0    1290.2968    17.913431    23.567264    22.063981    9314.7634    2031.9729    1924.2972   -85.379665    195.41564    717.00746    589.01845   -3879.5787 
 9696000    197.46444   -4388.8611   -4050.4138   -4388.8611            0     1725.353    18.147489    23.231091    21.888971    9228.0828     514.5484    3269.5661    1391.9446    845.68358    -292.3579   -653.09653   -3818.2121 
 9697000    194.76057   -4383.7815   -4049.9685   -4383.7815            0    809.30216    17.795258    23.722863    22.150662    9351.0015    1846.3331    423.93153    157.64187    -122.8163    -491.8306    222.00473   -3939.6001 
 9698000    198.70373   -4386.5069   -4045.9355   -4386.5069            0    1222.9905    18.140354    23.326199    21.993215    9306.3297     1026.822    820.74762    1821.4019    39.534592   -105.88682   -83.164233   -3879.9472 
 9699000    207.63752   -4390.3019   -4034.4183   -4390.3019            0    1829.1754    17.929379    23.431614    22.019701    9250.7915     3146.611    302.98076    2037.9345    639.44456     -61.7416    323.68411   -3787.6382 
 9700000    188.60252   -4380.8281   -4057.5698   -4380.8281            0    1290.3824    17.932883    23.506028    21.987207    9268.2866    2615.2663     477.7691    778.11177    501.70516    52.240436    255.16366   -3883.1508 
 9701000    197.30809   -4392.9789   -4054.7996   -4392.9789            0    1978.2272    18.063297    23.186244    22.072611    9244.4512    1109.7794    2613.7385    2211.1637    42.796455     676.5008    316.08664   -3788.0934 
 9702000    199.04694   -4383.1121   -4041.9524   -4383.1121            0    1831.4716    17.747775     23.79197    21.850078    9226.2944    2482.9036    710.79264    2300.7186   -518.97132   -35.877079   -79.323583   -3795.5168 
 9703000    185.57815   -4387.7104   -4069.6358   -4387.7104            0    932.06638    18.127764    23.248335    22.090803    9309.9552    162.48789    1514.7825    1118.9287   -767.18195    825.48917    528.48349   -3943.0834 
 9704000    188.97569   -4391.2334   -4067.3355   -4391.2334            0    1756.9749    18.055128    23.418467    21.885145    9253.5517    814.10644    1669.4357    2787.3826   -216.89815    186.08939   -496.40384   -3830.2255 
 9705000    184.21453   -4387.0779   -4071.3405   -4387.0779            0    3216.9094    17.759979    23.546277     21.91593    9164.8342    4767.9791    1527.3014    3355.4477   -358.84809   -95.718015    51.641994   -3641.3694 
 9706000     190.3886   -4399.3921   -4073.0725   -4399.3921            0    958.50232    18.097508    23.241848    22.084882    9289.3328    2116.4182    1807.9039   -1048.8151    319.44141    715.07322    132.98201   -3943.2191 
 9707000    196.92962   -4398.1649   -4060.6343   -4398.1649            0      1028.96    17.870305    23.440515    22.136045    9272.5491    2804.0307    650.05004   -367.20079   -939.41121    683.26971   -735.46613   -3921.4874 
 9708000    190.23037   -4362.1408   -4036.0924   -4362.1408            0    2013.5162    18.053497    23.652374    21.721573    9275.2869    822.65415    849.39985    4368.4945   -382.38824   -105.97655    22.060836    -3763.723 
 9709000    190.78334   -4383.8328   -4056.8367   -4383.8328            0    1151.3763    18.076042    23.317098    22.064679    9299.8396    391.57449    1764.7038    1297.8508    141.30855   -66.213289   -310.46971   -3900.6771 
 9710000     195.9887   -4362.3374   -4026.4195   -4362.3374            0    1709.8866    17.950874    23.666364    21.853407    9284.0249    1752.8645    429.07171    2947.7237   -748.30816   -487.75075   -316.55832   -3794.9043 
 9711000    197.68683   -4402.6937   -4063.8652   -4402.6937            0    1973.5835    17.950494    23.223249    22.168979    9241.5556    1787.9921    2784.9711    1347.7873    437.43178    207.92425   -132.34279   -3797.8684 
 9712000    194.48502   -4381.4084   -4048.0677   -4381.4084            0    1860.6987    18.061014    23.359486    21.878525    9230.4623    2293.8606    1492.7331    1795.5024   -724.69554    383.92207    293.92395   -3797.5863 
 9713000    205.37168    -4388.029    -4036.029    -4388.029            0    2727.0472    17.783518    23.331208    22.207461    9214.1188     3441.052    2830.2481    1909.8416   -468.50326   -191.41408    327.85001   -3669.5725 
 9714000     181.0761   -4365.9583      -4055.6   -4365.9583            0    2460.4936    18.053519    23.344859     21.84792    9207.9559    3108.5087    1820.7143    2452.2578    78.960162    137.44872    239.80477   -3725.1838 
 9715000    179.69748     -4401.58   -4093.5846     -4401.58            0    1130.4317    17.909452    23.484964    22.012333    9258.4499    1739.8769    954.38364    697.03467    231.20634    24.258034    270.58513   -3940.9481 
 9716000      192.648   -4391.0897   -4060.8977   -4391.0897            0     2751.394    17.967207    23.279182    21.995343    9199.8138      2112.79     3603.221     2538.171   -600.04771    103.60617   -365.43572   -3691.7435 
 9717000    192.92949   -4402.1946   -4071.5201   -4402.1946            0    3812.5956    18.047368     23.16585    21.962053    9181.9528    4133.4998    3662.6366    3641.6505    -1549.958   -524.32098    49.696829   -3560.9778 
 9718000    199.17735   -4390.1818   -4048.7986   -4390.1818            0    2889.0596    17.864655    23.435261    21.950238    9189.7493     2565.867    2801.8251    3299.4866   -739.95458   -277.93187    473.61642    -3661.598 
 9719000    197.98016   -4382.4623   -4043.1311   -4382.4623            0     1915.772    18.015094    23.388556    21.949941    9248.5428    1268.0804    2685.4081    1793.8275   -291.67234   -799.75528   -506.06364   -3784.7308 
 9720000    195.52651   -4408.5793   -4073.4535   -4408.5793            0    821.32525    17.937567    23.539513    22.158658    9356.3072    895.19086    469.32412    1099.4608    100.96975    524.12917   -253.13133   -3961.3819 
 9721000    193.27624   -4385.3152   -4054.0463   -4385.3152            0    2336.9985    17.943427    23.561122    21.826651    9227.5937    770.73827    3381.2696    2858.9875   -802.92384   -323.81192     255.7107   -3739.5448 
 9722000     195.8743   -4402.2209    -4066.499   -4402.2209            0    2438.6959    18.046201    23.160194    22.095983     9235.094    2881.0919    3537.2133    897.78261    321.47155   -198.09842    62.314422   -3738.0448 
 9723000    182.59506   -4376.9395   -4063.9779   -4376.9395            0    1341.3286    18.010112    23.693727    21.800213    9302.7326    998.52939   -96.556584     3122.013    661.50261    729.98842   -161.00544   -3881.9987 
 9724000     202.7686   -4400.0271   -4052.4886   -4400.0271            0    1414.9986    17.901196     23.40896    22.118168    9268.5825    2646.3998    1558.3322    40.263981     159.6995    582.19323    -3.554413   -3861.2194 
 9725000    191.58624   -4393.0086   -4064.6364   -4393.0086            0    1800.6437    18.101017    23.312228    21.980699     9275.306    890.21743    2710.1892    1801.5245    355.57205    33.877746    300.59185   -3821.0618 
 9726000     192.6973    -4382.312   -4052.0354    -4382.312            0    2649.9789    17.824125     23.56793    22.031544    9254.9608    2571.4362    3500.8092    1877.6911     708.2589     -648.817   -17.245899   -3694.3568 
 9727000    195.92369   -4342.0466   -4006.2401   -4342.0466            0    1791.9174    18.127717    23.260609    22.085392    9312.5647    1152.9978    1426.8935     2795.861    276.31596   -86.620599    359.95833   -3762.8722 
 9728000     192.8003   -4361.5888   -4031.1357   -4361.5888            0    2005.3585    18.010119    23.381436    21.991776    9260.7906    2747.3768    1862.7747    1405.9242   -130.60858    -596.9796    103.75117   -3760.2937 
 9729000    198.51488   -4385.3283   -4045.0806   -4385.3283            0    2957.9671    17.933473    23.452764    21.965641    9238.5186     3153.311    3232.6705    2487.9198   -662.22843     242.7433     524.0833   -3646.5409 
 9730000    196.29271   -4361.2019   -4024.7629   -4361.2019            0    1137.2146    18.220003    23.231487    21.974576    9301.3494   -212.69701     2422.066    1202.2748   -264.57636   -452.97378    555.89659    -3870.499 
 9731000    198.06964   -4378.4881   -4039.0035   -4378.4881            0    1708.6681    17.850385    23.434588    22.099547    9244.6035     2530.176     1643.799    952.02922    49.906861    340.22062   -301.74001   -3808.6356 
 9732000     191.8244   -4376.1102   -4047.3298   -4376.1102            0    1033.1923    18.035246    23.408908    21.965966    9273.7107    1188.0261    896.55429    1014.9966   -1325.3683   -109.77337    635.01395   -3907.5931 
 9733000    189.00771   -4390.4061   -4066.4533   -4390.4061            0     2502.689    18.066822    23.210247    21.897916    9182.5713    2689.8376    1613.0141    3205.2151    318.12193   -248.86582    622.79205   -3731.2973 
 9734000    196.83271   -4377.1799   -4039.8154   -4377.1799            0    1518.6845    17.889174    23.675237    21.998286    9316.9434    2219.7263     268.1754    2068.1518     217.0742   -33.143514    1088.7789   -3833.4594 
 9735000    188.42054   -4390.6551   -4067.7087   -4390.6551            0    1283.4646    18.140885    23.185014    22.118437    9302.9411    1119.6498    2327.6243    403.11976   -348.63289   -127.70896    384.90768   -3893.5761 
 9736000    196.70971   -4397.8151   -4060.6614   -4397.8151            0    1844.7814    18.037228    23.406697    21.939712    9262.7694      1305.34    2001.4079    2227.5964   -407.43033     592.9271    622.30757   -3811.4536 
 9737000    180.38276   -4364.2661   -4055.0962   -4364.2661            0    2162.9624     17.86005    23.500633    22.057768    9258.1408    2967.1083    1581.9642    1939.8147   -535.99971   -114.34322   -27.074443    -3763.052 
 9738000    191.43701   -4369.0299   -4040.9134   -4369.0299            0    597.97445    18.302782    23.216784    21.966903    9334.4343    218.61508    1232.9305    342.37777    565.42839   -53.155672    155.30814   -3959.5093 
 9739000    186.84218   -4368.5679   -4048.3268   -4368.5679            0    1200.4997     17.89404    23.615152    22.019493    9304.7877    1412.2145    1748.5723     440.7122     207.0558   -46.735235    77.696116   -3885.4181 
 9740000    191.45013   -4376.7274   -4048.5885   -4376.7274            0     2248.717    18.021048    23.302749    22.087124    9275.2656    2403.9182    2320.0479    2022.1849    1150.3346   -186.48278   -105.93758    -3744.404 
 9741000     182.6208   -4381.6996   -4068.6938   -4381.6996            0      2089.41    18.173441    23.228554    21.909264    9248.8371    2711.1096    2270.9827    1286.1376   -843.15392    68.258364   -289.13164   -3786.8641 
 9742000    201.93542   -4397.9051   -4051.7947   -4397.9051            0    2436.5046    17.717952    23.480521    22.118841    9202.0291     2900.855    3222.0465    1186.6124    596.34276   -212.79163   -495.41289   -3724.8105 
 9743000    195.10421   -4365.8506   -4031.4487   -4365.8506            0    2288.9553    18.128705    23.279451    21.897974    9241.5207    2833.8052    4159.5125   -126.45176    672.77741   -364.48597    513.71215   -3722.9477 
 9744000    189.85793   -4365.9022   -4040.4922   -4365.9022            0    1415.3341    17.814288    23.480227    22.164544    9271.0637    2166.9555    1645.7343     433.3126    71.995401   -511.41221   -181.43347   -3849.1264 
 9745000    203.29056   -4374.4391   -4026.0061   -4374.4391            0    2858.4081    17.969607    23.339619    21.913803    9190.7318    2883.5218    2329.5375     3362.165    441.67993   -899.97094   -407.13366   -3642.8725 
 9746000    190.08656   -4379.0113   -4053.2095   -4379.0113            0    2400.2082    18.087877    23.250839    21.945736    9229.4619    3156.7768    2162.6282    1881.2198    550.99921    364.32673    164.42146   -3730.1361 
 9747000    188.95715   -4381.2247   -4057.3586   -4381.2247            0    983.58818    17.823442    23.678437     21.96714    9270.8197    1084.9732    413.49062    1452.3008   -748.90043   -147.03516   -57.171816   -3924.3722 
 9748000    207.51615    -4388.502   -4032.8264    -4388.502            0    1805.5225    18.122024    23.363495    21.908812    9276.0553    2130.1497    1444.9305    1841.4875   -549.74886    359.10039     483.6376   -3788.5722 
 9749000    186.42701   -4391.7194   -4072.1899   -4391.7194            0    1858.6811    18.001677    23.332141    22.078249    9273.2549    3113.6782    1428.1464    1034.2185   -392.21431    243.44537    449.53149   -3820.8201 
 9750000    205.48084   -4376.0092   -4023.8221   -4376.0092            0    2516.4792    17.953273    23.446328    21.921373    9227.5461     1912.755    2311.1264    3325.5563   -725.15488    561.53972    601.52258   -3685.1687 
Loop time of 372.633 on 64 procs for 250000 steps with 864 atoms

Performance: 115.932 ns/day, 0.207 hours/ns, 670.902 timesteps/s
196.3% CPU use with 32 MPI tasks x 2 OpenMP threads

MPI task timing breakdown:
Section |  min time  |  avg time  |  max time  |%varavg| %total
---------------------------------------------------------------
Pair    | 16.724     | 25.165     | 32.951     | 100.0 |  6.75
Bond    | 0.77207    | 1.057      | 1.3121     |  13.8 |  0.28
Kspace  | 190.46     | 200.9      | 209.43     |  37.5 | 53.91
Neigh   | 1.0755     | 1.1365     | 1.2987     |   5.3 |  0.30
Comm    | 54.353     | 60.162     | 65.225     |  29.1 | 16.15
Output  | 0.59009    | 0.59047    | 0.59271    |   0.1 |  0.16
Modify  | 65.837     | 69.117     | 73.604     |  23.6 | 18.55
Other   |            | 14.5       |            |       |  3.89

Nlocal:        27.0000 ave          39 max          18 min
Histogram: 5 8 1 1 4 4 0 3 4 2
Nghost:        2126.25 ave        2219 max        2027 min
Histogram: 9 7 0 0 0 0 0 0 3 13
Neighs:        6590.66 ave        9408 max        4319 min
Histogram: 4 7 2 1 3 6 0 3 4 2

Total # of neighbors = 210901
Ave neighs/atom = 244.09838
Ave special neighs/atom = 2.0000000
Neighbor list builds = 4131
Dangerous builds = 0

unfix		3
unfix		2
unfix		1

write_data	data.final.${pid} nocoeff
write_data	data.final.1 nocoeff
System init for write_data ...
PPPM initialization ...
  extracting TIP4P info from pair style
  using 12-bit tables for long-range coulomb (../kspace.cpp:340)
  G vector (1/distance) = 0.3718506
  grid = 24 27 25
  stencil order = 5
  estimated absolute RMS force accuracy = 0.0031415539
  estimated relative force accuracy = 9.4606964e-06
  using double precision FFTW3
  3d grid and FFT values/proc = 4410 672
Last active /omp style is kspace_style pppm/tip4p/omp

write_restart   restart.lmp.${pid}
write_restart   restart.lmp.1
System init for write_restart ...
PPPM initialization ...
  extracting TIP4P info from pair style
  using 12-bit tables for long-range coulomb (../kspace.cpp:340)
  G vector (1/distance) = 0.3718506
  grid = 24 27 25
  stencil order = 5
  estimated absolute RMS force accuracy = 0.0031415539
  estimated relative force accuracy = 9.4606964e-06
  using double precision FFTW3
  3d grid and FFT values/proc = 4410 672
Last active /omp style is kspace_style pppm/tip4p/omp
Total wall time: 0:06:12
