#include		in.partitions
include		in.temp
variable        temperature equal 167.60
variable	tempDamp equal 100.0
include		in.pressure
variable        pressure equal 2077.4
variable        pressureDamp equal 1000.0 # This is 1 ps
include		in.seed
variable        seed equal 745823

units		real
atom_style	full
box tilt large
read_restart	restart.lmp.${pid}
read_restart	restart.lmp.0
Reading restart file ...
  restart file = 30 Jul 2021, LAMMPS = 30 Jul 2021
  restoring atom style full from restart
  triclinic box = (-10.681465 -9.1902707 -0.058343363) to (12.661465 12.180269 21.918342) with tilt (-9.1757504 1.8482641 2.8220381)
  4 by 2 by 4 MPI processor grid
  restoring pair style lj/cut/tip4p/long/omp from restart
  restoring bond style harmonic/omp from restart
  restoring angle style harmonic/omp from restart
  1296 atoms
  864 bonds
  432 angles
Finding 1-2 1-3 1-4 neighbors ...
  special bond factors lj:    0        0        0       
  special bond factors coul:  0        0        0       
     2 = max # of 1-2 neighbors
     1 = max # of 1-3 neighbors
     1 = max # of 1-4 neighbors
     2 = max # of special neighbors
  special bonds CPU = 0.008 seconds
  read_restart CPU = 0.013 seconds
include 	in.setup
variable	out_freq equal 1000
variable	out_freq2 equal 10000
variable	out_freq3 equal 1000

timestep	2.0

neigh_modify    delay 7 every 1

include		in.tip4p
# This is TIP4P/Ice

# create groups ###
group ox type 2
432 atoms in group ox
group hy type 1
864 atoms in group hy

# set charges - beside manually ###
set group ox charge -1.1794
Setting atom values ...
  432 settings made for charge
set group hy charge 0.5897
Setting atom values ...
  864 settings made for charge

# ### TIP3P Potential Parameters ###
pair_style lj/cut/tip4p/long/omp 2 1 1 1 0.1577 8.5
pair_coeff 1 1*2 0.000 0.000
pair_coeff 2 2 0.21084 3.1668
bond_style  harmonic
bond_coeff  1 450 0.9572
angle_style harmonic
angle_coeff 1 55 104.52
kspace_style pppm/tip4p/omp 1.0e-5
pair_modify tail yes

thermo          ${out_freq}
thermo          1000
thermo_style    custom step temp pe etotal epair emol press lx ly lz vol pxx pyy pzz pxy pxz pyz enthalpy

restart 	${out_freq3} restart.lmp.${pid} restart2.lmp.${pid}
restart 	1000 restart.lmp.${pid} restart2.lmp.${pid}
restart 	1000 restart.lmp.0 restart2.lmp.${pid}
restart 	1000 restart.lmp.0 restart2.lmp.0


include         in.dump
dump            myDump all atom ${out_freq2} dump.water.${pid}
dump            myDump all atom 10000 dump.water.${pid}
dump            myDump all atom 10000 dump.water.0
dump            myDump2 all dcd ${out_freq2} dump.dcd
dump            myDump2 all dcd 10000 dump.dcd
dump_modify     myDump append yes
dump_modify     myDump2 append yes


variable natoms 	equal  "count(all)"                        # NUMBER ATOMS
variable H      	equal  "enthalpy/v_natoms"                 # ENTHALPY-per-atom
variable Vol      	equal  "vol/v_natoms"                 # volume-per-atom
fix AVG all 		ave/time ${out_freq} 1 ${out_freq} v_Vol v_H file vol_enthalpy.dat
fix AVG all 		ave/time 1000 1 ${out_freq} v_Vol v_H file vol_enthalpy.dat
fix AVG all 		ave/time 1000 1 1000 v_Vol v_H file vol_enthalpy.dat


timer           timeout 10:00:00 every 1000
New timer settings: style=normal  mode=nosync  timeout=10:00:00

fix 		1 all shake 1e-6 200 0 b 1 a 1
       0 = # of size 2 clusters
       0 = # of size 3 clusters
       0 = # of size 4 clusters
     432 = # of frozen angles
  find clusters CPU = 0.000 seconds
fix             2 all nph tri ${pressure} ${pressure} ${pressureDamp}
fix             2 all nph tri 2077.4 ${pressure} ${pressureDamp}
fix             2 all nph tri 2077.4 2077.4 ${pressureDamp}
fix             2 all nph tri 2077.4 2077.4 1000
fix             3 all temp/csvr ${temperature} ${temperature} ${tempDamp} ${seed}
fix             3 all temp/csvr 167.6 ${temperature} ${tempDamp} ${seed}
fix             3 all temp/csvr 167.6 167.6 ${tempDamp} ${seed}
fix             3 all temp/csvr 167.6 167.6 100 ${seed}
fix             3 all temp/csvr 167.6 167.6 100 745823


run             250000
PPPM initialization ...
  extracting TIP4P info from pair style
  using 12-bit tables for long-range coulomb (../kspace.cpp:340)
  G vector (1/distance) = 0.36708829
  grid = 30 40 32
  stencil order = 5
  estimated absolute RMS force accuracy = 0.0045535045
  estimated relative force accuracy = 1.3712743e-05
  using double precision FFTW3
  3d grid and FFT values/proc = 7888 1280
Last active /omp style is kspace_style pppm/tip4p/omp
Neighbor list info ...
  update every 1 steps, delay 7 steps, check yes
  max neighbors/atom: 2000, page size: 100000
  master list distance cutoff = 10.8154
  ghost atom cutoff = 10.8154
  binsize = 5.4077, bins = 7 5 5
  1 neighbor lists, perpetual/occasional/extra = 1 0 0
  (1) pair lj/cut/tip4p/long/omp, perpetual
      attributes: half, newton on, omp
      pair build: half/bin/newton/tri/omp
      stencil: half/bin/3d/tri
      bin: standard
Per MPI rank memory allocation (min/avg/max) = 10.65 | 10.66 | 10.67 Mbytes
Step Temp PotEng TotEng E_pair E_mol Press Lx Ly Lz Volume Pxx Pyy Pzz Pxy Pxz Pyz Enthalpy 
14500000    175.05366   -6539.0434   -6088.7286   -6539.0434            0    1487.4002    23.342929    21.370539    21.976686    10963.091     1414.563    1980.8906    1066.7471     297.3593    228.61953    841.11106   -5850.9149 
14501000    167.60884   -6567.9482   -6136.7846   -6567.9482            0    2599.7869    23.269765    21.446731    21.804244    10881.634    2253.1029     2757.094    2789.1637   -1280.6458    -65.23851    107.02011    -5724.205 
14502000    170.17029   -6567.9845   -6130.2318   -6567.9845            0    1341.4875    23.225686    21.597421    21.761605    10915.945    1489.2034    748.40778    1786.8513   -60.141394   -270.95363    813.14796   -5916.6699 
14503000    167.91646   -6568.7072   -6136.7523   -6568.7072            0    945.94351    23.301756    21.616579    21.708391    10934.609    1509.7497   -518.58463    1846.6655    278.00459   -399.79767   -1303.1818   -5985.9027 
14504000     158.9852   -6567.9007    -6158.921   -6567.9007            0      1531.15    23.462354    21.412562    21.724604    10914.204    559.04531    2030.3391    2004.0656   -304.78319      156.154   -694.23163    -5915.204 
14505000     167.2772   -6563.6085   -6133.2981   -6563.6085            0    2669.0893    23.495555    21.410006    21.638697     10885.13    2146.2205    2861.6246    2999.4227   -407.76549    486.34502   -1160.2564   -5709.5843 
14506000    172.57859   -6561.1218   -6117.1739   -6561.1218            0    2838.0671    23.188415    21.559469    21.771447    10884.198    3801.9958    1227.4667    3484.7386   -518.42981   -232.49218    922.08792   -5666.6737 
14507000    167.53273   -6573.4299   -6142.4622   -6573.4299            0    2244.0588    23.256043    21.593283     21.72545    10909.963    2620.3249    2126.5567    1985.2948   -247.84473     117.0103   -410.84673   -5785.4086 
14508000    169.47569   -6564.1922   -6128.2263   -6564.1922            0    2257.4726    23.392594    21.305483    21.874832    10902.209    1906.1993    3375.5649    1490.6536    746.91899   -181.89857    507.37635   -5769.2938 
14509000     179.7723   -6564.3263    -6101.873   -6564.3263            0    1882.3732    23.376179    21.316364     21.95975    10942.437    3178.6679    2325.4478    143.00383   -644.40581   -452.43115    -290.3547   -5801.4759 
14510000    168.30635   -6557.3364   -6124.3786   -6557.3364            0    1136.1439    23.271237    21.496064    21.884831    10947.668    2071.6704    458.19886     878.5623    248.28248   -461.87014    741.22111   -5942.9813 
14511000    170.37063   -6573.0353   -6134.7672   -6573.0353            0    2733.9488    23.284593    21.489769    21.744434    10880.491    2593.0058    2529.5321    3079.3085    297.08038   -257.27588     69.42532   -5700.9421 
14512000    174.87695   -6552.3287   -6102.4684   -6552.3287            0    2064.1199    23.414343    21.415362    21.812966    10937.602    1878.1312    2271.4262    2042.8023     70.11673   -1461.7459    884.18716    -5773.213 
14513000    170.27998   -6557.5248   -6119.4899   -6557.5248            0     2002.596    23.386199    21.520309    21.719897    10931.151    1049.5738    2589.8426    2368.3717    241.05647    11.809106   -512.93373   -5800.2368 
14514000    162.94818   -6573.2908   -6154.1166   -6573.2908            0    3380.7328    23.326925    21.412953    21.694298    10836.266    3472.0099    4130.8827    2539.3057    600.09026   -271.33178    344.18103   -5619.8396 
14515000    169.04833   -6562.2562   -6127.3896   -6562.2562            0    1295.1859      23.5382    21.500408    21.634383    10948.748   -129.02104    1164.3851    2850.1936   -520.08879    299.03769   -877.34618   -5920.5792 
14516000    165.65806   -6561.1975   -6135.0522   -6561.1975            0    2760.7823    23.352497    21.493979    21.604279     10844.01    2558.0444    2461.0801    3263.2225    409.85289    627.65591    268.80794   -5698.4379 
14517000    163.55077   -6551.8986   -6131.1743   -6551.8986            0    2870.9063    23.356287    21.526957    21.651547    10886.177    3292.6224    2071.7761    3248.3204   -524.99115   -431.35749   -663.09178   -5675.3785 
14518000    165.08349   -6583.5024   -6158.8352   -6583.5024            0    1684.1473    23.446895     21.44113    21.732089    10925.328    1508.8397    1428.8994    2114.7028    553.44797    778.62978    230.18873   -5890.4921 
14519000    166.56408   -6564.0762   -6135.6002   -6564.0762            0    2553.4288    23.431617     21.40996    21.676481     10874.44    1188.1232    2840.4756    3631.6877    92.850128   -625.04539    285.00814   -5730.6454 
14520000    171.58338   -6585.9122   -6144.5244   -6585.9122            0    1737.2899    23.322638    21.474676    21.790621    10913.747    1796.9822    1902.4451    1512.4425   -469.41196   -160.66852   -227.63706   -5868.0072 
14521000    165.91549   -6587.8803   -6161.0728   -6587.8803            0    1824.9977     23.27529    21.493216     21.81376     10912.57     2103.526    1110.2907    2261.1763   -526.32357     587.4849    438.03566   -5870.6269 
14522000    164.75233    -6550.808   -6126.9926    -6550.808            0    2155.0501    23.295146    21.439858    21.865923    10920.818     3589.468    1476.2729    1399.4095   -1152.0482   -428.40248    462.72772   -5783.7601 
14523000    163.58895   -6570.0509   -6149.2283   -6570.0509            0    2164.5201    23.325354    21.400303    21.869031    10916.356    3542.9892    1450.1028    1500.4682     562.4772   -1261.8029   -38.675159   -5804.6284 
14524000    175.56062   -6538.3664   -6086.7474   -6538.3664            0     1799.879    23.242663    21.546434    21.879712    10957.283    3534.5873    241.30163    1623.7481   -16.970357    702.18518   -8.5721062   -5799.1254 
14525000    170.89041   -6547.6238   -6108.0186   -6547.6238            0     2300.594     23.19251    21.514581    21.857848    10906.566    3197.7523    2292.0095    1412.0204    56.398155   -53.890286   -340.44934   -5742.0836 
14526000    173.71715   -6554.7255   -6107.8488   -6554.7255            0    1264.6782    23.453721    21.413109    21.835012    10965.916     567.1088    2087.2756    1139.6502   -297.31794    92.990235   -1026.1488    -5905.593 
14527000    170.78505   -6557.6973   -6118.3631   -6557.6973            0    1904.1469    23.407085    21.395131    21.781786    10908.267    1735.4352    2051.0045    1926.0011    673.24105    734.87781    297.09656   -5815.4402 
14528000    152.74229   -6545.3359   -6152.4157   -6545.3359            0    2270.7455    23.345632    21.562512    21.645251    10896.013    2253.3659    1224.7232    3334.1475   -1007.0174   -94.177619    493.32451   -5791.5779 
14529000    169.93093    -6581.992    -6144.855    -6581.992            0    1639.6941     23.27511    21.496681    21.742701    10878.691    868.87572    2024.5033    2025.7034    1515.8326    936.87738    306.15053   -5884.7101 
14530000    173.86608   -6552.2025   -6104.9426   -6552.2025            0    1672.4002    23.400389    21.583821    21.654808     10937.19     1252.289    1343.5245    2421.3872   -830.83649    491.28044   -695.54477   -5838.1819 
14531000    175.62809   -6566.9656   -6115.1731   -6566.9656            0    1620.0738    23.394423    21.435579     21.79096    10927.579    1541.0745    1790.9995    1528.1476   -12.488872   -139.02229    494.37223   -5856.9859 
14532000    173.93228    -6566.461   -6119.0308    -6566.461            0    2138.2285    23.359699    21.518495    21.719653    10917.721    1280.5212     1950.669    3183.4953    470.40044    2.6368487   -909.24153    -5778.574 
14533000    165.65746   -6561.9343   -6135.7906   -6561.9343            0    1765.3824    23.213176    21.430305    21.950438    10919.584    2580.4977    2375.2941     340.3554   -473.40327    859.30213    331.58982   -5854.6518 
14534000    169.76741   -6580.8736   -6144.1573   -6580.8736            0    1707.2902    23.394268    21.413449    21.822876    10932.213    1748.1298    1593.4046    1780.3364    80.559289   -435.33679   -920.20645   -5871.9553 
14535000    169.26479   -6586.7828   -6151.3594   -6586.7828            0     1036.876    23.349752    21.437052    21.867174     10945.61     1126.664    1107.0504    876.91371   -369.69243    481.91034    1299.4605   -5985.8424 
14536000    167.01327   -6578.6938   -6149.0623   -6578.6938            0    2300.9739    23.343887    21.537324    21.681684    10900.788    1344.4705    2536.8175    3021.6338    56.678677   -249.84935   -853.20969   -5783.2608 
14537000    169.03905   -6557.8248   -6122.9822   -6557.8248            0    3313.0595    23.261146    21.409221    21.749802    10831.467    3093.0683    4229.8074    2616.3029   -25.283454     817.1129    629.76679    -5599.632 
14538000    166.69856   -6563.0544   -6134.2325   -6563.0544            0    1257.0093    23.427758    21.512317    21.751349    10962.361    2027.4392    461.49834    1282.0904   -75.442756   -195.56969   -663.73087   -5933.2684 
14539000    172.85927   -6577.7621   -6133.0921   -6577.7621            0    2883.5429    23.379267    21.445918    21.653188    10856.688    2229.9251    3203.1828    3217.5207    489.01802    15.699753    259.63027   -5676.5302 
14540000    166.46445   -6571.5939   -6143.3743   -6571.5939            0    2548.8444    23.369924    21.548283    21.609475    10882.137    3135.8278    1681.3275    2829.3778    764.12056   -349.95844   -1087.9645   -5738.8604 
14541000    167.23659   -6572.3236   -6142.1177   -6572.3236            0    2620.7491    23.344593    21.470563    21.667465      10860.2    2094.8482    3114.3939    2653.0052    316.25221    774.93915    1199.5564   -5727.0306 
14542000    164.82468   -6561.5305    -6137.529   -6561.5305            0    2130.1262    23.456828    21.418117    21.719015    10911.657     3085.769    1959.3221    1345.2874   -1700.5085   -457.17088   -1299.2432   -5798.5507 
14543000    175.76867   -6576.4583   -6124.3042   -6576.4583            0    717.96219    23.434018    21.454609    21.761225    10940.841    65.327287    608.04833     1480.511     862.1705    678.53368    602.06318   -6009.7454 
14544000    170.78532   -6566.4037   -6127.0688   -6566.4037            0    2994.9362    23.264197    21.554643    21.670903    10866.906    3090.4557    3631.2103    2263.1426    51.248593   -697.86262   -643.30429   -5652.4233 
14545000    156.44532   -6578.7574   -6176.3114   -6578.7574            0     2193.005    23.343089    21.412562    21.776263    10884.546     2791.711    1861.9607    1925.3432   -424.15859       1.0652   -429.74015   -5828.1939 
14546000    172.22619   -6573.5064    -6130.465   -6573.5064            0    1558.9753    23.479807    21.424078    21.735387    10933.622    1162.9733    2064.4646    1449.4881   -365.79062    801.51218     536.4136   -5881.8776 
14547000    164.84354   -6569.6471   -6145.5972   -6569.6471            0    2655.5591    23.317604    21.398372    21.732017    10843.381    2892.9068    3020.7494     2053.021   -208.09325    96.426106   -713.06223   -5725.6482 
14548000    169.11058   -6556.3237    -6121.297   -6556.3237            0    1538.2696    23.321488    21.571547    21.748932    10941.465    1366.9842     1609.085    1638.7396   -485.17058    583.64452   -370.44151   -5875.8353 
14549000    173.20969    -6561.302   -6115.7306    -6561.302            0    3075.4687    23.287038    21.438257    21.745066    10855.866    2759.3872    3474.2958    2992.7231    721.05432    344.68385   -4.4299572   -5628.8173 
14550000    167.20442   -6562.4816   -6132.3584   -6562.4816            0    1233.1942    23.505088    21.359312    21.821278    10955.428    1584.0206    1110.8792    1004.6828   -951.53237    151.48315    -667.6126   -5935.3264 
14551000    173.81047   -6566.4851   -6119.3683   -6566.4851            0    2070.6321    23.358291    21.426374    21.815258    10918.176    2407.1218    2842.2099    962.56451    693.27616   -377.46264     -700.694   -5789.6607 
14552000    167.89616   -6581.2822   -6149.3795   -6581.2822            0    1820.8769     23.16271    21.659971     21.75151    10912.812    2504.0395    1406.5677    1552.0237    148.54664   -842.28861   -207.12172    -5859.583 
14553000    164.53692   -6571.0674   -6147.8062   -6571.0674            0    2288.2149    23.260015    21.468622    21.839296    10905.681    2515.5959    2021.9159    2327.1328   -316.57198    135.66056    211.66908   -5783.8698 
14554000    164.84838   -6540.6604    -6116.598   -6540.6604            0    1403.0805    23.658214    21.312484    21.718261     10950.68    1315.0011    2113.0019    781.23838   -348.17163    416.14923    -944.4205   -5892.5199 
14555000     170.3016   -6567.4154   -6129.3249   -6567.4154            0    1990.1586    23.380256     21.37984    21.816947    10905.553    2135.0829    2052.6558    1782.7372   -425.19787    78.220417     417.4837   -5812.7975 
14556000     166.3284   -6536.8487   -6108.9791   -6536.8487            0    1937.6793    23.223007    21.504193    21.904571    10938.968    2772.9372    869.22571     2170.875   -809.05824     346.0326    702.45205   -5799.8541 
14557000    167.03086    -6557.735   -6128.0582    -6557.735            0    2829.2881    23.214716    21.481698    21.861614    10902.201    2944.3062    2803.2741    2740.2841    34.887026   -1247.0362    360.43428   -5678.2087 
14558000    170.04875   -6573.6098   -6136.1698   -6573.6098            0    2198.9479    23.367569     21.40749    21.808206    10909.359    1895.9546    2667.8684    2033.0209    89.996569    495.74127   -806.58733   -5786.3132 
14559000     166.2057    -6555.668    -6128.114    -6555.668            0    2424.5742    23.368622    21.391348      21.7633    10879.176    3158.7276    2434.9635    1680.0315   -248.30296    27.175936   -888.33047   -5743.4271 
14560000    163.96339   -6580.3153   -6158.5294   -6580.3153            0    1194.5022    23.312009    21.731802    21.589408    10937.452    826.20611    488.35409    2268.9463    564.33094    149.15139    840.00199   -5967.9926 
14561000     166.3245     -6561.35   -6133.4904     -6561.35            0    2312.2305    23.363314    21.552367    21.649418    10901.233    1477.4524     2356.215    3103.0241    1019.4041   -683.58993   -203.13011   -5765.8843 
14562000    169.11304   -6558.8811   -6123.8481   -6558.8811            0    2538.1783    23.401816    21.359313    21.786477    10889.899    2656.0356    3423.1361    1535.3632   -1009.1465   -355.00677   -610.68701   -5720.7397 
14563000    175.24605   -6555.8101   -6105.0004   -6555.8101            0    2886.6647    23.250809     21.42526    21.874164    10896.716    3884.9368    2646.2773    2128.7801   -399.88646   -395.66521   -749.93427    -5646.259 
14564000    163.03262   -6560.5909   -6141.1994   -6560.5909            0    2775.3436    23.076909    21.548847    21.875428     10878.23    3078.6589    2767.6454    2479.7265    890.01198     -791.922   -418.08461   -5700.8972 
14565000    156.88567    -6573.263   -6169.6842    -6573.263            0    943.54654    23.314472    21.427169    21.938755    10959.793    1286.5344    1254.7611    289.34413    -462.7982   -684.03327   -159.84891   -6018.8702 
14566000    166.48284    -6533.965   -6105.6981    -6533.965            0    2741.5642    23.347798     21.32222    21.875898     10890.41    2485.4813    4127.3324    1611.8789   -287.47647     385.2686   -995.07835   -5670.2679 
14567000    166.40803   -6588.0114   -6159.9369   -6588.0114            0    824.62417    23.346328    21.593653    21.701896    10940.632    127.02145    1031.2066    1315.6445   -252.40434   -848.35129   -523.80394   -6028.3616 
14568000    162.77464   -6570.9961   -6152.2683   -6570.9961            0    2881.5778    23.294388    21.557678    21.636023    10865.025     2864.479    2311.7227    3468.5318   -330.77134    317.70586    343.92263   -5695.6672 
14569000    159.71619   -6582.7756   -6171.9154   -6582.7756            0    1725.3695    23.434211    21.425768    21.712896    10901.958    1668.9901    1069.2507    2437.8678   -132.39849    1489.3773    121.94475   -5897.5922 
14570000    166.44944   -6568.0784   -6139.8974   -6568.0784            0     3032.041    23.485245    21.394265    21.609674    10857.772    1915.4221    3299.6652    3881.0356   -955.57182    -366.9287    870.69094   -5659.7753 
14571000    173.90382   -6576.2174   -6128.8604   -6576.2174            0    1780.8292    23.390957    21.475872    21.754661    10928.262    1388.2013    2029.7361    1924.5501    836.52262   -402.98237   -177.19212   -5845.0363 
14572000    174.57433    -6546.365   -6097.2832    -6546.365            0    2524.0678    23.198749    21.538415    21.779246    10882.311    4065.3114    880.50059    2626.3915   -727.87833   -316.27507    344.60374   -5696.6951 
14573000    166.84554   -6585.7909   -6156.5909   -6585.7909            0    2272.0067     23.29971    21.442677    21.831761    10907.326    2539.0069    2700.9958    1576.0175   -379.50601   -595.00809   -778.55374   -5795.1779 
14574000    166.39229   -6563.2042   -6135.1701   -6563.2042            0    1894.6449    23.373074    21.341206    21.910381    10929.108     1962.621    2191.6023    1529.7113    606.62813    721.55059   -367.32084    -5833.183 
14575000    164.77676   -6556.1524   -6132.2742   -6556.1524            0    2948.2011    23.239088    21.452331     21.81076    10873.375    3526.4852    1943.3052    3374.8128   -572.48495    180.95153    1223.1266   -5664.7573 
14576000    163.06662   -6560.0542   -6140.5752   -6560.0542            0    1894.8563    23.329816    21.514335    21.756018      10919.9    2287.7126     902.0762    2494.7801   -129.86261   -351.87117    185.91025   -5838.8089 
14577000    165.50582   -6579.3448   -6153.5911   -6579.3448            0    2258.9626    23.379721    21.339636    21.807997    10880.331    3055.6676     2048.209    1673.0111    128.79048   -547.10493    177.88124   -5795.1424 
14578000    171.40537   -6548.3191   -6107.3893   -6548.3191            0    2355.9808    23.524364    21.364257    21.711115    10911.584    1275.0282    3109.5892    2683.3249   -405.13279   -656.37863    708.53258    -5732.472 
14579000    166.45357   -6583.5906   -6155.3989   -6583.5906            0    2015.9514    23.255482      21.4874    21.820558    10903.729    1761.7552    3081.9512    1204.1478     470.1695    362.19693    -782.8053   -5834.8229 
14580000     169.5241   -6543.9111   -6107.8206   -6543.9111            0    1706.7454    23.228814    21.570111     21.86716    10956.499    2246.6475     2374.923    498.66572    234.48506   -302.77716    -875.6423    -5835.101 
14581000    164.42569   -6572.3808   -6149.4058   -6572.3808            0    1290.4578    23.434714    21.352865    21.920551    10969.006    634.82378    2514.3215     722.2282   -886.41614   -365.49317     307.4276    -5942.969 
14582000     166.2342   -6568.9899   -6141.3626   -6568.9899            0     2313.245    23.439892    21.374478    21.784037    10914.139    1200.1809    2864.0784    2875.4758    -6.308108    793.40326   -113.31306   -5773.1598 
14583000    167.32018   -6570.2501   -6139.8291   -6570.2501            0    1571.2006    23.324501    21.579832     21.72803    10936.561     1457.798    823.38027    2432.4236   -763.30194    384.06288    291.80755    -5889.225 
14584000    174.57254   -6547.9632    -6098.886   -6547.9632            0    2680.9742    23.358052    21.537246    21.648521     10890.68    1618.4812    3446.4531    2977.9881   -54.459346    97.828362   -195.16488   -5673.0685 
14585000    167.51966   -6573.2304   -6142.2963   -6573.2304            0    2102.6603    23.519452    21.400648    21.637424    10890.798    1877.1371    1327.8828    3102.9609   -320.40754    676.20709   -120.61074   -5808.3284 
14586000    168.03224   -6574.8288   -6142.5761   -6574.8288            0    1431.3381    23.486289    21.449928     21.66766    10915.716    268.58126    1248.0942    2777.3387   -343.74874   -649.47209    1043.0979   -5914.7149 
14587000    164.43215   -6580.7091   -6157.7174   -6580.7091            0    2223.9775     23.36869    21.505715    21.662653    10886.791    2950.3584    1650.3859    2071.1883   -1072.3234    124.27494   -1184.9426   -5804.6105 
14588000    172.68728   -6573.1791   -6128.9516   -6573.1791            0    2169.4695    23.328823    21.481418     21.73938     10894.39    1529.1271    2486.4723    2492.8092    566.02183    944.22116    501.33973   -5784.2586 
14589000    162.71964   -6587.9635   -6169.3771   -6587.9635            0    2247.8093    23.385441      21.4399    21.708944    10884.463    1906.8209     1359.746    3476.8608   -746.80163    688.30223    846.37823   -5812.5627 
14590000    166.33355   -6577.3769    -6149.494   -6577.3769            0    1862.6226    23.355484    21.381243    21.847036    10909.738    1017.7689    2467.6078    2102.4913   -96.032535    724.54861   -450.87262   -5853.1371 
14591000    163.90144   -6579.0759   -6157.4494   -6579.0759            0    2250.4716    23.282154    21.404457    21.815445    10871.549     1734.576    2946.5223    2070.3165   -385.15983    396.56973     866.8774   -5800.6363 
14592000    172.80839    -6578.245   -6133.7059    -6578.245            0    863.84738    23.345752    21.516292     21.82777    10964.395    511.70325    1042.1032    1037.7357   -341.57887    795.31121   -682.60696   -5995.5728 
14593000    163.96303   -6558.2984   -6136.5135   -6558.2984            0    2466.4142    23.177943    21.444781    21.881745    10876.232    3287.0422    2327.0372    1785.1633    6.1639912   -1168.9561    636.75338   -5745.2942 
14594000    165.66033   -6553.3091    -6127.158   -6553.3091            0    2421.5971    23.292341    21.458697    21.793291    10892.794     2893.232    2479.9317    1891.6275    317.43123   -1323.7385   -771.26068   -5742.4625 
14595000    161.60896   -6583.6235   -6167.8943   -6583.6235            0    1459.7235    23.416306    21.369961    21.770534    10894.096    808.86668    2332.6483    1237.6555      242.929    722.49547    1152.3969   -5935.9746 
14596000    170.25679   -6548.1523   -6110.1771   -6548.1523            0    2323.1898    23.405433    21.508273    21.728633    10938.421    2033.6497    2611.9002    2324.0195   -1381.6321   -272.08375   -339.07776   -5739.5687 
14597000      165.873   -6566.4732   -6139.7751   -6566.4732            0    2241.0109     23.27963    21.483912    21.770947    10888.467    1963.5365    2513.2766    2246.2196    706.98457    339.61907     481.3636    -5783.909 
14598000    165.01352   -6583.9597   -6159.4724   -6583.9597            0    2901.5225    23.341691     21.51046    21.678162    10884.399    2798.9199    3468.7614    2436.8862   -279.97586   -300.68899   -1111.5437   -5698.8911 
14599000    171.64746   -6572.4922   -6130.9395   -6572.4922            0     868.8033    23.388996    21.333152    21.937269    10945.842    708.84892    1963.7769   -66.215955   -411.48535    581.37617    767.19264   -5992.2491 
14600000    167.76374   -6584.1988   -6152.6368   -6584.1988            0    2047.2068    23.362742    21.474439    21.770003    10922.049    2356.0701    2142.3696    1643.1806     253.6923   -137.91124   -659.36223   -5826.5436 
14601000    161.98789   -6574.3987   -6157.6947   -6574.3987            0    2707.8804    23.206026     21.43252    21.828651    10856.777    3586.4934    2583.0789    1954.0689    81.078487    325.98338    879.75854   -5728.9426 
14602000     173.6769   -6584.7819   -6138.0087   -6584.7819            0    2350.9579    23.361417    21.444107    21.739137    10890.541    1950.4158    1646.6719     3455.786    20.240577   -291.53642   -292.05292   -5764.6122 
14603000    173.03389   -6562.4198   -6117.3007   -6562.4198            0    1498.0683    23.379527    21.376447    21.857929    10923.964    1263.5898    1816.2469    1414.3681    -1395.239    1433.9131    620.78295   -5878.6362 
14604000    168.07923   -6561.6289   -6129.2553   -6561.6289            0    3174.9352    23.326242    21.493711     21.65482    10857.023    2615.1955    2702.7676    4206.8426     341.1997   -338.79647   -19.679075   -5626.5407 
14605000    168.36928   -6560.7124   -6127.5927   -6560.7124            0    1630.6549    23.480226     21.52229    21.648814     10940.19    1187.0831    1414.9637    2289.9178    182.80066    592.55036   -290.29448   -5867.4194 
14606000    164.72213   -6576.1014   -6152.3637   -6576.1014            0      2156.43    23.461849    21.404335    21.698964    10896.901    178.92948    2790.9784    3499.3821   -126.55439    1320.6677    1018.8068   -5809.6636 
14607000    166.46515   -6577.0164   -6148.7949   -6577.0164            0    1938.8807    23.426857    21.399524    21.764931    10911.273    1717.0479     2691.185    1408.4093   -534.48753    356.48905   -762.97188   -5840.2613 
14608000    160.73418   -6557.9323   -6144.4534   -6557.9323            0    2190.4134    23.309846     21.48574    21.771739    10903.925    1718.6348    1384.7961    3467.8091    1040.1314   -315.26592    495.59419   -5796.1282 
14609000    160.21434    -6559.014   -6146.8724    -6559.014            0     1495.151    23.285882    21.702453      21.6688    10950.561    3317.3755    67.802393    1100.2753   -455.61528   -491.88924   -958.60358   -5908.0927 
14610000     172.3261    -6587.672   -6144.3736    -6587.672            0    2473.0682    23.297122    21.424558    21.790447    10876.278    1596.8877    2808.5488     3013.768    -566.0616    858.42659    617.75906   -5752.0971 
14611000     165.9333   -6561.0716   -6134.2183   -6561.0716            0    1790.6194     23.45517    21.378314    21.802766    10932.604    839.95545    3578.9901     952.9125   -419.52983    777.88268   -1323.2327   -5848.7205 
14612000    169.38482   -6570.9937   -6135.2616   -6570.9937            0    1813.6685    23.388449    21.474746    21.693678    10895.888    1164.1335    1794.8452    2482.0267    940.01856    663.80004   -647.70086     -5847.06 
14613000    163.76784   -6547.9818    -6126.699   -6547.9818            0    1820.1983    23.290016    21.589684    21.728618    10925.672    2268.0611    528.79234    2663.7414   -45.098312   -433.96006      1007.89   -5836.6691 
14614000    170.42717   -6565.5746   -6127.1611   -6565.5746            0    2495.9584    23.313604    21.388115    21.836639    10888.491    2141.2401     3734.089    1612.5461    1428.6297    820.06715    544.16749   -5730.8092 
14615000    173.34105    -6575.304   -6129.3947    -6575.304            0    2240.3428    23.392985    21.404684    21.764881      10898.1    1320.1183    3197.1448    2203.7652    45.924496    19.844302   -813.14163     -5773.32 
14616000    164.04252    -6588.428   -6166.4386    -6588.428            0    1375.4434    23.426735    21.430505     21.76989    10929.503    1422.1358    1576.0444      1128.15   0.68375457    283.40026    651.63261    -5947.199 
14617000     159.4556   -6592.4649   -6182.2751   -6592.4649            0     1925.457    23.363294    21.444194    21.741972     10892.88    1902.5338    2126.0955    1747.7416    189.06782    175.15033   -273.94712   -5876.3942 
14618000    162.56664   -6575.1901   -6156.9973   -6575.1901            0    2230.1085    23.297567    21.490929    21.735638    10882.738    2507.6852     1648.234    2534.4065    -308.9313    125.77155    890.96674   -5803.0489 
14619000    167.41528   -6572.5522   -6141.8866   -6572.5522            0    1932.2251    23.383616    21.439836     21.73218     10895.23    2566.9594    2129.1563    1100.5595   -295.88765    254.66796   -505.42271   -5834.8642 
14620000    167.56821   -6574.4018   -6143.3428   -6574.4018            0     2312.517    23.376366    21.337206    21.817313    10882.177    1975.3328    2894.2013    2068.0168     -1002.07   -430.46768   -699.65401   -5776.3338 
14621000    166.63975   -6570.5245   -6141.8539   -6570.5245            0    1168.0033    23.328364    21.435511    21.875549    10938.987    908.04385    1681.7455    914.22048   -206.18196    965.47249    1.7175173   -5955.5178 
14622000    172.84497   -6551.9029   -6107.2698   -6551.9029            0    2656.0126    23.211659    21.468545    21.859557    10893.066    3188.1447    3161.0927    1618.8003    1101.9104   -448.17267   -956.48725   -5685.3245 
14623000    169.73334   -6582.3703   -6145.7416   -6582.3703            0    1216.9965    23.344514    21.494187    21.795633    10936.424    882.04403    2085.5357    683.40994    961.70715   -146.91669   -989.81152   -5951.6349 
14624000    166.12777   -6559.8951   -6132.5415   -6559.8951            0    2649.4009    23.373368    21.344409    21.754259    10852.998    2193.6577    3197.9606    2556.5843    751.64684    65.519543   -399.87872   -5713.1948 
14625000    168.77214   -6553.5586   -6119.4025   -6553.5586            0    2113.5559    23.444145    21.358481    21.786359    10909.112    1823.3906    2546.3886    1970.8884   -1127.1346     1401.719   -393.44951   -5783.1395 
14626000     171.1272   -6581.5482   -6141.3339   -6581.5482            0    1836.8588    23.328668    21.487291    21.758357    10906.809    1677.8429    1895.8584    1936.8751   -603.92346    537.71246    93.316248   -5849.1547 
14627000    163.55688   -6562.1476   -6141.4075   -6562.1476            0    2338.2546    23.293132    21.557677    21.662683    10877.826    2554.4123    1823.0502    2637.3014    964.59648   -515.78559    154.64812   -5770.4622 
14628000    166.31198   -6568.0366   -6140.2092   -6568.0366            0    2540.3858    23.317284    21.507974    21.710411    10887.935    3299.7678    2626.0461    1695.3435   -1232.4901    -251.8654   -158.16965   -5736.8229 
14629000     175.8034   -6564.0752   -6111.8317   -6564.0752            0    2216.7589    23.410665     21.34343    21.820664    10902.998    1694.9311    2814.7954      2140.55   -479.55326    827.49389   -734.15324    -5759.347 
14630000    163.66423   -6593.0045   -6171.9882   -6593.0045            0    1958.0293    23.296432    21.498875    21.755609    10896.233    2297.6834    1646.7545    1929.6499   -373.80654   -449.96866    -143.3362    -5860.837 
14631000    159.41027   -6577.6316   -6167.5584   -6577.6316            0    2467.8729    23.241376    21.480794     21.81632     10891.65    3150.5625    2174.2004    2078.8557    253.48648    431.70598   -285.56966   -5775.5528 
14632000    172.86143    -6558.232   -6113.5565    -6558.232            0    2407.5511    23.326942    21.374093     21.88171     10910.05    2816.4926    2969.3296    1436.8312    -794.8945    810.39894   -170.06036   -5730.4865 
14633000    167.79935   -6562.5128   -6130.8592   -6562.5128            0    366.49653    23.444898    21.399023    21.903768    10989.074   -131.74946    1114.7356    116.50345    840.16275   -117.24134   -429.69134   -6072.1228 
14634000    163.82172   -6581.8013   -6160.3799   -6581.8013            0    1223.3675    23.258477    21.566951     21.74737    10908.795    1843.6925    873.80903    952.60089    346.25272   -578.64567    260.03593     -5965.75 
14635000    170.63466    -6602.136   -6163.1887    -6602.136            0    1970.9372     23.31121    21.507281    21.728738    10893.936    1209.3388    2774.4021    1929.0706    157.58794    801.12426   -611.93345   -5850.0524 
14636000    168.54969    -6552.156   -6118.5722    -6552.156            0    3084.3822    23.356251    21.309501    21.812497    10856.299    2300.7883    3872.2926    3080.0656    1109.4419    91.307138    487.93283   -5630.2282 
14637000    168.99699   -6581.1403   -6146.4058   -6581.1403            0    1033.9651    23.488527    21.426407    21.756469    10949.481    296.87948    1961.7673    843.24861    563.72266   -892.37768    263.73748   -5981.2951 
14638000    160.11772   -6570.1119   -6158.2188   -6570.1119            0    2220.7972    23.259247    21.509078    21.766458    10889.432    3165.2198    1794.4375    1702.7344   -152.19291    775.78525    494.94882   -5805.5313 
14639000    168.48003   -6584.0802   -6150.6756   -6584.0802            0     2458.432    23.183881    21.583598    21.752246     10884.64    2484.3078     2748.125    2142.8633   -916.17079    910.21139   -296.64209   -5760.4208 
14640000    163.23101   -6557.7199   -6137.8181   -6557.7199            0    3255.9121    23.399267    21.345864    21.739314      10858.3    3634.4696    3871.4171    2261.8495     557.7536   -333.86086   -237.75324   -5622.2211 
14641000    169.68632   -6585.4184   -6148.9107   -6585.4184            0    1633.5554    23.422172    21.406316    21.782748    10921.487    1641.5581    1675.1168    1583.9913     631.1813   -1261.6738    491.62556   -5888.7201 
14642000    165.06587   -6560.8317   -6136.2098   -6560.8317            0    1364.8245    23.316099    21.513759     21.80355     10937.03    1944.4398     702.3902    1447.6434   -40.176994   -368.28839   -144.08498   -5918.5129 
14643000    165.18906   -6553.2575   -6128.3187   -6553.2575            0    3171.0963    23.234524    21.491405    21.762914    10867.149      3115.44    4106.2449    2291.6039     665.0971   -677.46152   -208.05529   -5625.7436 
14644000    166.85402   -6572.6655   -6143.4437   -6572.6655            0     861.7302    23.226591    21.560442    21.905107    10969.542    927.46286     1068.266    589.46174    665.59344     336.3128    1153.1603   -6005.5845 
14645000    174.91029   -6562.3273   -6112.3813   -6562.3273            0    2448.5347    23.332771    21.351916    21.858714    10889.998    2631.0464    2939.1641    1775.3937     433.5107    19.622473    348.64308   -5723.5063 
14646000    166.82668   -6576.2982   -6147.1467   -6576.2982            0    523.36807    23.439843    21.396325    21.899284    10983.071    409.12004    1924.5719   -763.58772   -153.95637    119.16709   -637.72475   -6063.3153 
14647000    170.81722   -6599.7422   -6160.3253   -6599.7422            0    2066.1552    23.253881    21.465031    21.831087    10896.884    2372.6947    1366.2329    2459.5381     735.3612   -957.77823    443.98646   -5831.9722 
14648000    162.38441   -6575.3968   -6157.6728   -6575.3968            0    2652.6575    23.225837     21.59589    21.657571    10863.061    2527.4545    2614.4374    2816.0805   -464.94762    188.82294    141.32038   -5737.4213 
14649000    172.65456   -6559.6284    -6115.485   -6559.6284            0     1731.585    23.383246    21.555973    21.671683    10923.582    624.08172    2035.5536    2535.1198   -233.94523    706.01743    281.86666   -5839.6275 
14650000    167.92828   -6583.7654   -6151.7802   -6583.7654            0    1923.5468    23.437064    21.427031    21.682639    10888.733    1212.4628    2519.1547    2039.0229    165.16335    705.35498    247.74724    -5846.319 
14651000    168.34061   -6552.3964   -6119.3504   -6552.3964            0    1953.2655     23.45628    21.401612    21.786323    10936.782     1442.028    2210.0933    2207.6753   -403.14677   -146.24396   -624.47469   -5807.8011 
14652000    161.02593   -6569.8141   -6155.5847   -6569.8141            0    1515.5578    23.399498    21.354174     21.86598    10925.926    537.98471    3056.9312    951.75742   -893.38608    377.72953   -342.03089   -5914.0905 
14653000    168.90883   -6549.6435   -6115.1358   -6549.6435            0    1351.9689    23.226071    21.570805    21.927636    10985.856    2110.7383    709.75306    1235.4153   -854.48236    869.21916    -337.8237   -5898.5268 
14654000    171.12206   -6581.7696   -6141.5685   -6581.7696            0    2464.2925    23.136848    21.514345    21.871799    10887.216    3413.4234    2256.8331    1722.6212   -1188.6164    774.35747   -263.63858   -5750.2909 
14655000    163.23486   -6573.1334   -6153.2217   -6573.1334            0    2139.7508    23.322716    21.472653    21.789295    10912.091    1619.3601    2917.8028    1882.0895    502.91139    40.311699   -710.08192   -5812.6982 
14656000    164.46095   -6597.3773   -6174.3116   -6597.3773            0    977.61318    23.482325    21.474284    21.664594    10924.721    810.39938    675.48989    1446.9503   -374.80167   -19.504653    882.44429   -6018.5525 
14657000    164.12784   -6570.1798   -6147.9709   -6570.1798            0    2235.0906    23.482843    21.423439    21.609072    10871.163    1716.2989    2418.4094    2570.5635     -16.6326    453.81285    216.07243    -5793.609 
14658000    161.93111   -6566.5705   -6150.0126   -6566.5705            0    1988.5188    23.435925    21.418966    21.741122    10913.462    2281.7309    1551.7102    2132.1152    267.15248   -72.721825   -18.428178   -5833.5166 
14659000    172.95847   -6583.7259   -6138.8008   -6583.7259            0    1575.8293    23.288559    21.600218    21.762381    10947.304    2290.0443     374.7692    2062.6744   -541.76471   -1411.1172    294.07846   -5887.2114 
14660000    169.64017   -6575.4924   -6139.1034   -6575.4924            0    3975.0361    23.121576    21.471898    21.797402    10821.628    5329.2469    3087.4194     3508.442    380.47085    342.15803    276.95471   -5511.7539 
14661000    161.27461   -6582.5996   -6167.7305   -6582.5996            0    1334.3963    23.340972     21.50281    21.792116    10937.387    1952.8963     542.2481    1508.0446   -954.63883   -442.57808   -246.33735   -5954.8801 
14662000    166.98748   -6563.6273   -6134.0622   -6563.6273            0    1909.9947    23.284653    21.470535    21.858211    10927.662    2807.4951    2283.6599    638.82906   -954.14245   -48.537421   -334.69385   -5829.6687 
14663000    169.08395   -6576.6248   -6141.6667   -6576.6248            0    621.01995    23.294711     21.40468    21.995096    10967.103    1256.0486    515.97992    91.031335    611.28132   -183.35655    361.43174   -6042.3383 
14664000    162.82527    -6570.669   -6151.8109    -6570.669            0    2587.4113    23.269242    21.431501    21.835285    10889.143    3510.8991    2417.7318    1833.6032    132.05293   -912.47514   -619.72978   -5740.9119 
14665000    165.03527   -6565.0264   -6140.4832   -6565.0264            0    1670.2246    23.304131    21.466071    21.863126    10936.988     1417.931    2271.8412    1320.9017    245.70788     839.8302    -76.28524   -5874.0744 
14666000    170.92338   -6556.8892   -6117.1992   -6556.8892            0    2636.5264    23.359174     21.51081    21.679775     10893.54    3106.4447    3190.2074    1612.9272   -557.83291   -396.71955   -181.10044   -5698.3313 
14667000    164.77809   -6571.0579   -6147.1763   -6571.0579            0    1617.7803     23.40513    21.527943    21.668155     10917.81    877.76221    1384.8908    2590.6879    1052.9391    142.24841    682.85167   -5889.5851 
14668000    173.45912   -6562.2765   -6116.0635   -6562.2765            0    2433.4385    23.363329    21.459824    21.713814    10886.719    1298.0037    2707.0724    3295.2393    175.28514    6.4351656    184.75992   -5729.7025 
14669000    173.51745   -6544.1861    -6097.823   -6544.1861            0    2285.4365    23.379798    21.538329    21.630046    10892.064    1391.9729    3244.8299    2219.5066    496.84725    367.97958   -372.43188   -5734.7824 
14670000    169.71622   -6576.0901   -6139.5054   -6576.0901            0    2771.4349    23.440555    21.472183    21.559159    10851.153     1878.349    2358.4286     4077.527    633.01763   -208.78432   -162.83369   -5700.9177 
14671000    165.84205   -6566.9877   -6140.3691   -6566.9877            0    1768.1525    23.364294    21.425034    21.784273    10904.789    2333.0339    1893.4501    1077.9735    163.70435   -1439.3464   -144.53808   -5859.1707 
14672000    173.48582   -6577.2525   -6130.9707   -6577.2525            0    2541.1163    23.256979    21.454866    21.819097    10887.192    3472.0289    2366.4649    1784.8552    451.24275    227.42004    34.665695   -5727.4961 
14673000      161.093   -6560.4513   -6146.0494   -6560.4513            0    3152.2891    23.267127    21.435249    21.809156    10877.025    2236.0248    3275.0073    3945.8352   -278.88972    201.11185   -162.09545   -5646.0009 
14674000    164.94115   -6580.2499   -6155.9489   -6580.2499            0    1764.9967    23.309972    21.387826     21.90679    10921.622     1897.343    2816.5053     581.1418   -387.40018   -1116.3593   -921.05421   -5874.8191 
14675000    169.30298   -6568.5604   -6133.0388   -6568.5604            0    1850.4241    23.287024    21.408942    21.881384    10908.976    1538.6066    2505.3718    1507.2938   -234.19401    618.37052    289.75665   -5838.6433 
14676000    159.90478   -6565.9476   -6154.6023   -6565.9476            0    2456.4074    23.268053    21.474557    21.823233     10904.44    2463.1917    2400.3571    2505.6734   -683.37355   -783.70392    324.48427   -5763.9597 
14677000    171.33167   -6549.3181   -6108.5778   -6549.3181            0    2082.0828    23.418874    21.352256    21.817863     10909.93    1902.0671     3043.693    1300.4881    1280.0534   -637.52064   -684.42077   -5777.2973 
14678000     167.5731   -6560.6019   -6129.5303   -6560.6019            0    1500.6372    23.391823    21.494056    21.787181    10954.271     1905.954    1136.5294    1459.4281    -457.0633   -83.004066   -376.71251   -5889.7933 
14679000    164.58348   -6557.4671   -6134.0861   -6557.4671            0     2121.159    23.231532    21.491174    21.837496     10902.87    1568.5322    2975.6058    1819.3391    552.80868   -9.0859048   -230.43663   -5796.8066 
14680000    167.06404   -6560.9167   -6131.1546   -6560.9167            0    2323.2305    23.301902    21.502538    21.758174    10901.934    2295.2712    2286.7716    2387.6486   -325.19338    443.71989   -198.90318   -5761.7761 
14681000    168.97901   -6579.3496   -6144.6614   -6579.3496            0    2893.9957    23.456223    21.381335     21.66091    10863.496    2199.8971    2505.5937    3976.4963    995.52238   -1427.1364    33.983575   -5686.1571 
14682000    168.09548   -6557.6245   -6125.2091   -6557.6245            0    1179.5458    23.501105    21.376184    21.761219    10932.052    486.15471     2120.811    931.67161   -74.348771    688.04743     487.8394   -5937.1509 
14683000    162.40727   -6576.5321   -6158.7493   -6576.5321            0    1183.5635    23.345567    21.539067    21.708208    10915.793      592.379    1104.8235     1853.488   -371.95912    389.26903   -371.04707   -5970.3311 
14684000    162.13549   -6571.4701   -6154.3864   -6571.4701            0    2447.9176    23.307118    21.438151    21.781688    10883.471      3222.81    2663.5127      1457.43    707.17202   -717.79239    230.68275   -5765.8425 
14685000    173.99103   -6570.7513     -6123.17   -6570.7513            0    1531.3663     23.31625    21.491391    21.849411     10948.71    2680.7447    1483.0024    430.35191   -30.037252   -282.30334   -55.368208    -5878.648 
14686000     164.4929   -6547.0239   -6123.8759   -6547.0239            0    2889.0851    23.376615    21.445306    21.735961    10896.643    2677.3972    2667.6751    3322.1831   -638.91338    87.523371    0.3551831    -5664.753 
14687000    163.89273   -6580.6924   -6159.0883   -6580.6924            0    2359.3853    23.400595    21.479182    21.668928    10891.358    1485.4866    2192.4586    3400.2107     -11.7829    179.80753    522.68188   -5784.3252 
14688000    169.63844   -6558.4897   -6122.1051   -6558.4897            0    1319.0743    23.388295    21.539246    21.690569    10926.976    1465.3001    1380.0101    1111.9126   -517.50933    190.76606    183.98714   -5911.8991 
14689000     157.8859   -6572.3776   -6166.2257   -6572.3776            0    2204.1964    23.309117    21.429708    21.767331    10872.947      1823.95    2628.2052     2160.434   -890.51502    823.78125    32.350708   -5816.7046 
14690000    172.72242   -6544.7356   -6100.4177   -6544.7356            0    1534.7557    23.340921     21.46406    21.857365    10950.342    1280.9721    1074.9244    2248.3706    186.73922    248.33744    574.56303    -5855.318 
14691000    172.51071   -6558.0565   -6114.2832   -6558.0565            0     2850.684    23.383408     21.37661    21.757525    10875.673    3341.2277    3373.1745      1837.65    78.137519   -848.30896    36.430511   -5662.1347 
14692000    168.25335   -6566.6527   -6133.8312   -6566.6527            0    1481.9814    23.417792    21.436964    21.761545    10924.434    1383.1085     1925.422    1137.4138    26.772779    536.75222   -652.45224   -5897.7194 
14693000    165.29198   -6568.2177   -6143.0142   -6568.2177            0    1340.0776    23.261119    21.554644    21.780231    10920.283    611.81926    1753.8874    1654.5261    953.26625   -245.54498    102.36807   -5929.5919 
14694000    170.82387   -6577.2003   -6137.7663   -6577.2003            0    1494.1834    23.360076    21.481731    21.797469    10938.294    923.81503    2559.7067    999.02844    1046.9178     179.6064   -359.78659   -5899.4085 
14695000    167.78447   -6551.8537   -6120.2384   -6551.8537            0    3469.6931    23.374346    21.324568    21.768354    10850.389    4460.6432    3272.4395    2675.9968    94.905504    -779.8334   -121.57999   -5571.1879 
14696000    168.60398   -6578.5768   -6144.8534   -6578.5768            0    1129.5593      23.4091    21.396081    21.847574    10942.642    937.14125    768.60142    1682.9351   -442.79237   -107.04131    908.10231   -5964.5902 
14697000    167.64156   -6571.2849   -6140.0372   -6571.2849            0    1586.6608    23.313335    21.489923    21.862053    10952.927    2088.4669    2161.1547    510.36096    39.937879   -225.03216    174.60133   -5886.5884 
14698000    171.32033   -6563.4742   -6122.7631   -6563.4742            0    3280.0172    23.172294    21.554848    21.735078    10856.134    3968.3131    3447.4692    2424.2694    1425.1729   -631.15293   -222.07011   -5603.4525 
14699000    164.61391   -6548.1221   -6124.6628   -6548.1221            0    1150.7494    23.347188    21.524377    21.860879    10985.828    1948.5448    1637.5425    -133.8391   -857.29815     668.4747   -516.78617   -5940.2932 
14700000     169.9991   -6586.0314   -6148.7191   -6586.0314            0    2427.5819    23.367893     21.34005    21.847513    10894.743    2262.6847    2575.5965    2444.4645    237.59857    182.33767    -262.6494   -5763.0039 
14701000    168.61817   -6570.0486   -6136.2886   -6570.0486            0    1940.3295    23.354174    21.399277    21.891507    10940.553    1699.1622     2269.918    1851.9082    698.60532   -132.51409   -317.16677    -5826.696 
14702000     169.6653   -6577.3223   -6140.8687   -6577.3223            0    2175.8132    23.111522    21.561675    21.898201     10912.38    2719.9377    1629.7929    2177.7089    1635.4907   -521.49422    -491.4098    -5794.597 
14703000    160.74792    -6592.124   -6178.6098    -6592.124            0    1700.8868    23.191497    21.539641    21.870205    10924.966    3112.5212    437.44159    1552.6977    59.430937   -320.30665      669.028   -5907.6085 
14704000    169.30637    -6581.418   -6145.8877    -6581.418            0    2583.2658    23.353001    21.391325    21.742419    10861.461    2398.9129     2178.166    3172.7185   -273.89453    509.19612    227.86748     -5736.69 
14705000    154.52021   -6547.7092   -6150.2154   -6547.7092            0    2505.0766    23.565896    21.372388    21.635791    10897.071    1355.3988     2041.775     4118.056    117.27794    164.70276    943.42103   -5752.1021 
14706000    163.81703   -6578.8094      -6157.4   -6578.8094            0    3578.8461     23.34334    21.426104    21.578818    10792.794    2806.4655    3577.7746    4352.2982    490.21319    415.61921   -666.69956   -5594.0831 
14707000    165.03063   -6586.5576   -6162.0263   -6586.5576            0    1217.7052    23.219595    21.608869    21.800803    10938.535    1442.7382    910.05487    1300.3224    319.78047    -101.5145   -5.6953376   -5967.7691 
14708000     174.0878   -6585.8215   -6137.9913   -6585.8215            0    2046.0877    23.231633    21.493588    21.803594    10887.214    3005.3102    2520.9742    611.97868     -279.349   -431.45937   -909.56743   -5813.1158 
14709000     167.8949   -6555.1009   -6123.2015   -6555.1009            0    2462.4277    23.416438    21.264215    21.866394    10887.981    2924.0086    3321.6512    1141.6233    1096.8333   -79.008589   -258.78661   -5732.1925 
14710000    169.47639    -6578.628   -6142.6603    -6578.628            0    2131.6261    23.421837    21.418982     21.73678    10904.732    1844.3491    2232.2807    2318.2485   -563.93089   -32.371871    752.34992   -5803.6586 
14711000    165.08091   -6550.0057   -6125.3452   -6550.0057            0    2572.0926     23.35097    21.463897    21.711304    10881.767    1903.2191    2813.0944    2999.9643    493.62733    632.03472   -135.53403   -5717.1556 
14712000    165.02078   -6573.6734   -6149.1675   -6573.6734            0    1621.0631    23.314211    21.623298     21.62152     10900.06     2252.849    779.22189    1831.1183   -676.92982   -500.68859   -202.19587   -5891.4733 
14713000    168.48503   -6574.9136   -6141.4961   -6574.9136            0    1878.5889    23.449579    21.429296    21.654159    10881.387    1839.6557    1017.4973    2778.6138    293.79463   -547.17625    410.01306   -5843.3756 
14714000    167.62085   -6569.9888   -6138.7943   -6569.9888            0    2201.0763    23.409427    21.407096    21.730299    10889.658    3152.5242    2472.9172    977.78738   -434.45994    48.754953   -1092.2246   -5789.2315 
14715000    158.61347   -6576.6403   -6168.6168   -6576.6403            0    1604.9979    23.357975    21.474738    21.767559    10918.747    490.28993    3083.4841    1241.2195   -359.11981    743.44355    95.240215    -5913.039 
14716000    166.45637   -6571.3936   -6143.1948   -6571.3936            0    1894.3329    23.251333    21.546907    21.800481    10921.917    2531.6375    1440.9213    1710.4399    1828.5609   -1275.4885    113.11028    -5841.456 
14717000    167.18391    -6572.758   -6142.6875    -6572.758            0    2391.0821    23.289291    21.422095    21.807187    10879.723    2892.8213    1577.1745    2703.2506   -302.97082    -296.5271    732.15994   -5763.2955 
14718000      168.025   -6554.8465   -6122.6124   -6554.8465            0    1563.2674    23.316648    21.456729    21.880261    10946.673    1756.2751     2422.582    510.94499   -235.84844    212.11622   -447.17268    -5873.043 
14719000    163.99096   -6568.0399   -6146.1831   -6568.0399            0    1479.7879    23.315858    21.426427    21.867703    10924.569    2591.9057    1157.2023    690.25584    1202.7096    -175.6786   -591.77276   -5910.4179 
14720000    159.30408   -6575.5518   -6165.7518   -6575.5518            0    2955.9633     23.32404    21.484207    21.726116    10886.924    2571.1106    3992.7471    2304.0323     85.47528   -1349.1087   -560.62091   -5696.4198 
14721000    161.93712   -6564.6514    -6148.078   -6564.6514            0     1979.009    23.357657    21.363465    21.876825    10916.546    2418.2748    1433.0919    2085.6602   -338.43306    1173.0879    255.66483   -5833.0067 
14722000    168.49758   -6588.4788   -6155.0291   -6588.4788            0    2158.5036    23.332323    21.395794    21.838363    10902.007    2635.9803    2265.5434    1573.9872   -107.26286   -423.01093   -618.73595   -5811.8387 
14723000    170.74402   -6594.1856    -6154.957   -6594.1856            0    1326.6698    23.359548    21.433775    21.797734    10913.761     1611.306    1255.4651    1113.2383    290.90744   -264.59531    724.67857   -5943.7963 
14724000    177.81676   -6577.3085   -6119.8857   -6577.3085            0    1864.1563    23.232028    21.522901    21.815936    10908.418    2895.1464    1219.2631    1478.0595    91.058922    1167.9743   -124.39069   -5823.3207 
14725000    170.93865   -6590.3741   -6150.6449   -6590.3741            0    1305.8533    23.336121     21.44842    21.769827    10896.297    1925.9083    1098.6337    893.01786   -290.15949    1341.2906    454.64117     -5943.13 
14726000    168.03447   -6574.1373   -6141.8789   -6574.1373            0    2797.4747    23.351682    21.479081     21.66746    10867.806     2866.994    2693.6256    2831.8043   -140.25358    46.160921   -390.67586   -5698.4909 
14727000    171.18106   -6542.1267   -6101.7739   -6542.1267            0    2239.6783    23.420656    21.500035    21.652442    10902.977    2052.0151    1805.7034    2861.3166    173.75589    241.93161    1566.1101   -5745.6455 
14728000    175.51008   -6558.0632   -6106.5742   -6558.0632            0     1918.048    23.537127    21.445412    21.636753     10921.44   -373.82196    3264.3915    2863.5746   -7.4113149    785.75104   -349.23872   -5801.0713 
14729000    172.26637   -6572.9357    -6129.791   -6572.9357            0     3469.746    23.291102    21.454377    21.670704    10828.766     3743.904    2701.3709     3963.963    388.73878    699.18386    548.73519   -5581.8263 
14730000    167.29039   -6544.8538   -6114.5094   -6544.8538            0    1242.4588    23.357345    21.609991     21.72141    10963.926    518.74017    1572.0684    1636.5679    10.214463   -329.53663    324.82015   -5915.8432 
14731000    176.64441   -6575.3812   -6120.9742   -6575.3812            0    1545.7397    23.262667    21.407967    21.918144    10915.376    2089.9549    1814.7707    732.49345   -579.79704    1122.0356   -1165.4264   -5874.9086 
14732000    166.56877   -6563.2571   -6134.7691   -6563.2571            0    1612.6066    23.347219    21.376618    21.914065    10936.972    1131.9139     2378.921    1326.9848   -573.12825    927.29661   -483.53268   -5877.5511 
14733000    165.38721   -6578.2003   -6152.7517   -6578.2003            0    1658.7608    23.230514    21.480139      21.8738     10914.91    2024.5295    2143.1715    808.58144   -277.02514    132.98052   -569.29639   -5888.7056 
14734000    166.72524   -6569.9909   -6141.1004   -6569.9909            0     1200.165    23.282079    21.614367    21.770467    10955.495    1369.5154    919.56198    1311.4175   -250.14499    348.22446   -907.45244   -5949.3445 
14735000    166.95977   -6571.7609    -6142.267   -6571.7609            0    2419.6463    23.309163    21.394416    21.849895    10896.235    2355.0035    3309.2941    1594.6412   -1028.2279    1262.2836   -313.82138   -5757.7601 
14736000    167.33181   -6575.3953   -6144.9444   -6575.3953            0     1601.044    23.446273    21.401096    21.738314    10907.763    1053.6422    2620.1208     1129.369    212.31518    864.74916   -226.03043   -5890.2527 
14737000    160.78515   -6564.5621   -6150.9521   -6564.5621            0    2819.6427    23.387124    21.494924    21.638089    10877.564    2763.2918    2722.7603    2972.8759   -64.957426   -105.27978   -16.860124   -5703.6493 
14738000    168.90911   -6553.2389   -6118.7306   -6553.2389            0    744.86554    23.470511    21.508438    21.740894    10975.108    803.61599   -526.53522    1957.5158   -625.90399   -750.46389    943.34063   -5999.5069 
14739000    163.06619   -6565.8818   -6146.4039   -6565.8818            0    2178.5202    23.290022    21.490767    21.774812    10898.738    2071.1272    1873.4398    2590.9935   -931.72752   -362.66285    241.21404   -5800.1349 
14740000    174.42064   -6575.5203   -6126.8338   -6575.5203            0    1998.2419    23.250751    21.463499    21.860928    10909.532    2637.8171    2429.3777    927.53098   -963.75654   -503.02719     394.6288   -5808.9049 
14741000    164.67263   -6568.4574   -6144.8471   -6568.4574            0    1307.5483    23.385522    21.491265    21.774808     10943.68    1464.7961    432.11373     2025.735    -135.1831   -1183.3706   -623.11769   -5936.1593 
14742000    165.12084   -6571.7837   -6147.0205   -6571.7837            0    2322.8062    23.264949    21.508956     21.75332    10885.465     3550.906    2087.5015    1330.0112   -876.21219   -353.44322   -461.91146   -5778.2672 
14743000     172.0222   -6573.5962   -6131.0796   -6573.5962            0    2420.6645    23.369069    21.450177    21.743184    10899.221    2180.5014    3236.9047    1844.5873   -317.21598   -143.60193   -786.21144   -5746.3054 
14744000    166.53797   -6562.8189   -6134.4101   -6562.8189            0    2535.1351    23.394023    21.361419    21.763038    10875.633    2224.2082    1527.5959    3853.6012    1108.2796    1379.5861    1044.6066   -5732.3124 
14745000    172.77447   -6548.0018     -6103.55   -6548.0018            0    2768.7136    23.278517    21.549196    21.715027    10892.982    4002.8273    2557.5194    1745.7942   -1421.9385   -1041.2608    78.570964   -5663.7039 
14746000    166.54982   -6578.7621   -6150.3228   -6578.7621            0    1682.7449    23.260369    21.544654    21.798785    10924.169    2053.6271    1021.5733    1973.0342   -703.57317     1681.991   -288.88717   -5882.2316 
14747000    163.92744   -6561.3296   -6139.6363   -6561.3296            0    3084.7617    23.342378    21.384037    21.768572    10865.876    3230.0299     2538.435    3485.8203   -252.37218    -77.97855    866.87139   -5650.8013 
14748000     167.2536   -6562.3916    -6132.142   -6562.3916            0    992.57742    23.429797    21.509344    21.715616    10943.792    693.54268    550.64813    1733.5415    25.425093   -932.67976   -337.73932   -5973.7227 
14749000    160.10596   -6561.9656   -6150.1028   -6561.9656            0    2672.3282    23.280522    21.489854    21.731747    10872.285    2203.9265    2986.0503    2827.0077    948.89369    1406.1505    45.761808   -5726.3755 
14750000    172.75421   -6547.8815   -6103.4818   -6547.8815            0    1051.0458    23.309877    21.566421    21.814098    10966.179    1083.9767    751.67004    1317.4906    38.929389   -211.74149    212.74493   -5935.3876 
Loop time of 572.003 on 64 procs for 250000 steps with 1296 atoms

Performance: 75.524 ns/day, 0.318 hours/ns, 437.061 timesteps/s
196.3% CPU use with 32 MPI tasks x 2 OpenMP threads

MPI task timing breakdown:
Section |  min time  |  avg time  |  max time  |%varavg| %total
---------------------------------------------------------------
Pair    | 36.918     | 48.147     | 59.041     | 106.1 |  8.42
Bond    | 0.6442     | 1.0066     | 1.416      |  17.3 |  0.18
Kspace  | 304.2      | 316.36     | 326.88     |  42.6 | 55.31
Neigh   | 2.2522     | 2.3497     | 2.4274     |   3.3 |  0.41
Comm    | 75.095     | 80.836     | 84.24      |  21.9 | 14.13
Output  | 0.48935    | 0.48974    | 0.49118    |   0.0 |  0.09
Modify  | 106.36     | 108.92     | 111.5      |  11.1 | 19.04
Other   |            | 13.89      |            |       |  2.43

Nlocal:        40.5000 ave          49 max          31 min
Histogram: 4 2 5 4 1 0 2 3 7 4
Nghost:        3039.84 ave        3074 max        3001 min
Histogram: 1 1 1 6 6 3 10 1 1 2
Neighs:        12725.8 ave       15420 max        9741 min
Histogram: 5 1 4 4 2 0 2 3 7 4

Total # of neighbors = 407226
Ave neighs/atom = 314.21759
Ave special neighs/atom = 2.0000000
Neighbor list builds = 4881
Dangerous builds = 0

unfix		3
unfix		2
unfix		1

write_data	data.final.${pid}
write_data	data.final.0
System init for write_data ...
PPPM initialization ...
  extracting TIP4P info from pair style
  using 12-bit tables for long-range coulomb (../kspace.cpp:340)
  G vector (1/distance) = 0.36750715
  grid = 30 40 32
  stencil order = 5
  estimated absolute RMS force accuracy = 0.004450923
  estimated relative force accuracy = 1.3403822e-05
  using double precision FFTW3
  3d grid and FFT values/proc = 7888 1280
Last active /omp style is kspace_style pppm/tip4p/omp
WARNING: Not all mixed pair coeffs generated from mixing. Use write_data with 'pair ij' option to store all pair coeffs. (../write_data.cpp:312)

write_restart   restart.lmp.${pid}
write_restart   restart.lmp.0
System init for write_restart ...
PPPM initialization ...
  extracting TIP4P info from pair style
  using 12-bit tables for long-range coulomb (../kspace.cpp:340)
  G vector (1/distance) = 0.36750715
  grid = 30 40 32
  stencil order = 5
  estimated absolute RMS force accuracy = 0.004450923
  estimated relative force accuracy = 1.3403822e-05
  using double precision FFTW3
  3d grid and FFT values/proc = 7888 1280
Last active /omp style is kspace_style pppm/tip4p/omp
Total wall time: 0:09:32
