#include		in.partitions
include		in.temp
variable        temperature equal 118.27
variable	tempDamp equal 100.0
include		in.pressure
variable        pressure equal 8273.4
variable        pressureDamp equal 1000.0 # This is 1 ps
include		in.seed
variable        seed equal 745823

units		real
atom_style	full
read_restart	restart.lmp.${pid}
read_restart	restart.lmp.0
Reading restart file ...
  restart file = 30 Jul 2021, LAMMPS = 30 Jul 2021
  restoring atom style full from restart
  orthogonal box = (0.010997212 0.00076136715 -0.0097676576) to (24.719004 24.729240 22.819768)
  2 by 4 by 2 MPI processor grid
  restoring pair style lj/cut/tip4p/long/omp from restart
  restoring bond style harmonic/omp from restart
  restoring angle style harmonic/omp from restart
  1920 atoms
  1280 bonds
  640 angles
Finding 1-2 1-3 1-4 neighbors ...
  special bond factors lj:    0        0        0       
  special bond factors coul:  0        0        0       
     2 = max # of 1-2 neighbors
     1 = max # of 1-3 neighbors
     1 = max # of 1-4 neighbors
     2 = max # of special neighbors
  special bonds CPU = 0.001 seconds
  read_restart CPU = 0.006 seconds
include 	in.setup
variable	out_freq equal 1000
variable	out_freq2 equal 10000
variable	out_freq3 equal 1000

timestep	2.0

neigh_modify    delay 7 every 1

include		in.tip4p
# This is TIP4P/Ice

# create groups ###
group ox type 2
640 atoms in group ox
group hy type 1
1280 atoms in group hy

# set charges - beside manually ###
set group ox charge -1.1794
Setting atom values ...
  640 settings made for charge
set group hy charge 0.5897
Setting atom values ...
  1280 settings made for charge

# ### TIP3P Potential Parameters ###
pair_style lj/cut/tip4p/long/omp 2 1 1 1 0.1577 8.5
pair_coeff 1 1*2 0.000 0.000
pair_coeff 2 2 0.21084 3.1668
bond_style  harmonic
bond_coeff  1 450 0.9572
angle_style harmonic
angle_coeff 1 55 104.52
kspace_style pppm/tip4p/omp 1.0e-5
pair_modify tail yes

thermo          ${out_freq}
thermo          1000
thermo_style    custom step temp pe etotal epair emol press lx ly lz vol pxx pyy pzz pxy pxz pyz enthalpy

restart 	${out_freq3} restart.lmp.${pid} restart2.lmp.${pid}
restart 	1000 restart.lmp.${pid} restart2.lmp.${pid}
restart 	1000 restart.lmp.0 restart2.lmp.${pid}
restart 	1000 restart.lmp.0 restart2.lmp.0


include         in.dump
dump            myDump all atom ${out_freq2} dump.water.${pid}
dump            myDump all atom 10000 dump.water.${pid}
dump            myDump all atom 10000 dump.water.0
dump            myDump2 all dcd ${out_freq2} dump.dcd
dump            myDump2 all dcd 10000 dump.dcd
dump_modify     myDump append yes
dump_modify     myDump2 append yes


variable natoms 	equal  "count(all)"                        # NUMBER ATOMS
variable H      	equal  "enthalpy/v_natoms"                 # ENTHALPY-per-atom
variable Vol      	equal  "vol/v_natoms"                 # volume-per-atom
fix AVG all 		ave/time ${out_freq} 1 ${out_freq} v_Vol v_H file vol_enthalpy.dat
fix AVG all 		ave/time 1000 1 ${out_freq} v_Vol v_H file vol_enthalpy.dat
fix AVG all 		ave/time 1000 1 1000 v_Vol v_H file vol_enthalpy.dat




fix 		1 all shake 1e-6 200 0 b 1 a 1
       0 = # of size 2 clusters
       0 = # of size 3 clusters
       0 = # of size 4 clusters
     640 = # of frozen angles
  find clusters CPU = 0.000 seconds
fix             2 all nph aniso ${pressure} ${pressure} ${pressureDamp}
fix             2 all nph aniso 8273.4 ${pressure} ${pressureDamp}
fix             2 all nph aniso 8273.4 8273.4 ${pressureDamp}
fix             2 all nph aniso 8273.4 8273.4 1000
fix             3 all temp/csvr ${temperature} ${temperature} ${tempDamp} ${seed}
fix             3 all temp/csvr 118.27 ${temperature} ${tempDamp} ${seed}
fix             3 all temp/csvr 118.27 118.27 ${tempDamp} ${seed}
fix             3 all temp/csvr 118.27 118.27 100 ${seed}
fix             3 all temp/csvr 118.27 118.27 100 745823


run             250000
PPPM initialization ...
  extracting TIP4P info from pair style
  using 12-bit tables for long-range coulomb (../kspace.cpp:340)
  G vector (1/distance) = 0.37512991
  grid = 30 30 30
  stencil order = 5
  estimated absolute RMS force accuracy = 0.0031915615
  estimated relative force accuracy = 9.6112926e-06
  using double precision FFTW3
  3d grid and FFT values/proc = 7920 1800
Last active /omp style is kspace_style pppm/tip4p/omp
Neighbor list info ...
  update every 1 steps, delay 7 steps, check yes
  max neighbors/atom: 2000, page size: 100000
  master list distance cutoff = 10.8154
  ghost atom cutoff = 10.8154
  binsize = 5.4077, bins = 5 5 5
  1 neighbor lists, perpetual/occasional/extra = 1 0 0
  (1) pair lj/cut/tip4p/long/omp, perpetual
      attributes: half, newton on, omp
      pair build: half/bin/newton/omp
      stencil: half/bin/3d
      bin: standard
Per MPI rank memory allocation (min/avg/max) = 12.56 | 12.57 | 12.57 Mbytes
Step Temp PotEng TotEng E_pair E_mol Press Lx Ly Lz Volume Pxx Pyy Pzz Pxy Pxz Pyz Enthalpy 
29250000    122.19661   -9711.8136   -9245.9444   -9711.8136            0    8519.4176    24.708007    24.728478    22.829535     13948.65     8540.703    9072.4184    7945.1314    20.547302    122.36275   -157.98526   -7512.8669 
29251000    119.87067   -9720.6357    -9263.634   -9720.6357            0    7175.8054     24.82189    24.685743    22.839254    13994.679    6578.9891    8322.6747    6625.7525    216.33499   -760.47432   -282.66675   -7799.0662 
29252000    118.14057   -9703.9658   -9253.5601   -9703.9658            0    8531.8697    24.822202    24.688109    22.725213    13926.311    8411.2749    8974.5253    8209.8087    -180.3336   -321.30971   -87.399239   -7520.7291 
29253000    116.15816   -9700.5379     -9257.69   -9700.5379            0    8392.2495    24.731651    24.691333    22.823297    13937.216    7699.2228    9697.9163    7779.6095   -118.11412    21.934504   -541.95583   -7551.8813 
29254000    119.71921   -9726.8994   -9270.4752   -9726.8994            0    8322.6372    24.763487    24.687836    22.785991    13930.373    7774.7807    8829.4774    8363.6534   -599.47387   -711.53599    -651.0844   -7579.6466 
29255000    115.89239   -9692.3887    -9250.554   -9692.3887            0    8058.2415    24.777972    24.693027     22.82892    13967.718    8055.5106    8397.5717    7721.6423   -416.33151    301.12076   -137.89716   -7609.0513 
29256000    122.70241   -9705.8047   -9238.0072   -9705.8047            0    7928.7337    24.772901    24.757013    22.778491    13970.118    7299.3697    8065.7704    8421.0611   -710.71794   -487.60439   -181.63849   -7622.6082 
29257000    115.62285   -9704.3396   -9263.5326   -9704.3396            0    8269.9695    24.722087    24.760165    22.769608      13937.8    8406.5435    8291.2958    8112.0693   -206.22031   -727.49753    559.72118   -7582.5082 
29258000       115.71   -9704.6905   -9263.5512   -9704.6905            0    8830.5837    24.674505    24.722506    22.824118    13923.068    8819.7616    9044.7261    8627.2634   -84.456277   -78.656172    58.836441   -7470.4688 
29259000    120.21033   -9698.6972   -9240.4007   -9698.6972            0    7544.1553    24.795086    24.825557     22.72787    13990.181    7262.8097    7100.9697    8268.6866   -386.16041   -922.41614      1131.62   -7701.1482 
29260000    122.85699   -9712.6861   -9244.2992   -9712.6861            0    8665.8166    24.716601    24.695862    22.841336      13942.3    7983.9979    9642.6906    8370.7613   -534.40228   -452.78994   -394.41732   -7482.2428 
29261000    121.70614   -9726.1884   -9262.1891   -9726.1884            0     7738.741    24.731362    24.789252    22.775581    13963.071    8068.8014    7701.2222    7446.1993   -121.69096     62.66728    295.58765   -7686.2947 
29262000    122.40199   -9705.8892    -9239.237   -9705.8892            0    7316.6689    24.673983    24.809054    22.860574    13993.829    7341.8676    7054.8993    7553.2398   -429.86855    621.43327   -28.550143   -7746.0099 
29263000    116.30424   -9686.7387   -9243.3339   -9686.7387            0    8524.2466    24.692879    24.794545    22.773744    13943.195    8308.4215    8490.8002     8773.518    284.45639    306.22001   -173.30869   -7509.9522 
29264000    113.84735   -9710.0191    -9275.981   -9710.0191            0    8187.7905    24.696415    24.803352    22.784313    13956.619    9262.4806     6906.797     8394.094   -473.45835   -359.16225    131.16429   -7609.4138 
29265000    119.51321   -9713.8686   -9258.2298   -9713.8686            0    7332.3883    24.660256    24.814293    22.860261    13988.806    6771.1056    7764.5416    7461.5178    7.9516055    338.63697    23.892861   -7762.3317 
29266000    117.95671   -9697.0205   -9247.3157   -9697.0205            0    9378.9647    24.704952    24.783851    22.717388    13909.489    9311.3712    8871.9447    9953.5782   -468.40864    170.16157    406.22749   -7344.7399 
29267000    117.41007   -9705.8316   -9258.2109   -9705.8316            0    7250.7928     24.71865    24.766879    22.878621    14006.379    7570.3059    7313.4809    6868.5915   -804.05052   -718.33511    256.49227    -7777.101 
29268000     116.6461   -9715.8396   -9271.1315   -9715.8396            0    8161.8492    24.728267    24.740645    22.780956    13937.236    7962.0293    8641.7846    7881.7337   -67.239322   -88.678343   -338.54504   -7612.1517 
29269000    115.05574   -9702.5386   -9263.8937   -9702.5386            0    7991.5304    24.694358    24.851529    22.754349    13964.175    8212.7633    7088.5041    8673.3238   -162.47667   -133.52764    328.94987   -7636.3932 
29270000    119.17814   -9721.8751   -9267.5137   -9721.8751            0    7737.6384    24.648575    24.828274    22.819524    13965.128    8893.5132    7000.9788    7318.4233   -541.09621     325.3458   -80.718757   -7691.6115 
29271000    115.62655    -9704.251   -9263.4298    -9704.251            0    8464.7246    24.705797    24.792169    22.744572    13931.284    8268.4529    8184.5215    8941.1995   -82.919531    52.150376      617.025   -7543.6222 
29272000    115.98861   -9686.4753   -9244.2738   -9686.4753            0    8302.6919    24.766504    24.722813    22.809677    13966.311     8051.389    8104.6204    8752.0664    298.81827   -180.48439   -298.39703   -7553.1456 
29273000    116.68763   -9720.1237   -9275.2572   -9720.1237            0    8990.8001    24.731541    24.663136    22.809979    13913.114    8786.2988    9304.8515      8881.25   -1207.3173    26.014356    386.04656   -7450.9474 
29274000    120.70632   -9688.4407   -9228.2532   -9688.4407            0    7720.5339    24.723075    24.713833    22.859736    13967.343    7289.8543    8747.7308    7124.0166   -861.59154    212.09642    4.9652639   -7655.5853 
29275000    121.82237   -9718.7598   -9254.3173   -9718.7598            0    7822.7557    24.760787    24.814293    22.747137    13976.328     7725.609     6609.522    9133.1362   -673.80428    -136.1711    449.34377   -7659.8018 
29276000    121.32343   -9699.7631   -9237.2229   -9699.7631            0    8632.1577    24.705027    24.667422    22.875138    13940.323    9376.8874    8692.9267     7826.659    213.07732   -433.78628    742.19198   -7482.2594 
29277000    115.95607    -9695.255   -9253.1776    -9695.255            0    7793.0991    24.743246    24.738328    22.819803     13968.15    6821.1279    9024.7901    7533.3792    455.63748   -558.55454    763.20255   -7665.6364 
29278000    117.05472    -9704.204   -9257.9381    -9704.204            0    9316.8608    24.725315    24.711662    22.741818    13895.333    9286.5599    9318.1094     9345.913    349.61714    -93.88077    273.29709   -7369.8839 
29279000    116.42397   -9704.8588   -9260.9975   -9704.8588            0    9599.9658    24.737165    24.654585    22.780371    13893.396    8937.1578    10808.533    9054.2063   -395.99953    119.34088    591.53157   -7315.8436 
29280000    116.44237   -9686.0686   -9242.1372   -9686.0686            0    8832.9104    24.746208    24.713022    22.795553    13940.702    9379.4605    8704.4645    8414.8062   -239.88403    432.49336    605.69232   -7446.3107 
29281000    118.81877   -9692.2564   -9239.2651   -9692.2564            0    7891.4986    24.774986    24.790095    22.773004    13986.593    7501.2305    8005.3978    8167.8677    94.164348     9.827152    316.44644   -7629.5563 
29282000    123.03273   -9707.5462   -9238.4893   -9707.5462            0    7571.5461    24.780471    24.689505    22.829937    13967.756    7461.4364    8244.5447    7008.6572    -39.39596   -1086.6486    504.76752   -7696.1245 
29283000     121.1434   -9705.8904   -9244.0365   -9705.8904            0    8955.3752    24.721361    24.697746    22.798334    13919.794    8569.8495    9858.2928    8437.9834   -25.902677   -34.806064   -208.70391   -7426.0424 
29284000    113.20228   -9710.4148   -9278.8361   -9710.4148            0    7727.3905    24.796566    24.767953    22.748032    13970.936    6552.9493    7714.5777    8914.6446    795.04527    897.10146    312.55726   -7704.3666 
29285000    114.75206   -9716.2456   -9278.7584   -9716.2456            0    8272.7356    24.713916    24.640675    22.875894    13930.678    8805.7836    8578.1997    7434.2235   -585.88046   -417.09203   -805.00638    -7598.031 
29286000    117.04778   -9703.3024   -9257.0628   -9703.3024            0     8208.567    24.758297    24.752819    22.751781    13943.148    7186.0275    8970.2655    8469.4079   -181.13755   -437.54289   -427.86361   -7587.8794 
29287000    119.72298   -9718.0296    -9261.591   -9718.0296            0     7476.028    24.770154    24.776329    22.784144    13982.937    6610.4307    7730.1476    8087.5058    -73.76758   -387.55454    305.82251   -7737.0286 
29288000    123.45013    -9712.583   -9241.9348    -9712.583            0    8529.6922    24.756688    24.683097    22.822258    13946.037    8491.8041    9021.0938    8076.1787   -74.599112   -309.02671   -254.54314   -7507.0923 
29289000    119.21334   -9720.3618   -9265.8662   -9720.3618            0    8386.7854    24.847487    24.646794    22.754459    13935.079    7613.8359    9325.2838    8221.2367    854.95126   -182.03606   -437.97999   -7561.4296 
29290000    117.50263   -9712.1988   -9264.2252   -9712.1988            0    8180.8554    24.777298    24.721441     22.76539    13944.496    7909.6933    7756.5009     8876.372   -121.24771    23.436925   -288.24353    -7600.516 
29291000    115.24551   -9712.8959   -9273.5274   -9712.8959            0     9679.626    24.735471    24.650065    22.793147    13897.688    9430.2357    10050.825    9557.8172    482.87899    35.958861    -320.6337   -7311.6268 
29292000    122.51267   -9732.8527   -9265.7785   -9732.8527            0    7557.7859    24.789202    24.717816    22.798924    13969.697    7057.6906    8309.1801    7306.4869    238.05337    820.18211    8.9304383   -7726.0028 
29293000    123.32279   -9717.2229   -9247.0602   -9717.2229            0     7670.213    24.840958     24.72582    22.738094    13966.035    6402.3953    8423.9669    8184.2768   -606.77251   -460.32141   -147.39888   -7684.7889 
29294000    117.21588   -9700.5772   -9253.6968   -9700.5772            0    9135.3565    24.732407    24.710062    22.760585    13909.889    8981.9836    8467.1551    9956.9307   -514.28979    110.44284   -707.52812    -7400.485 
29295000    117.23804    -9735.087   -9288.1221    -9735.087            0    7521.2573    24.737914    24.752789    22.836063    13983.261     7319.622     7321.716    7922.4339   -401.09755   -456.15173    143.43743   -7754.3008 
29296000    123.72459   -9710.3225    -9238.628   -9710.3225            0    8658.1259    24.701185    24.800059    22.756565    13940.463    9143.4615     7750.101    9080.8151    697.95944    172.05796    -1123.275   -7478.3672 
29297000    119.90309   -9728.5874   -9271.4622   -9728.5874            0    7102.2019    24.681083    24.787057    22.898284    14008.515    8103.8017    6491.8342    6710.9697   -708.88493   -181.79575    526.22898   -7820.4836 
29298000    115.20977   -9698.6074   -9259.3752   -9698.6074            0    8939.0087    24.718075    24.756165     22.77539    13936.825    9583.5241     8365.024     8868.478   -598.70416   -142.39214   -469.04633   -7442.4833 
29299000    119.71509   -9700.8968   -9244.4882   -9700.8968            0     7989.292     24.73302    24.834103     22.71966    13954.923    8403.1678    7611.5515    7953.1567    -118.7066   -370.45259     414.0714   -7618.5215 
29300000    119.99895     -9693.43   -9235.9393     -9693.43            0    9078.4904    24.704021     24.73923    22.758087    13908.798    9772.0144    8529.6504    8933.8063   -56.534614   -229.59849    482.44175   -7394.4079 
29301000    118.80787   -9714.0345   -9261.0847   -9714.0345            0    6653.1885    24.717706    24.810506     22.86435    14021.763    7283.6523    6347.0056    6328.9075    116.88015     640.7857    489.00921    -7900.554 
29302000    115.40887   -9698.9304   -9258.9392   -9698.9304            0    7793.8123    24.719733    24.839625    22.756205    13972.968    8938.4635    6767.5762     7675.397   -467.05658    885.30116    890.42696   -7670.7052 
29303000    115.07081   -9696.0034    -9257.301   -9696.0034            0    8271.1491    24.624498    24.846975    22.803256    13952.042    8785.1101     7526.934    8501.4033    210.88027   -1180.1017   -954.18285   -7574.3189 
29304000    117.90618   -9697.2548   -9247.7427   -9697.2548            0     8318.077    24.659914    24.807977    22.808584    13953.438    9388.2516    7368.6231    8197.3565    160.67928     284.1595   -1110.3497   -7555.0424 
29305000    121.20178   -9709.0331   -9246.9566   -9709.0331            0    7426.1339     24.72486     24.86488    22.735199    13977.161    7617.9167    6405.7364    8254.7487    343.84032    1341.4677   -84.311941   -7733.1945 
29306000    117.19105   -9695.8077    -9249.022   -9695.8077            0    6888.2881    24.675463    24.811493    22.901843    14021.312    7547.3949    6511.0577    6606.4117   -356.55889   -783.76471    107.09644   -7840.4604 
29307000    118.42398   -9703.3496   -9251.8634   -9703.3496            0    8324.6364    24.688999    24.763422    22.808788     13944.93    8232.4335    8371.8309    8369.6447   -785.38732   -983.32322    752.37241   -7558.8612 
29308000    119.34757   -9714.3919   -9259.3845   -9714.3919            0    8552.5787    24.722733    24.859237    22.647032    13918.601     7816.682    8754.3885    9086.6656    228.67529    106.14603   -218.95782   -7523.3092 
29309000    117.84274   -9711.1351   -9261.8648   -9711.1351            0    7462.8014    24.686206    24.730778    22.890112    13974.621    8229.5128    7375.6079    6783.2834   -37.285316   -67.763565   -346.43195   -7740.9048 
29310000    114.99737   -9717.4108   -9278.9884   -9717.4108            0    7987.0205    24.751243    24.716181    22.798874    13947.352    8077.9668    8710.2991    7172.7957   -596.43315   -333.27919    921.12418   -7654.3659 
29311000    117.46793   -9717.7144   -9269.8731   -9717.7144            0    7864.3724    24.793358    24.758213    22.727509    13951.037    7851.9369    7530.2683    8210.9119    46.261592   -92.356907   -197.52047   -7669.7756 
29312000    117.17189     -9707.84   -9261.1273     -9707.84            0    7662.5573    24.790745    24.717589    22.798563    13970.217    7779.9007    7525.6397    7682.1314    369.13069   -1060.4381   -304.00128    -7699.948 
29313000    121.73964   -9700.3843   -9236.2573   -9700.3843            0    7653.6977    24.841891    24.639776    22.833909    13976.605    7623.3082    8188.8054    7148.9795   -621.40983   -814.74883    148.17729   -7676.1701 
29314000    122.75908   -9719.3455   -9251.3319   -9719.3455            0    8772.6941    24.767457    24.694072    22.755197    13917.291    8312.6089    8854.8861    9150.5872    403.56201   -935.69021    574.50356   -7470.7433 
29315000    115.20477   -9720.7471    -9281.534   -9720.7471            0    7624.7641    24.709159    24.774034    22.799292    13956.485     7736.674    7942.3982    7195.2201   -309.85106   -493.97392     99.81581   -7729.5817 
29316000    122.85243   -9693.2124   -9224.8429   -9693.2124            0    8582.8293    24.725536    24.813056     22.70822    13931.859    8469.7796    8671.7431    8606.9653    188.55799    108.30781    740.26545   -7480.9676 
29317000    115.52113   -9723.2477   -9282.8285   -9723.2477            0    7567.1298    24.725901     24.77131    22.836559    13987.231    6947.7626    8386.4062    7367.2207    18.604407   -700.18257    284.27772    -7739.214 
29318000    114.38917    -9712.379   -9276.2753    -9712.379            0    8022.4445    24.732084    24.752298    22.827458     13974.42     8097.906    8117.2079    7852.2196    232.35062   -1162.0816   -99.122706   -7641.2805 
29319000    115.56895   -9709.2871   -9268.6855   -9709.2871            0    8894.3918    24.675495    24.782099     22.72973     13899.47    8802.1083    9030.4529    8850.6142   -779.29219   -588.09506    394.53873   -7465.7077 
29320000    116.04272   -9710.8523   -9268.4446   -9710.8523            0     8972.355    24.651382    24.819204    22.753285     13921.09    9656.1876    7931.5278    9329.3495   -293.53754   -546.22036    146.86745   -7446.8339 
29321000    117.67076   -9707.0429   -9258.4283   -9707.0429            0     7476.073      24.6022    24.803188    22.903608    13976.079    7930.5222    7688.9666    6808.7301    23.617734   -315.56171   -151.95229   -7734.6045 
29322000    119.86106    -9701.092    -9244.127    -9701.092            0    8057.2203    24.740017    24.830848    22.722545    13958.814     8546.425    6900.7681     8724.468   -311.12752   -1001.9227   -25.380203   -7603.8785 
29323000    113.34579   -9724.2985   -9292.1727   -9724.2985            0    7781.5365    24.691979    24.720744    22.867345    13958.321    8237.0431    8313.3572    6794.2092    104.88422   -604.87555   -314.75295   -7708.1025 
29324000    120.01361   -9704.7039   -9247.1573   -9704.7039            0    7640.3063    24.804064    24.778002    22.752298    13983.452    7502.3688     7493.958    7924.5921    163.79053    894.13509    331.68416   -7689.0368 
29325000    122.23664   -9695.1484   -9229.1266   -9695.1484            0    9446.6363    24.721513    24.771613    22.698179    13900.178    9253.4107    9025.2644    10061.234    340.35294    -610.7286    -213.0144    -7314.106 
29326000    120.61343   -9711.3358   -9251.5023   -9711.3358            0    8264.8792     24.58042    24.655078    23.015927    13948.393    9831.9342    7998.1581    6964.5452   -71.337211   -597.86929    392.80087   -7570.2358 
29327000    116.47438   -9721.2325    -9277.179   -9721.2325            0    8229.7678    24.786886    24.744752    22.735837     13944.92    7905.7585     7450.915    9332.6299   -67.795864   -315.25158   -227.76588   -7603.4717 
29328000    120.04605   -9701.5306   -9243.8603   -9701.5306            0    7501.4547    24.818068    24.764993    22.753164    13984.533    5856.4461    8469.9503    8177.9676    -1164.609   -1274.1053     463.7331   -7713.9381 
29329000    118.69687   -9715.2659   -9262.7392   -9715.2659            0    8398.8947    24.687107    24.746316    22.807383    13933.371    8039.9806    8849.2465     8307.457    635.94629   -537.42618    563.24622   -7556.0509 
29330000    119.62531   -9709.5376   -9253.4714   -9709.5376            0    8789.3464    24.649453     24.75962    22.786314     13906.74    9728.7441    8421.5918    8217.7033   -700.25922    142.63589   -656.81737   -7470.8554 
29331000    122.38041   -9713.4593   -9246.8893   -9713.4593            0    7491.4649    24.793424    24.790199    22.752815    13984.652     7570.856     6835.999    8067.5396    154.32326   -454.91904   -19.050029   -7718.9916 
29332000    115.41269   -9701.8283   -9261.8225   -9701.8283            0    7830.0239    24.726748    24.785128    22.786697    13964.955    8927.3918    7041.7438    7520.9361   -300.46374    -244.0005    522.86291   -7667.1242 
29333000    119.26205   -9737.9583    -9283.277   -9737.9583            0    7972.3804    24.739746    24.660892    22.867064    13951.292    8454.7225     9090.363    6372.0557    281.72753    52.265382   -243.40381   -7661.1744 
29334000    118.21081   -9689.0957   -9238.4222   -9689.0957            0    7798.3556    24.764383    24.780834    22.761985    13968.621    7950.1787     7603.294    7841.5941   -77.219114    54.137738   -82.766829   -7649.7566 
29335000    116.78149   -9709.6084   -9264.3841   -9709.6084            0    7973.4901    24.736002    24.737593    22.809613    13957.411    7911.8504    8092.2316    7916.3883   -226.29668      359.494    4.6045522   -7641.3442 
29336000    119.29086   -9704.8485   -9250.0573   -9704.8485            0    8860.2658    24.705007    24.717938    22.799424    13922.624    8878.3273    8267.0839    9435.3861   -592.08625    287.97805   -83.019637   -7451.0053 
29337000    120.70068   -9712.7544   -9252.5884   -9712.7544            0    9441.4063    24.706866    24.708902    22.756336    13892.277    10044.717     8829.173     9450.329    119.67234     168.1992    562.59838   -7339.7159 
29338000    120.54433   -9693.6477   -9234.0777   -9693.6477            0    8795.0333    24.747231    24.722242    22.790914    13943.641    8445.6643    8851.9511    9087.4845   -47.666079   -116.27547   -239.30571   -7445.5751 
29339000     115.6989   -9721.1447   -9280.0477   -9721.1447            0    8494.0151    24.798151    24.678232    22.795005    13949.962    7940.0262    8992.1488    8549.8702    188.26852   -766.34272    182.24884   -7551.9753 
29340000    120.09735   -9707.6254   -9249.7595   -9707.6254            0    8458.8319    24.778891    24.692387    22.776798    13935.983    8081.6623    9112.7451    8182.0883   -119.51968   -988.96028    1134.0879   -7530.5694 
29341000    114.06549   -9705.3853   -9270.5157   -9705.3853            0    8521.0594    24.787801    24.697754    22.760036    13933.762    7969.5414    9070.5353    8523.1014   -180.41962   -313.32821    143.28508   -7538.9544 
29342000    122.30473   -9718.9165   -9252.6351   -9718.9165            0    7813.6171    24.773337    24.689316    22.836928    13967.904    7342.3956    8025.6273    8072.8286   -683.52087   -142.97208   -97.769991   -7660.9422 
29343000    122.00348   -9713.0369    -9247.904   -9713.0369            0    8767.3745    24.744161    24.742424    22.735926    13919.628    8009.5142    9023.2917    9269.3176   -247.22631   -247.15271   -508.82514   -7468.0963 
29344000    117.15163   -9702.5511   -9255.9156   -9702.5511            0    8719.7156    24.746544    24.659525    22.827812    13930.398    9223.4157    8745.2037    8190.5274    -523.9639    1241.3293    104.02297   -7484.4132 
29345000     115.1883   -9725.1374   -9285.9871   -9725.1374            0    8223.1017    24.769032    24.715995    22.766068    13937.188    8129.0124    8034.6972    8505.5956    130.85638   -692.00798     681.2986   -7614.5628 
29346000    122.26209   -9716.4597   -9250.3409   -9716.4597            0    8753.3208    24.757219    24.743387    22.729302    13923.458    8323.9338    8489.7452    9446.2835   -555.01186   -338.08912    277.57017   -7472.8972 
29347000     121.6033   -9716.1024   -9252.4952   -9716.1024            0    7700.0465     24.73717    24.674755     22.89999    13977.778    8195.7281    7850.4598    7053.9515   -409.25031   -710.01035    765.28509   -7682.8287 
29348000    113.22019   -9714.4502   -9282.8032   -9714.4502            0      8468.75    24.770498    24.747562    22.731152    13934.411    8615.8486    8629.8014    8160.5999    -433.9619   -218.04353    942.65769   -7561.7915 
29349000     120.1954   -9707.7477    -9249.508   -9707.7477            0    8346.2021     24.74097    24.758917      22.7645    13944.613     8075.202    8511.8324    8451.5718    195.25455    44.244342   -83.322124   -7552.1586 
29350000    119.93638   -9729.5523   -9272.3001   -9729.5523            0    8133.1587    24.704149    24.675899    22.858102    13934.232    7659.5616    9111.5085     7628.406    380.35877   -724.37485    417.58149   -7619.5082 
29351000    117.09533   -9712.7257   -9266.3049   -9712.7257            0    7860.1381    24.775027    24.763598    22.755157    13960.716    7665.7782     7988.879     7925.757   -95.376356     123.8779    1073.7682   -7665.9594 
29352000    124.00862   -9707.5752   -9234.7978   -9707.5752            0    9343.8341    24.736476    24.644297    22.799469    13898.854    8856.6066    10654.283    8520.6125   -517.45171   -667.79698    1114.3873   -7340.7976 
29353000    121.55275   -9716.8063   -9253.3918   -9716.8063            0    8565.6919     24.76871    24.702205    22.771694    13932.673     8183.562    9502.0826    8011.4311   -490.60252    210.89191    -319.7168   -7512.8967 
29354000    116.16827   -9703.4417   -9260.5553   -9703.4417            0    8547.3409    24.749747      24.7808    22.742739    13948.544    7921.6234    8456.7874    9263.6117    331.82861   -729.97684    653.81619   -7521.8108 
29355000    120.44625   -9703.9367   -9244.7407   -9703.9367            0     8847.394    24.623158    24.746532     22.87859    13940.789    9699.2834     8501.487    8341.4117    37.227142     324.6337    673.64867   -7445.9583 
29356000    116.53748   -9712.2585   -9267.9645   -9712.2585            0    8614.8549    24.702493    24.749896    22.749589    13908.738    8752.4278    9101.6599    7990.4769    985.64895   -220.16703   -37.030878    -7520.487 
29357000    120.32967   -9721.1058   -9262.3542   -9721.1058            0     7296.497    24.816651    24.754846    22.756669    13980.159    6993.6104    7026.3157    7869.5649   -349.71919   -806.30059   -3.9044845   -7774.6986 
29358000     118.2336   -9704.4374    -9253.677   -9704.4374            0    9179.7537    24.683247    24.700712    22.811329    13907.925    9561.2362    8968.6325    9009.3926    202.84856   -861.62401    129.44784   -7391.7216 
29359000    121.48491   -9730.7907   -9267.6349   -9730.7907            0    7620.1236    24.704624    24.796004    22.793004    13962.446    8487.0549    6911.7705    7461.5453   -123.47876   -341.55267    431.13273   -7715.9647 
29360000    115.93243   -9707.5511   -9265.5638   -9707.5511            0     8064.835    24.751053    24.778957    22.744174    13949.122     7257.156    8237.6448    8699.7043   -377.77746   -1077.1238    484.92448   -7624.9051 
29361000    121.69907   -9718.2068   -9254.2345   -9718.2068            0    8261.2709    24.675727    24.748552    22.817284    13934.254    9215.3377    8019.8212    7548.6538   -261.85419   -500.66642   -166.99649   -7575.4054 
29362000    121.44739   -9719.5169   -9256.5041   -9719.5169            0    7249.2949    24.782107    24.830027    22.750124     13999.07    6688.0453     7090.724    7969.1155    168.74258   -486.23686    160.57627   -7776.4729 
29363000    120.96725   -9715.6164   -9254.4341   -9715.6164            0    8187.1872    24.657504    24.804795    22.797086    13943.253    8002.6761    7811.4525    8747.4329   -47.415308   -685.23168    866.82502   -7589.5857 
29364000    122.77886   -9696.9565   -9228.8674   -9696.9565            0    7983.0086    24.702402    24.789045    22.827019    13978.101    8013.9103    7220.2398    8714.8757    -196.9555    471.99528    341.21186   -7601.4811 
29365000    122.12569   -9703.1214   -9237.5226   -9703.1214            0    7575.5889    24.745073    24.815152    22.776142    13985.753    7541.6151    7370.2577    7814.8939   -543.56362    -550.8706    247.01025    -7692.346 
29366000    119.42971   -9722.3286   -9267.0081   -9722.3286            0    8110.1229    24.719135    24.776118    22.777997    13950.252    8780.3572    8122.3931    7427.6183    183.55964   -796.49263    330.15822   -7617.0026 
29367000    116.07869   -9725.3422   -9282.7973   -9725.3422            0    8574.4626       24.664    24.767547     22.82707    13944.299    9886.9183    7260.6688    8575.8006    -370.8243    438.03343   -355.91528   -7539.0663 
29368000    111.88238   -9710.9872   -9284.4406   -9710.9872            0    7619.1117    24.766344    24.792052    22.761262    13975.608    7519.5141    7215.8606    8121.9605    -565.6919   -611.68217    406.44343   -7731.5139 
29369000    115.27006   -9693.8239   -9254.3619   -9693.8239            0    8975.7793    24.635506    24.789345     22.80909    13929.467    9444.7071     8775.614    8707.0167   -222.91019   -273.57869   -632.47494   -7430.9594 
29370000    114.65141    -9705.239   -9268.1355    -9705.239            0    8019.3242    24.622509     24.78099    22.879219    13960.216    8378.4593    8148.6654    7530.8479   -438.96627   -481.82016    583.59106   -7635.4377 
29371000    115.36339   -9702.7021   -9262.8842   -9702.7021            0    8701.4923    24.706544    24.803056    22.742182    13936.359     9250.136    8157.1237    8697.2172    84.474275   -337.57614    449.57979   -7494.3276 
29372000    118.14499   -9697.7106    -9247.288   -9697.7106            0     8515.872     24.68712    24.752273    22.811751    13939.402    8425.2555    8960.5602    8161.8004    499.72741    -685.9308   -25.606743   -7516.0804 
29373000    116.23023    -9716.397   -9273.2743    -9716.397            0    7732.9328    24.720675     24.74858    22.842681    13975.189    7880.3182    7069.4536    8249.0265   -533.39875    479.12768    624.77258   -7697.1959 
29374000    120.53473   -9696.1083   -9236.5749   -9696.1083            0    8406.7647    24.750191    24.750365    22.744195    13932.554    8211.2937    8810.9441    8198.0562   -442.15549    349.57236    237.83904   -7528.3875 
29375000    119.70017   -9694.9076   -9238.5559   -9694.9076            0    8405.4939    24.768945    24.704822    22.801981    13952.815    7317.8136    9589.3771    8309.2908   -370.64475   -8.5523993   -505.96023   -7528.1431 
29376000    120.15246   -9721.8828   -9263.8068   -9721.8828            0    7488.3883    24.750039    24.750902    22.814036    13975.554    7882.7954    7412.9576    7169.4119   -350.77544     415.1562   -270.74328     -7737.53 
29377000    117.41415   -9697.6253    -9249.989   -9697.6253            0    8225.5251    24.723883    24.757699    22.800308    13956.215    8328.3452    7849.1719    8499.0582    152.41666     107.2849   -642.13717   -7575.7896 
29378000    116.83983   -9710.1408   -9264.6941   -9710.1408            0    7758.8173    24.756837    24.795912    22.757054    13969.835    6714.0654    8108.3931    8453.9934    211.87846    -479.4503   -892.24471   -7683.9458 
29379000    114.28228   -9691.2029   -9255.5067   -9691.2029            0    7493.4667    24.720238    24.721013    22.889166    13987.782    7243.8709    8825.1526    6411.3767    395.95777     57.66541    236.41139   -7726.8585 
29380000    118.20229    -9730.307   -9279.6659    -9730.307            0    7560.0628    24.792351    24.838247    22.710555    13985.126    6979.4023    7099.8519    8600.9341   -441.16823   -271.41431    1087.1169   -7737.7252 
29381000    116.39196   -9715.4785   -9271.7393   -9715.4785            0    8690.1286    24.713267    24.738159    22.772065    13921.947    9064.3428    8641.0535    8364.9894   -304.32808   -872.78246    415.84145   -7507.3189 
29382000    114.91034   -9701.8271   -9263.7365   -9701.8271            0    8361.7834    24.663524    24.805026    22.812076    13955.957    8118.8925    8402.4435    8564.0143     780.3289    82.311603   -373.07967    -7561.835 
29383000    117.12809   -9711.2485   -9264.7028   -9711.2485            0    8264.7466    24.720798    24.712824    22.827324    13945.685    7942.4266    9072.2713    7779.5418   -597.93048    442.59383    129.58225   -7583.7896 
29384000    113.69363   -9707.2276   -9273.7757   -9707.2276            0    8536.5168    24.732462    24.790542      22.7172    13928.623    8164.8582    8624.7064    8819.9857   -210.38228   -760.38528    235.59087   -7539.7131 
29385000    117.52178   -9729.2107   -9281.1641   -9729.2107            0    8460.2297    24.670231     24.72391    22.849633    13937.009    9713.2204     7743.581    7923.8876   -303.71621   -104.71518    395.34667   -7561.5633 
29386000    117.06042   -9701.4168   -9255.1291   -9701.4168            0    8035.1212    24.792443    24.827684    22.683128    13962.349    7985.7559     8000.639    8118.9688    50.566994    343.88398   -750.12802   -7618.9652 
29387000    115.31652   -9709.9798   -9270.3407   -9709.9798            0     8115.888    24.666834    24.826757    22.775628    13947.738    8965.9796    7631.2421    7750.4422   -527.53856   -599.99924    129.10243   -7619.4599 
29388000    117.36224    -9700.353   -9252.9146    -9700.353            0    9027.4459    24.647798     24.71611    22.868586     13931.49    8792.4972    9572.7132    8717.1274   -1272.7156    247.69238   -536.68024   -7418.7499 
29389000    116.03044   -9720.4932   -9278.1322   -9720.4932            0     7848.241    24.738199    24.825449    22.724343    13955.857    7176.5872    7779.8017    8588.3342    136.15435   -318.03977    585.33778   -7680.7651 
29390000    118.01655   -9709.8187   -9259.8858   -9709.8187            0    8387.8358    24.674795    24.805729    22.821702    13968.623    8619.1503    7884.7926    8659.5644   -546.76131   -348.64011    107.59972   -7551.1324 
29391000    117.56286   -9719.6415   -9271.4383   -9719.6415            0    8559.0174    24.726149    24.738771    22.773737     13930.57     8453.079    8590.6352    8633.3381    1251.0737   -334.15794     138.0283   -7532.5619 
29392000    116.83935   -9716.2827   -9270.8378   -9716.2827            0    8052.6225    24.814726    24.706493     22.73486    13938.398    8115.6534    8084.1825    7958.0315   -131.95897   -323.40014    411.59164   -7633.9229 
29393000    117.68609   -9702.1056   -9253.4325   -9702.1056            0    9112.7552    24.753749    24.675505    22.782766     13915.97    8723.6451    9138.7258    9475.8948   -402.47382   -597.91905   -168.59763   -7403.9975 
29394000    116.41066   -9710.2136   -9266.4031   -9710.2136            0     8227.117     24.74973    24.696884    22.843353    13962.799    7934.1865    8684.7418    8062.4229    181.18804    745.53883     184.8812   -7591.0897 
29395000    122.55629   -9701.9988   -9234.7583   -9701.9988            0    7928.3953    24.715054     24.79117    22.813624    13978.253    9119.7775    7055.9456    7609.4627   -234.63187    734.49216   -428.73815   -7618.4878 
29396000    119.21629   -9716.7104   -9262.2035   -9716.7104            0    8295.5152    24.696791    24.739068    22.826686    13946.548     8528.881    8253.2104    8104.4543   -251.76486   -1015.6922   -226.79804   -7574.9281 
29397000    114.39145   -9699.4872   -9263.3748   -9699.4872            0    8213.8371    24.670583    24.788395    22.811278    13950.104     7873.414     8886.375    7881.7224   -314.79431    80.844165     190.9075   -7592.2865 
29398000    113.98644   -9716.2446   -9281.6763   -9716.2446            0    7339.7458      24.7202    24.876003    22.741625     13984.73    8064.8459    6616.6379    7337.7536   -40.140898   -247.83265    264.21377   -7784.7136 
29399000    118.96428   -9706.6382   -9253.0921   -9706.6382            0     8867.508    24.633504      24.7562    22.835086    13925.565    9133.4661    9148.3435    8320.7144   -933.12085   -46.845711   -379.30742   -7452.1891 
29400000    114.22313   -9703.7309   -9268.2602   -9703.7309            0     8392.605    24.658693    24.800116    22.808012    13947.976    9425.6501    7882.7363    7869.4287   -5.8267417   -693.69909   -411.46879   -7561.0623 
29401000    120.71398   -9716.6592   -9256.4424   -9716.6592            0    7647.5601    24.784362    24.816357    22.695171    13958.837    6797.2998    7790.6275    8354.7529   -235.10101    254.07606    461.63653   -7699.5879 
29402000    115.37146    -9705.327   -9265.4784    -9705.327            0    8310.4645    24.677865    24.745567    22.829483    13941.229    8479.7654    8182.3066    8269.3216    64.165044    853.35815    98.408089    -7575.807 
29403000     120.2696   -9709.7892   -9251.2666   -9709.7892            0     8582.262    24.724788    24.768675    22.785516    13953.856    7942.2401    8619.8376    9184.7085   -391.25839   -61.241404    687.52912   -7504.7533 
29404000    114.22847   -9713.4513   -9277.9603   -9713.4513            0    7288.4179    24.784671    24.826621    22.747101    13996.737     6824.415    7342.6347    7698.2038   -143.80111   -3.1380433    478.71111   -7790.1897 
29405000    117.73496   -9709.2965   -9260.4371   -9709.2965            0    8312.2589    24.638818    24.775692    22.847444     13947.08    9068.6439    8269.2301    7598.9027   -339.27922   -95.612999   -329.88169   -7569.6916 
29406000    110.29463   -9719.7671   -9299.2737   -9719.7671            0    9196.4894     24.65574    24.764564    22.770706    13903.535    9710.0003     8788.794     9090.674    432.72021   -676.09974    743.51238   -7434.5126 
29407000    114.08605   -9702.0113   -9267.0633   -9702.0113            0    7940.9753    24.744972    24.838365    22.705867    13955.586    7502.0379    7326.3753    8994.5126    243.54279   -594.66409    236.06754   -7650.8532 
29408000    120.41636    -9717.223   -9258.1409    -9717.223            0    8399.0655    24.683703    24.710658    22.858286    13942.424    8359.2703    9244.5904    7593.3358   -128.52056   -1349.5616    289.02669    -7550.309 
29409000    123.19125   -9723.0495   -9253.3882   -9723.0495            0    7666.7332    24.744524    24.790727    22.792247    13981.556    7975.3616    7146.1255    7878.7126   -744.72643   -776.22072    143.13353   -7690.0903 
29410000    119.22135   -9717.0134   -9262.4873   -9717.0134            0    7817.8226    24.762897    24.803937      22.7416    13968.285    7423.3328    7263.8496    8766.2854   -313.88473    -35.03588    676.67717   -7669.8943 
29411000    118.25799   -9732.3596   -9281.5062   -9732.3596            0    8670.3309    24.666291    24.665511    22.892096    13927.704    9587.7391    8440.9432    7982.3103   -347.02388   -706.66436    847.17287   -7520.3776 
29412000    118.98146   -9721.2798   -9267.6682   -9721.2798            0    7766.2959    24.765344    24.754848     22.78026     13965.72    7118.5149    8331.2089    7849.1638     312.8798   -256.47092    17.222981   -7685.8625 
29413000     119.4085   -9707.0146    -9251.775   -9707.0146            0    8657.9994    24.735432    24.750811     22.76696    13938.434    8939.1272    8546.4843    8488.3865   -296.69321   -325.66649    69.374889   -7491.7962 
29414000    113.33922   -9700.7167    -9268.616   -9700.7167            0    8572.0565    24.689472    24.744222    22.809906    13935.068    9074.6596    8406.5831    8234.9267    457.13097   -89.562683    128.62343   -7526.5283 
29415000     118.0263   -9705.0214   -9255.0513   -9705.0214            0    9053.8226    24.701015    24.853583     22.66873    13916.531    8945.2407    8020.9374     10195.29    79.838405    186.79968    977.97438   -7417.5026 
29416000    118.79181   -9697.3681   -9244.4795   -9697.3681            0    8373.7825    24.689945    24.800578    22.790326    13955.085    9188.6857    7095.4848    8837.1769   -230.26185    686.55655   -54.607217   -7540.2423 
29417000    114.40793   -9724.8596   -9288.6844   -9724.8596            0    7789.9336    24.724739    24.771636    22.791423    13959.114    7914.5393     7307.828    8147.4334    181.57688    71.336934    432.92726   -7702.8147 
29418000    120.98897   -9697.0213   -9235.7562   -9697.0213            0    8039.4715    24.747831    24.793374    22.740814     13953.36    8148.3293    7237.6753    8732.4098    576.88241   -362.18202   -538.21271   -7599.7604 
29419000    116.24905   -9699.6962   -9256.5018   -9699.6962            0    7907.5744    24.689528    24.780202     22.81378    13957.732    7975.6372    8577.8358    7169.2501   -535.48724   -173.18736    612.29046   -7646.8422 
29420000    117.36103   -9710.7253   -9263.2916   -9710.7253            0    8807.4921     24.72328    24.672766    22.829336    13925.705    8686.8903    9410.8797    8324.7063   -287.85985     69.79795   -17.587211   -7474.5593 
29421000    115.76436   -9710.5572   -9269.2106   -9710.5572            0    6985.8184    24.802388    24.820889    22.737944    13997.873    7211.2727    6194.9139    7551.2685   -309.02097   -922.73924    139.87144   -7843.0935 
29422000     114.9213   -9699.1531   -9261.0207   -9699.1531            0    8964.5565    24.701209    24.651626    22.853842    13916.275    9162.1597    9565.4357     8166.074    768.87528   -246.69098    1113.8763   -7441.6227 
29423000    113.41893   -9697.2916   -9264.8869   -9697.2916            0    8556.6487    24.777819    24.752564    22.744811    13949.723    7807.4992     9103.538     8758.909   -580.27747   -636.71231    302.71501   -7524.1017 
29424000    117.25202   -9714.3831   -9267.3649   -9714.3831            0    8251.1822    24.760341    24.787836    22.711601    13939.365     8293.969    7828.9021    8630.6755   -315.38369    649.52757   -156.69843   -7589.9711 
29425000    114.14131   -9697.2025   -9262.0438   -9697.2025            0    8053.3358    24.683381     24.74576    22.843839    13953.222    8107.7536    8428.3951    7623.8587    232.07641    373.03837    473.96793   -7623.2428 
29426000    118.15343   -9711.5791   -9261.1243   -9711.5791            0    9106.6318    24.668051    24.741733    22.768205    13896.126    9521.2633      9127.68     8670.952   -117.03276   -643.18246   -292.79202   -7415.5676 
29427000    119.21612   -9715.6273   -9261.1211   -9715.6273            0    7270.2128      24.7624    24.847222    22.718361    13978.081    6821.3516    7027.5103    7961.7765    -475.4695   -654.49445    642.53349   -7779.0448 
29428000    116.47593   -9703.1452   -9259.0858   -9703.1452            0    8276.6758     24.73266    24.740899    22.798453    13950.562     7825.024    8458.3906    8546.6128   -523.75805    347.61608    145.94741   -7575.1578 
29429000    121.59821   -9725.2399   -9261.6521   -9725.2399            0    8863.4472    24.681981     24.76168    22.757305    13908.521    8910.9042    8468.2968    9211.1408   -525.15906   -650.39956    195.09179    -7463.777 
29430000    115.82409   -9718.8732    -9277.299   -9718.8732            0    7610.3396    24.725485    24.803307    22.769198    13963.753    8044.5217    7261.4171      7525.08   -339.29411   -230.95668    396.95277    -7727.476 
29431000    117.43731   -9704.6165   -9256.8919   -9704.6165            0     8551.749    24.686971    24.767619    22.796145    13938.417     8340.593    8775.9516    8538.7023    -441.6489   -478.66022    1804.6492   -7518.5136 
29432000    118.89403   -9693.3716   -9240.0933   -9693.3716            0    8698.9965    24.657551    24.772179    22.808244    13931.761    9366.7634     8062.704    8667.5222   -533.18189   -239.40435   -238.89766   -7472.6274 
29433000    117.02842   -9709.9483   -9263.7826   -9709.9483            0    7877.0142    24.723561    24.862485    22.695582    13950.728    8208.2412    6986.5308    8436.2706    -303.4728   -635.85091   -556.32867   -7661.1484 
29434000    120.18359   -9712.7409   -9254.5462   -9712.7409            0    8045.7059    24.672762    24.792832    22.809849    13952.959    8966.0296    7389.3343    7781.7538   -230.59728   -690.54078    271.77705   -7617.3288 
29435000    120.19779   -9699.2793   -9241.0305   -9699.2793            0    7228.8733    24.783587    24.810948    22.800682    14020.237     6310.906    6800.1945    8575.5194    -167.7425   -185.73084    313.28903   -7762.9371 
29436000    120.86359   -9697.1581    -9236.371   -9697.1581            0     8632.205    24.718195    24.739709    22.778403     13929.47    8495.2484    8894.1181    8507.2485   -210.74161   -48.775626     642.5303   -7482.7641 
29437000    117.14387   -9726.1938    -9279.588   -9726.1938            0    8795.6427    24.663755    24.717089    22.817707    13910.045    9039.8411    8780.0312    8567.0559   -341.54256    1.7544974   -841.65142    -7495.271 
29438000    113.95738   -9680.9473   -9246.4898   -9680.9473            0    7932.0637    24.672487    24.825191    22.832781     13985.06     8995.356    7470.6354    7330.1999   -121.87253   -739.01976    934.62532   -7628.6839 
29439000    113.34339   -9715.5074   -9283.3907   -9715.5074            0    7726.0684    24.747592    24.830318    22.715258    13958.312    7453.6429    7078.1961    8646.3662     54.49667    488.15162    117.00153    -7710.613 
29440000     123.3305   -9708.0376   -9237.8455   -9708.0376            0    8556.6537    24.716064     24.79561    22.753116    13944.245    8641.4839    7795.4548    9233.0224    302.97406    269.81001    259.86209   -7497.7429 
29441000    117.86996   -9706.8247   -9257.4507   -9706.8247            0    8121.1778    24.667908    24.718615    22.890859     13957.85    8629.6622     8464.577    7269.2943   -710.86914   -394.34639    139.66396   -7604.2962 
29442000    117.20038     -9688.46   -9241.6387     -9688.46            0    8528.4805    24.714584    24.817873    22.706912    13927.589    8723.6613      7683.49    9178.2901    109.89913    305.75833    250.26398   -7509.3372 
29443000    121.24626    -9718.889   -9256.6429    -9718.889            0    8576.5977    24.668889      24.7141    22.852834    13932.673    8788.1845    8908.2713    8033.3374    591.57285   -69.574372    1259.6019   -7513.9319 
29444000    120.45231   -9724.6536   -9265.4345   -9724.6536            0    8163.2768    24.737776     24.73106    22.791639     13943.73     7809.222    8006.1232    8674.4853    73.611711    297.56417    409.75327   -7605.3914 
29445000     117.9013   -9710.6396   -9261.1461   -9710.6396            0    7947.2843    24.783398    24.792772    22.736151    13970.208    7977.8466    7329.5552    8534.4512   -775.47198   -109.34944     775.6157   -7641.9572 
29446000      121.248   -9707.6174   -9245.3647   -9707.6174            0    8702.7193    24.591541    24.758975    22.873941    13927.059    10231.054    8532.5651    7344.5391    71.681499    563.70546   -601.92178   -7477.7392 
29447000    117.34748   -9705.7684   -9258.3863   -9705.7684            0     8090.218    24.711978    24.781059    22.761598    13938.952    8428.8786    7877.4143    7964.3611   -468.44444    33.921358    365.68205   -7613.7638 
29448000     119.6307   -9711.7908    -9255.704   -9711.7908            0    7762.2756    24.644979    24.895501    22.759506    13964.074    8671.7534      6671.69    7943.3833   -136.24662   -377.40657     348.0351   -7674.9035 
29449000    115.98369   -9689.2503   -9247.0675   -9689.2503            0      8418.73    24.677275    24.835305    22.767064    13953.197    8573.2519    7770.0089    8912.9292   -137.63196   -720.56654    596.99067   -7533.9144 
29450000    115.13129   -9691.9869   -9253.0539   -9691.9869            0     9448.626    24.598339    24.831783    22.776057    13912.085     10203.84     8827.528    9314.5103    -350.2676     459.8366    235.75183   -7335.9892 
29451000    120.86281    -9700.314   -9239.5299    -9700.314            0    8513.4404     24.68453    24.821561    22.747178    13937.391    9541.3131    7862.3666    8136.6414    160.12496     175.0066    226.31916   -7509.0663 
29452000    114.49579   -9698.1163   -9261.6062   -9698.1163            0    8620.8722    24.608396    24.818356    22.803589    13927.062      8807.25    9040.8791    8014.4873   -233.26482    33.309273    991.67584   -7510.6043 
29453000    116.59511   -9726.0731   -9281.5594   -9726.0731            0    8342.2425    24.640023    24.855142     22.76237    13940.387     8847.444    7367.3021    8811.9813     65.44379   -543.01934     244.4896   -7585.5294 
29454000    120.78152   -9713.2493    -9252.775   -9713.2493            0    8312.4759    24.682357    24.822259     22.77802    13955.452    9250.5748     6913.662    8773.1908   -185.33881   -435.32629   -258.09603   -7560.9705 
29455000    116.04645   -9720.6723   -9278.2503   -9720.6723            0    7211.8238    24.722209    24.863272    22.758636    13989.165    8057.2976    6297.1465    7281.0273    123.84202     738.6858     137.3449   -7806.9112 
29456000    113.17247   -9723.9394   -9292.4744   -9723.9394            0    8796.8643    24.639313    24.741614    22.823188    13913.389    9317.9278    8295.4871     8777.178   -401.38039    788.24071   -37.515468   -7507.4806 
29457000    119.76913   -9710.7672   -9254.1526   -9710.7672            0    9007.2273    24.661154    24.815247    22.731796    13911.237    9240.2826    8945.8931    8835.5063    214.63504   -987.23064    -34.19307   -7426.7562 
29458000    118.40117   -9710.2242   -9258.8249   -9710.2242            0    8260.5374    24.683158    24.811664    22.772867    13946.791    8748.4752    8229.4013    7803.7355   -413.88559   -807.09741    367.41218   -7578.6345 
29459000     120.6318   -9693.9676   -9234.0642   -9693.9676            0    9261.6185    24.669509    24.760018    22.767462    13906.764    9440.7509    8653.5461    9690.5584   -193.04511   -111.65787    -6.942679   -7355.6608 
29460000    117.11492   -9700.9852   -9254.4897   -9700.9852            0    7703.9805     24.72301      24.7657    22.803558    13962.223     7462.641     8164.224    7485.0766    380.33132   -589.93442   -525.34122    -7685.769 
29461000    118.16218   -9689.7734   -9239.2853   -9689.7734            0    9310.1327    24.721271    24.745304    22.720753    13899.088    9576.8128    8783.0478    9570.5376   -902.15168   -302.76858     -7.96787   -7352.0846 
29462000    117.65897   -9706.2919   -9257.7223   -9706.2919            0    9163.9263    24.677784    24.672598    22.829681    13900.194    9968.4429    9376.1191    8147.2167   -419.88048   -472.32788    192.99327   -7400.0104 
29463000    116.60298   -9719.3807   -9274.8369   -9719.3807            0    7091.4504    24.748816    24.766496    22.821796    13988.425    6677.7462    8014.2474    6582.3575    331.10917   -180.63222    297.16635   -7828.1326 
29464000    119.33375   -9706.6924   -9251.7377   -9706.6924            0    7821.8786    24.745393    24.785326    22.786713    13975.607    7416.0251    8018.4799    8031.1307   -55.399823   -247.99515    195.14722   -7657.4833 
29465000     117.0787   -9708.8696   -9262.5122   -9708.8696            0    8966.6294    24.610821    24.772535    22.815315    13909.868    9984.0476    8514.7426    8401.0978    177.86276   -139.06063    -7.996974   -7443.5313 
29466000    116.20775   -9719.9596   -9276.9227   -9719.9596            0    8151.4326    24.687587    24.753473    22.821657    13946.395    8778.5717    7933.2917    7742.4342   -10.003305     -314.327   -1092.8654   -7618.9713 
29467000    120.88936   -9713.9445   -9253.0592   -9713.9445            0    7480.7116    24.719877    24.809921    22.797655    13981.761    8166.1902    6824.7606     7451.184   -279.32054    -936.7664    -1040.539     -7727.67 
29468000     117.0544   -9704.6912   -9258.4265   -9704.6912            0    7710.0693    24.803594    24.776161    22.740335    13974.796    7410.0113    7906.9017    7813.2948    131.24097   -84.765293    290.44497   -7687.0522 
29469000    117.39648   -9723.6697   -9276.1007   -9723.6697            0    8360.4639    24.703975     24.72474    22.828782    13943.805    8226.0401    8888.2824    7967.0691    286.37497   -254.14549    103.46411   -7575.9494 
29470000    119.87008    -9711.399   -9254.3996    -9711.399            0    9253.2058    24.800161     24.68766    22.709475    13904.056    8429.6628    9746.7797    9583.1749    -86.63763    132.48338   -71.770261   -7378.0678 
29471000    116.11798   -9707.4529   -9264.7583   -9707.4529            0    8031.1693    24.792235    24.723468    22.806508     13979.25    7179.6728    8609.4731    8304.3619   -495.78693   -651.16836   -337.43002   -7627.4196 
29472000     119.2947   -9719.1839   -9264.3781   -9719.1839            0    8920.8218    24.674193    24.754707    22.774804    13910.905    9014.3734    9170.3509    8577.7412    260.06666    157.23397    542.62203   -7454.5549 
29473000    121.42527   -9723.3658   -9260.4373   -9723.3658            0    8736.7511    24.679398     24.77987    22.769378    13924.665    9214.1522    7905.6603    9090.4408    270.73198   -332.18977     820.7459   -7486.2044 
29474000    126.48199   -9716.5742   -9234.3671   -9716.5742            0    7601.0928    24.635241    24.814294    22.866247    13978.276    7910.9422    6892.7229    7999.6132     -387.944     -457.405   -14.661251   -7684.8174 
29475000    115.48088   -9695.9033   -9255.6375   -9695.9033            0    10012.971    24.653213    24.753184    22.745181    13880.145     10171.82    10104.419     9762.676    -22.23718    192.73513    590.22836    -7228.735 
29476000    116.58396    -9702.763   -9258.2918    -9702.763            0    9027.0002    24.700686    24.727475    22.792571    13921.374    8610.2048    8927.4479    9543.3479    142.46097   -458.27607    707.40937   -7425.5493 
29477000    118.05061   -9702.3735   -9252.3108   -9702.3735            0    7332.4436    24.746143    24.809762    22.813872    14006.483    8347.3693    7129.1862    6520.7754    291.79279   -204.70928    41.690695   -7754.5111 
29478000    115.52992   -9680.2008   -9239.7481   -9680.2008            0    9682.8833    24.713543    24.759218    22.711877    13897.125    9096.8267    9942.9883    10008.835   -232.44509    320.73338    32.019887   -7277.2667 
29479000     112.5741   -9703.7329   -9274.5491   -9703.7329            0    7673.7966    24.725275    24.750268    22.841561    13978.057    7593.8691    7673.6396    7753.8812   -155.90893    -639.7909    592.60354   -7710.2025 
29480000    119.17202   -9707.5046   -9253.1665   -9707.5046            0    8432.9885    24.775963    24.737816    22.741426    13938.293    7768.7327    9050.2525    8479.9802   -929.71114    16.862532    149.45909   -7538.9449 
29481000    121.82634   -9704.7228   -9240.2652   -9704.7228            0     7887.757    24.781334    24.719919    22.793672    13963.234    8357.8565    7311.4428    7993.9716    507.31479    332.04551    901.09533   -7634.0067 
29482000     119.6695   -9707.7253   -9251.4906   -9707.7253            0    8049.6123    24.778623    24.681193     22.82782    13960.718    7733.0827    8566.9813     7848.773   -92.868152    677.54296    485.89965   -7612.5674 
29483000    120.12217   -9700.4118   -9242.4514   -9700.4118            0    8088.0228    24.861155    24.761975    22.671278    13956.695    6717.4497    8708.1689    8838.4499    428.71791   -597.49655   -74.283941   -7596.1822 
29484000    120.11931   -9712.8809   -9254.9313   -9712.8809            0    7406.2477    24.779569    24.748083       22.826    13997.972    6747.2299    7773.0347    7698.4785   -640.98536   -509.54645   -689.04876    -7742.975 
29485000    117.20576   -9718.5392   -9271.6974   -9718.5392            0    8552.2799    24.715969    24.718245    22.813381    13937.502    8781.3279    8605.5135    8269.9984    315.06627   -255.21135    481.13266   -7533.3254 
29486000    117.86291   -9699.3477   -9250.0005   -9699.3477            0    8370.1514    24.739938     24.77402    22.744043    13939.999    8011.8125    8876.7706    8221.8709    -131.7783   -301.93138    130.08555   -7548.3438 
29487000    119.16892   -9717.0882    -9262.762   -9717.0882            0    8735.7323    24.688799    24.784766    22.733196    13910.582    8603.5313    8088.5876    9515.0781   -725.16832    346.30802    159.43887   -7490.5303 
29488000    121.11934   -9693.5394   -9231.7773   -9693.5394            0    8242.6177    24.697486    24.757839    22.806485    13945.171     8449.321    9061.7637    7216.7684   -1294.5231   -360.85102   -744.13544   -7555.4265 
29489000    121.25017   -9716.7801   -9254.5192   -9716.7801            0    8099.7346    24.633743    24.891581    22.765396    13959.121    8800.0441    7036.1601    8462.9996    176.83043   -244.61323    589.23125   -7605.5795 
29490000    118.14078    -9695.007   -9244.6005    -9695.007            0    7883.6279    24.698005    24.811699    22.813303     13979.98    8683.3984    7469.9789    7497.5064   -291.05164    48.964385    731.80855   -7637.2575 
29491000    119.68692   -9708.4931    -9252.192   -9708.4931            0    7565.2541    24.633772     24.84958    22.833346    13977.179      9628.01    5547.9022    7519.8502    141.36868   -291.00326    318.66652   -7710.0693 
29492000    119.14904   -9700.8076   -9246.5572   -9700.8076            0    8340.6632    24.698101    24.819904    22.755592     13949.28    8817.6855    7664.7966    8539.5075    106.62209   -99.912612    657.67088   -7549.7664 
29493000    116.76698   -9709.3948   -9264.2258   -9709.3948            0    7833.2303    24.693285    24.850306    22.751138     13960.91    8182.5572    6861.5353    8455.5985   -357.75124    491.48583   -89.662546   -7669.3366 
29494000     116.3925   -9710.8451   -9267.1038   -9710.8451            0    8124.6372     24.66646    24.750249    22.845511    13947.208    8475.9411     8321.393    7576.5774   -330.28576   -395.09655    199.56991   -7614.5061 
29495000    116.84659   -9696.1175   -9250.6451   -9696.1175            0     9506.278    24.687261    24.787413    22.722247      13904.5     9194.204     9309.881    10014.749    229.24927   -292.33444     1113.313   -7322.9347 
29496000    117.33357   -9715.3696   -9268.0405   -9715.3696            0    8504.0014     24.64914    24.825245    22.762104    13928.608    9074.2019    7284.5218    9153.2806   -175.06653    27.888338   -277.79977   -7540.5847 
29497000    120.72406   -9694.9712    -9234.716   -9694.9712            0    8352.1482    24.692467    24.737915    22.844034    13954.053    9062.1974    8261.5404    7732.7067   -470.23132   -285.34519    150.53766   -7535.0076 
29498000    117.65281   -9723.7823   -9275.2362   -9723.7823            0    8604.7487    24.694628    24.825338    22.710025    13922.437    8870.8769    7770.1614    9173.2077    70.060789    21.322757   -2.4253155   -7528.0896 
29499000    113.86147   -9716.9576   -9282.8658   -9716.9576            0    8868.8985    24.644449    24.777583    22.790225    13916.392     9390.606    8685.6507    8530.4389    123.50086   -264.21968    582.12474   -7482.8669 
29500000    117.88189   -9691.8395     -9242.42   -9691.8395            0    9195.7636    24.600275    24.758248    22.827047    13903.035    10315.746    8691.5769    8579.9683   -62.731473    253.38884    332.50029   -7377.8732 
Loop time of 600.605 on 64 procs for 250000 steps with 1920 atoms

Performance: 71.927 ns/day, 0.334 hours/ns, 416.247 timesteps/s
373.3% CPU use with 16 MPI tasks x 4 OpenMP threads

MPI task timing breakdown:
Section |  min time  |  avg time  |  max time  |%varavg| %total
---------------------------------------------------------------
Pair    | 74.568     | 76.369     | 78.63      |  13.3 | 12.72
Bond    | 1.4736     | 1.6952     | 2.02       |   8.9 |  0.28
Kspace  | 284.95     | 294.27     | 303.63     |  32.9 | 49.00
Neigh   | 0.33309    | 0.35223    | 0.37544    |   2.2 |  0.06
Comm    | 77.291     | 85.467     | 93.402     |  49.1 | 14.23
Output  | 0.53759    | 0.53791    | 0.53912    |   0.1 |  0.09
Modify  | 97.462     | 108.4      | 113.95     |  40.1 | 18.05
Other   |            | 33.51      |            |       |  5.58

Nlocal:        120.000 ave         125 max         116 min
Histogram: 3 0 1 3 2 2 2 2 0 1
Nghost:        4289.38 ave        4330 max        4248 min
Histogram: 3 0 0 2 3 2 1 2 2 1
Neighs:        43757.8 ave       45565 max       42002 min
Histogram: 2 1 1 2 1 2 4 1 1 1

Total # of neighbors = 700125
Ave neighs/atom = 364.64844
Ave special neighs/atom = 2.0000000
Neighbor list builds = 554
Dangerous builds = 0

unfix		3
unfix		2
unfix		1

write_data	data.final.${pid}
write_data	data.final.0
System init for write_data ...
PPPM initialization ...
  extracting TIP4P info from pair style
  using 12-bit tables for long-range coulomb (../kspace.cpp:340)
  G vector (1/distance) = 0.3752293
  grid = 30 30 30
  stencil order = 5
  estimated absolute RMS force accuracy = 0.0031795511
  estimated relative force accuracy = 9.5751236e-06
  using double precision FFTW3
  3d grid and FFT values/proc = 7920 1800
Last active /omp style is kspace_style pppm/tip4p/omp
WARNING: Not all mixed pair coeffs generated from mixing. Use write_data with 'pair ij' option to store all pair coeffs. (../write_data.cpp:312)

write_restart   restart.lmp.${pid}
write_restart   restart.lmp.0
System init for write_restart ...
PPPM initialization ...
  extracting TIP4P info from pair style
  using 12-bit tables for long-range coulomb (../kspace.cpp:340)
  G vector (1/distance) = 0.3752293
  grid = 30 30 30
  stencil order = 5
  estimated absolute RMS force accuracy = 0.0031795511
  estimated relative force accuracy = 9.5751236e-06
  using double precision FFTW3
  3d grid and FFT values/proc = 7920 1800
Last active /omp style is kspace_style pppm/tip4p/omp
Total wall time: 0:10:00
