LAMMPS (30 Jul 2021)
Processor partition = 1
  using 1 OpenMP thread(s) per MPI task
using multi-threaded neighbor list subroutines
variable        pid world 0 1
variable        phase world IceII IceIII

shell cd ${phase}
shell cd IceIII
include Restart.lmp
echo both
log log.lammps
#include		in.partitions
include		in.temp
variable        temperature equal 67.40
variable	tempDamp equal 100.0
include		in.pressure
variable        pressure equal 168.8
variable        pressureDamp equal 1000.0 # This is 1 ps
include		in.seed
variable        seed equal 745823

units		real
atom_style	full

read_restart	restart.lmp.${pid}
read_restart	restart.lmp.1
Reading restart file ...
  restart file = 30 Jul 2021, LAMMPS = 30 Jul 2021
  restoring atom style full from restart
  orthogonal box = (0.028500846 -0.0065499041 -0.12541709) to (19.971500 20.006551 20.825415)
  4 by 4 by 4 MPI processor grid
  restoring pair style lj/cut/tip4p/long/omp from restart
  restoring bond style harmonic/omp from restart
  restoring angle style harmonic/omp from restart
  972 atoms
  648 bonds
  324 angles
Finding 1-2 1-3 1-4 neighbors ...
  special bond factors lj:    0        0        0       
  special bond factors coul:  0        0        0       
     2 = max # of 1-2 neighbors
     1 = max # of 1-3 neighbors
     1 = max # of 1-4 neighbors
     2 = max # of special neighbors
  special bonds CPU = 0.004 seconds
  read_restart CPU = 0.014 seconds
include 	in.setup
variable	out_freq equal 1000
variable	out_freq2 equal 10000
variable	out_freq3 equal 1000

timestep	2.0

neigh_modify    delay 7 every 1

include		in.tip4p
# This is TIP4P/Ice

# create groups ###
group ox type 2
324 atoms in group ox
group hy type 1
648 atoms in group hy

# set charges - beside manually ###
set group ox charge -1.1794
Setting atom values ...
  324 settings made for charge
set group hy charge 0.5897
Setting atom values ...
  648 settings made for charge

# ### TIP3P Potential Parameters ###
pair_style lj/cut/tip4p/long/omp 2 1 1 1 0.1577 8.5
pair_coeff 1 1*2 0.000 0.000
pair_coeff 2 2 0.21084 3.1668
bond_style  harmonic
bond_coeff  1 450 0.9572
angle_style harmonic
angle_coeff 1 55 104.52
kspace_style pppm/tip4p/omp 1.0e-5
pair_modify tail yes

thermo          ${out_freq}
thermo          1000
thermo_style    custom step temp pe etotal epair emol press lx ly lz vol pxx pyy pzz pxy pxz pyz enthalpy

restart 	${out_freq3} restart.lmp.${pid} restart2.lmp.${pid}
restart 	1000 restart.lmp.${pid} restart2.lmp.${pid}
restart 	1000 restart.lmp.1 restart2.lmp.${pid}
restart 	1000 restart.lmp.1 restart2.lmp.1


include         in.dump
dump            myDump all atom ${out_freq2} dump.water.${pid}
dump            myDump all atom 10000 dump.water.${pid}
dump            myDump all atom 10000 dump.water.1
dump            myDump2 all dcd ${out_freq2} dump.dcd
dump            myDump2 all dcd 10000 dump.dcd
dump_modify     myDump append yes
dump_modify     myDump2 append yes


variable natoms 	equal  "count(all)"                        # NUMBER ATOMS
variable H      	equal  "enthalpy/v_natoms"                 # ENTHALPY-per-atom
variable Vol      	equal  "vol/v_natoms"                 # volume-per-atom
fix AVG all 		ave/time ${out_freq} 1 ${out_freq} v_Vol v_H file vol_enthalpy.dat
fix AVG all 		ave/time 1000 1 ${out_freq} v_Vol v_H file vol_enthalpy.dat
fix AVG all 		ave/time 1000 1 1000 v_Vol v_H file vol_enthalpy.dat


timer           timeout 02:55:00 every 1000
New timer settings: style=normal  mode=nosync  timeout=02:55:00

fix 		1 all shake 1e-6 200 0 b 1 a 1
Finding SHAKE clusters ...
       0 = # of size 2 clusters
       0 = # of size 3 clusters
       0 = # of size 4 clusters
     324 = # of frozen angles
  find clusters CPU = 0.001 seconds
fix             2 all nph aniso ${pressure} ${pressure} ${pressureDamp}
fix             2 all nph aniso 168.8 ${pressure} ${pressureDamp}
fix             2 all nph aniso 168.8 168.8 ${pressureDamp}
fix             2 all nph aniso 168.8 168.8 1000
fix             3 all temp/csvr ${temperature} ${temperature} ${tempDamp} ${seed}
fix             3 all temp/csvr 67.4 ${temperature} ${tempDamp} ${seed}
fix             3 all temp/csvr 67.4 67.4 ${tempDamp} ${seed}
fix             3 all temp/csvr 67.4 67.4 100 ${seed}
fix             3 all temp/csvr 67.4 67.4 100 745823


run             250000
PPPM initialization ...
  extracting TIP4P info from pair style
  using 12-bit tables for long-range coulomb (../kspace.cpp:340)
  G vector (1/distance) = 0.37226542
  grid = 24 24 25
  stencil order = 5
  estimated absolute RMS force accuracy = 0.00342444
  estimated relative force accuracy = 1.0312599e-05
  using double precision FFTW3
  3d grid and FFT values/proc = 2366 288
Last active /omp style is kspace_style pppm/tip4p/omp
Neighbor list info ...
  update every 1 steps, delay 7 steps, check yes
  max neighbors/atom: 2000, page size: 100000
  master list distance cutoff = 10.8154
  ghost atom cutoff = 10.8154
  binsize = 5.4077, bins = 4 4 4
  1 neighbor lists, perpetual/occasional/extra = 1 0 0
  (1) pair lj/cut/tip4p/long/omp, perpetual
      attributes: half, newton on, omp
      pair build: half/bin/newton/omp
      stencil: half/bin/3d
      bin: standard
Setting up Verlet run ...
  Unit style    : real
  Current step  : 7750000
  Time step     : 2
  Walltime left : 2:54:59.90
Per MPI rank memory allocation (min/avg/max) = 9.228 | 9.231 | 9.237 Mbytes
Step Temp PotEng TotEng E_pair E_mol Press Lx Ly Lz Volume Pxx Pyy Pzz Pxy Pxz Pyz Enthalpy 
 7750000     73.11737   -5124.1377   -4983.1247   -5124.1377            0    159.97233    19.942999    20.013101    20.950832    8361.9224    338.73742    104.61977    36.559787     148.9788   -420.04939    204.22279    -4963.616 
 7751000    68.358689   -5121.7633   -4989.9279   -5121.7633            0   -120.18246    20.087326    20.030956     20.78672    8363.9178   -557.95802    347.12954    -149.7189   -217.20096   -106.62133    665.99866   -5004.5876 
 7752000    67.720296   -5118.9045   -4988.3002   -5118.9045            0  -0.31767839    19.975643    20.024443     20.97744    8390.9994   -7.3003715   -451.80431    458.15165    207.81553   -169.04544    326.28825   -4988.3391 
 7753000    65.561543   -5116.9288   -4990.4879   -5116.9288            0    934.56316    20.068944    19.853827     20.93752    8342.4569    405.05767    1626.2748    772.35704   -421.39886    15.278888    461.41891   -4876.7831 
 7754000    64.155483   -5120.7946   -4997.0654   -5120.7946            0    320.55285    20.116457    19.958222    20.786293    8345.4622   -134.34476    343.30533    752.69799   -70.121974    568.29743   -17.127535   -4958.0509 
 7755000    66.916223   -5118.3888   -4989.3353   -5118.3888            0    83.612595     20.03138    19.937527    20.968198    8374.1987    1189.0055   -892.15003   -46.017682   -34.927068    617.90771   -270.29032   -4979.1237 
 7756000    66.923858   -5114.2258   -4985.1575   -5114.2258            0    138.89655    19.986706    19.987017    20.921724    8357.6978   -879.96295    1236.7226    59.930043   -56.293471   -169.23421    92.714461   -4968.2276 
 7757000    66.328898    -5117.464   -4989.5431    -5117.464            0    335.63131      19.9919    19.890226    21.061049     8374.787   -469.70721    1358.7037     117.8974    50.407975    298.45017    380.25041   -4948.5499 
 7758000     67.64426   -5117.1457    -4986.688   -5117.1457            0     -885.603    20.130908    19.941524    20.990957    8426.6308   -582.47233   -717.06396   -1357.2727     82.27795    25.325274    105.39153   -5095.5231 
 7759000    71.669907   -5119.7984   -4981.5769   -5119.7984            0    338.97297    20.015858    20.011018     20.91139    8375.7996      383.909    99.968684    533.04124   -128.03407    769.35139   -642.33485   -4940.1706 
 7760000    69.352624   -5119.3378   -4985.5854   -5119.3378            0   -110.34284    20.070309    19.980035    20.931253    8393.5474   -51.537128    484.78538   -764.27677   -87.792288    72.297662    901.90039   -4999.0926 
 7761000    68.809555   -5122.2909   -4989.5859   -5122.2909            0    572.25649    19.950115     19.95036    20.931642    8331.0441    98.472823    1389.6959    228.60074   -198.51233   -129.72044   -110.44338   -4920.0569 
 7762000    69.247083   -5110.5645   -4977.0157   -5110.5645            0    348.56117    19.968571    19.912663    21.034201     8363.775    773.19876    480.74838   -208.26362   -115.25839    88.272126    428.52181   -4934.4992 
 7763000    71.295727   -5117.4624   -4979.9626   -5117.4624            0   -423.60411    19.990416     20.01645    20.949257    8382.5762    124.22764   -913.85148   -481.18849    277.09487   -166.66214    284.63837   -5031.7488 
 7764000    65.362952   -5116.0703   -4990.0123   -5116.0703            0    212.85897     20.02805    19.999072    20.909737    8375.2366    30.108627    459.65472    148.81356    217.65259    535.69376   -63.338465   -4964.0128 
 7765000    71.880752   -5129.4191    -4990.791   -5129.4191            0   -417.59868    20.007878    20.053435    20.799845     8345.453   -1069.4575     109.0005    -292.3391   -212.73439    223.79292   -178.16465   -5041.6169 
 7766000    66.382365    -5117.952    -4989.928    -5117.952            0   -424.89544    20.057138    20.000313    20.845865    8362.2988   -806.21909   -60.040691   -408.42656   -335.91638   -231.77656    -322.1128   -5041.7464 
 7767000    66.865071    -5117.808   -4988.8531    -5117.808            0    647.69224    19.968964    20.022591    20.953547     8377.865    593.64803    496.57698    852.85171   -274.12956    520.26898    213.23295   -4909.7164 
 7768000    63.646109   -5118.4152   -4995.6684   -5118.4152            0    -85.31407    19.971313    19.963419     21.02409     8382.214   -118.02228   -143.67059    5.7506603   -19.606288    301.06572    312.08159   -5006.0977 
 7769000    65.815792   -5116.2473    -4989.316   -5116.2473            0    585.13488    19.819775    19.957419     21.18749     8380.745    1329.7608    878.52216   -452.87828    170.77251    392.62788    613.51646   -4917.7981 
 7770000    69.357629   -5124.4478   -4990.6858   -5124.4478            0   -735.34119    20.063196     20.05741    20.873809    8399.9496   -1433.6233   -470.00271    -302.3976   -176.37344   -238.41009    325.77247   -5080.7685 
 7771000      65.6385   -5120.6238   -4994.0344   -5120.6238            0    734.92766    20.020536    19.857454    20.997687    8347.7746    373.53104    1042.6074    788.64452   -118.05248    199.81771   -331.81512   -4904.5616 
 7772000      70.1421   -5123.3588   -4988.0838   -5123.3588            0    180.60431    20.009423    19.942707    20.949314    8359.6572   -416.82367     972.9074   -14.270796   -19.984876   -169.41743    283.73387   -4966.0651 
 7773000    65.488463   -5120.5028   -4994.2028   -5120.5028            0   -635.45734    20.070892    19.991754    20.862677    8371.1981    358.42008   -1169.9998   -1094.7923   -127.70853   -115.30534    326.46371   -5071.7828 
 7774000    70.917615   -5114.7128   -4977.9422   -5114.7128            0    -495.7942    20.038451    20.000243    20.879013    8367.7632   -166.59221   -995.37965   -325.41075   -259.99814    -473.6876    71.526091   -5038.4466 
 7775000    68.980285   -5115.6143     -4982.58   -5115.6143            0    339.14998    20.112908    19.947301    20.872378    8373.9614   -385.16313    683.42606    719.18701   -62.905216    31.943657    207.92503   -4941.1611 
 7776000    68.305898   -5115.4997   -4983.7661   -5115.4997            0   -378.61178    20.096066    20.028006    20.896064     8410.334    -966.9616    -108.4501   -60.423637   -288.16443    530.63171    180.00634   -5030.2051 
 7777000    68.008074   -5112.1964   -4981.0371   -5112.1964            0    262.03319     20.00521    19.929524    20.973305    8361.9374    1107.0711   -494.03532    173.06382    2.2649376    939.07055    46.695541   -4949.0821 
 7778000    65.594212   -5121.1488   -4994.6449   -5121.1488            0    1144.5474    20.046739    19.922263    20.893664    8344.4367    804.99941    1846.8102    781.83278   -28.694149    704.24386   -362.32495   -4855.3591 
 7779000      65.3427   -5112.4306   -4986.4117   -5112.4306            0   -536.37353    20.000847    20.067365    20.835327    8362.5563   -1259.4249    -627.6243     277.9286    55.158707    139.69498    87.408403   -5051.8275 
 7780000    69.443551    -5118.304   -4984.3763    -5118.304            0   -27.775065    20.038803    20.053683    20.797975    8357.7039   -104.25591    -593.4369    614.36761    47.370126    185.82865    784.09761   -4987.7617 
 7781000    66.097966   -5107.5996   -4980.1241   -5107.5996            0   -17.837233    20.084266    20.072559    20.831375    8398.0149   -156.82176   -79.162074    182.47214   -478.52328    508.70483    208.83631   -4982.3087 
 7782000    67.886033   -5114.0671   -4983.1432   -5114.0671            0    211.05199    20.010014    20.034061    20.736593    8312.9238   -9.3155233    302.95976    339.51172   -226.59298    744.38066   -186.53324   -4957.5562 
 7783000    66.290459   -5114.9652   -4987.1184   -5114.9652            0    129.74394    20.016758     20.03647    20.933207    8395.5802    225.89576   -43.274169    206.61023   -676.07854   -23.293831   -386.16294   -4971.2325 
 7784000     67.54957   -5123.8296   -4993.5546   -5123.8296            0   -322.86874    19.904542    20.014582    20.940172    8342.1684    423.62352   -764.31432   -627.91542    10.365366   -295.06068    174.75867   -5032.8354 
 7785000    67.730371   -5131.3627    -5000.739   -5131.3627            0    457.63363    19.905763    20.046506    20.869653    8327.8472    964.21925    188.75215    219.92949   -235.35089    289.61971   -285.60195    -4945.158 
 7786000    62.575888   -5117.2051   -4996.5222   -5117.2051            0    37.486367       20.052    19.996333    20.902564    8381.2271   -507.09605    516.19781    103.35734   -156.92529    339.46462      474.117   -4991.9402 
 7787000     68.74153   -5122.2148    -4989.641   -5122.2148            0   -28.353128     19.96786    19.998003     20.91791    8352.8837    820.67058   -771.60509   -134.12487    71.203604    162.69171   -1001.6588   -4993.0949 
 7788000    67.215605   -5112.8487   -4983.2178   -5112.8487            0    865.72515    20.031324    19.983403    20.839232      8341.82    778.79621     705.9397    1112.4395   -41.935885   -424.88818    941.83798   -4877.8963 
 7789000    65.985141   -5118.4399    -4991.182   -5118.4399            0    664.20965     20.05699    19.947913    20.773916    8311.5416    202.66877    899.57356    890.38663   -431.72658   -54.770525    150.34805   -4910.6696 
 7790000    69.176909   -5124.6014   -4991.1879   -5124.6014            0    217.58197    20.000886    19.975762    20.988141    8385.4534   -157.49018    919.89581   -109.65972   -143.33426    1550.2528   -222.41197   -4964.5791 
 7791000    65.857711   -5112.5941   -4985.5819   -5112.5941            0   -510.45304    20.049554    19.995694    20.967299    8405.8893   -341.30571   -874.41182    -315.6416    95.899225    216.54478   -584.59237    -5048.159 
 7792000     68.69258   -5124.8049   -4992.3255   -5124.8049            0    90.067506     20.03643     19.98627    20.833254    8342.7496   -344.63933    341.12553    273.71632   -2.9993709   -301.74818    100.01187   -4981.3669 
 7793000    69.445912   -5116.8126   -4982.8804   -5116.8126            0    252.29113    20.077452    19.860569    20.979776    8365.6777   -9.3754321    638.96677    127.28206    381.33307   -47.036825    349.03003   -4952.0996 
 7794000    64.081289   -5120.5076   -4996.9214   -5120.5076            0    495.38792    19.960525    20.038393    20.851346    8340.0557    825.24359    341.97729    318.94287   -287.75654    437.79175   -76.449704   -4936.6668 
 7795000    64.875927   -5122.6176    -4997.499   -5122.6176            0    12.324641    19.994769    19.984755     21.00093    8391.7733   -249.58666    331.92056   -45.359974   -23.222996   -226.76461   -49.757214   -4995.9906 
 7796000    66.972914    -5121.494   -4992.3311    -5121.494            0     678.2853    20.047866    19.934508     20.82381    8322.1175   -1042.6504    2136.1531    941.35321   -418.65214    779.74311    431.99843   -4910.0079 
 7797000    66.895592   -5118.3647   -4989.3509   -5118.3647            0    1007.1768    20.052877    19.901124    20.879287    8332.3973    610.88546    658.82389    1751.8212   -334.93502    425.39064    31.036728   -4866.9593 
 7798000    68.289253   -5129.2158   -4997.5142   -5129.2158            0    1208.8534    20.019603    19.967826    20.922452    8363.7075      1174.43    1372.6524    1079.4777    131.52128    899.22172    513.16463    -4850.063 
 7799000    66.362714   -5113.7726   -4985.7866   -5113.7726            0    484.19184    19.986906      19.9626    20.936251    8353.3676    608.35038    792.51791    51.707236   -254.22243   -460.35946   -93.516955   -4926.7997 
 7800000     67.92458   -5125.8104   -4994.8121   -5125.8104            0    220.73281    20.046447    19.865012    21.015127    8368.7052    50.050322    817.67423   -205.52613   -218.10184    593.25622    213.19689   -4967.8719 
 7801000    67.943144   -5101.5804   -4970.5464   -5101.5804            0     44.89842    20.098575    19.926945    20.871026    8358.9127   -1241.3864    700.23145    675.85018    62.477622    309.91929   -144.78317    -4965.073 
 7802000    64.252946   -5118.1015   -4994.1843   -5118.1015            0    299.00729    20.013754    20.012546    20.883677    8364.4592    1419.4394   -1266.6574     744.2399   -151.29019    194.49416    50.476392   -4957.7093 
 7803000     65.25652   -5123.6374   -4997.7847   -5123.6374            0     -253.183    19.957202    20.013645    21.035841    8402.0589    109.74131   -584.06024   -285.23006    -176.7837    73.041367   -245.03397   -5028.8086 
 7804000    70.223359   -5119.0068   -4983.5751   -5119.0068            0    543.02451    19.957456     19.93722    20.987767    8350.9526   -270.93641    1281.9662    618.04378   -78.455215    451.57384   -63.406926   -4917.4401 
 7805000    68.919906   -5120.0288   -4987.1109   -5120.0288            0    56.250429     19.98302    19.933973    21.019252    8372.8295   -103.79853    665.45656   -392.90674    211.94816    406.78571    229.23625   -4980.2422 
 7806000    70.448005   -5111.9181   -4976.0532   -5111.9181            0   -285.03434     20.05814    19.946877     20.98519    8396.1168   -741.95625    329.52863   -442.67541   -24.226555     -119.741    184.64711   -5010.9553 
 7807000    63.010894   -5118.6714   -4997.1496   -5118.6714            0    221.37727    20.058889    20.006228    20.880262    8379.3054   -675.78303    605.89371    734.02112   -159.81491   -742.46767   -609.67548   -4970.0965 
 7808000    70.947949   -5124.4384   -4987.6093   -5124.4384            0    211.97621     20.16336    19.917928    20.699778    8313.2864   -623.02222    274.13298    984.81788   -97.297466    91.498095   -482.41033   -4961.9091 
 7809000    65.511982   -5117.2621   -4990.9167   -5117.2621            0    257.22754    20.002069     19.94143    20.952891    8357.4767   -117.91773    1139.2262   -249.62581    477.26313    312.81873    288.60444   -4959.5645 
 7810000    68.836166   -5122.4513    -4989.695   -5122.4513            0    570.43433    20.004093    19.934823    20.840506     8310.736     607.9999    380.87267    722.43043    241.05671    815.78231   -558.83808   -4920.5563 
 7811000    66.370549   -5114.5354   -4986.5342   -5114.5354            0    204.66175    20.029334    19.881361    21.006152    8364.8684   -104.72516    633.96277    84.747645    279.79513   -103.28436   -36.031306   -4961.5669 
 7812000    72.130449   -5115.5813   -4976.4717   -5115.5813            0    228.01784    20.032919    19.947089    20.893294    8348.9271    553.48709    94.541973    36.024467    103.92962   -368.48895   -113.42562   -4948.7081 
 7813000     65.59108   -5110.2705   -4983.7726   -5110.2705            0   -280.37179    19.987622    20.155297    20.868126    8406.8592    331.47391   -966.87256   -205.71672   -9.0798315    111.06754   -1034.0313   -5018.1477 
 7814000    68.048765    -5120.709   -4989.4712    -5120.709            0   -469.32424    20.007002    20.070335    20.951322    8412.9454   -176.64793   -657.04646   -574.27834   -73.285442    718.39508     1003.218   -5047.0546 
 7815000    68.201383   -5123.7176   -4992.1855   -5123.7176            0    1523.1829    19.993517    19.958198    20.803179    8301.1872     852.7541    1806.1788    1910.6157   -72.093416   -314.13339   -294.36967   -4807.7825 
 7816000    70.203246   -5114.4601   -4979.0672   -5114.4601            0  -0.47503145    19.956961    20.000469    20.921392    8350.7438    95.241511   -405.22226    308.55565   -114.66346    -257.6886    372.98592   -4979.1251 
 7817000    68.056247   -5126.8714   -4995.6192   -5126.8714            0    -301.2416    20.063489    19.979694    20.897661    8377.0858   -280.14616   -696.36968    72.791033   -250.99336    156.72725     527.7112   -5032.4223 
 7818000    66.461869   -5117.5626   -4989.3853   -5117.5626            0   -33.796267    19.991551    20.024349    21.008304    8409.9978   -87.850571   -93.580664    80.042434   -8.4675767    717.34836    39.951055   -4993.5304 
 7819000    64.739878   -5123.4743    -4998.618   -5123.4743            0    274.94158    20.073119    19.870087    20.884723    8329.9685   -159.26536     1150.773   -166.68286   -221.87504    -17.47032   -344.15324   -4965.2169 
 7820000    67.634391   -5116.5179   -4986.0793   -5116.5179            0   -256.60027    20.132605    19.967667    20.891911     8398.572   -998.88457    147.75642    81.327354   -293.53463     479.7706   -125.32492   -5017.5089 
 7821000    68.406136   -5117.8089   -4985.8819   -5117.8089            0   -54.812595    20.081313    19.873942    20.886866    8335.8406   -1263.6027    1143.5827   -44.417881    182.43438    22.376648   -148.98868   -4992.5454 
 7822000     71.17008   -5112.6357   -4975.3782   -5112.6357            0    619.29275    20.004915     19.98834    20.833321    8330.5168    41.728509     919.7981    896.35163   -112.79132    121.49659    91.207934   -4900.1391 
 7823000    66.968454   -5129.7149   -5000.5606   -5129.7149            0    -307.3463    20.084049    19.957186    20.919894    8385.1346   -923.29183   -107.78213    109.03507   -377.59528    10.837927   -504.01895   -5038.1455 
 7824000    64.577479   -5119.2757   -4994.7326   -5119.2757            0    262.30959    19.975572    20.062061    20.928523    8387.1294   -30.890015    84.935871    732.88293   -373.03592   -182.06099      -516.93   -4962.6475 
 7825000    68.280208   -5126.5125   -4994.8284   -5126.5125            0   -207.05302    20.065779    20.018298     20.81148    8359.6122    63.685815    -1232.135    547.29009   -211.17494   -213.28374   -173.92841   -5020.0716 
 7826000    65.803768   -5117.6687   -4990.7606   -5117.6687            0   -13.017934    20.044629     19.89407    20.978609    8365.6243   -922.74485     1274.094   -390.40297   -611.34598    -54.21835   -164.27566   -4992.3488 
 7827000    63.614956   -5124.1997   -5001.5129   -5124.1997            0   -167.14146    20.030607    19.994208     20.81663    8336.9797    499.32794   -802.76868   -197.98365    22.253849    358.69684    610.92535    -5021.835 
 7828000    70.489492   -5115.9661   -4980.0212   -5115.9661            0    143.17827    19.947643     20.03498    20.992846    8389.8042    335.53314    536.59221   -442.59055   -28.363954    334.37926   -93.412184   -4962.5024 
 7829000    66.600717   -5123.4041    -4994.959   -5123.4041            0     123.5366     20.02538     20.03287    20.858901    8367.8782   -82.710472    200.53702    252.78324   -261.12836     340.0507    89.122956    -4979.883 
 7830000    69.009669   -5116.8448   -4983.7538   -5116.8448            0    357.60675     19.98312    19.939306    20.990652    8363.7156    87.407767    128.76585    856.64663   -170.71412    414.02091    209.87797   -4940.1343 
 7831000    67.214067   -5116.0218   -4986.3938   -5116.0218            0     -78.6416     20.06579     19.83109    21.014466    8362.2126   -141.73405    658.60289   -752.79364   -44.016404    293.44297    293.77465   -4995.9845 
 7832000    65.462872   -5122.7245   -4996.4738   -5122.7245            0    245.39918    20.011396      19.9733    20.846053    8332.0345    494.77564   -106.27217    347.69407    139.85475    379.20001    635.06433   -4966.6543 
 7833000    68.012428   -5116.3849   -4985.2172   -5116.3849            0    1010.8448    19.974166    19.963559     20.92743    8344.9266    2111.7481    -151.3495    1072.1359   -110.31598    443.83151    215.91026   -4862.1952 
 7834000     70.56907     -5116.77   -4980.6717     -5116.77            0    273.59277    19.959924    20.076721    20.822384    8344.1502    424.41777    -147.7458    544.10634   -84.180818    344.51261   -799.50658   -4947.3779 
 7835000    63.334592   -5115.3656   -4993.2196   -5115.3656            0    6.4037253    19.957592    20.032849    20.929437    8367.7441    593.26731    -817.1175    243.06136    -118.6612    605.49758    9.0305721   -4992.4381 
 7836000    66.589569   -5120.6151   -4992.1915   -5120.6151            0   -94.683262    19.957465    20.038719    20.888834    8353.9051   -56.607295   -400.76367    173.32118    246.37748    184.23988    668.55053   -5003.7271 
 7837000    63.860607   -5116.2711   -4993.1105   -5116.2711            0   -758.09952    19.980108    20.104296    20.895877    8393.5814   -96.252101   -1084.8191   -1093.2274   -189.67738    405.09889   -65.737861   -5085.9108 
 7838000    70.005193   -5124.7104   -4989.6995   -5124.7104            0   -581.86853    20.000559    20.094855    20.992248    8436.9593   -222.35019   -1437.6126   -85.642828   -5.7968285   -340.93306   -607.99027   -5061.2952 
 7839000    63.259828   -5123.1792   -5001.1773   -5123.1792            0   -196.54007    20.011675    19.967289    20.986947    8385.9413   -488.37531   -219.42755    118.18266   -360.52336   -508.65473    147.38981   -5025.2142 
 7840000    67.810442   -5121.4423   -4990.6641   -5121.4423            0    253.23804    19.987596    20.012567    20.881449    8352.6443    328.23603   -492.62573    924.10383   -89.126121   -534.93264   -25.479296    -4959.816 
 7841000     65.30421      -5119.3   -4993.3554      -5119.3            0    267.64167    20.101532    19.984249    20.777744    8346.7109    132.08535   -206.15119    876.99086   -304.08433    557.13301    71.576404   -4960.7758 
 7842000    68.676782   -5125.9535   -4993.5046   -5125.9535            0  -0.27117827    20.091574    19.936595    20.841845     8348.359   -1212.7975    434.70908    777.27484   -219.05187    406.33932    274.40455   -4993.5376 
 7843000     68.77057   -5115.1145   -4982.4847   -5115.1145            0    -710.4422    20.019991    19.962181    20.936848    8367.2577   -1282.1072   -357.65925   -491.56016   -36.279338     533.7181   -601.08008   -5069.1785 
 7844000    66.353094   -5117.7776   -4989.8101   -5117.7776            0    19.351301    20.068739    19.987817    20.903069    8384.8541   -697.59729    860.90188   -105.25069     239.4809    332.90634    274.34795   -4987.4438 
 7845000    64.386616   -5124.9138   -5000.7388   -5124.9138            0   -848.67676    20.049835    20.011328    21.052419    8446.7319   -557.28293   -898.57379   -1090.1735   -297.93638    812.51218   -216.36971   -5105.2846 
 7846000    67.307803   -5117.6857    -4987.877   -5117.6857            0    255.60389    19.990679    19.951992    21.015715    8382.1987   -579.74225    1525.9677   -179.41376    268.94288    23.775653   -160.54658   -4956.6305 
 7847000    69.596564   -5124.5725   -4990.3497   -5124.5725            0   -150.20522      20.1364    19.957637    20.824449    8368.8246   -10.190078   -859.34673    418.92116   -15.814631   -468.24935    439.25759   -5008.6824 
 7848000    66.949325    -5120.002   -4990.8846    -5120.002            0   -271.58475    20.042445     19.97606    20.820428    8335.8556    -376.1448   -313.74276   -124.86668    172.79652    646.93431   -529.54719   -5023.9011 
 7849000    68.437405   -5123.0362   -4991.0489   -5123.0362            0    930.63721    20.046341     19.97847     20.74589    8308.6298 -0.094824678    1171.2589    1620.7476    158.56431     218.0262    279.57603   -4878.2809 
 7850000    67.691063   -5121.6766   -4991.1287   -5121.6766            0    851.06768    20.040654    19.875441     20.93288    8337.9185    1138.1605    1063.5022    351.54036    99.144313   -235.59564   -397.09189   -4887.6389 
 7851000    65.489778   -5126.5542   -5000.2516   -5126.5542            0    242.31336     19.98464    20.026379     20.92044    8372.7781     943.8292    44.604658   -261.49377   -333.72286    306.09547   -223.99246   -4970.6631 
 7852000    65.827038    -5115.371    -4988.418    -5115.371            0   -255.16242    20.028047    20.092557    20.857885    8393.5186   -17.508467    -629.3989   -118.57989    112.28053    215.48958   -329.95955   -5019.6527 
 7853000    67.656492   -5114.7953   -4984.3141   -5114.7953            0   -405.75287     20.00157    19.993247    20.977116    8388.6715   -723.84843    311.74715   -805.15731    6.5702113   -334.16993    374.95675    -5033.954 
 7854000    69.472712   -5120.4244   -4986.4404   -5120.4244            0     393.7398    20.027821    20.016902    20.774676     8328.462    340.05841    66.838684     774.3223    242.27831   -128.77282    99.832501    -4938.616 
 7855000    69.221271   -5112.4761    -4978.977   -5112.4761            0     1083.844    20.038071    19.962334    20.798179    8319.4101     215.0506    1697.0988    1339.3825    375.90826    143.50858    665.61743   -4847.4742 
 7856000    65.701299   -5121.4279   -4994.7174   -5121.4279            0   -687.08498     20.07056    19.907812    20.933652    8364.2693   -825.43395    84.163486   -1319.9845   -389.21609    697.26191    21.106294    -5078.531 
 7857000    66.725767   -5117.7551   -4989.0688   -5117.7551            0   -375.52112    20.075761    20.022325    20.846068    8379.3568    320.13196   -938.86259   -507.83273    58.756628     83.12688    294.96246   -5034.9591 
 7858000    69.541571   -5116.8992   -4982.7824   -5116.8992            0    31.636558     19.99087    20.005938    20.874597    8348.5053    -596.8288    908.42256   -216.68408     -227.204    447.40183   -456.40135   -4978.9305 
 7859000    68.451209   -5121.6623   -4989.6484   -5121.6623            0    603.74089    20.056863     19.86684    20.986093    8362.2551    -110.8363    1581.4887    340.57025    6.1938725    1051.2024    702.79362   -4916.0192 
 7860000    70.465389   -5118.1199   -4982.2214   -5118.1199            0   -377.34155    20.032133    20.013448    20.885856    8373.3913   -381.79669   -864.20061    113.97266      168.799   -624.03449   -335.65728   -5028.3014 
 7861000    67.837685   -5111.9128   -4981.0821   -5111.9128            0    96.011473    19.942818     20.05391    20.893277    8355.8791    958.62159   -981.42977     310.8426    -231.7056    36.259484    78.145853    -4969.382 
 7862000    67.474044   -5115.0556   -4984.9262   -5115.0556            0     368.9164    19.972596    19.948141    21.023631    8376.1543    519.06061    879.81594   -292.12736    82.643898    449.34286   -72.550111   -4939.8603 
 7863000    66.130849   -5122.5286   -4994.9897   -5122.5286            0   -488.17283    20.063351     20.00349    20.926655    8398.6417   -415.69869   -781.56128   -267.25853    151.29762    360.96046   -917.36874   -5054.7838 
 7864000    67.396917   -5114.1476    -4984.167   -5114.1476            0   -430.31043    20.088033    20.028274     20.88257    8401.6557   -704.69323   -763.82824    177.59019   -21.813866    335.82616    11.766239   -5036.8927 
 7865000    66.299079   -5119.5075   -4991.6441   -5119.5075            0   -335.76003    20.042501    19.962528    20.953355    8383.4161    219.38541   -415.25125   -811.41425   -115.53377   -43.084969    392.91908   -5032.6953 
 7866000    66.132831   -5124.3848    -4996.842   -5124.3848            0    167.89665    20.109293    19.907178    20.852073    8347.4865    317.27414    359.70207   -173.28626   -273.72114    177.26715    509.48124   -4976.4024 
 7867000    64.989431   -5122.6875   -4997.3499   -5122.6875            0   -270.69316    20.053243    20.009617    20.893785    8383.7922   -389.80343   -1162.2163     739.9403   -296.60972   -618.32992   -99.913623   -5030.4473 
 7868000    67.492766   -5123.0981   -4992.9326   -5123.0981            0    -104.5294    20.058305    19.987496    20.866891    8365.8555   -406.28538    25.958351    66.738834    356.86637    239.90347    203.89892   -5005.6859 
 7869000    62.863201   -5118.0395   -4996.8026   -5118.0395            0   -231.59689    20.088614    20.046347    20.823014     8385.497   -1381.7629    673.28493    13.687324     265.1588    584.88124    363.03407   -5025.1255 
 7870000    69.181878   -5123.0985   -4989.6754   -5123.0985            0    133.70896    19.995182    19.947798    20.984346    8369.8133   -111.67802    466.90012    45.904784   -154.60033   -937.64008    3.3437781   -4973.3542 
 7871000    65.127927   -5123.6204   -4998.0157   -5123.6204            0   -248.66199     20.01557    20.017657     20.87606    8364.3032    97.628415   -888.53866    44.924283   -122.79365    39.836632     132.8426   -5028.3487 
 7872000     68.76104   -5114.0643   -4981.4529   -5114.0643            0    817.33347    20.027222    20.022356    20.811836    8345.3836    1726.9368   -99.064607    824.12822    95.585036    863.95442    559.68441   -4881.9761 
 7873000    70.266463   -5125.5062   -4989.9914   -5125.5062            0    -623.9311    19.997001     19.96809    20.942302    8362.3011   -43.826698   -869.10137   -958.86522   -122.69736    400.83492     11.71384   -5066.0833 
 7874000    68.699141   -5121.9126   -4989.4205   -5121.9126            0     99.61002    19.966149    20.046862    20.881228    8357.8921    917.78099   -910.99793      292.047   -60.188718    308.63195    377.96979   -4977.2789 
 7875000    69.669527   -5116.2393   -4981.8757   -5116.2393            0   -173.92644    19.974183    20.024047    20.924295    8368.9644    435.42933   -403.55743   -553.65121    -61.49587   -88.565555   -158.34252   -5003.1039 
 7876000    65.027881   -5122.4606   -4997.0489   -5122.4606            0    187.67616    20.018623    19.978323    20.849011    8338.3226    348.72681    69.082998    145.21867   -23.043863   -195.11001     581.5349   -4974.2264 
 7877000    68.357468   -5123.0465   -4991.2134   -5123.0465            0   -277.70481    20.070574    19.937713    20.995752    8401.6884   -849.14845    52.814421   -36.780406   -141.72852    498.80055   -571.23158   -5025.2406 
 7878000    67.129422   -5122.5834   -4993.1186   -5122.5834            0    704.23342      20.0801    19.956551    20.807449    8338.1591    1363.2884    188.90213    560.50976   -23.113377    130.41548    125.17656   -4907.4814 
 7879000    72.555387   -5119.2285   -4979.2993   -5119.2285            0    94.082022    20.020733    20.010964    20.790092     8329.221    905.79423   -519.77956    -103.7686   -184.64585    334.68094   -296.58923   -4967.8709 
 7880000    67.828942   -5131.4673   -5000.6535   -5131.4673            0    778.44341    20.039154    19.974082    20.766289    8311.9918    1314.7339    196.79045    823.80586    116.93936    128.38124    15.571911   -4906.2891 
 7881000    65.597223   -5126.4283   -4999.9186   -5126.4283            0    560.78474    19.896385    19.923377    20.961732    8309.2972     453.4734    1192.6499    36.230955    67.572911    764.68823   -125.88817   -4931.9612 
 7882000    71.624447   -5118.3703   -4980.2365   -5118.3703            0   -105.99087    19.985414    20.042175    20.915804    8377.8499   -418.96146    389.82795   -288.83908   -51.028383    50.119597    307.75748   -4993.1867 
 7883000    71.892308   -5119.6284    -4980.978   -5119.6284            0    -184.9234    19.952898     19.95424    21.061924    8385.6977    625.91646   -276.12561   -904.56105   -206.00241   -130.76202    178.70142   -5003.5935 
 7884000    65.888559   -5120.9304   -4993.8588   -5120.9304            0    203.92409    20.016814    20.011556     20.81489    8337.7708    992.18692   -754.00371    373.58905   -231.65646   -126.52506    177.66738   -4969.0621 
 7885000    67.545773   -5120.9381   -4990.6704   -5120.9381            0   -179.74879    20.031657    19.942506    20.940479    8365.3326   -803.89217     384.9546   -120.30879   -168.51489   -254.57384    648.37373   -5012.5997 
 7886000    70.949359   -5125.9172   -4989.0854   -5125.9172            0    209.35906    20.041288    19.988686    20.864702    8358.3791   -461.90202   -3.5707858      1093.55    -93.90498   -407.37692    594.94854   -4963.5649 
 7887000    67.119859    -5123.021   -4993.5747    -5123.021            0    506.74418    19.972481    19.906344    20.945243    8327.3904    1321.6044    66.538205    132.08993   -88.651743    859.55258   -315.54591   -4932.0324 
 7888000    66.447772   -5122.8448   -4994.6947   -5122.8448            0   -324.29704    20.045186    19.933929    21.013697    8396.6388     396.2546   -766.50675   -602.63898   -226.95981    506.05085   -169.22568   -5034.4069 
 7889000    62.147876   -5120.5565   -5000.6991   -5120.5565            0    1430.2078    19.935378    19.988405    20.852419    8309.1969    1960.6065    1373.9923    956.02443   -221.15202    331.21412    388.28626    -4827.385 
 7890000    67.304381   -5115.1474   -4985.3453   -5115.1474            0   -365.64823    20.043502    20.064086    20.874839    8394.9113   -426.84755   -983.19671    313.09958   -396.90428    85.178723   -324.07093    -5030.112 
 7891000    66.879146   -5121.7304   -4992.7483   -5121.7304            0   -400.76339    20.098812     19.91047    20.987689    8398.7857   -1662.1018     871.6533   -411.84167   -129.01763    362.02216   -502.36141   -5041.8369 
 7892000    64.504319   -5114.2318   -4989.8298   -5114.2318            0     16.86363    19.928082    20.021965    21.008558    8382.4008    404.81268   -1058.4976    704.27586   -406.00892    313.86368   -191.95897   -4987.7683 
 7893000     64.05456   -5116.8928   -4993.3582   -5116.8928            0   -783.64539    19.948728    20.071567    20.995637       8406.7   -952.76774   -547.16065   -851.00777   -87.081167   -138.41517   -1198.9944   -5089.4356 
 7894000    67.462048   -5118.1409   -4988.0346   -5118.1409            0    745.51592    19.973011    20.041974    20.992476    8403.2582     278.6842    970.10247    987.76108   -19.377842    397.79937    456.85589   -4896.6695 
 7895000    67.575504   -5119.7894   -4989.4644   -5119.7894            0    376.71418    20.010882    20.030521    20.805806    8339.5578     50.22642    544.52474    535.39139    -245.8704    643.08473   -61.126856   -4943.6469 
 7896000    65.549314   -5121.8109   -4995.3936   -5121.8109            0    24.617076     20.00555    20.015712    20.951291    8389.4277   -475.95516    284.23623    265.57016   -342.63245    77.100115    101.41548   -4992.3816 
 7897000    64.844968   -5122.3205   -4997.2616   -5122.3205            0    118.09413    20.032646    19.917927    20.977462    8370.1914    1031.7441    31.906364    -709.3681   -91.003291    535.20635    17.869258   -4982.8457 
 7898000    67.689538   -5126.7427   -4996.1977   -5126.7427            0    426.21266    19.984858    19.907779    21.057087     8377.649    -110.8711    1033.4098    356.09928    81.635483    347.75635    105.08901   -4944.1233 
 7899000    71.154919    -5121.187   -4983.9588    -5121.187            0     1016.789    19.945656     19.98183    20.931582    8342.2966    2148.3861    120.83611     781.1447      147.145    545.68194    278.33981   -4860.2523 
 7900000    66.227122   -5121.3411   -4993.6166   -5121.3411            0   -469.95284    19.945242    19.989944    21.059471    8396.5014    7.9034006   -692.75501   -725.00691   -169.36888   -63.676228   -8.5283845   -5051.1643 
 7901000     70.32631   -5114.3048   -4978.6746   -5114.3048            0    157.03453    19.894828    20.035121    21.062808    8395.5358    1073.1756   -338.17258   -263.89946    367.09086   -43.263503   -167.37977   -4959.4473 
 7902000    65.046134   -5111.2481   -4985.8012   -5111.2481            0    373.87483    20.002892    20.011747    21.023751    8415.6564    173.41585    741.75426    206.45438     206.6677    123.91318   -130.61711   -4939.9142 
 7903000    66.310793   -5119.3641   -4991.4782   -5119.3641            0    249.73086    20.073544    19.914918    20.823264    8324.3701   -59.664363    497.46418    311.39277    248.89885     17.66987     180.2061   -4961.1602 
 7904000    66.496393   -5117.9123   -4989.6684   -5117.9123            0   -17.713999    19.935138    20.016669    20.871711    8328.5443    546.08168   -301.76681   -297.45687    -82.01237     543.4405   -110.28353     -4991.82 
 7905000    68.674743   -5123.6044   -4991.1593   -5123.6044            0   -77.928274    20.063962    19.872666     20.95068    8353.5478       159.58   -318.93871   -74.426113    170.94929    457.86365    -368.8865   -5000.6532 
 7906000    67.420244   -5127.2261   -4997.2004   -5127.2261            0   -560.71811    20.003049    20.034159    20.964047    8401.2218   -266.04177   -1293.0069   -123.10568   -109.36914   -272.98831   -500.40307   -5065.9014 
 7907000    71.317786    -5123.255   -4985.7127    -5123.255            0    432.50016    19.978361    20.057964    20.849024      8354.73   -638.15484     1110.028    825.62733   -312.46028   -396.83263     80.10681   -4933.0146 
 7908000    65.669612   -5125.4568   -4998.8074   -5125.4568            0   -98.826822    20.070538    19.943745    20.925147    8375.9532   -596.65928    155.01321     145.1656   -395.02966    538.87506   -239.50068   -5010.8796 
 7909000    66.339823   -5121.5241   -4993.5821   -5121.5241            0    144.84695    20.090416    19.953722    20.912646    8383.4321   -435.90143    645.49493    224.94736   -3.8008919   -116.08206   -329.26865   -4975.8726 
 7910000    67.660049   -5119.7517   -4989.2636   -5119.7517            0    -293.1506    20.108892    20.006383    20.859821    8392.0353   -882.46699   -62.799941    65.815127   -90.045439    193.70972    280.70092   -5025.1421 
 7911000    68.055885   -5127.1752   -4995.9237   -5127.1752            0   -328.37624    20.091315    19.938351    20.915863    8378.6376    92.915462     -929.699   -148.34517   -230.68477    146.42822    -248.7529   -5036.0493 
 7912000    65.629172   -5114.1583   -4987.5869   -5114.1583            0    979.82982    20.012955    20.031778    20.788221    8333.8951    961.71765    860.06468    1117.7071   -243.62935    16.616475   -502.44559   -4868.4971 
 7913000    68.629107   -5119.0007   -4986.6437   -5119.0007            0   -173.75714    19.848478     20.08491    20.991108    8368.2079    888.24681    -1409.888   0.36976219    94.826386    412.24644    128.83301   -5007.8494 
 7914000    66.543988   -5123.5038   -4995.1682   -5123.5038            0    90.419252    20.041121    20.061613    20.859665     8386.779    709.83843   -949.79826    511.21759   -69.439938    141.92637    186.18919   -4984.1087 
 7915000    68.166364   -5121.3184   -4989.8539   -5121.3184            0    626.30617    20.004953    19.972836    20.967469    8377.6709    1161.9857    366.63621    350.29657    83.122529   -262.40898   -258.87583   -4913.3319 
 7916000    68.571287   -5117.8066   -4985.5611   -5117.8066            0   -336.42562    20.041244    19.935074    21.035531     8404.193    -841.7197    139.67683     -307.234   -137.46138    183.96109    1077.5088   -5026.7957 
 7917000    69.880494   -5124.4949   -4989.7245   -5124.4949            0   -74.040889    19.981729    19.963369    21.016591    8383.5736   -76.028994    605.69385   -751.78752   -287.58456     78.08899   -201.87385   -4998.7772 
 7918000    70.187463    -5116.162   -4980.7996    -5116.162            0    74.341515    19.918251    19.937362    21.091463    8375.7864    40.864942    752.21202   -570.05242   -169.70433    511.00252    580.18625   -4971.7186 
 7919000    70.786102   -5117.2214   -4980.7044   -5117.2214            0    266.39268    20.140952    19.978774    20.797703    8368.8193   -494.32691    421.61948    871.88547   -405.98477    -435.1295   -315.71518    -4948.191 
 7920000    67.192365   -5117.7542   -4988.1681   -5117.7542            0    247.23579       20.022    19.950614    20.892072    8345.3628    793.63412   -10.649819   -41.276938    12.223604    45.651169   -43.445207   -4958.0774 
 7921000    66.523297   -5113.8985   -4985.6028   -5113.8985            0     327.8244    20.136057    19.838266    20.976018    8379.1732   -161.83167    739.11449    406.19039   -505.90565    112.76873    54.319366   -4945.5421 
 7922000    66.214493   -5121.3411   -4993.6409   -5121.3411            0    506.92381     19.97827    20.027017    21.012949    8407.3889    476.13819   -239.73016    1284.3634   -74.957172     1128.857   -534.76771   -4931.4854 
 7923000    64.465098   -5120.7731   -4996.4468   -5120.7731            0   -223.73665    19.907908    20.003647    20.979347    8354.6213    1129.8286   -982.35277   -818.68583   -80.143054   -11.584224    761.72749   -5023.7076 
 7924000     68.11017   -5119.8076   -4988.4514   -5119.8076            0    334.55278     19.86452    19.942149    21.099141    8358.2396    274.91147    971.22995   -242.48309   -54.419958   -252.66646   -507.51894   -4947.6706 
 7925000    67.192257   -5119.0275   -4989.4416   -5119.0275            0   -275.54533    20.029188    20.038593    20.849148    8367.9459   -98.731688   -949.22943    221.32513   -253.35225   -540.07957    426.57331   -5023.0686 
 7926000    68.503511   -5129.1073   -4996.9925   -5129.1073            0    604.10459     19.97412    19.996805    20.911819    8352.5691    1345.3656    422.46127    44.486956    121.21417     209.4532   -600.66419   -4923.4043 
 7927000    66.768052   -5117.6673   -4988.8995   -5117.6673            0    30.320282     20.05535    19.992558      20.8824      8372.96    1204.1051   -1233.2394    120.09523    117.54228    302.52703    660.45137   -4985.1971 
 7928000    65.121774   -5115.6405   -4990.0477   -5115.6405            0    197.34685    19.995449    19.971138    20.977787    8377.0986   -31.830438     153.7289    470.14208   -105.29356    193.39335    999.32765   -4965.9376 
 7929000    68.778911   -5115.3595   -4982.7136   -5115.3595            0    347.18014    20.014951    19.886479    20.907888    8321.9018    199.74149    751.28134    90.517601   -6.9690583    687.32663    93.373719   -4940.5776 
 7930000    71.958036     -5124.39   -4985.6129     -5124.39            0    275.24393    20.003393     19.88945    20.967547    8342.0746    784.00358    141.44591   -99.717697   -322.11485    218.73588    97.063677   -4952.1266 
 7931000    64.252814   -5114.8599    -4990.943   -5114.8599            0    371.80429    20.006276      19.9434    20.874666    8328.8489    327.83523    92.032098    695.54554   -288.68399    289.02024   -235.36528   -4945.7807 
 7932000    66.131771   -5120.0748   -4992.5341   -5120.0748            0     146.0634    19.962873    19.986529    21.031105    8391.1698    350.99307     110.1637    -22.96658    4.6736811    319.65475    547.34191   -4974.6594 
 7933000    63.729434    -5120.419   -4997.5115    -5120.419            0   -382.38381    19.985256    20.007392    20.913227    8362.2132    -508.3667   -274.53505    -364.2497   -563.13297   -12.702257    232.18696   -5044.1448 
 7934000    64.883444   -5122.4399   -4997.3067   -5122.4399            0    658.60396    20.110181    19.984895    20.735107    8333.4366   -101.47337     1189.407    887.87821    245.67249    509.49037    241.81937   -4917.2635 
 7935000    70.434773   -5118.9314    -4983.092   -5118.9314            0   -19.120385    20.037119    19.849136    20.962138    8337.0509    1159.2511   -1185.8042   -30.808101   -40.159288    129.47111   -416.21695   -4985.4168 
 7936000    69.605986   -5117.9643   -4983.7233   -5117.9643            0    262.21997    19.948486    20.038448    20.899251    8354.1975   -378.82911    988.17202    177.31698   -8.8779263    658.46469    108.04373   -4951.7751 
 7937000    66.603596   -5123.1447    -4994.694   -5123.1447            0    273.43034    19.986154    20.011699    20.844227    8336.7926    986.14026   -656.76197    490.91274     6.753204   -444.36799    391.18761   -4961.4494 
 7938000    67.338835   -5116.6276    -4986.759   -5116.6276            0    1080.3291    19.958309    19.958289    20.935426    8339.2852    2131.0638    473.64331    636.28015   -28.377057   -644.38668   -1039.4112   -4855.3694 
 7939000    63.597911   -5117.9356   -4995.2816   -5117.9356            0    342.75071    20.016335    19.867089    21.031385    8363.4734    495.32952    569.13259   -36.209967   -173.73213    434.20546    826.44677   -4953.4754 
 7940000    69.567647    -5114.778   -4980.6109    -5114.778            0    972.90881    19.940895    20.011537    20.973224    8369.3221     1455.808     285.8318    1177.0867   -73.092176   -340.32409     91.45311   -4861.8597 
 7941000    67.291223   -5117.1508   -4987.3741   -5117.1508            0    916.24821    19.887618    20.024274    20.980019    8354.9802    1442.8583   -186.23657    1492.1229    311.01148    602.14443    454.54496   -4875.7303 
 7942000    67.773954   -5117.2828    -4986.575   -5117.2828            0    7.9505505    19.886799    20.078486    20.906309    8347.8225     32.83174   -180.00941    171.02932   -28.919889    452.46094   -9.4802488   -4985.6071 
 7943000    67.120337   -5118.5342    -4989.087   -5118.5342            0    750.23462    20.104184    19.931779    20.859351    8358.5954    738.27953      545.724    966.70034   -182.45785    97.458217    131.26028   -4897.6322 
 7944000     67.40765   -5113.2565   -4983.2551   -5113.2565            0    248.84201    20.028693    19.966762    20.954508    8379.8783   -255.62201    475.52577    526.62227   -270.20788    270.81526   -275.91747   -4952.8437 
 7945000    65.087055   -5114.4208    -4988.895   -5114.4208            0    325.27953      19.9617    19.935249    20.996313    8355.3036    149.63338    781.85844    44.346776   -26.117452    387.35778    599.49478   -4949.2585 
 7946000    66.777841   -5121.3356   -4992.5489   -5121.3356            0   -96.732718    19.925304    20.058867    21.038615    8408.6928    457.40213   -752.76723    5.1669455   -227.99946    273.24142    261.60659   -5004.4114 
 7947000    64.010312   -5112.5371   -4989.0878   -5112.5371            0   -781.06575    20.017239      19.9425      21.0325    8396.0434   -1354.1855   -538.58625   -450.42546    130.37709    365.20231    -54.81637   -5084.7275 
 7948000     67.08015   -5117.1541   -4987.7844   -5117.1541            0    246.02513     19.97547    19.902996     21.04716    8367.7552    492.31779    854.18429   -608.42668   -188.14803   -115.97603    270.65707   -4957.7607 
 7949000    70.007534   -5118.2269   -4983.2115   -5118.2269            0   -119.06499    20.073128    19.987452    20.913676    8390.7902    186.18079    -856.3645    312.98872   -65.270166    191.38613       767.42   -4997.7816 
 7950000    65.907534   -5119.8702    -4992.762   -5119.8702            0    26.909093     20.11009    19.895063    20.898489    8361.3079   -520.99359    222.93891    378.78196   -156.52088    222.92935    52.443841   -4989.4807 
 7951000    64.992695   -5117.7565   -4992.4126   -5117.7565            0     355.7966    19.912645    19.961346    21.040355    8363.1874      1901.07   -454.92208   -378.75818    125.98224    -216.3295   -251.40314   -4949.0167 
 7952000     68.73312   -5121.1487   -4988.5911   -5121.1487            0    542.73815    20.007662    19.928667    20.945346    8351.4546   -11.205201    736.33809    903.08156    158.37822     228.3331    758.12947    -4922.487 
 7953000    65.032687   -5120.3188   -4994.8978   -5120.3188            0    -585.9276    19.914146    20.090347    20.928018    8372.9254    395.34191   -1539.0133   -614.11141    -360.2871    568.43515    409.96067   -5066.4458 
 7954000    67.670527   -5126.4538   -4995.9455   -5126.4538            0    458.00559    19.962539    19.949156    20.950097     8343.079    339.24892     1083.056   -48.288184    352.15308   -122.38864   -410.94423   -4940.2175 
 7955000      65.1216   -5123.5814   -4997.9889   -5123.5814            0   -316.85173    20.133403    19.965051    20.821203    8369.3828   -1473.7793     584.4248   -61.200653    36.406987   -298.53676    499.51842   -5036.6635 
 7956000    64.877517   -5123.3944   -4998.2727   -5123.3944            0    586.70666    20.033743    19.953102    20.870606    8342.7179    615.65421    556.68986    587.77591   -28.129165    541.98768    67.054037   -4926.8881 
 7957000    66.546513   -5116.9741   -4988.6335   -5116.9741            0    314.29793    20.046518    19.887706    20.997071    8371.0969    95.452576    884.26732   -36.826096   -32.546683   -18.078405    397.59883   -4950.2628 
 7958000    69.176265    -5120.485   -4987.0727    -5120.485            0    534.11441    20.010023    19.940301    21.006693    8381.7942    571.81048    398.36876    632.16397    67.552449    125.14896   -252.30549   -4921.7827 
 7959000    66.352189   -5118.1278   -4990.1621   -5118.1278            0   -319.81887    20.022673    20.014518     20.87193    8364.3034   -689.19609    76.021469   -346.28198    16.256536     386.7999    139.44428   -5029.1751 
 7960000    69.921949   -5116.6342   -4981.7838   -5116.6342            0    1264.3483    19.981068    19.971392    20.888125    8335.4009     1401.883    902.00213    1489.1599      -274.66    427.23362   -110.19986   -4828.0855 
 7961000    69.705118   -5123.1515   -4988.7193   -5123.1515            0    321.62812    20.000318    20.026509    20.973393    8400.6108    211.20866    748.87819    4.7974983   -112.84995    38.647102    507.57987   -4949.3153 
 7962000    69.608108   -5124.6338   -4990.3887   -5124.6338            0    -592.9783    20.128881    19.989612    20.815805    8375.6246   -1396.7522   -835.13057    452.94789   -319.51102    121.25479   -382.90368   -5062.8209 
 7963000    72.472759   -5121.8618    -4982.092   -5121.8618            0    1105.3582    20.018723    20.023559    20.823027    8346.8289    1134.2759    762.40752    1419.3913    232.46109    477.13447    529.63667   -4847.5368 
 7964000    66.819516   -5115.8975   -4987.0304   -5115.8975            0    428.23872    20.019811    19.976412    20.866562    8345.0386     1131.831   -32.680728    185.56584   -188.62505   -932.45654      353.995   -4934.9121 
 7965000    64.719684    -5126.102   -5001.2846    -5126.102            0   -225.04932    20.044493    20.160196      20.8025    8406.3091    495.62439   -1516.2987    345.52633    257.63513    741.25986   -278.34442   -5028.8751 
 7966000    64.830004   -5118.9615   -4993.9314   -5118.9615            0   -453.00099    20.012252    20.006664    20.937254    8382.8245   -834.99425   -445.55475   -78.453973    37.048483    148.04537   -71.678851    -5049.313 
 7967000     63.94237   -5122.4322    -4999.114   -5122.4322            0    195.25731    20.147911    19.857875    20.921387    8370.5361   -279.52548    824.42822    40.869172   -134.92261     1116.101   -6.2493002   -4975.2778 
 7968000      69.3365   -5119.3281   -4985.6069   -5119.3281            0   -52.660387    19.988021    20.031351    20.963176    8393.3846    1136.9235   -942.90289   -352.00177   -251.59857    524.46258    592.05628    -4992.053 
 7969000    68.847849   -5120.7659    -4987.987   -5120.7659            0    13.099524     20.05505    20.004913    20.785263    8339.0381   -251.28174     113.8844    176.69592    8.1184855    183.81473    392.54626   -4986.3939 
 7970000    65.484557   -5122.4565    -4996.164   -5122.4565            0    747.01056    20.035994    19.994714    20.786606    8327.4049    457.96845    297.57756    1485.4857   -206.33766    265.37977   -153.35636   -4905.4421 
 7971000    67.765441   -5122.6313   -4991.9399   -5122.6313            0    671.42082    20.056979    19.955254    20.868698    8352.5322    1579.7642    110.42712    324.07117   -318.96302    1138.8941    478.71405   -4910.1521 
 7972000     67.87826   -5127.5017   -4996.5928   -5127.5017            0   -811.63136    20.026485    20.091458    20.895746    8407.6388    327.76393   -1758.0508   -1004.6072   -325.42648      333.296    193.07359   -5096.1124 
 7973000    64.450386   -5119.7634   -4995.4654   -5119.7634            0    93.843668     19.93696    20.063932    20.896613    8358.9337    1064.5727   -744.94346   -38.098283   -93.776252    736.95896   -192.03786   -4984.0253 
 7974000    64.252123    -5114.687   -4990.7714    -5114.687            0    471.95603    19.920079    19.923201    21.104677    8375.8495    663.67857    1083.8988   -331.70932   -324.37842    657.89005   -334.53999   -4933.1205 
 7975000    65.348358   -5121.1755   -4995.1457   -5121.1755            0    1155.3148    19.967337    19.883189    21.044255    8354.8711    1562.5896    825.08284     1078.272    -32.48665    434.56656    17.686838   -4854.3738 
 7976000    68.603831   -5124.6239   -4992.3157   -5124.6239            0    95.949421     20.05915     19.95021     20.95513     8385.913    60.272274    290.71943   -63.143445   -3.0945821    310.54288    29.765573   -4980.5811 
 7977000    71.585417   -5110.9507   -4972.8922   -5110.9507            0   -99.531593    19.933324    19.953778    20.968091    8339.9559    874.42522   -277.07669    -895.9433    360.60511   -235.12501    265.24998   -4984.9982 
 7978000    69.353393   -5116.7757   -4983.0219   -5116.7757            0    295.62398    20.053295    19.960896    20.792094    8322.6955   -555.76676    721.59664    721.04206    213.53294    431.20419    22.750338   -4947.1397 
 7979000    69.563135   -5119.5622   -4985.4038   -5119.5622            0    163.70116    20.026675    19.958898    20.962785    8379.0423   -209.94753    733.20585    -32.15484     70.08447    669.24157    280.70453   -4965.3996 
 7980000    69.687314   -5116.1675   -4981.7697   -5116.1675            0    775.33156    19.970571    19.962685    20.959319    8355.7725    221.54401    1658.3743     446.0764    163.96096    225.02324   0.50937939   -4887.2875 
 7981000    68.652781   -5116.3625   -4983.9598   -5116.3625            0    91.790076    19.987058    19.984592    20.856895    8330.9362   -213.34857    158.58865    330.13015   -55.929619   -530.47281    7.4940767   -4972.8075 
 7982000    68.357635   -5121.2681   -4989.4347   -5121.2681            0   -377.90744    19.987963    19.936258    20.989618    8364.0514   -573.43923    70.958321    -631.2414   -229.73325    138.38743    338.75217   -5035.5322 
 7983000    68.200539   -5125.0636   -4993.5331   -5125.0636            0    418.45876    19.890845    19.940498    21.032741    8342.2866    498.75605    910.94523     -154.325     -85.0144   -294.04616    180.48416   -4942.6218 
 7984000    70.495644   -5122.2799   -4986.3232   -5122.2799            0    334.50304    19.953119    20.106205    20.812006    8349.3917    329.77166   -198.49141    872.22887   -181.11817    410.43419   -260.12627   -4945.5916 
 7985000    63.111118   -5119.7756   -4998.0605   -5119.7756            0    23.411813    20.070492    20.010648    20.846178    8372.3163   -39.884846   -418.70691    528.82719    363.87825    510.68726    100.28811   -4995.2019 
 7986000    66.272069   -5122.3278   -4994.5166   -5122.3278            0    -667.4087    20.072113    19.964636    20.983918    8408.9368   -1288.2842    564.31748   -1278.2594   -238.37291    835.24131   -713.24413   -5076.3647 
 7987000    68.212584    -5122.109   -4990.5553    -5122.109            0   -319.66872    20.015344    20.012162    20.915986    8377.9043    133.34028   -793.23326    -299.1132   -112.08481    31.622949    134.26272   -5029.6134 
 7988000    67.970106   -5117.9124   -4986.8263   -5117.9124            0    569.63177    19.899476    20.015642    21.077847    8395.3232    706.73901    646.36548    355.79082   -115.77319    849.77344   -453.50144   -4917.0822 
 7989000    65.583072   -5115.4498   -4988.9673   -5115.4498            0    40.375009    19.934025    19.963567    21.059505    8380.7192    1011.8509   -529.68777   -361.03807    52.253899    136.18391    658.71678   -4984.0325 
 7990000    67.447135   -5117.0367   -4986.9592   -5117.0367            0    261.94405    20.058708    19.995274    20.937787    8397.7143    611.12003    474.80874   -300.09661   -48.490674    144.88028   -54.183514   -4954.8784 
 7991000    67.196239   -5124.6019   -4995.0083   -5124.6019            0   -452.25389    20.048522    19.966901    20.965879    8392.7853    799.70504   -781.54525   -1374.9214   -385.06423    16.760879   -554.05432   -5050.3642 
 7992000    65.389871   -5115.9215   -4989.8117   -5115.9215            0    350.31255    19.933819    19.930141    21.061338    8367.3291    706.26653    411.42487   -66.753765    111.81304    416.91858   -455.06477   -4947.0634 
 7993000    65.782778   -5110.9238   -4984.0561   -5110.9238            0   -219.08491    20.156231    19.943586    20.964203    8427.3482   -317.98023   -680.64587    341.37137   -110.76434   -72.050224    699.64359   -5010.9826 
 7994000     67.59729    -5115.066   -4984.6989    -5115.066            0    215.37434    20.049995    19.977363    20.940008    8387.4372    -149.7082    521.02215    274.80906    138.92344    -277.8447    309.28527   -4958.3538 
 7995000    70.210862   -5114.1708   -4978.7632   -5114.1708            0     715.3396    19.968245    19.876707     21.10442    8376.4064    527.51066    1368.1611    250.34701   -553.03146    24.231552    -322.5309   -4891.3764 
 7996000    67.765282    -5114.269   -4983.5779    -5114.269            0    691.62301    19.964208    20.026421    20.921839    8364.7949    401.27031    837.74485    835.85388   -121.46209   -149.09036    407.34283   -4899.2055 
 7997000    65.978591   -5116.8615   -4989.6163   -5116.8615            0    669.09403    19.930468    19.991864    20.990902    8363.7662    478.10174    945.69761    583.48273   -251.47161    77.513438   -132.16419   -4908.0022 
 7998000    68.633242   -5115.9525   -4983.5876   -5115.9525            0    663.05733    19.998821    19.866351    21.059847    8367.1527    1204.5584    620.57909    164.03447  -0.27970685     529.6468   -348.39042   -4902.6771 
 7999000    65.062132   -5121.5218    -4996.044   -5121.5218            0   -23.540712    20.059756     19.93515    20.991458    8394.3632    210.13732    417.87249   -698.63194    43.903421   -457.78516    256.21695   -4998.9259 
 8000000    68.827367   -5111.2664   -4978.5271   -5111.2664            0    310.04253    20.118909    19.972873    20.753551    8339.4493    -298.2745    626.10793    602.29415    120.78962    435.33264    515.56867    -4940.819 
Loop time of 358.938 on 64 procs for 250000 steps with 972 atoms

Performance: 120.355 ns/day, 0.199 hours/ns, 696.498 timesteps/s
99.0% CPU use with 64 MPI tasks x 1 OpenMP threads

MPI task timing breakdown:
Section |  min time  |  avg time  |  max time  |%varavg| %total
---------------------------------------------------------------
Pair    | 17.735     | 26.995     | 36.573     |  88.0 |  7.52
Bond    | 0.25825    | 0.27461    | 0.2881     |   1.3 |  0.08
Kspace  | 145.07     | 154.8      | 164.63     |  37.1 | 43.13
Neigh   | 0.10895    | 0.11574    | 0.12128    |   1.0 |  0.03
Comm    | 81.905     | 82.785     | 84.16      |   6.6 | 23.06
Output  | 0.52031    | 0.52153    | 0.52302    |   0.1 |  0.15
Modify  | 83.379     | 85.185     | 88.292     |  12.1 | 23.73
Other   |            | 8.257      |            |       |  2.30

Nlocal:        15.1875 ave          19 max          11 min
Histogram: 2 8 4 7 0 13 11 10 8 1
Nghost:        2220.11 ave        2243 max        2196 min
Histogram: 2 6 5 5 12 10 10 6 7 1
Neighs:        4732.45 ave        6399 max        3052 min
Histogram: 1 6 4 11 14 11 5 2 5 5

Total # of neighbors = 302877
Ave neighs/atom = 311.60185
Ave special neighs/atom = 2.0000000
Neighbor list builds = 352
Dangerous builds = 0

unfix		3
unfix		2
unfix		1

write_data	data.final.${pid}
write_data	data.final.1
System init for write_data ...
PPPM initialization ...
  extracting TIP4P info from pair style
  using 12-bit tables for long-range coulomb (../kspace.cpp:340)
  G vector (1/distance) = 0.37231706
  grid = 24 24 25
  stencil order = 5
  estimated absolute RMS force accuracy = 0.0034195238
  estimated relative force accuracy = 1.0297794e-05
  using double precision FFTW3
  3d grid and FFT values/proc = 2366 288
Last active /omp style is kspace_style pppm/tip4p/omp
WARNING: Not all mixed pair coeffs generated from mixing. Use write_data with 'pair ij' option to store all pair coeffs. (../write_data.cpp:312)

write_restart   restart.lmp.${pid}
write_restart   restart.lmp.1
System init for write_restart ...
PPPM initialization ...
  extracting TIP4P info from pair style
  using 12-bit tables for long-range coulomb (../kspace.cpp:340)
  G vector (1/distance) = 0.37231706
  grid = 24 24 25
  stencil order = 5
  estimated absolute RMS force accuracy = 0.0034195238
  estimated relative force accuracy = 1.0297794e-05
  using double precision FFTW3
  3d grid and FFT values/proc = 2366 288
Last active /omp style is kspace_style pppm/tip4p/omp
Total wall time: 0:05:59
