LAMMPS (30 Jul 2021)
Processor partition = 0
  using 4 OpenMP thread(s) per MPI task
using multi-threaded neighbor list subroutines
variable        pid world 0 1
variable        phase world IceVI IceV

shell cd ${phase}
shell cd IceVI
include Restart.lmp
echo both
log log.lammps
#include		in.partitions
include		in.temp
variable        temperature equal 188.27
variable	tempDamp equal 100.0
include		in.pressure
variable        pressure equal 8321.4
variable        pressureDamp equal 1000.0 # This is 1 ps
include		in.seed
variable        seed equal 745823

units		real
atom_style	full
read_restart	restart.lmp.${pid}
read_restart	restart.lmp.0
Reading restart file ...
  restart file = 30 Jul 2021, LAMMPS = 30 Jul 2021
  restoring atom style full from restart
  orthogonal box = (-0.020808780 -0.074217261 -0.059898476) to (24.750810 24.804218 22.869898)
  2 by 4 by 2 MPI processor grid
  restoring pair style lj/cut/tip4p/long/omp from restart
  restoring bond style harmonic/omp from restart
  restoring angle style harmonic/omp from restart
  1920 atoms
  1280 bonds
  640 angles
Finding 1-2 1-3 1-4 neighbors ...
  special bond factors lj:    0        0        0       
  special bond factors coul:  0        0        0       
     2 = max # of 1-2 neighbors
     1 = max # of 1-3 neighbors
     1 = max # of 1-4 neighbors
     2 = max # of special neighbors
  special bonds CPU = 0.001 seconds
  read_restart CPU = 0.008 seconds
include 	in.setup
variable	out_freq equal 1000
variable	out_freq2 equal 10000
variable	out_freq3 equal 1000

timestep	2.0

neigh_modify    delay 7 every 1

include		in.tip4p
# This is TIP4P/Ice

# create groups ###
group ox type 2
640 atoms in group ox
group hy type 1
1280 atoms in group hy

# set charges - beside manually ###
set group ox charge -1.1794
Setting atom values ...
  640 settings made for charge
set group hy charge 0.5897
Setting atom values ...
  1280 settings made for charge

# ### TIP3P Potential Parameters ###
pair_style lj/cut/tip4p/long/omp 2 1 1 1 0.1577 8.5
pair_coeff 1 1*2 0.000 0.000
pair_coeff 2 2 0.21084 3.1668
bond_style  harmonic
bond_coeff  1 450 0.9572
angle_style harmonic
angle_coeff 1 55 104.52
kspace_style pppm/tip4p/omp 1.0e-5
pair_modify tail yes

thermo          ${out_freq}
thermo          1000
thermo_style    custom step temp pe etotal epair emol press lx ly lz vol pxx pyy pzz pxy pxz pyz enthalpy

restart 	${out_freq3} restart.lmp.${pid} restart2.lmp.${pid}
restart 	1000 restart.lmp.${pid} restart2.lmp.${pid}
restart 	1000 restart.lmp.0 restart2.lmp.${pid}
restart 	1000 restart.lmp.0 restart2.lmp.0


include         in.dump
dump            myDump all atom ${out_freq2} dump.water.${pid}
dump            myDump all atom 10000 dump.water.${pid}
dump            myDump all atom 10000 dump.water.0
dump            myDump2 all dcd ${out_freq2} dump.dcd
dump            myDump2 all dcd 10000 dump.dcd
dump_modify     myDump append yes
dump_modify     myDump2 append yes


variable natoms 	equal  "count(all)"                        # NUMBER ATOMS
variable H      	equal  "enthalpy/v_natoms"                 # ENTHALPY-per-atom
variable Vol      	equal  "vol/v_natoms"                 # volume-per-atom
fix AVG all 		ave/time ${out_freq} 1 ${out_freq} v_Vol v_H file vol_enthalpy.dat
fix AVG all 		ave/time 1000 1 ${out_freq} v_Vol v_H file vol_enthalpy.dat
fix AVG all 		ave/time 1000 1 1000 v_Vol v_H file vol_enthalpy.dat




fix 		1 all shake 1e-6 200 0 b 1 a 1
Finding SHAKE clusters ...
       0 = # of size 2 clusters
       0 = # of size 3 clusters
       0 = # of size 4 clusters
     640 = # of frozen angles
  find clusters CPU = 0.000 seconds
fix             2 all nph aniso ${pressure} ${pressure} ${pressureDamp}
fix             2 all nph aniso 8321.4 ${pressure} ${pressureDamp}
fix             2 all nph aniso 8321.4 8321.4 ${pressureDamp}
fix             2 all nph aniso 8321.4 8321.4 1000
fix             3 all temp/csvr ${temperature} ${temperature} ${tempDamp} ${seed}
fix             3 all temp/csvr 188.27 ${temperature} ${tempDamp} ${seed}
fix             3 all temp/csvr 188.27 188.27 ${tempDamp} ${seed}
fix             3 all temp/csvr 188.27 188.27 100 ${seed}
fix             3 all temp/csvr 188.27 188.27 100 745823


run             250000
PPPM initialization ...
  extracting TIP4P info from pair style
  using 12-bit tables for long-range coulomb (../kspace.cpp:340)
  G vector (1/distance) = 0.37477407
  grid = 30 30 30
  stencil order = 5
  estimated absolute RMS force accuracy = 0.0032328144
  estimated relative force accuracy = 9.7355244e-06
  using double precision FFTW3
  3d grid and FFT values/proc = 7920 1800
Last active /omp style is kspace_style pppm/tip4p/omp
Neighbor list info ...
  update every 1 steps, delay 7 steps, check yes
  max neighbors/atom: 2000, page size: 100000
  master list distance cutoff = 10.8154
  ghost atom cutoff = 10.8154
  binsize = 5.4077, bins = 5 5 5
  1 neighbor lists, perpetual/occasional/extra = 1 0 0
  (1) pair lj/cut/tip4p/long/omp, perpetual
      attributes: half, newton on, omp
      pair build: half/bin/newton/omp
      stencil: half/bin/3d
      bin: standard
Setting up Verlet run ...
  Unit style    : real
  Current step  : 15250000
  Time step     : 2
Per MPI rank memory allocation (min/avg/max) = 12.56 | 12.56 | 12.56 Mbytes
Step Temp PotEng TotEng E_pair E_mol Press Lx Ly Lz Volume Pxx Pyy Pzz Pxy Pxz Pyz Enthalpy 
15250000    191.29107    -9416.376   -8687.0872    -9416.376            0    8504.1973    24.771619    24.878436    22.929797    14131.155    9925.3574    8257.1456    7330.0888    926.81586   -146.69279    615.59611   -6934.4707 
15251000    184.40692   -9409.5869   -8706.5436   -9409.5869            0    8495.0733     24.82828    24.772674    22.935337    14106.674    8449.7333    8735.6295     8299.857   -765.70341    495.84609    273.21694   -6958.8405 
15252000    188.70781   -9415.5569   -8696.1166   -9415.5569            0    8892.1223    24.799556    24.793622     22.92717    14097.248    10128.283    8296.1401    8251.9438    355.71106    545.93417   -724.76882   -6867.9505 
15253000    196.04326   -9439.7873    -8692.381   -9439.7873            0     9598.619    24.789253    24.769975    22.909332    14066.998    9098.7172    9903.1667     9793.973    146.26055   -368.65469   -441.59429   -6723.1981 
15254000    188.08214   -9447.1658   -8730.1109   -9447.1658            0    7528.5823    24.837037    24.886834    22.896515    14152.684     7150.622    7439.4285    7995.6965   -366.32982   -14.671338    708.94611   -7176.1936 
15255000    182.25185    -9390.322   -8695.4949    -9390.322            0    7298.0318    24.813475    24.907263    22.964398    14192.819    8335.0882    6645.1457    6913.8614   -289.76634   -829.24416    110.68695    -7184.892 
15256000    192.92193   -9408.6078   -8673.1014   -9408.6078            0      8502.32    24.869616    24.818967     22.91585    14144.538     8006.114    8921.8048    8579.0414   -335.56375    465.10969   -1289.6736   -6919.2125 
15257000    185.58903    -9424.873    -8717.323    -9424.873            0    8199.4344    24.735812    24.940908    22.934589    14149.119    9153.8289     7599.755    7844.7193   -627.34232   -455.37784    91.333499   -7025.3665 
15258000    185.17826   -9420.8238   -8714.8398   -9420.8238            0    8540.1438    24.837053    24.731519    23.028444    14145.407    7905.5472    10227.177    7487.7077    961.67832   -71.354139   -661.20227   -6953.0402 
15259000    190.12018   -9398.2721   -8673.4472   -9398.2721            0    8108.2715    24.768147    24.860031    22.974549    14146.278    9269.7646    7853.1886    7201.8613   -7.0892642    184.65105    246.75651   -7000.6382 
15260000    191.57166   -9421.7524   -8691.3938   -9421.7524            0     7679.429    24.842685    24.835999    22.951574    14160.958    7831.7613    7759.6107     7446.915   -57.461942    338.40771    408.58383   -7105.4148 
15261000    188.35482   -9431.9304   -8713.8359   -9431.9304            0    7611.4303    24.913863    24.850516    22.876053    14163.075    6661.7985    8059.2135    8113.2791    110.77312   -969.80396    62.330866   -7141.6651 
15262000     200.8986   -9435.6305   -8669.7134   -9435.6305            0    8515.5859    24.819116    24.875692    22.866056    14117.335     9227.139    7944.0227    8375.5961   -445.27361   -232.20201    291.91389   -6916.4662 
15263000    185.65661   -9391.4625   -8683.6548   -9391.4625            0    8033.7417    24.874102    24.960582    22.799897    14155.819    8590.0437    7205.3558    8305.8256    869.91034    432.52371    872.44722   -7025.1041 
15264000    185.69995   -9448.9087   -8740.9358   -9448.9087            0      7751.72    24.855699    24.920092    22.806935     14126.76    7320.2758    7124.0769    8810.8073   -568.50156     509.5614    277.19216   -7143.8931 
15265000    191.64168   -9437.0846   -8706.4592   -9437.0846            0    7734.6775    24.957424    24.882811    22.748087    14126.809     6618.141    8571.9904    8013.9011   -98.771225   -89.663431   -280.82406   -7112.9221 
15266000    191.55514   -9421.8428   -8691.5472   -9421.8428            0    8595.1804    24.816908    24.941851    22.828599    14130.437    8070.1116    7532.6746    10182.755   -51.287146   -344.26093    819.79129   -6920.2702 
15267000    189.63003   -9416.5942    -8693.638   -9416.5942            0    8740.7307    24.871675    24.842057    22.856258    14122.049    8697.1697    8948.1721    8576.8503    635.93615    165.43437   -826.67294   -6893.4356 
15268000    190.20702    -9445.957   -8720.8011    -9445.957            0    8845.1571    24.775634    24.951856    22.774995    14079.457    9560.3337    7826.6628     9148.475    395.50991   -1014.0726    315.88675   -6904.5857 
15269000    187.21843   -9423.4571   -8709.6951   -9423.4571            0    8987.8687     24.77762    24.843444    22.905375    14099.665    9471.4852    8453.3417    9038.7791   -99.735852   -757.44732    139.07335   -6861.5272 
15270000    186.54976   -9429.5681   -8718.3553   -9429.5681            0    8246.7705    24.894917    24.722794    22.962534    14132.795    7812.7055    9474.5091     7453.097   -374.25521     76.32753   -59.495468   -7018.5944 
15271000    189.51631   -9434.2593   -8711.7367   -9434.2593            0     8357.881    24.777801    24.825935    22.943091    14113.031    9078.5385    7471.9311    8523.1735   -166.12742    85.199463    -67.10418   -6991.4835 
15272000    193.24098   -9418.3384   -8681.6156   -9418.3384            0    9092.4515    24.800762    24.842017    22.895843    14106.151    9462.4983    8935.3859    8879.4704   -429.73226   -417.79359    547.69745   -6811.0825 
15273000    185.00565   -9445.5593   -8740.2334   -9445.5593            0    8207.8388    24.860804    24.843205    22.895043    14140.484    7731.8327    8464.1074    8427.5765    262.68761    742.31509   -186.41577   -7047.5763 
15274000    197.06438   -9407.2904   -8655.9912   -9407.2904            0    8060.5684    24.823273    24.959041    22.844503    14153.657    8339.7158    7325.8465     8516.143   -775.85699   -65.419909    133.54482   -6992.1563 
15275000    187.83141   -9417.2933   -8701.1943   -9417.2933            0    7415.6277    25.057383    24.749673    22.911243    14208.683    6074.4804    8882.8842    7289.5185   -299.36428    880.19032   -802.08326   -7164.5348 
15276000    188.98212   -9396.9789   -8676.4929   -9396.9789            0    8613.3594    24.773379    24.991143    22.813292    14124.053    8947.8794    8074.2978     8817.901   -295.95183   -285.42345   -284.34683   -6902.2716 
15277000    187.33835   -9407.3113    -8693.092   -9407.3113            0    8978.3059    24.901404    24.850296    22.795573    14106.066     8097.451    9227.8076    9609.6589   -341.84377    476.76812    704.01212   -6846.0525 
15278000    187.92834    -9425.074   -8708.6055    -9425.074            0    9434.2309    24.803743    24.937828    22.742729    14067.548     9528.016    8657.6136    10117.063   -321.68715    379.78493    872.89011   -6773.0716 
15279000    186.17154   -9426.5322   -8716.7614   -9426.5322            0    8869.1301    24.866063    24.846712    22.798123     14085.59    9093.7645    9088.7925    8424.8333    371.02919   -435.83323    568.90637   -6894.8303 
15280000    194.72769   -9425.7455   -8683.3547   -9425.7455            0     7674.778    24.857809      24.9106    22.858598    14154.568    7322.4015    7469.9174    8232.0151   -659.37746   -161.58105    64.802167   -7099.0514 
15281000    194.09161   -9406.7001   -8666.7344   -9406.7001            0    8173.7962    24.836642    24.938732    22.856341    14157.089    8047.9045    7958.7469    8514.7372   -248.51493    371.60565    -817.9725   -6979.1183 
15282000    195.61807   -9415.1767   -8669.3914   -9415.1767            0    8193.6578    24.881733    24.834024    22.860838    14126.022    8484.0557    7775.9247    8320.9929   -328.46436   -1215.3516    1355.7903    -6981.387 
15283000    191.35409   -9418.9003   -8689.3713   -9418.9003            0    7970.1042    24.845539    24.814212    22.962189    14156.706    8242.5989    8246.8694    7420.8443    83.013003    89.736678   -498.19349   -7043.8553 
15284000    176.15281   -9409.2956   -8737.7207   -9409.2956            0    8151.9465    24.773797    24.910855    22.950892    14163.832    8401.8526    7224.7652    8829.2217    369.54816    638.50481    797.85004   -7053.8142 
15285000    181.81783   -9438.7356   -8745.5631   -9438.7356            0     7613.881    24.811006    24.727775    23.068962    14153.292    7975.9823    8521.3281    6344.3326   -577.64238    320.55023    47.587682   -7173.9725 
15286000    181.73575   -9402.2931   -8709.4335   -9402.2931            0    7898.9171    24.833401    24.813129    22.989679    14166.111    8236.7461     8683.082    6776.9233   -247.56251   -713.85323    441.25286   -7077.5315 
15287000    188.21319   -9420.6022   -8703.0477   -9420.6022            0    8347.6496    24.731692    24.909692    22.939233    14131.917    8484.4232    7591.7866    8966.7389    27.225327    129.13905    148.58215   -6982.6012 
15288000    192.83436    -9418.147   -8682.9745    -9418.147            0    8803.6432    24.805826    24.823223    22.940644    14125.943     9567.724    8965.4312    7877.7744   -243.33316   -664.97528    425.92324   -6869.3149 
15289000    184.50451   -9422.1174    -8718.702   -9422.1174            0    7983.5835    24.862062    24.829848    22.904378    14139.358    9542.1724     7193.887    7214.6912   -488.23151   -779.98568    753.21154   -7072.4229 
15290000     184.4608   -9430.8661   -8727.6174   -9430.8661            0      6207.86    24.848287    24.919412     22.96251    14218.494    6083.4961    6119.0332    6421.0507   -347.13238    126.50847    445.24438   -7440.3422 
15291000    189.54437   -9467.1483   -8744.5187   -9467.1483            0    7911.4656    24.812825     24.85066     22.88897    14113.684    7637.7001     7819.026    8277.6707    692.99257   -316.44168     806.8559   -7116.0732 
15292000    190.05702   -9438.9627   -8714.3786   -9438.9627            0    8172.4818    24.848124     24.94878    22.783474    14124.168    9010.1694    6698.1758    8809.1002    25.803923   -952.75698   -113.25324   -7030.9578 
15293000    188.73258   -9407.1623   -8687.6276   -9407.1623            0    8378.0572    24.875789    24.921605    22.779912    14122.284    8406.5377    8114.8045    8612.8295    352.43381    170.65092    334.85003   -6962.0911 
15294000    185.92252   -9417.4966   -8708.6752   -9417.4966            0    7436.0564    24.946105    24.929597      22.7898    14172.893    7088.1417    7005.2865    8214.7411   -109.76831   -774.08549     360.9176   -7171.6638 
15295000     183.9388   -9451.4256    -8750.167   -9451.4256            0    8151.1229    24.800065    24.926117    22.811991    14101.673     8548.909    7269.6144    8634.8455    524.28454    1018.8605   -353.08954   -7073.8199 
15296000    190.82392   -9394.2559   -8666.7481   -9394.2559            0    7840.4088    24.981463    24.894352    22.769628    14160.371    6261.1416    8268.7032    8991.3815    23.052808   -907.87444    784.57048     -7047.59 
15297000    191.68251   -9452.1411     -8721.36   -9452.1411            0    7305.7554    24.872977    24.914501     22.83333    14149.765    7374.9237    7625.0311    6917.3114   -478.33512    -553.3601   -231.05238   -7213.7457 
15298000    185.64434   -9429.3394   -8721.5785   -9429.3394            0    6552.0508    24.881922    24.894709    22.924807    14200.272    6795.0131    6451.7427    6409.3966   -1146.9675   -362.30876    1289.7677   -7364.6724 
15299000    192.82012   -9430.9049   -8695.7867   -9430.9049            0    7242.0027    24.856283    24.868271    22.964867    14195.337     7541.076    7085.6818    7099.2502   -161.33809    641.50244   -922.08697   -7196.5152 
15300000    189.22078   -9404.9006   -8683.5047   -9404.9006            0    8097.3774    24.769952    24.834285    23.029309    14166.342    8082.9151    8877.2987    7331.9183   -332.90223   -581.97568    -887.0258   -7010.5737 
15301000    187.04933   -9409.2627   -8696.1453   -9409.2627            0    8398.1187     24.83844    24.739597    23.008967    14138.849    8246.4523    9405.6058    7542.2978   -74.330188    718.80732   -6.7759874   -6964.4481 
15302000    191.89515   -9434.3004   -8702.7086   -9434.3004            0    7885.5116    24.801326    24.887554    22.922656     14148.88    7821.1917    8306.8097    7528.5333   -730.18501    256.72124   -578.16291   -7075.5578 
15303000    191.62176   -9441.4848   -8710.9352   -9441.4848            0    7605.9494    24.814373    24.921172    22.882985    14150.912    8307.1355    6707.7647    7802.9481   -137.40827   -502.25971   -497.38108   -7141.2457 
15304000    195.86243    -9427.166   -8680.4491    -9427.166            0    9125.5034    24.868487    24.811161    22.820893    14080.857    8706.3126    10037.571    8632.6269   -90.584672   -507.14958    461.15627   -6806.4826 
15305000    191.91911   -9409.4776   -8677.7944   -9409.4776            0    9295.3004    24.836599    24.822663    22.869067    14099.021    8497.0343    9618.7521    9770.1149    20.801203   -920.16795   -211.72514    -6766.497 
15306000    190.33204    -9408.891   -8683.2584    -9408.891            0    8180.4891    24.824332    24.942697    22.866222     14158.44    9199.8093    7782.5269     7559.131    865.86399   -407.80264    90.062109   -6994.0994 
15307000    190.60095   -9425.5465   -8698.8888   -9425.5465            0    10127.361    24.831907    24.783645    22.828012    14048.933    9385.5942     10381.33     10615.16    -535.4107   -113.97227   -33.023248   -6623.9011 
15308000    184.83991    -9416.215    -8711.521    -9416.215            0    9127.0734    24.766334    24.893139     22.84174    14082.202    9768.1133    8733.4873    8879.6196    125.86757   -239.74821    321.99254   -6837.0531 
15309000    191.00438   -9433.2843   -8705.0885   -9433.2843            0    8432.7596    24.931029    24.783347    22.841126    14112.945     7814.948    9107.2809    8376.0499   -101.81747   -245.94353   -278.24483    -6969.434 
15310000    190.20275    -9464.298   -8739.1584    -9464.298            0    7923.7881    24.800576    24.900984    22.875172    14126.762    8492.8216    7852.2935    7426.2491    353.48954   -53.236724    433.71121   -7106.6652 
15311000    187.73462   -9435.8908   -8720.1608   -9435.8908            0    7195.1248    24.890222     24.86426    22.923238    14186.664    6093.2425    7703.4665    7788.6654    214.26813    777.50095    250.19447   -7231.5043 
15312000    183.36111   -9404.1651   -8705.1089   -9404.1651            0    8095.7924    24.828777    24.899718    22.884893    14148.117    7907.6222    8091.9068    8287.8482   -378.72117   -421.32743   -124.47497   -7034.6573 
15313000    188.74611   -9385.4142    -8665.828   -9385.4142            0    8996.6168    24.923811    24.737183    22.913557    14127.236     8694.954    9839.0435    8455.8529   -19.459356 -0.071939735   -299.25161   -6812.2438 
15314000    190.66494   -9417.3404   -8690.4387   -9417.3404            0    9802.9511    24.713356    24.894214    22.871262    14070.848     9402.382    10200.006     9806.465    691.67915    51.262274    365.90249    -6678.786 
15315000    184.55077   -9438.1624   -8734.5707   -9438.1624            0    9262.0169    24.808527    24.820337    22.883556    14090.687    9489.5459    9126.2809    9170.2238    7.5316134    201.22511    -125.8644   -6831.2428 
15316000    196.52855    -9391.758   -8642.5015    -9391.758            0    9812.7824    24.825847    24.850916    22.794885    14063.191    9946.8075     9513.912    9977.6276   -467.19701    -45.90968    388.60048   -6629.9272 
15317000    184.77158   -9433.6908   -8729.2573   -9433.6908            0    9447.5134    24.831318    24.900469    22.782534    14086.702    10000.081    8501.6627    9840.7969    891.83489   -539.20897   -517.96083   -6788.3593 
15318000    182.31732   -9426.9784   -8731.9016   -9426.9784            0    7793.9069    24.872671    24.988053    22.748206    14138.456    7159.1876    7325.3414    8897.1916   -117.60243   -736.94637    -91.27526   -7124.8379 
15319000    187.81933   -9447.5656   -8731.5126   -9447.5656            0    7205.3917    24.885902    24.891697    22.873191    14168.852    7131.0212    6664.0657    7821.0882   -431.70338   -474.34476   -123.61789   -7242.6036 
15320000    186.89116   -9437.8282   -8725.3139   -9437.8282            0    8175.1826    24.836453    24.890941    22.870421    14138.556    7465.3015    7760.8391    9299.4072   -282.55507   -329.87639    242.05719   -7039.6212 
15321000    188.14862   -9416.7759   -8699.4676   -9416.7759            0    7987.5179    24.788379    24.890124    22.922079    14142.598    7618.7362    7948.8878    8394.9299   -297.21432    256.78561   -642.54896   -7051.9998 
15322000    187.31783   -9392.7665   -8678.6255   -9392.7665            0    8615.9978    24.906438    24.754286    22.942642    14145.081    8574.1551    8259.5987    9014.2397   -248.07898   -318.24697    1026.1222   -6901.2184 
15323000    179.64104   -9443.1535   -8758.2799   -9443.1535            0    7469.4957    24.638191    25.006585    22.994277    14167.165    9285.0567    5937.5299    7185.9006   -52.115492   -1168.1556    920.54549   -7214.9807 
15324000    190.10632   -9410.7414   -8685.9695   -9410.7414            0    8194.6525    24.803856    24.796421     22.97708    14131.981    9394.4776    7831.4511    7358.0287   -217.14055    467.27271   -381.51322   -6997.0479 
15325000    190.81073   -9406.0855    -8678.628   -9406.0855            0    8502.1828    24.792737    24.774185    23.028508    14144.566    8945.7579    9197.4747    7363.3158   -356.27747   -690.72306    957.37842   -6924.7638 
15326000      187.136   -9418.8992   -8705.4514   -9418.8992            0     8448.283    24.810072    24.778253     23.00707    14143.602    8787.5985    9441.4615    7115.7889   -105.12416   -24.951834    844.74816   -6962.8247 
15327000    188.82547   -9454.5195   -8734.6307   -9454.5195            0    8198.4638    24.790062    24.817466    22.934118    14109.678    7866.1363    8512.8431    8216.4121    42.382203   -342.06257   -1225.0092   -7047.5903 
15328000    183.98869   -9387.8207   -8686.3719   -9387.8207            0    8138.0504    24.838486    24.869453    22.981906    14196.373      8191.42    8164.6628    8058.0682    407.26205    250.96225   -22.202555   -7001.4737 
15329000    179.23503   -9401.8871   -8718.5614   -9401.8871            0    8356.2179    24.742301    24.854747    22.997704    14142.752    9436.0988    8441.1613    7191.3936   -942.61082    614.47065   -429.83135   -6995.0285 
15330000    184.94547   -9411.9139   -8706.8175   -9411.9139            0    9428.8636    24.857523    24.727321    22.911538    14082.805    9321.7997    9602.4917    9362.2995    42.913305   -453.49001   -648.95371   -6770.2867 
15331000    195.39273   -9417.5431   -8672.6169   -9417.5431            0    9217.6993    24.799569    24.862756    22.861059      14095.8    10095.815    8487.2054    9070.0778    636.89667   -367.06173   -517.80897   -6777.7087 
15332000    186.99716   -9416.9654   -8704.0469   -9416.9654            0    9873.9369    24.796648    24.813167     22.84387    14055.454    9905.5677    9996.8237    9719.4193   -208.68099   -1290.6979     1064.996   -6680.0441 
15333000    183.50178   -9442.8825   -8743.2901   -9442.8825            0     9003.798    24.826686    24.823882    22.883481    14102.968    8369.5997    8556.2197    10085.574    253.41862   -714.99457   -734.50967    -6891.413 
15334000    189.38608   -9389.3276   -8667.3015   -9389.3276            0    9661.5734    24.807056     24.87307    22.818304    14079.524     9441.037    9076.4632     10467.22    119.83972    -356.6213    480.71718   -6683.4383 
15335000    181.53422   -9407.4445   -8715.3533   -9407.4445            0    8366.8702    24.936481    24.793614    22.879547    14145.634    7208.9136    8482.0328    9409.6643   -480.56597   -354.31289    294.35333   -6989.2716 
15336000    188.10553   -9414.1184   -8696.9743   -9414.1184            0     8496.228     24.78136    24.868656    22.932065    14132.553    8739.9582    8533.2997    8215.4263   -38.721904   -39.589626   -20.366235    -6945.827 
15337000    191.94719   -9428.5827   -8696.7924   -9428.5827            0    9582.5275    24.756008    24.829538    22.887619    14068.567    9971.8953    9512.8694    9262.8179   -770.94837    -200.6299    32.966787   -6730.6914 
15338000    195.81447   -9414.2734   -8667.7394   -9414.2734            0    8834.4386    24.788933    24.758209    22.959422    14090.876    9360.0185    9393.6859    7749.6114    668.95357   -529.57465    591.89616   -6852.2536 
15339000    186.31514   -9453.7538   -8743.4355   -9453.7538            0    9598.3061    24.735624    24.882545    22.836724    14055.667    10181.365    8565.0417    10048.512    19.355094    70.113678   -682.25943   -6775.9029 
15340000    190.44152   -9419.9519    -8693.902   -9419.9519            0    8589.6858    24.816638     24.88608    22.860458    14118.364    8393.1089    8142.1655    9233.7831    -180.5241    311.57463    1326.1069   -6925.2698 
15341000    188.94499   -9454.0987   -8733.7543   -9454.0987            0    8226.1631    24.865025    24.779253    22.898949    14108.884    8022.2027    8453.8841    8202.4025    -194.9694   -774.52564   -446.34204   -7041.1093 
15342000    190.70182    -9418.677   -8691.6347    -9418.677            0    8669.9642    24.767255    24.909848    22.841542    14092.057     9340.065    8643.4117    8026.4158   -36.759702   -454.55689    919.24023   -6909.7994 
15343000    188.23886    -9416.177   -8698.5246    -9416.177            0    6919.2218    24.838408    24.892751    22.957403    14194.477    8034.3471    6460.0376    6263.2808   -264.62907   -583.58438   -731.91148   -7266.1634 
15344000    187.63458   -9417.1396    -8701.791   -9417.1396            0    8485.8757    24.912935    24.838669    22.836797    14131.504    8300.8666    8081.1699    9075.5904    205.43567   -343.30895   -338.20296   -6952.9072 
15345000    182.36552   -9452.7648   -8757.5043   -9452.7648            0     6147.247    24.906752    25.000761    22.857035    14232.796    5357.6121    6061.1088      7023.02    35.494154    36.594958     506.5625   -7481.5158 
15346000    191.64392   -9438.6881   -8708.0541   -9438.6881            0    7240.7103     24.85938    24.918599    22.903349     14187.73     7505.782    7402.2738    6814.0752    97.825031    -932.2452    630.79656   -7209.8535 
15347000    190.94994   -9424.2197   -8696.2314   -9424.2197            0    7268.0586    24.945012    24.798169    22.944112    14193.012    7327.6082    6683.0305    7793.5369   -191.89614    685.75107    843.99346   -7191.8121 
15348000    183.41673   -9451.1503   -8751.8821   -9451.1503            0    7600.2317    24.870943    24.875878    22.863178    14145.141    7159.1807    7780.4249    7861.0894   -384.37501    673.59977    1478.5621   -7184.0123 
15349000    189.90545   -9406.1447   -8682.1385   -9406.1447            0    8360.9366    24.776188    24.996672    22.827362    14137.493    8663.0664    7774.5478    8645.1956   -238.34052   -299.21744   -374.25163   -6958.2736 
15350000    186.63859   -9448.6402   -8737.0888   -9448.6402            0    7334.8971    24.894371    24.851088    22.881516      14155.7    7182.5734    7438.4554    7383.6626   -769.43898   -265.64379    841.12462   -7222.8259 
15351000    188.33904   -9422.5866   -8704.5523   -9422.5866            0     10249.96     24.72442    24.832848    22.864974    14038.586    10840.642    9340.6046    10568.634   -1272.9247    1244.9521     1367.313   -6605.9921 
15352000    195.11996   -9426.7443   -8682.8581   -9426.7443            0     8050.667    24.836848    24.831575    22.944073    14150.483    8112.2982    8815.7115    7223.9913    572.38164    519.07314    652.48915   -7021.4397 
15353000    188.77048   -9426.4187   -8706.7395   -9426.4187            0    7635.6165    24.858983    24.861618    22.939834     14177.61    7506.4141    8264.5533    7135.8822   -91.696802   -343.85321    282.18649   -7127.9544 
15354000    191.06097   -9449.8139   -8721.4024   -9449.8139            0    6162.0845     24.81433    24.983691    22.942741    14223.434     6999.831    5210.4559    6275.9666   -479.30292   -488.25051   -204.42014   -7443.1753 
15355000    187.52916   -9409.7139   -8694.7673   -9409.7139            0    7742.0616    24.882099    24.862261    22.911533    14173.652    7815.4315    7833.7605    7576.9928    465.34393    104.27041   -113.58708   -7094.4198 
15356000    181.92997   -9415.3581   -8721.7581   -9415.3581            0    8780.9017    24.693072    24.813373    23.042681    14118.675    8956.9749    9656.1443     7729.586    372.77014   -602.34943   -637.21035   -6913.7143 
15357000    187.35316   -9417.6382   -8703.3625   -9417.6382            0    8495.7197    24.837619    24.812172     22.92994    14131.155    9140.6599    8918.4915    7428.0075    54.979314    89.645661     99.78563   -6952.4932 
15358000    189.62612   -9424.3741   -8701.4329   -9424.3741            0    9067.9072    24.850627    24.827212    22.850238    14097.953    9559.6332    8391.1302     9252.958    380.66612    164.91487    186.03386   -6837.0333 
15359000    190.32176   -9431.2984   -8705.7051   -9431.2984            0    8864.6323    24.782975     24.95693    22.755911     14074.69    10190.278    7677.6569     8725.962    54.265883   -1151.6631    450.98315   -6886.1071 
15360000    184.72322   -9422.3823   -8718.1331   -9422.3823            0    8840.0186    24.853199      24.8632    22.791279    14083.416    8901.4979    8418.8085    9199.7495   -918.43958    -16.54789    1100.9996   -6902.4624 
15361000    193.53664   -9438.4327   -8700.5828   -9438.4327            0    7690.8828    25.029077    24.863901    22.714201    14135.513    7103.1949    7601.0735    8368.3798    439.70532   -357.95285    1015.8725   -7115.0923 
15362000    193.26525   -9429.5399   -8692.7246   -9429.5399            0    8527.8417     24.82646    24.911473     22.82132    14114.158    8746.5431    7893.5215    8943.4605    914.87772    34.566744   -26.868477   -6937.3493 
15363000    187.73021   -9415.5234   -8699.8102   -9415.5234            0    8562.2496    24.928528     24.79266    22.864287    14131.147    8546.7463    8463.9811    8676.0214    115.06477   -137.63799   -261.91755   -6935.2308 
15364000    193.30741   -9392.3418   -8655.3658   -9392.3418            0    8205.1874    24.851886    24.880364    22.891438    14154.325    8083.6398    8038.4652    8493.4573   -1070.7163    752.07334   -261.79966   -6961.5993 
15365000    191.70015   -9401.0408   -8670.1924   -9401.0408            0    9226.3588    24.873668    24.856415    22.821217    14109.679    9007.3716    9015.5968     9656.108   -871.69212   -148.40125    950.03115   -6771.6367 
15366000    190.03207   -9441.3272   -8716.8383   -9441.3272            0     8654.376    24.871089     24.87513    22.770809    14087.652    8180.1774    8744.2784    9038.6722   -115.27003   -429.20587    254.02411   -6938.7625 
15367000    182.72851   -9445.6824   -8749.0379   -9445.6824            0    7293.7964    24.797927    25.036855    22.851177     14187.43    7871.5413    6175.1681    7834.6798    -106.4448   -795.08215    643.63721    -7239.885 
15368000    183.94141   -9449.8119   -8748.5433   -9449.8119            0    7604.3559    24.878777    24.862732    22.881805     14153.64    7621.1707    7175.1916    8016.7056   -833.04932    448.22395    561.85611   -7178.8801 
15369000    182.13237   -9409.1893   -8714.8176   -9409.1893            0    7238.4371     24.77202     24.96191    22.977395    14208.231    7888.1507    7068.5913    6758.5691    51.003884    5.0392302   -395.61824   -7214.9231 
15370000    188.12178   -9437.7618   -8720.5557   -9437.7618            0    7166.4771    24.861515    24.839647    22.949421    14172.444    7836.6063    6622.7269     7040.098   -54.084997    309.32289    465.37984   -7239.3126 
15371000    185.55572   -9433.6689   -8726.2459   -9433.6689            0    7357.3989    24.813476    24.764207    23.074779     14179.13    8133.3106    7994.3178    5944.5682    270.53874   -303.82175    345.01397   -7204.8236 
15372000    193.07603   -9432.6973   -8696.6034   -9432.6973            0    7684.1097    24.804813    24.868042    22.953309    14158.683    8085.4649    7867.0866    7099.7775    -713.2631   -524.95132    840.46909   -7109.9125 
15373000    187.34567   -9444.3264   -8730.0793   -9444.3264            0    8372.5108    24.794565    24.778408    23.006691    14134.617    8037.9276    8852.2765    8227.3282    633.39699   -407.78828   -13.664364   -7004.1792 
15374000    193.17636   -9414.1885   -8677.7121   -9414.1885            0    8391.9929    24.843186    24.868526    22.903759     14150.25    8859.8487    8254.9858     8061.144   -68.779313   -1372.5611   -293.81422   -6945.8827 
15375000     191.3926   -9400.4605   -8670.7846   -9400.4605            0    8706.2545    24.794372    24.929469    22.846204    14121.479    8919.5229    7501.8244    9697.4161   -223.94187    150.48494   -500.81186   -6877.7551 
15376000    192.01762   -9436.2331   -8704.1743   -9436.2331            0    8794.0186    24.915832    24.732084    22.887129    14103.517    7338.8588    9987.9787    9055.2185    290.33303    929.70305   -419.37622   -6895.3738 
15377000    190.53522    -9414.895   -8688.4878    -9414.895            0    8741.4782    24.799436      24.9041    22.850098    14112.395    8475.5118    8864.8558     8884.067    -609.0972    93.299466    -346.3989   -6889.3622 
15378000    184.81107   -9420.5634   -8715.9793   -9420.5634            0    8624.7429    24.829012    24.880088    22.863055    14123.607    9382.2195    7319.3852    9172.6239    15.074781   -361.48822    482.67075   -6939.4693 
15379000    189.09319   -9420.3599   -8699.4505   -9420.3599            0    8672.5532    24.932651    24.886542    22.759846    14122.199    8173.7739     7960.506    9883.3797    593.37636    -280.0914   -335.69755   -6913.2706 
15380000    186.30136        -9449   -8738.7343        -9449            0    9009.0096    24.792428    24.932465    22.810262    14099.852    9759.4326    7404.8198    9862.7764    9.3570036    -169.9526   -103.14621   -6886.1947 
15381000    192.51496   -9465.7541   -8731.7993   -9465.7541            0     9021.977    24.801639    24.855574    22.836352    14077.674    8736.7364     8878.732    9450.4627   -394.80295   -88.163581   -349.79703   -6879.5113 
15382000    186.87553   -9414.2162   -8701.7614   -9414.2162            0    9478.3384     24.81847    24.827155    22.828982    14066.579    9335.2705      9673.55    9426.1948   -325.76723     129.7093    1089.7167   -6757.3123 
15383000    189.14868   -9424.5081   -8703.3871   -9424.5081            0     8743.997    24.749604    24.851056    22.884456    14075.172    8980.2179    8750.8557    8500.9174   -232.65834   -22.937085    1404.6895   -6908.4898 
15384000    184.90898   -9436.3627   -8731.4053   -9436.3627            0    9216.5121    24.780343    24.821602    22.920766    14098.284    9383.0137    8979.7017    9286.8208   -117.48767    76.947746    1233.4678   -6836.4074 
15385000     182.4368   -9441.7079   -8746.1756   -9441.7079            0    7735.7197    24.846759    24.811156    22.949401    14147.774    7190.8519    8685.6085    7330.6988   -912.14351   -77.934841    323.95587   -7150.0585 
15386000    182.60604    -9407.201   -8711.0235    -9407.201            0    6670.4052    24.767252    24.885114    23.103144    14239.297    7613.2819    7137.7087    5260.2249   -181.49954   -1398.6197   -923.65413   -7325.8103 
15387000    183.16908   -9427.0119   -8728.6878   -9427.0119            0    7656.0972    24.766896    24.904645    22.947077    14154.004    8881.1227    6483.3357    7603.8333   -126.44904    643.09455    887.07992   -7148.3037 
15388000    189.26836   -9415.9384   -8694.3611   -9415.9384            0    9069.1175    24.900167    24.677461    22.947957    14100.898    7643.7547    11014.831     8548.767    538.69763   -737.78133   -149.82444   -6829.3231 
15389000    183.62461   -9435.1544   -8735.0936   -9435.1544            0    8439.1298    24.767599    24.879103    22.878684    14097.745    8510.8522    8767.1215    8039.4157   -317.96281    807.58412   -266.33948   -6999.9988 
15390000    187.65212   -9417.2124   -8701.7969   -9417.2124            0    8918.6639    24.902156    24.805412    22.820773     14096.58    7265.2505    9937.0738    9553.6675    42.700154    397.23548    392.87694   -6868.2609 
15391000    190.09556   -9458.9977   -8734.2667   -9458.9977            0    7763.1412    24.803219    24.933217    22.856401    14134.948     8223.258     6984.083    8082.0827    30.775593    33.774544   -463.87094   -7133.9439 
15392000    183.46219   -9423.4114   -8723.9698   -9423.4114            0    8523.5939    24.993252    24.753715     22.77073      14087.7    6056.8878    9614.4676    9899.4262   -26.257311   -1044.2727    394.55385   -6972.7577 
15393000    184.94736    -9413.442   -8708.3383    -9413.442            0    7774.4036    24.851857    24.881751    22.887561      14152.7    6441.3063    8530.6267    8351.2778    13.471639   -738.67672   -914.27891   -7103.6811 
15394000     182.2062   -9417.5824   -8722.9292   -9417.5824            0     6517.024    24.855028    24.961092    22.891983    14202.384    6811.4629    6896.0916    5843.5176    607.37574    -138.5868    341.92596   -7373.0763 
15395000    197.48255   -9420.6997   -8667.8061   -9420.6997            0    8702.7687    24.917783    24.879832    22.755539    14107.302    8170.8866    7929.8448    10007.575     662.7453   -256.35182   -37.205071   -6877.2938 
15396000    195.80493   -9458.6528   -8712.1551   -9458.6528            0    8883.9497     24.83409    24.864249     22.81248    14086.273    9458.4673    7647.0664    9546.3153   -339.56006    584.77011    894.28944   -6887.0912 
15397000    183.26108   -9410.2449   -8711.5701   -9410.2449            0    9424.6515    24.789864    24.818311    22.900633    14089.444    8953.8222    9910.9294    9409.2028    291.51584    373.27047    570.73686   -6774.9919 
15398000    185.69674   -9446.8191   -8738.8584   -9446.8191            0    8634.9801    24.800831    24.831306    22.913429    14110.938    8492.2532    8526.0833    8886.6038    63.346782     186.8609    96.395446   -6961.8351 
15399000    184.05247   -9408.1508   -8706.4588   -9408.1508            0    7700.6309    24.759892    24.910761    22.983234    14175.777    7960.4265    7348.0571    7793.4091   -161.83511    752.89867   -210.64321   -7114.4368 
15400000    176.95377   -9399.6335   -8725.0051   -9399.6335            0    8211.8173    24.867346    24.820639    22.912671    14142.237    7929.2673     8549.916    8156.2685    207.65263   -1547.4418    351.36603   -7031.3176 
15401000    195.51872   -9451.3113   -8705.9048   -9451.3113            0    6650.5106    24.850779    24.962142    22.901315    14206.342    7167.3754    5896.0665    6888.0899   -235.74322    206.15469     531.6204   -7328.0193 
15402000    188.66027   -9450.5696   -8731.3106   -9450.5696            0    7001.3225    24.960549    24.799076    22.912704    14182.931    5594.9522     8274.671    7134.3443   -163.06372   -1026.9396    161.12801   -7283.1326 
15403000    190.27209   -9426.8757   -8701.4718   -9426.8757            0    7734.2516    24.732116    24.983313     22.93632    14172.128    9481.9964    6530.8242    7189.9342    164.18358    527.22171   -997.79874   -7102.9107 
15404000    188.92826   -9461.3701   -8741.0894   -9461.3701            0    6953.7876    24.898437    24.838329    22.944037    14189.408    7375.7287    6638.8606    6846.7736   -31.072429   -239.82544    400.70118   -7302.0867 
15405000    187.23013   -9429.7678   -8715.9612   -9429.7678            0    8355.8956     24.78925    24.871086    22.902217    14120.031    7619.6813     9057.373    8390.6326    -469.2444   -227.38008   -274.49097   -6995.2636 
15406000    180.92842   -9455.0213   -8765.2396   -9455.0213            0    9773.2473    24.708576    24.820547    22.876852    14029.925    9997.1128    9916.8875    9405.7417   -741.55489    402.18647    68.298959   -6765.5154 
15407000    189.06934   -9433.1549   -8712.3363   -9433.1549            0    8657.9112    24.796939    24.800629    22.922629    14096.951    9166.0588    8644.6556    8163.0191   -844.25979   -431.68574    47.295943   -6932.3601 
15408000    186.18712   -9414.6802     -8704.85   -9414.6802            0    8636.4801     24.78573    24.851465    22.922241    14119.223    8855.6794    9552.0605    7501.7004    185.93899   -610.24104    380.97256   -6926.4745 
15409000    189.31676   -9404.4955   -8682.7336   -9404.4955            0    8755.0444    24.845059    24.877508    22.884599    14144.585    8801.5701    8750.4468    8713.1163   -449.25299   -552.55074   -174.28565   -6876.7057 
15410000    183.66998   -9416.1738   -8715.9401   -9416.1738            0    9094.4042    24.786689    24.851411    22.891335    14100.701    9571.2717    8856.8826    8855.0584    559.69031    102.18153    -339.1359   -6845.7281 
15411000     189.4232   -9471.4858   -8749.3181   -9471.4858            0     7613.755    24.816936    24.877271    22.891327    14132.594    7263.3745    7937.5609    7640.3296   -308.03661   -191.35892   -157.77906   -7180.0518 
15412000    186.19973   -9426.2757   -8716.3974   -9426.2757            0    7515.9151     24.93693    24.916572    22.809249    14172.363     6938.499    7547.3134    8061.9329   -87.469501    18.783494   -697.54536   -7162.9376 
15413000    184.06238    -9405.272   -8703.5423    -9405.272            0    8425.3307    24.779362    24.912837    22.927075    14153.438    9686.5379    7436.4635    8152.9905   -637.14274    27.267184   -83.644483   -6964.4413 
15414000    187.21167   -9439.9351   -8726.1989   -9439.9351            0    8566.3122    24.824204    24.844218    22.849963    14092.439    8815.4859    8302.8437    8580.6071    384.34351   -110.39712   -80.402608   -6965.6181 
15415000    186.61106   -9415.0597   -8703.6132   -9415.0597            0     8610.795    24.796963    24.811378    22.952324    14121.344    9670.9298    9116.8134     7044.642    522.90388    845.93081    1068.5152   -6930.2603 
15416000    193.64644   -9420.5998   -8682.3313   -9420.5998            0    8882.2086     24.78943    24.873093    22.893829    14116.101    8104.7753    9364.1564     9177.694   -284.09775    235.56875    -1005.955   -6853.7612 
15417000    185.82313   -9460.6264   -8752.1839   -9460.6264            0    8123.2557    24.798979     24.74513     23.01621    14123.988    8458.2187    8790.4343    7121.1141   -1129.5838    277.79074    -1033.627   -7078.9242 
15418000    188.15219   -9391.9442   -8674.6222   -9391.9442            0    8250.3505     24.72004    24.884827    23.013528    14156.861    8837.1307    8000.8624    7913.0585    238.49717   -1660.9374    319.79578   -6971.2276 
15419000    190.65882   -9436.7742   -8709.8959   -9436.7742            0    8377.7988    24.803922    24.850955    22.923562     14130.11    8509.8145    7726.8626    8896.7191    86.571142    780.77202    510.82734   -6983.4563 
15420000    185.20224   -9428.1641   -8722.0887   -9428.1641            0    8267.9641     24.87372    24.795041    22.915675    14133.126     7949.772    9476.4378    7377.6825   -516.84269     54.46086   -243.62146   -7017.9195 
15421000    187.25652   -9436.2303   -8722.3231   -9436.2303            0    7892.0848     24.82622    24.880687    22.919034    14156.936    7530.5591    7766.6821    8379.0131    610.36861   -517.82912     536.6043   -7092.8886 
15422000    182.73177   -9416.4447   -8719.7879   -9416.4447            0    7834.5018    24.888656    24.895846    22.831688    14147.065    7137.3231    8143.4237    8222.7586   -1253.2782   -86.678309   -237.43937   -7103.3701 
15423000    189.59188   -9431.1298    -8708.319   -9431.1298            0    8302.1211    24.895624    24.918647    22.765395     14122.86    8287.6182    7939.8957    8678.8494   -103.74827   -565.03504     1595.119   -6998.3525 
15424000    189.19114    -9450.921   -8729.6381    -9450.921            0    8421.7577     24.86249     24.91471    22.791296     14117.88    8898.5838    7222.9886    9143.7008    -468.0883   -446.66772   -78.846582    -6995.642 
15425000    186.08103   -9423.7078   -8714.2821   -9423.7078            0    7976.5504    24.864628     24.86146    22.899067    14155.538    7486.4122    8730.0707    7713.1683   -508.65803   -803.59538    390.87267   -7067.5711 
15426000    181.44555   -9427.8325   -8736.0794   -9427.8325            0    6989.3373    24.840583    24.905958    22.947704    14197.252    7705.8982    6436.3532    6825.7604    471.75996    800.10909    132.13557   -7288.9206 
15427000    188.17365   -9420.9901   -8703.5863   -9420.9901            0    8419.8098    24.793726    24.827754    22.979749    14145.703    8265.0641    8393.3249    8601.0404   -896.01163    392.46718    430.23718   -6966.5748 
15428000    187.76332   -9428.7617   -8712.9223   -9428.7617            0    7773.9437    24.794213    24.863955    22.942757    14143.801    8425.2204    7793.5424    7103.0682   -557.54363   -146.60043    331.84822   -7109.3689 
15429000     185.7463   -9423.9071   -8715.7575   -9423.9071            0    8337.2386    24.674208    24.911163    23.005864    14140.858    10162.299    7655.4053    7194.0111   -66.517797   -443.58187    151.95305   -6996.3695 
15430000    186.53466   -9446.4073   -8735.2521   -9446.4073            0    8169.8401    24.865171    24.742129    22.966892    14129.629    8678.1876    8500.9728      7330.36   -1558.9475   -1209.8214    304.41415   -7051.7247 
15431000    191.76858   -9439.8707   -8708.7614   -9439.8707            0    7702.1791    24.708419    24.927249    22.964477    14144.118    8765.4441    6319.3145    8021.7786   -216.28215    333.28632   -454.80928   -7119.9756 
15432000    190.33176   -9409.3769   -8683.7454   -9409.3769            0    8201.6527     24.82096    24.867189    22.928686    14152.216    8522.1475    7865.8454    8216.9653   -745.11916   -51.674859    30.839147   -6990.9608 
15433000    193.67897   -9450.4328   -8712.0402   -9450.4328            0    8344.9929    24.814067     24.91997    22.831774    14118.389    8502.8339    7539.3738    8992.7709   -1145.8509   -190.41367   -516.07249   -6993.7877 
15434000    189.51829   -9428.4545   -8705.9244   -9428.4545            0    8207.3139    24.825989    24.909301    22.843095    14126.125    8591.5778    7935.3937    8094.9703    502.30428    249.35942   -697.73183   -7015.0942 
15435000    189.78867   -9394.3687   -8670.8077   -9394.3687            0    7717.3667    24.935764    24.795957    22.936352    14181.687    6995.6558    8684.2972    7472.1472   -645.62004   -1239.7687    1269.6312   -7074.6605 
15436000    187.68801   -9392.6351   -8677.0828   -9392.6351            0    8462.1719    24.761894    24.977848      22.8921    14158.737    9157.0848    7403.8616    8825.5693    167.31712   -175.51525   -394.11223   -6929.7234 
15437000    185.25209   -9454.0891   -8747.8236   -9454.0891            0    8257.8537    24.924523    24.765162    22.873422    14118.845    7711.7954    8045.5324    9016.2332   -53.663897    170.36298   -19.424357   -7047.4583 
15438000    196.17929   -9432.0336   -8684.1087   -9432.0336            0    7944.5619    24.815469    24.946466    22.832348    14134.553    8593.2847    6879.2924    8361.1085   -909.08431    101.56977    801.63455   -7046.4329 
15439000    180.95322   -9444.2621   -8754.3859   -9444.2621            0    7629.7822    24.911616    24.841883    22.884372    14162.027    7545.8113    7611.2092    7732.3261    -588.7564    1008.7517    231.69747   -7178.5411 
15440000    194.03903   -9414.5958   -8674.8306   -9414.5958            0    8943.4745    24.817293    24.877868    22.826257    14092.961     8890.765    9309.5448    8630.1136   -158.89287   -395.54809    179.41633   -6836.6659 
15441000     190.1594   -9419.9104   -8694.9361   -9419.9104            0    9931.2328    24.791642    24.866159     22.85023    14086.547    10731.887     9314.292    9747.5192   -654.09952   -91.034085    612.48796   -6654.6851 
15442000    193.26638   -9421.0002   -8684.1806   -9421.0002            0    9316.1433    24.812934    24.870426    22.839111    14094.204    9423.6095    9066.6354     9458.185    385.92897    398.28131    369.29872    -6769.252 
15443000    189.51374   -9432.4292   -8709.9164   -9432.4292            0    8477.1901    24.925764    24.871921    22.808584    14140.219    7950.0034    7891.9779    9589.5889    317.84198   -1093.9966    181.30371   -6961.7453 
15444000    187.80287   -9437.8368   -8721.8467   -9437.8368            0    7137.8949    24.819232    24.895376    22.928626    14167.234    7234.8076    7334.6735    6844.2035    235.32332   -8.6157867    165.47423   -7247.0536 
15445000    186.41267   -9411.0967   -8700.4066   -9411.0967            0    8974.8198    24.929768    24.749944     22.86607    14108.602    7759.8076    9241.5433    9923.1086   -407.93287   -437.69517   -882.19419   -6853.7522 
15446000    189.56085    -9418.216   -8695.5235    -9418.216            0    9459.3991    24.745324    24.932576    22.842544    14093.043    9562.2578    9430.9767    9384.9626    18.362459   -76.691141    507.71803   -6751.3089 
15447000    184.07119   -9415.0855   -8713.3222   -9415.0855            0    7522.6123    24.979632    24.743827    22.927235    14171.133    7025.1258    7949.3856    7593.3255    16.682523    751.36596    615.37217    -7158.613 
15448000    186.68262   -9402.1057   -8690.3864   -9402.1057            0    8766.4191    24.756863    24.871201    22.907708     14105.03    9236.8445    8539.2595    8523.1535   -703.91498    418.09968    -1219.048   -6887.0691 
15449000    192.33001   -9406.7604   -8673.5107   -9406.7604            0    9165.9241    24.948374    24.727651    22.848894    14095.818    7242.0833     11282.49    8973.1987    126.73425    167.67848    -86.28654   -6789.2438 
15450000    187.29201   -9421.1683   -8707.1258   -9421.1683            0     8401.117    24.810173    24.903462    22.884603    14139.463    7858.0572    8654.0153    8691.2785    683.09314   -525.17964   -120.59116   -6974.7351 
15451000    188.62466   -9401.5352   -8682.4119   -9401.5352            0    8188.1587    24.865597    24.889032    22.890447    14166.454     8977.065    7761.8135    7825.5975     48.64139   -1511.8901    670.62836   -6990.7121 
15452000    185.89671   -9427.2245   -8718.5014   -9427.2245            0    7771.8328    24.933279    24.867715    22.829046    14154.777    6787.2676    8582.3771    7945.8537    240.28984    90.183722    464.17594   -7114.1394 
15453000    185.47533   -9444.7412   -8737.6247   -9444.7412            0    7784.8507    24.821235    24.950441    22.793048    14115.751     8145.597    7476.8787    7732.0765   -582.28033   -361.76812    1105.1686   -7135.0061 
15454000    188.41105   -9409.4039   -8691.0951   -9409.4039            0    7709.9032    24.944282    24.828681    22.850591    14152.139    7711.0691    8736.4734    6682.1673   -38.789957   -173.47281    1168.9917    -7099.814 
15455000    185.68143    -9437.217   -8729.3147    -9437.217            0    9204.1227     24.81419    24.935952    22.755813    14080.511    9148.1592    8729.3221    9734.8868   -815.24829    775.57918    526.39342   -6839.2498 
15456000    176.18661   -9437.5829   -8765.8792   -9437.5829            0    8591.0798    24.874743    24.869743    22.788755    14097.772    8030.0844    8675.5824    9067.5726   -271.47091    586.84356    341.13173   -6999.5399 
15457000     187.2369   -9417.5122   -8703.6797   -9417.5122            0     8189.216    24.843509    24.936755    22.808176    14130.041     7889.111    7429.9496    9248.5875   -29.336281   -166.49168    186.43506   -7016.1103 
15458000    188.29854   -9425.4864   -8707.6066   -9425.4864            0    7992.5247    24.885427    24.897181    22.825874    14142.386    7507.2133    8620.5501    7849.8108   -2.8374056   -1299.5265    220.81411   -7059.1308 
15459000    186.63403   -9397.4395   -8685.9055   -9397.4395            0     7231.936    24.883967    24.953292    22.868885    14200.135    8010.2177    6911.0301    6774.5603    489.73556    193.63713    837.69647    -7188.212 
15460000     186.2546   -9409.0919   -8699.0044   -9409.0919            0    8454.1793    24.790608    24.895593    22.903607    14135.577    7922.7138    8582.8976    8856.9266   -307.12548   -1417.2672    118.75461   -6956.1509 
15461000    196.52662   -9438.4781    -8689.229   -9438.4781            0    8277.3049    24.935963    24.723151    22.913811    14126.263    6876.6301    10095.157    7860.1271   -58.015938    -537.0001   -36.207828   -6983.9631 
15462000    191.41778   -9437.3906   -8707.6187   -9437.3906            0    9055.8975    24.739944    24.920298     22.83836    14080.461    9733.2179     8851.583    8582.8916    441.87067   -33.189554   -879.57468   -6847.9985 
15463000    183.30745   -9409.5616     -8710.71   -9409.5616            0    9505.3548    24.811117    24.729368    22.928693    14068.203    9208.8678    10403.409     8903.788    282.13277    1033.0489    100.08107   -6760.4934 
15464000    185.70043    -9402.897   -8694.9223    -9402.897            0    9276.9005    24.768964    24.854543    22.942559    14123.927    9980.1543    9229.3323    8621.2149   -209.78443   -502.86928    -455.7869   -6784.0385 
15465000    190.20011   -9442.5347   -8717.4052   -9442.5347            0    9836.0657    24.729444    24.837488     22.88063    14053.678    10373.594    9288.4346    9846.1689    106.60613    81.705782    907.17856   -6701.4201 
15466000    183.80679    -9439.947   -8739.1916    -9439.947            0    7932.6663    24.874288    24.781948    22.934998    14137.897    6951.3397    9568.9803     7277.679   -76.547992   -983.52652    994.76661   -7103.5811 
15467000    189.97011   -9415.4574   -8691.2047   -9415.4574            0    8002.6875    24.688744    24.886607    23.001276    14132.423    9536.1517     7494.251    6977.6596   -466.92554   -632.38581     987.0075   -7041.7957 
15468000    187.38811   -9416.5271   -8702.1182   -9416.5271            0     9003.084    24.828003     24.83139    22.859986    14093.498    10181.155    8641.5938    8186.5031   -351.44601    498.91186    643.42052   -6851.6314 
15469000    185.64201   -9442.1737   -8734.4217   -9442.1737            0    8300.9586    24.753652    24.979078     22.83768    14121.072    8609.1325     7293.975    8999.7682   -301.62244   -241.33343    -377.3345   -7024.9111 
15470000    186.48012   -9427.6518   -8716.7046   -9427.6518            0    7683.2114    24.958316    24.787587    22.866378    14146.432     6261.228    8097.2101    8691.1961   -568.86738    156.35668    104.73948    -7131.572 
15471000    185.89006   -9421.7301   -8713.0324   -9421.7301            0    8038.4665    24.768175    24.926465    22.905266    14141.323    8367.6184    7760.2959    7987.4853   -448.06762   -216.62117    93.764234   -7055.2057 
15472000     182.1156    -9422.661   -8728.3533    -9422.661            0    7912.9553    24.883841    24.795908      22.9222    14143.397    8392.8142    8711.9989    6634.0528   -290.67837   -808.71932    861.10469   -7096.1723 
15473000    191.41848   -9444.1541   -8714.3796   -9444.1541            0    8257.0454    24.823785    24.850269    22.880124    14114.239    8400.5746    8039.0797     8331.482    127.30291    750.59269    205.61408   -7014.7353 
15474000    192.10204   -9393.0827   -8660.7022   -9393.0827            0    8732.7689    24.795329    24.937538    22.850314    14129.136    8648.9155    8506.4628    9042.9285   -325.10954   -194.83586    837.22052   -6861.2369 
15475000     180.7098   -9408.5871   -8719.6389   -9408.5871            0    8842.2044    24.884924     24.83684    22.792653    14087.293    8798.1606    7776.8827      9951.57   -161.91286    -398.2823   -44.503014   -6903.0193 
15476000    188.39873   -9429.8299    -8711.568   -9429.8299            0    8743.1554     24.85142    24.813373    22.905039    14124.336    9252.3568    7922.6445    9054.4648   -694.93566   -379.82966    129.78264   -6910.5746 
15477000    192.23737   -9419.7048   -8686.8083   -9419.7048            0    8643.6716    24.746507    24.848745    22.934699    14102.997    10573.517    8197.5075    7159.9903    409.77116     117.1214    53.581122   -6908.9974 
15478000    189.44672   -9401.6933    -8679.436   -9401.6933            0    9813.0536    24.845958     24.78895    22.862881    14081.367    8943.9447    10982.405    9512.8108   -345.28233    829.80261   -259.23173   -6664.2048 
15479000    191.68195   -9448.4877   -8717.7087   -9448.4877            0    8323.9412     24.75065    24.846795    22.907823    14087.723    9243.8104    8105.5697    7622.4434   -297.91908   -257.23725    248.78868   -7007.5135 
15480000    190.33986    -9416.955   -8691.2926    -9416.955            0     8777.216    24.769529    24.761209    22.987623     14098.85    9333.4229    9913.2151      7085.01   -392.03302    4.9560593    109.13758   -6886.5455 
15481000    194.28455   -9415.2817   -8674.5804   -9415.2817            0    8438.7704    24.860421    24.826651     22.89896    14133.261    8019.4251    8074.9619     9221.924    1038.9065   -245.06334    -138.0705   -6935.1885 
15482000    193.38403   -9431.2348   -8693.9667   -9431.2348            0    7744.2843    24.810435    24.954945     22.86919      14159.3    8167.4082    6193.0424    8872.4023     728.9462   -437.28195    -529.0555   -7094.7808 
15483000    193.71567   -9417.4386   -8678.9061   -9417.4386            0    8430.7109    24.860168    24.853238    22.858833     14123.46    7993.7219     8906.238    8392.1728    160.02484    398.18702   -1066.4748   -6942.3805 
15484000    188.80416   -9413.3187   -8693.5111   -9413.3187            0    8369.6187    24.906095    24.866368    22.796828    14118.625    7568.3003    8305.8146    9234.7413   -645.89085    300.60509   -870.04714   -6970.1592 
15485000    185.55677   -9420.7422   -8713.3152   -9420.7422            0    9743.5055    24.849085    24.944315    22.629118     14026.51    9343.1004    9551.4682    10335.948    527.99382   -596.87293    596.29287   -6720.1617 
15486000    195.12099   -9433.8301   -8689.9399   -9433.8301            0    8509.2069    24.877801     24.86863    22.794785    14102.605    8361.8031    8025.9231    9139.8945   -438.28372    114.01687   -380.48085    -6939.834 
15487000    192.33444   -9451.6564   -8718.3898   -9451.6564            0    8037.1783    24.807015     24.99001    22.772368    14117.218    8147.6937     7205.276    8758.5652   -778.24519   -81.133435    13.804179   -7063.6542 
15488000    196.96546   -9411.4225   -8660.5003   -9411.4225            0     7922.289    24.897508     24.84574    22.853438    14137.068    8042.1622    7679.8343    8044.8706    -5.050919   -531.49749    488.84521   -7027.1253 
15489000    181.71198   -9399.2811   -8706.5122   -9399.2811            0    7857.9065    24.840142    24.980345    22.841323    14173.391    7828.4106    7114.5772    8630.7316    -179.6118   -838.18439    104.02709   -7082.2486 
15490000    190.34366   -9406.4442   -8680.7673   -9406.4442            0    7859.2134    24.964166    24.875925    22.801479    14159.871    7898.3381    7291.4905    8387.8118    12.989901   -851.49705    79.765667   -7057.7831 
15491000    194.08186   -9425.6756    -8685.747   -9425.6756            0    9348.3862    24.820505    24.849415     22.79689    14060.553    9639.6582    9053.1655    9352.3349    101.37936    750.21938   -28.920698   -6768.7787 
15492000    189.83616   -9399.6026   -8675.8606   -9399.6026            0    9944.7261    24.786111    24.879164    22.779124    14046.923    9968.7613    10316.466    9548.9511   -121.29225    591.41642   -20.113771   -6638.5844 
15493000    191.10723   -9431.4619    -8702.874   -9431.4619            0    9194.0425    24.741707    24.888706    22.872183     14084.44    10022.166    8087.4491    9472.5121   -513.82631   -762.36175    478.49989   -6814.3523 
15494000     183.2531   -9420.1915   -8721.5471   -9420.1915            0    8611.7214    24.972002    24.788692    22.802697      14115.4    6826.3772    9418.4331     9590.354    -894.0335   -500.86717      84.8002   -6948.7499 
15495000    186.90187   -9414.0279   -8701.4727   -9414.0279            0    8562.1179    24.793958    24.914608    22.839853    14108.903    9559.2866    7740.4931    8386.5738   -466.31475   -58.169015   -301.65946   -6939.6982 
15496000    188.75504   -9438.2866   -8718.6663   -9438.2866            0     8732.902    24.867211    24.775903     22.89562    14106.166    7652.3833    10329.282    8217.0412   -1225.4766    409.07803   -1888.7064   -6922.0991 
15497000    189.16288   -9394.2241    -8673.049   -9394.2241            0    8175.6848     24.79134    24.890193     22.95295    14163.376    7909.9692    8264.7546    8352.3307     -53.7659    -544.5751    308.11139   -6984.2933 
15498000    182.45915    -9435.096   -8739.4785    -9435.096            0    7635.3665    24.909464    24.736187    22.956439    14144.958    6822.1053    8587.8328    7496.1615   -248.22575   -162.28138      312.045    -7164.381 
15499000    184.94896   -9458.8633   -8753.7536   -9458.8633            0    8253.0202    24.737443    24.891324    22.902715    14102.294    8970.5802    8215.7247    7572.7556    83.626711    849.11335    671.46283   -7056.3755 
15500000    190.46603   -9410.4034   -8684.2601   -9410.4034            0    8936.7802    24.837161    24.786412    22.944858    14125.408    8500.5884    8865.6483     9444.104   -251.41967   -107.42544    1657.6973   -6843.2423 
Loop time of 596.644 on 64 procs for 250000 steps with 1920 atoms

Performance: 72.405 ns/day, 0.331 hours/ns, 419.011 timesteps/s
371.2% CPU use with 16 MPI tasks x 4 OpenMP threads

MPI task timing breakdown:
Section |  min time  |  avg time  |  max time  |%varavg| %total
---------------------------------------------------------------
Pair    | 76.23      | 77.62      | 79.326     |   7.5 | 13.01
Bond    | 1.62       | 1.81       | 2.6858     |  21.5 |  0.30
Kspace  | 287.34     | 293.53     | 304.84     |  26.4 | 49.20
Neigh   | 2.3678     | 2.4538     | 2.6253     |   5.6 |  0.41
Comm    | 77.632     | 87.116     | 93.186     |  41.9 | 14.60
Output  | 0.69097    | 0.69133    | 0.69281    |   0.0 |  0.12
Modify  | 93.199     | 104.03     | 107.54     |  39.7 | 17.44
Other   |            | 29.39      |            |       |  4.93

Nlocal:        120.000 ave         124 max         113 min
Histogram: 1 0 0 0 2 3 4 2 1 3
Nghost:        4179.88 ave        4233 max        4137 min
Histogram: 2 2 2 3 0 2 1 1 1 2
Neighs:        43034.3 ave       44698 max       40037 min
Histogram: 1 0 0 0 1 5 3 1 3 2

Total # of neighbors = 688549
Ave neighs/atom = 358.61927
Ave special neighs/atom = 2.0000000
Neighbor list builds = 4766
Dangerous builds = 0

unfix		3
unfix		2
unfix		1

write_data	data.final.${pid}
write_data	data.final.0
System init for write_data ...
PPPM initialization ...
  extracting TIP4P info from pair style
  using 12-bit tables for long-range coulomb (../kspace.cpp:340)
  G vector (1/distance) = 0.37479584
  grid = 30 30 30
  stencil order = 5
  estimated absolute RMS force accuracy = 0.003229648
  estimated relative force accuracy = 9.725989e-06
  using double precision FFTW3
  3d grid and FFT values/proc = 7920 1800
Last active /omp style is kspace_style pppm/tip4p/omp
WARNING: Not all mixed pair coeffs generated from mixing. Use write_data with 'pair ij' option to store all pair coeffs. (../write_data.cpp:312)

write_restart   restart.lmp.${pid}
write_restart   restart.lmp.0
System init for write_restart ...
PPPM initialization ...
  extracting TIP4P info from pair style
  using 12-bit tables for long-range coulomb (../kspace.cpp:340)
  G vector (1/distance) = 0.37479584
  grid = 30 30 30
  stencil order = 5
  estimated absolute RMS force accuracy = 0.003229648
  estimated relative force accuracy = 9.725989e-06
  using double precision FFTW3
  3d grid and FFT values/proc = 7920 1800
Last active /omp style is kspace_style pppm/tip4p/omp
Total wall time: 0:09:56
