LAMMPS (30 Jul 2021)
Processor partition = 1
  using 4 OpenMP thread(s) per MPI task
using multi-threaded neighbor list subroutines
variable        pid world 0 1
variable        phase world IceII IceIh

shell cd ${phase}
shell cd IceIh
include Restart.lmp
echo both
log log.lammps
#include		in.partitions
include		in.temp
variable        temperature equal 37.60
variable	tempDamp equal 100.0
include		in.pressure
variable        pressure equal 2002.3
variable        pressureDamp equal 1000.0 # This is 1 ps
include		in.seed
variable        seed equal 745823

units		real
atom_style	full
#include		in.box
read_restart	restart.lmp.${pid}
read_restart	restart.lmp.1
Reading restart file ...
  restart file = 30 Jul 2021, LAMMPS = 30 Jul 2021
  restoring atom style full from restart
  orthogonal box = (0.12530895 0.21854669 0.14682058) to (18.082263 23.410631 22.066375)
  2 by 4 by 2 MPI processor grid
  restoring pair style lj/cut/tip4p/long/omp from restart
  restoring bond style harmonic/omp from restart
  restoring angle style harmonic/omp from restart
  864 atoms
  576 bonds
  288 angles
Finding 1-2 1-3 1-4 neighbors ...
  special bond factors lj:    0        0        0       
  special bond factors coul:  0        0        0       
     2 = max # of 1-2 neighbors
     1 = max # of 1-3 neighbors
     1 = max # of 1-4 neighbors
     2 = max # of special neighbors
  special bonds CPU = 0.001 seconds
  read_restart CPU = 0.005 seconds
include 	in.setup
variable	out_freq equal 1000
variable	out_freq2 equal 10000
variable	out_freq3 equal 1000

timestep	2.0

neigh_modify    delay 7 every 1

include		in.tip4p
# This is TIP4P/Ice

# create groups ###
group ox type 2
288 atoms in group ox
group hy type 1
576 atoms in group hy

# set charges - beside manually ###
set group ox charge -1.1794
Setting atom values ...
  288 settings made for charge
set group hy charge 0.5897
Setting atom values ...
  576 settings made for charge

# ### TIP3P Potential Parameters ###
pair_style lj/cut/tip4p/long/omp 2 1 1 1 0.1577 8.5
pair_coeff 1 1*2 0.000 0.000
pair_coeff 2 2 0.21084 3.1668
bond_style  harmonic
bond_coeff  1 450 0.9572
angle_style harmonic
angle_coeff 1 55 104.52
kspace_style pppm/tip4p/omp 1.0e-5
pair_modify tail yes

thermo          ${out_freq}
thermo          1000
thermo_style    custom step temp pe etotal epair emol press lx ly lz vol pxx pyy pzz pxy pxz pyz enthalpy

restart 	${out_freq3} restart.lmp.${pid} restart2.lmp.${pid}
restart 	1000 restart.lmp.${pid} restart2.lmp.${pid}
restart 	1000 restart.lmp.1 restart2.lmp.${pid}
restart 	1000 restart.lmp.1 restart2.lmp.1


include         in.dump
dump            myDump all atom ${out_freq2} dump.water.${pid}
dump            myDump all atom 10000 dump.water.${pid}
dump            myDump all atom 10000 dump.water.1
dump            myDump2 all dcd ${out_freq2} dump.dcd
dump            myDump2 all dcd 10000 dump.dcd
dump_modify     myDump append yes
dump_modify     myDump2 append yes


variable natoms 	equal  "count(all)"                        # NUMBER ATOMS
variable H      	equal  "enthalpy/v_natoms"                 # ENTHALPY-per-atom
variable Vol      	equal  "vol/v_natoms"                 # volume-per-atom
fix AVG all 		ave/time ${out_freq} 1 ${out_freq} v_Vol v_H file vol_enthalpy.dat
fix AVG all 		ave/time 1000 1 ${out_freq} v_Vol v_H file vol_enthalpy.dat
fix AVG all 		ave/time 1000 1 1000 v_Vol v_H file vol_enthalpy.dat


timer           timeout 23:50:00 every 1000
New timer settings: style=normal  mode=nosync  timeout=23:50:00

fix 		1 all shake 1e-6 200 0 b 1 a 1
Finding SHAKE clusters ...
       0 = # of size 2 clusters
       0 = # of size 3 clusters
       0 = # of size 4 clusters
     288 = # of frozen angles
  find clusters CPU = 0.000 seconds
fix             2 all nph aniso ${pressure} ${pressure} ${pressureDamp}
fix             2 all nph aniso 2002.3 ${pressure} ${pressureDamp}
fix             2 all nph aniso 2002.3 2002.3 ${pressureDamp}
fix             2 all nph aniso 2002.3 2002.3 1000
fix             3 all temp/csvr ${temperature} ${temperature} ${tempDamp} ${seed}
fix             3 all temp/csvr 37.6 ${temperature} ${tempDamp} ${seed}
fix             3 all temp/csvr 37.6 37.6 ${tempDamp} ${seed}
fix             3 all temp/csvr 37.6 37.6 100 ${seed}
fix             3 all temp/csvr 37.6 37.6 100 745823


run             250000
PPPM initialization ...
  extracting TIP4P info from pair style
  using 12-bit tables for long-range coulomb (../kspace.cpp:340)
  G vector (1/distance) = 0.37216461
  grid = 24 27 25
  stencil order = 5
  estimated absolute RMS force accuracy = 0.0031054456
  estimated relative force accuracy = 9.3519572e-06
  using double precision FFTW3
  3d grid and FFT values/proc = 6300 1296
Last active /omp style is kspace_style pppm/tip4p/omp
Neighbor list info ...
  update every 1 steps, delay 7 steps, check yes
  max neighbors/atom: 2000, page size: 100000
  master list distance cutoff = 10.8154
  ghost atom cutoff = 10.8154
  binsize = 5.4077, bins = 4 5 5
  1 neighbor lists, perpetual/occasional/extra = 1 0 0
  (1) pair lj/cut/tip4p/long/omp, perpetual
      attributes: half, newton on, omp
      pair build: half/bin/newton/omp
      stencil: half/bin/3d
      bin: standard
Setting up Verlet run ...
  Unit style    : real
  Current step  : 40750000
  Time step     : 2
  Walltime left : 23:49:59.97
Per MPI rank memory allocation (min/avg/max) = 12.26 | 12.29 | 12.31 Mbytes
Step Temp PotEng TotEng E_pair E_mol Press Lx Ly Lz Volume Pxx Pyy Pzz Pxy Pxz Pyz Enthalpy 
40750000    40.011217    -4673.893   -4605.3152    -4673.893            0    1818.9562    17.956955    23.192084    21.919555    9128.6003    1631.1596    1943.4981    1882.2109    317.99946   -33.469341    66.932948   -4363.1552 
40751000    37.512277   -4674.2292   -4609.9344   -4674.2292            0    1403.1955    17.953038    23.340419    21.842555    9152.7171    891.81417    1067.8195    2249.9528   -276.29497    40.836642    258.12365   -4422.6317 
40752000    37.394109    -4673.519   -4609.4267    -4673.519            0    1549.7454    17.917007    23.245823    21.937928    9137.0497    1141.7964    1978.6785    1528.7612   -442.09477   -106.35735      210.879   -4402.9162 
40753000    38.838376   -4676.7685   -4610.2009   -4676.7685            0    1910.5375    17.901594    23.264953    21.905503    9123.1986    2211.7597    1588.4007    1931.4523   -277.29196    91.437395    110.25581   -4355.9991 
40754000    34.540094   -4674.3126   -4615.1121   -4674.3126            0    2189.1464     17.86551     23.25403    21.932753    9111.8546    1855.7991    2761.8832    1949.7569    532.50879    341.50299    163.30271   -4324.2028 
40755000    39.046122   -4674.9571   -4608.0333   -4674.9571            0     2164.162     17.97389    23.110333    21.926625     9107.938     1704.521    2847.7707    1940.1944     86.78005    201.25003   -55.951599   -4320.5678 
40756000    38.293079   -4672.3301   -4606.6971   -4672.3301            0    2253.3698    17.855154    23.225681    21.958503    9106.1499    2655.7671    2136.7769    1967.5655   -258.35091   -43.867013   -93.299923   -4307.4409 
40757000     38.37358   -4675.4364   -4609.6654   -4675.4364            0     2210.126      17.9323    23.214431    21.882502    9109.4261    1868.2205    2642.0758    2120.0816    -231.8735   -295.97397    13.567599   -4316.0466 
40758000    39.260452   -4675.1503   -4607.8592   -4675.1503            0    2263.4086    17.887627    23.408222    21.765568    9113.6252    2474.2326     1730.996    2584.9971    31.545844   -77.684139    195.72894   -4307.0231 
40759000    38.352229   -4671.8279   -4606.0935   -4671.8279            0    2003.2559    17.910579    23.339809    21.835971    9128.0795    1639.0265    1699.6245    2671.1167   -350.93497    195.09436    131.61647   -4339.4127 
40760000    37.991468   -4674.3112   -4609.1951   -4674.3112            0    2289.4242    17.941986    23.214591    21.868497    9108.5764    1829.5023    3040.8128    1997.9575    392.44991   -41.465078   -440.64928   -4305.0697 
40761000    39.311989   -4677.6398   -4610.2604   -4677.6398            0    2071.4276      17.8568    23.304992     21.90226     9114.682    2610.3019    1945.8753    1658.1056    217.67671    -140.8767    183.49702   -4334.9091 
40762000    39.635828   -4672.0943   -4604.1599   -4672.0943            0    1922.2597    17.956492    23.144778    21.953721    9123.9453    1369.9373    2624.3329    1772.5088    66.248355   -6.9507389     222.0019   -4348.3775 
40763000    38.834195   -4672.2635    -4605.703   -4672.2635            0    2057.6407    17.841376    23.263757    21.976454    9121.4907    2065.9474    2251.9009    1855.0737   -51.449389    240.40295   -106.28867     -4331.98 
40764000    36.240923   -4675.1408   -4613.0251   -4675.1408            0    1937.4475    17.930613     23.28601     21.84448    9120.7789    1759.2151    1792.1682    2260.9594   -2.6269569    112.06667    461.86808   -4355.3112 
40765000    37.875057   -4673.7134   -4608.7968   -4673.7134            0    2289.7734    17.969447     23.25369    21.788461    9104.4382    1961.3928    2143.5585    2764.3689    119.62109   -305.90077    12.397745   -4304.7632 
40766000    38.810783   -4675.7677   -4609.2474   -4675.7677            0    2237.3817    17.904977    23.221608    21.916685    9112.5709    2477.9049    2201.3325    2032.9076   -227.26796   -78.225222    37.838327   -4311.9049 
40767000    36.685325   -4671.8477   -4608.9703   -4671.8477            0    1813.3733    17.893674    23.376526    21.827019    9130.0662    2056.9143    1593.6745    1789.5311   -264.11846    130.37992   -156.48972   -4367.5149 
40768000    37.012099   -4676.8105   -4613.3731   -4676.8105            0    2167.7293    17.856594    23.275605    21.925344    9112.6777    2734.9632    1929.3953    1838.8294    437.25254   -115.99185   -252.38719   -4325.2839 
40769000    38.500527    -4675.668   -4609.6795    -4675.668            0    1727.4449    17.875346    23.271695    21.938623    9126.2392    1811.4491    1675.4815     1695.404   -316.20722   -220.03808    133.43493    -4379.762 
40770000    36.042647   -4673.3845   -4611.6087   -4673.3845            0    1935.5287     17.83419    23.323626     21.89944    9109.2473    2239.3608    1700.4575    1866.7678    234.70457   -130.38593    303.62867   -4354.4756 
40771000    36.534695   -4674.9549   -4612.3357   -4674.9549            0    1945.3091    17.893409    23.379587    21.791432    9116.2391    2158.3819     1389.554    2287.9914    227.39282    10.815911   -141.60557   -4353.7049 
40772000    37.499386   -4669.8858   -4605.6131   -4669.8858            0    2114.7083    17.895807    23.234789    21.909431    9110.0576    1669.0544    2009.9256    2665.1449   -116.29869   -164.07721    158.70995   -4324.6512 
40773000    37.474557   -4678.1914   -4613.9613   -4678.1914            0    1841.2641    17.884639    23.385997    21.793628    9115.1879    2171.7804    1574.0758    1777.9362    65.059062    15.496092    48.261618   -4369.1916 
40774000    40.047657   -4671.2078   -4602.5675   -4671.2078            0    1918.8846    17.952708    23.330058    21.792185    9127.3889    1878.6359    1827.4458    2050.5721    -89.80554   -155.92191   -108.30271   -4347.1378 
40775000    36.187358    -4671.235   -4609.2111    -4671.235            0    1785.0699     17.89379    23.263562    21.925922    9127.1758    2060.8423    1487.2552    1807.1122    102.17206   -214.60504   -31.448659   -4371.5996 
40776000    38.671708   -4671.4259   -4605.1439   -4671.4259            0    1280.7771    17.840404    23.240781    22.069297    9150.4803    1100.7068    2265.9614    475.66298   -40.571317   -41.120589    70.203375   -4434.2237 
40777000    37.520813   -4670.2938   -4605.9844   -4670.2938            0      1977.41    17.859543    23.340595    21.848192    9107.4703    2451.1945     1679.967    1801.0687    297.44564   -40.430795    106.34316   -4343.3386 
40778000    37.373934   -4675.4012   -4611.3436   -4675.4012            0    2228.4254    17.919128     23.21184    21.880775    9101.0005    2239.5947     2123.393    2322.2885    191.43229   -92.303929    17.416872   -4315.5675 
40779000    36.919576   -4677.8736   -4614.5947   -4677.8736            0    1596.6595    17.858183    23.277273    21.960547    9128.7752    1480.5645    1708.9939    1600.4202   -79.715116    156.95311   -259.19312   -4402.0253 
40780000    38.964494    -4673.951   -4607.1672    -4673.951            0    1462.2008    17.919563    23.298823    21.887274      9138.04    1887.0267    729.64634    1769.9292   -459.80756   -54.216017    277.03626   -4412.3013 
40781000    39.996751   -4673.8601    -4605.307   -4673.8601            0    1574.2494    17.821656    23.306763    21.988588    9133.2923    1796.1617    1675.4666    1251.1199    153.28226    90.813552    48.539084   -4395.6174 
40782000    36.535734   -4669.9588   -4607.3378   -4669.9588            0    1932.8046    17.934113     23.24094    21.896509    9126.5886    2287.6103     2459.992    1050.8115    532.92262    20.580102    54.635508   -4350.0778 
40783000    38.440179   -4672.0716   -4606.1864   -4672.0716            0    2231.6879    17.844217    23.272825    21.910737    9099.2076    2334.3439    2046.3555    2314.3642   -220.73901     161.6868    94.636471   -4310.0356 
40784000    36.201182   -4673.7132   -4611.6657   -4673.7132            0    2476.3563    17.863287    23.245209     21.90356    9095.1434    2143.3367     2466.307    2819.4251   -262.97795   -103.90945     157.7763   -4283.1935 
40785000    34.319848   -4673.2868   -4614.4637   -4673.2868            0    2167.2031    17.967861    23.219076    21.829448    9107.1831    1778.6559    2783.6921    1939.2612     60.49768    97.666069    -6.749331   -4326.6182 
40786000    36.004302     -4673.06   -4611.3498     -4673.06            0    2227.0221    17.930124    23.234137     21.85771     9105.724    1812.1184    2699.3584    2169.5897    364.84465   -30.358158     211.3826   -4315.6065 
40787000    38.523383   -4673.8755   -4607.8478   -4673.8755            0    2248.8485    17.924727    23.156879    21.954624    9112.9413    2492.1247    2175.4192    2079.0017   -103.43452   -28.632968    371.25552   -4308.9693 
40788000    38.113503   -4674.8702    -4609.545   -4674.8702            0     2158.625    17.897958    23.263381    21.893158    9115.5891    2105.0202    2540.4565    1830.3983    422.01364   -123.54106    37.268971   -4322.5741 
40789000    38.010612   -4675.1047   -4609.9558   -4675.1047            0    1955.3775    17.896342    23.274522    21.898182    9121.2239    2224.6708    1931.9069    1709.5548    114.33357    125.86336   -144.82822   -4349.8442 
40790000    37.768174   -4677.1765   -4612.4432   -4677.1765            0    1765.9923    17.887876    23.261329    21.934969    9127.0479    1687.1485    1867.7513    1743.0772    107.38055   -34.080692    140.75011   -4377.3744 
40791000    37.835008   -4676.3453   -4611.4974   -4676.3453            0     1621.171     17.93365    23.225384    21.930692    9134.4824    1690.5642     1527.257    1645.6917    285.45587   -183.60252   -97.026203   -4395.5298 
40792000    36.971558   -4674.4608   -4611.0928   -4674.4608            0    1696.3055      17.9379    23.182686    21.971239    9136.7115     1698.273    2010.2335    1380.4101    543.53887    75.357113    126.69564   -4385.0608 
40793000    37.200755    -4671.613   -4607.8522    -4671.613            0    1793.8999    17.851859    23.343888    21.892377    9123.2497    1830.5166    1751.9261    1799.2571   -204.54286    13.913903   -159.74362    -4369.168 
40794000    36.813817   -4671.5011   -4608.4034   -4671.5011            0    1708.9962    17.849032    23.342307    21.919722      9132.58    1619.9448    1447.0167    2060.0272   -297.11529   -40.613617    146.52524   -4380.7834 
40795000    36.658893   -4680.1393   -4617.3072   -4680.1393            0    1688.9757     18.01387    23.236524    21.813949    9130.8769    1336.0434    1932.2272    1798.6566    635.97908    51.981117   -149.21085   -4392.3957 
40796000    37.688815   -4670.5373   -4605.9399   -4670.5373            0    2242.7386    17.861564     23.37379    21.788926    9096.7123    2479.8219    1455.0894    2793.3045    -449.8868    247.43733   -100.86139   -4308.4043 
40797000    37.122282   -4676.2839   -4612.6576   -4676.2839            0    1618.6518    17.848159    23.318066     21.95866    9138.8554    1607.8276     2058.218    1189.9099    330.29855   -85.961203    24.520101   -4396.9223 
40798000    37.944466   -4672.8818   -4607.8463   -4672.8818            0    1628.5841    17.789883    23.396883     21.92494    9125.7697    1667.8847    1602.6857    1615.1821   -454.34968    331.30487    82.766863   -4391.0981 
40799000    37.957445    -4672.053   -4606.9952    -4672.053            0    2240.6394    17.856354    23.384179    21.804839    9104.7453    2515.0174    1393.2885    2813.6124    348.54661    31.798308    222.77087   -4309.4755 
40800000    34.457221   -4670.5294   -4611.4709   -4670.5294            0    2129.5036    17.914808    23.303724    21.817883     9108.568     1913.707    2285.4932    2189.3106   -73.070868   -108.59377   -71.781433   -4328.5895 
40801000    38.569931   -4672.6331   -4606.5256   -4672.6331            0    1745.4126    17.903475    23.252714    21.927895    9128.6787    1138.2083    1879.2208    2218.8086   -191.50448   -245.19751    60.465935   -4374.1546 
40802000    37.170917   -4673.2967    -4609.587   -4673.2967            0    1954.1365    17.861046    23.290201    21.897106    9108.9192    2105.9997    2382.7127     1373.697   -219.48472    189.50271    228.48053   -4349.9912 
40803000    37.714056   -4677.1812   -4612.5406   -4677.1812            0    2022.0097    17.860693    23.306517    21.887497    9111.1204    1627.9087     2201.909    2236.2113     129.7233   -16.269505   -75.298414   -4343.8633 
40804000    38.104801   -4672.9636   -4607.6533   -4672.9636            0    1777.4936    17.881459    23.347642    21.839778    9117.8867    1883.4817     1475.214     1973.785    106.66678    224.82938    65.960791    -4371.291 
40805000    38.096262   -4675.0053   -4609.7096   -4675.0053            0    1960.3527    17.863656    23.381561    21.805498    9107.7238    1904.4124    1875.5204    2101.1252    234.72004   -12.664155   -166.56757   -4349.3222 
40806000     38.71762   -4670.9873   -4604.6266   -4670.9873            0    1849.5667    17.820194    23.376318    21.880588     9114.808    2255.0853    1357.5457    1936.0692   -55.179218   -157.84163    284.35803   -4358.7634 
40807000    37.397037   -4674.6402   -4610.5429   -4674.6402            0    1841.5614    17.867535    23.363613     21.85508    9123.4069    2114.0018    1724.3659    1686.3166   -299.57368     339.9063    217.38457    -4365.513 
40808000    37.167907   -4672.8495   -4609.1449   -4672.8495            0    2059.0951    17.873238     23.26574    21.896356    9105.2517    1658.9453    2808.1489    1710.1912   -95.262124    237.48219    179.18444   -4335.7161 
40809000     39.10653   -4675.9236   -4608.8963   -4675.9236            0    2013.6058     18.00083    23.124683    21.899114    9115.8017    2138.9918    2395.1398    1506.6857    32.302592   -185.76949    154.49683   -4341.1983 
40810000    36.311411   -4676.8627   -4614.6262   -4676.8627            0     1808.821    17.851747    23.372408    21.883021    9130.4351    1963.6857    1611.5052    1851.2722   -165.64796   -7.8690504     14.88876   -4373.7672 
40811000     36.74156    -4672.047   -4609.0732    -4672.047            0    2029.3356    17.813467    23.308502    21.938251    9108.8765    2373.1799    1688.8792    2025.9477    470.72905    338.05539    163.43165   -4339.4889 
40812000    38.367302   -4673.5085   -4607.7483   -4673.5085            0    1744.7934    17.890405    23.353944    21.844994    9127.0899    1529.3645    1949.8136     1755.202     -270.077    34.174638    224.89869   -4375.5001 
40813000    37.372771   -4668.0013   -4603.9457   -4668.0013            0    1696.0073    17.969832    23.275403    21.846029     9137.213    1963.5616    1457.9504    1666.5098   -35.237926   -104.36826   -2.1850669   -4377.9411 
40814000    38.939997   -4676.0978    -4609.356   -4676.0978            0    1755.0903     17.98174    23.217474    21.855326    9124.3931    1792.9822    1820.0617     1652.227    67.169164    4.9345603    124.65821   -4375.8063 
40815000    36.526275   -4675.3223   -4612.7175   -4675.3223            0    1995.2745    17.818147    23.408079    21.857555    9116.5363     2228.528     1857.192    1900.1035   -355.89579    443.04327    53.235947   -4347.4352 
40816000    38.199127   -4671.1885   -4605.7165   -4671.1885            0    2056.9801    18.006264    23.129726    21.863126    9105.5539     1441.612    2523.6844    2205.6439   -35.041644    455.52451     127.6631   -4332.5595 
40817000    36.679353   -4677.9462   -4615.0791   -4677.9462            0    1989.7592    17.902585    23.268885    21.891726    9119.5057    2191.1619    2199.6518     1578.464    -64.37497   -188.50226    36.988945   -4350.4438 
40818000    37.328391   -4674.8532   -4610.8736   -4674.8532            0    2085.7364    17.887792    23.233106    21.934533      9115.75    2385.8513    1315.1573    2556.2006   -387.74046    -252.0312    348.18833   -4333.5878 
40819000    35.317693   -4676.3935   -4615.8602   -4676.3935            0    1953.0377    17.890332    23.219241    21.944098    9115.5769    2314.1434    1871.9981    1672.9717   -33.478828    59.913765     33.82757   -4356.2207 
40820000    36.931028   -4672.9941   -4609.6956   -4672.9941            0    1999.0417    17.922439    23.220931    21.912452    9119.4302    1598.4096    2516.0327    1882.6827   -644.67214   -123.94246    152.04541    -4343.828 
40821000     37.52131   -4672.1025   -4607.7923   -4672.1025            0    2493.0872     17.93338    23.187457    21.853778    9087.4448    1956.5076    2400.1507    3122.6034   -373.03025    93.935373   -148.58777   -4277.3808 
40822000     42.06108   -4672.8056   -4600.7144   -4672.8056            0    2722.2941    17.899938    23.327502     21.74542    9080.0357    2818.8008    2058.8899    3289.1918   -49.707727    146.38772    111.58257     -4240.22 
40823000    35.487061   -4675.6123   -4614.7887   -4675.6123            0    2105.8185    17.863529    23.255946    21.928037    9109.6362    1946.6598    2058.8893    2311.9063    214.55879   -213.34887    185.11535   -4335.0208 
40824000    37.086095   -4674.9837   -4611.4194   -4674.9837            0    1712.8272    17.907428    23.231852     21.92578    9121.6222    1373.1915    2001.2862    1764.0039   -279.80817    135.32666     88.92088   -4383.5628 
40825000    35.897192   -4673.2104   -4611.6839   -4673.2104            0    2167.0003    17.933588    23.281301    21.811645    9106.7384    2206.3134     2045.961    2248.7264    246.95885    351.28106     41.54901   -4323.8793 
40826000    37.649074   -4675.8768   -4611.3475   -4675.8768            0     2372.494    17.825396    23.314272    21.906634    9104.0933    2241.9103    3052.6437     1822.928   -774.86298    4.2758974   -49.901101   -4296.3423 
40827000    36.502534   -4676.1228   -4613.5587   -4676.1228            0    2215.2788    17.933779    23.182761    21.907772    9108.2553    2002.1589    2503.8584    2139.8192   -35.862029    95.809536    307.20723   -4319.2932 
40828000    39.533107   -4671.6467   -4603.8883   -4671.6467            0    2267.2145    17.873988    23.328878    21.814595    9096.2518    2188.9994    2099.2123    2513.4319    419.67568    379.91456   -48.583397   -4303.1207 
40829000    38.012729   -4676.4269   -4611.2744   -4676.4269            0    2249.2386    17.922004    23.247747    21.833238    9096.7361    2056.5676    1986.0396    2705.1084   -85.984883   -412.44925   -102.60042   -4312.8756 
40830000    37.948116   -4670.0739   -4605.0321   -4670.0739            0    2070.6904    17.916262     23.29925    21.836026    9115.1316    2112.9943    1851.0507    2248.0263   -210.05784    163.90588   -181.48213   -4329.7652 
40831000    38.129909   -4675.8024   -4610.4491   -4675.8024            0    1950.2195    17.861023    23.266717    21.936054    9115.9083    1848.8807    2022.1614    1979.6164    349.38817    223.15112   -164.73533   -4351.1748 
40832000    36.331211   -4675.5969   -4613.3264   -4675.5969            0    1934.2255    17.877023    23.279111    21.903705    9115.4722     2348.861    1553.3621    1900.4534    88.450743     82.15855   -60.809448   -4356.1909 
40833000    34.545778   -4672.4466   -4613.2364   -4672.4466            0    2114.5987    17.869853    23.319997    21.870876    9114.1393    2670.2619    1941.4442    1732.0899    69.312449   -85.024526     154.3823   -4332.1631 
40834000    39.250214    -4673.034   -4605.7604    -4673.034            0    1917.0052    17.910079    23.375587    21.787278    9121.4316    1514.2382    1851.1818    2385.5958     291.7679   -16.548068    93.511457   -4350.7475 
40835000    37.447165   -4674.6758   -4610.4926   -4674.6758            0    1967.8205    17.799239     23.41619    21.869239    9114.8878    2169.5874    1557.7386    2176.1355    147.70253   -61.552427    -178.2756   -4348.9077 
40836000    37.985787    -4675.543   -4610.4367    -4675.543            0    1342.2551    17.882253    23.362556    21.875738    9139.1393    1681.5545    1295.9292    1049.2814   -194.82928   -96.913431    56.641932   -4431.5343 
40837000    38.421262   -4678.8815   -4613.0288   -4678.8815            0    1695.4774    17.795636    23.415339    21.892187    9122.2741    1665.7029    1454.2405    1966.4889    76.382479   -99.213032   -63.909642   -4387.4642 
40838000    37.767229   -4670.9765   -4606.2447   -4670.9765            0    1477.0216    17.917703    23.322856    21.868379    9138.6207    1453.6596    1260.4616    1716.9437   -696.09673   -299.76121   -123.00492   -4409.3911 
40839000    34.842248   -4673.7489   -4614.0305   -4673.7489            0    2087.3569    17.825954    23.295714     21.94501    9113.0674    2294.2526    2098.8344    1868.9836   -133.56406    38.629656    101.84206   -4336.6108 
40840000    36.565304    -4672.497   -4609.8253    -4672.497            0       1581.7    17.921423    23.274938    21.893695    9132.2985    1713.1777    1480.4012    1551.5209   -153.94775    174.30623    163.55185   -4399.1663 
40841000    36.281845   -4676.4966   -4614.3108   -4676.4966            0    1433.5013      17.8468    23.385429    21.896355    9138.5549    1538.9347    1496.1588    1265.4105    131.10848   -57.717292    423.58303   -4423.2588 
40842000    36.077445   -4668.4147   -4606.5792   -4668.4147            0    2052.7967    17.880657    23.275415    21.898539    9113.7277    2369.2094    1887.1105    1902.0701   -44.023555   -147.78929    60.411858    -4333.733 
40843000    35.868409   -4675.4776   -4614.0004   -4675.4776            0    1871.7417    17.885226     23.27412      21.9077     9119.363    2454.0352    1495.2209    1665.9691   -512.85917   -82.334879    74.965547   -4365.0652 
40844000    37.434342   -4673.7293   -4609.5682   -4673.7293            0     2242.422    17.831445    23.217285    21.989587    9103.6395    2259.6989    2835.8813    1631.6858    51.044323   -64.479493    82.631967    -4311.848 
40845000      36.2064   -4674.4129   -4612.3563   -4674.4129            0    1591.9246    17.812355    23.386231    21.900016    9122.7548    1639.2908    1150.3012    1986.1818    -398.0563    143.11751    117.70611   -4400.5571 
40846000    37.668331   -4672.5116   -4607.9494   -4672.5116            0    1635.3957    17.902143    23.331571    21.878174    9138.1878    1410.7179    1309.9594    2185.5098   -46.631869   -241.51468     56.38313   -4389.9984 
40847000    37.286576   -4673.0774   -4609.1695   -4673.0774            0    1899.4572    17.895064    23.179876    21.970433    9113.4537    1950.7564    1961.9579    1785.6571    125.48045    17.900714    326.83489   -4356.7119 
40848000    36.691668   -4676.7091   -4613.8208   -4676.7091            0    2017.0133    17.836714    23.245184    21.995018    9119.5235     2300.291    2069.1539    1681.5951   -216.10971    115.57859    182.28584   -4345.5603 
40849000    39.394195    -4676.632   -4609.1117    -4676.632            0    2116.3391    17.861211    23.292261    21.896803    9109.6827    2309.1077    1717.5226    2322.3871    -171.5889   -72.716826    6.2476935   -4327.9447 
40850000    37.057458   -4677.9006   -4614.3854   -4677.9006            0    2297.3791    17.929911    23.154385    21.937471    9107.4745    1634.4919    3161.1833    2096.4621   -4.9959595     48.37493     68.57595   -4309.2403 
40851000    36.283486   -4678.9526   -4616.7639   -4678.9526            0    1946.3301    17.880993      23.3412     21.84439    9117.0583     2230.088    1649.0271    1959.8751    167.22809    111.85225    5.0631987   -4357.9742 
40852000      37.1922   -4672.4126   -4608.6664   -4672.4126            0    1791.4782     17.87941    23.327778    21.861759    9118.2531    1937.4674    1885.1943    1551.7729   -5.7467782    35.982253    84.080055    -4370.435 
40853000    37.794837   -4672.8234   -4608.0444   -4672.8234            0    2283.7894    17.884163    23.282886    21.860551    9102.6228    2506.9474    2209.5427    2134.8782    50.441345   -502.40407   -37.343952   -4304.8658 
40854000    38.719634   -4676.4286   -4610.0644   -4676.4286            0    1952.8363    17.990635    23.222229    21.795535    9105.7964    1613.6299    1668.9303    2575.9489    340.37849    -154.1295     -94.6878   -4350.7303 
40855000    39.635678   -4675.0406   -4607.1064   -4675.0406            0    1894.4176    17.831494    23.322533    21.916083    9114.3646    1581.5331    2121.2817    1980.4381   -119.89272   -49.037003    99.020033   -4355.2935 
40856000    37.473465   -4679.0728   -4614.8445   -4679.0728            0    1812.5267    17.932958    23.332924    21.826832    9132.9653    2114.9169    1189.9972    2132.6661   -175.24125    198.73873    140.68927   -4373.4251 
40857000    38.452333   -4681.2484   -4615.3424   -4681.2484            0    1393.1219    17.904884     23.31339    21.916709    9148.5506     1561.796    1353.7569    1263.8127   -36.605658    124.35779    90.482634    -4429.469 
40858000    37.046918   -4673.8553   -4610.3581   -4673.8553            0    1453.9185      17.9674    23.237087    21.887768    9138.3629    1567.4792    1554.6703    1239.6059   -332.77183   -142.83097    120.02507   -4416.5891 
40859000    38.052955   -4677.3809   -4612.1594   -4677.3809            0    1629.9538     17.85064    23.335021    21.947128    9141.9677    1472.7124    1253.1918    2163.9571   -499.22182    232.44958    33.322275   -4394.8438 
40860000    36.019241   -4672.9863   -4611.2505   -4672.9863            0    2049.4056     17.87768    23.299286    21.886554    9116.5634    2262.2228    2338.2747    1547.7192   -416.30239   -188.22654   -149.83182   -4338.7703 
40861000    38.875838   -4675.6159    -4608.984   -4675.6159            0    1934.7417    17.817286    23.405783    21.866231    9118.8208    2208.5223    1308.6697    2287.0331   -558.36442    43.206734    77.330758   -4351.6853 
40862000    38.004062   -4674.5848   -4609.4471   -4674.5848            0    1997.6254    17.861326    23.216859     21.99355    9120.3708    2178.4126     2404.573    1409.8907   -266.67523   -334.33326   -225.79459   -4343.7404 
40863000    37.245418   -4675.2391   -4611.4017   -4675.2391            0    1750.1391    17.967067    23.262621    21.843082    9129.5581    2158.3397     1650.302    1441.7757   -2.5475861   -113.96552    286.54073    -4378.379 
40864000    38.608175   -4670.8569   -4604.6838   -4670.8569            0    1859.0491    17.916083    23.307198    21.854074    9125.6862    1333.8998    2073.8515     2169.396   -277.33923    39.868957    289.84807   -4357.2652 
40865000    39.007544   -4674.6537   -4607.7961   -4674.6537            0    1675.5028    17.925239    23.244966    21.902851    9126.2953    1984.3856    1667.6349    1374.4878    28.411815   -113.72529     161.6009   -4384.7906 
40866000    36.553272   -4676.0705   -4613.4194   -4676.0705            0    1847.3299    17.947593    23.304952    21.836063    9133.3219    1907.2989    1645.4241    1989.2669    368.67354   -436.81862   -181.01901   -4367.3548 
40867000    35.138709   -4674.8394   -4614.6128   -4674.8394            0     2126.075    17.918961     23.24663    21.868727    9109.5375    2132.7381    2218.8955    2026.5914   -39.680448   -254.01235    118.54481   -4332.1568 
40868000    36.536211   -4676.7606   -4614.1388   -4676.7606            0    1790.5805    17.893156     23.28366    21.916863    9130.9631    1983.0982    1556.0247    1832.6186   -364.19051    301.24093    247.67341   -4375.6949 
40869000    38.205039   -4674.4205   -4608.9384   -4674.4205            0    1775.5096    17.947785    23.303624    21.839901    9134.5047    1577.8981    1648.9357     2099.695   -281.70154    40.874293    167.98471   -4372.4096 
40870000    37.127038   -4676.6433   -4613.0088   -4676.6433            0    1180.1134    17.932726    23.278587    21.924474    9152.3394    1524.7882    1233.7549    781.79711   -17.569425   -27.684895    174.34057   -4455.4903 
40871000    36.780094   -4675.3768    -4612.337   -4675.3768            0    1752.8141    17.963721    23.174751    21.930861    9129.9215    1773.3449    1896.1741    1588.9231    312.68541    157.89731   -27.228814   -4378.9489 
40872000    37.631621   -4671.1062   -4606.6069   -4671.1062            0    1673.1608    17.912515    23.243646    21.954995    9141.0099    1085.9115    2362.0541     1571.517   -194.10873   -1.9193071   0.39282388    -4383.554 
40873000    35.849257   -4675.5418   -4614.0974   -4675.5418            0     2141.415    17.855652    23.361581     21.82577    9104.3202    1894.0446    1887.2587    2642.9418    72.985146    39.380044   -257.21678   -4329.7664 
40874000    38.230109   -4672.1032   -4606.5781   -4672.1032            0    1987.3591    17.970752    23.267001    21.821197     9123.999    1772.0385    1700.3706    2489.6682    106.60291   -49.502154   -197.36935   -4342.1318 
40875000    40.578777   -4674.6738   -4605.1232   -4674.6738            0    2134.1926    17.863272    23.320199    21.872032    9111.3429    2121.7763    2160.3605    2120.4409   -308.38098    -36.25418    58.463483   -4321.5325 
40876000    37.844935   -4674.2819    -4609.417   -4674.2819            0    2309.5425    17.888469    23.188247    21.947074    9103.6956    2267.3746     2941.759    1719.4941   -263.91432   -19.064748    327.43138   -4302.7835 
40877000    39.645998   -4675.1879    -4607.236   -4675.1879            0    2263.6184    17.913577     23.21154    21.894653    9103.8337    2084.7809    2183.4763    2522.5979    305.32907    273.88464    140.27274   -4306.6952 
40878000    38.068756   -4674.3781   -4609.1296   -4674.3781            0    2153.7153    17.955499    23.189511     21.89278     9115.699    2118.3388     2856.542    1486.2651   -158.84915    154.05896   -543.02115   -4322.8079 
40879000    38.610038   -4673.0873    -4606.911   -4673.0873            0    1975.0034    17.910492    23.269382    21.878813    9118.3469    2061.1593    1507.5362    2356.3148   -148.04143   -124.34062    -48.10912   -4344.2716 
40880000    36.835144   -4677.2366   -4614.1024   -4677.2366            0     1947.567    17.941112    23.216847    21.895129    9120.1108    1870.8802    1968.6558    2003.1651   -218.99747   -260.44192    657.09962   -4355.0615 
40881000    36.759176   -4677.5892   -4614.5853   -4677.5892            0     2770.288    17.871776    23.197976    21.904069    9081.1867    2861.4513    3066.7657    2382.6469    165.69288   -193.43457    125.05324   -4247.6889 
40882000    37.034556   -4668.8829   -4605.4069   -4668.8829            0    2580.5752     17.85203    23.206785    21.951037    9094.0558     2493.253    2740.0382    2508.4345      42.6082    251.91657   -79.382928   -4263.1517 
40883000    37.968032    -4675.676   -4610.6001    -4675.676            0     2516.472    17.888672    23.228045    21.869159    9087.0482    2444.8812    2757.5246    2347.0103   -294.00512   -99.649362     178.9769    -4277.104 
40884000    36.444033   -4675.3064   -4612.8425   -4675.3064            0     2994.549    17.898306     23.20751    21.867167     9083.077    2952.5092    2747.0125    3284.1254   -305.26636   -179.36451    47.509955   -4216.1625 
40885000    34.833729   -4674.8454   -4615.1416   -4674.8454            0    2355.3153    17.899893    23.330896    21.788118    9099.1657    2279.0755    2106.0969    2680.7736    167.30891    105.23122    15.445447   -4302.5866 
40886000     37.82551   -4673.9958   -4609.1641   -4673.9958            0    1942.8147    17.939721    23.129959    21.994964     9126.701    2321.6767    1600.6718    1906.0958    172.18709    15.218836    293.04392   -4350.5685 
40887000    36.249532   -4673.8323   -4611.7018   -4673.8323            0    2174.1795    17.951601    23.136504    21.920055    9104.2158    1821.4121    2931.2279    1769.8985    318.28371   -184.41572    241.51911   -4323.0237 
40888000    39.418131   -4678.2199   -4610.6586   -4678.2199            0     1812.977    17.977701     23.21642    21.878923     9131.778    1420.2253    1952.7999    2065.9057   -441.66096   -148.14973    168.93619   -4369.2106 
40889000     36.33657   -4680.1002   -4617.8206   -4680.1002            0    1827.7445    17.939114    23.251201    21.848969    9113.3349    1682.3484     1680.808    2120.0771   -121.38411   -18.453024   -14.288141   -4374.8976 
40890000    37.846818   -4677.0893   -4612.2211   -4677.0893            0    1885.9383    17.919286    23.337147    21.830631    9129.2431    2098.4298    1630.2568    1929.1284   -108.75472   -149.37253   -95.658491   -4361.1261 
40891000    35.564521   -4675.3691   -4614.4127   -4675.3691            0    1613.3772     17.84054    23.278622     21.97831    9127.6621    1368.5445    1772.3091    1699.2781   -432.33455   -223.55681     158.9632   -4399.6438 
40892000    36.168663    -4675.942   -4613.9502    -4675.942            0    1867.2805    17.878842    23.260607    21.951853    9129.1769    2160.7087    1860.5329    1580.5998     44.99506   -56.587427    -12.75888   -4365.3411 
40893000    36.735379   -4676.3111   -4613.3479   -4676.3111            0    1874.0319     17.94475     23.19405    21.939771    9131.5836    2047.4824    2385.3152    1189.2982   -125.26254   -171.98296    -284.7248   -4363.7741 
40894000     37.16292    -4675.283   -4611.5871    -4675.283            0    1727.3412    17.925727    23.297754    21.845655    9123.3828    1170.8347    1626.7414    2384.4475   -282.57766    38.476018   -43.659539   -4381.7554 
40895000    39.533547   -4673.3049   -4605.5458   -4673.3049            0    2073.8878    17.865963    23.285355    21.892269    9107.5187    1995.9491    2164.0824    2061.6319    198.08846    17.256578    265.15087   -4330.0841 
40896000    37.300301   -4675.1341   -4611.2026   -4675.1341            0    2034.7359    17.906494    23.335911     21.81868    9117.2483    2176.3383     1686.825    2241.0444    182.44539    252.41086    240.59229   -4340.6525 
40897000    35.901582   -4675.9794   -4614.4453   -4675.9794            0    2391.2835    17.854833    23.362615    21.816059    9100.2547    2715.1294    2317.3213    2141.3997   -11.924302    146.35601    149.60463   -4297.0792 
40898000    35.107938   -4674.6951   -4614.5213   -4674.6951            0    2087.5199    17.905871    23.211841    21.927208    9113.5668    2427.3885    2218.6135    1616.5577   -175.66678    174.71323    34.218445   -4337.0648 
40899000     38.33507   -4670.2597   -4604.5547   -4670.2597            0    1930.6192    17.940184    23.275821    21.844879    9121.8211    2020.1325    1754.8743    2016.8508   -187.51942   -302.95626    119.29606   -4347.7198 
40900000    36.169859   -4672.3809    -4610.387   -4672.3809            0    2041.2013    17.945005    23.166629    21.896047    9102.7399    1530.7207    2564.7401    2028.1431   -343.16411   -372.54848    196.05277   -4339.4091 
40901000    38.491095   -4674.3756   -4608.4032   -4674.3756            0    1083.2812    17.906422    23.349361     21.87233    9144.8975    1145.7036    667.92256    1436.2173   -90.933999    184.82105   -18.379904   -4463.9271 
40902000    36.057896   -4677.7026   -4615.9006   -4677.7026            0    1829.0889    17.891038    23.322231    21.851683    9117.8096    1778.6599    1603.0621    2105.5447   -286.83072    431.65396   -47.886854   -4372.6795 
40903000    38.601668   -4674.7017   -4608.5398   -4674.7017            0    2003.0117    17.894469    23.288578    21.871039    9114.4659    1565.9928     2505.406    1937.6363    -185.2196   -218.70562    72.673762   -4342.2892 
40904000    36.206563   -4675.0871   -4613.0303   -4675.0871            0     1930.142    17.905118    23.292125    21.863819    9118.2673    1964.2649    1909.9285    1916.2325    71.741942   -125.76665   -26.714691   -4356.3589 
40905000    36.008207   -4672.2064   -4610.4896   -4672.2064            0    1804.5913    17.942398    23.189065    21.926972    9123.0987    1341.8068    2322.6327    1749.3344   -141.82342    50.234518   -434.70713   -4370.3868 
40906000    35.014474   -4677.0474   -4617.0338   -4677.0474            0    2013.2143     17.89488    23.174127    21.965136    9108.9031     1662.385    2329.3924    2047.8655   -388.65978    251.71749   -20.493946   -4349.5904 
40907000     36.62869    -4674.698   -4611.9177    -4674.698            0    1511.3009    17.904298    23.292814     21.90094    9133.6007    1788.8417    801.28298     1943.778   -209.88455    56.173858    230.03352   -4410.6061 
40908000    37.984703   -4677.8461   -4612.7416   -4677.8461            0    1904.1464    17.929928    23.305987    21.823129    9119.3328    1582.5336    2009.4772    2120.4283   -626.10022    17.886787    28.056321   -4359.4975 
40909000    37.019258   -4675.1424   -4611.6927   -4675.1424            0    1591.7399    17.997551    23.253116    21.845248    9142.2176    1193.1421    1672.4679    1909.6098    301.85651  -0.97751158   -377.01953   -4399.4662 
40910000    39.045958   -4673.6543   -4606.7309   -4673.6543            0    1654.5194    17.961853    23.322819    21.810223    9136.7613    1293.3441     1559.123     2111.091    294.38436   -137.55262      -28.475   -4386.2657 
40911000    35.090538    -4676.351    -4616.207    -4676.351            0    1688.5463    17.864418    23.330435    21.917068    9134.6976    1641.5036    2058.0998    1366.0353   -453.56141   -62.173867    334.17662   -4391.2586 
40912000    35.790144   -4674.0412   -4612.6981   -4674.0412            0    1853.4155    17.944754    23.224599    21.908857    9130.7289    2048.3112    1751.1281    1760.8072   -215.30947   -106.53354    149.24961    -4365.893 
40913000    35.123101   -4670.2436   -4610.0438   -4670.2436            0    2069.0979    17.871963    23.276824    21.934667    9124.8773    2338.0069    2227.7734    1641.5134   -145.44269   -86.048219    355.53631   -4334.6945 
40914000    39.631991   -4681.3721   -4613.4442   -4681.3721            0    2055.5791    17.886534    23.332081    21.860554    9123.0663     2274.058    2082.1963     1810.483    19.090583    176.86312    274.28708   -4339.9483 
40915000    36.543911   -4673.9831   -4611.3481   -4673.9831            0    2224.9999    17.897938    23.214672    21.931519    9112.4314    2011.4404    2083.4428    2580.1164    161.15712   -26.147346   -203.41736   -4315.6557 
40916000    36.004042   -4671.1838   -4609.4742   -4671.1838            0    2145.1824    17.973835    23.173648    21.886933    9116.3305    2158.4635    2890.4213    1386.6624   -167.71196   -117.32985   -107.80477   -4324.2672 
40917000    35.724413   -4675.1682   -4613.9377   -4675.1682            0    1632.7784    17.850155    23.363926     21.89728    9132.2539    2151.3985    945.05161     1801.885    217.46613    48.940789    208.88398   -4396.4769 
40918000    39.300953   -4673.0496   -4605.6891   -4673.0496            0    1827.5366    18.025147     23.18352    21.840576    9126.8783    1160.7131    1976.7754    2345.1214    30.173113   -103.18434    127.04456   -4362.4327 
40919000    36.947946   -4669.5889   -4606.2614   -4669.5889            0    2015.9309    17.865727    23.273998    21.936468    9121.3345      2109.34    2421.9024    1516.5504   -487.15246     52.26424   -153.29135   -4338.0916 
40920000     37.60601   -4675.4892   -4611.0338   -4675.4892            0    1847.9927    17.956842    23.290345    21.791795    9113.7872    1510.1671    1489.3338    2544.4771   -70.154625    40.240267    19.331458   -4365.4074 
40921000     35.79009   -4673.6557   -4612.3127   -4673.6557            0    1843.1233    17.895854    23.277635    21.916149    9129.6792    1962.7311    1179.2814    2387.3574   -8.2773049   -14.870232    210.56336   -4366.9064 
40922000      36.7938   -4675.2143    -4612.151   -4675.2143            0    1873.1835    17.842342    23.324379    21.935677    9128.7855    1871.9474    1866.2846    1881.3184    -167.7579    52.941583   -39.605188   -4362.7666 
40923000    36.350307   -4674.5991   -4612.2959   -4674.5991            0    1899.4522    17.898683    23.327901    21.849877    9123.1693    2204.0873    2253.1641    1241.1051    -299.2285   -80.710294    250.61641   -4359.5699 
40924000    36.751471   -4676.4595   -4613.4687   -4676.4595            0    1860.6339    17.901613    23.368741    21.812481    9124.9933      1286.82    1591.1304    2703.9512   -151.88387   -205.73132    339.82553    -4365.858 
40925000    38.802793   -4675.2801   -4608.7734   -4675.2801            0    1696.7718    17.886946    23.401415    21.829845    9137.5328    1768.6438     1294.419    2027.2525    134.84417    37.906666    150.24998    -4382.659 
40926000    35.793048   -4673.5498   -4612.2017   -4673.5498            0    1818.2536    17.868646    23.322733    21.914004    9132.5659    1954.9445    2130.8819    1368.9346    315.38948   -50.336583    133.94646   -4370.0301 
40927000    38.842944   -4673.6936   -4607.1181   -4673.6936            0     1712.692    17.874465    23.294218    21.934594     9132.944    1400.9564    1865.1395      1871.98   -42.848781    13.141704    332.43752   -4378.9968 
40928000    38.139912   -4673.1774   -4607.8069   -4673.1774            0    1958.3115     17.91935    23.246537    21.890775    9118.8834    1800.9595    2199.3934    1874.5815   -182.64164    111.94053    202.97124   -4347.3719 
40929000    37.755067   -4675.7174   -4611.0065   -4675.7174            0    2011.4175    17.894307     23.25704     21.90417     9115.828    2346.3251    2130.2677    1557.6598    452.25292    153.78502    433.41006   -4343.5986 
40930000    37.127082   -4674.8744   -4611.2399   -4674.8744            0    2085.2083    17.811068     23.29069    21.964911    9111.7494    1855.2917     2160.948    2239.3852    72.665378   -258.45396    75.225064   -4334.1459 
40931000     37.93332   -4674.2877   -4609.2713   -4674.2877            0    2000.6327    17.896379    23.302441    21.862572    9117.3332    2125.4225    1651.2353    2225.2402    -205.6932    157.77864   -328.49927   -4343.2533 
40932000    38.584967   -4672.3007   -4606.1673   -4672.3007            0    1785.7938     17.92459    23.266119    21.899537    9132.8875    1589.2044     1978.998    1789.1792    167.42727    272.07205   -170.18602   -4368.3107 
40933000    37.539048   -4678.5185   -4614.1778   -4678.5185            0    1509.9184    17.828845    23.336023    21.972461    9141.7374    1745.8041    1578.8473    1205.1038   -522.16963   -317.11842    500.92712   -4412.8712 
40934000    37.665101    -4678.041   -4613.4843    -4678.041            0    1893.8297     17.82666    23.363555    21.907346    9124.2813    2025.3857    2141.1887    1514.9148   -185.96062   -143.38139   -164.25861   -4361.4756 
40935000    37.839516    -4672.874   -4608.0184    -4672.874            0    1726.1233    17.877344    23.343561    21.874153    9128.5406    2028.3599    1607.6846    1542.3255     348.8383   -124.40599   -34.828835   -4378.2189 
40936000    38.927994   -4674.6874   -4607.9662   -4674.6874            0    1676.8547    17.935946    23.264023    21.880641    9129.9656    1439.1943    1283.4179     2307.952   -93.979655   -152.76529    423.30131    -4384.691 
40937000    35.880786   -4675.0412   -4613.5427   -4675.0412            0    1985.1369    17.928828    23.283237    21.837534    9115.8851    1298.2208    2118.0921    2539.0977    -476.9383    22.426659   -8.8579113   -4349.6271 
40938000     38.82119   -4672.5021   -4605.9639   -4672.5021            0    2063.2277    17.846714    23.327572    21.882303    9110.0514    2389.9118    1968.3617    1831.4097   -147.79569    57.866641   -233.73706   -4331.8419 
40939000    36.306144   -4677.2686   -4615.0411   -4677.2686            0      2111.11    17.903918    23.301698    21.835927    9109.7671    1993.0218    1978.4661    2361.8421   -343.28467   -166.94314    133.35924   -4334.5661 
40940000    39.491411   -4672.5984   -4604.9114   -4672.5984            0    2027.3503    17.837804    23.287487    21.945083    9115.9356    2317.3571      2528.82    1235.8738   -304.45257   -116.27743     395.5288   -4335.3822 
40941000    36.786869   -4672.5416   -4609.4902   -4672.5416            0    1832.5141    17.920015    23.281811    21.869045    9123.9932    1914.9233    1563.2955    2019.3235   -145.53566    57.467968    283.21928   -4365.6483 
40942000    37.409415   -4673.5627   -4609.4442   -4673.5627            0    1777.0615    17.921081    23.260527    21.867071    9115.3713    1610.3574     2078.031     1642.796    17.713456    107.03588   -72.910491   -4373.2046 
40943000    37.853039   -4674.5112   -4609.6324   -4674.5112            0    1312.1785    17.902693    23.269411    21.954506    9145.9207    1621.4329    1523.0595    792.04304   -127.15348    233.46456     13.44864    -4434.609 
40944000    38.448982   -4671.7328   -4605.8326   -4671.7328            0     1999.846    17.910483    23.301702    21.875676    9129.6979    2290.4947    1531.4668    2177.5765    270.39623     142.9812    468.25439   -4339.5586 
40945000    35.321093   -4670.3025   -4609.7634   -4670.3025            0    2194.0036     17.85176    23.234788    21.963386    9110.0139    2422.6506    2315.1424    1844.2177    259.07776   -150.47385    426.13503   -4318.2676 
40946000    38.000745   -4675.9401   -4610.8081   -4675.9401            0    1895.9693    17.952023    23.184864     21.92842    9126.9422    1718.7792    2420.4281    1548.7005   -234.62737   -382.32643   -117.07284   -4358.4412 
40947000    36.374239   -4671.7467   -4609.4025   -4671.7467            0    1835.4789    17.914625    23.243745    21.906417    9121.8976    2120.9822    1932.5508    1452.9037    506.03745   -200.30651   -41.721924   -4365.2223 
40948000    37.521619   -4674.0285   -4609.7177   -4674.0285            0    1832.8154     17.88646    23.350169    21.856596    9128.4482     2289.216    1499.1995    1710.0308    84.448478    43.049191    383.71091   -4365.7167 
40949000    39.076334   -4673.3434   -4606.3679   -4673.3434            0    1750.4503    17.968561    23.267634    21.828441    9126.1633    1219.6924    2086.4593    1945.1993    151.67286   -125.57362    38.605116   -4373.3905 
40950000    37.353895   -4676.9023    -4612.879   -4676.9023            0    1833.9928    17.833465    23.390889    21.879634    9126.8837    2100.1846    1615.1709    1786.6231   -217.31499    141.28547    133.13931   -4368.7631 
40951000    38.037561   -4675.8809   -4610.6858   -4675.8809            0    1784.2227    17.979152    23.219453     21.85699     9124.552    791.16795    2468.2784    2093.2217   -72.772383   -149.71777   -4.1157184   -4373.2553 
40952000    38.620354    -4675.422    -4609.228    -4675.422            0    1882.3576    17.831374    23.237635    22.017348    9123.0852    2360.2041    1939.5301    1347.3386    -88.82001     30.08996   -98.136189   -4358.7788 
40953000      38.1277   -4678.3358   -4612.9862   -4678.3358            0    2344.7941    17.882397    23.264489    21.861623    9094.9777    2582.7237    1942.0269    2509.6318    214.74128    160.43028   -125.96429   -4301.9705 
40954000    36.730271   -4675.8159   -4612.8615   -4675.8159            0    2448.4382    17.784243    23.300428    21.956431    9098.3162    2564.1957    2937.8904    1843.2284   -323.37258   -46.466219   -78.414138   -4287.9792 
40955000    35.651099   -4676.0796   -4614.9748   -4676.0796            0    2053.9603     17.87288    23.273841    21.906706    9112.5451    2278.0191    2434.2535    1449.6083    17.174176    148.83796     124.2502   -4342.0094 
40956000    35.886173   -4676.8337    -4615.326   -4676.8337            0    1598.2911    17.923915    23.320128    21.870526    9141.6175    1641.9857    1167.9057    1984.9818  -0.94350818    17.341695   -283.76429   -4402.2401 
40957000    37.214324   -4676.2104   -4612.4263   -4676.2104            0    1384.3978    17.856131    23.317555    21.954206    9140.8821    1987.6044    1345.5508    820.03815   -1.9510844     173.0867    111.57577   -4427.8717 
40958000    38.259567   -4674.2634   -4608.6878   -4674.2634            0    1534.2349    17.888722    23.418549     21.81124    9137.3372    1072.9596    1355.1844    2174.5606    99.173687    56.311907   -144.49805   -4404.2377 
40959000     37.12988   -4674.7215   -4611.0822   -4674.7215            0    2198.2181    17.891104     23.30377    21.858137    9113.3171    1824.1764    2153.4961    2616.9819    142.85005    232.40851    182.27933   -4318.9206 
40960000    38.699391   -4673.8869   -4607.5575   -4673.8869            0    1540.5963    17.887537    23.358739    21.910506    9154.8733    1943.2705     1489.281    1189.2375     45.93645    441.07102    424.78155   -4401.8656 
40961000    35.490341   -4673.5288   -4612.6995   -4673.5288            0    1544.3615    17.863389     23.38968    21.858792    9133.0177    1571.7183    1630.3682    1430.9978    306.24168    56.652386    75.088156   -4406.9973 
40962000    37.492632   -4674.9725   -4610.7114   -4674.9725            0    1616.1155    17.934569     23.26874    21.897198    9138.0258    1308.8494    1770.6527    1768.8444   -206.48204   -244.23102   -301.76336   -4395.3338 
40963000    39.232599   -4676.1593    -4608.916   -4676.1593            0    1598.3152    17.878819    23.323596    21.917775    9139.6758    2132.2746    1304.5645    1358.1065   -40.132172   -283.11599    390.17438   -4395.8721 
40964000    37.281136   -4675.5224   -4611.6238   -4675.5224            0    1716.9044    17.951613    23.183317    21.937942     9130.087    926.63271    2439.7694     1784.311   -346.76438    356.12665    137.12914   -4383.0129 
40965000     34.39399   -4676.1788   -4617.2287   -4676.1788            0    1954.2111    17.788256    23.471146    21.841062    9118.8781    2262.9183    1121.9103    2477.8048   -420.90059    199.56744   -258.39172   -4357.3392 
40966000    38.554808    -4678.822   -4612.7404    -4678.822            0    2146.8978    18.022464    23.129552    21.858578    9111.7818    2018.6919    2549.0867    1872.9148    75.935616   -21.594777    107.47183   -4327.4477 
40967000    36.809346   -4678.3807   -4615.2908   -4678.3807            0    2311.6123    17.928234    23.276832    21.811456    9102.1927    2199.5672     2112.912    2622.3577   -463.47834   -149.84855   -44.881369   -4308.4332 
40968000    37.508573   -4674.2068   -4609.9184   -4674.2068            0    2294.2675    17.917289    23.319011    21.814623    9114.4431    2009.9549    2134.4692    2738.3786   -327.11891    85.968564   -12.776879   -4304.9533 
40969000     38.39795   -4675.0653   -4609.2526   -4675.0653            0    1789.3128    17.962409    23.229624    21.887543    9132.7966     1780.575    1924.0011    1663.3624    173.59986     32.61601   -340.83548   -4370.9296 
40970000    35.447691   -4674.7901    -4614.034   -4674.7901            0    2067.6869     17.91729    23.220279    21.892606     9108.298    2297.7697    2257.3598    1647.9312    393.76582    69.889413    75.526173   -4339.3724 
40971000     36.66254   -4674.4536   -4611.6153   -4674.4536            0    1860.7344    17.870404    23.283476     21.95324    9134.4165    2172.7986    2342.5163    1066.8882    137.07842   -184.62933    70.009998   -4363.7355 
40972000    36.626896   -4675.8959   -4613.1186   -4675.8959            0    2180.9488     17.85661    23.241379    21.945649    9107.7128    1985.7262      2457.82    2099.3003   -99.041736    274.10787    255.49092   -4323.4305 
40973000     36.86881   -4674.6433   -4611.4514   -4674.6433            0     1959.922    17.907633    23.228025    21.923745     9119.378    2036.9809    2078.7995    1763.9856   -372.74913    63.118353    133.39714   -4350.7881 
40974000    36.755654   -4672.8881   -4609.8902   -4672.8881            0    2105.4799    17.924577    23.258154    21.862447    9114.2923    2216.6357    1653.4092    2446.3948   -208.31006   -178.53596     111.9212   -4330.0243 
40975000    36.439049   -4675.6077   -4613.1524   -4675.6077            0    1547.8997    17.899717    23.282611    21.937161     9142.359    1319.2479    1816.4774    1507.9739    -378.9453   -176.01198   -12.211061    -4406.768 
40976000    38.005036   -4675.3175   -4610.1782   -4675.3175            0    1628.0674    17.888579    23.259893    21.960323    9137.3925    1950.4247    1559.8783    1373.8992    111.81635    5.5643291    176.82312   -4393.2227 
40977000    40.760894   -4671.9461   -4602.0833   -4671.9461            0    1394.5912    18.035475    23.184553    21.884298    9150.7968    471.27985    1494.2504    2218.2434    288.52157   -21.106118    246.12393   -4415.9682 
40978000    38.595577   -4672.6767   -4606.5252   -4672.6767            0    1814.2648    17.923989    23.222898    21.915603    9122.3034    1354.2049    2374.6669    1713.9227   -295.33523   -210.06793   -16.835876   -4365.1564 
40979000    37.145515   -4671.6908   -4608.0247   -4671.6908            0    2207.3428    17.935898    23.230533    21.884539    9118.4227    2453.7879    2399.7767    1768.4639    495.18519   -265.92993     -250.082   -4314.4859 
40980000    40.094482   -4674.9388   -4606.2182   -4674.9388            0    1963.3297    17.987045    23.208492    21.866486    9128.2124    1339.9823    2235.9428     2314.064   -206.15226    86.861923    86.790178   -4344.8488 
40981000    38.734541   -4674.6153   -4608.2256   -4674.6153            0    1849.6059    17.972949    23.187785    21.879877    9118.5016    1355.2312    2330.7173    1862.8693   -201.43365    60.973103    349.70612   -4362.2576 
40982000    37.614785   -4674.5459   -4610.0755   -4674.5459            0    2016.4921    17.900502    23.225855    21.959703    9129.8449    1851.9062    2185.1984    2012.3716    -31.98998   -192.33261    135.18681   -4341.5807 
40983000    36.427137   -4674.3802   -4611.9454   -4674.3802            0    2015.3892    17.799267    23.330936    21.969496    9123.3508    2037.6256     2171.476    1837.0659    149.61008   -29.974389   -62.404188   -4343.7883 
40984000    37.315312   -4670.5266   -4606.5695   -4670.5266            0    2334.9437    17.804749    23.339796    21.914875    9106.9281    2860.1286    2243.1477     1901.555   -72.740948    99.895956    185.45268   -4296.4534 
40985000    36.983399   -4675.7249   -4612.3366   -4675.7249            0    2555.4252    17.897287    23.221071    21.874923    9091.0903     2801.279    2343.6994     2521.297    305.85169   -124.33492    286.52669   -4273.5276 
40986000    36.857151   -4674.3726   -4611.2007   -4674.3726            0    2349.0694    17.884973    23.299373    21.867988      9112.58     1928.392    2767.8074    2351.0088    333.64367    16.076007     371.9036    -4299.015 
40987000    37.180488   -4675.4731    -4611.747   -4675.4731            0     2100.353    17.933766    23.224037    21.904368    9123.0475    2073.5532    1964.3759    2263.1299   -219.17829    651.62554   -78.344551   -4332.2944 
40988000    39.269538   -4676.2438   -4608.9371   -4676.2438            0    2101.7783    17.975519    23.273326    21.767122     9106.278     1355.862    1942.2263    3007.2466    -187.6582    -88.38693   -163.68001   -4329.8089 
40989000    38.221733   -4675.1531   -4609.6424   -4675.1531            0    2115.9824     17.89609    23.370242    21.793191    9114.6958    2222.2966     1609.397    2516.2534     237.3562   -254.81467    314.93978   -4328.3681 
40990000    36.654517   -4672.2361   -4609.4115   -4672.2361            0    1699.4005    17.918401     23.27943    21.887999    9130.1447    2110.2458    1668.7089    1319.2468    -180.5477    461.89128    229.94126   -4383.1299 
40991000    35.999008   -4674.7594   -4613.0583   -4674.7594            0    1876.3689    17.900378    23.250631    21.915724    9121.2163    885.68503    3163.7951    1579.6266   -54.810249    91.384599   -45.616236    -4363.457 
40992000    37.227227   -4673.6081   -4609.8019   -4673.6081            0    1865.7367    17.874492    23.297098    21.885965    9113.8364    1853.3899    1826.0767    1917.7434     427.9601   -266.47534    51.943422   -4361.8157 
40993000    40.785232   -4676.7936   -4606.8892   -4676.7936            0    1807.1057    17.866474    23.405896    21.846923    9135.9646     1997.872    1348.1318    2075.3134    13.101116   -198.51601    63.795812   -4366.1128 
40994000    37.738019   -4672.4359   -4607.7542   -4672.4359            0    1938.0416    17.844046    23.330985    21.927217    9128.7209    1880.8693    2087.9531    1845.3024   -61.025936     147.5131   -443.78969   -4349.7368 
40995000    37.175924   -4670.3602   -4606.6419   -4670.3602            0    2182.2169    17.884394    23.268748    21.891562     9110.118    2768.5575     1927.066    1851.0272   -81.661238    -156.4273   -178.60401   -4316.7088 
40996000    35.880246   -4672.6671   -4611.1696   -4672.6671            0    2108.6818    17.911621    23.193725    21.933517    9111.9991    1734.4313    2478.4494    2113.1647   -273.90523   -403.47657     220.2388   -4330.9487 
40997000    37.707622   -4675.4419   -4610.8123   -4675.4419            0    2068.7466      17.9884    23.090269    21.958933     9120.796    1915.0849    2150.9977    2140.1574   -195.92014    106.77503     229.5256   -4335.6329 
40998000    38.373828   -4671.0678   -4605.2963   -4671.0678            0     2242.901    17.900297    23.281671     21.83983    9101.7235    2308.5132    1871.0796    2549.1103   -18.531227    367.98277    332.72473   -4307.5752 
40999000    36.132996   -4675.2225   -4613.2918   -4675.2225            0    2019.4948    17.941768     23.36594    21.744847    9116.0108    1205.7541    2515.7429    2336.9874   -28.976884    5.8941217   -191.95068   -4344.8047 
41000000    40.587955   -4674.8142   -4605.2478   -4674.8142            0    1737.2057      17.9828    23.251353    21.835459    9129.9392    1538.1156    1250.2703    2423.2311    573.66903    65.269724    68.043039   -4373.9375 
Loop time of 327.294 on 64 procs for 250000 steps with 864 atoms

Performance: 131.991 ns/day, 0.182 hours/ns, 763.839 timesteps/s
387.4% CPU use with 16 MPI tasks x 4 OpenMP threads

MPI task timing breakdown:
Section |  min time  |  avg time  |  max time  |%varavg| %total
---------------------------------------------------------------
Pair    | 23.415     | 26.326     | 30.666     |  39.6 |  8.04
Bond    | 1.4768     | 1.7219     | 2.1128     |  15.2 |  0.53
Kspace  | 174.41     | 180.3      | 184.24     |  22.2 | 55.09
Neigh   | 0.06139    | 0.064719   | 0.068532   |   0.9 |  0.02
Comm    | 40.41      | 45.036     | 49.195     |  36.2 | 13.76
Output  | 0.36494    | 0.3652     | 0.36646    |   0.1 |  0.11
Modify  | 51.963     | 58.442     | 64.484     |  55.4 | 17.86
Other   |            | 15.04      |            |       |  4.59

Nlocal:        54.0000 ave          61 max          46 min
Histogram: 1 2 4 1 0 0 0 1 5 2
Nghost:        2592.25 ave        2617 max        2568 min
Histogram: 2 1 4 1 0 0 0 6 0 2
Neighs:        13321.4 ave       15175 max       11500 min
Histogram: 1 5 2 0 0 0 0 4 3 1

Total # of neighbors = 213143
Ave neighs/atom = 246.69329
Ave special neighs/atom = 2.0000000
Neighbor list builds = 250
Dangerous builds = 0

unfix		3
unfix		2
unfix		1

write_data	data.final.${pid} nocoeff
write_data	data.final.1 nocoeff
System init for write_data ...
PPPM initialization ...
  extracting TIP4P info from pair style
  using 12-bit tables for long-range coulomb (../kspace.cpp:340)
  G vector (1/distance) = 0.37221783
  grid = 24 27 25
  stencil order = 5
  estimated absolute RMS force accuracy = 0.003096282
  estimated relative force accuracy = 9.3243613e-06
  using double precision FFTW3
  3d grid and FFT values/proc = 6300 1296
Last active /omp style is kspace_style pppm/tip4p/omp

write_restart   restart.lmp.${pid}
write_restart   restart.lmp.1
System init for write_restart ...
PPPM initialization ...
  extracting TIP4P info from pair style
  using 12-bit tables for long-range coulomb (../kspace.cpp:340)
  G vector (1/distance) = 0.37221783
  grid = 24 27 25
  stencil order = 5
  estimated absolute RMS force accuracy = 0.003096282
  estimated relative force accuracy = 9.3243613e-06
  using double precision FFTW3
  3d grid and FFT values/proc = 6300 1296
Last active /omp style is kspace_style pppm/tip4p/omp
Total wall time: 0:05:27
