LAMMPS (30 Jul 2021)
Processor partition = 0
  using 1 OpenMP thread(s) per MPI task
using multi-threaded neighbor list subroutines
variable        pid world 0 1
variable        phase world IceII IceIII

shell cd ${phase}
shell cd IceII
include Restart.lmp
echo both
log log.lammps
#include		in.partitions
include		in.temp
variable        temperature equal 105.16
variable	tempDamp equal 100.0
include		in.pressure
variable        pressure equal 2793.8
variable        pressureDamp equal 1000.0 # This is 1 ps
include		in.seed
variable        seed equal 745823

units		real
atom_style	full
box tilt large
read_restart	restart.lmp.${pid}
read_restart	restart.lmp.0
Reading restart file ...
  restart file = 30 Jul 2021, LAMMPS = 30 Jul 2021
  restoring atom style full from restart
  triclinic box = (-10.549211 -9.2743687 0.15433785) to (12.529211 12.264367 21.705661) with tilt (-9.0902219 1.8020784 2.7186222)
  4 by 4 by 4 MPI processor grid
  restoring pair style lj/cut/tip4p/long/omp from restart
  restoring bond style harmonic/omp from restart
  restoring angle style harmonic/omp from restart
  1296 atoms
  864 bonds
  432 angles
Finding 1-2 1-3 1-4 neighbors ...
  special bond factors lj:    0        0        0       
  special bond factors coul:  0        0        0       
     2 = max # of 1-2 neighbors
     1 = max # of 1-3 neighbors
     1 = max # of 1-4 neighbors
     2 = max # of special neighbors
  special bonds CPU = 0.008 seconds
  read_restart CPU = 0.019 seconds
include 	in.setup
variable	out_freq equal 1000
variable	out_freq2 equal 10000
variable	out_freq3 equal 1000

timestep	2.0

neigh_modify    delay 7 every 1

include		in.tip4p
# This is TIP4P/Ice

# create groups ###
group ox type 2
432 atoms in group ox
group hy type 1
864 atoms in group hy

# set charges - beside manually ###
set group ox charge -1.1794
Setting atom values ...
  432 settings made for charge
set group hy charge 0.5897
Setting atom values ...
  864 settings made for charge

# ### TIP3P Potential Parameters ###
pair_style lj/cut/tip4p/long/omp 2 1 1 1 0.1577 8.5
pair_coeff 1 1*2 0.000 0.000
pair_coeff 2 2 0.21084 3.1668
bond_style  harmonic
bond_coeff  1 450 0.9572
angle_style harmonic
angle_coeff 1 55 104.52
kspace_style pppm/tip4p/omp 1.0e-5
pair_modify tail yes

thermo          ${out_freq}
thermo          1000
thermo_style    custom step temp pe etotal epair emol press lx ly lz vol pxx pyy pzz pxy pxz pyz enthalpy

restart 	${out_freq3} restart.lmp.${pid} restart2.lmp.${pid}
restart 	1000 restart.lmp.${pid} restart2.lmp.${pid}
restart 	1000 restart.lmp.0 restart2.lmp.${pid}
restart 	1000 restart.lmp.0 restart2.lmp.0


include         in.dump
dump            myDump all atom ${out_freq2} dump.water.${pid}
dump            myDump all atom 10000 dump.water.${pid}
dump            myDump all atom 10000 dump.water.0
dump            myDump2 all dcd ${out_freq2} dump.dcd
dump            myDump2 all dcd 10000 dump.dcd
dump_modify     myDump append yes
dump_modify     myDump2 append yes


variable natoms 	equal  "count(all)"                        # NUMBER ATOMS
variable H      	equal  "enthalpy/v_natoms"                 # ENTHALPY-per-atom
variable Vol      	equal  "vol/v_natoms"                 # volume-per-atom
fix AVG all 		ave/time ${out_freq} 1 ${out_freq} v_Vol v_H file vol_enthalpy.dat
fix AVG all 		ave/time 1000 1 ${out_freq} v_Vol v_H file vol_enthalpy.dat
fix AVG all 		ave/time 1000 1 1000 v_Vol v_H file vol_enthalpy.dat


timer           timeout 10:00:00 every 1000
New timer settings: style=normal  mode=nosync  timeout=10:00:00

fix 		1 all shake 1e-6 200 0 b 1 a 1
Finding SHAKE clusters ...
       0 = # of size 2 clusters
       0 = # of size 3 clusters
       0 = # of size 4 clusters
     432 = # of frozen angles
  find clusters CPU = 0.003 seconds
fix             2 all nph tri ${pressure} ${pressure} ${pressureDamp}
fix             2 all nph tri 2793.8 ${pressure} ${pressureDamp}
fix             2 all nph tri 2793.8 2793.8 ${pressureDamp}
fix             2 all nph tri 2793.8 2793.8 1000
fix             3 all temp/csvr ${temperature} ${temperature} ${tempDamp} ${seed}
fix             3 all temp/csvr 105.16 ${temperature} ${tempDamp} ${seed}
fix             3 all temp/csvr 105.16 105.16 ${tempDamp} ${seed}
fix             3 all temp/csvr 105.16 105.16 100 ${seed}
fix             3 all temp/csvr 105.16 105.16 100 745823


run             250000
PPPM initialization ...
  extracting TIP4P info from pair style
  using 12-bit tables for long-range coulomb (../kspace.cpp:340)
  G vector (1/distance) = 0.36962691
  grid = 30 40 32
  stencil order = 5
  estimated absolute RMS force accuracy = 0.0040250266
  estimated relative force accuracy = 1.2121248e-05
  using double precision FFTW3
  3d grid and FFT values/proc = 5168 640
Last active /omp style is kspace_style pppm/tip4p/omp
Neighbor list info ...
  update every 1 steps, delay 7 steps, check yes
  max neighbors/atom: 2000, page size: 100000
  master list distance cutoff = 10.8154
  ghost atom cutoff = 10.8154
  binsize = 5.4077, bins = 7 5 4
  1 neighbor lists, perpetual/occasional/extra = 1 0 0
  (1) pair lj/cut/tip4p/long/omp, perpetual
      attributes: half, newton on, omp
      pair build: half/bin/newton/tri/omp
      stencil: half/bin/3d/tri
      bin: standard
Setting up Verlet run ...
  Unit style    : real
  Current step  : 3000000
  Time step     : 2
  Walltime left : 9:59:59.89
Per MPI rank memory allocation (min/avg/max) = 9.444 | 9.449 | 9.455 Mbytes
Step Temp PotEng TotEng E_pair E_mol Press Lx Ly Lz Volume Pxx Pyy Pzz Pxy Pxz Pyz Enthalpy 
 3000000    107.98226   -6732.4123   -6454.6345   -6732.4123            0    3163.9333    23.078422    21.538735    21.551323    10712.733    4163.6741    1997.5121    3330.6138    7.1489087   -87.130413    245.85537   -5960.3198 
 3001000    102.67958   -6742.2629    -6478.126   -6742.2629            0    2361.5473    23.198893    21.343492    21.742746     10765.82    3067.4198    2457.7127    1559.5096    896.24847   -171.63359    730.31674   -6107.3431 
 3002000     101.0184   -6731.6916    -6471.828   -6731.6916            0    3594.1748    23.352155    21.100193     21.72618    10705.249    2741.8618    5593.3568    2447.3057    74.533498    255.16596   -321.64782   -5910.6872 
 3003000    101.06305   -6737.8076    -6477.829   -6737.8076            0    3103.6647    23.235006    21.358006    21.607392    10722.742    2873.8531    2480.9449    3956.1962    396.31502    181.91378    722.06165   -5992.4773 
 3004000    103.21256   -6756.9355   -6491.4275   -6756.9355            0    2631.7117    23.038149    21.519401    21.697852    10757.082    3761.0236    1568.1059    2566.0056    171.28402   -270.35847    14.482628   -6078.5619 
 3005000     110.2726   -6761.3279   -6477.6583   -6761.3279            0    2470.7535    23.295438    21.317485    21.623812    10738.388    2036.4633    2127.9513     3247.846    275.07581   -594.10189    418.32968   -6090.7176 
 3006000    107.70425   -6744.5385   -6467.4758   -6744.5385            0    2890.5471     23.40459    21.219154    21.605355    10729.772    1921.1224    2529.2953    4221.2237    -156.4735   -124.22707    22.032402   -6015.1552 
 3007000    99.669619   -6739.7125   -6483.3185   -6739.7125            0    2874.5559    23.109725    21.395522    21.710254    10734.519    3646.2942    2462.4576    2514.9159   -368.15139   -340.07914   -347.74358   -6033.3012 
 3008000    105.18119   -6739.9565   -6469.3844   -6739.9565            0    3312.2039    23.158575    21.433917    21.583813    10713.752    3404.0486    3144.5448    3388.0185    173.08698   -28.115995   -407.40804   -5951.8555 
 3009000    111.41463   -6744.1532   -6457.5459   -6744.1532            0    3336.9631    23.316348    21.247522    21.657557     10729.47    2981.4893    4368.3609    2661.0392    88.874071    311.38436   -349.32371   -5935.3835 
 3010000    109.78819    -6750.828   -6468.4046    -6750.828            0    3194.6569    23.276171    21.255473    21.663004    10717.685    3045.3008    3189.3878    3349.2822   -482.17405    522.32353     498.3733   -5969.0591 
 3011000    108.43023   -6753.4796   -6474.5495   -6753.4796            0    2131.6598    23.249987    21.459509    21.556274    10755.143    2849.4418    802.98101    2742.5568   -741.54242   -71.547652    423.91931   -6140.1928 
 3012000    109.09729   -6738.7945   -6458.1484   -6738.7945            0    2740.6967    23.096186    21.414891    21.729651    10747.535    3710.7603    3282.3937    1228.9362   -357.97579    117.55162   -602.48646   -6028.5667 
 3013000    103.54353   -6732.0665   -6465.7071   -6732.0665            0    1943.1345    23.323694    21.279461    21.729765    10784.822    1351.1857     2631.998      1846.22    830.25124    -27.10392   -150.28028   -6160.0801 
 3014000    103.50189   -6756.3064   -6490.0541   -6756.3064            0    2032.2805    23.344949    21.318239    21.602536    10751.004    746.59005    2807.1814    2543.0701    655.77408    939.03244    356.02868    -6171.408 
 3015000    105.20532   -6743.6473    -6473.013   -6743.6473            0    4207.9018    23.135435      21.2773    21.717839    10690.815    4669.0697    4297.3672    3657.2684    62.207429    186.86642   -32.772019   -5816.9399 
 3016000    106.01178   -6747.0058   -6474.2969   -6747.0058            0    3498.5274    23.083333    21.466229     21.60949    10707.764    4378.4105     2946.756    3170.4158    209.29435   -168.86539   -30.178009   -5927.9608 
 3017000    109.41257   -6755.9135   -6474.4564   -6755.9135            0    2738.2371    23.260538    21.402957    21.571104    10739.051    2261.8071    2804.9601    3147.9441    181.09593   -181.08025    50.005263    -6045.599 
 3018000    102.49986   -6751.5184   -6487.8438   -6751.5184            0    3249.3074    23.376774    21.214029    21.585799    10704.733    2054.5669    4121.3579    3571.9974    419.62021   -708.84382   -420.04875   -5980.5698 
 3019000    103.38467   -6745.9481   -6479.9973   -6745.9481            0    2492.6583    23.109577    21.383817    21.776208    10761.169    3445.1262    2869.0199    1163.8288   -1108.1525    339.50322   -840.72646    -6088.798 
 3020000     104.7038   -6749.5115   -6480.1674   -6749.5115            0    3412.6869    23.186903    21.409915    21.566975    10706.485    3088.0753    3499.8882    3650.0971    537.35352   -118.48936    678.65618   -5947.2999 
 3021000    103.84495   -6753.1384   -6486.0035   -6753.1384            0    2922.1889    23.238429    21.306499    21.629324    10709.318    3122.9633    2024.0753    3619.5281   -423.53242    30.480664    522.44257   -6029.6032 
 3022000    106.36185   -6745.5217   -6471.9123   -6745.5217            0    2508.0002    23.268147    21.247316    21.782509     10768.96    2813.3684    3007.9123    1702.7198   -186.43847   -511.35171    42.448052   -6078.0203 
 3023000    105.84696   -6755.1471   -6482.8622   -6755.1471            0     2570.962    23.239358    21.363465    21.626784    10737.119    2214.6398     2451.191    3047.0553   -165.47485    334.61547   -398.04949   -6080.2756 
 3024000    111.75384   -6734.1571   -6446.6771   -6734.1571            0    1791.9352    23.216204       21.569    21.524773    10778.537    2030.2625    1184.6613    2160.8819   -286.13563    393.70851   -161.42549   -6164.9959 
 3025000    108.20048    -6735.558   -6457.2188    -6735.558            0    2767.5407    23.208994    21.373721    21.685023    10757.128    2275.7579    3081.4228    2945.4414   -711.88627    276.90172   -648.08839   -6023.0424 
 3026000    105.49639   -6731.9541    -6460.571   -6731.9541            0    2923.1607    23.244486    21.364564    21.629531    10741.405    3021.9649    2537.8589    3209.6584   -548.20091    -429.5207   -355.72485    -6002.651 
 3027000    104.69933   -6733.9096    -6464.577   -6733.9096            0    3209.9656    23.300189     21.36716    21.508673    10708.284    3318.1146     3183.713    3128.0691    -541.8021    469.73089    -346.3719   -5963.2788 
 3028000    106.78778   -6760.2478   -6485.5428   -6760.2478            0    3483.1291    23.199382     21.29095    21.658955    10698.157    3293.4235    3694.2715    3461.6924    83.939367     570.7453    165.49181   -5942.0993 
 3029000    99.029386   -6739.9922   -6485.2451   -6739.9922            0    2639.7552    23.146942    21.369653    21.732114    10749.619     4027.489    1736.2155    2155.5612   -336.16658   -330.38354    669.43209    -6071.405 
 3030000    111.45078    -6745.564   -6458.8636    -6745.564            0    3205.9352    23.241936    21.360865    21.592791    10720.127    3106.1987    2900.7045    3610.9024     265.9064    722.19415    745.25737   -5957.6411 
 3031000    107.49544   -6737.3534    -6460.828   -6737.3534            0    3034.3494     23.32021    21.276998    21.607367    10721.231    2399.1133    3154.5117    3549.4232    804.58381   -85.007694    611.02912   -5986.3827 
 3032000    110.21407   -6749.8708   -6466.3518   -6749.8708            0    2644.5956    23.158405    21.365498    21.739619    10756.564    4056.1727    2130.2596    1747.3545   -411.15768   -577.75756    115.42479    -6051.485 
 3033000    104.13558   -6743.6524     -6475.77   -6743.6524            0     2460.359    23.271004    21.433395    21.595538     10771.35     2331.464    2550.0212    2499.5918     53.02022    164.31222   -1300.8506   -6089.2744 
 3034000    104.86444   -6751.5755   -6481.8182   -6751.5755            0    2658.3217    23.290934    21.420695    21.533141    10743.056    2230.2864     2418.174    3326.5047    135.88133    207.92702   -697.39346   -6065.3217 
 3035000    103.97583   -6753.9162   -6486.4447   -6753.9162            0    2771.9898    23.213287    21.321719    21.706594    10743.617    2329.6975    3587.7832    2398.4887    126.80571   -78.423207   -307.73859   -6052.1164 
 3036000       97.987   -6733.9103   -6481.8447   -6733.9103            0    3177.9518    23.220903    21.245136    21.749388    10729.652    3556.4599    3150.8232    2826.5724    46.377148    62.588496    681.74039   -5984.5557 
 3037000    102.97768   -6737.5296   -6472.6258   -6737.5296            0    2217.9771    23.195211    21.385056    21.684352    10756.108    3057.9097    1641.0914    1954.9303    189.95295    109.47533    212.82454   -6124.6988 
 3038000    106.75424   -6751.5903   -6476.9715   -6751.5903            0    2742.8112    23.157547    21.392572    21.678924    10739.728    2377.2078    3353.3388    2497.8871   -21.186397    361.77728    1068.9189   -6047.3708 
 3039000    105.07704   -6743.1817   -6472.8775   -6743.1817            0    2280.0982    23.377797    21.261263    21.620715    10746.393    1162.1261    3000.7857    2677.3829    412.67626    82.292587    199.35761   -6115.5288 
 3040000    104.50037   -6752.1141   -6483.2933   -6752.1141            0    2166.2504    23.383355    21.262894    21.639187    10758.956    1397.4784    3020.5675    2080.7053     28.27372    19.945064   -434.16479   -6143.3905 
 3041000    103.10639   -6750.7337   -6485.4988   -6750.7337            0    2440.7631    23.204671    21.433988    21.602168    10744.241    2599.2223    1542.3875    3180.6795   -301.91818    925.96182    325.21324   -6103.0465 
 3042000    101.20112   -6738.2669   -6477.9332   -6738.2669            0    2131.0838    23.000786    21.516651    21.745398    10761.795    3262.8716    1194.6077    1935.7721     178.4831    488.54476    13.096946   -6143.4601 
 3043000    107.38291   -6746.5751   -6470.3391   -6746.5751            0    2335.7643    23.335487    21.322689    21.621196    10758.174    2529.9191    2150.8553    2326.5184   -411.32445   -14.042257    287.20991   -6103.8649 
 3044000    106.51661   -6745.4445    -6471.437   -6745.4445            0    3261.3012    23.268388    21.186727    21.724651     10709.84     3438.745    3947.7232    2397.4355   -288.15647    12.698594    271.62879   -5962.0478 
 3045000    98.490019   -6756.1483   -6502.7887   -6756.1483            0    2886.9918    23.251424    21.324977    21.628173    10724.028    2948.5525    2446.4134    3266.0094   -908.04503    788.45973     234.6654   -6051.2662 
 3046000      103.592   -6734.2465   -6467.7624   -6734.2465            0    3738.3941    23.031506    21.549857    21.551456    10696.541    4999.1379    2230.6095    3985.4349   -108.47332   -139.45598   -519.97472   -5884.5801 
 3047000    104.01666   -6750.7074   -6483.1309   -6750.7074            0    3395.6298    23.233942    21.342775    21.610709    10716.249     2920.545    3756.4481    3509.8964    697.96155   -17.445309   -466.08264   -5952.4432 
 3048000    103.38069   -6734.5428   -6468.6023   -6734.5428            0    2540.8659    23.290756    21.301362     21.68755    10759.732    2663.2735     3160.681    1798.6432   -234.17602   -556.57775    -264.1467   -6069.8905 
 3049000    107.82508   -6741.8456   -6464.4722   -6741.8456            0    3568.2103    23.273102    21.376711     21.49799    10695.301    2586.7224    3890.5291    4227.3792   -374.84736   -43.590425   -465.57695   -5907.9027 
 3050000    107.23483   -6750.8435   -6474.9884   -6750.8435            0    2327.2321    23.154228    21.440486    21.679041    10762.297    1732.5371    2374.5494    2874.6096    946.43748    552.41124   -199.17247   -6109.7129 
 3051000    108.73297   -6744.2146   -6464.5056   -6744.2146            0    2464.6843    23.265782    21.280043    21.676951     10732.19    2682.2795    2096.6508    2615.1227   -354.91352   -184.48894    560.61515   -6078.7382 
 3052000      102.491   -6748.8419   -6485.1901   -6748.8419            0    1934.1825    23.301791    21.274424    21.718335    10766.478    2079.6842    3015.9346    706.92882    629.62184   -631.54846    78.108039   -6181.4885 
 3053000    105.09643   -6755.0674   -6484.7133   -6755.0674            0    2776.8738     23.16147    21.382907    21.662851    10728.734    2933.7257    2685.7415     2711.154     173.2175    44.080016    371.12156   -6050.2226 
 3054000    103.62006   -6731.9899   -6465.4337   -6731.9899            0    4436.1017    23.071885    21.388601    21.621724    10669.788    5573.3542    3331.5365    4403.4144    264.08029    205.03544    833.07991   -5775.1412 
 3055000    107.16338   -6746.4289   -6470.7576   -6746.4289            0    3138.2274    23.279387    21.333946    21.623461    10739.101    2911.2052    3680.5621     2822.915   -578.70593    483.71503   -1185.0044   -5979.2523 
 3056000    110.60616   -6743.6796    -6459.152   -6743.6796            0    3603.9601    23.283087    21.260171    21.617919    10700.922    3490.4834    3260.5316    4060.8654   -346.53843   -449.04154    260.18389   -5896.7109 
 3057000    105.79584   -6744.7002   -6472.5469   -6744.7002            0     3543.921    23.245899    21.414131    21.532918    10718.887    2741.4181    4069.2702    3821.0745    678.66802    607.85769   -900.60399   -5918.5471 
 3058000    106.21278   -6752.0199    -6478.794   -6752.0199            0    3179.4331    23.138575    21.401961    21.656712    10724.639    3448.6749    2605.8801    3483.7443    452.29255    297.41714    211.02143   -5981.5056 
 3059000    104.57367   -6744.9602   -6475.9508   -6744.9602            0    2834.8856    23.285855    21.299665    21.661994    10743.935      3028.52    3273.0273    2203.1094     49.88369   -991.40671    30.638458   -6031.7547 
 3060000    102.49452   -6752.7247   -6489.0638   -6752.7247            0    3151.3661     23.40661    21.189895    21.580002    10703.327    1902.3748    4455.3728    3096.3507   -214.48138    260.38826    209.57051   -5997.1448 
 3061000    105.70091   -6748.1132    -6476.204   -6748.1132            0    2401.6108    23.242832    21.378668    21.665473    10765.591    2357.3888     2842.792    2004.6515   -730.19847    730.39661    -387.4093   -6099.1389 
 3062000    106.60738   -6739.9819   -6465.7409   -6739.9819            0    3140.5222    23.037209    21.490512    21.670973    10728.896    3994.5458    2662.5218    2764.4991   -340.97429    461.42576    -395.9614   -5974.3435 
 3063000    108.10024   -6734.9622   -6456.8809   -6734.9622            0     2369.651     23.30324    21.355902    21.630985    10764.912    2493.1476     1901.147    2714.6584   -215.63302   -3.0911284     805.1376   -6084.8571 
 3064000    101.94533   -6741.3333   -6479.0851   -6741.3333            0     3060.382    23.368141    21.199715    21.665149     10732.87    3191.3323    2809.6815    3180.1321   -568.36648   -657.95364   -45.698909     -6000.05 
 3065000    99.765233    -6751.089    -6494.449    -6751.089            0    3356.5113    23.192127    21.312687    21.691755    10721.942    3385.9654    3034.4044    3649.1641   -163.34584    417.97768    505.51414   -5969.5963 
 3066000    105.86232   -6732.6171   -6460.2927   -6732.6171            0    3274.9412    23.056606    21.494556    21.638173    10723.695     3411.164    3414.2762    2999.3832    825.86207   -667.04186   -1.5282978   -5948.1113 
 3067000    103.48317   -6761.1619   -6494.9577   -6761.1619            0    2682.5732    23.254088    21.336807    21.604471    10719.447    2250.1177    2872.4621    2925.1399    254.16801   -236.67183   -304.78811   -6075.5853 
 3068000    104.40867   -6754.9167   -6486.3318   -6754.9167            0    2057.2114    23.432414    21.168763    21.699425    10763.679    1324.2046    3539.2817    1308.1479    127.57464   -10.905485    -200.0368   -6163.3965 
 3069000    98.794217   -6751.1331    -6496.991   -6751.1331            0    2344.8777    23.196749    21.405189    21.657506    10753.618    2770.0341    1759.9423    2504.6568   -390.73513    413.72831   -102.87544   -6129.2427 
 3070000    109.13101   -6760.5574   -6479.8246   -6760.5574            0    2108.9069     23.14448    21.521786    21.624909    10771.595    2600.8707    1461.6611     2264.189   -228.01983    350.92547   -121.17668   -6148.5308 
 3071000    106.06177   -6747.6108   -6474.7734   -6747.6108            0    2757.4635    23.171386    21.352224    21.700054    10736.332    3520.5134    2619.2407    2132.6365   -136.26414    -363.3367   -200.87522   -6043.0142 
 3072000    109.34473   -6733.6065   -6452.3238   -6733.6065            0    2131.8177     23.48451    21.184061    21.643357    10767.511    787.15403    3236.0896    2372.2094    350.81781   -276.31852    63.362987   -6117.5579 
 3073000    100.76393   -6750.9046   -6491.6955   -6750.9046            0    2590.6384    23.213605    21.347174    21.683275    10745.036    2781.2116    2647.7913    2342.9124    394.04453   -340.21958     -175.346   -6085.7286 
 3074000    106.37135   -6750.4376   -6476.8038   -6750.4376            0    3233.2624    23.106983    21.470515    21.622495    10727.327    3761.0776    2302.5344    3636.1752    -475.8013     611.5975   -26.199231   -5970.9695 
 3075000    103.97576   -6745.6525   -6478.1811   -6745.6525            0    2855.0144    23.219521    21.373754     21.64141    10740.379    2968.6165    2968.7443    2627.6825    582.11606   -599.76395    395.34649   -6030.9791 
 3076000    105.16388   -6746.5719   -6476.0443   -6746.5719            0    2735.4348    23.393421    21.220428    21.613299     10729.24    1389.8776    3907.4027    2909.0241   -318.72464   -379.73268   -684.96356   -6048.0172 
 3077000    106.06015   -6758.5236   -6485.6903   -6758.5236            0    2039.9299    23.246947    21.397314    21.645551    10766.978    1961.4853     1964.641    2193.6633    336.40234   -436.03766   -95.014977   -6165.3696 
 3078000    109.51374   -6742.0978   -6460.3804   -6742.0978            0    2347.9447    23.141644    21.477537    21.635514    10753.402     2182.755    3081.8504    1779.2288    237.19145    238.06543   -346.04285   -6092.1585 
 3079000    102.24028   -6749.9244   -6486.9175   -6749.9244            0    3034.5955    23.283527    21.313168    21.623684     10730.66    3035.5437    3092.7559    2975.4869     502.6754   -406.73043    483.99096   -6012.0164 
 3080000    107.61589   -6735.5842   -6458.7489   -6735.5842            0    2946.4544     23.32702    21.252454     21.64212     10729.22    2677.3001       3754.2    2407.8633   -505.39495   -629.35472    -393.3279   -5997.7034 
 3081000    105.10741   -6753.2474    -6482.865   -6753.2474            0     2540.266    23.233207    21.331237    21.669737    10739.371    2454.6744    2662.3164    2503.8073    437.41077    521.19492   -381.14965   -6085.0016 
 3082000    103.28077   -6746.7174   -6481.0339   -6746.7174            0    2756.6785    23.061144    21.482871    21.694266    10747.764     3125.068    2183.5573    2961.4104     241.0989    368.72212   -61.970871    -6048.938 
 3083000    105.17843   -6750.2953   -6479.7302   -6750.2953            0    2216.2963    23.223133     21.36998    21.671354    10755.014     1646.157    2671.6177    2331.1142   -1030.2242    276.80134    246.88631   -6132.1022 
 3084000    109.97844   -6739.5143   -6456.6014   -6739.5143            0    1900.1189     23.36693    21.272065    21.691665    10782.121    275.21137     2964.554    2460.5914     -30.4869    597.03247   -690.29951    -6157.815 
 3085000    102.63889   -6747.3239   -6483.2916   -6747.3239            0    1528.4286    23.250061    21.424493    21.648645    10783.639    1454.5345    993.86422    2136.8871     40.90233    512.34915    262.75878   -6242.9182 
 3086000    101.03972   -6744.1095    -6484.191   -6744.1095            0    1972.8292    23.203349    21.414094    21.660705    10762.742    2132.4758    2020.5407    1765.4713   -741.84512  -0.99934178   -150.88187   -6174.5287 
 3087000    101.38874   -6754.3659   -6493.5495   -6754.3659            0    1950.0339    23.230801    21.354091      21.7096    10769.539    2380.1889    1741.3162    1728.5966    298.82766   -697.06438    837.86767    -6187.272 
 3088000    103.61885   -6739.0116   -6472.4585   -6739.0116            0     2509.781    23.329738    21.308854    21.603733    10739.864    2531.6644    2344.3742    2653.3043    554.60208   -1237.7539    -41.49416   -6079.3517 
 3089000    101.65027   -6761.4836   -6499.9945   -6761.4836            0    2327.2924    23.274458    21.325711     21.64538    10743.562    2335.4695    2212.5341    2433.8736    336.98163    428.46543    100.52767   -6135.3454 
 3090000    104.41772   -6753.8042    -6485.196   -6753.8042            0    3908.3928    23.149261    21.358699    21.630582    10694.984    4057.9151    3800.7215    3866.5417    -434.1209    80.190193   -294.22742    -5875.583 
 3091000    102.97554   -6752.8113    -6487.913   -6752.8113            0    3550.2003    23.137985     21.33664    21.668802    10697.603    3758.0153    3179.1461    3713.4395   -269.77928    309.75202    951.12965   -5934.0336 
 3092000    102.37283   -6742.7243   -6479.3764   -6742.7243            0    2127.3146    23.287415     21.36345    21.639755    10765.768    1379.6165    1757.8594    3244.4679    574.62002   -112.50851    574.57215   -6145.3717 
 3093000    103.51955   -6741.9428    -6475.645   -6741.9428            0    2877.1759    23.243213    21.346602     21.61082    10722.503    3332.6803    2036.1045    3262.7428    -156.3855   -219.98953    94.736491   -6025.7218 
 3094000    105.19597    -6742.271   -6471.6608    -6742.271            0    1923.7051    23.208653    21.414695    21.710499    10790.253    2014.5835    1782.1017    1974.4303   -536.97591   -143.85986     407.3031   -6168.9374 
 3095000      101.986   -6757.8035   -6495.4507   -6757.8035            0    3210.7466    23.191991    21.382773    21.635867    10729.423      3594.79    2842.8145    3194.6353    -551.7111   -817.04282    339.21551   -5993.0407 
 3096000    107.44756    -6739.194   -6462.7917    -6739.194            0    3671.7111    23.253867    21.318814    21.613889    10714.974    3762.6453     3559.412    3693.0761   -469.87628     876.2509   -112.51542   -5889.0248 
 3097000    104.78307   -6750.2867   -6480.7386   -6750.2867            0    2502.1598    23.277357    21.311015    21.656463    10742.994    1976.5962     2874.953    2654.9301    765.37537    854.27274    26.044182   -6088.7114 
 3098000    104.27219   -6762.5675   -6494.3337   -6762.5675            0    3062.6748    23.220884     21.35405     21.61779    10719.396    3402.6356    2890.8882    2894.5008    240.83716   -475.70931    631.26323   -6015.5415 
 3099000    108.44889   -6753.3444   -6474.3662   -6753.3444            0    2234.7959    23.153841    21.320004    21.788369     10755.61    3163.8079    2485.0202    1055.5595      -1321.2    350.28335    644.50751   -6123.8172 
 3100000     104.0206   -6754.1454   -6486.5588   -6754.1454            0     2919.974    23.204189    21.376634    21.613954    10721.115     2211.797    3839.6228    2708.5021    346.16336    1221.5907   -208.92074    -6030.002 
 3101000    103.36764   -6758.4067   -6492.4997   -6758.4067            0     2721.089    23.253309    21.395336    21.582505    10737.563    2506.1473    1602.6563    4054.4634    508.90954   -113.68375    28.152047   -6066.3871 
 3102000    106.34863   -6751.2958   -6477.7205   -6751.2958            0    2295.5979    23.182352     21.30984    21.769563     10754.43    2123.1348     2546.136     2217.523    -284.8067   -142.04827   -131.37246   -6117.6735 
 3103000    110.05322   -6747.6413   -6464.5361   -6747.6413            0    1943.5103    23.317895    21.464591     21.53701    10779.469     1329.899    1447.4556    3053.1762   -300.33658    76.114482    82.852187   -6159.0017 
 3104000    101.52997   -6736.9581   -6475.7784   -6736.9581            0    2464.6382    23.224776    21.410068     21.62699    10753.892    2769.1358    1137.2559     3487.523    608.41242    93.921252    778.50269   -6089.2381 
 3105000    107.35589    -6745.503   -6469.3365    -6745.503            0    2863.0906    23.173419     21.37092    21.701733    10747.507    3373.0069    3107.4676    2108.7971    -66.66383   -586.11037   -1080.4335   -6020.5717 
 3106000    104.20521   -6752.6146   -6484.5531   -6752.6146            0    2484.0607    23.284402    21.391885    21.564543     10741.24    2967.5258    1711.7111    2772.9452    71.552096    453.59295    640.02001    -6095.425 
 3107000    102.98434   -6748.0782   -6483.1572   -6748.0782            0    2286.4167    23.184778     21.31414    21.752692    10749.389    2943.4932    3195.1605    720.59638   -45.486759   -81.425778    -105.3289   -6124.7184 
 3108000    105.88174   -6753.3305   -6480.9561   -6753.3305            0     2697.177    23.220209    21.330758    21.676844    10736.642    1531.1886    3812.7229    2747.6196    1098.5255    52.201417    131.57694   -6058.6243 
 3109000    104.24508   -6754.8747   -6486.7106   -6754.8747            0    2862.7472    23.251834    21.360793    21.592262    10724.393    3166.2601     2456.751    2965.2304   -325.08106    232.13487    27.376638   -6038.9647 
 3110000    101.24827   -6744.6759   -6484.2209   -6744.6759            0    2677.9958    23.234687    21.282618    21.751857    10756.183    2653.2279    3355.2028    2025.5568   -510.34058    -556.0894    499.14776   -6064.1293 
 3111000    103.05812   -6739.5597    -6474.449   -6739.5597            0    2634.3816    23.264092     21.33932    21.626587    10736.301    2410.3513    2935.4559    2557.3376    249.30915   -627.82844   -429.11687    -6061.963 
 3112000    104.22277   -6743.0567     -6474.95   -6743.0567            0     2632.649    23.210627    21.411705     21.63522    10752.252    3309.0288    1970.9334    2617.9848   -519.42573   -96.644848   -337.33045   -6062.1228 
 3113000    104.45725    -6743.085   -6474.3751    -6743.085            0    2158.0271    23.194586    21.412279    21.677781    10766.247     3203.533    1039.5196    2231.0288   -328.26655   -235.19082   -352.96748   -6135.5332 
 3114000    106.78178   -6744.7637   -6470.0741   -6744.7637            0    3034.3412     23.24707    21.312133    21.640034    10721.439    2499.0777    3049.0023    3554.9437   -65.646432    479.91454    439.79766   -5995.6209 
 3115000    106.84828   -6746.8341   -6471.9735   -6746.8341            0    3435.6261    23.210741    21.277456    21.677917    10705.976    2995.6233     3945.163     3366.092    148.43037   -11.160327    329.19601   -5935.5496 
 3116000    102.44168    -6756.123   -6492.5981    -6756.123            0    2999.7895    23.227099    21.325099    21.627159    10712.369    3195.8134    3053.7326    2749.8224    519.19316   -798.33073   -3.1306694   -6023.9442 
 3117000    97.954876   -6755.2941   -6503.3111   -6755.2941            0    3816.5324    23.152576    21.270531     21.67566     10674.56    3553.7988     4200.337    3695.4616    467.65482    716.00635    305.17174   -5909.1629 
 3118000    104.51799   -6756.8163   -6487.9501   -6756.8163            0    2913.0785    23.225889    21.320801    21.674477    10733.083    4392.8249    1569.5669    2776.8437   -615.84142   -9.4102106    798.60605    -6031.963 
 3119000    102.59669    -6744.539   -6480.6153    -6744.539            0    2835.5207    23.277621    21.296536    21.643415    10729.348    2426.3483    2643.5704    3436.6435    540.25934   -493.43818    717.43369   -6036.9228 
 3120000    103.45789   -6746.3273   -6480.1882   -6746.3273            0    1935.6381    23.233428    21.399367    21.662095    10769.975    1737.1134    2682.8702    1386.9306    42.883604    587.05289   -1061.3879   -6176.1594 
 3121000    107.81572   -6759.2326   -6481.8832   -6759.2326            0     2808.936    23.169889    21.413702      21.6414    10737.448    3180.0394    2182.3785    3064.3902   -373.95367    681.88276    516.44644   -6042.0188 
 3122000    106.60868   -6735.3776   -6461.1333   -6735.3776            0    2859.7813    23.311758    21.360995    21.582754    10747.399    2781.6361    2474.7929    3322.9148     321.7198    350.40342   -135.42942   -6012.8917 
 3123000    103.76871   -6747.8302   -6480.8916   -6747.8302            0    2977.5835    23.266383    21.296782    21.660078    10732.549    2993.1464    2547.6995    3391.9046   -526.32333    563.04484    2.0322637   -6014.8306 
 3124000    107.08019   -6750.6498   -6475.1926   -6750.6498            0    2549.3456    23.279563    21.384861    21.598289    10752.281    2656.5477    2445.1047    2546.3844   -600.29853    69.530722    294.24751   -6075.4272 
 3125000    108.01429   -6741.4399   -6463.5797   -6741.4399            0     3313.822    23.163125    21.379727      21.6024    10697.968    3906.9175    3230.3219    2804.2265    219.48061    107.39367    50.962005   -5946.5609 
 3126000    105.20813   -6749.6478   -6479.0063   -6749.6478            0    2304.3114    23.183807    21.354687    21.744276     10765.22    2767.2497    2255.5881    1890.0964   -579.95222    207.13428    402.77847   -6117.2301 
 3127000    105.90366   -6753.4516   -6481.0209   -6753.4516            0    2258.3759    23.307092    21.279613    21.666423    10745.807    823.08838    3922.1142     2029.925    493.14327    452.20002   -138.30204    -6127.096 
 3128000    100.63212   -6735.4439   -6476.5739   -6735.4439            0    2435.0296    23.293104    21.382045    21.593151    10754.559    2476.1695    2119.2447    2709.6746    234.06039   -45.385336   -280.69854   -6094.6536 
 3129000    108.21803   -6742.5644   -6464.1801   -6742.5644            0    2366.6257    23.187628    21.399296    21.712202    10773.571    2784.0111    3770.8373    545.02882   -582.36844    374.44903   -779.88524   -6092.3324 
 3130000    101.48181   -6761.5141   -6500.4583   -6761.5141            0    2868.6628    23.223134    21.369103    21.604228    10721.261    2776.7502    2955.6587    2873.5795    164.77889    415.83041   -94.533667   -6051.9183 
 3131000    100.24242    -6751.616   -6493.7484    -6751.616            0    2355.7196    23.406018    21.315794    21.541813    10747.595    2382.2164    1823.2689    2861.6735   -590.79318    197.32128   -345.18647   -6124.5067 
 3132000    107.70896   -6738.0679   -6460.9932   -6738.0679            0    2842.9318    23.215263    21.310558    21.699659    10735.476    2858.7948    2919.5925    2750.4081    259.31468    102.66713    283.72234    -6015.887 
 3133000    107.32371   -6744.7796   -6468.6959   -6744.7796            0    2701.3049    23.087032    21.398449    21.734762    10737.552     3968.299    2676.8695    1458.7463   -670.85733    575.96962    -114.3402   -6045.6819 
 3134000    100.26897    -6752.199   -6494.2631    -6752.199            0    2561.9711    23.272496    21.460038    21.526298     10750.85    1664.5038    2100.6889    3920.7207    195.52924    357.53172   -201.59636   -6092.5714 
 3135000    100.32106   -6750.0446   -6491.9748   -6750.0446            0    3144.3635    23.255746    21.291819    21.661495    10725.844    2810.1347    2823.8032    3799.1526   -423.61319   -164.75567    -496.8574   -6000.1163 
 3136000    110.50426   -6752.3354   -6468.0699   -6752.3354            0    2196.1344    23.375522    21.200906    21.743149    10775.519    1519.6829    3120.8454    1947.8749   -358.95394     224.9147   -663.86365   -6122.9476 
 3137000    105.96636   -6754.1842   -6481.5922   -6754.1842            0    2968.7758    23.209206     21.43832    21.534732    10714.959    3270.0602    1713.0894    3923.1778    285.72246    -1203.164   -495.07454   -6017.6714 
 3138000    102.03873   -6755.3155   -6492.8271   -6755.3155            0    2007.4597    23.136169    21.491975    21.671144    10775.802    2695.8204    1554.3197    1772.2391    321.24455   -652.68386   -440.64508   -6177.3467 
 3139000    103.59245   -6751.7975   -6485.3122   -6751.7975            0    3338.7844     23.28267    21.272094    21.634675     10715.03    2809.6321    3736.4039    3470.3173    297.62333   -27.067491   -70.194356    -5963.568 
 3140000    106.56526   -6752.6301   -6478.4975   -6752.6301            0    2873.7115    23.365896    21.235429    21.620066    10727.549    2119.5371    3838.5226    2663.0746   -18.706583    295.05888   -134.65604   -6028.9045 
 3141000    103.72053   -6753.2311   -6486.4163   -6753.2311            0    2928.8348     23.11052    21.443939    21.646304    10727.488    3342.5497    2459.3595    2984.5952   -507.25211    751.61053   -302.98349   -6028.2019 
 3142000     104.3096    -6743.789   -6475.4589    -6743.789            0    3072.0409    23.121126    21.412764    21.654022    10720.629    3593.2174    2550.3703    3072.5348    159.05015   -565.41827    482.53889   -5995.1472 
 3143000    102.61886   -6737.9042   -6473.9234   -6737.9042            0    3612.5959    23.352155    21.263644     21.56507    10708.177    3060.5523     3635.985    4141.2505   -290.66813    -29.07459   -585.78773   -5909.7524 
 3144000    105.37096   -6751.1728   -6480.1124   -6751.1728            0    3092.4506    23.323414    21.243612    21.659246    10731.584    3016.2424    3516.7554    2744.3541   -591.15939   -348.03301   -243.46939   -5996.1157 
 3145000    105.67347   -6733.6141   -6461.7755   -6733.6141            0     2647.416    23.167983    21.434808    21.653462    10753.136    2730.4329    2647.4448    2564.3703    677.67215   -296.67217   -335.64263   -6046.5986 
 3146000    102.94817   -6747.9066   -6483.0787   -6747.9066            0    2633.6651    23.167275    21.515128    21.547655    10740.361    1780.3979     2535.659    3584.9384    335.43133    206.70737    128.12045   -6070.5489 
 3147000    104.68591   -6757.9507   -6488.6526   -6757.9507            0    3052.5874    23.308344    21.330614    21.559542    10719.001    2191.2405    3721.9476     3244.574    105.49672   -355.22672   -117.10919   -6011.4549 
 3148000    101.35573   -6751.6007   -6490.8693   -6751.6007            0    1941.4259    23.294003    21.287821    21.733826    10777.339    3148.0058    1387.8536    1288.4183   -1089.7063   -594.46464    383.45617   -6185.7229 
 3149000    109.06541   -6745.9857   -6465.4216   -6745.9857            0     2316.327    23.178454    21.379967    21.704513    10755.771    2514.4274     2341.016    2093.5377    130.86377    217.14302   -231.92529   -6102.0782 
 3150000    104.77751   -6756.0802   -6486.5464   -6756.0802            0    1841.8538    23.165821     21.53394    21.578815    10764.622    2348.0681     1232.139    1945.3541    975.86387   -57.182914    73.482559    -6197.392 
 3151000    105.29899   -6739.8535   -6468.9782   -6739.8535            0    2866.5697    23.257066    21.303577    21.662565    10732.906    2818.5868    2885.3778    2895.7444    689.76171   -1176.6948    221.89498   -6020.2786 
 3152000    102.41224   -6752.7641   -6489.3149   -6752.7641            0    3005.4279    23.365657    21.180174    21.645211     10711.97    2957.6955     3725.608    2332.9803   -1063.0491    779.96873   -424.44271   -6019.7976 
 3153000    108.31834   -6741.0257   -6462.3834   -6741.0257            0    3183.7101    23.160826    21.340538    21.682148    10716.716    3932.8106    3265.0349    2353.2849    182.00484  0.082071325     -185.092    -5964.794 
 3154000    103.70087   -6742.5898   -6475.8256   -6742.5898            0    3961.7681    23.132571    21.397992    21.627125    10705.223    3877.1816    3928.2563    4079.8665    616.58142   -410.57237   -404.41702   -5857.2957 
 3155000     101.2805   -6750.3244   -6489.7865   -6750.3244            0    2830.0394    23.241694    21.366471    21.610487    10731.617     2624.308    3029.5538    2836.2565   -784.15791   -183.00464    235.07188   -6046.8581 
 3156000    103.76596   -6764.8942   -6497.9626   -6764.8942            0    2998.1144    23.338597     21.18661    21.651402    10705.876      2537.87    3215.5962    3240.8769    169.20581   -509.07038    585.39213   -6029.8543 
 3157000    104.57727   -6755.3931   -6486.3744   -6755.3931            0    2344.4261    23.265328    21.308818    21.692737    10754.319     2214.656    2393.2904     2425.332    181.23446    491.47705    243.06194   -6118.6729 
 3158000    102.57351   -6751.0799   -6487.2158   -6751.0799            0    3097.8238    23.121719    21.391148    21.673157    10719.546    3735.4667     2790.888    2767.1167    223.57923   -44.285709    617.56798   -6002.9219 
 3159000     106.5413   -6749.3664   -6475.2954   -6749.3664            0    2533.0911    23.209721    21.432837    21.614201    10751.988    3479.6827     1692.306    2427.2846   -429.19804   -1113.5125    130.63864   -6078.0897 
 3160000    106.65065   -6757.1833    -6482.831   -6757.1833            0    3095.2377    23.275676    21.288926    21.625838    10715.909    2248.5878    3471.7143    3565.4112   -285.69506     397.8062   -546.98462   -5999.1056 
 3161000    101.78121   -6751.7567   -6489.9307   -6751.7567            0    3153.6283    23.229835     21.28351    21.680424    10719.071    2903.2905    3691.8004     2865.794    479.95887   -67.383449   -287.20263   -5996.9346 
 3162000    106.48471   -6751.2596   -6477.3342   -6751.2596            0    1527.7905    23.297968    21.437248    21.583943    10779.978    1160.9946    1696.2358     1726.141   -402.20611   -373.65172   -193.06168   -6237.1427 
 3163000    104.94388   -6749.1249   -6479.1631   -6749.1249            0    3394.4747     23.18647    21.346822    21.594152    10688.186    3572.2781    3559.3331     3051.813   -373.83777    23.971529   -117.95239   -5950.0452 
 3164000    103.99152   -6755.9759   -6488.4641   -6755.9759            0    3030.7686    23.204054    21.309016    21.713212    10736.219    3655.4206    2974.8515    2462.0339    436.09247   -211.19542   -499.77718   -6013.9162 
 3165000    109.00573   -6756.2162   -6475.8056   -6756.2162            0    3965.7311    23.242651    21.280829    21.627612    10697.511    3237.5493    4630.0329    4029.6112     579.3376     782.5491    75.885527    -5857.103 
 3166000    104.80579   -6734.8301   -6465.2236   -6734.8301            0    2337.0065    23.263563    21.435508    21.607597     10774.98    1557.9351    2479.7893    2973.2952    528.75551    47.320546    587.95117   -6097.9817 
 3167000    101.38189   -6740.2696   -6479.4709   -6740.2696            0    2683.3008    23.152502    21.448802    21.676442    10764.379    2952.0827     2300.131    2797.6886   -98.438958   -409.29835   -60.326492   -6058.2264 
 3168000    105.44613   -6735.7409   -6464.4871   -6735.7409            0    2917.4703    23.257288    21.382835    21.580291    10732.025    2696.5105    2432.9103    3622.9902   -620.57108    260.49866   -455.16818   -6007.8576 
 3169000    110.92658   -6740.3313   -6454.9794   -6740.3313            0    2906.6006    23.368138     21.22944    21.672895     10751.76     3319.773     2683.864    2716.1649    -285.6189   -669.23405    179.16886   -5999.2146 
 3170000    104.38881   -6748.8659   -6480.3321   -6748.8659            0    2678.4523    23.177566     21.32371    21.708922    10729.238    2908.5331     3208.516    1918.3078    491.53762    340.40872   -185.90875   -6061.2214 
 3171000    104.58313   -6747.8332   -6478.7994   -6747.8332            0    3015.6257    23.168365    21.422965    21.599906    10720.791    3079.5907     2868.439    3098.8475    187.06382    -245.7003    309.30913   -6007.3011 
 3172000    105.48959   -6747.5845    -6476.219   -6747.5845            0    1973.2571    23.216844    21.407492     21.68558    10778.046    2051.4422    1020.6535    2847.6756    415.96346    143.00136    559.98356   -6166.0491 
 3173000    103.35788   -6752.8013   -6486.9195   -6752.8013            0    2680.1155    23.235436    21.254781     21.72998    10731.657    2540.9625    3115.2669    2384.1172   -128.48567    20.640737   -165.38329    -6067.454 
 3174000    103.64929   -6753.7734   -6487.1419   -6753.7734            0    2598.2146    23.288752    21.357499    21.600445    10743.835    2336.4687    2796.3919    2661.7833   -343.82815   -666.47115    579.24258   -6080.0333 
 3175000    106.37177   -6749.0508   -6475.4159   -6749.0508            0    2201.2996    23.141721    21.483723    21.626133    10751.872    2823.9535    1495.4955    2284.4499   -339.26474   -559.31219   -142.11819   -6130.2411 
 3176000    103.81195   -6753.9364   -6486.8865   -6753.9364            0     2348.807    23.261147    21.382168    21.601972    10744.254    2230.4476    2712.9727    2103.0006    959.43767    -80.94451   -101.94262   -6118.8427 
 3177000    109.63273   -6744.7407   -6462.7172   -6744.7407            0    2612.7641    23.354279    21.247157    21.632116    10734.117    2065.5853    3234.1917    2538.5152   -153.07009    232.89999   -165.24133   -6053.6992 
 3178000    103.85851   -6739.2006   -6472.0309   -6739.2006            0    1897.9989    23.248178    21.301219    21.775688    10783.637    2098.5314    2859.0658    736.39956   -160.60859   -151.67019    458.55158   -6173.5359 
 3179000      105.856   -6751.0561   -6478.7479   -6751.0561            0    2270.9061    23.155922    21.435619    21.638408    10740.473    3110.7064    1360.5296    2341.4823    796.85993    257.36689    55.191433    -6123.036 
 3180000      105.956   -6743.8938   -6471.3285   -6743.8938            0     2213.727     23.20465    21.425811    21.595362    10736.749    2469.3217    1346.3168    2825.5425    963.38087    -284.8787    542.36283   -6124.6932 
 3181000    106.60692   -6757.4495   -6483.2097   -6757.4495            0    2523.5893     23.26106    21.295046    21.674477    10736.351     2901.486    2714.8396    1954.4423   -77.273673   -486.69343   -380.98408   -6088.0695 
 3182000    106.75569   -6741.8377   -6467.2152   -6741.8377            0    3184.5883    23.355766     21.16729    21.678973    10717.613    2007.5792    5228.6617    2317.5239      127.231   -253.36321   -1306.8251   -5969.4469 
 3183000    103.69066   -6758.7456   -6492.0077   -6758.7456            0    2056.1984    23.220896      21.4488    21.642696    10779.369    2343.3204    2020.4282    1804.8465    210.75538   -598.96278   -1021.5038   -6168.7609 
 3184000    103.31865   -6751.1284   -6485.3475   -6751.1284            0    3149.2684    23.118173    21.526522    21.542965     10720.94    3060.5611    2568.2117    3819.0325    158.96845   -280.09151   -1010.8831   -5992.9471 
 3185000    107.30782   -6747.3042   -6471.2614   -6747.3042            0    2588.1787    23.252313    21.317865    21.688858    10750.943    2395.9538    2944.1475    2424.4347    18.817561   -655.63105   -373.18297   -6065.4571 
 3186000    103.36025   -6734.2418   -6468.3539   -6734.2418            0    2307.6411    23.371963    21.287066    21.635899    10764.304    1454.8641    3603.8971     1864.162    235.35693    528.50979   -368.75745   -6106.0858 
 3187000    103.47747   -6760.4208   -6494.2313   -6760.4208            0    2926.6208    23.191987    21.378197    21.614735    10716.647    3102.9336    2147.2734    3529.6554   -485.12821    452.55003    660.29468   -6036.8259 
 3188000    107.29218   -6741.4821   -6465.4795   -6741.4821            0    3154.8954    23.044934    21.451988    21.691383    10723.344    4143.4624    2926.5337    2394.6902   -359.73297    577.46091    155.91846   -5972.0887 
 3189000    101.36167   -6756.0625   -6495.3157   -6756.0625            0    3308.4436    23.226706    21.290213    21.634906    10698.494     3818.681    3238.1186    2868.5312    65.097998    296.72304   -239.31908   -5979.1107 
 3190000    109.95463   -6736.5985    -6453.747   -6736.5985            0    2497.6298    23.325876    21.340587     21.61574    10760.054    2663.9561    2375.9201    2453.0132   -473.86226   -329.49956    76.005169    -6061.808 
 3191000    105.91374   -6737.9388   -6465.4822   -6737.9388            0    2279.8859    23.226669    21.405191    21.652288    10764.895     3230.658    1507.8197      2101.18   -938.98518   -138.79644   -582.24572   -6107.5516 
 3192000    103.82161   -6738.7325   -6471.6578   -6738.7325            0    2808.2009    23.228482    21.421312    21.610491    10753.047    3262.4362    2809.6452    2352.5213     -298.341    606.43788   -1131.2217   -6031.2697 
 3193000    106.84535   -6760.0102    -6485.157   -6760.0102            0    2628.9297    23.301132    21.331732    21.616499    10744.556    2479.7021    2448.8055    2958.2814   -254.89391    160.07668   -282.02724   -6073.2081 
 3194000    105.57277   -6745.8116   -6474.2321   -6745.8116            0    2429.1494    23.254753    21.254839    21.743621     10747.35    1931.0879    3365.8134    1990.5467   -953.23893    62.265741    325.27088   -6093.4895 
 3195000    105.98435   -6743.4498   -6470.8115   -6743.4498            0    2154.5882    23.162572    21.437195    21.673746    10761.894     1913.265    2465.3381    2085.1616     424.7972     858.0861   -471.25594   -6132.6463 
 3196000    105.33688   -6753.1009   -6482.1282   -6753.1009            0    2298.1573    23.213214    21.418521    21.633406    10755.972    2429.1681    1981.6045    2483.6992    733.00467    46.628307   -108.95466   -6121.6282 
 3197000    106.65485   -6751.3097   -6476.9466   -6751.3097            0    1987.7763    23.320628    21.305669    21.653281    10758.684    1204.2757    2118.1552    2640.8979   -866.86714    377.05004    545.79862   -6165.0558 
 3198000    105.03141   -6740.5521   -6470.3652   -6740.5521            0    2747.3901    23.258539     21.30668    21.675856    10741.736    2251.8327    2907.0861    3083.2517   -613.80225    212.71588    888.29578   -6039.9667 
 3199000    108.42253   -6748.4269   -6469.5165   -6748.4269            0    2242.6265    23.203567    21.379283    21.675067    10752.472    2197.0109    2373.5064    2157.3621    179.24497    493.12865    273.72342   -6117.8418 
 3200000    102.55613   -6748.4531   -6484.6337   -6748.4531            0    2725.1319    23.172183    21.409746    21.678355    10754.861    3303.1622    2478.4861    2393.7474   -162.03181    313.81156   -78.463905   -6057.2006 
 3201000    110.93529   -6760.2523   -6474.8781   -6760.2523            0    2527.4374    23.236716    21.367319     21.62672    10737.803    2510.2257    3292.4894    1779.5971    186.81758   -475.39581   -978.58019   -6079.0818 
 3202000    105.17017   -6747.9617   -6477.4179   -6747.9617            0    2786.4929    23.362793    21.291964    21.580687    10735.091    1836.3515    3740.8989    2782.2281   -385.88667   -669.39737   -160.80714   -6041.1637 
 3203000    101.93083   -6765.0753   -6502.8644   -6765.0753            0    1813.8968    23.211384    21.373585    21.737035    10783.971    2043.3051    2000.7761    1397.6092   -346.46124   -15.430802   -726.84191   -6217.5872 
 3204000    103.53703   -6746.2818   -6479.9391   -6746.2818            0    3313.0277    23.168713     21.40377    21.584544    10703.728    3479.4655    2947.2812    3512.3366    488.05502   -42.251197   -240.06403   -5962.7659 
 3205000    104.21008   -6756.0708   -6487.9967   -6756.0708            0    2480.2235    23.139448    21.428067    21.666526    10742.993    2778.0646    2814.2335    1848.3723    342.35231     475.4138   -424.65042   -6099.4063 
 3206000    104.73681   -6761.6914   -6492.2624   -6761.6914            0     3195.354    23.227211    21.245514    21.696756    10706.786    2327.9373    3433.7307    3824.3939    64.403025    95.501534    846.28405   -5993.3159 
 3207000    101.45187    -6749.418   -6488.4393    -6749.418            0     2971.704    23.302421     21.28515     21.64154    10734.107    2571.7068    3540.7893     2802.616    77.556346   -584.07946    9.3028272    -6023.231 
 3208000    103.45574   -6741.2272   -6475.0936   -6741.2272            0    3080.7774    23.137584    21.364545    21.672638    10713.304    3797.5463    2816.3694    2628.4166    490.41982    683.88061     -49.4916   -5993.7451 
 3209000    107.66318   -6747.6804   -6470.7235   -6747.6804            0    3005.4508    23.179818    21.471495    21.570599    10735.802    2931.3427      2644.54    3440.4698    376.10475   -75.021875    177.16018    -6000.158 
 3210000    105.23841   -6753.7507   -6483.0313   -6753.7507            0    2874.2806    23.234074    21.367417    21.621193    10733.888     3712.499    1565.0077     3345.335   -515.85064   -186.83554    763.16393   -6033.0836 
 3211000     101.5072   -6731.2698   -6470.1487   -6731.2698            0    2728.5827    23.306453    21.273966    21.705353    10761.963    1763.0983     4505.461    1917.1887    -300.0698     681.6182   -1169.5411   -6041.8917 
 3212000    101.65172   -6747.0306   -6485.5377   -6747.0306            0    2702.9937    23.251986    21.390643    21.612436    10749.484    2496.0182    2411.9927    3200.9701    142.70131    888.05358    -434.9509   -6061.7889 
 3213000     106.0657   -6755.5287   -6482.6811   -6755.5287            0    2111.8228    23.231248    21.393278    21.648009    10758.899    1324.6887    2336.1933    2674.5864    72.181057    1022.9514    224.40467   -6151.3203 
 3214000    108.60297   -6758.5366   -6479.1621   -6758.5366            0    2138.2383    23.273935    21.271791    21.709659    10747.981    1074.3559    3607.3887    1732.9704     478.5525    259.10722    397.60393   -6143.9969 
 3215000    101.15232   -6756.0894   -6495.8812   -6756.0894            0    1974.7815    23.215074    21.346544     21.76261    10784.714    2015.8251    1959.7775    1948.7418    752.84407   -217.01254    901.40784   -6185.2797 
 3216000    103.19392   -6747.0147   -6481.5546   -6747.0147            0    3098.3703    23.209446    21.401811    21.591347    10724.944    3113.5934    2962.3277    3219.1899   -82.238753    341.24729   -489.43765   -5996.9314 
 3217000    105.04115   -6750.3323   -6480.1204   -6750.3323            0    3256.7005    23.183499    21.407245    21.598666    10719.306    3005.5653    3749.2375    3015.2988    642.66138    121.23351   -1218.4228   -5971.0001 
 3218000    107.14438   -6745.9922   -6470.3698   -6745.9922            0    3559.0507    23.222787    21.339701    21.638045    10723.108    3795.8337    3714.8588    3166.4595   -91.797018   -1090.2488    -365.2487   -5913.7857 
 3219000    103.13798    -6746.364   -6481.0478    -6746.364            0    3163.9259    23.305203    21.267814    21.676264    10743.856    2301.4806    3990.5963     3199.701    484.77072    119.70171    -364.9292   -5985.2982 
 3220000     103.3556   -6760.8418   -6494.9658   -6760.8418            0    2436.3975     23.22706    21.453159    21.554195    10740.322    3173.4777    1224.9285    2910.7864    -735.7158   -79.957345    255.73759   -6113.3368 
 3221000    105.52428   -6757.0578   -6485.6031   -6757.0578            0    2213.2499    23.168651    21.428138    21.687625    10767.061     1847.915    2714.9824    2076.8523   -128.66543    -14.84625      -9.5779   -6138.0641 
 3222000    102.54632   -6750.4786   -6486.6845   -6750.4786            0    3590.8651    23.199356    21.247623    21.683205    10688.328    3763.3188     3550.628    3458.6485       535.23   -111.45411    1131.8179   -5926.9465 
 3223000     105.3324   -6758.6114   -6487.6502   -6758.6114            0    2282.5098    23.320542     21.26511    21.680724    10751.772      2574.67    1914.9633     2357.896    220.17001    28.281813    683.69202   -6129.7445 
 3224000    108.91711   -6746.2287   -6466.0461   -6746.2287            0     3174.862    23.131496    21.381095    21.657363    10711.228     2840.552    3718.1505    2965.8835   -645.09649    1156.1097   -823.83649   -5970.0937 
 3225000    103.65312   -6750.2432   -6483.6019   -6750.2432            0    2850.6749    23.128163    21.512247     21.56554    10729.692    2286.0641    2981.9848    3283.9757    44.377072    25.617143    441.40791   -6037.5239 
 3226000    101.14211    -6740.548   -6480.3661    -6740.548            0    3102.6958    23.246615    21.282645    21.674235    10723.316    3020.3317     3577.152    2710.6035    561.69622   -1040.9124     463.9985     -5995.14 
 3227000    111.35255   -6741.2811   -6454.8334   -6741.2811            0    2739.2983    23.363196    21.240114    21.669489    10753.201    2007.3157    3686.5504    2524.0288    211.49305    24.333502   -883.34827   -6025.2446 
 3228000    107.03773   -6738.2416   -6462.8936   -6738.2416            0     2650.623    23.273588    21.400795    21.571891    10744.383    1361.6018    3502.4276    3087.8395   -666.77286   -4.6261646   -516.74516   -6047.5521 
 3229000    111.03688   -6757.1559   -6471.5203   -6757.1559            0    2736.5118    23.119004    21.519928    21.576226    10734.589    2684.9305    1712.0057    3812.5991   -416.73865   -267.51031    828.13729   -6043.1113 
 3230000    109.40654   -6746.1315   -6464.6898   -6746.1315            0    3263.9568    23.174692    21.339519    21.680679    10721.893     3256.504    3473.1345    3062.2319   -358.41258   -479.18236   -2.4659904   -5954.3121 
 3231000    108.87649   -6741.5529   -6461.4748   -6741.5529            0    3801.4468    23.399892    21.138798    21.591295    10680.039      3143.58    4188.8987    4071.8618    784.06682    -206.2858   -188.59311   -5869.3712 
 3232000    102.21933   -6735.1364   -6472.1834   -6735.1364            0    2934.9855    23.196637    21.288262    21.754134    10742.541    2660.2151    3622.9919    2521.7496    10.525571    281.38555   -548.95838   -6012.3623 
 3233000    100.51484   -6745.0791   -6486.5108   -6745.0791            0    3066.8057     23.10309    21.495925     21.60086    10727.469    3610.8379    2379.1788    3210.4004   -268.33898   -42.478247    180.39396   -6006.7117 
 3234000    103.05387   -6742.0983   -6476.9985   -6742.0983            0    3164.7953    23.238757    21.393644    21.595154    10736.284    2333.7729    3607.3301    3553.2828    255.42063    353.07843   -570.59047   -5981.4622 
 3235000    105.66788   -6751.0762    -6479.252   -6751.0762            0    2903.5622    23.438495    21.088747    21.724843     10738.34    2473.2264    3592.6893    2644.7708   -474.16677   -549.11478    22.337674   -6024.5319 
 3236000    104.73865   -6752.0111   -6482.5773   -6752.0111            0    2412.5492    23.228396    21.338649    21.690968    10751.402    3594.6006    1583.0063    2060.0406   -355.64949    -1288.785   -247.45624    -6104.294 
 3237000    98.821247   -6737.7746   -6483.5629   -6737.7746            0    2886.7348    23.117024    21.531712    21.566855    10734.882    2925.2872    3080.0468    2654.8704    751.42546   -271.90521    110.13688   -6031.6237 
 3238000    104.05946   -6735.2512   -6467.5646   -6735.2512            0    1949.1167    23.234731    21.406487    21.668628    10777.411    2164.6729    2143.2772    1539.3998   -619.55559   -58.983063   -558.12003   -6161.2073 
 3239000    101.67277   -6740.4652   -6478.9182   -6740.4652            0    2911.0971    23.369754    21.167765    21.730007    10749.519    2669.8248    3690.9628    2372.5037   -291.90473   -526.49932    903.00237   -6022.5435 
 3240000     107.8709   -6752.5901   -6475.0988   -6752.5901            0     2462.046    23.266231    21.325446    21.650161    10742.003    2167.2112    2737.3592    2481.5677    93.547932   -906.97151   -312.76119    -6089.392 
 3241000    103.85802   -6749.0117   -6481.8433   -6749.0117            0    2117.5671    23.077072    21.481879    21.695013    10755.061    2992.3724    1960.9625    1399.3665   -345.53809   -758.44531   -581.41801   -6149.6996 
 3242000    107.69425   -6761.7215   -6484.6846   -6761.7215            0    3001.0338    23.164305    21.391792    21.656781    10731.498    3774.8091    3034.7106    2193.5817   -270.76565   -411.54241   -613.92203   -6014.9991 
 3243000    102.81374   -6737.8056   -6473.3235   -6737.8056            0    2697.8421    23.355908    21.296449    21.599128    10743.361    2569.7831    2992.5938    2531.1495   -874.85415   -165.35867    39.534955   -6050.6232 
 3244000    106.22093   -6754.6651   -6481.4182   -6754.6651            0    1893.1974    23.296095    21.265653    21.776294    10788.122    1338.2557    2514.0275    1827.3089    530.39136    156.70128    423.27435   -6183.5545 
 3245000    109.02381   -6737.8714   -6457.4143   -6737.8714            0     3193.861    23.194389    21.425733    21.574891    10721.788    3642.9874    2157.6176    3780.9781    1014.7667    13.227174    160.07728   -5958.0022 
 3246000    105.92484   -6757.5868   -6485.1016   -6757.5868            0    2459.2111    23.192499    21.421259    21.608935     10735.59    2395.6433      2418.68    2563.3099     -715.055    479.41473   -175.82522   -6100.0689 
 3247000    102.94907   -6743.3277   -6478.4974   -6743.3277            0    3190.1476    23.234408    21.304153    21.676068    10729.423    3255.6607    2883.0646    3431.7174   -798.08383    60.243832    659.90038   -5979.3107 
 3248000    108.20269   -6750.8035   -6472.4587   -6750.8035            0    2846.6645    23.295982    21.348274    21.563064    10723.937    2819.1888    2176.3406    3544.4642    -54.30443    366.53814     322.5895   -6027.2471 
 3249000    105.21176   -6753.3273   -6482.6765   -6753.3273            0    3451.0129    23.152626    21.332851    21.668534    10702.338    3979.8405    3155.1928    3218.0055   -41.739299    518.49465     17.65015   -5944.0334 
 3250000     112.0852   -6742.3597   -6454.0273   -6742.3597            0    2937.5947    23.218648    21.353364    21.649302    10733.643     3247.935    2501.5563    3063.2929   -163.25546   -172.75353    508.54963   -5994.1787 
Loop time of 531.194 on 64 procs for 250000 steps with 1296 atoms

Performance: 81.326 ns/day, 0.295 hours/ns, 470.638 timesteps/s
99.1% CPU use with 64 MPI tasks x 1 OpenMP threads

MPI task timing breakdown:
Section |  min time  |  avg time  |  max time  |%varavg| %total
---------------------------------------------------------------
Pair    | 29.415     | 40.476     | 51.618     | 113.2 |  7.62
Bond    | 0.2811     | 0.28832    | 0.29434    |   0.6 |  0.05
Kspace  | 270.81     | 282.02     | 293.21     |  43.2 | 53.09
Neigh   | 1.409      | 1.4306     | 1.4457     |   0.8 |  0.27
Comm    | 89.59      | 91.916     | 94.992     |  17.0 | 17.30
Output  | 0.7837     | 0.78464    | 0.78629    |   0.0 |  0.15
Modify  | 102.5      | 104.8      | 106.44     |  11.2 | 19.73
Other   |            | 9.483      |            |       |  1.79

Nlocal:        20.2500 ave          27 max          13 min
Histogram: 6 6 7 6 5 7 4 9 7 7
Nghost:        2605.69 ave        2635 max        2573 min
Histogram: 2 3 7 4 5 20 11 7 2 3
Neighs:        6504.61 ave        8690 max        4119 min
Histogram: 5 7 6 7 5 7 4 9 7 7

Total # of neighbors = 416295
Ave neighs/atom = 321.21528
Ave special neighs/atom = 2.0000000
Neighbor list builds = 2608
Dangerous builds = 0

unfix		3
unfix		2
unfix		1

write_data	data.final.${pid}
write_data	data.final.0
System init for write_data ...
PPPM initialization ...
  extracting TIP4P info from pair style
  using 12-bit tables for long-range coulomb (../kspace.cpp:340)
  G vector (1/distance) = 0.36887629
  grid = 30 40 32
  stencil order = 5
  estimated absolute RMS force accuracy = 0.0041854338
  estimated relative force accuracy = 1.260431e-05
  using double precision FFTW3
  3d grid and FFT values/proc = 5168 640
Last active /omp style is kspace_style pppm/tip4p/omp
WARNING: Not all mixed pair coeffs generated from mixing. Use write_data with 'pair ij' option to store all pair coeffs. (../write_data.cpp:312)

write_restart   restart.lmp.${pid}
write_restart   restart.lmp.0
System init for write_restart ...
PPPM initialization ...
  extracting TIP4P info from pair style
  using 12-bit tables for long-range coulomb (../kspace.cpp:340)
  G vector (1/distance) = 0.36887629
  grid = 30 40 32
  stencil order = 5
  estimated absolute RMS force accuracy = 0.0041854338
  estimated relative force accuracy = 1.260431e-05
  using double precision FFTW3
  3d grid and FFT values/proc = 5168 640
Last active /omp style is kspace_style pppm/tip4p/omp
Total wall time: 0:08:51
