LAMMPS (30 Jul 2021)
  using 1 OpenMP thread(s) per MPI task
package omp 0
using multi-threaded neighbor list subroutines
echo both

include		in.partitions
variable        pid world 0
include		in.temp
variable        temperature equal 292.44
variable	tempDamp equal 100.0
include		in.pressure
variable        pressure equal 13375.0
variable        pressureDamp equal 1000.0 # This is 1 ps
include		in.seed
variable        seed world 745823

units		real
atom_style	full
read_restart	restart.lmp.${pid}
read_restart	restart.lmp.0
Reading restart file ...
  restart file = 30 Jul 2021, LAMMPS = 30 Jul 2021
  restoring atom style full from restart
  orthogonal box = (-0.10811797 -0.048638128 -0.023500454) to (24.838119 24.778639 22.833500)
  4 by 4 by 4 MPI processor grid
  restoring pair style lj/cut/tip4p/long/omp from restart
  restoring bond style harmonic/omp from restart
  restoring angle style harmonic/omp from restart
  1920 atoms
  1280 bonds
  640 angles
Finding 1-2 1-3 1-4 neighbors ...
  special bond factors lj:    0        0        0       
  special bond factors coul:  0        0        0       
     2 = max # of 1-2 neighbors
     1 = max # of 1-3 neighbors
     1 = max # of 1-4 neighbors
     2 = max # of special neighbors
  special bonds CPU = 1.665 seconds
  read_restart CPU = 2.048 seconds
include 	in.setup
variable	out_freq equal 1000
variable	out_freq2 equal 10000
variable	out_freq3 equal 1000

timestep	2.0

neigh_modify    delay 7 every 1

include		in.tip4p
# This is TIP4P/Ice

# create groups ###
group ox type 2
640 atoms in group ox
group hy type 1
1280 atoms in group hy

# set charges - beside manually ###
set group ox charge -1.1794
Setting atom values ...
  640 settings made for charge
set group hy charge 0.5897
Setting atom values ...
  1280 settings made for charge

# ### TIP3P Potential Parameters ###
pair_style lj/cut/tip4p/long/omp 2 1 1 1 0.1577 8.5
pair_coeff 1 1*2 0.000 0.000
pair_coeff 2 2 0.21084 3.1668
bond_style  harmonic
bond_coeff  1 450 0.9572
angle_style harmonic
angle_coeff 1 55 104.52
kspace_style pppm/tip4p/omp 1.0e-5
pair_modify tail yes

thermo          ${out_freq}
thermo          1000
thermo_style    custom step temp pe etotal epair emol press lx ly lz vol pxx pyy pzz pxy pxz pyz enthalpy

restart 	${out_freq3} restart.lmp.${pid} restart2.lmp.${pid}
restart 	1000 restart.lmp.${pid} restart2.lmp.${pid}
restart 	1000 restart.lmp.0 restart2.lmp.${pid}
restart 	1000 restart.lmp.0 restart2.lmp.0


include         in.dump
dump            myDump all atom ${out_freq2} dump.water.${pid}
dump            myDump all atom 10000 dump.water.${pid}
dump            myDump all atom 10000 dump.water.0
dump            myDump2 all dcd ${out_freq2} dump.dcd
dump            myDump2 all dcd 10000 dump.dcd
dump_modify     myDump append yes
dump_modify     myDump2 append yes


variable natoms 	equal  "count(all)"                        # NUMBER ATOMS
variable H      	equal  "enthalpy/v_natoms"                 # ENTHALPY-per-atom
variable Vol      	equal  "vol/v_natoms"                 # volume-per-atom
fix AVG all 		ave/time ${out_freq} 1 ${out_freq} v_Vol v_H file vol_enthalpy.dat
fix AVG all 		ave/time 1000 1 ${out_freq} v_Vol v_H file vol_enthalpy.dat
fix AVG all 		ave/time 1000 1 1000 v_Vol v_H file vol_enthalpy.dat




fix 		1 all shake 1e-6 200 0 b 1 a 1
       0 = # of size 2 clusters
       0 = # of size 3 clusters
       0 = # of size 4 clusters
     640 = # of frozen angles
  find clusters CPU = 0.002 seconds
fix             2 all nph aniso ${pressure} ${pressure} ${pressureDamp}
fix             2 all nph aniso 13375 ${pressure} ${pressureDamp}
fix             2 all nph aniso 13375 13375 ${pressureDamp}
fix             2 all nph aniso 13375 13375 1000
fix             3 all temp/csvr ${temperature} ${temperature} ${tempDamp} ${seed}
fix             3 all temp/csvr 292.44 ${temperature} ${tempDamp} ${seed}
fix             3 all temp/csvr 292.44 292.44 ${tempDamp} ${seed}
fix             3 all temp/csvr 292.44 292.44 100 ${seed}
fix             3 all temp/csvr 292.44 292.44 100 745823


run             250000
PPPM initialization ...
  extracting TIP4P info from pair style
  using 12-bit tables for long-range coulomb (../kspace.cpp:340)
  G vector (1/distance) = 0.37467637
  grid = 30 30 30
  stencil order = 5
  estimated absolute RMS force accuracy = 0.0032471273
  estimated relative force accuracy = 9.7786275e-06
  using double precision FFTW3
  3d grid and FFT values/proc = 3600 512
Last active /omp style is kspace_style pppm/tip4p/omp
Neighbor list info ...
  update every 1 steps, delay 7 steps, check yes
  max neighbors/atom: 2000, page size: 100000
  master list distance cutoff = 10.8154
  ghost atom cutoff = 10.8154
  binsize = 5.4077, bins = 5 5 5
  1 neighbor lists, perpetual/occasional/extra = 1 0 0
  (1) pair lj/cut/tip4p/long/omp, perpetual
      attributes: half, newton on, omp
      pair build: half/bin/newton/omp
      stencil: half/bin/3d
      bin: standard
Per MPI rank memory allocation (min/avg/max) = 9.333 | 9.341 | 9.345 Mbytes
Step Temp PotEng TotEng E_pair E_mol Press Lx Ly Lz Volume Pxx Pyy Pzz Pxy Pxz Pyz Enthalpy 
13750000    296.15996   -8962.1875   -7833.0907   -8962.1875            0    13328.527    24.946237    24.827277    22.857001    14156.418     13154.71    12612.872    14218.001    221.94094   -981.15205    646.99249   -5081.3251 
13751000    289.18235   -8979.0701   -7876.5751   -8979.0701            0    12033.304    25.066788    24.807287    22.894513    14236.701    11392.409      12757.1    11950.403   -333.04649   -776.34274    1023.4652   -5378.1281 
13752000    299.87685   -9000.7005   -7857.4332   -9000.7005            0     13329.03    24.987908    24.856058    22.810217    14167.446    13937.565    11662.565    14386.961   -1103.4751    825.15039   -71.947744     -5103.42 
13753000    300.51797   -9003.9195   -7858.2079   -9003.9195            0     13788.33    24.837477    24.914268    22.832508    14128.928    14610.885    13087.802    13666.304    747.11258    59.632908   -447.63481   -5017.0407 
13754000    288.26488   -9004.7949   -7905.7977   -9004.7949            0    13145.938    24.772684    25.028613    22.801433    14137.479    13135.858    12811.094    13490.863    52.645686    -358.1199    495.81074   -5195.3598 
13755000    292.41844   -8962.6387   -7847.8063   -8962.6387            0    13038.367     24.78471    25.044195    22.859197    14189.003    14148.367    11965.987    13000.749    54.682824    505.73108   -87.429931     -5149.75 
13756000    300.27732    -8961.118   -7816.3239    -8961.118            0    12618.874    24.940774    24.974777    22.811845    14209.276    12809.888    11784.714    13262.021   -467.87658   -1109.4396    829.57824   -5201.3434 
13757000    285.17331   -8985.6002   -7898.3895   -8985.6002            0    12179.513    24.839928    24.818143    23.058252    14214.972    12100.891    13248.131    11189.515    1103.0626    352.78609   -60.075259   -5373.4452 
13758000    290.92683   -8994.5385   -7885.3927   -8994.5385            0    12771.015    24.925142    24.843908    22.860812    14156.282    13234.542    12714.951    12363.553   -72.042021   -81.406025    345.94078   -5248.7546 
13759000    300.85981   -8974.6067   -7827.5919   -8974.6067            0    11871.259    24.905874    25.157494      22.7602    14260.845    11711.542    10658.011    13244.225    33.297381   -235.65628    1224.3745   -5358.6099 
13760000    288.09515   -8939.9963   -7841.6462   -8939.9963            0    13013.286    24.759195    24.987755    22.924205    14182.672     13587.94     13526.71    11925.208   -263.17742    849.24943    449.70045   -5149.9818 
13761000     291.2972   -8981.1211   -7870.5633   -8981.1211            0    12163.519    24.880139    24.952393    22.872585    14199.736    12151.688    11394.935    12943.934   -839.63004   -56.205255   -25.662651   -5351.6374 
13762000    292.36852   -8935.8591    -7821.217   -8935.8591            0      13139.8    24.885486    24.891061    22.930177    14203.551    13573.779     12677.49     13168.13   -98.453155   -1249.4633    563.86496   -5099.3833 
13763000    295.50522   -8961.6988   -7835.0981   -8961.6988            0      11177.4    25.072329    24.933603    22.811381    14260.386    9862.2658    12433.351    11236.585      980.049    91.803783    933.10157   -5510.4994 
13764000    289.74243   -9029.1996   -7924.5694   -9029.1996            0    11944.121    24.955798    24.854597    22.892272    14199.305    11469.398    13083.203    11279.762    336.96963   -409.11457   -94.595184   -5451.1533 
13765000    290.10019   -8973.7202    -7867.726   -8973.7202            0    12497.569    25.020013    24.927216    22.804785    14222.872    11918.908    12325.358    13248.443    354.80032    43.601219    344.79882   -5275.4052 
13766000    292.87428   -8976.8794   -7860.3091   -8976.8794            0    12287.667     24.81386    24.895727    23.025706    14224.339    13917.106    12154.395    10791.501    293.63377    -57.48026    909.70043   -5311.2645 
13767000    299.58077    -8988.892   -7846.7535    -8988.892            0    13394.916    24.977835    24.981003    22.660587    14139.558    13906.853     12020.32    14257.574    32.282233   -466.17662    330.84155   -5084.5752 
13768000    286.60679   -8985.3276   -7892.6518   -8985.3276            0     13991.35    24.867664    24.705407     23.03285    14150.595    13651.026     15301.92    13021.104    38.978606   -678.90707    204.13175   -5005.2302 
13769000     290.8567   -8971.3462   -7862.4678   -8971.3462            0    14255.987    24.896992    24.928169    22.755854    14123.112    13334.925    15103.623    14329.413    -73.54281    -498.3806    588.22222   -4926.1465 
13770000     297.3987   -9010.0949   -7876.2754   -9010.0949            0    13262.929    24.829119    24.843154    22.884194     14115.74    13387.144    14633.424     11768.22   -488.63618   -112.45191    -178.0154   -5145.9212 
13771000    300.69693   -9021.6753   -7875.2815   -9021.6753            0    14010.213    24.743286    24.871368    22.940958    14117.851    14588.999    14471.244    12970.396     604.3762   -1045.0728   -59.777089   -4990.6574 
13772000    288.88619   -8933.0539    -7831.688   -8933.0539            0    13451.576    24.853977    24.990949    22.854421     14195.44    14943.305    13052.906    12358.517    888.08696   -257.93559    580.55981   -5046.8628 
13773000    283.48745   -9000.1602   -7919.3768   -9000.1602            0    12962.729    24.797425    24.881887    22.970476    14172.938    13428.535      13760.1    11699.552     578.0685    68.823937   -466.79992   -5240.0097 
13774000    297.26283   -8916.6129   -7783.3114   -8916.6129            0    13406.608    24.914643    24.984625    22.806427    14196.614    14424.074    12577.111    13218.638    277.32946   -582.41201    1268.6335   -5007.5666 
13775000    296.69914   -8987.3559   -7856.2034   -8987.3559            0    12494.584    24.859949    24.908323    22.929758    14198.556    11924.579     12936.69    12622.482   -141.62969   -539.78726    438.97669   -5268.9328 
13776000    296.24578   -8955.0575   -7825.6335   -8955.0575            0    12295.409    24.957448    25.047499    22.754985    14224.634    11991.887    10765.454    14128.885    799.13926   -49.833761    651.54144     -5274.93 
13777000    297.25072   -8989.1588   -7855.9035   -8989.1588            0    12462.305    24.951492     24.94137    22.834118    14210.229    12930.401    12016.276    12440.239    -264.2162   -553.13073   -582.59249   -5273.1953 
13778000    290.74552   -8985.3601   -7876.9056   -8985.3601            0    13384.961    24.780461    24.824033    23.057708    14183.972    12978.786    13943.857    13232.241   -390.28778   -84.302609   -167.92207   -5108.1101 
13779000    289.99396   -8998.9993   -7893.4101   -8998.9993            0    12215.835     24.84827    25.059661    22.799318     14196.89    12453.099     10944.51    13249.896    1076.1459   -187.34405   -881.27139   -5364.1571 
13780000    296.81248   -8962.6245     -7831.04   -8962.6245            0    12235.169    24.762912    24.983432    23.031878     14248.96    12840.863    12569.073    11295.572   -375.67611   -1274.8517   -575.37284   -5288.4928 
13781000    298.91174   -8956.1278   -7816.5399   -8956.1278            0    12207.357    24.925273     25.00472    22.840675    14235.439    12439.079    12041.232     12141.76   -1163.1872   -498.32002    34.129098   -5282.1795 
13782000    288.27376   -8926.4638   -7827.4328   -8926.4638            0    13546.303    24.909833    24.979028    22.809908    14192.859     14296.55    13528.178    12814.182    675.67653    551.02114    974.79756   -5023.5066 
13783000    300.21952   -8979.8799   -7835.3062   -8979.8799            0    14291.052    24.889254    24.863907    22.866617    14150.871     14653.41    13888.357     14331.39    581.29378    -890.2961    448.40762   -4885.9769 
13784000    279.67375    -8986.465   -7920.2211    -8986.465            0    12479.923    25.008311     24.92932    22.715321    14161.644    11087.387    12693.478    13658.905    849.85696    145.05771   -1272.6553   -5342.7046 
13785000    277.23977   -8988.7269   -7931.7625   -8988.7269            0    12708.073    24.861602    24.846985    22.925641     14161.99     12813.99    12914.203    12396.026   -765.60454   -177.32006    459.78693   -5307.0612 
13786000    280.65897   -8955.2195   -7885.2196   -8955.2195            0    12705.734    24.994471    24.982336     22.73082    14193.585    12705.092    12034.574    13377.536   -480.69981   -950.56832   -504.63529   -5255.1469 
13787000    294.52001   -8994.9002   -7872.0556   -8994.9002            0     12397.96     24.78603     24.85996    23.038384    14195.785    13337.855    12992.749    10863.276   -1170.5775   -350.41593   -762.52313    -5305.294 
13788000    300.42722   -8982.7085    -7837.343   -8982.7085            0    13378.436     24.95009    24.880705    22.798077    14152.494    13982.876    13228.631      12923.8   -806.41486   -8.3351801   -829.11364    -5076.039 
13789000    288.70864   -9011.8761   -7911.1871   -9011.8761            0    10413.299    25.072527    24.935452    22.848794    14284.947    10595.203    10548.189    10096.504    430.08901    352.29116    859.29831   -5741.7711 
13790000    297.52117   -9004.4172   -7870.1308   -9004.4172            0    13618.272    24.765713    24.834074    22.974331    14129.985    14762.942    13357.685    12734.188    -646.2033    1109.5687    1043.8765   -5063.7953 
13791000    284.98788   -9008.1312   -7921.6275   -9008.1312            0    13676.706    24.853981    25.036395    22.676928    14110.812    13473.194    12111.242    15445.683     -116.628    1435.1015   -340.65684   -5107.0746 
13792000    295.59574   -9002.2869   -7875.3412   -9002.2869            0    13842.967     24.77108     24.94345    22.881648    14138.026    14440.713    13705.324    13382.866   -88.110129   -1391.5442    1160.8534   -5021.0791 
13793000    291.92646   -8949.5236   -7836.5668   -8949.5236            0    14082.827    24.741106    24.913779    22.914444    14124.336    14839.202    13543.018     13866.26    167.84458    498.70233    1250.1326   -4935.6601 
13794000    297.60667   -8998.4621   -7863.8498   -8998.4621            0    12947.486     24.99898    24.865991    22.792602    14168.437    12606.079    14005.981    12230.397    769.66577   -882.47484   -315.75418   -5188.4832 
13795000    287.27641   -9033.5159   -7938.2873   -9033.5159            0    12757.142    24.898006    24.755606    22.965955    14155.416    11844.691     13771.36    12655.376   -185.82653   -123.97923    459.65079   -5304.6744 
13796000    301.20708   -8956.4632   -7808.1245   -8956.4632            0    13304.961    25.039465    24.853474    22.775593    14173.654    12220.379    12930.149    14764.354    17.312366    447.37978   -1015.8436   -5057.8798 
13797000    290.27527   -8978.3141   -7871.6523   -8978.3141            0    13710.379    24.781833    24.820964    22.978878    14134.514    13756.582    13294.179    14080.376    154.06043    190.28606   -213.20941   -5045.4305 
13798000    280.32583    -8952.966   -7884.2361    -8952.966            0    13221.206    24.927503    25.041547    22.728311    14187.539    12851.054    11806.816     15005.75    877.32981     461.1885     880.4692   -5148.6269 
13799000    300.77353   -8975.6947   -7829.0088   -8975.6947            0    13793.973    24.885798    24.928494     22.79564    14141.628    12370.705    13572.592    15438.622   -491.40839    -991.5864   -754.21414   -4984.1243 
13800000    304.01426   -8971.6837   -7812.6427   -8971.6837            0    14660.605    24.900967    24.682079    22.930835    14093.466    13709.869    16131.485    14140.461    169.27328   -29.130764    45.886623   -4799.3204 
13801000    291.01753   -8954.1366   -7844.6451   -8954.1366            0    13082.052    24.847244    24.930049    22.873866    14169.057    12542.067    13057.994    13646.094   -261.56707    1254.7751   -267.97106   -5141.3547 
13802000    283.63142   -8956.4455   -7875.1132   -8956.4455            0    13039.766    24.896245    24.946873    22.825604    14176.605    12414.127    12847.876    13857.293   -138.28072    701.84958     617.2233   -5179.1254 
13803000    288.21146   -8967.9532   -7869.1597   -8967.9532            0    12974.327    24.782132    24.949212    22.914477    14167.899    12631.228    13479.299    12812.452    -215.4064    179.73682   -304.33407   -5188.3489 
13804000     299.3575    -8984.342   -7843.0547    -8984.342            0    13226.663    24.861289    24.966518    22.841756    14177.874    13567.191    12787.182    13325.616    544.41856    148.25588   -1197.8559   -5108.1809 
13805000    292.32131   -8960.4193   -7845.9572   -8960.4193            0    13154.015    24.909021    24.732398    23.067338     14210.86    13814.583    13186.136    12461.326    1022.9752    655.97126     317.5504   -5119.7769 
13806000    297.88373   -8954.8155   -7819.1469   -8954.8155            0    14183.422    24.970333    24.870896    22.797215    14157.858    13356.142    14620.935     14573.19   -407.08966    601.49563     510.1243   -4890.5845 
13807000    290.04924    -8967.222   -7861.4221    -8967.222            0    13733.077    24.816088    24.828711    22.925544    14125.608    14225.437    14162.971    12810.824   -439.76019    346.26699    572.10772   -5032.3051 
13808000    293.90481    -8999.141   -7878.6418    -8999.141            0    12618.168    24.844499    24.982414    22.789856    14145.106    13315.642    12108.525    12430.335    505.47227    108.60308   -56.621514   -5275.6165 
13809000    284.01752   -8936.0716   -7853.2673   -8936.0716            0    13856.193    24.691056    24.951843    22.982279    14159.091    15427.131    12506.632    13634.815   -277.46314   -236.77744   -151.88921   -4992.0213 
13810000    294.60304     -9034.86   -7911.6989     -9034.86            0    14680.553    24.788934    24.893578    22.814827    14078.693    15316.713    14492.509    14232.438   -485.27512    165.77384    1226.6849   -4897.4392 
13811000    275.24204   -8920.7487   -7871.4005   -8920.7487            0    13951.918     24.77568    24.843105    22.951961    14127.042    14349.451    14062.315    13443.989    774.60918   -721.04027    1370.5204   -4996.9088 
13812000    297.96423   -8988.5696    -7852.594   -8988.5696            0    14059.592    24.866265    24.912101    22.834169    14145.104    13831.598    13374.045    14973.133   -471.08182   -234.27239   -1629.7329   -4952.2151 
13813000    299.71464   -8937.5458   -7794.8969   -8937.5458            0    13925.517    24.905106    24.800319    22.892929    14139.922    13140.226    15876.364    12759.962    130.05433   -951.01321    1118.9423   -4923.2288 
13814000    299.06201   -8987.9187   -7847.7579   -8987.9187            0    12965.564    24.837394    24.925864    22.878403     14163.87    13379.313    13895.789    11621.591   -377.12474    -1300.224    664.18232   -5169.5194 
13815000    291.16334   -9023.3354   -7913.2879   -9023.3354            0    12350.473    24.893663    24.938544    22.855823    14189.162    11477.706    13190.653    12383.062    -378.1088    308.81183    462.53433   -5357.5503 
13816000    307.70239   -8959.5414   -7786.4396   -8959.5414            0    12250.405    24.902382    24.863771     22.98941    14234.287    11972.902    12585.425    12192.888    39.832515      49.1124    324.00469   -5243.3477 
13817000    291.96865   -9009.6962   -7896.5785   -9009.6962            0    13521.323    25.049225    24.758953    22.793768    14136.525    11719.136    14459.669    14385.164    -663.9162    1053.0907    870.18155   -5108.9316 
13818000    280.07134   -8963.1891   -7895.4294   -8963.1891            0    14415.158    24.913798    24.843627    22.865101    14152.334    14201.316    14691.031    14353.127   -64.564661   -1014.8757   -83.857617   -4920.1801 
13819000    283.79317   -8986.0792   -7904.1302   -8986.0792            0    14305.468    24.861777    24.922399    22.760091    14102.496    13981.719    14154.727    14779.958    402.64088   -364.29381    167.77326   -4961.9183 
13820000    285.80224   -8972.9659   -7883.3575   -8972.9659            0    14577.195    24.686989    24.948252    22.941053    14129.331    15500.016    15125.791    13105.778   -451.06353   -624.49005   -298.29251   -4879.5545 
13821000    295.41298   -8984.2891   -7858.0401   -8984.2891            0    13303.795    24.828035    24.955455    22.833922    14147.782    14684.288    12183.503    13043.594    79.971425    112.23264    665.47282   -5113.0563 
13822000    297.38883   -8941.6334   -7807.8516   -8941.6334            0    14170.688    24.897072    24.865982    22.800991    14115.869    14853.363    13991.224    13667.478    300.42791   -76.048788   -5.1300487   -4890.5962 
13823000    288.82361   -9050.8328   -7949.7055   -9050.8328            0    12641.618    24.890347    24.842693    22.834687    14119.674    11967.392    12808.678    13148.783    423.36465    580.82279    119.07328   -5346.5313 
13824000    294.71163   -8959.5756   -7836.0005   -8959.5756            0    13534.929    24.731512    24.881332    22.977973    14139.564    14129.763    13732.403    12742.622   -210.02824   -83.115537    -95.69378   -5044.9487 
13825000    298.33672   -8952.7568   -7815.3612   -8952.7568            0    13390.189    24.906744    24.890121    22.864631    14174.514    13084.293    14035.817    13050.457    405.21898    164.46676   -2209.7554   -5047.3314 
13826000    294.51275   -8984.4197   -7861.6028   -8984.4197            0    14265.778     24.88122    24.725793    22.933387    14108.801    14181.424    14405.476    14210.434   -7.7815318    -1031.303   -1185.8781   -4926.2422 
13827000    280.59953   -8976.5638   -7906.7904   -8976.5638            0    14591.192     24.94443    24.834794    22.775453    14109.161    14668.792     14240.53    14864.254   -361.23411   -832.87453    -5.362276   -4904.3952 
13828000    289.52636    -8926.471   -7822.6644    -8926.471            0     13502.97    24.947088    24.776482    22.944137    14181.796    12391.031    15315.706    12802.174    589.18011    152.60101    -933.0572   -5029.8862 
13829000    290.60642   -8987.7985   -7879.8743   -8987.7985            0    14115.268     24.95235    24.890169    22.733742    14119.205    12901.456    13498.155    15946.194    394.72843   -41.630167    -831.0641   -4973.3414 
13830000    285.77459   -8968.6819   -7879.1789   -8968.6819            0    12397.407    24.888809    24.915545    22.873459    14184.249    13426.038    11483.211    12282.972    558.66966   -323.76456   -839.81561   -5314.6175 
13831000    293.85961   -8950.9437   -7830.6169   -8950.9437            0     12143.35    24.855222    24.870953    23.027993    14235.285     12947.63    12980.118    10502.303     356.6356   -297.49395   -758.55522    -5309.572 
13832000    286.34374   -8959.9777   -7868.3048   -8959.9777            0    13460.778    24.851026     24.96818     22.81279    14154.991    14981.008    12274.258    13127.067    700.40481   -229.63008    639.85245   -5089.5153 
13833000    285.45804   -9009.4481   -7921.1519   -9009.4481            0    13949.984    24.865776    24.882395    22.869771    14149.986    13874.541     13465.44    14509.972   -265.83436    391.14279    380.54512   -5042.3908 
13834000    299.89464   -8956.0777   -7812.7425   -8956.0777            0    13152.627     24.95766    24.933238     22.81156     14195.07    12672.896    12375.064    14409.922    222.38729    1260.8617   -299.45337   -5089.8786 
13835000    286.17296   -8983.0776   -7892.0558   -8983.0776            0    11769.663    24.996246    24.784533    22.979614    14236.337    9653.8679    13075.023    12580.098     388.2265    -142.1713   -169.85388   -5448.4104 
13836000    291.53141   -8961.5751   -7850.1244   -8961.5751            0    13255.163    24.917988    24.836363    22.882074    14161.079    13040.641    13537.222    13187.626   -186.47811     1536.594   -157.88645   -5112.6043 
13837000    289.99299   -8977.5404   -7871.9548   -8977.5404            0     13218.22    24.908926    24.860329     22.87644      14166.1    12606.519    13120.347    13927.795   -1022.0312    228.92458   -1615.0398   -5141.0963 
13838000    297.99255   -8943.4622   -7807.3787   -8943.4622            0     14498.85     24.81771    24.810088    22.938445    14123.879    14377.606    15138.001    13980.943   -372.04047   -81.739486   -406.13208   -4820.8725 
13839000      278.087   -8979.8159   -7919.6215   -8979.8159            0    14786.248    24.970109    24.905007    22.628011    14071.924    14473.871    13956.432     15928.44     554.9341    631.58045    48.177542     -4885.12 
13840000      290.293   -8954.0137   -7847.2844   -8954.0137            0    14164.791    24.886727    24.800953    22.904416    14136.939    13736.437    14784.065    13973.873    317.96143   -1614.5734   -308.09651   -4926.8903 
13841000     282.1889   -8972.4769   -7896.6441   -8972.4769            0     14850.12    24.757229    24.879685    22.851573    14075.473    13932.365    15956.953    14661.041    157.01137   -419.89048   -616.49595    -4848.266 
13842000    299.53708   -8983.9355   -7841.9636   -8983.9355            0    15332.929     24.82923    24.864997    22.829991     14094.75    16321.693    15399.001    14278.093   -668.31485   -557.80984    814.52981   -4690.1653 
13843000    298.02487   -8969.1644   -7832.9577   -8969.1644            0    14196.185    24.985197    24.835608    22.723664    14100.547    13238.623    14508.917    14841.017   -66.015941    231.61329    659.37846   -4913.6256 
13844000     289.2437   -8970.7078   -7867.9789   -8970.7078            0    14933.066    24.719203    24.932306    22.897918    14112.141    15311.463    14075.569    15412.167   -22.328886    462.16756    2001.2141   -4794.5881 
13845000    280.50194   -8994.8592   -7925.4579   -8994.8592            0    15215.864    24.762812    24.973429    22.774393    14083.965    15234.092    13913.539    16499.961    73.469968    598.10034   -923.60396   -4800.1166 
13846000    289.84419   -8974.8989   -7869.8807   -8974.8989            0     12582.14    24.818182    25.047914    22.878059    14222.001    13706.773    11645.724    12393.923   -456.04262    884.83174   -512.14418   -5260.1776 
13847000    295.74893   -8976.8919   -7849.3621   -8976.8919            0    13568.981    24.847006    24.938348    22.865396    14168.388    13911.897    12719.939    14075.108   -477.79323    765.64433    293.31593   -5045.5843 
13848000    287.36035   -9032.1568   -7936.6081   -9032.1568            0    12839.342    24.950305     24.78297    22.900632    14160.437    12111.755    14079.425    12326.846   -974.30724   -568.56027    311.64788   -5285.0856 
13849000    289.93007   -8953.3987   -7848.0531   -8953.3987            0    12569.446    25.073277    24.833973    22.836891    14219.826    11230.301    13262.845    13215.191    36.025695   -323.43171    520.87543   -5241.3815 
13850000    293.01563   -9009.9725   -7892.8633   -9009.9725            0    13575.401     24.93616    24.870939    22.775024    14124.745    13863.662    12476.275    14386.265   -68.485099    23.259992   -276.51931   -5096.3998 
13851000    287.37655   -8967.7118   -7872.1014   -8967.7118            0    13568.974    24.749935    24.954724    22.896429    14141.471    14504.431    12971.102     13231.39    431.63728    157.68656   -226.07313   -5073.6517 
13852000    295.74663   -8956.1544   -7828.6334   -8956.1544            0    11859.299     24.83591     25.07822    22.838532    14224.761    12858.866     11037.17    11681.861    93.276917     797.6914   -414.35387   -5368.3798 
13853000    292.77937    -8969.097   -7852.8886    -8969.097            0     12411.89    24.807864    25.036182    22.862237    14199.603    13870.915    12148.175    11216.579    254.44059   -1020.2725    1606.4718    -5282.552 
13854000    286.29585   -8971.6459   -7880.1556   -8971.6459            0    13200.161    24.835115      24.9739    22.869095    14184.091    13725.507    12020.184    13854.791    445.93709   -1206.8438     347.3724   -5149.5648 
13855000     300.1884   -8988.3104   -7843.8553   -8988.3104            0    12944.744     25.04195    24.816029    22.809786    14174.954    12010.161    12664.983     14159.09    417.92219   -595.25779   -1476.1783    -5167.825 
13856000     294.6389    -9004.743   -7881.4452    -9004.743            0    14122.046    24.989328    24.773334    22.784165     14104.97    13657.985    14197.838    14510.315    916.80586    288.37523    421.88435   -4976.4482 
13857000    292.18559    -8974.691   -7860.7463    -8974.691            0    13871.418    24.927423    24.774476    22.850671    14111.748    13552.694    13764.478     14297.08    328.56243   -225.81334    541.22474   -5005.9341 
13858000    295.84999   -8978.2592   -7850.3441   -8978.2592            0    14149.107     24.93521    24.777439    22.780748    14074.645    13413.738    14170.696    14862.886   -68.508534   -752.26335    65.506833   -4946.0383 
13859000    291.50185   -8991.1977   -7879.8597   -8991.1977            0    12870.702    24.984506    24.898987    22.823756    14198.405    12720.359    12211.155    13680.592   -590.97906    -185.3811   -270.81385   -5214.7341 
13860000     294.2661   -9025.5568   -7903.6802   -9025.5568            0    11515.931    24.847865    24.930134    22.958233    14221.721    13083.311    11097.185    10367.298   -770.34574   -672.41226     217.1747     -5515.17 
13861000    285.84601   -8952.7877   -7863.0123   -8952.7877            0    13450.943    24.812138    25.011991    22.852923    14182.546    14156.828    13678.612     12517.39   -252.04001   -131.44913   -669.71188   -5080.8476 
13862000    291.05748    -8959.855   -7850.2112    -8959.855            0    13521.966    24.796705    24.976697     22.87547    14167.689    14080.649    13542.423    12942.824   -258.35391    1464.6882   -54.234291   -5056.2863 
13863000    288.14413   -8977.7317   -7879.1948   -8977.7317            0    11978.275    24.999239     24.83437    22.950994    14248.903    12195.303    12452.139    11287.383   -696.48365    1271.4387   -1483.8075   -5390.0419 
13864000    306.97116    -8963.696   -7793.3819    -8963.696            0    12401.799    24.900189    24.943327    22.887843    14215.491    12121.601     11417.73    13666.065   -435.49979   -814.97347    185.20332   -5222.2613 
13865000    295.28146   -8936.5989   -7810.8513   -8936.5989            0    12316.325    24.866221    24.939126    22.980272    14251.027    12606.223    12794.738    11548.015    774.91607    620.64784    1410.7101   -5251.0679 
13866000    292.76783   -9004.9529   -7888.7884   -9004.9529            0    13392.441    24.911167     24.91444    22.776062    14135.912    11863.344    14332.959    13981.021    501.13885    5.4201394   -302.78247   -5127.8326 
13867000    281.16288   -9007.7736   -7935.8525   -9007.7736            0    13148.921    24.966022    24.720106     22.97494    14179.276    13422.056    12719.602    13305.106    48.396825    703.19138    493.25165   -5216.7844 
13868000     287.9762   -9023.3209   -7925.4243   -9023.3209            0    13174.199    24.949921    24.788462    22.859304    14137.797    11996.617    14910.188    12615.791   -709.22006    93.706244   -1430.0407   -5209.0985 
13869000    295.18399   -8981.1167   -7855.7407   -8981.1167            0    13693.927    25.018086     24.70924    22.851797    14126.476    13507.461    14157.414    13416.906    818.11982   -1293.4937   -582.68726   -5034.5156 
13870000    293.14732   -9002.8014   -7885.1901   -9002.8014            0    12920.214    24.970792    24.825742    22.863332    14173.401     11283.52    13003.096    14474.027    304.91469    -1468.407   -688.23011   -5214.5235 
13871000    293.75758   -9001.7207   -7881.7828   -9001.7207            0    13091.795    24.874015     24.99025    22.792095    14167.745    13383.873    11539.137    14352.375   -579.85272    533.00415     634.5892   -5176.7296 
13872000    283.09941   -8930.2238   -7850.9197   -8930.2238            0    12643.749    24.835695    24.966618     22.94137    14225.102        13010    12688.863    12232.384    314.02595    191.08006    889.50777   -5227.8662 
13873000    295.12587   -9031.6581   -7906.5037   -9031.6581            0    11933.939    24.896121    25.010854    22.800591    14197.318    11180.585    11214.046    13407.187   -441.63507   -133.03754   -1349.9509    -5435.542 
13874000    300.33274   -8960.0916   -7815.0862   -8960.0916            0     12987.98     24.87426    24.948885    22.847557    14178.853    12655.464    13251.223    13057.253    226.94419   -478.88178   -19.576995   -5129.3794 
13875000     293.6926   -8910.0097   -7790.3196   -8910.0097            0    14652.527    24.895137    24.851364    22.813595    14114.272    14686.316    14873.316    14397.948    107.66912    994.82416   -479.46872   -4774.2115 
13876000    303.99028   -9022.7417   -7863.7921   -9022.7417            0    14513.349    24.960643    24.803979    22.783588     14105.85    13529.355    15990.499    14020.192   -317.14954     351.1639    765.45619   -4878.1154 
13877000    299.54635   -8978.2458   -7836.2385   -8978.2458            0    13986.683    24.911985     24.79694    22.852337    14116.825    13385.955    14689.622    13884.472   -602.43084    616.60893    175.28762   -4956.6685 
13878000     290.3964   -8970.5796   -7863.4561   -8970.5796            0    15089.696    24.909189    24.818508    22.742935    14059.885    14247.546    16091.514    14930.028    1183.4139   -254.60144   -704.86466   -4769.3291 
13879000    295.88657   -8952.0799   -7824.0253   -8952.0799            0    13858.965    24.889437    24.820762    22.848325    14115.119    13345.479    13824.222    14407.194   -272.23828     648.0727     422.0784   -4971.0946 
13880000    288.31672   -8988.5759    -7889.381   -8988.5759            0    14705.333    24.875306    24.881227    22.716994    14060.187    16230.808    13755.637    14129.554   -884.52271    1226.2212   -382.05072   -4874.0025 
13881000    285.02319   -8980.1679   -7893.5296   -8980.1679            0    15001.947    24.661062    24.892906    22.927725    14074.998    16264.944    15922.068    12818.829    199.55577    360.86995    933.16279   -4814.0888 
13882000    288.64545   -8977.6313   -7877.1832   -8977.6313            0    12791.823    24.826036    25.102175    22.798904    14207.992    12595.386    11648.361    14131.722    922.09081   -638.53196    349.78912   -5226.6025 
13883000    286.35727   -8973.7596   -7882.0351   -8973.7596            0     12530.08    24.871902    24.956875    22.861113    14190.463    13438.276    12950.076    11201.887    853.34601     1040.268   -186.85313   -5288.8931 
13884000    289.68391   -9029.3591   -7924.9519   -9029.3591            0    12108.166    24.827804    24.894373    23.002267    14217.071    13020.284    12267.147    11037.065     -1249.46    58.665968    599.21087   -5414.4279 
13885000    280.14708   -9004.9542   -7936.9057   -9004.9542            0    12969.734    24.803084    25.100207    22.755729    14166.864    13212.291    11751.336    13945.577   -281.40129    367.35076   -351.41916   -5257.2394 
13886000    292.58564   -8975.9626   -7860.4927   -8975.9626            0    13202.606    24.827179    24.899801    22.929886    14175.068    13761.493    13162.661    12683.665   -25.450753    86.270378    643.11796   -5131.1334 
13887000    286.53486   -8990.0927   -7897.6912   -8990.0927            0    12679.402    24.892041    24.867532     22.89428    14171.643    14188.863    12716.893    11132.452   -692.29187     796.2185   -273.07008   -5277.1266 
13888000    285.60353   -8970.1558   -7881.3049   -8970.1558            0    12003.848    24.877853    24.812992    23.062853    14236.561     11448.97    12767.075    11795.499    1356.7612    476.78826    188.72776   -5388.9984 
13889000    286.94312   -9010.1248   -7916.1667   -9010.1248            0    12844.549    24.969101     24.85828    22.805167    14154.914    13114.409    12672.879    12746.358    133.71676   -632.97896    183.49052   -5264.6036 
13890000    296.20302   -9002.9901   -7873.7291   -9002.9901            0     11486.04    24.921165    24.800016    23.047022    14244.103    11615.345    11812.826    11029.949    57.463083    -188.9703   -40.207466   -5487.6693 
13891000    292.50373    -9029.846   -7914.6884    -9029.846            0     12450.76    24.972899    24.933999    22.768994    14177.666    11423.241    12190.245    13738.793   -1124.4186    60.308796   -169.51373   -5340.2857 
13892000    301.16297    -9066.024   -7917.8535    -9066.024            0     12898.84    24.757431    24.916495    22.959092    14162.738    13752.779    12415.554    12528.187    161.50567    374.16937    -7.067071   -5253.6108 
13893000    298.94473   -9004.9355   -7865.2218   -9004.9355            0    12232.233    24.896552    24.947345    22.853921    14194.636    11637.453    12373.827    12685.419   -1285.6006    -400.7013    -465.1116   -5332.9759 
13894000    294.29439   -8993.4832   -7871.4988   -8993.4832            0    13391.755    24.854111    24.959955     22.80763    14148.884    13117.567    12142.256    14915.441   -890.68489    613.14805    1325.8374   -5108.1509 
13895000    301.05361   -8944.9349   -7797.1812   -8944.9349            0    13708.013    24.884403    24.760813    22.983022    14161.174    14030.932    15488.124    11604.983    138.02774   -725.20417    322.84624   -4966.1174 
13896000    292.37634   -8992.4356   -7877.7636   -8992.4356            0    12944.642    24.932424    24.945206      22.7558    14152.843    12706.771     12112.08    14015.075   -1000.9799     161.3518    818.54479   -5205.9285 
13897000    288.08707   -8979.4446   -7881.1253   -8979.4446            0     13450.71    24.812578    24.786633    23.053703    14178.495    13128.117      14501.7    12722.312   -209.39643    -394.9835    743.09979   -5099.8036 
13898000    287.88951   -9026.6943   -7929.1282   -9026.6943            0    13172.268    24.905446    24.872349    22.780174    14111.337    13524.687    13099.559    12892.559    92.857797    73.184276    763.39025   -5218.2836 
13899000     297.8433   -8988.5699   -7853.0554   -8988.5699            0    13795.172    24.975248    24.883788    22.771896     14152.25    13592.182    13808.799    13984.533    771.87067    1141.3202   -154.89383   -5005.7866 
13900000    289.22018   -8988.8797   -7886.2405   -8988.8797            0    13200.085    24.857017    24.772588    23.001718    14163.828    12035.706    14391.529     13173.02   -186.66986    176.09669    693.31515   -5159.5661 
13901000    300.02825   -8995.9731   -7852.1286   -8995.9731            0    12991.305     24.95642     24.93174    22.781007    14174.502    12456.573    13649.098    12868.245   -790.67391    21.532247   -902.51183   -5166.5586 
13902000     285.4871    -8981.703    -7893.296    -8981.703            0    13109.238    24.781495    24.829266    23.035991    14174.191    15012.547    13095.188    11219.978     125.8642   -666.73939   -373.90676   -5183.4062 
13903000    293.24366   -8977.1217   -7859.1431   -8977.1217            0    10933.889    24.994343    25.054879    22.784833    14268.552    11265.184    9575.8897    11960.593    680.88337    555.44817   -516.62716   -5583.8862 
13904000    296.42898   -9045.8058   -7915.6833   -9045.8058            0     11737.84    24.890808     24.93185    22.877844    14197.392    11231.107    11964.589    12017.825   -429.33363    253.36017    519.34099   -5485.3118 
13905000     294.6216   -9012.3453   -7889.1134   -9012.3453            0    11624.777    24.979531    24.871002    22.907004    14231.342    12179.358    10641.028    12053.945   -972.20855    380.19113    1070.3236   -5476.3965 
13906000    270.21926   -9016.1391     -7985.94   -9016.1391            0    11985.372    24.657385    24.940085    23.063643    14183.156    13519.773    11607.238    10829.104    67.259187   -1172.2973    399.11938   -5506.8046 
13907000    287.14467   -8973.2166   -7878.4901   -8973.2166            0    13503.488    24.857513    24.973755    22.799549    14153.627    14493.446    11757.216    14259.804    615.26299   -532.35245    156.90356   -5091.1522 
13908000    286.87894   -8971.1381   -7877.4247   -8971.1381            0    13372.872    24.863107      24.8535    22.981129     14200.85    14120.904    13708.264    12289.447   -66.639902   -384.95297    256.55545   -5107.8385 
13909000     284.8577   -8928.0313   -7842.0238   -8928.0313            0    13172.499    24.846585     25.08045    22.759353    14182.799    13827.879    11120.632    14568.986   -492.68262   -161.31115     337.1417   -5117.4034 
13910000    283.54616   -8962.3855   -7881.3782   -8962.3855            0    14057.594    24.799277    24.836054    23.018017    14177.169    14426.818    14292.023     13453.94    275.22061    734.30325    520.41995   -4974.8376 
13911000     288.8341   -9023.9619   -7922.7945   -9023.9619            0    13817.315    24.910309    24.819795    22.765258    14075.048     14173.69    12925.691    14352.565     147.7241   -64.142924   -243.15157   -5086.5123 
13912000    298.29679   -9006.2474    -7869.004   -9006.2474            0    14357.813    24.938776    24.741805    22.845182     14096.17    13473.777    15066.029    14533.632    1139.7258    476.99102   -185.94125   -4917.3511 
13913000       295.17   -8971.7109   -7846.3882   -8971.7109            0    14267.199    24.901279    24.891396     22.76401    14109.762    13265.531    13769.554    15766.512   -288.84721    28.920187    942.05759   -4910.5353 
13914000    279.95816   -8967.3431    -7900.015   -8967.3431            0    13373.708    24.727697    24.943371    22.950842    14155.899    13947.113    12569.387    13604.623   -757.26689    261.11208     45.08971   -5139.0229 
13915000    294.30537   -8994.6001   -7872.5738   -8994.6001            0    12773.569    24.805569    25.013873    22.858434    14183.278     13652.75    12482.109    12185.848    153.44613   -387.02071    683.27366   -5230.3795 
13916000    296.69624   -8964.7551   -7833.6137   -8964.7551            0     12906.82    24.879909    24.883107    22.940337    14202.121    13404.529    12681.612    12634.319    -215.3509    70.135175   -239.39048   -5160.3097 
13917000    283.28586   -9035.4294   -7955.4145   -9035.4294            0     11300.79    25.075432    24.879558    22.803354     14226.23    9873.7864    12064.349    11964.234   -711.06769   -205.51872    628.00533   -5610.7835 
13918000    302.96487   -8975.8552   -7820.8149   -8975.8552            0    12491.413    24.930618    24.809437    22.958457    14200.141    12445.733    12745.535    12282.971   -432.59431    900.60521    338.62982   -5233.9122 
13919000     282.4618   -8956.3024   -7879.4292   -8956.3024            0    13544.985    24.945059    24.908197    22.847611    14196.053    14246.694    11865.206    14523.056    210.63776    161.12017    1617.0215   -5075.1449 
13920000    284.20084   -8955.5412    -7872.038   -8955.5412            0    13797.078    24.947103    24.849608    22.801808    14135.428    13610.415    14411.038    13369.779     274.3364    1715.4399   -338.09994   -5027.7606 
13921000    286.36408   -8967.3708   -7875.6203   -8967.3708            0     13095.12    24.866898    24.865138    22.907059    14163.866    12509.343    14045.944    12730.074   -317.85137    -162.5649   -10.136314   -5170.6208 
13922000    283.77899   -8949.1507   -7867.2558   -8949.1507            0    13163.108    24.914592    25.023738    22.688763     14145.45    13001.315    12402.832    14085.178    52.197804   -648.29243    123.01961   -5151.7475 
13923000    287.82364   -8959.8609   -7862.5459   -8959.8609            0    14249.475    24.840149    24.870405    22.849528    14116.086    14456.194    14497.387    13794.843   -115.49481    946.10925   -206.02704    -4929.026 
13924000    289.41218   -8994.4815   -7891.1103   -8994.4815            0     14692.73    24.786817    24.759877    23.016051    14125.377    14808.151     14153.79    15116.249    29.886043    -225.7805    178.39663   -4864.3472 
13925000    292.76705   -8993.3981   -7877.2366   -8993.3981            0    13548.779    24.900238    25.019982    22.663132    14119.211    14087.743    11507.259    15051.334   -152.99243   -680.18442   -703.07555   -5087.3507 
13926000    285.43411   -8982.5094   -7894.3044   -8982.5094            0    14311.903    24.778091     24.71792    23.021591    14099.869    14725.206     15089.83    13120.673   -489.85788   -74.924638    580.22971   -4951.3173 
13927000    293.47252   -8996.4197   -7877.5686   -8996.4197            0    12099.117    24.975093    24.876293    22.861652    14203.664    11668.033    13303.693    11325.624    296.91401   -156.84029   -896.32621   -5371.2866 
13928000    280.49481   -8960.1821    -7890.808   -8960.1821            0    11883.679    25.020694    24.876286    22.840147    14216.209    12244.014    11916.564    11490.461   -764.24952    1088.9336   -39.589039   -5426.9787 
13929000     284.3578   -8973.8763   -7889.7747   -8973.8763            0    13068.758    24.897447    24.794773    22.994498    14195.114    13847.127    13477.708    11881.438   -934.71235    117.58071    171.92635   -5184.2651 
13930000     282.4282   -8981.9397   -7905.1946   -8981.9397            0    12441.671    24.891252    24.963136      22.8507    14198.595    12999.857    11420.933    12904.222   -375.38465   -1863.1571   -803.28767   -5328.8736 
13931000    287.62084   -8969.7797   -7873.2379   -8969.7797            0    13103.797    24.842527     25.01135    22.769761    14147.881    13826.574    11615.106    13869.712     46.89806   -821.24483    481.01793    -5169.501 
13932000    293.77841   -8945.2747   -7825.2575   -8945.2747            0    13978.217    24.835153    24.830333    22.974201    14167.389    13946.236    14685.423    13302.991     25.56516     121.8189     219.9359   -4937.1227 
13933000    289.70653   -8978.2922   -7873.7988   -8978.2922            0    13701.359    24.820834    24.887714     22.90229    14147.519    12979.526    14321.343    13803.207   -694.56832     1196.767    845.60371   -5046.8378 
13934000    294.75175   -8972.5364   -7848.8083   -8972.5364            0    14649.961     24.91214    24.739362    22.888649    14106.513    14246.141    16402.982    13300.761     243.7751     346.8803    660.64246    -4834.886 
13935000    302.32128   -8952.3701   -7799.7834   -8952.3701            0    14020.293    24.953612    24.836912    22.817371    14141.537     13146.94    14439.001    14474.938    449.97669   -1183.3292    217.59974   -4908.2408 
13936000    303.03462   -8984.8479   -7829.5418   -8984.8479            0    11015.263    24.982833    24.821723    22.979072    14249.713    10310.002    11841.361    10894.425    1433.2915   -114.72436    556.15842    -5540.378 
13937000    285.19688   -9020.3044   -7933.0038   -9020.3044            0    12642.696    25.037852    24.859438     22.75069    14160.642    11785.693    12540.847    13601.548    415.20558     746.7818   -483.38149   -5322.0539 
13938000    298.89501   -8970.3806   -7830.8565   -8970.3806            0    13857.374     24.82518    24.773688    22.995252    14142.339    14113.948    15567.205    11890.968    445.69486    625.05551   -283.58973   -4972.7522 
13939000    279.50253   -9000.1564   -7934.5653   -9000.1564            0    13656.932    24.799695    24.934515    22.876826    14146.306    12861.453    14334.225    13775.119   -619.63612    654.04873   -704.81366   -5117.0123 
13940000     294.6125   -8936.6639   -7813.4667   -8936.6639            0    14463.549    24.746084    25.019205     22.89079    14172.313    14899.397    14558.695    13932.556   -501.66223    721.48061    409.29531   -4824.0151 
13941000    296.93855   -8995.9055   -7863.8404   -8995.9055            0    13282.038    24.809218    25.102008    22.751681    14168.864    14261.484    10895.391    14689.239    227.67095   -225.29349   -414.11597   -5119.2621 
13942000    292.04436   -8951.4356   -7838.0294   -8951.4356            0    13854.266    24.829793    24.950309    22.817291    14135.563    14201.977    14041.762     13319.06    725.95352    161.33611    329.58695   -4981.9351 
13943000    292.59453   -8984.8101   -7869.3063   -8984.8101            0    14061.111    24.911246    24.854086    22.779668    14103.946    14046.162    14824.377    13312.795   -962.81797    1152.3197   -530.33103   -4977.0539 
13944000    285.99474   -8970.0131   -7879.6708   -8970.0131            0    12734.818      24.9539    24.680927    23.066358    14206.232    11945.656    13936.179    12322.618    1226.8722   -613.82731     855.5961   -5241.2289 
13945000    290.29795   -8981.1738   -7874.4256   -8981.1738            0    13082.291    25.045483    24.866031    22.728588     14154.95    13279.464     12569.65    13397.759    179.86247   -173.73219    -351.4058   -5173.7773 
13946000    301.92012   -8990.6882    -7839.631   -8990.6882            0    13930.657    24.886024    24.825212    22.925543    14163.419    13011.529    14200.202    14580.239   -1637.3087    -14.35858    1216.9978   -4962.1294 
13947000    288.09296   -8972.2187    -7873.877   -8972.2187            0    12027.082    24.858113    24.959458    22.892101     14203.29    11769.853    11879.677    12431.715   -16.750435    89.943339    297.94618   -5382.5822 
13948000    287.71325   -8959.3681    -7862.474   -8959.3681            0    12343.569    24.910417     24.96031    22.955969    14273.373     12762.79    12062.354    12205.562    33.247868    1277.9284    339.66019   -5293.0058 
13949000    296.09981   -8968.8257   -7839.9582   -8968.8257            0    11691.406    24.857099    24.994198    22.935982    14249.741    11927.911    10647.614    12498.695    831.35183   -272.70073   -357.76953   -5410.2752 
13950000    279.23606   -8956.8279   -7892.2527   -8956.8279            0    12852.642    25.023192    24.888243     22.81766    14210.458    12804.356    12561.097    13192.475    159.36007    333.50716   -933.02623   -5228.6074 
13951000    303.59809   -8990.6848   -7833.2305   -8990.6848            0    13234.544    24.905218    24.812046    22.922163    14164.738    13806.536     14394.65    11502.447    428.61949   -1257.1308    554.45104   -5099.2625 
13952000    294.04517   -9004.1659   -7883.1317   -9004.1659            0    13903.824    24.872081    25.011303    22.706268    14125.187     13611.05    13147.023    14953.397   -590.59066    187.02676     1159.041   -5018.9251 
13953000    285.22463   -9021.4417   -7934.0353   -9021.4417            0    13525.925    24.811697    24.913287    22.844423    14121.073    14041.481    13267.483     13268.81   -948.61986    859.93039    397.39134    -5148.488 
13954000    291.91118   -8952.6695   -7839.7709   -8952.6695            0    13792.097    24.765301    25.053179    22.809334     14152.04    15813.405    11644.562    13918.324    854.21316   -155.25749   -220.60753   -4993.1788 
13955000     291.2148   -9010.1794   -7899.9358   -9010.1794            0    14101.924      24.8498    24.964186    22.699862    14081.974    13343.647    14480.986    14481.139   -129.72019   -743.35601    469.33759   -5003.8075 
13956000    281.82439   -9045.5184   -7971.0753   -9045.5184            0    13481.593    24.860993    24.806337    22.932835    14142.913    13023.997    14057.186    13363.596   -1016.4537    501.52463   -384.58858   -5190.3635 
13957000    291.82125   -8976.5498   -7863.9941   -8976.5498            0    14441.005    24.956778    24.831546    22.768132    14109.762    12226.038    15556.019    15540.957     1430.311    320.70295    188.60747   -4892.3762 
13958000    289.81951   -8966.8952   -7861.9711   -8966.8952            0    13752.969    25.017095    24.701799     22.87515    14136.093    13175.294    14921.557    13162.056    121.09681    814.13171   -522.88496   -5026.6532 
13959000    288.73423   -8922.7168   -7821.9303   -8922.7168            0    13838.148    24.926472    24.806825    22.922264    14173.905    14028.687    13025.542    14460.216    439.59159   -199.08188   -547.94605   -4961.4208 
13960000    289.35746   -8944.2776    -7841.115   -8944.2776            0    12857.482     25.05193    24.889176    22.750509     14185.44    11046.732    13734.407    13791.307   -172.45745   -688.81106    832.21029   -5181.1579 
13961000    301.01238   -8977.0468   -7829.4503   -8977.0468            0    13280.699    24.875682    24.883904     22.90405    14177.701    13077.944    12296.489    14467.665    319.76422   -477.32385    1121.6537    -5083.437 
13962000    293.59881   -9019.1192   -7899.7866   -9019.1192            0     11372.68    24.820284    25.068618    22.872705    14231.631    12680.973    10036.091    11400.977    106.07302    218.45213    1792.6941   -5539.3443 
13963000     289.8633   -8997.4724   -7892.3813   -8997.4724            0    12444.911    24.914707    24.975253     22.80005    14187.356    11476.505    12945.988     12912.24     415.8163   -1019.4926    688.62363   -5317.4292 
13964000    292.67179   -8968.6212   -7852.8228   -8968.6212            0    12439.292    24.926165    24.885923    22.879919    14192.657     12842.34    10970.875     13504.66    87.828065   -369.93937   -240.28631   -5278.0717 
13965000    277.55614   -8965.4689   -7907.2983   -8965.4689            0    12547.387    24.960426    24.709061    23.015216    14194.604    11585.197    15024.841    11032.122    293.40602    -1013.133   -1040.5867   -5309.8167 
13966000     284.1589     -9003.52   -7920.1767     -9003.52            0    13181.911    24.948864    24.869147    22.833741    14167.354    13196.586    13779.595    12569.552    216.69864    1032.0087    507.46122   -5196.5787 
13967000    288.39754   -8931.7849   -7832.2819   -8931.7849            0    13392.895    24.820598    24.967175    22.897367    14189.503    13452.261    12894.342     13832.08   -86.480393   -467.11863    437.43508   -5060.7651 
13968000    288.04105   -8966.6288   -7868.4849   -8966.6288            0    13299.697    24.838617     24.95406    22.868157     14174.24    13467.623    13068.204    13363.265   -8.8247059    1359.9189   -660.78971   -5119.2147 
13969000    280.70869   -8980.7607   -7910.5712   -8980.7607            0    13053.353    24.795516    25.032686    22.839667    14176.544    13715.973    13043.297    12400.789    460.18704   -1124.6844   -638.95949   -5211.7857 
13970000    295.71348   -9014.0791   -7886.6845   -9014.0791            0     12716.16    24.836202    24.910413    22.893539    14163.776    12684.593    12679.148    12784.738    143.16702   -707.94004   -353.75847   -5259.9818 
13971000    285.08784    -8945.633   -7858.7481    -8945.633            0    14967.501    24.857246     24.92241    22.786675    14116.401    15439.432    14157.831    15305.241    504.68217   -270.16303     602.0641   -4777.3402 
13972000    292.97491   -8996.1809    -7879.227   -8996.1809            0    14763.696    24.915666    24.831411    22.766016    14085.132    14033.303    15346.977    14910.808    1193.9732    421.36303    259.13466   -4846.5097 
13973000    291.98213   -8993.4736   -7880.3046   -8993.4736            0    13054.411    24.970354    24.728707    22.934078     14161.44    11442.977    14718.226     13002.03    339.21466   -202.97242    472.39476   -5184.1762 
13974000    299.86369   -8915.1839   -7771.9667   -8915.1839            0    15447.775    24.944344    24.828668    22.722374    14072.758    13615.326    16592.423    16135.575   -172.88171    922.81774   -379.79256   -4601.5158 
13975000    288.75602   -8993.6604   -7892.7908   -8993.6604            0    11822.333    24.859575    24.853321    22.958104    14184.504     11915.43    12154.518    11397.052   -831.12428    228.40443    525.95947   -5447.1468 
13976000    294.76065    -8989.606   -7865.8439    -8989.606            0    13943.476    24.816703    24.964473    22.785789    14116.615    14896.801    13723.813    13209.816   -611.11601   -646.36109   -351.59099   -4995.2119 
13977000    300.54997   -8988.9274   -7843.0939   -8988.9274            0    12059.746    24.879682    24.967718    22.864541    14203.199    11829.419    12012.063    12337.754    693.72564    648.83493    322.54681   -5345.0492 
13978000    291.98202   -8959.6537   -7846.4851   -8959.6537            0    11780.216    24.826516    24.881874    23.101328    14270.389    12161.157    12153.499     11025.99    451.78688     204.4482    1095.1169   -5394.7986 
13979000    292.55085   -8996.6396   -7881.3024   -8996.6396            0    13326.015    25.005492    24.959974    22.673565    14151.398    13174.438    12370.353    14433.255    426.74285    1194.6486   -121.98653    -5131.031 
13980000    296.39945   -8990.8205   -7860.8106   -8990.8205            0    12202.081    24.831451     24.86763     23.04027    14227.351    12601.542    12180.781     11823.92    1293.2415   -334.31859   -936.39203   -5328.9847 
13981000     294.4415   -8960.2509   -7837.7056   -8960.2509            0    12651.025    24.833077     24.99152    22.891354    14206.748    12477.979    13385.219    12089.877   -57.446674    538.42106   -1291.7211   -5216.5291 
13982000    288.95559   -8964.2939   -7862.6634   -8964.2939            0    12186.466     24.84489    24.979532     22.88741    14204.241    12330.141    12012.654    12216.602    330.70767    2129.1621   -309.92042   -5338.1848 
13983000     296.6126   -8962.9672   -7832.1447   -8962.9672            0    13792.111    24.828677    24.944017    22.813065    14128.746    14962.204    12208.603    14205.525   -187.23788   -378.90597   -166.27032   -4990.2353 
13984000    295.75863   -8983.6874   -7856.1206   -8983.6874            0    12377.251    24.966454     24.90949    22.819534    14191.506    11665.675    12759.636    12706.443   -772.67785   -528.14594    657.22328   -5294.4188 
13985000    293.77752   -9037.8265   -7917.8126   -9037.8265            0    12527.393     24.95361    24.837971    22.863725    14170.869    12827.384    12365.883    12388.913    -259.9241   -1008.6159     844.2535   -5328.8064 
13986000    295.11016   -8969.1174   -7844.0228   -8969.1174            0    13859.479    24.920208    24.824495    22.844779    14132.502     14110.07    13715.102    13753.265   -151.49435   -1032.5992   -221.91872   -4987.4728 
13987000    293.89053    -9014.321   -7893.8763    -9014.321            0    13343.875    24.907374    24.771574    22.935266    14150.941     13927.98    13507.338    12596.309     365.1054   -1156.6749     -198.774   -5140.0078 
13988000    305.80764   -8973.7037   -7807.8255   -8973.7037            0    12602.677    24.985876    24.935972    22.822765    14219.658    13098.708    12197.647    12511.677    110.39686   -335.62062    85.002022   -5194.2934 
13989000    301.32126   -9005.0961   -7856.3221   -9005.0961            0    12129.121    24.812237    24.940329    22.950447    14202.318    12803.626    11183.641    12400.095   -989.53402   -592.98589   -144.92123   -5344.0628 
13990000    292.25022   -8940.0057   -7825.8146   -8940.0057            0    12113.613    24.863224    25.013156    22.913303     14249.96    12873.832    11764.937     11702.07   -433.82315    405.55186    1511.9079   -5308.3509 
13991000    296.40035   -8988.2507   -7858.2374   -8988.2507            0    12910.717    24.875336    24.956057    22.851264    14185.843    13096.259    12652.257    12983.635   -891.36801    708.65112   -298.72607   -5187.1912 
13992000    299.73806   -8963.5822    -7820.844   -8963.5822            0    14244.958    24.823257    24.853518    22.903501    14130.207    13911.596    14647.335    14175.944   -709.97529    621.19381   -412.27015   -4885.3203 
13993000    296.03962   -8987.1616   -7858.5235   -8987.1616            0    13925.085    24.934992    24.886936     22.73882    14110.701    12589.007    14607.214    14579.035   -327.35363    645.27725    -92.11636    -4992.879 
13994000    281.80689   -8969.2557   -7894.8793   -8969.2557            0    13009.407    24.903094    24.809368    22.940763    14173.492    14130.423    13418.751    11479.045    1265.2594   -1529.7377   -147.99611    -5205.759 
13995000    295.77494   -8973.1064   -7845.4774   -8973.1064            0    13127.847    24.954181    24.776176     22.91325    14166.556    13758.513    13145.446    12479.583   -467.29648    689.17105    169.53865   -5133.2026 
13996000    290.89129   -8973.3466   -7864.3364   -8973.3466            0      15231.5    25.060821    24.775514    22.665779    14073.063    14686.947    15304.722    15702.831    1204.9578   -42.724929   -135.57965   -4738.2053 
13997000    303.44566   -8953.6523   -7796.7791   -8953.6523            0    14297.245    24.911128    24.745344    22.940628    14141.393    14284.814      14619.3    13987.621   -146.83989   -9.3975065    655.07018    -4848.148 
13998000    287.08546   -9007.9491   -7913.4484   -9007.9491            0    13278.925     24.83752    24.928872    22.838494    14140.941    13131.435    13171.662    13533.679    456.94174   -156.91098   -190.45593   -5174.9208 
13999000    286.57765   -9024.0898   -7931.5251   -9024.0898            0    13682.895    24.846457     24.94248    22.802175    14131.244      12816.5    14087.651    14144.534   -603.57507    290.12574   -1504.4543   -5111.6215 
14000000    304.39969   -8987.4011   -7826.8906   -8987.4011            0    12490.099    24.763878    24.846641    23.058697    14187.998    12558.895    14200.153    10711.251    101.42363    -1091.388   -356.27793   -5242.4719 
Loop time of 670.499 on 64 procs for 250000 steps with 1920 atoms

Performance: 64.430 ns/day, 0.372 hours/ns, 372.857 timesteps/s
99.2% CPU use with 64 MPI tasks x 1 OpenMP threads

MPI task timing breakdown:
Section |  min time  |  avg time  |  max time  |%varavg| %total
---------------------------------------------------------------
Pair    | 63.192     | 65.625     | 67.679     |  13.2 |  9.79
Bond    | 0.27068    | 0.28058    | 0.29819    |   1.0 |  0.04
Kspace  | 295.33     | 307.41     | 327.84     |  50.2 | 45.85
Neigh   | 7.1958     | 9.0201     | 12.128     |  40.3 |  1.35
Comm    | 118.62     | 141.99     | 161.45     |  85.1 | 21.18
Output  | 1.4496     | 1.4519     | 1.4618     |   0.2 |  0.22
Modify  | 128.32     | 138.13     | 144.55     |  33.3 | 20.60
Other   |            | 6.596      |            |       |  0.98

Nlocal:        30.0000 ave          33 max          27 min
Histogram: 4 7 0 13 0 15 13 0 10 2
Nghost:        2852.25 ave        2903 max        2817 min
Histogram: 4 7 11 10 11 8 5 5 2 1
Neighs:        10706.4 ave       12010 max        9279 min
Histogram: 3 2 4 12 6 16 6 7 5 3

Total # of neighbors = 685210
Ave neighs/atom = 356.88021
Ave special neighs/atom = 2.0000000
Neighbor list builds = 14693
Dangerous builds = 3

unfix		3
unfix		2
unfix		1

write_data	data.final.${pid}
write_data	data.final.0
System init for write_data ...
PPPM initialization ...
  extracting TIP4P info from pair style
  using 12-bit tables for long-range coulomb (../kspace.cpp:340)
  G vector (1/distance) = 0.37471615
  grid = 30 30 30
  stencil order = 5
  estimated absolute RMS force accuracy = 0.0032364826
  estimated relative force accuracy = 9.7465713e-06
  using double precision FFTW3
  3d grid and FFT values/proc = 3600 512
Last active /omp style is kspace_style pppm/tip4p/omp
WARNING: Not all mixed pair coeffs generated from mixing. Use write_data with 'pair ij' option to store all pair coeffs. (../write_data.cpp:312)

write_restart   restart.lmp.${pid}
write_restart   restart.lmp.0
System init for write_restart ...
PPPM initialization ...
  extracting TIP4P info from pair style
  using 12-bit tables for long-range coulomb (../kspace.cpp:340)
  G vector (1/distance) = 0.37471615
  grid = 30 30 30
  stencil order = 5
  estimated absolute RMS force accuracy = 0.0032364826
  estimated relative force accuracy = 9.7465713e-06
  using double precision FFTW3
  3d grid and FFT values/proc = 3600 512
Last active /omp style is kspace_style pppm/tip4p/omp
Total wall time: 0:11:13
