LAMMPS (30 Jul 2021)
Processor partition = 0
  using 2 OpenMP thread(s) per MPI task
using multi-threaded neighbor list subroutines
variable        pid world 0 1
variable        phase world IceII IceV

shell cd ${phase}
shell cd IceII
include Restart.lmp
echo both
log log.lammps
#include		in.partitions
include		in.temp
variable        temperature equal 131.79
variable	tempDamp equal 100.0
include		in.pressure
variable        pressure equal 7108.3
variable        pressureDamp equal 1000.0 # This is 1 ps
include		in.seed
variable        seed equal 745823

units		real
atom_style	full
box tilt large
read_restart	restart.lmp.${pid}
read_restart	restart.lmp.0
Reading restart file ...
  restart file = 30 Jul 2021, LAMMPS = 30 Jul 2021
  restoring atom style full from restart
  triclinic box = (-10.580801 -9.1429005 0.15525671) to (12.560801 12.132898 21.704742) with tilt (-9.1038742 1.7773961 2.8956963)
  4 by 2 by 4 MPI processor grid
  restoring pair style lj/cut/tip4p/long/omp from restart
  restoring bond style harmonic/omp from restart
  restoring angle style harmonic/omp from restart
  1296 atoms
  864 bonds
  432 angles
Finding 1-2 1-3 1-4 neighbors ...
  special bond factors lj:    0        0        0       
  special bond factors coul:  0        0        0       
     2 = max # of 1-2 neighbors
     1 = max # of 1-3 neighbors
     1 = max # of 1-4 neighbors
     2 = max # of special neighbors
  special bonds CPU = 0.005 seconds
  read_restart CPU = 0.011 seconds
include 	in.setup
variable	out_freq equal 1000
variable	out_freq2 equal 10000
variable	out_freq3 equal 1000

timestep	2.0

neigh_modify    delay 7 every 1

include		in.tip4p
# This is TIP4P/Ice

# create groups ###
group ox type 2
432 atoms in group ox
group hy type 1
864 atoms in group hy

# set charges - beside manually ###
set group ox charge -1.1794
Setting atom values ...
  432 settings made for charge
set group hy charge 0.5897
Setting atom values ...
  864 settings made for charge

# ### TIP3P Potential Parameters ###
pair_style lj/cut/tip4p/long/omp 2 1 1 1 0.1577 8.5
pair_coeff 1 1*2 0.000 0.000
pair_coeff 2 2 0.21084 3.1668
bond_style  harmonic
bond_coeff  1 450 0.9572
angle_style harmonic
angle_coeff 1 55 104.52
kspace_style pppm/tip4p/omp 1.0e-5
pair_modify tail yes

thermo          ${out_freq}
thermo          1000
thermo_style    custom step temp pe etotal epair emol press lx ly lz vol pxx pyy pzz pxy pxz pyz enthalpy

restart 	${out_freq3} restart.lmp.${pid} restart2.lmp.${pid}
restart 	1000 restart.lmp.${pid} restart2.lmp.${pid}
restart 	1000 restart.lmp.0 restart2.lmp.${pid}
restart 	1000 restart.lmp.0 restart2.lmp.0


include         in.dump
dump            myDump all atom ${out_freq2} dump.water.${pid}
dump            myDump all atom 10000 dump.water.${pid}
dump            myDump all atom 10000 dump.water.0
dump            myDump2 all dcd ${out_freq2} dump.dcd
dump            myDump2 all dcd 10000 dump.dcd
dump_modify     myDump append yes
dump_modify     myDump2 append yes


variable natoms 	equal  "count(all)"                        # NUMBER ATOMS
variable H      	equal  "enthalpy/v_natoms"                 # ENTHALPY-per-atom
variable Vol      	equal  "vol/v_natoms"                 # volume-per-atom
fix AVG all 		ave/time ${out_freq} 1 ${out_freq} v_Vol v_H file vol_enthalpy.dat
fix AVG all 		ave/time 1000 1 ${out_freq} v_Vol v_H file vol_enthalpy.dat
fix AVG all 		ave/time 1000 1 1000 v_Vol v_H file vol_enthalpy.dat


timer           timeout 10:00:00 every 1000
New timer settings: style=normal  mode=nosync  timeout=10:00:00

fix 		1 all shake 1e-6 200 0 b 1 a 1
Finding SHAKE clusters ...
       0 = # of size 2 clusters
       0 = # of size 3 clusters
       0 = # of size 4 clusters
     432 = # of frozen angles
  find clusters CPU = 0.001 seconds
fix             2 all nph tri ${pressure} ${pressure} ${pressureDamp}
fix             2 all nph tri 7108.3 ${pressure} ${pressureDamp}
fix             2 all nph tri 7108.3 7108.3 ${pressureDamp}
fix             2 all nph tri 7108.3 7108.3 1000
fix             3 all temp/csvr ${temperature} ${temperature} ${tempDamp} ${seed}
fix             3 all temp/csvr 131.79 ${temperature} ${tempDamp} ${seed}
fix             3 all temp/csvr 131.79 131.79 ${tempDamp} ${seed}
fix             3 all temp/csvr 131.79 131.79 100 ${seed}
fix             3 all temp/csvr 131.79 131.79 100 745823


run             250000
PPPM initialization ...
  extracting TIP4P info from pair style
  using 12-bit tables for long-range coulomb (../kspace.cpp:340)
  G vector (1/distance) = 0.36802605
  grid = 30 40 32
  stencil order = 5
  estimated absolute RMS force accuracy = 0.0044006559
  estimated relative force accuracy = 1.3252444e-05
  using double precision FFTW3
  3d grid and FFT values/proc = 7888 1280
Last active /omp style is kspace_style pppm/tip4p/omp
Neighbor list info ...
  update every 1 steps, delay 7 steps, check yes
  max neighbors/atom: 2000, page size: 100000
  master list distance cutoff = 10.8154
  ghost atom cutoff = 10.8154
  binsize = 5.4077, bins = 7 5 4
  1 neighbor lists, perpetual/occasional/extra = 1 0 0
  (1) pair lj/cut/tip4p/long/omp, perpetual
      attributes: half, newton on, omp
      pair build: half/bin/newton/tri/omp
      stencil: half/bin/3d/tri
      bin: standard
Setting up Verlet run ...
  Unit style    : real
  Current step  : 500000
  Time step     : 2
  Walltime left : 9:59:59.92
Per MPI rank memory allocation (min/avg/max) = 10.66 | 10.67 | 10.67 Mbytes
Step Temp PotEng TotEng E_pair E_mol Press Lx Ly Lz Volume Pxx Pyy Pzz Pxy Pxz Pyz Enthalpy 
  500000    136.75071   -6660.0351   -6308.2522   -6660.0351            0    6716.0216    23.141602    21.275799    21.549486     10610.02    6257.8087    7055.5582     6834.698    236.80647    17.903348    -416.7669   -5269.0401 
  501000    133.91926   -6677.7373   -6333.2382   -6677.7373            0    6925.5404    23.255389    21.270452     21.41104    10591.028    5872.6722    6575.8968    8328.0522   -598.36179     732.9475    1222.9437   -5263.5242 
  502000    131.38639   -6669.8782   -6331.8947   -6669.8782            0    7046.7759    23.202264    21.120774    21.588289    10579.336    7200.8134    6531.5124     7408.002    135.36452   -511.79574    268.79634   -5244.6563 
  503000    130.65138   -6670.0785   -6333.9858   -6670.0785            0    7611.3601    23.282321      21.2235    21.371099    10560.151    5865.9313    8053.1156    8915.0335   -507.57603     1319.814    392.00451    -5161.768 
  504000    125.66558   -6676.6772   -6353.4102   -6676.6772            0    5919.5541    23.316631    21.157951    21.520549    10616.779    5225.5226    6531.1206    6002.0193   -203.60062   -133.98765    70.701483   -5436.8571 
  505000    131.47741   -6677.6592   -6339.4416   -6677.6592            0    5980.6082    23.244472    21.274241    21.477054    10620.586    6007.9296    5774.2196    6159.6755    865.50015   -8.3539238   -333.87805   -5413.1031 
  506000    133.76742   -6657.9632   -6313.8547   -6657.9632            0    8763.2383    23.091744    21.219956    21.472367    10521.584     8359.958    9744.9743    8184.7827   -556.48628    692.51102   -941.49507   -4969.1663 
  507000    132.21679   -6682.5176    -6342.398   -6682.5176            0    6052.3071    23.141329    21.304862    21.501444    10600.702    6068.9985    6657.8382    5430.0846    1067.1026   -536.03481   -364.66051   -5406.7091 
  508000    134.28186   -6672.4072   -6326.9753   -6672.4072            0    7177.2615    22.964797    21.444234    21.487295    10581.687    7340.0849    6464.4316    7727.2681    106.40703    370.73613    609.79065   -5219.3584 
  509000    139.04168   -6663.7856   -6306.1094   -6663.7856            0    7470.7216    22.997016    21.376899    21.495073    10567.083    8205.1815    6453.3637    7753.6197   -208.77151    1181.7014   -513.79988    -5154.796 
  510000    136.10871   -6673.7754    -6323.644   -6673.7754            0    7652.9258    23.023904    21.351816     21.45196     10545.83    7857.1814    7658.7036    7442.8924    886.94222    68.845121    146.38109   -5146.6232 
  511000    130.17927   -6674.2007   -6339.3225   -6674.2007            0    6119.5152    23.088173    21.386172    21.529163    10630.404    6054.9524    5593.6118    6709.9813    1401.5458    148.26033    -58.07991   -5390.5924 
  512000    133.41734   -6653.5875   -6310.3795   -6653.5875            0    6859.9547    23.092296    21.369531    21.463303    10591.529    7456.9339    6354.8844    6768.0459   -152.67691    -200.5844    450.49368   -5250.7458 
  513000    139.78869    -6675.686   -6316.0881    -6675.686            0    7476.8254    23.167434    21.211247    21.499675    10565.158    7608.0894    7911.3106    6911.0763    559.62449   -186.81811   -378.11988   -5164.0439 
  514000    130.07703   -6685.7972    -6351.182   -6685.7972            0    6580.3029    23.135558    21.217562     21.57942    10592.909    6855.4178    6351.4185    6534.0724   -118.78132   -531.32334    604.16033   -5334.6126 
  515000    139.42949   -6687.0111   -6328.3373   -6687.0111            0    7302.9486    23.320192    21.119009    21.467415    10572.688    7458.2333    6691.6878    7758.9248    75.916308    80.167692   -269.98529   -5202.2824 
  516000    129.44191   -6667.8273   -6334.8459   -6667.8273            0    6551.8661    23.301197    21.157681    21.507742    10603.301    6213.2507    7423.8882    6018.4596   -431.93223   -339.16563    564.97665   -5321.6766 
  517000    135.12127   -6671.5042    -6323.913   -6671.5042            0    8353.5542    23.236859    21.029667    21.529254    10520.559    7940.1928    9353.6081    7766.8618    917.26193   -320.50762   -543.89666   -5042.2141 
  518000    132.51405   -6689.0816   -6348.1973   -6689.0816            0    6615.7767    23.311684     21.14737    21.448777    10573.835    5751.9476    7784.3531    6311.0295   -171.41677    -474.2196    304.69058    -5327.988 
  519000    130.12147   -6668.2117   -6333.4821   -6668.2117            0    7903.0018    23.196729    21.155206    21.489086    10545.373    8974.8501    7696.4637    7037.6917   -234.93497    -50.39442   -605.62267   -5118.0522 
  520000    132.27305   -6682.0362   -6341.7719   -6682.0362            0    6680.7394    23.118268    21.339635    21.477775    10595.747     5953.575    7173.0128    6915.6303    273.27759    -82.20651     548.6685   -5309.4099 
  521000     131.7171   -6688.5288   -6349.6946   -6688.5288            0      7091.67    23.097078     21.34615    21.427417    10564.439    7169.0367    6681.9692     7424.004    879.61594   -189.17634   -1008.4585   -5257.0703 
  522000    134.88103   -6674.8171   -6327.8439   -6674.8171            0    6899.8473    22.995341    21.394378     21.49366    10574.258    7401.7199     5869.395     7428.427    478.04823   -365.44457    551.29771    -5263.786 
  523000    133.33531   -6686.9481   -6343.9512   -6686.9481            0    6365.0005     23.11155    21.366695    21.477636    10606.032    6659.8737    5705.3214    6729.8063    604.60536    308.00278   -95.205121   -5359.4251 
  524000     140.6914   -6653.4393   -6291.5193   -6653.4393            0     8028.328    23.073874    21.411738    21.363793    10554.819    8234.0645    8207.8536    7643.0659   -511.25209   -687.74467   -490.10995    -5055.709 
  525000     133.4176    -6657.494   -6314.2853    -6657.494            0     6012.452    23.142269    21.299284    21.563996     10629.19    6372.1774    5992.3839    5672.7948    273.96448    167.50899   -636.98195   -5382.2601 
  526000    137.27687   -6664.2802   -6311.1438   -6664.2802            0    8139.5221    23.115473    21.248537    21.479152    10549.915    7263.8743    8328.9323    8825.7598    -54.19624   -488.39268    799.44797   -5058.7994 
  527000     135.3453   -6662.6075   -6314.4399   -6662.6075            0    8812.6893    23.285149    21.188106    21.334629    10525.827    8032.4879    8205.3701     10200.21   -97.227904    165.71907   -525.60166   -4961.6181 
  528000    128.26241   -6679.6506   -6349.7034   -6679.6506            0    8032.7644     23.13904     21.20329    21.505943    10551.327    7724.5798    7727.4294    8646.2839   -1002.0547    405.26867    512.73916   -5113.6194 
  529000    130.17628   -6685.0218   -6350.1513   -6685.0218            0    6509.2118    23.247444    21.180111     21.56083    10616.195    5197.9979    7657.4679    6672.1697   -577.80371    1255.9172   -138.97495    -5342.354 
  530000    136.49574   -6660.4255   -6309.2985   -6660.4255            0    7126.7546      23.3708     21.21737    21.364109    10593.755    6313.9592    6597.7905    8468.5141    431.14602   -139.65047    571.09946   -5208.2217 
  531000    132.05632    -6658.451   -6318.7442    -6658.451            0    6841.1892    23.181953     21.12499    21.647098    10600.985    7067.2449    7958.5708     5497.752    135.55516   -88.946009     -396.825   -5261.0656 
  532000    140.05829   -6682.4619   -6322.1704   -6682.4619            0    7201.4115    23.190406    21.251088    21.453215    10572.602    6831.7995    7069.4671    7702.9678   -1261.7912    419.02013   -209.71378   -5211.7808 
  533000    133.16447   -6677.9656   -6335.4081   -6677.9656            0    6010.5572    23.235659    21.351763    21.402132    10618.075    5109.9027    5855.5072    7066.2618   -109.48988    395.64854    81.220031   -5404.6509 
  534000    127.18999   -6664.4914   -6337.3029   -6664.4914            0    7747.0565    23.032133     21.25996    21.562981    10558.578    8556.1354    7142.7403    7542.2936    325.15364   -536.55296    248.39609   -5144.3645 
  535000    131.03349   -6684.4421   -6347.3664   -6684.4421            0    6848.7163    23.096854    21.388188    21.437772    10590.256    6647.6809    6987.5138    6910.9542    269.76992   -116.25648   -412.44602   -5289.5957 
  536000    131.25976   -6677.9197    -6340.262   -6677.9197            0    7670.5768    23.095677    21.299668    21.462214    10557.912    7426.2733    8281.7092    7303.7479    513.34617   -613.64671   -104.42183   -5159.1749 
  537000    134.58599   -6673.1745   -6326.9602   -6673.1745            0    7802.2705    23.056026    21.274841    21.504049    10548.022    8022.0756    6999.0469    8385.6889   -123.60835    74.117319    625.92702   -5126.7207 
  538000    134.55712   -6682.0918   -6335.9518   -6682.0918            0    6154.6679     23.14201    21.422747    21.407032    10612.866    6399.7135    5486.3146    6577.9757   -716.20286   -422.50352   -964.40817    -5383.346 
  539000    131.41827   -6668.9333   -6330.8678   -6668.9333            0    7014.1153    23.089523    21.335533    21.462034    10572.783    6959.9616     7189.692    6892.6924   -598.75264   -257.98447    -178.6541   -5249.3389 
  540000    132.95194    -6687.393   -6345.3822    -6687.393            0    6751.0412    23.175284    21.259509    21.518824     10602.22    6144.3784    6888.0862    7220.6592    318.47353    644.62271   -467.47711   -5301.5192 
  541000    128.66241   -6674.9743   -6343.9981   -6674.9743            0    6969.0845    23.137695     21.27534    21.499336    10583.313    6517.9277    7530.8605    6858.4655    -587.5233    325.11559   -440.69544   -5268.3424 
  542000    130.36157      -6673.2   -6337.8529      -6673.2            0    6185.8823    23.165019    21.258776    21.511024    10593.318    6700.7269    5928.6103    5928.3097    -230.8371   -184.26955   -819.32726   -5382.1793 
  543000    135.23601     -6665.81   -6317.9236     -6665.81            0    8468.9669    23.148378    21.192706    21.443504    10519.685    8086.2776    8759.7194    8560.9036  -0.32815641    1379.8267    1126.0157   -5018.6248 
  544000     133.8339   -6676.1697   -6331.8902   -6676.1697            0    5404.7825     23.16605    21.238472    21.618168    10636.387    5513.9213    6220.0237    4480.4026   -190.82272   -251.48053   -640.91285    -5493.496 
  545000     125.4758    -6690.351   -6367.5721    -6690.351            0    7148.1575    23.247692    21.242211    21.424252    10579.989    6573.6696    6895.0538    7975.7492   -561.44119   -594.34338   -11.117766   -5264.6237 
  546000    138.88307   -6684.6529   -6327.3846   -6684.6529            0    6194.7562    23.232667    21.253927    21.451653    10592.514    6148.0543    5996.0386    6440.1757   -712.45466    938.69589    6.6346435   -5370.4128 
  547000    127.73339   -6674.7085   -6346.1222   -6674.7085            0    7917.8169    23.038172    21.251094     21.58435    10567.404    7908.1627    8718.8886    7126.3994   -585.33797   -75.689694   -420.85948   -5125.8698 
  548000    134.31637   -6669.8996   -6324.3789   -6669.8996            0    6552.8948    23.186127    21.372311    21.404874    10606.995    6051.5071    6150.6161    7456.5614    481.63075    174.41322    107.47842   -5310.6975 
  549000    137.05349   -6676.1106   -6323.5488   -6676.1106            0    6604.3391    23.026405    21.359726    21.518153    10583.439    6292.8397    6479.0851    7041.0926    530.64641   -22.264513    507.24507   -5304.1783 
  550000    133.36182   -6675.8428   -6332.7776   -6675.8428            0    6866.0004    23.092795    21.303995    21.507809    10581.171    6474.2385    7281.3768    6842.3858    295.30738    875.04259    305.39032   -5273.2472 
  551000    138.89492    -6679.288   -6321.9893    -6679.288            0    6223.8882    23.198751    21.447834    21.354135    10625.027     5696.644    5158.1743    7816.8463    199.37375     417.8446    427.47566    -5357.566 
  552000    133.39719   -6686.3932   -6343.2371   -6686.3932            0    6387.7527    23.138869    21.244606    21.568935    10602.774    6384.5296    6360.7282    6418.0002   -834.09945    836.40489    314.25234   -5355.4952 
  553000     134.1825   -6683.8008   -6338.6245   -6683.8008            0    7358.0121    23.199119    21.247314    21.391558    10544.305    7048.9037    6738.1037     8287.029    356.90968   -805.45391    302.74435    -5207.125 
  554000     137.8001   -6682.3974    -6327.915   -6682.3974            0    6365.7616    23.090806    21.295543    21.597501    10620.166    7306.0665    5628.9618    6162.2566     11.96477   -142.83339   -1.0464802    -5341.959 
  555000    138.32004    -6675.677   -6319.8571    -6675.677            0    7779.0872    23.235772    21.239521    21.349607    10536.387    6365.9787    8119.2963    8851.9867   -804.11612    587.85527    89.148564   -5124.5039 
  556000    138.35318   -6668.0904   -6312.1852   -6668.0904            0    7339.8416    23.128544     21.25978    21.477655    10560.729     7094.068    7469.8823    7455.5746    572.78854   -121.76478    507.20594   -5181.7219 
  557000    130.37659   -6667.6246   -6332.2387   -6667.6246            0    7399.0753    23.112758    21.253977    21.511154    10567.097    6650.0532    7973.8453    7573.3275   -305.80407    1559.8356    -228.6806   -5191.9652 
  558000    128.27282   -6664.5596   -6334.5855   -6664.5596            0    7142.0419    23.174187    21.342832    21.402901    10585.934    6692.4175    7508.6215    7225.0867    99.914604     803.9243    139.03562   -5231.9614 
  559000    133.65286   -6673.0926   -6329.2788   -6673.0926            0    7267.9491    23.076621    21.211697    21.597405    10571.807    7885.5992    7093.4939    6824.7543    172.57924    101.14526   -180.21753    -5208.714 
  560000    129.28927   -6685.1417   -6352.5529   -6685.1417            0    6928.6977    23.217509    21.291941    21.357062    10557.774    6489.6904    7384.8552    6911.5475   -245.40221   -598.88304   -716.72492   -5285.7115 
  561000    129.57967    -6667.234   -6333.8982    -6667.234            0    7972.0479    23.250062    21.142221    21.466574    10552.065     8110.903    8318.5677    7486.6731   -35.358871   -842.45644    -1324.324   -5107.0714 
  562000    130.71784   -6664.7831   -6328.5194   -6664.7831            0    6111.2298    23.185559    21.203592    21.590954    10614.483    6610.7046    5463.1657     6259.819   -583.22695   -474.73497    1306.2958   -5382.4928 
  563000    133.87778   -6656.9284    -6312.536   -6656.9284            0    7574.8445    23.275676      21.1618    21.481596    10580.872    6683.0897    8089.1307    7952.3132    148.11243    678.65539   -275.72264   -5143.6529 
  564000    128.45106   -6670.8747   -6340.4421   -6670.8747            0    6816.8277    23.129843    21.329872    21.498415    10606.385    6583.8802    6559.9599    7306.6432   -185.34606   -737.79114   -78.541528   -5285.9931 
  565000    128.36422   -6689.4163   -6359.2072   -6689.4163            0    7096.9586    23.138266    21.236284    21.503547    10566.215    7284.1263    6403.0823    7603.6672   -565.03318    331.85686    605.63868   -5265.5843 
  566000    135.72436   -6662.4917   -6313.3491   -6662.4917            0    7326.1832    23.057849    21.351683      21.4663    10568.372    7778.5538     6445.299    7754.6967    635.41647    317.49428    621.89757   -5184.1728 
  567000    124.48531   -6675.2007   -6354.9698   -6675.2007            0    7804.9793    23.014576    21.287677     21.57425    10569.805    9082.7242    6558.4386    7773.7752   -596.08863    471.92716   -274.43895   -5151.8341 
  568000    131.09037   -6681.1205   -6343.8985   -6681.1205            0    8116.3243     23.04939    21.331539    21.455327    10549.133    8027.9601    8592.5253    7728.4875    90.292269    764.77391   -226.30339   -5095.2159 
  569000    128.94911    -6691.869   -6360.1552    -6691.869            0     6791.105    23.113995    21.338128    21.449533    10579.111    7384.8826    6093.4008    6895.0316    1040.9207    -218.8301    637.75676   -5312.3863 
  570000    130.19755   -6672.6861   -6337.7608   -6672.6861            0    6826.6938    23.003757    21.426285    21.518121     10605.96    7207.7784    6456.0919    6816.2112    84.042662   -247.23766   -218.52205   -5281.8279 
  571000    128.58964   -6660.5746   -6329.7856   -6660.5746            0     7205.922    23.151777    21.327057    21.426681    10579.622    7226.0698    7005.4641    7386.2322   -37.782326    1237.4745    304.18827   -5217.9627 
  572000    135.96442   -6654.0728   -6304.3127   -6654.0728            0    6735.2749    23.130988    21.289399    21.516488    10595.683    7161.2951    7176.4003    5868.1293   -190.79543   -132.97871   -148.97246   -5263.5297 
  573000    126.94932   -6667.7941   -6341.2247   -6667.7941            0    8634.1856    23.242141    21.182912    21.365888    10519.201    8518.6469    9065.7246    8318.1854     273.8371    462.68613   -1161.3195   -5016.6391 
  574000    126.52233   -6664.5377   -6339.0667   -6664.5377            0    6569.6543    23.221594    21.241209    21.491691    10600.878    5863.2487    6437.9344    7407.7798    558.01454   -363.81899    616.19617   -5323.3789 
  575000    133.85747    -6679.907   -6335.5668    -6679.907            0      7128.09    23.265544    21.104002    21.567944    10589.776    6076.8499     8199.815    7107.6052    727.15961     219.9838    596.71025   -5234.6974 
  576000    132.12867   -6676.5118   -6336.6188   -6676.5118            0    6400.8483    23.228911    21.283346    21.449894    10604.591    5077.3407    6907.9898    7217.2145   -393.17643   -780.10348     391.9701   -5346.6823 
  577000    130.46346    -6683.287   -6347.6777    -6683.287            0    7065.1693    23.271268    21.143647    21.500366    10579.029    6792.7871    7829.5476    6573.1732     1132.427    89.646059    51.547599   -5257.6331 
  578000    133.70208   -6653.9873   -6310.0468   -6653.9873            0    7971.0491    23.073553    21.240666    21.538792    10556.111    9646.2348    7458.2562    6808.6564   -1068.2748   -1045.6575    33.251316   -5082.9034 
  579000    130.63464   -6688.6147    -6352.565   -6688.6147            0    5789.3127     23.31873    21.232099    21.477482    10633.621    4612.6478    7012.1977    5743.0924    889.42763    214.29891   -576.14869   -5454.7557 
  580000    131.83054   -6653.0087   -6313.8826   -6653.0087            0    7567.3148    23.172544    21.222125    21.524528     10585.13    7288.3951    7800.8812    7612.6681   -478.17342   -452.83989    749.41154   -5145.6915 
  581000    131.90259   -6676.8767   -6337.5653   -6676.8767            0    7969.1832    23.146774     21.16515    21.486144    10526.168    9461.2944    7244.5554    7201.6998   -398.23222   -99.933584   -535.24734   -5114.1892 
  582000    126.99516   -6669.4354   -6342.7481   -6669.4354            0    7105.8346    23.183819    21.293087    21.401721    10565.068    7598.9257    6087.1447    7631.4336   -256.20756   -873.20796    323.72261   -5247.8763 
  583000    130.00113   -6673.1052   -6338.6852   -6673.1052            0    5973.5685    23.067011    21.300765    21.627375    10626.502    7267.0173    5221.8814    5431.8068    312.13157   -481.55256    392.70751   -5412.9217 
  584000    140.63402   -6664.6122   -6302.8398   -6664.6122            0    8053.2911     23.06579    21.382224    21.383525    10546.309    8621.8916    6857.7174    8680.2644   -1037.8766     51.57723   -123.76147   -5064.1864 
  585000    131.78305   -6681.8339     -6342.83   -6681.8339            0    7375.3523    23.129765    21.262299    21.502172    10574.596    7519.8018    7265.6351      7340.62   -517.51273    107.85619    -1.311578   -5205.4059 
  586000    126.73756   -6669.5845   -6343.5598   -6669.5845            0    6445.6159    23.062174    21.286733    21.660569     10633.57    8001.9935    6045.0788    5289.7755    185.53548   -1099.5775   -161.90615   -5343.9755 
  587000    130.49294   -6685.0516   -6349.3665   -6685.0516            0    7155.7835    23.178331    21.270756    21.423578    10562.266    6714.3986    7402.7482    7350.2036    1324.8707    398.87616    215.04059   -5247.0909 
  588000    133.43996   -6673.4126   -6330.1464   -6673.4126            0     7164.724      22.9939    21.290855     21.61114    10579.945    8190.1668     7063.019    6240.9862    1104.3879   -1555.9067    1409.9651   -5224.6463 
  589000    124.82822   -6680.5917   -6359.4787   -6680.5917            0    7056.2687    23.204578    21.296829    21.402767    10576.904    7047.8498    6653.6701    7467.2861   -127.41772    138.02072    951.92678   -5271.0261 
  590000    130.33897   -6683.0811   -6347.7921   -6683.0811            0    6401.8171    23.160977    21.290602    21.536874    10620.073    6097.0974    7157.3392    5951.0147   -355.63696   -1215.8096    -360.9551   -5356.2603 
  591000    133.52393   -6693.2367   -6349.7545   -6693.2367            0    6682.2313    23.166613    21.323944    21.394698    10569.057    6794.5077    5953.2444    7298.9417    700.19562   -655.31626    1239.3547   -5319.7631 
  592000    131.61161   -6665.4935   -6326.9306   -6665.4935            0    9148.2632    23.040568    21.304759    21.422747    10515.864    9242.4786    9114.7382    9087.5728    148.25529   -416.63732   -615.99874   -4923.9248 
  593000    133.58823   -6683.9583   -6340.3107   -6683.9583            0    5794.0508    23.138066    21.307838    21.532287    10615.895    6662.3952    5526.0418    5193.7154   -465.65269    88.451477   -1066.2507   -5443.2646 
  594000    135.80257   -6677.0737   -6327.7299   -6677.0737            0    7206.6801    23.236825    21.308678    21.306878    10550.016    6036.9259    7516.6904    8066.4239    1019.7072    500.31015    439.75775   -5218.9017 
  595000    129.60013   -6686.9663   -6353.5779   -6686.9663            0    6937.6599    23.127947    21.178794     21.59457    10577.496    7216.5257    7702.4193    5894.0347    -342.7033    107.96075    213.85999   -5283.3611 
  596000    133.23388   -6662.3161   -6319.5801   -6662.3161            0    7252.4344    23.244106    21.300674    21.360741    10576.026    7290.4299    7102.9661    7363.9072   -655.41638    231.71603   -252.24365   -5200.9611 
  597000    131.82356   -6680.2006   -6341.0925   -6680.2006            0    6849.3691    23.159236    21.224139    21.579757    10607.202    7959.0011    6658.7207    5930.3855    942.28065    1.2059755   -522.75676   -5281.5282 
  598000    125.25651   -6679.8681   -6357.6533   -6679.8681            0    6668.2574    23.192589    21.277909    21.448668    10584.699     6142.207    6612.3663     7250.199    130.28876    335.98994    951.77714   -5328.2946 
  599000    131.40505   -6669.3009   -6331.2694   -6669.3009            0    7501.5968    23.166531    21.211542    21.510965    10570.442    7203.0998    7760.4047    7541.2859    1282.0069   -122.55881    243.17392   -5174.8303 
  600000    127.87392   -6679.9021   -6350.9543   -6679.9021            0    6787.3806    23.201202    21.265118    21.474837    10595.175    6800.8868    6622.5797    6938.6754   -452.76663   -47.444896    133.99702   -5302.1698 
  601000    130.56421   -6684.9957   -6349.1272   -6684.9957            0    7792.3946    23.094651    21.235635    21.513252    10550.735    7369.6788    8142.9501    7864.5549    -127.6393    604.27696    591.17908   -5150.0986 
  602000    133.31118   -6678.2442   -6335.3093   -6678.2442            0    7534.0748     23.11821     21.27281    21.472374    10559.883    8588.0832    6721.2124    7292.9288   -484.98585    192.11251   -146.13281   -5175.0236 
  603000    133.90127   -6668.1734   -6323.7205   -6668.1734            0    5872.8443    23.174217     21.34541    21.516624    10643.481    5765.7668    5376.0021     6476.764    402.75389    751.25605    83.894879   -5412.1127 
  604000    131.83307   -6669.0897   -6329.9571   -6669.0897            0    7612.9928    23.130921    21.276365    21.456457    10559.622    7876.9238     6587.296    8374.7585     26.15818    443.12033   -188.96808   -5157.5467 
  605000    132.26534   -6670.1524   -6329.9079   -6670.1524            0    6571.6243     23.17377    21.262118    21.529404    10608.042    7142.6216    6287.4673     6284.784    52.842959    370.75484   -186.71879   -5313.2289 
  606000    130.38664   -6673.0784   -6337.6667   -6673.0784            0    8672.6284    23.149293    21.273221    21.364662    10521.242     9022.915    8527.1284    8467.8416   -1082.5881    252.44775   -314.93555   -5006.9254 
  607000    134.88568   -6689.1414   -6342.1562   -6689.1414            0    7073.2345    23.117883     21.25806    21.510204    10571.004    7661.8693    6589.5275    6968.3067    903.15093    204.19023   -152.38541   -5251.6951 
  608000    131.65222   -6676.5414   -6337.8741   -6676.5414            0    8082.9285    23.073444     21.28399    21.466931    10542.302    8155.8609    7790.3044    8302.6202    923.80038    616.09585    448.00898   -5095.1347 
  609000    126.73986   -6669.3927   -6343.3622   -6669.3927            0    7019.5659    23.035694    21.321747    21.549044    10584.055    7308.7842    7135.9171    6613.9965    869.67654     272.6133   -1475.6036   -5259.8389 
  610000    124.22223   -6658.8371    -6339.283   -6658.8371            0     8007.291    23.022576    21.334764    21.470482    10545.898    7817.3444    8672.0277    7532.5008    309.53101     13.59269   -287.04913   -5107.7528 
  611000    130.13522   -6668.6711   -6333.9061   -6668.6711            0    6481.6703    23.112223    21.325317    21.509527    10601.519    6307.3271    7361.1786    5776.5052    52.809214    212.20957   -443.77271   -5331.7603 
  612000    132.47476    -6673.976   -6333.1928    -6673.976            0    6852.7753    23.123309    21.378303    21.420218    10588.808    6498.4016    6989.3243    7070.6001   -559.89107   -490.80255   -138.41801   -5274.9399 
  613000    127.90496   -6656.9239   -6327.8962   -6656.9239            0    8161.4331     23.10606    21.186795      21.5178    10533.896    7773.2514    8896.4203    7814.6276   -217.05832    1009.4011    259.93789   -5074.0873 
  614000    132.30656   -6666.0205     -6325.67   -6666.0205            0    6968.2492    23.179564    21.337311    21.384184    10576.394    7377.3244    6201.1264    7326.2967   -252.66032   -552.43071   -873.31613   -5250.8464 
  615000    130.75598   -6666.0229   -6329.6611   -6666.0229            0    6984.2904    23.123532    21.290896    21.504057    10586.893    8197.4885     6714.704    6040.6786   -225.04564   -949.04698   -530.88433   -5251.2938 
  616000    130.62544    -6689.219    -6353.193    -6689.219            0    7848.7736    23.152522    21.246935    21.408504    10531.274     7196.464    8014.8094    8335.0475    139.51334     816.3149    711.96172   -5147.7169 
  617000    125.65039    -6690.596    -6367.368    -6690.596            0    6588.6417    23.116986    21.204893    21.550935    10564.122    7374.6629    6865.6584    5525.6039   -173.49371   -587.36738   -1086.2001   -5352.2765 
  618000    129.55489   -6683.3787   -6350.1066   -6683.3787            0    7058.5101    23.133529    21.259324    21.479522    10563.697    6606.1921    8385.5645    6183.7736    275.98918   -195.20976   -736.43923   -5262.6677 
  619000    131.09104   -6677.1568   -6339.9331   -6677.1568            0    5989.2999    23.140855    21.366963    21.456465    10609.145    5883.8759    4778.8643    7305.1595    365.97628    354.95837    414.83337   -5413.2477 
  620000    133.01305   -6683.9068   -6341.7388   -6683.9068            0    6653.6757    23.077253    21.275945    21.566148    10588.771    6018.6096    7678.6859    6263.7315    1702.7705    -620.0798    32.528019   -5314.2359 
  621000    126.62358   -6666.5529   -6340.8214   -6666.5529            0    7953.8288    23.161733    21.310097    21.399911    10562.542    7723.1341    7595.9724    8542.3797   -791.00387    966.76677   -151.56187   -5115.5831 
  622000    133.53016   -6658.5766   -6315.0784   -6658.5766            0    6986.0461    23.184775    21.181373    21.573219    10594.292    6790.5533    8435.4856    5732.0994   -591.33461    186.83648   -1447.2205   -5235.6862 
  623000    129.67416   -6673.6018   -6340.0229   -6673.6018            0    6667.9552    23.191945     21.17539    21.553617    10584.949    5769.9027    8236.5619     5997.401    -24.44103    71.397387   -327.82485   -5310.6866 
  624000    133.81443   -6674.9815   -6330.7521   -6674.9815            0    7682.0935    23.116493     21.28435    21.477596    10567.397    8469.3586    6330.0968     8246.825    256.15809   -294.01179   -32.410817    -5146.829 
  625000    129.39724   -6658.0905    -6325.224   -6658.0905            0    6299.3677    23.120797    21.339297    21.551756    10633.239    7629.0331    5321.0732    5947.9968   -412.94246    -838.2524   -597.50728   -5348.3503 
  626000    134.92968   -6681.7264    -6334.628   -6681.7264            0    7253.0788     23.05667    21.368334    21.411675     10549.16    8711.7273    6280.6935    6766.8155    -720.9496   -2.0194407    267.52075   -5218.7514 
  627000    132.02541   -6681.3949   -6341.7676   -6681.3949            0    6401.9126    23.109542    21.318654    21.529406     10606.77    6293.4421    7301.1037     5611.192    574.50213    695.30658   -127.27184    -5351.463 
  628000    137.19253   -6690.1751   -6337.2557   -6690.1751            0    6990.2126    23.153569    21.324289    21.457903    10594.483     6814.317    6886.7731    7269.5478   -207.73634    218.83156    171.47233   -5257.2002 
  629000    138.07803    -6665.034   -6309.8366    -6665.034            0    8150.2038    23.086728     21.26857    21.480418    10547.351    7606.4237    8837.6417    8006.5461    501.77087    172.01381   -206.75093   -5056.1535 
  630000    124.80468   -6682.6139   -6361.5615   -6682.6139            0    7004.1449     23.17237    21.261776    21.457141    10571.627    6314.2227    6814.6394    7883.5726   -120.14498    1516.9844    996.09554    -5281.688 
  631000    125.12238   -6678.7932   -6356.9235   -6678.7932            0    6575.4442    23.227965     21.27317    21.449741    10599.013    6344.2344    6825.5522    6556.5461    428.09729   -57.794023   -732.20345   -5340.5194 
  632000    137.98362   -6673.0644   -6318.1099   -6673.0644            0    7016.3933     23.14778    21.170946     21.60865    10589.544     7049.364    7138.6541    6861.1619   -1188.9775   -106.72564    318.58909   -5234.5147 
  633000    133.80157   -6667.6996   -6323.5032   -6667.6996            0     7633.131    23.277664     21.16542    21.439034    10562.616     6876.382    7410.1194    8612.8917   -203.70844    101.97628    521.11439   -5147.6581 
  634000    127.62006   -6682.0551   -6353.7602   -6682.0551            0    7294.3652    23.145682    21.176059    21.583839     10578.98    6919.2548    8796.5046    6167.3363   -564.53725   -682.89073   -1567.6295   -5228.3594 
  635000    128.51147   -6683.4073   -6352.8194   -6683.4073            0    7468.6153    23.229863    21.158981    21.493986    10564.729    7245.7752     7418.242    7741.8288   -470.37819     664.9867   -197.70461    -5202.087 
  636000    135.38227   -6675.9755   -6327.7128   -6675.9755            0    6201.2562    23.167923    21.250172    21.537035    10603.164    5327.5139    6846.1417     6430.113    1054.1931   -843.78148    700.36807   -5368.7737 
  637000    131.34392   -6678.3878   -6340.5136   -6678.3878            0     6876.113    23.171105    21.229841    21.549157    10600.437    7008.9343    7628.5226     5990.882   -243.87267   -822.17675   -1149.0736   -5277.4906 
  638000    124.39951   -6668.4204   -6348.4103   -6668.4204            0    6917.1025    23.262752    21.247378    21.405148    10579.976    6413.9056    7159.6978    7177.7042   -763.15456     144.8738    477.71873   -5281.1145 
  639000    131.44282   -6675.3952   -6337.2665   -6675.3952            0    8403.5719     23.09287    21.165076    21.555328    10535.433    8575.8572    8685.7477    7949.1106     366.1525    563.26944    255.38866   -5046.0705 
  640000    130.12041   -6679.0088   -6344.2819   -6679.0088            0    5565.0046    23.256529     21.36528    21.404997    10635.763    5829.8658    4535.1369    6330.0112    359.44957   -1290.9567    182.34347   -5481.0846 
  641000    129.20045   -6678.9958   -6346.6355   -6678.9958            0    7416.9756     23.09523    21.219091    21.567199    10569.217    8442.4423    7206.5662    6601.9184   -789.02412   -464.85103    413.89462   -5203.3741 
  642000    131.10266   -6675.0504   -6337.7968   -6675.0504            0    6630.2402    23.224049    21.233339    21.491462    10597.958    6268.2763    5766.8437    7855.6005   -869.22464    1370.6433    850.45283   -5313.0246 
  643000    134.46802   -6683.4416   -6337.5309   -6683.4416            0    5980.5343    23.236644    21.391179    21.389042     10631.62    6326.3377    5214.3239    6400.9413     43.52741   -586.22424    338.63478   -5410.2414 
  644000    137.21802   -6694.0151   -6341.0301   -6694.0151            0    6557.6505    23.059545    21.257483    21.636783    10606.089    6347.6378    7358.9644    5966.3494   -748.26645     -257.315   -191.10101   -5326.6997 
  645000    135.61668   -6662.3467   -6313.4811   -6662.3467            0    8001.4169    23.205532    21.222756     21.41959    10548.834    7726.3965    7409.8038    8868.0503   -142.13541    522.10061    1186.3642   -5082.5118 
  646000     129.2863   -6677.5134   -6344.9322   -6677.5134            0    6744.4208    23.168574    21.277386    21.500245    10598.905    6688.1237    6820.2797     6724.859   -246.19584   -376.21226    -802.1136   -5302.4191 
  647000    125.59573   -6674.2334   -6351.1461   -6674.2334            0     6522.944    23.148623    21.290983    21.448152     10570.87    6262.6445    6728.3042    6577.8832   -636.34073    954.85225   -515.02976   -5345.5345 
  648000      128.324   -6679.9675   -6349.8618   -6679.9675            0    7656.2945    23.052917     21.22443    21.556019    10547.037    7204.3126    7938.7401    7825.8308    21.302296    448.14173    45.191518   -5172.1881 
  649000     143.1777   -6686.4024   -6318.0865   -6686.4024            0    7349.7263    23.162646    21.318891    21.393364    10564.085    6797.0852    7356.1362    7895.9574    285.78376    446.86897   -434.82739   -5185.7411 
  650000     127.9958   -6672.0372   -6342.7758   -6672.0372            0    6603.1389    23.121009    21.346661    21.466649    10595.001    6542.9949     6493.389    6773.0329    17.659432    201.03226   -458.48156   -5322.4771 
  651000    137.53758   -6680.1842   -6326.3771   -6680.1842            0    6658.7703    23.034454    21.267473    21.622584    10592.572    7362.7922    6565.4364    6048.0822     55.79356    77.044178    916.09143   -5297.7184 
  652000    124.52792    -6673.162   -6352.8215    -6673.162            0    6453.7804    23.162809    21.352588    21.456165    10611.917    7062.8045    5241.6043    7056.9323    458.49413   -692.32351    -181.0939   -5354.0092 
  653000    135.65444   -6666.3636   -6317.4009   -6666.3636            0    7609.0046    23.068399    21.285504    21.498159     10556.08    8047.7294    7608.0167    7171.2678   -619.19343    30.517953    29.040771   -5145.9977 
  654000    132.31425   -6675.0703      -6334.7   -6675.0703            0    6882.6085    23.159311    21.230799    21.522772    10582.546    6723.8893    6817.2421    7106.6942    1076.3963    506.23422   -367.21113   -5272.4686 
  655000    127.41755   -6682.3454   -6354.5715   -6682.3454            0    6857.3498    23.081589     21.38178    21.446339    10584.315    6815.2444    6849.1464    6907.6586   -245.62228   -312.48995    419.53175   -5296.0616 
  656000    127.24016   -6692.0285    -6364.711   -6692.0285            0    7799.9347    23.147195    21.228429    21.464567    10547.228    7688.4798    6750.3607    8960.9636   -105.64792    386.08236     118.5401   -5164.9211 
  657000    128.39863   -6684.5878   -6354.2901   -6684.5878            0    5667.0386    23.169813    21.305068    21.495554    10610.946    5239.4322     5873.291    5888.3927   -466.11217    8.8560995    436.19876   -5477.3172 
  658000    130.02979   -6684.4676   -6349.9739   -6684.4676            0    7067.2508    23.139667    21.184632    21.608509    10592.606    8086.5758    6639.2389    6475.9377   -200.78641   -691.49461   -451.97738   -5258.2087 
  659000    131.64061   -6672.2435    -6333.606   -6672.2435            0    7669.3324    23.237418    21.229917    21.405789    10560.085    7540.5108    8297.4098    7170.0765   -18.482761   -701.58452   -152.84251   -5152.4674 
  660000    132.84357   -6683.9594   -6342.2274   -6683.9594            0    7400.6677    23.215922    21.104793    21.562033    10564.689    6849.0223    7982.1593    7370.8216    599.30462   -120.07751    357.05829   -5201.9684 
  661000    126.57089   -6675.9549    -6350.359   -6675.9549            0    7503.1403     23.14731    21.217896    21.525801    10572.122    7425.6188    8212.9691    6870.8332   -53.923791   -666.98308    210.50096   -5193.4982 
  662000    132.52007   -6674.6019   -6333.7022   -6674.6019            0    7840.6157    23.221134    21.218467    21.406514     10547.35    5984.9818    8805.3645    8731.5008     1062.203   -74.383969      181.766   -5127.6407 
  663000    131.88709   -6678.8706   -6339.5991   -6678.8706            0    7085.6207    23.010921    21.280036    21.582082    10568.168    6259.9376    8050.2917    6946.6327    882.31637   -306.60662   -156.12282   -5247.5215 
  664000    128.23276   -6683.7427   -6353.8717   -6683.7427            0    6311.7049     23.13769    21.356013    21.503373    10625.436    7387.9807    5369.0932    6178.0408    765.44871   -264.78879    120.45136   -5375.8031 
  665000    131.97893   -6673.0717    -6333.564   -6673.0717            0    7388.5292     23.04138    21.382594     21.46637    10576.148    7791.5765    7256.1507    7117.8604   -711.15245    266.55989     -510.957   -5193.9405 
  666000      132.946   -6662.3448   -6320.3493   -6662.3448            0    7131.3027    23.073326    21.270813    21.560186     10581.49    7324.3994    7226.3483    6843.1602    1044.1555    88.900959    578.47955   -5219.8454 
  667000    133.22579   -6683.4209   -6340.7056   -6683.4209            0    6820.3737    23.058211    21.408486    21.429849     10578.66    6597.2147    6768.3196    7095.5869    156.09079   -48.342046   -31.514781   -5288.4658 
  668000    138.50933   -6674.6056   -6318.2988   -6674.6056            0    7242.5373    23.042384    21.323102    21.509381    10568.314    7956.6522    6411.8703    7359.0894   -496.92362    583.13278   -51.908601   -5202.0209 
  669000    137.75488   -6664.4507   -6310.0846   -6664.4507            0    7743.5175     23.05462    21.377213    21.453122    10573.032    8284.3974    7520.0319    7426.1232    178.01393   -1028.1863   -65.725418   -5116.0588 
  670000    128.66168   -6670.9581   -6339.9838   -6670.9581            0    7199.3265     23.01059    21.393598    21.531943     10599.73    7839.0176     6939.504    6819.4579    111.46272   -648.09487    97.902384   -5227.0673 
  671000    127.47172   -6664.0799   -6336.1667   -6664.0799            0    7448.0511     23.13531    21.277795    21.508284    10587.848    7813.8301     7448.728    7081.5954   -1124.4583   -106.39885   -1590.7055   -5186.0915 
  672000    136.02153   -6683.0602   -6333.1531   -6683.0602            0    7314.7245    23.150192    21.231786    21.488658    10562.103     7573.045    7423.9265     6947.202   -86.301002   -4.3444963    227.03305   -5206.4117 
  673000    129.13087   -6678.8851   -6346.7038   -6678.8851            0    6810.3001     23.24862    21.160919    21.522181    10588.099    5885.1278    7770.3309    6775.4417     273.5096   -131.36764    715.58121   -5295.0807 
  674000    128.99228   -6683.1547   -6351.3299   -6683.1547            0    6506.7647    23.285466    21.175868    21.533973    10618.186     5545.502    7940.5278    6034.2643   -680.51483    92.850338   -515.32247   -5343.7226 
  675000    130.38534   -6667.2888   -6331.8804   -6667.2888            0    7520.9367    23.204779    21.167701    21.509911    10565.493     7294.061    7469.3156    7799.4336    220.15221   -426.01639    305.57452   -5173.0028 
  676000    126.71717   -6671.9063   -6345.9341   -6671.9063            0    7089.4888    23.238971    21.192464    21.473548     10575.53    6077.4673    7563.5329    7627.4664      720.962    458.08482    374.68314   -5252.4991 
  677000    138.73876   -6673.8505   -6316.9535   -6673.8505            0    6221.7304    23.159558    21.261437    21.567446    10619.928    6449.4983     6622.184     5593.509   -228.09559   -370.69248    -208.3885   -5353.3271 
  678000     135.6197   -6674.9909   -6326.1175   -6674.9909            0    7831.5563     23.07826    21.264066    21.533459    10567.279    7767.9912    7014.8101    8711.8677    843.69315    375.66376    1456.4356   -5119.1735 
  679000    127.45797   -6661.6046   -6333.7267   -6661.6046            0    6943.6182    23.102185     21.36996    21.437571    10583.573    7191.6871    5971.8208    7667.3466   -80.187745    608.26681    553.15603   -5261.9754 
  680000    131.59589   -6671.5787   -6333.0563   -6671.5787            0    7135.8707    23.081888    21.369344    21.454586    10582.363    6665.8945    7024.9305    7716.7872   -666.19065    1104.3696   -219.60939   -5231.7566 
  681000    136.25076    -6690.545   -6340.0482    -6690.545            0    6995.1019    22.976039    21.407111    21.513525     10581.44    7786.3347    6073.5164    7125.4545    137.61939    33.410995    603.05872   -5260.5679 
  682000    133.25307   -6669.3162   -6326.5308   -6669.3162            0    6935.2847    23.109709    21.315047    21.487853    10584.584    7268.3566    7541.4356    5996.0618   -696.78969    606.83824   -684.10014   -5255.9635 
  683000    127.71979   -6677.7319   -6349.1806   -6677.7319            0    7135.4396    23.180718    21.306521    21.414309    10576.537    6965.0398     6779.885     7661.394   -225.33853   -312.92188   -199.90393   -5248.5536 
  684000    127.45013   -6673.5902   -6345.7325   -6673.5902            0    7311.3574    23.033529     21.24773    21.607053    10574.712    7450.7215    7294.0336     7189.317    237.74121    25.022784    351.32272   -5218.1653 
  685000    139.97168   -6685.0978   -6325.0292   -6685.0978            0    6721.5468    23.184012    21.298912    21.414007    10574.113    7100.0856    6104.1797    6960.3751    321.36741    633.48306    648.31066    -5288.482 
  686000    134.31321   -6670.7211   -6325.2086   -6670.7211            0    7145.1977    23.116011    21.305219    21.528867    10602.788    7677.4426    6833.1063     6925.044   -471.42229   -180.47344   -365.20912    -5220.341 
  687000    124.87455   -6679.4237   -6358.1915   -6679.4237            0    6712.5139    23.273906    21.285172    21.364963     10583.97    5421.2234    7599.2681      7117.05   -124.02032    631.44678   -918.83846   -5322.0724 
  688000    135.08155   -6669.1208   -6321.6318   -6669.1208            0    7279.3781    23.075269    21.232028    21.605251    10585.163    7769.7825    7630.5794    6437.7724   -49.677353    120.41782    34.711943   -5197.8869 
  689000    128.94237   -6693.7816   -6362.0852   -6693.7816            0     5512.533    23.254401    21.297603    21.448074    10622.437    5550.6167    5611.8253     5375.157   -271.36551    629.40148   -196.48613   -5508.0982 
  690000    135.07694   -6652.9107   -6305.4335   -6652.9107            0    7337.4276    23.069757    21.199191    21.640403     10583.46     7829.264    7136.9023    7046.1165   -1313.4671    425.18082    534.50799   -5172.9096 
  691000    132.87677   -6656.2521   -6314.4347   -6656.2521            0     8038.864     23.20017     21.13243    21.504591    10543.184    8453.8592    7356.7955    8305.9372   -377.01585    630.21435    701.31864   -5078.3667 
  692000    130.54706   -6668.6079   -6332.7836   -6668.6079            0    6600.6834    23.225472    21.278923    21.476332    10613.883    5776.0112     7090.423     6935.616   -487.93043   -149.43792   -1545.4339   -5311.0467 
  693000    130.54046   -6674.8395   -6339.0321   -6674.8395            0     8344.566    23.054555    21.201999    21.574399    10545.623    9676.6535    7792.0556    7564.9889   -50.787716   -418.82924   -983.93602   -5055.6621 
  694000    129.64826   -6670.3991   -6336.8868   -6670.3991            0    6107.8421    23.223341    21.349877    21.419685    10620.211    6185.6851    5674.0113    6463.8297    676.63783    182.03511     73.02984   -5390.8744 
  695000    129.54327   -6658.6252    -6325.383   -6658.6252            0    7261.6933    23.066458    21.273982    21.575705    10587.531    7334.2439    7096.7517    7354.0844   -252.03046     -240.571   -526.42684   -5204.1174 
  696000    130.82336   -6673.1231    -6336.588   -6673.1231            0    7443.7613    23.240973    21.337145    21.272231    10548.815    6326.5344    7140.2146    8864.5349    157.54506   -172.05413   -303.28516   -5191.4127 
  697000    132.31778   -6677.7973   -6337.4178   -6677.7973            0     5055.636    23.180121    21.224921    21.652556    10652.976    5181.0692    5847.3566    4138.4822    40.194139    97.002891    612.43869   -5551.9604 
  698000    131.71875   -6662.5614   -6323.7229   -6662.5614            0    7644.9085     23.16527     21.24763    21.443663    10554.723    8191.5349    7082.7188    7660.4718    160.46696   -253.52783   -225.62449   -5146.9436 
  699000    132.25613   -6664.8457   -6324.6249   -6664.8457            0    7445.6906    23.064192     21.34748    21.485106    10578.458    7678.1314    7066.6203    7592.3202    80.485824   -250.34573   -80.285525   -5175.9339 
  700000    128.82033   -6674.9108   -6343.5283   -6674.9108            0    6604.9857     23.07463    21.362483    21.467488    10581.999    6614.5775    5513.3726     7687.007   -481.16863    1356.5106    896.55617   -5324.1967 
  701000    135.13823   -6678.2649     -6330.63   -6678.2649            0    7152.1037    22.983878    21.454403    21.429616    10567.059    7690.3465    6017.4784    7748.4861   -1478.9285   -155.63814    127.54404   -5228.4213 
  702000    129.63155   -6675.7203    -6342.251   -6675.7203            0    6837.1916    22.983679    21.404236    21.525944    10589.647    8175.5375    6379.5391    5956.4982    865.99411   -139.89434    7.7019318    -5286.321 
  703000    126.86341   -6685.3873   -6359.0389   -6685.3873            0    7942.3274    22.992839    21.472719    21.326529    10529.307    7526.0081    8076.9018    8224.0724    453.02695    863.60827    311.46291   -5139.4218 
  704000    131.20899   -6681.2162   -6343.6891   -6681.2162            0    7274.0296    22.964896    21.348213    21.582598    10581.074    8421.7023    6940.4525     6459.934   -33.768927    740.19746    275.99393   -5221.2037 
  705000    127.99209     -6677.98   -6348.7281     -6677.98            0    7041.2583    23.161176    21.379999    21.344381    10569.437    6846.0454    6834.0809    7443.6484    325.70447    -21.86118   -28.216021   -5263.3576 
  706000    128.97549   -6689.0561   -6357.2746   -6689.0561            0    6541.7649     23.08791    21.297896    21.540627    10592.041     6734.128    5648.7421    7242.4247   -760.62398    238.20087    42.129897   -5346.7416 
  707000    128.17872   -6683.4242   -6353.6923   -6683.4242            0    6371.7797    23.051934    21.294783     21.61509    10610.544    6229.1148    6617.8334    6268.3908    814.83632   -667.70769    403.20196   -5367.6982 
  708000    138.33944   -6690.5431   -6334.6733   -6690.5431            0    6405.9993    23.255569    21.337466    21.354582    10596.462    5369.1595    6574.4348    7274.4036    74.998913    1062.8265     87.24099   -5344.6996 
  709000    131.83279   -6669.3485   -6330.2167   -6669.3485            0     6598.179    23.174834    21.176709    21.613864    10607.365    7798.3744    5877.6813    6118.4812   -585.24253    84.976619   -43.789784   -5309.4946 
  710000    133.42633   -6680.1826   -6336.9515   -6680.1826            0    7424.8207    23.271355    21.182677    21.463765    10580.554    7204.9506    8167.8129    6901.6988   -905.97087    330.99179    597.82426   -5191.2532 
  711000    133.66748   -6674.3829   -6330.5314   -6674.3829            0     6328.981     23.32831    21.145983    21.522878    10617.237    5910.8927    6430.6385    6645.4117   -125.71547    710.62819   -200.22342   -5350.5425 
  712000    128.66042   -6673.0035   -6342.0324   -6673.0035            0    8148.2956    23.167303    21.133791    21.527335    10540.062     7886.665    8981.2961    7576.9258   -133.75594   -1044.8518    187.11043   -5089.5091 
  713000    132.59528   -6688.8586   -6347.7653   -6688.8586            0    5858.8794    23.227674     21.19696    21.548383    10609.477    5735.3846    5717.1559    6124.0977    -17.29751    489.29977   -40.405358   -5441.2306 
  714000    130.11636   -6674.8087   -6340.0922   -6674.8087            0    7237.9772    23.146664    21.348719    21.409161    10579.372     7182.895    6710.7067    7820.3298   -1127.6286    121.66482   -407.08335   -5223.3499 
  715000    126.46674   -6678.7451   -6353.4171   -6678.7451            0    7602.7493    23.088114    21.242847     21.50867    10549.084    7806.2493    7684.8564    7317.1421   -172.54421    766.85356   -76.912782   -5183.7527 
  716000    129.78697   -6675.7279   -6341.8588   -6675.7279            0    6723.8459    23.042189    21.432991      21.4661    10601.314    7303.4003    5893.9199    6974.2176   -651.34429   -295.60198   -613.09327   -5302.2898 
  717000     133.3032   -6675.7365   -6332.8222   -6675.7365            0    8518.0116     23.03832    21.303793    21.438053    10521.874    8507.0465    8303.0721    8743.9161   -143.27582    813.38327   -288.00567    -5025.727 
  718000    135.03104   -6670.3831   -6323.0239   -6670.3831            0    7816.0688    23.018475    21.340296    21.499197    10560.858      9048.97    7243.8781    7155.3584     336.1114   -634.11518    502.57103   -5119.1986 
  719000    124.12353   -6659.5395   -6340.2393   -6659.5395            0    8061.8884    23.088141    21.389129    21.375698    10556.073    8189.9574    6619.1997    9376.5081    827.83075       344.43    1405.9346   -5099.1157 
  720000    122.31085   -6677.6568   -6363.0196   -6677.6568            0    6795.0099    23.023836    21.368369     21.56253    10608.373     8628.871    5158.5068    6597.6518   -866.78942   -78.177672    646.23171   -5311.7485 
  721000    130.65974   -6684.0642     -6347.95   -6684.0642            0    6469.0811    23.101822    21.376306    21.485213    10610.077    7272.0187    5766.7783    6368.4464   -11.624537   -413.28772    632.13723   -5346.9432 
  722000    136.35906    -6695.042   -6344.2667    -6695.042            0    8010.5794    23.091445    21.257582    21.486112    10546.851    7909.9467    9217.8507    6903.9407   -526.58018     419.4451   -291.52102   -5112.1194 
  723000    131.53825   -6687.2368   -6348.8626   -6687.2368            0    6114.9917    23.289219    21.229118    21.427003    10593.716    5201.0436    6510.9515      6632.98     264.1925   -307.68225   -351.94941   -5404.1057 
  724000    135.33058   -6661.1375   -6313.0079   -6661.1375            0    8502.8024    23.222063    21.075612    21.519551    10532.081    8915.7481    8983.0664    7609.5927     532.9149   -819.07565   -419.57212   -5006.9808 
  725000    127.72056   -6670.7315   -6342.1782   -6670.7315            0    8109.2574    23.232966    21.174223    21.450492    10552.355    7761.5651    9147.4102    7418.7968   -195.85272   -459.77032   -486.10274   -5094.2018 
  726000    131.90821    -6679.004   -6339.6781    -6679.004            0    6328.0558     23.19469    21.225749    21.547392    10608.313    6251.8565    7581.8934    5150.4175   -435.68137   -321.60204   -715.18462    -5360.656 
  727000    140.50412   -6663.7313    -6302.293   -6663.7313            0    7814.0856    23.154528    21.222693    21.486939    10558.713     7362.248    8279.5514    7800.4575    371.01193    737.13025   -499.22456   -5099.0176 
  728000    142.40135   -6680.6911   -6314.3723   -6680.6911            0    6789.5155    23.148439    21.265064     21.47197    10569.642    7285.5054    6601.4831    6481.5582   -209.78057   -259.43564    1002.3177   -5267.7862 
  729000    130.78308   -6662.5817   -6326.1502   -6662.5817            0    7753.1443    23.078533    21.214134    21.525214    10538.553    7920.1572    8087.6414    7251.6342   -66.159759   -246.49466    413.20446   -5134.5386 
  730000    132.40415   -6653.0939   -6312.4923   -6653.0939            0     8751.273     23.12662    21.227627     21.42895     10519.97     8820.227    9496.9584    7936.6336    394.34786    260.22019   -1263.4705   -4969.8459 
  731000    134.69888   -6666.3376   -6319.8329   -6666.3376            0    7325.2142    23.149635       21.281    21.445011    10564.829    7728.0948    6771.6781    7475.8696    -626.1842     259.4276    539.84859   -5191.1845 
  732000    133.43362   -6675.3428   -6332.0929   -6675.3428            0    6078.7532    23.202325    21.223073    21.559302    10616.332    5626.4187    6738.1113    5871.7294    592.79314   -815.92283    30.957147   -5390.9299 
  733000    128.66533   -6675.7501   -6344.7663   -6675.7501            0    7439.9798    23.195403    21.251283    21.403964      10550.7    7008.2815    7273.9018    8037.7562    -18.86121   -771.41985    166.48687   -5199.9682 
  734000    131.22987   -6672.3027   -6334.7218   -6672.3027            0    7578.4922    23.088943    21.200746    21.586183    10566.497    8314.2958    7721.4753    6699.7056   -303.72479   -250.22363   -855.85859   -5166.8646 
  735000    133.54227   -6684.0419   -6340.5126   -6684.0419            0    6429.2208    23.116919    21.353653     21.46931     10597.91    6146.5972    6723.9382    6417.1271   -257.82904   -519.49858   -203.52021   -5346.8145 
  736000    129.24472   -6673.7451    -6341.271   -6673.7451            0    6128.1481    23.006297    21.466226     21.45643    10596.438    6816.2771     5413.403    6154.7641    541.40021   -476.81894   -456.18844   -5394.2381 
  737000    126.09569   -6672.8311   -6348.4576   -6672.8311            0    7390.8221    22.977321    21.404761    21.483915    10566.307     8106.274    6788.4083    7277.7841    128.62613   -788.11571   -271.84602   -5209.5412 
  738000    131.84787   -6659.7071   -6320.5365   -6659.7071            0    6999.9868    23.030165    21.428077    21.444608    10582.745    8423.5839    6305.3318    6271.0446     184.7004   -470.31692    27.428111   -5240.1691 
  739000    127.71473    -6671.544   -6343.0057    -6671.544            0    6711.7803    23.031267    21.347128    21.550795    10595.479    6169.5542    7827.3572    6138.4295    87.705068    943.21524   -678.24864   -5305.8733 
  740000    136.88541   -6682.9826   -6330.8532   -6682.9826            0    7090.0147    23.175441    21.343376    21.408537    10589.565    6902.3146    6233.1761    8134.5534    -1295.473    560.67435   -274.44216    -5235.886 
  741000    133.08394   -6692.7751   -6350.4248   -6692.7751            0    5752.0948     23.21485     21.24302    21.558325    10631.564    5663.3293    5722.5662     5870.389    247.40667    116.82668   -383.10935   -5458.5599 
  742000    131.96557   -6671.8945   -6332.4211   -6671.8945            0    9105.4303    23.220845    21.107396    21.397804    10487.739    8579.3337    8993.4678    9743.4893   -233.78542   -567.72293   -356.86096   -4939.7189 
  743000     130.4286   -6669.4006    -6333.881   -6669.4006            0    6278.8331    23.277269    21.214116    21.494099     10613.93    5362.2135    6527.9336    6946.3522    -225.1619    428.38683   -296.78533   -5361.9598 
  744000    130.53933   -6675.5643   -6339.7598   -6675.5643            0    7074.0179    23.265397    21.148428    21.537833    10597.186    6479.2064    8026.2173    6716.6302   -888.14795   -506.24708    332.01566   -5246.4767 
  745000    139.35557   -6667.7988   -6309.3151   -6667.7988            0    7517.2688    23.277598    21.063312    21.555107    10568.541    6970.3669    8207.2025     7374.237    426.42166   -1010.8569    9.6625506   -5150.6685 
  746000    128.45429    -6678.137   -6347.6962    -6678.137            0    6700.5981     23.19646    21.178812    21.559942    10591.827    6914.1586    7218.4693    5969.1663   -786.16017   -357.91805    593.67542   -5312.6485 
  747000    135.56061   -6684.8476   -6336.1262   -6684.8476            0    7470.4965    23.306648    21.204323    21.376525    10564.315    6656.9462    7948.7176    7805.8257    1065.8339   0.10671119    57.619826   -5185.1491 
  748000    131.03024   -6661.5347   -6324.4674   -6661.5347            0    8428.2339    23.079635     21.17639    21.548992    10531.927     7702.846    9172.9402    8408.9157   -327.61262    510.84999    128.55257    -5029.913 
  749000    131.12518   -6686.4812   -6349.1696   -6686.4812            0    5812.5027    23.151975    21.332467    21.509174    10623.138    6126.5844    6103.3529    5207.5707    188.09018   -132.45105   -1148.7092   -5448.6527 
  750000    132.32415    -6646.594   -6306.1982    -6646.594            0    7247.1268    23.191964    21.284937    21.443736    10585.475    7509.0858     6032.819    8199.4755      462.243    698.50432    534.16213   -5187.3991 
Loop time of 694.085 on 64 procs for 250000 steps with 1296 atoms

Performance: 62.240 ns/day, 0.386 hours/ns, 360.187 timesteps/s
194.7% CPU use with 32 MPI tasks x 2 OpenMP threads

MPI task timing breakdown:
Section |  min time  |  avg time  |  max time  |%varavg| %total
---------------------------------------------------------------
Pair    | 38.588     | 48.918     | 60.032     |  92.6 |  7.05
Bond    | 0.79164    | 1.0142     | 1.3244     |  11.5 |  0.15
Kspace  | 368.58     | 384.38     | 406.62     |  50.3 | 55.38
Neigh   | 1.6578     | 1.8885     | 2.271      |  15.7 |  0.27
Comm    | 91.017     | 108.25     | 118.64     |  74.4 | 15.60
Output  | 0.66195    | 0.66233    | 0.66478    |   0.1 |  0.10
Modify  | 125.53     | 128.75     | 134.65     |  21.2 | 18.55
Other   |            | 20.23      |            |       |  2.91

Nlocal:        40.5000 ave          50 max          29 min
Histogram: 2 3 6 1 2 2 2 4 6 4
Nghost:        3159.88 ave        3184 max        3129 min
Histogram: 2 0 1 4 4 4 10 3 2 2
Neighs:        13196.7 ave       16296 max        9463 min
Histogram: 2 2 7 1 2 2 2 4 6 4

Total # of neighbors = 422295
Ave neighs/atom = 325.84491
Ave special neighs/atom = 2.0000000
Neighbor list builds = 3460
Dangerous builds = 0

unfix		3
unfix		2
unfix		1

write_data	data.final.${pid}
write_data	data.final.0
System init for write_data ...
PPPM initialization ...
  extracting TIP4P info from pair style
  using 12-bit tables for long-range coulomb (../kspace.cpp:340)
  G vector (1/distance) = 0.36908449
  grid = 30 40 32
  stencil order = 5
  estimated absolute RMS force accuracy = 0.004168101
  estimated relative force accuracy = 1.2552112e-05
  using double precision FFTW3
  3d grid and FFT values/proc = 7888 1280
Last active /omp style is kspace_style pppm/tip4p/omp
WARNING: Not all mixed pair coeffs generated from mixing. Use write_data with 'pair ij' option to store all pair coeffs. (../write_data.cpp:312)

write_restart   restart.lmp.${pid}
write_restart   restart.lmp.0
System init for write_restart ...
PPPM initialization ...
  extracting TIP4P info from pair style
  using 12-bit tables for long-range coulomb (../kspace.cpp:340)
  G vector (1/distance) = 0.36908449
  grid = 30 40 32
  stencil order = 5
  estimated absolute RMS force accuracy = 0.004168101
  estimated relative force accuracy = 1.2552112e-05
  using double precision FFTW3
  3d grid and FFT values/proc = 7888 1280
Last active /omp style is kspace_style pppm/tip4p/omp
Total wall time: 0:11:34
