LAMMPS (30 Jul 2021)
Processor partition = 0
  using 1 OpenMP thread(s) per MPI task
using multi-threaded neighbor list subroutines
variable        pid world 0 1
variable        phase world IceII IceIII

shell cd ${phase}
shell cd IceII
include Restart.lmp
echo both
log log.lammps
#include		in.partitions
include		in.temp
variable        temperature equal 137.25
variable	tempDamp equal 100.0
include		in.pressure
variable        pressure equal 10043.8
variable        pressureDamp equal 1000.0 # This is 1 ps
include		in.seed
variable        seed equal 745823

units		real
atom_style	full
box tilt large
read_restart	restart.lmp.${pid}
read_restart	restart.lmp.0
Reading restart file ...
  restart file = 30 Jul 2021, LAMMPS = 30 Jul 2021
  restoring atom style full from restart
  triclinic box = (-10.547199 -9.1099459 0.26243489) to (12.527199 12.099944 21.597564) with tilt (-9.1151929 1.6714064 2.8020574)
  4 by 4 by 4 MPI processor grid
  restoring pair style lj/cut/tip4p/long/omp from restart
  restoring bond style harmonic/omp from restart
  restoring angle style harmonic/omp from restart
  1296 atoms
  864 bonds
  432 angles
Finding 1-2 1-3 1-4 neighbors ...
  special bond factors lj:    0        0        0       
  special bond factors coul:  0        0        0       
     2 = max # of 1-2 neighbors
     1 = max # of 1-3 neighbors
     1 = max # of 1-4 neighbors
     2 = max # of special neighbors
  special bonds CPU = 0.005 seconds
  read_restart CPU = 0.011 seconds
include 	in.setup
variable	out_freq equal 1000
variable	out_freq2 equal 10000
variable	out_freq3 equal 1000

timestep	2.0

neigh_modify    delay 7 every 1

include		in.tip4p
# This is TIP4P/Ice

# create groups ###
group ox type 2
432 atoms in group ox
group hy type 1
864 atoms in group hy

# set charges - beside manually ###
set group ox charge -1.1794
Setting atom values ...
  432 settings made for charge
set group hy charge 0.5897
Setting atom values ...
  864 settings made for charge

# ### TIP3P Potential Parameters ###
pair_style lj/cut/tip4p/long/omp 2 1 1 1 0.1577 8.5
pair_coeff 1 1*2 0.000 0.000
pair_coeff 2 2 0.21084 3.1668
bond_style  harmonic
bond_coeff  1 450 0.9572
angle_style harmonic
angle_coeff 1 55 104.52
kspace_style pppm/tip4p/omp 1.0e-5
pair_modify tail yes

thermo          ${out_freq}
thermo          1000
thermo_style    custom step temp pe etotal epair emol press lx ly lz vol pxx pyy pzz pxy pxz pyz enthalpy

restart 	${out_freq3} restart.lmp.${pid} restart2.lmp.${pid}
restart 	1000 restart.lmp.${pid} restart2.lmp.${pid}
restart 	1000 restart.lmp.0 restart2.lmp.${pid}
restart 	1000 restart.lmp.0 restart2.lmp.0


include         in.dump
dump            myDump all atom ${out_freq2} dump.water.${pid}
dump            myDump all atom 10000 dump.water.${pid}
dump            myDump all atom 10000 dump.water.0
dump            myDump2 all dcd ${out_freq2} dump.dcd
dump            myDump2 all dcd 10000 dump.dcd
dump_modify     myDump append yes
dump_modify     myDump2 append yes


variable natoms 	equal  "count(all)"                        # NUMBER ATOMS
variable H      	equal  "enthalpy/v_natoms"                 # ENTHALPY-per-atom
variable Vol      	equal  "vol/v_natoms"                 # volume-per-atom
fix AVG all 		ave/time ${out_freq} 1 ${out_freq} v_Vol v_H file vol_enthalpy.dat
fix AVG all 		ave/time 1000 1 ${out_freq} v_Vol v_H file vol_enthalpy.dat
fix AVG all 		ave/time 1000 1 1000 v_Vol v_H file vol_enthalpy.dat


timer           timeout 10:00:00 every 1000
New timer settings: style=normal  mode=nosync  timeout=10:00:00

fix 		1 all shake 1e-6 200 0 b 1 a 1
Finding SHAKE clusters ...
       0 = # of size 2 clusters
       0 = # of size 3 clusters
       0 = # of size 4 clusters
     432 = # of frozen angles
  find clusters CPU = 0.001 seconds
fix             2 all nph tri ${pressure} ${pressure} ${pressureDamp}
fix             2 all nph tri 10043.8 ${pressure} ${pressureDamp}
fix             2 all nph tri 10043.8 10043.8 ${pressureDamp}
fix             2 all nph tri 10043.8 10043.8 1000
fix             3 all temp/csvr ${temperature} ${temperature} ${tempDamp} ${seed}
fix             3 all temp/csvr 137.25 ${temperature} ${tempDamp} ${seed}
fix             3 all temp/csvr 137.25 137.25 ${tempDamp} ${seed}
fix             3 all temp/csvr 137.25 137.25 100 ${seed}
fix             3 all temp/csvr 137.25 137.25 100 745823


run             250000
PPPM initialization ...
  extracting TIP4P info from pair style
  using 12-bit tables for long-range coulomb (../kspace.cpp:340)
  G vector (1/distance) = 0.36992536
  grid = 30 40 32
  stencil order = 5
  estimated absolute RMS force accuracy = 0.0040124679
  estimated relative force accuracy = 1.2083428e-05
  using double precision FFTW3
  3d grid and FFT values/proc = 5168 640
Last active /omp style is kspace_style pppm/tip4p/omp
Neighbor list info ...
  update every 1 steps, delay 7 steps, check yes
  max neighbors/atom: 2000, page size: 100000
  master list distance cutoff = 10.8154
  ghost atom cutoff = 10.8154
  binsize = 5.4077, bins = 7 5 4
  1 neighbor lists, perpetual/occasional/extra = 1 0 0
  (1) pair lj/cut/tip4p/long/omp, perpetual
      attributes: half, newton on, omp
      pair build: half/bin/newton/tri/omp
      stencil: half/bin/3d/tri
      bin: standard
Setting up Verlet run ...
  Unit style    : real
  Current step  : 32000000
  Time step     : 2
  Walltime left : 9:59:59.90
Per MPI rank memory allocation (min/avg/max) = 9.447 | 9.451 | 9.456 Mbytes
Step Temp PotEng TotEng E_pair E_mol Press Lx Ly Lz Volume Pxx Pyy Pzz Pxy Pxz Pyz Enthalpy 
32000000    140.83483   -6632.4954   -6270.2063   -6632.4954            0    11265.269    23.074398     21.20989    21.335129    10441.528    10537.107    10792.491    12466.209    233.61672    283.51416    194.89864   -4554.7427 
32001000    134.87775   -6648.7812   -6301.8164   -6648.7812            0    8920.3582    22.994121    21.392168    21.335359    10494.737    9233.7885    8950.8474    8576.4388    1094.5027     951.1211    980.74035   -4936.5112 
32002000    137.53908    -6654.799   -6300.9881    -6654.799            0    8940.2208    23.014656     21.28941     21.40761    10489.053    8209.4122    9486.8792    9124.3711    388.72034   -195.55383    207.98821   -4933.3838 
32003000    131.71348   -6634.5273   -6295.7024   -6634.5273            0    10851.282    23.090944    21.181336    21.334019    10434.406    10545.333    11350.048    10658.466    26.039352   -679.45382   -208.32545   -4644.4074 
32004000    133.21567    -6660.331   -6317.6418    -6660.331            0    10142.621    23.153258    21.158935    21.352021    10460.318    9175.4971    11280.172    9972.1931   -109.01765   -457.76407    95.595425   -4770.3545 
32005000    139.12289    -6661.147   -6303.2618    -6661.147            0    8892.3592     23.21296    21.046609    21.493019    10500.502    8415.9688    8953.6419    9307.4668    145.01543   -35.909017    641.05226   -4941.4943 
32006000    139.20272   -6647.0696   -6288.9791   -6647.0696            0    9818.6274    23.127645    21.157273    21.403369    10473.052    9284.7385    10273.939    9897.2051    747.00815    3.6615112    911.92679   -4789.2945 
32007000    135.16507   -6652.2647   -6304.5608   -6652.2647            0    9847.4683    22.982485    21.179355    21.477846    10454.432    9950.1961    10259.787    9332.4224    14.543938    260.76384   -21.847662   -4803.1453 
32008000    141.03798   -6652.9115   -6290.0999   -6652.9115            0    9982.9524    23.026187     21.30043    21.299115    10446.528    10239.844    9434.2244    10274.789    816.86814   -103.59581   -158.62141   -4769.1781 
32009000    142.42897    -6644.269   -6277.8791    -6644.269            0    9613.7981    23.025187    21.338681    21.342714    10486.254    10180.338    8978.6498    9682.4063    214.54417   -368.13431   -493.20293   -4807.6289 
32010000    136.12196   -6640.7783   -6290.6128   -6640.7783            0    9842.0906    23.023495    21.258963    21.363771    10456.618    10367.065    8704.2791    10454.928    50.185694    766.08763    441.34462   -4789.7033 
32011000    139.04446   -6658.0853   -6300.4019   -6658.0853            0    9989.3169    23.112621    21.165492    21.385774    10461.707    9782.6056    10620.922     9564.423    248.87438    -763.3994     131.2759   -4776.2992 
32012000    136.89962   -6626.2663   -6274.1004   -6626.2663            0    9898.7406    23.252636    21.134526    21.318598    10476.672    7907.3516    10944.836    10844.034   -285.06855    1564.0158   -521.84553   -4761.6568 
32013000    141.75092   -6654.1566    -6289.511   -6654.1566            0     8905.056    23.050881    21.212708     21.48963    10507.819    8751.1712    10149.162    7814.8349    113.40994   -221.43593    502.42104   -4924.8489 
32014000    137.33003   -6667.0994   -6313.8263   -6667.0994            0    10151.546    23.055053     21.23615    21.356121    10455.968    10150.733    9830.8183    10473.086   -389.66655    16.145721   -359.99746   -4765.8213 
32015000    139.99721   -6648.0644   -6287.9301   -6648.0644            0    11493.876    23.029879    21.205601    21.318527    10411.168    11763.942    11207.498    11510.187    258.33975   -664.25232   -8.4338603   -4542.7437 
32016000    134.92363   -6646.0104   -6298.9275   -6646.0104            0    9821.9354    22.995936     21.25756    21.433745    10477.619    10842.324    9663.5176    8959.9647    190.54998    491.75881   -805.80281   -4798.0835 
32017000    137.36542    -6658.142   -6304.7778    -6658.142            0    8801.5019    23.187838    21.215872    21.383041    10519.391     8806.735    9093.4984    8504.2723   -302.06599    735.75864    507.49277   -4954.4995 
32018000    133.18058   -6655.7264   -6313.1275   -6655.7264            0    10932.233    23.102635    21.109838    21.391312     10432.39    10903.009    11430.684    10463.007   -896.81144   -191.20408   -731.89415   -4649.8351 
32019000    134.19235   -6649.7827   -6304.5811   -6649.7827            0    9330.6786    23.206592    21.099982    21.427466    10492.145     8567.198    10019.513    9405.3245    8.5058217    595.16596   -241.73248    -4876.827 
32020000    138.94036   -6666.3815   -6308.9659   -6666.3815            0    9383.1704    23.211131    21.172899    21.357781    10496.216    9231.2695    8857.0909    10061.151   -451.07902   -100.86786   -364.20359   -4872.6226 
32021000    136.38621   -6663.8212    -6312.976   -6663.8212            0    10137.869    23.035623    21.273129    21.310703    10443.092    10854.677    8902.9882    10655.942   -356.00307   -321.78521    986.84199   -4768.9604 
32022000    137.35474   -6645.7785   -6292.4418   -6645.7785            0    10413.474    22.953832    21.233931    21.440034    10449.875    10927.151    9575.0376    10738.235   -887.83756    542.39451   -603.10464   -4705.4209 
32023000    139.17506   -6666.3756   -6308.3562   -6666.3756            0    9495.8601     23.10272    21.344043    21.301008    10503.643    9471.1393     9885.403     9131.038    274.73953   -551.06013   -1428.8971   -4853.7342 
32024000    142.05721   -6623.0122   -6257.5786   -6623.0122            0    10706.899    23.048004    21.168289    21.427787    10454.335    11606.062     10213.54    10301.096   -336.78993   -470.77051    965.99012   -4625.1432 
32025000    144.02918   -6648.0725   -6277.5662   -6648.0725            0    10232.235    23.122536    21.150599    21.399161    10465.377     11253.35    9717.1547    9726.1992   -928.17498   -1328.5602   -1101.8588    -4715.853 
32026000    138.19496   -6628.1775   -6272.6793   -6628.1775            0    11492.834    23.142742     21.16073    21.318744    10440.158     10272.82    12723.896    11481.786   -381.17537    570.44607    296.17149    -4522.792 
32027000    136.96362   -6636.2967   -6283.9662   -6636.2967            0     10915.37    23.054668    21.141598    21.418756     10439.77    10635.345    11507.299    10603.466   -25.939613   -273.90403   -175.99068   -4622.0647 
32028000    133.39843   -6657.0272   -6313.8679   -6657.0272            0    9534.7156    23.084373    21.325082     21.25239    10462.044    9767.8353    8983.3796     9852.932    559.87602   -203.28583     455.7795   -4859.0783 
32029000     136.4746   -6664.6071   -6313.5345   -6664.6071            0    9398.7968    22.995409    21.236392    21.471276    10485.273    10115.908    9212.7573     8867.725   -932.58942    766.36462   -17.712927   -4876.2992 
32030000    141.96703   -6641.2985    -6276.097   -6641.2985            0    9787.0516    23.141313    21.206743    21.339018    10472.163     9816.426    8950.5126    10594.216    -394.0982    246.59601    202.44861   -4781.3621 
32031000    136.82737    -6636.679   -6284.6989    -6636.679            0    9561.9724    23.238141    21.162276    21.330758    10489.869    8346.2312    10306.456     10033.23    232.19442    212.40264     177.9472   -4821.8703 
32032000       140.28   -6643.4522   -6282.5904   -6643.4522            0    10522.119    23.171373    21.099965    21.359391     10442.93    10593.404    11722.451    9250.5028   -121.03298   -1130.4069   -502.42463   -4680.0777 
32033000    137.73807   -6653.6141   -6299.2913   -6653.6141            0    10421.501    23.118176    21.133923    21.405883    10458.438    10261.211    10247.934    10755.358    223.52707    406.77858    557.98003   -4709.7458 
32034000    135.64272   -6654.7455   -6305.8129   -6654.7455            0    9347.0161    23.002958    21.234598    21.456106    10480.419    9908.6053    9858.0824    8274.3607   -38.116334   -111.38763   -351.01701   -4877.1574 
32035000    132.72042   -6651.5085   -6310.0933   -6651.5085            0    10196.415    22.955117    21.341656    21.323704    10446.487    11979.258    10482.242    8127.7455    748.54261   -916.93487   -1351.4812   -4756.6563 
32036000    128.88476   -6641.4854   -6309.9373   -6641.4854            0    10111.873    23.090426    21.290098    21.283579    10462.953    10147.083     9785.696    10402.841    1212.3025    46.296044    483.57455    -4766.952 
32037000    136.53868   -6643.3516   -6292.1142   -6643.3516            0    10329.655    23.111049    21.125123    21.430754    10463.003    9684.2451    10423.164    10881.555   -166.25579    761.90659    345.56597   -4715.8897 
32038000    136.66207   -6644.1979   -6292.6431   -6644.1979            0    10344.941     23.25237    21.090413    21.295912    10443.559    9528.3471    10870.284    10636.192    -401.6897   -284.74856    69.851411   -4717.0196 
32039000    134.93562   -6634.7062   -6287.5925   -6634.7062            0    11059.641      23.0721    21.123683    21.370386    10415.236    10519.031      11680.5    10979.391    778.52236   -576.99363   -193.11632   -4607.6824 
32040000    135.24245   -6655.6555   -6307.7526   -6655.6555            0     9442.263    22.996788    21.298249    21.382918    10473.167    10626.002    8239.6914    9461.0959    -1308.465   -236.10663    213.34312   -4865.5375 
32041000    135.29618   -6657.4288   -6309.3876   -6657.4288            0    10947.665    22.951379    21.297834    21.331464    10427.133    11382.687    10941.059     10519.25    60.981413     281.6369   -94.666635   -4644.5868 
32042000    134.32288   -6646.1651   -6300.6277   -6646.1651            0    10445.241    23.022822    21.234807    21.357654     10441.44    10822.524    9482.3697    11030.831   -130.61734    70.351649    1164.5816   -4710.0504 
32043000     142.5856   -6657.6383   -6290.8456   -6657.6383            0    10071.579    23.137835    21.156022    21.381741    10466.459    9796.7546    10271.056    10146.926    225.90799   -596.78253   -290.61883   -4753.4939 
32044000    134.79732   -6643.1175   -6296.3597   -6643.1175            0    9205.1574    23.223606    21.066054     21.46401    10500.832    9469.1769    10322.723    7823.5727    -603.0622   -891.26232   -100.06391   -4886.6463 
32045000    128.87818   -6658.4454   -6326.9141   -6658.4454            0    10859.221    23.132678    21.108915    21.326283    10413.746    10746.118    11620.557    10210.989   -535.08666   -245.28433    368.06081   -4677.6829 
32046000    138.74832   -6650.1902   -6293.2686   -6650.1902            0    9993.9245    23.031836    21.205732    21.440307    10471.595    10493.953    10010.946    9476.8746   -584.56129    -620.4509   -921.89041   -4767.0217 
32047000    139.16065   -6672.3433    -6314.361   -6672.3433            0    9644.0794    23.034302    21.307481    21.324833    10466.291    10194.227    8527.8846    10210.126    164.20939   -401.37035    169.48146   -4842.2875 
32048000    137.15101   -6640.1703   -6287.3577   -6640.1703            0    10029.641    22.887115    21.324852    21.445048    10466.564    11118.936    9221.4498    9748.5377   -529.02518    763.04827    159.94372   -4756.3922 
32049000     139.8039     -6646.37   -6286.7329     -6646.37            0     10340.09    23.036763     21.26103    21.378649    10470.948    10267.857    10384.887    10367.525    485.08116    129.58146   -763.65403   -4707.7182 
32050000    140.33931   -6658.1446   -6297.1302   -6658.1446            0    10382.067    23.127431    21.177162    21.359544    10461.336    9131.3696    10977.519    11037.313    140.30386   -279.76282   -449.54137   -4713.1606 
32051000    137.85011   -6635.8775   -6281.2665   -6635.8775            0    10339.133    23.096721    21.062893    21.516519    10467.437    10980.302    10986.324     9050.772    408.85278   -897.63286   -209.95965   -4702.9273 
32052000    138.56537   -6669.7888   -6313.3378   -6669.7888            0    9411.7042    23.217674    21.192666    21.256442    10459.114    9080.2411    9096.7696    10058.102   -1139.8277   -1062.7849   -38.482923   -4877.7194 
32053000    134.42311   -6655.4128   -6309.6175   -6655.4128            0     10549.18    23.055746    21.139244    21.453838    10456.194    11333.776    10699.725    9614.0402    33.051334   -119.16591   -531.41538   -4700.9428 
32054000    138.93267   -6638.7711   -6281.3752   -6638.7711            0    11063.185    22.979442    21.283995    21.325006    10429.939    10460.259    11099.221    11630.075    443.95258    659.57516     325.5522   -4598.5545 
32055000    135.93058    -6641.321   -6291.6478    -6641.321            0    9548.9057    22.938069    21.377063    21.354592    10471.193    9947.6323    9308.9421    9390.1427   -624.57088    801.18211    446.90576   -4833.4191 
32056000    137.11444   -6627.0017   -6274.2831   -6627.0017            0    10675.614    23.019965    21.253765    21.368268    10454.658    10160.984    11060.329     10805.53    700.61334    441.88481   -234.25758   -4646.5672 
32057000    140.04536   -6650.7491    -6290.491   -6650.7491            0      10753.2    23.025144    21.221649     21.30527    10410.426     11362.46     10925.55    9971.5893    181.25049   -1467.7374    -78.78576   -4657.8822 
32058000    132.56757   -6646.4523   -6305.4303   -6646.4523            0    8822.8328    23.211239    21.083085    21.465863    10504.632    8240.6804    9206.1535    9021.6645    462.47209    58.021513    635.08245   -4953.7787 
32059000    139.08891   -6659.3354   -6301.5377   -6659.3354            0    8943.6035    23.214656    21.146794    21.407916    10509.479    7873.7988    9616.8515    9340.1602    249.48738    412.10312   -500.88881   -4930.7518 
32060000    134.78022   -6667.5111   -6320.7972   -6667.5111            0    8978.0487    23.209897       21.139    21.353878    10476.939    8473.6036     10002.88    8457.6624   -43.161413   -387.18076    242.38013   -4948.9926 
32061000    137.55618   -6657.0859    -6303.231   -6657.0859            0    9858.3945    22.983138    21.191509    21.494645    10468.911    11089.489    9915.5661     8570.128    821.88656   -150.59487   -173.35827   -4798.0678 
32062000    140.63277   -6648.0421   -6286.2729   -6648.0421            0    10441.867    22.988184    21.346529    21.286776    10445.803     9976.036    10389.557    10960.006   -248.78084   -56.060011    -50.83734   -4695.5452 
32063000    143.67748   -6645.7552   -6276.1536   -6645.7552            0    9727.6282    23.016409    21.258365    21.438022    10489.436    10867.733    8859.2053    9455.9459    1023.5228   -868.11287    545.56969   -4788.0438 
32064000     134.8816   -6656.2224   -6309.2477   -6656.2224            0    9020.7986    23.011262    21.301246    21.424934    10501.829    9160.5405    8697.9903    9203.8651    412.51163    41.730492    456.39476   -4927.6366 
32065000    129.30977   -6658.7885   -6326.1469   -6658.7885            0    10023.957    23.157422    21.114017    21.388449    10457.801    9431.4334    11215.268    9425.1684    387.69174      299.589   -139.89026   -4797.3301 
32066000    141.69857   -6637.6992   -6273.1883   -6637.6992            0    11209.949    23.150671    21.107187     21.33096    10423.278    11669.248    10658.194    11302.405   -1133.7376   -805.96415    170.19408   -4569.1323 
32067000      135.309    -6670.451   -6322.3768    -6670.451            0    9663.7123    23.275756    21.055556    21.381295     10478.63    8976.2807    10570.601    9444.2551   -1395.9388   -525.24767     97.31626   -4845.5676 
32068000    133.00537   -6658.6497   -6316.5015   -6658.6497            0    9738.5069    23.187632    21.144165    21.362635    10473.739    10377.033    9346.1398    9492.3481    171.52078   -140.19291   -331.02501   -4828.9568 
32069000    128.57819    -6653.576   -6322.8164    -6653.576            0    10322.454     22.90376     21.31065    21.385023    10437.901    10843.179    9674.0717    10450.113    642.38305    533.88413      800.809   -4751.4696 
32070000    132.68949   -6639.7821   -6298.4465   -6639.7821            0    10488.843    23.072227    21.218301    21.323505    10438.996    10926.672    9274.0084    11265.848   -1031.6629    575.38573   -168.28427   -4701.6036 
32071000    136.33782   -6651.2124   -6300.4917   -6651.2124            0    9273.7556    22.977547    21.333011    21.424094    10501.668    9664.2803    9121.2289    9035.7577     316.9182   -1516.2892    554.10623   -4880.1598 
32072000    138.39663   -6621.0711   -6265.0542   -6621.0711            0    10524.745    23.101985    21.153138    21.377253    10446.625    10432.776    10029.947    11111.512   -191.64838    945.35897     339.0256   -4661.5745 
32073000    130.14103   -6650.4059   -6315.6261   -6650.4059            0    10359.805    23.156455    21.109328    21.377995    10449.932    10188.649    9914.3135    10976.451   -799.14234    -455.1137    1318.7727   -4736.7759 
32074000    135.47854   -6652.6657   -6304.1554   -6652.6657            0    9254.4209    23.202379    21.191278    21.347725    10496.422    10103.322    9318.0968    8341.8433   -1960.6666    216.32798   -439.63021   -4887.4928 
32075000    133.17373   -6637.3192   -6294.7379   -6637.3192            0    10344.521     23.11673    21.071589    21.441541    10444.308    9750.0408    11544.889    9738.6326    836.80973   -17.698169    137.87964   -4719.0654 
32076000    139.33415   -6655.3587   -6296.9301   -6655.3587            0    10411.979    22.984394    21.284385    21.346907    10443.092    11042.508    9841.9102    10351.519   -356.27748   -1247.9501   -222.38716    -4711.167 
32077000    134.41746   -6660.2614   -6314.4807   -6660.2614            0    9588.1812    23.032332    21.236847    21.419964    10477.235    9430.4843    9903.0379    9431.0216   -309.80493    455.22295   -512.56207   -4849.4092 
32078000    140.09041   -6633.2204   -6272.8463   -6633.2204            0    10262.781    23.005205    21.249766    21.377884     10450.69    10124.315    9282.5805    11381.448   -559.07804    867.56634    730.51271   -4708.6692 
32079000    134.10541   -6651.3022   -6306.3242   -6651.3022            0    10583.761    22.970872     21.31357     21.29474    10425.719    11417.165    9368.2523    10965.865    3.4440807   -350.14951   -976.53189   -4697.0801 
32080000    143.50775   -6647.5918   -6278.4268   -6647.5918            0    9647.6864    23.050853    21.241971    21.401949    10479.369    10840.264     8975.893    9126.9025   -1518.3924    30.182451   -520.01843   -4803.9627 
32081000    137.35177   -6653.2507   -6299.9217   -6653.2507            0    11617.207    23.106565    21.096589    21.328442    10396.969    12328.959    11315.141    11207.522    1022.2961   -710.20535    873.37201   -4538.4146 
32082000    132.03599   -6643.8789   -6304.2243   -6643.8789            0    10765.718     23.15434    21.107157    21.377009    10447.421    10724.889    11911.278    9660.9882   -577.20693   -400.23955   -758.38393   -4663.9065 
32083000    137.54851   -6658.5631    -6304.728   -6658.5631            0    8740.2886    23.205219    21.215222    21.333501    10502.566    8225.3642    8109.8198    9885.6817   -75.512465    365.60552    602.51872   -4965.9854 
32084000    142.11837   -6640.0878   -6274.4969   -6640.0878            0    9419.7651    23.018404    21.238078    21.440177    10481.388    9614.2719    9389.6408    9255.3827    691.64003   -360.60622    341.15081   -4834.5889 
32085000    136.81438    -6660.281   -6308.3343    -6660.281            0    9206.8727    23.012532    21.351265    21.341052    10485.855    9724.9992    8613.4534    9282.1654   -577.49678    706.23197   -729.63371   -4900.3693 
32086000    135.24472   -6651.1224   -6303.2136   -6651.1224            0    10445.235    22.895832    21.297659     21.37334    10422.231    10684.765    10612.446    10038.494   -369.00811    243.47611   -16.684584   -4715.5635 
32087000    131.61979   -6655.9292   -6317.3453   -6655.9292            0    9677.2795    23.067098    21.174315    21.400747    10452.766    10055.294    9426.4031    9550.1414   -918.99486    1119.4513   -427.63325    -4842.113 
32088000    134.63424   -6635.3172   -6288.9788   -6635.3172            0    10392.574    23.160476    21.214453    21.277453    10454.397    11330.521    9405.9438    10441.259    161.38815   -488.68476   -391.03061   -4704.4578 
32089000    133.89578   -6671.4271   -6326.9884   -6671.4271            0    10089.469    23.111835    21.048316    21.475157    10446.917    10941.769    10160.636    9166.0033    734.27995   -944.83605    20.852202   -4789.7815 
32090000    134.41722   -6660.2268   -6314.4467   -6660.2268            0    9726.4986    23.070679     21.16171     21.45939    10476.796    9762.5595    9874.2645    9542.6718    -119.2895   -752.53969     592.3267   -4828.3026 
32091000    134.24568   -6656.3798    -6311.041   -6656.3798            0    10799.211    23.034937    21.298393    21.279605    10439.926    11147.845    9762.9053    11486.882   -323.48783    245.20325   -922.61795   -4666.8005 
32092000     135.1116   -6641.6439   -6294.0775   -6641.6439            0    10835.268    22.995937    21.210744    21.401591     10438.86    11495.774    10507.526    10502.505    707.97556   -238.96716    1070.8555   -4644.5155 
32093000    135.79997   -6660.5254   -6311.1883   -6660.5254            0    8468.2544    23.103916     21.26879    21.442802    10536.828    8332.0709     8919.317    8153.3752   -386.35445    671.39627   -178.74802   -5009.8815 
32094000    141.84676   -6654.0091    -6289.117   -6654.0091            0    10320.384    23.245507    21.123441    21.263207    10440.768    9872.0199    10867.466    10221.667   -510.71821   -598.49181   -405.73518   -4717.6538 
32095000    135.15833   -6672.1542   -6324.4676   -6672.1542            0    9522.6253    23.146092    21.026993    21.537639    10482.212    9935.9662    9463.9977    9167.9119   -494.15269   -1129.4966    460.28894   -4868.7219 
32096000    142.29898   -6645.8101   -6279.7546   -6645.8101            0    10707.378    23.066339    21.221907    21.343005    10447.651    11075.783    9896.2014    11150.151    556.19082    183.18282    -13.18088     -4648.29 
32097000    135.30262   -6647.5113   -6299.4536   -6647.5113            0    10375.985    23.001488    21.285885    21.317242    10437.072    10280.893    9714.2884    11132.775    600.86971    78.240943   -22.649852   -4720.0835 
32098000    134.69215   -6669.8526   -6323.3652   -6669.8526            0    9360.8244    22.978153    21.344323    21.325865    10459.337    9665.4471    8086.9024    10330.124   -1247.6894    3.8287108     902.6398   -4895.4772 
32099000    135.43345   -6642.5187   -6294.1244   -6642.5187            0    10431.385    23.076297    21.199335    21.346626    10442.815    9894.4636    10618.172     10781.52   -111.72771    586.15059   -918.47217   -4705.4479 
32100000    136.59583   -6658.2802   -6306.8958   -6658.2802            0    10913.644    23.163194    21.121024     21.31732     10429.08    11237.775    10711.508    10791.648   -293.46335    1.8674181    257.39363   -4646.9585 
32101000    138.60178   -6677.2538   -6320.7092   -6677.2538            0    9810.2836    23.161344     21.02006    21.485839    10460.442    10328.566    10767.892    8334.3928   -366.95689    287.48372   -271.19573   -4824.1032 
32102000    131.32727   -6644.1025   -6306.2711   -6644.1025            0    9516.6702    23.240696    21.187662    21.296384     10486.68    8992.2693    9365.1906    10192.551   -731.95933   -795.85955   -603.16651   -4850.8156 
32103000    134.41336   -6638.0525   -6292.2824   -6638.0525            0    9232.8336    23.043809    21.265104    21.451326    10511.772    10000.047    8181.1763    9517.2776    139.29703    -310.6136    233.02274   -4876.8575 
32104000    138.78512   -6649.3837   -6292.3675   -6649.3837            0    10343.709    23.003905    21.158609    21.477345    10453.682     11322.09    10780.842     8928.195   -555.96009    8.8713804   -1042.4592   -4715.4046 
32105000    138.75771   -6649.6549   -6292.7091   -6649.6549            0    10005.988     23.07866     21.33259    21.247685    10460.821    9582.3532    9401.4025    11034.207    22.253944    160.37645    268.55316   -4766.1922 
32106000    131.18244    -6647.109   -6309.6501    -6647.109            0    10717.351    22.962052    21.206539     21.46918    10454.324    12243.165    10208.727    9700.1621    533.53241    30.358423    45.716352   -4675.6228 
32107000    133.31394   -6647.7756   -6304.8336   -6647.7756            0    10160.661    23.032014    21.258276    21.358921    10457.775    9150.3931    10772.976    10558.615     201.5577    911.52694    682.49503    -4755.171 
32108000     136.1841    -6655.124   -6304.7987    -6655.124            0    9894.5371    23.102979    21.182424    21.351561    10448.965    10439.584     8051.961    11192.066   -1287.6915    188.12253    1070.2878   -4796.9955 
32109000     129.9135   -6644.1937   -6309.9992   -6644.1937            0     10553.59    23.130643    21.076154    21.435539    10449.932    10305.614    11520.122    9835.0346    272.58544   -445.30391   -489.95628   -4701.6157 
32110000    132.84949   -6646.9411   -6305.1938   -6646.9411            0    10084.113    23.365954    21.028858    21.293994    10463.003    9132.8536    11075.681    10043.805   -798.41875    281.66551   -316.02676   -4766.4372 
32111000    140.78138   -6656.1838   -6294.0323   -6656.1838            0    9774.1166    23.219943    21.018701    21.420172     10454.18    9654.0342    9019.1914    10649.124   -1126.4089   -527.56177    967.71476   -4803.8363 
32112000     135.9681   -6651.3919   -6301.6223   -6651.3919            0    9453.6717    23.097733    21.195297    21.397487    10475.424    9241.3233    11324.315    7795.3764   -195.47546    524.56567   -192.56216   -4857.3535 
32113000    136.87316    -6642.047   -6289.9491    -6642.047            0    11194.966    22.926896    21.335229    21.291653    10414.824    11246.818    10325.924    12012.156   -69.755364   -553.62836   -343.69718   -4589.5511 
32114000     138.3785   -6650.5971   -6294.6269   -6650.5971            0    9505.1013    22.964595    21.264841    21.463878    10481.637    9276.1866    9656.2761    9582.8412    1319.9584    881.32776   -252.13137   -4841.6398 
32115000    140.12425   -6657.7713   -6297.3102   -6657.7713            0    9949.0896    23.045206    21.291354    21.340963    10471.234    9878.4808    9023.8857    10944.902     353.3438    66.230428    76.784836   -4777.9627 
32116000    134.78962   -6666.8846   -6320.1465   -6666.8846            0    11241.808    22.979477    21.255789     21.35262    10429.621    13141.903    9119.6011     11463.92    414.92358    347.98934      894.796   -4610.2077 
32117000    129.78609   -6667.9206   -6334.0538   -6667.9206            0    10622.101     23.04025     21.10335    21.449082    10429.111    11218.646    10849.149    9798.5077   -200.66249   -489.70058   -27.328801   -4718.4547 
32118000    136.35153   -6669.5417   -6318.7857   -6669.5417            0    9509.6317    23.222463    21.242821    21.213482    10464.836    8248.1643    10257.569    10023.162   -198.11825   -581.51758    290.31416   -4867.4361 
32119000    141.55341   -6667.9933   -6303.8558   -6667.9933            0    9907.3275    23.200287     21.05171    21.439741    10471.291    8886.8265    11160.333    9674.8228    390.50503   -455.53479    171.11801   -4790.8776 
32120000    134.86634   -6654.2898   -6307.3543   -6654.2898            0    9684.9426     23.08813     21.15707     21.46773    10486.496    10486.941    9649.8554    8918.0315    109.17899    336.26081   -77.418047   -4826.1897 
32121000    138.79142   -6664.0413   -6307.0089   -6664.0413            0    9353.4092    23.270172    21.170497    21.240468    10463.928    9371.4493    8229.3779      10459.4   -586.10942   -421.50128    122.16906   -4879.6258 
32122000    143.68329   -6651.3427   -6281.7262   -6651.3427            0    10196.345    23.065887    21.148675    21.463771    10470.305    11295.865    9411.6995    9881.4691   -820.43874    81.720829   -259.13529   -4724.7581 
32123000    141.05731   -6664.9578   -6302.0964   -6664.9578            0    10463.753    23.048284    21.254013    21.291649    10430.108    11199.988    9516.4242    10674.846   -932.08445    535.30854    907.75446   -4710.4296 
32124000     136.6499   -6645.2999   -6293.7764   -6645.2999            0    10729.037     23.11795    21.209867    21.295195    10441.644    9875.6313    10589.891    11721.587    721.40185     824.5539    55.303313   -4659.9515 
32125000    137.82067   -6640.4153   -6285.8801   -6640.4153            0    10071.608    23.078718    21.226689    21.395599    10481.378    8968.7062    10770.784    10475.335    -1666.679    1349.6105   -568.09583   -4746.3325 
32126000    135.49069   -6653.3555   -6304.8139   -6653.3555            0    9243.2058    23.183565    21.128499    21.385545    10475.366    8646.5081    9626.3811    9456.7281    436.56453   -201.66471    312.83045   -4892.7066 
32127000    134.16608   -6644.5976   -6299.4635   -6644.5976            0    10621.252    23.123334    21.089198    21.400176    10435.851    10780.157    10772.009    10311.591    194.38359   -518.63418   -196.87538   -4682.9495 
32128000     134.5062   -6644.7948   -6298.7858   -6644.7948            0    10950.052    23.073097    21.253589    21.277766    10434.321    10603.464    10479.257    11767.434   -890.78509    623.69361   -283.53648   -4632.4741 
32129000    137.52155   -6636.8734   -6283.1076   -6636.8734            0     9571.606    23.077543    21.161861    21.475927    10488.064    9548.4386    9250.5446    9915.8349   -658.76697    773.19204    120.92838   -4819.0572 
32130000    129.85446   -6663.7591   -6329.7164   -6663.7591            0    10319.723    22.950685    21.329771    21.360192    10456.516     11236.01    9328.3117    10394.847    -390.3524   -713.53837     547.2323   -4755.9838 
32131000    133.39897   -6664.0893   -6320.9286   -6664.0893            0    10252.193    23.107491    21.190519    21.343113    10450.863    10533.503    10182.474    10040.601    399.56836    146.95252   -1084.7935   -4758.3395 
32132000    139.42401   -6641.0198     -6282.36   -6641.0198            0    9413.5043    23.184924    21.171451    21.393738    10501.298    8545.0194    10070.186    9625.3074    835.89346    825.67297    776.98479   -4840.6757 
32133000    137.29431   -6643.8897   -6290.7084   -6643.8897            0    10129.422    23.201415    21.206287    21.270056    10465.205    9032.3443    10698.976    10656.946      719.966   -558.58268   -911.25992   -4744.7127 
32134000    136.96265   -6666.2735   -6313.9454   -6666.2735            0    10745.807    23.010689     21.13328    21.450299    10431.095    11494.988    10694.289    10048.143   -27.610947    170.30332   -253.64767   -4679.2201 
32135000    126.45608   -6653.0588   -6327.7582   -6653.0588            0    8964.1039    22.976079    21.340989    21.400892    10493.548    9945.9474    7474.4339    9471.9304    228.50542     -92.6917    976.75937    -4955.913 
32136000    139.79244   -6645.7045    -6286.097   -6645.7045            0     10250.27    23.079289    21.279462    21.333931     10477.41    10621.089    9937.6669    10192.055    -259.6978    63.030856   -619.97271   -4719.8323 
32137000    140.82734   -6665.2785   -6303.0088   -6665.2785            0    10361.659    23.036858    21.145373    21.443481    10445.612    10629.081    10774.386    9681.5118    214.65268   -875.66827     380.7785   -4724.5287 
32138000    135.68053   -6663.6554   -6314.6255   -6663.6554            0    10175.688    23.349996    20.938439    21.386364     10456.06     8177.625    11881.833    10467.605   -594.03165    359.26067    486.36422   -4762.9257 
32139000    134.45148   -6658.7127   -6312.8444   -6658.7127            0    8239.0806    23.217074    21.262279    21.289475    10509.505    8606.5798    7819.2538    8291.4081   -694.53121   -282.89203   -414.69983   -5050.0377 
32140000    141.96595   -6669.7014   -6304.5026   -6669.7014            0    9481.8813    22.992254    21.201682    21.499126    10480.275    10170.416     10186.77    8088.4573   -115.08786    -79.83712    282.48412   -4855.2534 
32141000    136.69504    -6662.962   -6311.3223    -6662.962            0    10423.112    23.006328    21.340166    21.270664    10443.021    9634.4589    10110.433    11524.443    106.26958     554.6511   -115.99995   -4723.8746 
32142000    139.39582   -6653.3163    -6294.729   -6653.3163            0    10713.337    23.045302    21.222988    21.328217    10431.421    11976.891    10423.204    9739.9158   -638.97386   -587.83726   -991.21751   -4664.8922 
32143000    136.41801   -6652.0351   -6301.1081   -6652.0351            0    9462.1336    23.053414    21.221956    21.408717    10473.969    9543.9474    9285.1378    9557.3156    691.57462   -403.93428    79.131074   -4855.7473 
32144000    135.39065   -6655.3214   -6307.0372   -6655.3214            0      10342.5    23.119087    21.105492    21.427567    10455.361    11008.873    10354.091    9664.5368    159.30847    131.95809    318.64414   -4730.0054 
32145000    137.89474   -6644.1248    -6289.399   -6644.1248            0    9443.2288    23.182806      21.1973    21.367451    10500.241    9950.8754    10262.949    8115.8622     586.7324   -783.72643   -1371.0993   -4843.3079 
32146000    138.68942   -6667.1278   -6310.3577   -6667.1278            0     9563.271    23.052027    21.161778     21.45784    10467.604    9185.7885    10437.646    9066.3786     43.13451    143.42683   -724.90796   -4850.4357 
32147000    140.26765   -6676.7117   -6315.8818   -6676.7117            0    10196.609    22.961207    21.219733    21.431542    10442.105    10817.174    9977.5567    9795.0968     939.9107   -293.81711    759.16335   -4763.0668 
32148000    134.97758   -6663.2069   -6315.9853   -6663.2069            0    10570.392    23.005589    21.270719    21.329189    10437.341    11210.925    9951.0144    10549.237    683.41188    229.07302    322.15046   -4706.9823 
32149000    141.82944   -6650.2224   -6285.3748   -6650.2224            0    9656.8286    22.937108    21.226404     21.54368    10489.021    9883.9573    10247.294    8839.2344    708.27956   -723.69003   -42.020152   -4808.1542 
32150000    134.31996   -6652.2618   -6306.7319   -6652.2618            0    9395.8002    23.199923    21.216889     21.23048    10450.283     8800.706     8990.675     10396.02    63.970013    431.41061    -103.5251   -4874.7494 
32151000     137.6558   -6642.4775   -6288.3663   -6642.4775            0    10673.792    23.133671    21.072837    21.433433    10448.629    11689.463    10526.373    9805.5408   -296.57411    125.75046   -109.31591   -4661.8667 
32152000    134.70068   -6663.7706   -6317.2613   -6663.7706            0    9415.5002    23.124734    21.189989     21.38143    10477.175    9371.7363     9395.651    9479.1135   -635.17108    553.30736   -181.41255   -4878.5836 
32153000    133.16793   -6618.4947   -6275.9283   -6618.4947            0    11292.629    23.137088    21.211985    21.251946    10430.106    11396.594    10769.632     11711.66   -94.617103    7.7812965    81.682714   -4558.1795 
32154000    134.93851   -6655.3517   -6308.2306   -6655.3517            0     8170.666    22.913679    21.337421    21.549757    10536.081    9159.2318    8330.8961    7021.8701   -641.44647    158.56576   -901.53344   -5052.7429 
32155000     136.5751   -6668.7999   -6317.4688   -6668.7999            0    9348.3965    22.998986    21.292486    21.355494    10457.905    9898.3777    8127.2385    10019.573    450.94651    189.60871    317.76174   -4891.6718 
32156000    130.36011   -6661.9354    -6326.592   -6661.9354            0    10796.411     22.93025    21.292145     21.34798    10422.814    10647.741    11007.951    10733.542   -253.84488    133.75386   -87.807386    -4685.472 
32157000    133.93977   -6656.8345   -6312.2826   -6656.8345            0    9767.9988     23.12919     21.13947    21.402041    10464.288    8836.6825    10336.258    10131.056   -14.392731    217.91741   -177.05576   -4821.5795 
32158000    136.68223   -6657.9923   -6306.3855   -6657.9923            0    11183.837    23.083511    21.156638    21.300216    10402.376    11860.717    10967.105    10723.687   -1379.9878   -87.520319    612.42401   -4609.7083 
32159000    132.80093   -6644.3184   -6302.6961   -6644.3184            0    9701.4076    23.240778    21.064871    21.400882    10477.101    10018.238     9495.238     9590.747   -39.706375   -74.395476   -468.27254   -4820.3427 
32160000    138.58627   -6661.4564   -6304.9517   -6661.4564            0    10764.244    23.048151    21.174449    21.395106    10441.494     10821.33    11626.867    9844.5352   -466.48405    84.894281   -197.04981   -4665.7889 
32161000    135.70644   -6668.2645    -6319.168   -6668.2645            0    9779.9025     23.09769    21.226098    21.299474    10442.575    9932.6578    9431.2147    9975.8349    12.933099    311.20835    169.37202   -4829.7452 
32162000    141.52453    -6662.879   -6298.8158    -6662.879            0    9883.5432    23.006229    21.160769     21.47067    10452.556      9923.39     10098.22    9629.0194   -152.63259    216.88022    50.932451   -4792.1704 
32163000    136.75589   -6654.2055   -6302.4093   -6654.2055            0    10022.798    23.094063    21.187561    21.358135    10450.682    10480.466     10413.34    9174.5867   -20.661166   -800.11642   -380.03188   -4774.8099 
32164000    135.07664   -6656.4973   -6309.0209   -6656.4973            0    11505.438    23.059819    21.141947     21.35469    10411.041    10404.369     12441.16    11670.786     398.9889    614.77836    80.997439   -4562.1001 
32165000    135.44759   -6646.4136    -6297.983   -6646.4136            0    10759.893    22.972598    21.269162    21.408658     10460.44    11970.804    9599.6198    10709.256    742.20743    -417.9652   -19.788247   -4656.5098 
32166000    140.02428   -6644.2456   -6284.0417   -6644.2456            0    9960.5346    23.054685    21.321388    21.298683    10469.535    10143.969    9537.1952     10200.44     101.3946   -825.61932    -432.4706   -4763.1933 
32167000    134.88032   -6650.1042   -6303.1328   -6650.1042            0    10313.334    23.044103    21.160387    21.422242    10445.959    10173.934    10972.011    9794.0576   -205.46463    923.75571    647.26081   -4731.9623 
32168000    138.06901   -6642.6949   -6287.5208   -6642.6949            0    9613.0238    23.164152    21.193005    21.358692    10485.366    9731.5722    9653.3183     9454.181   -62.129194   -889.16406    429.46899   -4817.5134 
32169000    141.28446   -6635.6362   -6272.1905   -6635.6362            0    10706.069    23.139351    21.142401    21.386497    10462.733    11394.075    10075.514    10648.618   -600.74443   -1311.0708    41.950623   -4638.5704 
32170000    136.59051   -6653.3694   -6301.9986   -6653.3694            0    10030.203    23.085334    21.183108    21.333023    10432.256    9485.9808    10169.287    10435.341   -781.00179    59.911373    533.18102   -4775.9659 
32171000    133.95311   -6648.0096   -6303.4234   -6648.0096            0    10233.586     23.02372    21.128951    21.489158    10453.767    11711.162    8882.9669     10106.63   -452.62258    239.44332     153.8568   -4743.2367 
32172000    138.33565   -6651.7486   -6295.8886   -6651.7486            0    10205.862    23.057174    21.321646    21.243572    10443.699    10151.296    10391.546    10074.745   -308.46566     527.8794   -585.01066   -4741.4272 
32173000    135.43715   -6652.3493   -6303.9455   -6652.3493            0    11075.176    22.976631    21.197154    21.381149    10413.457    11928.566     10556.07    10740.893    303.62256   -180.95858   -765.71978    -4621.963 
32174000    137.26301   -6676.0971   -6322.9963   -6676.0971            0    8273.5977    23.088828    21.159715    21.530659    10518.868    7673.8843    8738.2031    8408.7057    420.06636    681.63437    577.34892   -5053.7693 
32175000     137.2591   -6653.5022   -6300.4116   -6653.5022            0    9787.1544     23.22152    21.164603    21.322936    10479.674    8812.5061    11113.844    9435.1126    168.11072    308.31681    296.17185    -4804.589 
32176000    132.80169   -6657.1845   -6315.5603   -6657.1845            0    9069.4565    23.113411    21.170074    21.407909     10475.16    9056.3642    9206.1197    8945.8857    75.426248    31.344432    512.24313   -4930.0243 
32177000    141.17301   -6639.3257   -6276.1667   -6639.3257            0    10410.757    23.066926    21.212293    21.336221    10439.864    10374.765    10839.748     10017.76   -693.76595    886.63073      97.4998   -4691.0799 
32178000    139.22476    -6651.585   -6293.4378    -6651.585            0    10659.101    23.060007    21.217268     21.36745     10454.46    11315.384    10417.481    10244.436    278.97641   -804.55592   -622.92153   -4668.2706 
32179000     133.2377    -6642.308   -6299.5621    -6642.308            0    9785.3815    23.016788    21.333485    21.330247    10473.755    9639.8542    9263.6401     10452.65     260.9791   -110.31859   -690.95481   -4804.8552 
32180000     135.5132   -6651.7867   -6303.1873   -6651.7867            0    8934.3315    23.078823    21.211309    21.439425    10495.286    9604.7468     8945.428    8252.8198   -73.611109    1233.8079    127.67263   -4935.6719 
32181000    135.88701   -6649.7844   -6300.2233   -6649.7844            0    11215.564    23.020116    21.218826    21.330814    10419.246    10963.862    11927.704    10755.126    812.42899   -273.45191    -944.2396   -4595.9733 
32182000    138.46237   -6651.5266   -6295.3406   -6651.5266            0    9794.2386    23.132479    21.099374    21.473511    10480.809    9062.4442    10903.016    9417.2552    1530.0136   -94.758787    544.32957   -4798.2732 
32183000    138.20839   -6667.3716   -6311.8389   -6667.3716            0    10301.651    23.113261    21.173156    21.326313    10436.686    10459.967    9770.8501    10674.134    196.94211   -513.09854   -40.431347   -4743.8416 
32184000     130.1082   -6644.3171   -6309.6217   -6644.3171            0     10470.14    23.170659    21.075886    21.391438    10446.341    11284.911    9983.1208    10142.388   -849.48764    -707.3567    12.654654   -4714.5046 
32185000     141.5749   -6652.7882   -6288.5954   -6652.7882            0    10172.248    23.071418    21.144278    21.413794    10446.259     9718.613    10425.163    10372.969    1130.6874   -950.32552    626.96511    -4738.874 
32186000    145.90627   -6656.4802   -6281.1452   -6656.4802            0    11653.738    23.005333     21.24329    21.318012    10418.303    11174.546    12024.196    11762.472    5.4149375     196.4583    -150.6622   -4510.4732 
32187000    134.21218   -6666.4763   -6321.2236   -6666.4763            0    10365.309    23.069133    21.226511    21.347975    10453.617    10605.486    9678.3555    10812.087    421.10416    113.99573    87.087634   -4740.9775 
32188000    137.85746   -6644.8342   -6290.2043   -6644.8342            0    9035.0764    22.980517    21.390742    21.396088    10517.682     10146.73    8253.3765    8705.1229   -162.65023   -1239.1915   -415.99046   -4904.3176 
32189000    134.26347   -6674.8278   -6329.4432   -6674.8278            0     8856.661    23.175346    21.191107    21.380028    10499.972    8821.7693    8483.1305    9265.0831    1550.9073   -53.770125   -410.55448   -4973.2111 
32190000    136.05319   -6626.1555   -6276.1669   -6626.1555            0    9346.4314     23.09767    21.140253    21.535862    10515.759    10243.809    9163.5657    8631.9192    38.845556   -763.56791    1013.1198   -4842.7836 
32191000    143.74083   -6652.8225    -6283.058   -6652.8225            0    9991.1941    23.356109    21.057666      21.2919    10471.892    8667.1323    11072.956    10233.494    582.52732   -112.06007   -648.11874   -4757.1849 
32192000    134.99818    -6635.674   -6288.3994    -6635.674            0    10852.074     23.10995    21.117948     21.38331    10435.798    11187.093    10334.559    11034.571    -1054.952     1325.547    845.95658   -4636.7635 
32193000    137.03261   -6660.8319   -6308.3238   -6660.8319            0    10343.095    22.986762    21.244324    21.390906    10445.997    9886.7182     10546.62    10595.947    863.96853    92.242012    68.045898   -4732.6138 
32194000     136.4797   -6654.5251   -6303.4394   -6654.5251            0    8466.9712    23.160823    21.286864    21.303831    10503.243    9103.6333    7865.1555    8432.1247    456.14513    763.28113    73.897425    -5006.477 
32195000    134.40697   -6635.8318   -6290.0781   -6635.8318            0    10770.542    22.874891    21.348528    21.415344    10458.081    11705.822    9533.8902    11071.915   -26.773468   -109.15961   -94.975738   -4647.3508 
32196000    134.02946   -6651.5079   -6306.7253   -6651.5079            0    10608.822    23.136082    21.124922    21.370152    10444.617    10786.517    11450.036    9589.9137   -94.598995    32.484026   -551.46148   -4690.7467 
32197000    140.24319    -6662.435   -6301.6679    -6662.435            0    9028.5143    23.208554    21.146055    21.378627    10491.975    8610.0832    9006.2989    9469.1609    385.26329    -438.3573   -153.56596   -4920.1726 
32198000    141.35053   -6651.4538   -6287.8381   -6651.4538            0    10459.361    23.090705    21.114085    21.419709    10442.946    10279.846    10632.978    10465.259   -660.34976   -401.73722   -594.68784   -4694.8811 
32199000    142.51205   -6651.3593   -6284.7558   -6651.3593            0    10176.968     23.00411       21.231     21.35978    10432.122    9884.7521     10090.82    10555.331   -252.81444    1127.8274   -441.10822   -4736.4135 
32200000    134.37344   -6651.5438   -6305.8763   -6651.5438            0    10480.791    22.925571    21.378025    21.270645    10424.817    10681.447    9474.4982    11286.427   -872.84063    250.10959   -218.44336   -4712.4267 
32201000    137.36702   -6658.7662    -6305.398   -6658.7662            0    9124.8762     23.08836    21.256895    21.423122    10514.186    9309.8173    8801.8119    9262.9993    767.70315    497.78857   -155.86551    -4906.202 
32202000    140.34387   -6665.2985   -6304.2725   -6665.2985            0     9083.134    23.186776    21.168404    21.375065     10491.46    9215.8549    9765.1159    8268.4313   -161.42983   -544.97048    149.69481   -4914.4878 
32203000    130.04924   -6658.9605   -6324.4168   -6658.9605            0    11010.516    23.227574      21.0547    21.323613    10428.304    11087.759    11107.453    10836.337   -597.25145   -717.49802   -747.24924   -4649.8701 
32204000     133.4592     -6647.53   -6304.2144     -6647.53            0     11262.61    23.071437    21.057433    21.466351    10428.895    11332.685     12914.34    9540.8034   -685.95545    88.832713    305.40546   -4591.2308 
32205000    133.09556   -6655.5764   -6313.1962   -6655.5764            0    9584.3518    23.119909    21.227572    21.338349    10472.425    9659.0033    8634.9792    10459.073    438.15251     304.1928    1569.9113   -4849.3822 
32206000    130.63837   -6659.4699   -6323.4107   -6659.4699            0    9479.2053    23.110968    21.216756    21.342806    10465.226    9226.4427    9547.2465    9663.9267   -204.12153    938.87447   -696.66928   -4876.6508 
32207000    130.17173   -6648.5943   -6313.7354   -6648.5943            0    10254.616    22.955792    21.303301     21.34327    10437.588    10247.071    10061.345    10455.431    56.831108   -298.10817    810.42022   -4752.7624 
32208000     134.1393   -6647.9382   -6302.8731   -6647.9382            0    9364.5253     23.02288    21.262941    21.438324    10494.791    9798.3583    8799.1419    9496.0756    371.66829   -494.12696   -516.77201   -4869.5785 
32209000    143.00657   -6659.1856   -6291.3099   -6659.1856            0     10420.97     23.06086    21.241982     21.33417    10450.722     10946.34     9796.706    10519.864    417.71536   -883.44338   -186.28006    -4703.018 
32210000    138.11795    -6658.711   -6303.4109    -6658.711            0    10013.985    23.099252     21.10618    21.421427    10443.737    9955.0373    10341.684    9745.2323    603.45481   -141.87223     310.0786    -4778.169 
32211000    138.70706   -6651.8364   -6295.0209   -6651.8364            0    10721.702    23.086313    21.197777    21.350695    10448.571     11507.01    10785.689    9872.4067   -1138.7074   -555.53753   -94.389483   -4661.2299 
32212000    132.16141   -6651.6308   -6311.6536   -6651.6308            0    10480.388    23.111099    21.190553    21.335713    10448.887    10026.311    10901.207    10513.647   -176.62676    151.87356    90.019011    -4714.586 
32213000    135.64737   -6659.0575   -6310.1129   -6659.0575            0    9721.8742    23.185097    21.102127    21.421156    10480.404     9210.212    10366.774    9588.6369   -37.525588    718.80995   -455.84492   -4824.1639 
32214000    139.24579   -6665.2802   -6307.0789   -6665.2802            0    9979.0504    23.060417    21.254939    21.373604    10476.224    10808.418    8647.0312    10481.702   -306.55776   -1776.4774    1056.4846   -4782.4299 
32215000     129.9621   -6658.5894   -6324.2698   -6658.5894            0    9528.3249    23.169704    21.053167    21.464932      10470.5    9137.8628    10121.404    9325.7082     988.8429   -529.45083   -540.43508   -4869.2802 
32216000    134.88892   -6651.2296   -6304.2361   -6651.2296            0    10464.744     23.01448    21.238027    21.358165     10439.49    10541.039     11611.53    9241.6631   -36.380424    392.45091   -2.4330103   -4710.9867 
32217000    138.69692   -6662.0461   -6305.2567   -6662.0461            0    9850.4725    23.071942    21.273924    21.346774    10477.653    10116.765    9437.4115    9997.2408   -172.76234   -24.131093   -463.56843   -4800.0471 
32218000    137.54389   -6637.2953    -6283.472   -6637.2953            0    11284.633    22.979318    21.256902    21.339141    10423.511    12183.108    11154.346    10516.445   -206.62148    -1639.125   -139.74109   -4568.0248 
32219000    137.04004   -6663.5801    -6311.053   -6663.5801            0    8778.4283    23.119634    21.220011     21.41145    10504.433    7575.8115    9449.5145    9309.9591      413.381    751.75928     15.96202   -4966.2295 
32220000    131.79671   -6667.8589   -6328.8199   -6667.8589            0     9509.039    23.152284    21.139319     21.44666      10496.5    8809.7632    10041.071    9676.2825   -443.91088    40.399228   -526.02046   -4873.1697 
32221000    132.62293   -6650.6815   -6309.5171   -6650.6815            0    10091.369    23.160406    21.114816    21.369664    10450.358    9685.0828    11058.296    9530.7273    279.77418   -489.37267    415.54548   -4771.5143 
32222000    138.03023   -6668.7828   -6313.7085   -6668.7828            0    10352.206    23.165836    21.026597    21.432969    10439.971    10033.491    11155.585    9867.5432    460.94832   -499.93403   -130.47681   -4737.5202 
32223000    137.34025   -6670.6567   -6317.3573   -6670.6567            0    9811.3196    23.113261     21.21522    21.376423    10481.991    9534.3573    10473.013     9426.588   -46.447315   -621.97647   -483.71783   -4817.5098 
32224000    141.29396   -6640.9167   -6277.4466   -6640.9167            0    11254.845    22.984426    21.183662    21.390171    10414.753    11861.904    11190.924    10711.707    1096.5527    625.28164    738.10747   -4567.9653 
32225000    128.84109   -6644.1098   -6312.6739   -6644.1098            0    10099.925    22.922481    21.319158    21.412374     10463.97    11122.196    9501.6569    9675.9229   -186.03187    -738.0404   -425.03157    -4771.362 
32226000    131.15759    -6645.198   -6307.8031    -6645.198            0    9046.3368    23.227589    21.210637    21.277255    10482.707    8282.3224    8816.8739    10039.814     662.7307    502.18019     159.2747   -4924.8035 
32227000    139.71996   -6631.8018   -6272.3807   -6631.8018            0    10279.116    23.042649     21.13147    21.499173    10468.485    9800.6614    11720.588    9316.0988   -548.71673   -1392.2904   -190.81414   -4703.0463 
32228000    141.62608   -6648.2704    -6283.946   -6648.2704            0    9265.8486    23.280429    21.098499    21.359567    10491.437    8044.9422    9877.1697    9875.4341    339.96759    131.63878    716.04778   -4866.2077 
32229000    139.88797   -6653.4905   -6293.6372   -6653.4905            0    10004.379    23.099953    21.188144    21.392976    10470.688    10276.568    9371.2718    10365.298   -34.806901   -576.62465    107.39157    -4765.926 
32230000    140.29206   -6639.7186   -6278.8258   -6639.7186            0    10785.287    22.988138    21.261573    21.338797    10429.635    11302.471    9996.1393    11057.249   -397.05127   -538.93564   -157.46077   -4638.3241 
32231000    138.30017   -6638.6356   -6282.8669   -6638.6356            0    9641.1866    22.970486    21.313572    21.358258    10456.643    9618.5275    9442.7753    9862.2569   -375.63242    756.23778    354.55328   -4812.5916 
32232000    136.89632   -6649.4222   -6297.2647   -6649.4222            0    9729.7802     22.96352    21.214028    21.518673    10482.795    11292.128    9145.5384    8751.6739   -96.443147   -4.4345312   -655.72208   -4809.7681 
32233000    138.00599   -6662.8771   -6307.8651   -6662.8771            0    10500.855    23.130102    21.257847    21.232232    10439.807    9486.8212    10167.717    11848.026     1068.396    -550.3226    474.57667   -4709.0692 
32234000    140.36544   -6658.1082   -6297.0266   -6658.1082            0    10939.518    23.192849    21.109631    21.310031    10433.231    8744.0682    10974.396     13100.09    504.69994    545.39732    419.28646   -4632.4917 
32235000    136.48297   -6654.5391    -6303.445   -6654.5391            0     10400.64    23.115223    21.050777    21.470206    10447.261    10416.634     11011.21    9774.0743     -600.847   -564.83125   -234.67503   -4718.7767 
32236000    131.12165   -6645.1968   -6307.8944   -6645.1968            0    10173.183    23.260332    21.119411    21.304948    10465.939    9558.3837    9761.7375    11199.429   -41.624202   -411.15909    288.87627   -4755.1107 
32237000    133.08019   -6654.2995   -6311.9588   -6654.2995            0     10425.01    23.027668    21.262584    21.342443    10449.852    10439.976     10836.96    9998.0938    -246.4618    9.7818501    -745.2219   -4723.1834 
32238000    140.42023   -6642.2245    -6281.002   -6642.2245            0    10188.488    22.936434    21.264174    21.443122    10458.332    10642.689    9409.7951    10512.981   -608.67103    631.93678    816.67641   -4727.0125 
32239000     136.0339   -6660.2855   -6310.3466   -6660.2855            0    8945.5112    23.042429    21.332192    21.335416    10487.328     9284.287    8396.7756    9155.4709    188.69444   -141.28349    -89.18736   -4942.1582 
32240000    139.10621    -6646.913   -6289.0708    -6646.913            0    11712.505    23.078773    21.186665    21.312933    10421.219    12210.176    10970.276    11957.065    1025.0915   -309.81549    -184.3378   -4508.9715 
32241000    135.06553   -6655.8931   -6308.4453   -6655.8931            0    10092.653     23.12026    21.029783    21.517047    10461.891    9099.2243    10975.665    10203.072    591.96478    226.01579    514.33707   -4768.5491 
32242000    136.61263   -6658.3315   -6306.9038   -6658.3315            0    10109.895    23.182336    21.143363    21.320772    10450.431    8884.8342    11434.239    10010.611    392.15603   -355.95163   -572.18363   -4766.0668 
32243000    138.19414   -6653.8592   -6298.3632   -6653.8592            0    9126.7714    23.115417    21.128693    21.442803    10472.634    9343.2762    8987.2072    9049.8308    102.93662   -68.397329    114.52903   -4904.4075 
32244000    138.64626   -6660.2954   -6303.6364   -6660.2954            0    9593.3272    22.887392    21.370174    21.393231    10463.591    10627.227     8843.864    9308.8903   -112.96042    19.613675    395.41341   -4839.6876 
32245000    141.15557   -6641.2983   -6278.1842   -6641.2983            0    9950.5547    22.956007    21.347151    21.393017    10483.548    10912.616    8786.6879     10152.36    449.78994   -534.25835   -988.23972    -4756.826 
32246000    137.21485    -6667.435   -6314.4582    -6667.435            0    9138.6993    23.057585    21.256546    21.405673    10491.447    8338.1379    9656.4528    9421.5073    58.109796    119.30965   -307.17737   -4916.1732 
32247000    136.69818   -6645.8905   -6294.2428   -6645.8905            0    10557.351    23.072089    21.121427    21.413054    10434.912    11062.412    10836.453    9773.1894   -546.46674    271.79345    580.38306   -4687.5988 
32248000    139.32144   -6658.9631   -6300.5672   -6658.9631            0    9204.5459    23.164063    21.135991     21.44199    10497.901    9133.0845    9543.3508    8937.2025   -156.52622    30.722574   -407.07478    -4891.341 
32249000      138.692    -6659.707   -6302.9303    -6659.707            0    10800.186     23.13219    21.117949    21.317407    10413.648    10497.034    11597.584    10305.942    233.57912   -1156.9267    334.38812   -4662.6804 
32250000    144.01526   -6633.8601   -6263.3897   -6633.8601            0    11504.139    23.182222     21.09093     21.29978      10414.2    10455.354    12619.551    11437.513   -139.42343    855.10112   -190.10316   -4516.1362 
Loop time of 550.334 on 64 procs for 250000 steps with 1296 atoms

Performance: 78.498 ns/day, 0.306 hours/ns, 454.270 timesteps/s
99.1% CPU use with 64 MPI tasks x 1 OpenMP threads

MPI task timing breakdown:
Section |  min time  |  avg time  |  max time  |%varavg| %total
---------------------------------------------------------------
Pair    | 30.68      | 41.899     | 52.819     | 109.0 |  7.61
Bond    | 0.28008    | 0.28841    | 0.29532    |   0.7 |  0.05
Kspace  | 280.54     | 291.38     | 302.74     |  41.4 | 52.95
Neigh   | 2.0361     | 2.0625     | 2.0989     |   1.0 |  0.37
Comm    | 92.694     | 94.64      | 97.425     |  13.3 | 17.20
Output  | 0.62596    | 0.62774    | 0.62941    |   0.1 |  0.11
Modify  | 107.05     | 109.29     | 110.57     |  10.0 | 19.86
Other   |            | 10.15      |            |       |  1.84

Nlocal:        20.2500 ave          28 max          13 min
Histogram: 3 4 10 6 9 4 17 3 6 2
Nghost:        2693.09 ave        2720 max        2657 min
Histogram: 1 3 1 5 12 16 10 6 4 6
Neighs:        6705.25 ave        9320 max        4391 min
Histogram: 3 4 10 10 5 14 7 6 3 2

Total # of neighbors = 429136
Ave neighs/atom = 331.12346
Ave special neighs/atom = 2.0000000
Neighbor list builds = 3556
Dangerous builds = 0

unfix		3
unfix		2
unfix		1

write_data	data.final.${pid}
write_data	data.final.0
System init for write_data ...
PPPM initialization ...
  extracting TIP4P info from pair style
  using 12-bit tables for long-range coulomb (../kspace.cpp:340)
  G vector (1/distance) = 0.3721523
  grid = 30 36 32
  stencil order = 5
  estimated absolute RMS force accuracy = 0.0035652009
  estimated relative force accuracy = 1.0736497e-05
  using double precision FFTW3
  3d grid and FFT values/proc = 4896 600
Last active /omp style is kspace_style pppm/tip4p/omp
WARNING: Not all mixed pair coeffs generated from mixing. Use write_data with 'pair ij' option to store all pair coeffs. (../write_data.cpp:312)

write_restart   restart.lmp.${pid}
write_restart   restart.lmp.0
System init for write_restart ...
PPPM initialization ...
  extracting TIP4P info from pair style
  using 12-bit tables for long-range coulomb (../kspace.cpp:340)
  G vector (1/distance) = 0.3721523
  grid = 30 36 32
  stencil order = 5
  estimated absolute RMS force accuracy = 0.0035652009
  estimated relative force accuracy = 1.0736497e-05
  using double precision FFTW3
  3d grid and FFT values/proc = 4896 600
Last active /omp style is kspace_style pppm/tip4p/omp
Total wall time: 0:09:10
