#include		in.partitions
include		in.temp
variable        temperature equal 122.72
variable	tempDamp equal 100.0
include		in.pressure
variable        pressure equal 1969.2
variable        pressureDamp equal 1000.0 # This is 1 ps
include		in.seed
variable        seed equal 745823

units		real
atom_style	full

read_restart	restart.lmp.${pid}
read_restart	restart.lmp.1
Reading restart file ...
  restart file = 30 Jul 2021, LAMMPS = 30 Jul 2021
  restoring atom style full from restart
  orthogonal box = (-0.032519808 0.020661200 -0.014215080) to (20.032521 19.979340 20.714213)
  4 by 2 by 4 MPI processor grid
  restoring pair style lj/cut/tip4p/long/omp from restart
  restoring bond style harmonic/omp from restart
  restoring angle style harmonic/omp from restart
  972 atoms
  648 bonds
  324 angles
Finding 1-2 1-3 1-4 neighbors ...
  special bond factors lj:    0        0        0       
  special bond factors coul:  0        0        0       
     2 = max # of 1-2 neighbors
     1 = max # of 1-3 neighbors
     1 = max # of 1-4 neighbors
     2 = max # of special neighbors
  special bonds CPU = 0.002 seconds
  read_restart CPU = 0.006 seconds
include 	in.setup
variable	out_freq equal 1000
variable	out_freq2 equal 10000
variable	out_freq3 equal 1000

timestep	2.0

neigh_modify    delay 7 every 1

include		in.tip4p
# This is TIP4P/Ice

# create groups ###
group ox type 2
324 atoms in group ox
group hy type 1
648 atoms in group hy

# set charges - beside manually ###
set group ox charge -1.1794
Setting atom values ...
  324 settings made for charge
set group hy charge 0.5897
Setting atom values ...
  648 settings made for charge

# ### TIP3P Potential Parameters ###
pair_style lj/cut/tip4p/long/omp 2 1 1 1 0.1577 8.5
pair_coeff 1 1*2 0.000 0.000
pair_coeff 2 2 0.21084 3.1668
bond_style  harmonic
bond_coeff  1 450 0.9572
angle_style harmonic
angle_coeff 1 55 104.52
kspace_style pppm/tip4p/omp 1.0e-5
pair_modify tail yes

thermo          ${out_freq}
thermo          1000
thermo_style    custom step temp pe etotal epair emol press lx ly lz vol pxx pyy pzz pxy pxz pyz enthalpy

restart 	${out_freq3} restart.lmp.${pid} restart2.lmp.${pid}
restart 	1000 restart.lmp.${pid} restart2.lmp.${pid}
restart 	1000 restart.lmp.1 restart2.lmp.${pid}
restart 	1000 restart.lmp.1 restart2.lmp.1


include         in.dump
dump            myDump all atom ${out_freq2} dump.water.${pid}
dump            myDump all atom 10000 dump.water.${pid}
dump            myDump all atom 10000 dump.water.1
dump            myDump2 all dcd ${out_freq2} dump.dcd
dump            myDump2 all dcd 10000 dump.dcd
dump_modify     myDump append yes
dump_modify     myDump2 append yes


variable natoms 	equal  "count(all)"                        # NUMBER ATOMS
variable H      	equal  "enthalpy/v_natoms"                 # ENTHALPY-per-atom
variable Vol      	equal  "vol/v_natoms"                 # volume-per-atom
fix AVG all 		ave/time ${out_freq} 1 ${out_freq} v_Vol v_H file vol_enthalpy.dat
fix AVG all 		ave/time 1000 1 ${out_freq} v_Vol v_H file vol_enthalpy.dat
fix AVG all 		ave/time 1000 1 1000 v_Vol v_H file vol_enthalpy.dat


timer           timeout 02:55:00 every 1000
New timer settings: style=normal  mode=nosync  timeout=02:55:00

fix 		1 all shake 1e-6 200 0 b 1 a 1
       0 = # of size 2 clusters
       0 = # of size 3 clusters
       0 = # of size 4 clusters
     324 = # of frozen angles
  find clusters CPU = 0.001 seconds
fix             2 all nph aniso ${pressure} ${pressure} ${pressureDamp}
fix             2 all nph aniso 1969.2 ${pressure} ${pressureDamp}
fix             2 all nph aniso 1969.2 1969.2 ${pressureDamp}
fix             2 all nph aniso 1969.2 1969.2 1000
fix             3 all temp/csvr ${temperature} ${temperature} ${tempDamp} ${seed}
fix             3 all temp/csvr 122.72 ${temperature} ${tempDamp} ${seed}
fix             3 all temp/csvr 122.72 122.72 ${tempDamp} ${seed}
fix             3 all temp/csvr 122.72 122.72 100 ${seed}
fix             3 all temp/csvr 122.72 122.72 100 745823


run             250000
PPPM initialization ...
  extracting TIP4P info from pair style
  using 12-bit tables for long-range coulomb (../kspace.cpp:340)
  G vector (1/distance) = 0.37244643
  grid = 24 24 25
  stencil order = 5
  estimated absolute RMS force accuracy = 0.003403582
  estimated relative force accuracy = 1.0249786e-05
  using double precision FFTW3
  3d grid and FFT values/proc = 3458 576
Last active /omp style is kspace_style pppm/tip4p/omp
Neighbor list info ...
  update every 1 steps, delay 7 steps, check yes
  max neighbors/atom: 2000, page size: 100000
  master list distance cutoff = 10.8154
  ghost atom cutoff = 10.8154
  binsize = 5.4077, bins = 4 4 4
  1 neighbor lists, perpetual/occasional/extra = 1 0 0
  (1) pair lj/cut/tip4p/long/omp, perpetual
      attributes: half, newton on, omp
      pair build: half/bin/newton/omp
      stencil: half/bin/3d
      bin: standard
Per MPI rank memory allocation (min/avg/max) = 10.19 | 10.19 | 10.21 Mbytes
Step Temp PotEng TotEng E_pair E_mol Press Lx Ly Lz Volume Pxx Pyy Pzz Pxy Pxz Pyz Enthalpy 
26000000    135.82121   -5000.0402   -4738.0976   -5000.0402            0    2124.9268    20.065041    19.958679    20.728428    8301.1488     2259.253    2014.6525     2100.875   -327.91959   -619.34131     155.0674    -4480.846 
26001000    118.62403   -4996.7809   -4768.0045   -4996.7809            0      1904.84    19.915623    20.024364    20.851687    8315.6046    2182.7258     2306.698    1225.0962   -413.80373    565.39828    405.73791   -4536.9958 
26002000    123.46927   -5006.6918   -4768.5709   -5006.6918            0    1137.5396    19.904417     20.08553    20.822608     8324.686    1351.4256    840.04157    1221.1516   -193.02977   -1022.9941    1119.8142   -4630.4656 
26003000    124.04715   -5010.2656   -4771.0303   -5010.2656            0    3110.4005    19.945584    19.848519    21.094654    8351.1691    3416.8612    3048.4451    2865.8953    308.29206   -573.90766   -144.98009   -4392.2045 
26004000    120.70836   -5018.3137   -4785.5175   -5018.3137            0    1973.3683    20.057898    19.814084    20.732421    8239.6626      1906.46    2580.7625    1432.8823   -27.296157    -933.1483    44.784226   -4548.3837 
26005000     123.1487   -5005.4621   -4767.9594   -5005.4621            0    1986.9269    20.016616    20.050182    20.691545     8304.278     2354.727     1177.564    2428.4897    122.14865    1122.6512   -303.94768    -4527.324 
26006000    129.09124   -5006.3137   -4757.3504   -5006.3137            0    2439.8427    19.974227    19.971998    20.818188    8304.9001    3179.7418      1574.34    2565.4463    136.08874   -691.77914   -327.91909   -4461.8404 
26007000    123.23239   -5003.6754   -4766.0114   -5003.6754            0    3005.4997    19.979181    19.829231     20.86547    8266.3108    3119.3866    3206.2527    2690.8599   -273.06104   -194.38025    497.21858   -4403.6814 
26008000    127.08466   -5008.0525   -4762.9591   -5008.0525            0    951.07442     20.12263    19.847435    20.890639    8343.3577    709.75118    1573.8493    569.62281    -326.9593    42.198776   -232.11363    -4647.233 
26009000    129.88871   -5003.7208   -4753.2195   -5003.7208            0    2469.4719    20.078645    19.939577    20.599058    8247.0323    1180.1261    3005.9817    3222.3079     67.36227   -43.266346   -7.6771703    -4456.205 
26010000     123.2451   -4998.8715    -4761.183   -4998.8715            0    3020.7026    19.982964    19.883031    20.796479    8262.8963    2398.2548    3945.2066    2718.6464   -163.35786   -144.30159    112.20936   -4397.1706 
26011000    125.50563   -5013.2693   -4771.2212   -5013.2693            0    1818.6176    20.015679    19.944279    20.790385    8299.4859    2542.2741    1193.4896    1720.0892   -245.93404    118.61027   -539.97974   -4551.0966 
26012000    129.73647   -4993.6923   -4743.4846   -4993.6923            0    927.08309    19.954519    20.033936    20.927473    8366.1252    735.42141    1697.3107    348.51719   -172.02676    667.14705    753.08391   -4630.3699 
26013000    127.75256   -4995.0786   -4748.6971   -4995.0786            0    1862.6679    20.071168    19.965095    20.709997    8298.9674    1599.9828    1661.7932    2326.2278    178.17219    832.96989    319.71719   -4523.2548 
26014000    131.42263   -5025.7134   -4772.2538   -5025.7134            0    2610.9673    19.919309    19.997472    20.835616    8299.5725    2413.0048    2685.0883     2734.809   -15.992845    -1034.821    282.04155   -4456.2204 
26015000     123.6852   -5007.6972   -4769.1599   -5007.6972            0    2356.5311    19.933979     20.10244    20.719317    8302.6781    2946.7954    2386.6344    1736.1635   -628.69832    514.40036   -1088.1103   -4483.8169 
26016000    125.20609   -5007.2179   -4765.7474   -5007.2179            0    3163.4925    19.856369    20.110187    20.759523    8289.5949    2884.8912     2359.368    4246.2183   -740.87975   -176.77098   -32.094899   -4383.2963 
26017000     119.7303   -5000.1391   -4769.2291   -5000.1391            0    508.36427    20.104806    19.922432    20.816845     8337.909    781.68514    836.34895   -92.941269   -581.21595    452.04074     424.5877   -4707.4121 
26018000    118.49081   -5007.3875    -4778.868   -5007.3875            0    1380.7965    20.041456     20.00359    20.764765    8324.6163     518.1507    476.35175    3147.8871   -121.73554    30.671176    446.90846    -4611.231 
26019000    119.22782   -5001.5878   -4771.6469   -5001.5878            0    1919.5289    20.032929    20.060839    20.724805    8328.8299     2115.412    1512.1596    2131.0151   -36.166072    237.82853    241.35075   -4538.4867 
26020000    119.48261   -4997.7245   -4767.2922   -4997.7245            0    2228.1553    20.039512    19.948788    20.643496    8252.5261    2016.3259    1995.2617    2672.8784    35.325152    203.14487    227.21338   -4499.1234 
26021000    121.83812   -5012.7149   -4777.7398   -5012.7149            0    3272.7769    19.983073    19.876425    20.746125    8240.1956    2658.9013    3946.9998    3212.4295    30.469224    618.97841   -491.95001   -4384.4345 
26022000    121.22683    -5002.377   -4768.5809    -5002.377            0    1590.7073    20.014641    19.979706    20.886023    8352.0412    2123.0262    1059.7333    1589.3623    128.55286   -297.37281   -124.11939   -4574.8232 
26023000    117.85872   -5003.8909   -4776.5905   -5003.8909            0    1438.6915     19.80553    20.018039    21.020602    8333.9932    2482.5778    1113.7005    719.79637   -442.26811     391.8424     48.76307    -4601.728 
26024000    123.33324   -4983.3136   -4745.4551   -4983.3136            0    2211.1861    19.931951    20.009531    20.916052     8341.928    2220.4602    2645.1282    1767.9698   -737.39525    601.31804   -251.86246   -4476.4456 
26025000    124.01448   -4991.9056   -4752.7332   -4991.9056            0      1994.65    19.957366     20.01534     20.82879    8320.1323    2212.8173    1172.1516    2598.9811   -47.123614      125.397   -1221.3072   -4510.7012 
26026000    128.32582   -5000.0302   -4752.5431   -5000.0302            0    1946.2157    20.028416    19.979952    20.787816    8318.5936    1818.0203     1971.751    2048.8758   -513.49346    626.41307   -672.46461   -4516.4318 
26027000    131.86079    -5003.101   -4748.7964    -5003.101            0    3941.3083    19.962346    20.051694    20.607421    8248.7148    4419.1663     3332.984    4071.7745    75.189218    453.96242   -397.62709   -4274.6608 
26028000    121.15106   -5009.9984   -4776.3484   -5009.9984            0    1873.0493    19.943852    19.919394    20.869827    8290.9451     1001.966    2869.8451    1747.3368   -96.757207    116.55813     84.66093   -4549.8688 
26029000     119.9498   -4996.2664   -4764.9331   -4996.2664            0    2265.2069    19.969552    19.968135    20.826739    8304.7602    1346.9009    2730.6351    2718.0846   -219.29132   -683.91701    809.57617   -4490.5794 
26030000     122.7587   -4995.8305   -4759.0801   -4995.8305            0    2577.3295    20.046274    19.925492    20.724192    8277.9026    2461.7932    2543.6593     2726.536   -258.47706    1239.3309    78.805454   -4447.9327 
26031000    127.08281   -4997.5981   -4752.5082   -4997.5981            0    992.35796    20.022811    20.227182    20.709452    8387.4326    1067.5981   -30.585795    1940.0616    164.58852    174.93798   -129.96686   -4631.1209 
26032000    123.12845   -4997.8003   -4760.3367   -4997.8003            0    2363.3728    20.011264    19.972934    20.742561    8290.4623     2088.033    1640.5263    3361.5592   -535.74554    176.18495    72.942907   -4474.5863 
26033000    129.56232     -5016.78   -4766.9082     -5016.78            0     714.5356    20.093324    19.971722    20.855778    8369.3879    290.63604     395.5154    1457.4553   -393.27413   -13.952563   -578.58323   -4679.6927 
26034000    120.35445   -5006.5402   -4774.4265   -5006.5402            0    1056.2882    20.092977    19.823414    20.944724    8342.5225   -290.45681    2166.2599    1293.0616    355.80531   -952.20603    549.11885   -4645.9109 
26035000    115.44328   -5010.4805   -4787.8384   -5010.4805            0    2515.3201    20.099699    19.875324    20.754624    8291.2234    2449.5287    2223.7454    2872.6862   -342.27562    155.20408    1795.4668   -4483.6884 
26036000    118.55621   -5008.8593   -4780.2137   -5008.8593            0    1094.8033    19.972481     19.98233    20.839975    8317.1653     2087.776    62.638805    1133.9952   -52.282731   -22.363801    578.75836    -4647.417 
26037000    123.37103   -5006.2585   -4768.3271   -5006.2585            0    3092.9354    19.963517    19.930349    20.843063     8293.035     3403.891    2897.4477    2977.4676   -171.19584    539.04234   -493.31065   -4394.2508 
26038000    126.44591   -5002.8841   -4759.0225   -5002.8841            0    1047.3808    19.983475    19.866747    21.068275     8364.245    1301.7277    1424.1896    416.22519   -196.96699   -891.66303    638.57154   -4631.2589 
26039000    118.19072   -5003.6808   -4775.7401   -5003.6808            0    1528.8603    20.071682    19.966695    20.788068    8331.1335    1222.9297    1928.5198    1435.1313    369.92427   -316.52245    -448.5012   -4589.9819 
26040000    125.57757   -5008.8495   -4766.6626   -5008.8495            0    2821.7479    20.091628    19.816792    20.779724    8273.4806    1788.7525    3871.0104    2805.4808   -207.69709    1035.6946   -468.63738   -4426.1899 
26041000    119.68679   -4997.6284   -4766.8023   -4997.6284            0    2936.4007    19.934221    19.917805    20.945138    8316.1819    4474.0612     2829.825     1505.316   -30.688681    844.03005   -8.1958275   -4410.6669 
26042000    120.40863   -5006.7819   -4774.5638   -5006.7819            0    1785.4128    19.998636    19.967304    20.876829    8336.5115    2007.2049    1396.4962    1952.5374   -58.359296   -189.56028    254.64701   -4557.4942 
26043000    129.62203   -5007.3665   -4757.3796   -5007.3665            0    1479.8255    19.989111    20.098378    20.781522    8348.9502    1996.9349     465.7999    1976.7416   -240.78531    333.55942   -60.146615   -4577.1947 
26044000    120.73612   -5016.3442   -4783.4944   -5016.3442            0    2854.4661    20.085842    19.907376    20.721264    8285.5304     3058.591    2213.1795    3291.6278    99.723617   -339.46676   -627.45482   -4438.5723 
26045000     117.2693   -5009.9632   -4783.7995   -5009.9632            0    1662.2514    20.047877    19.903146    20.913656    8344.8799    1782.1635     1837.863    1366.7277     24.52797    216.19886   -1237.9817    -4581.501 
26046000    122.67933   -5012.9955   -4776.3981   -5012.9955            0    2536.6009    19.941539    19.878625    20.923031    8294.1066    2596.2945    3103.8439    1909.6642   -18.796411    483.02685   -21.825371   -4469.5683 
26047000    120.90271   -5002.4111     -4769.24   -5002.4111            0    1484.8391    20.139023    20.052695    20.698275    8358.8262     1081.234    1347.2274     2026.056   -44.551707   -449.18677     265.0584   -4588.2309 
26048000    121.31684   -5011.3415   -4777.3718   -5011.3415            0    2179.2543    20.066723    19.995947    20.658248    8289.1868    1562.9482     1922.268    3052.5466    417.48556   -15.397351   -758.75112   -4513.9233 
26049000    128.15001   -5008.9408   -4761.7927   -5008.9408            0    3508.5688    20.040148    19.845248    20.769609     8260.109    3528.2017    3765.3319    3232.1729   -499.49376    6.8856784    -536.7618   -4339.1322 
26050000    120.42568   -5014.5813   -4782.3302   -5014.5813            0    1400.7511    20.024982    20.019249    20.712732    8303.4257    1257.1826    771.38701    2173.6836    291.85847   -228.54463    92.560271   -4612.7036 
26051000    132.28668   -4988.5943   -4733.4683   -4988.5943            0    1423.2238    20.111573    20.003176    20.656477    8310.0043    293.29922    2212.5578    1763.8145   -56.940089   -479.57695   -144.65079   -4560.9837 
26052000    122.63001    -5014.519   -4778.0167    -5014.519            0    3185.7878    20.021607    19.940718    20.682442    8257.3658    2827.8527    3390.7629    3338.7479   -498.84649   -360.16858    699.10738   -4394.3676 
26053000    122.12384   -5018.9478   -4783.4217   -5018.9478            0    1461.2563    20.011097     19.95114    20.858792    8327.7517    1149.7181    1770.2988    1463.7521   -476.16971    436.53154    343.01848   -4605.9496 
26054000    124.66362   -4995.1524   -4754.7281   -4995.1524            0    2561.7846    19.903587    19.999853    20.908113    8322.8675    4044.5702    2393.9424    1246.8412    185.98452    802.52079   -699.01725   -4443.7775 
26055000    119.44105   -4992.6635   -4762.3114   -4992.6635            0    1391.3209    20.059112    20.021684    20.743435    8330.9204     1775.934     623.4637    1774.5649   -275.72847    342.72113   -84.783026   -4593.2688 
26056000    128.79666   -4992.8258   -4744.4306   -4992.8258            0    3324.9915    20.079151    19.982099    20.561593    8249.7958    3401.9761    3102.5944     3470.404   -352.44433    915.81633     333.9038   -4344.3848 
26057000    119.69624   -5013.8351   -4782.9908   -5013.8351            0    2386.1507    19.929113    20.036167    20.744325    8283.2722    3408.0709    1259.2613    2491.1201    156.44894    632.21323   -1150.0684   -4494.7366 
26058000    123.40892   -5004.4899   -4766.4855   -5004.4899            0    2439.7264    19.955556     19.88152    20.894047    8289.6457    2517.0776    2359.2612    2442.8403     280.7052    671.52787    778.78502   -4471.5324 
26059000    124.16023   -5008.8993   -4769.4459   -5008.8993            0    2117.2359    20.080332    19.943631    20.793286    8327.1854    1561.1738    2883.5685    1906.9654   -483.25245    901.29808   -790.70453   -4512.3214 
26060000    119.73047   -4995.8447   -4764.9344   -4995.8447            0     3643.701    20.035015    19.938201    20.737188    8283.7218    4370.4175    2590.8828    3969.8027   -70.916262    1157.1538    39.138301   -4324.7404 
26061000    123.26825   -5000.6553   -4762.9221   -5000.6553            0    2182.0127    20.085901    20.054418    20.659901    8322.0366    2324.5748    1737.2302     2484.233   -107.69264    341.06315    685.00462   -4498.0948 
26062000    127.86427   -4995.2524   -4748.6554   -4995.2524            0    1686.3802    19.982101    20.059409    20.826575    8347.8981    1766.7063     1130.981    2161.4534   -207.97647    426.16902    593.28289   -4543.3462 
26063000    120.76151   -4988.7889   -4755.8902   -4988.7889            0    274.53739    20.174148    19.852914    20.932201    8383.6738    45.406768    296.23819     481.9672   -158.20237   -525.34265   -455.75219   -4722.3232 
26064000    123.98994   -5010.1663   -4771.0412   -5010.1663            0    431.27283    19.965908    20.038403    20.983831    8395.3143    765.37847     522.1107    6.3293023    -149.0467    1053.7812     1039.492   -4718.2375 
26065000    119.33463   -5002.3969     -4772.25   -5002.3969            0    2382.5384    19.974718    19.952201     20.72359     8259.171    3617.5741    1445.0285    2085.0126   -87.696147   -713.99911   -1008.8562   -4485.2696 
26066000    127.79706   -4991.6085   -4745.1412   -4991.6085            0    1862.6142     20.08812    20.029293      20.6911    8325.0811    1299.6248    1821.2174    2467.0002    247.97508    705.91802    446.52926    -4518.996 
26067000    113.60194   -4993.2936   -4774.2028   -4993.2936            0    2511.1691    20.082976    19.984504    20.671223    8296.3603    1973.5265    2944.2961    2615.6846   -137.99814    413.71311    78.301729   -4470.3666 
26068000    127.20072   -5014.3634   -4769.0462   -5014.3634            0    1380.8145    20.113558    19.854653    20.870765    8334.6924    2319.1595    718.80198     1104.482   -279.70183   -1199.8759    63.395128   -4601.2041 
26069000    117.27375   -5009.9996   -4783.8273   -5009.9996            0    879.38257    20.146633    20.027193    20.654414    8333.6533    1057.3392   -123.87196    1704.6805    -533.0647    -709.2122   -340.55006   -4676.9491 
26070000    125.05885   -5006.0159   -4764.8294   -5006.0159            0     854.9798    19.974345    20.055639     20.90973    8376.4012    157.94936    1211.4073    1195.5827    55.859717     -537.524    -1896.059    -4660.384 
26071000    119.96806   -4996.1547   -4764.7862   -4996.1547            0    2066.9601    19.955518    20.013003    20.907928     8349.996    3936.4678    826.09615    1438.3164    226.63242    -262.2724     160.9285   -4513.0798 
26072000     132.7735    -4996.718   -4740.6531    -4996.718            0    2483.8083    20.044006    20.055874    20.639825    8297.2106    2920.9278    2561.5947    1968.9022    601.78769    659.18202    183.72952   -4440.0967 
26073000    119.72911   -5013.9435   -4783.0358   -5013.9435            0    3004.8312    20.160372     19.78454    20.663302    8241.8409    1605.1825    3950.2291     3459.082    69.073017    702.13198    -50.64965   -4421.8587 
26074000    117.61941   -5006.7566   -4779.9176   -5006.7566            0    1010.8577    20.018509    19.927551    20.935385    8351.5409    60.907777    2466.1069    505.55849   -496.37863   -19.858503   -83.825797   -4656.7965 
26075000    123.38141    -5010.323   -4772.3716    -5010.323            0    3800.6221    19.818088    19.840979    20.976128    8248.0286    2605.7139    5251.9332    3544.2191   -184.46376    173.85629    628.07679   -4315.1984 
26076000    126.75967   -5017.0665   -4772.5998   -5017.0665            0    1823.6114    19.952531    20.072562    20.889272    8366.1202    2861.1582    569.76232    2039.9135   -95.476273    -283.0353   -73.470884   -4550.0987 
26077000    123.06044   -5021.6126   -4784.2802   -5021.6126            0       2792.6    20.020747    20.000694    20.626015    8259.2513    3545.4618    563.01722     4269.321   -176.00128   -309.96045    479.76519    -4447.904 
26078000    128.40989   -4998.7297   -4751.0804   -4998.7297            0    1513.5609    19.963346    19.981928     20.88261     8330.201    1427.0098    1136.6719     1977.001   -276.83705    643.39548   -288.18186   -4567.2018 
26079000    121.57452   -5009.0522   -4774.5855   -5009.0522            0    1983.3194    19.939397    19.951674    20.881242    8307.0669    1314.4012    2726.0076    1909.5493   -398.34686    240.15916   -527.29806   -4534.3062 
26080000    126.43976   -4998.8847    -4755.035   -4998.8847            0    2760.6695    20.106311    20.015266    20.613242    8295.4524    2275.9086    3097.2092    2908.8906    115.30729    45.528903     685.7764   -4421.0474 
26081000    130.53763   -5014.1542   -4762.4014   -5014.1542            0    1984.7542    20.034585    19.975055    20.711017    8288.3821    2363.8839    1154.2382    2436.1406   -61.747042    674.25275    566.81764   -4522.4892 
26082000    117.05638   -5003.2292   -4777.4762   -5003.2292            0     1838.655    19.829353    19.987304    20.951574    8303.8484    2035.7549     2794.384    685.82602   -214.62258    33.083286    -465.3916   -4554.8093 
26083000    123.12588   -4998.7229   -4761.2643   -4998.7229            0    1767.5791    20.002196    19.879321     20.88695    8305.2798    1886.3817    2171.3365    1245.0191   -104.42299   -331.42996    405.96114    -4547.168 
26084000    127.12129   -4993.1995   -4748.0354   -4993.1995            0    2246.5941    20.167263    19.929375    20.615043    8285.6178    652.12892    3519.0758    2568.5776   -326.07358    221.98658   -195.00421   -4476.5632 
26085000    122.81621   -5014.9094    -4778.048   -5014.9094            0    2015.3273    20.057654    19.923926    20.834615    8326.0792    2244.9904    2402.4022    1398.5894     60.65383    971.95113    13.183965   -4533.3322 
26086000    119.14822   -5006.7021   -4776.9148   -5006.7021            0    1173.7195    19.981623    20.000204    20.910843    8356.7371     563.4987    1488.3503    1469.3096     390.9056   -411.30406    273.09237   -4633.8684 
26087000    125.55869   -5012.7423   -4770.5918   -5012.7423            0    3461.3641    19.878928    19.907291    20.753533    8212.9119    3688.9646    3863.0941    2832.0338     114.1984    357.06753    -155.6482   -4356.0004 
26088000     124.3313   -5007.4122   -4767.6288   -5007.4122            0    2034.0356    20.080725    19.904422    20.710281    8277.8007    791.30191    3222.2129     2088.592    122.39272    1055.1418    324.77641   -4522.0735 
26089000    118.46413   -5020.9688   -4792.5008   -5020.9688            0    1126.3941    20.041384    19.984744     20.78717    8325.7178    1274.6366    794.94537    1309.6004    50.583828    1051.9615    386.33283   -4655.7317 
26090000    123.96662   -5010.6685   -4771.5884   -5010.6685            0    1803.2492    19.919807     20.05027    20.863601    8332.8704    1758.3005    1850.4211    1801.0261   -62.305231    -44.17865    104.05936   -4552.4461 
26091000    123.36746   -5012.1391   -4774.2146   -5012.1391            0    1602.9996    19.955567       19.964    20.864209    8312.1536    1308.2843    1902.6093    1598.1053   -50.975197    444.81907     290.2048   -4579.8922 
26092000    120.76819   -5003.7143   -4770.8027   -5003.7143            0    2050.1207    20.022364    19.863942    20.822274    8281.4991    3168.8302    1675.7785    1305.7533   -94.057671   -19.102741   -1002.6634    -4523.195 
26093000    125.36959    -4997.893   -4756.1072    -4997.893            0     3009.519    19.947566    19.925043    20.846776    8285.6788    3471.6637    2458.7203    3098.1731   -439.37666    411.97339   -317.00846   -4392.4426 
26094000    119.00127   -4999.0074   -4769.5034   -4999.0074            0    2017.3835    20.065109    19.972194    20.822432    8344.4697    2032.1106    2145.6663    1874.3735    33.205874    399.27698    603.98638   -4523.9969 
26095000    119.79464   -5018.4221    -4787.388   -5018.4221            0    2852.9944    20.079485     19.85913    20.795069    8292.2646    2171.5481    4301.2638    2086.1712   -320.92754   -185.01505   -718.07924   -4442.3635 
26096000    123.51447   -5001.9249   -4763.7169   -5001.9249            0    2155.5898    20.068987    19.860995    20.833139    8303.8821    2369.4517    2573.1456    1524.1722    48.554391    95.829661    -291.8336   -4502.6672 
26097000    123.18507   -5004.8076   -4767.2348   -5004.8076            0    2794.5967    20.044934    20.027503    20.595512    8268.0681    2431.0001    3088.3826    2864.4074    139.08951    420.35863     705.7288   -4430.2587 
26098000     122.7062   -5008.1222    -4771.473   -5008.1222            0    559.55123    20.083198    19.997337    20.807377    8356.4605    1170.6489    -261.4895    769.49424   -50.737826   -679.61909    38.404594   -4703.2802 
26099000    121.07187   -5009.9028   -4776.4055   -5009.9028            0    731.10988    19.929018    19.992901    20.976645    8357.9114    649.68671    1088.8613    454.78164    164.70671   -505.60638   -232.82351   -4687.2893 
26100000    126.24624   -5016.0937   -4772.6172   -5016.0937            0    1702.6147    19.939871    20.038563    20.900584    8351.1705     2282.089    1837.7174    988.03782   -400.57163    364.71753   -184.84666   -4565.2502 
26101000    115.66428   -5011.7134   -4788.6451   -5011.7134            0    1375.1981    20.093194    19.983555    20.735916    8326.1641    858.14936    1328.3342    1939.1106   -102.11065    190.91018   -363.74571   -4621.6568 
26102000    121.98279   -5001.2532   -4765.9991   -5001.2532            0    737.71646    20.209414    19.931609    20.792061    8375.1699   -428.38288    1216.6813     1424.851    125.15924   -685.96558    586.82309    -4675.892 
26103000    125.37084   -5002.4314   -4760.6432   -5002.4314            0    1235.8926    19.921211    19.981452    20.994638    8357.0147    2340.9286    205.06365    1161.6856    47.877456    77.654605   -174.85365   -4610.0144 
26104000    123.32255   -4998.7438   -4760.9059   -4998.7438            0    1452.2091    19.896121    20.207661    20.694447    8320.2868    1330.5129    706.64108    2319.4734    247.96523    623.26256    107.38585   -4584.6907 
26105000    128.97001   -4998.5314   -4749.8019   -4998.5314            0    1664.6248     19.94078    20.022908    20.809319     8308.587    1931.3095    1292.6981    1769.8667   -81.766298   -399.77186     632.5549   -4548.0956 
26106000    124.20731   -5017.7884   -4778.2442   -5017.7884            0     1319.254    19.890802    20.117941    20.750823    8303.6903    1683.0716    483.42254    1791.2678   -159.79807    338.68786    466.99595   -4618.4814 
26107000    123.32126   -5003.2718   -4765.4364   -5003.2718            0    2281.4376    19.974992    19.940814    20.998171    8363.9412    2608.6189    2372.9763    1862.7177    159.15449   -691.28218     133.6045   -4487.1478 
26108000    119.07931   -4989.7655    -4760.111   -4989.7655            0    2307.7412    19.975419     19.92964    20.869081    8308.0421    2126.5552    2394.1251    2402.5432   -272.00933    -54.23814    6.1648854   -4480.4952 
26109000    120.47387   -5002.1478   -4769.8038   -5002.1478            0    2016.5244    19.883545     20.07205    20.755233    8283.4862    2471.5392     1326.099    2251.9349    491.77157    301.70816   -72.464244   -4526.1953 
26110000    130.21069   -5002.9036   -4751.7813   -5002.9036            0    2929.4434    20.030379    19.993757    20.582943    8243.1087    2028.5203    2716.8923    4042.9176   -88.790231     262.0123     721.8465   -4399.6116 
26111000    122.85784   -4991.4743   -4754.5326   -4991.4743            0    1937.5206    20.067315    19.922854    20.791113    8312.2494    1564.8652    1906.1279    2341.5687   -399.96142    515.86894   -697.12811   -4519.6554 
26112000    127.01616   -5007.4725   -4762.5112   -5007.4725            0    2104.5114    19.956553    20.108757    20.752237    8327.9031    2732.1821    1355.2175    2226.1346    186.83618    9.0692027   -408.41241     -4506.91 
26113000     123.5977   -5017.7575   -4779.3889   -5017.7575            0    1713.1725    20.050701    19.977755    20.809842    8335.7562     1559.354    2289.7507    1290.4129    283.33202   -376.43569    134.68993   -4571.1212 
26114000     122.1237   -4998.6371   -4763.1113   -4998.6371            0    2260.3739     19.99044    19.904493    20.947512    8335.0064    215.96837    4090.9785    2474.1749    565.06763    829.26714   -55.427764   -4488.3458 
26115000    121.71172   -5004.6357   -4769.9044   -5004.6357            0    1427.1852    19.958546     19.94022     20.88692    8312.5303    928.81015    2363.3727    989.37265    -283.9112   -79.845789    548.34791   -4596.8871 
26116000    119.33618   -5010.4748   -4780.3249   -5010.4748            0    1925.7116    20.042947     19.94549    20.843477    8332.5215    2848.2784    1151.7875     1777.069   -40.275359    93.788111   -959.92386     -4546.31 
26117000    114.26485   -4999.2666   -4778.8972   -4999.2666            0    2403.9324    20.052908    20.039912    20.560233    8262.3045    2546.9338    2070.1817    2594.6816   -13.125987    1660.8438    65.879543     -4489.23 
26118000    114.95393   -4997.2997   -4775.6014   -4997.2997            0    2942.8198    20.007238     19.91802    20.704807    8250.9601    1912.2426    4323.0162    2593.2007   -83.161449     278.1614    307.45322   -4421.4866 
26119000    114.01319   -4999.4943   -4779.6103   -4999.4943            0    1138.6625     20.00134    20.006039    20.908753    8366.5872    570.34951    1549.1306    1296.5072   -396.09762    236.31379   -139.51793   -4640.6729 
26120000     120.5094   -4996.2298   -4763.8172   -4996.2298            0    2493.6421    19.988337    19.876526    20.881348    8296.1323    3517.6928    2197.2064     1766.027    102.37864    413.46842    681.00974     -4462.11 
26121000    116.62594   -5007.5691   -4782.6462   -5007.5691            0    1737.0631      19.9828    19.941512    20.939653    8344.1843    1798.2624    1532.1618     1880.765   -366.91631      114.334    685.84224   -4571.2606 
26122000    116.26903    -4979.794   -4755.5594    -4979.794            0    1587.0728    20.116247    19.973792    20.810863    8361.7577    1520.6548    903.14935    2337.4141    34.231215    159.67628   -392.65089   -4562.0195 
26123000    122.64638   -5002.9293   -4766.3954   -5002.9293            0    2594.8768     20.06533    19.970215    20.641866    8271.3804    2167.4874    2769.2825    2847.8605   -461.43703   -243.54582     -291.245   -4453.3765 
26124000    126.78405   -5008.8769   -4764.3632   -5008.8769            0    1095.8514    20.011475    19.933128    20.851755    8317.5836    922.64857    1424.3436    940.56197    -242.6313    559.29797    513.08417   -4631.4326 
26125000    122.52361   -4986.5749   -4750.2778   -4986.5749            0    902.14509     19.96622    20.041324    20.857981    8346.3104    1998.3502   -669.64933    1377.7344    91.642459    291.86303    303.85636   -4640.4666 
26126000     116.0949   -5011.0006   -4787.1018   -5011.0006            0    1550.4495    19.962538    19.969749     20.98208    8364.4404    2372.8072    1103.2964     1175.245   -167.68596    139.41221    299.66844   -4597.9675 
26127000    125.32455   -5013.9389   -4772.2399   -5013.9389            0    2356.7318    19.888308    20.059674    20.728158    8269.5605    3101.3613    682.71678    3286.1173     62.38732    132.91589   -128.40222   -4488.0109 
26128000    124.99533   -5013.1658   -4772.1018   -5013.1658            0     1615.037     20.01263    19.931446    20.870173    8324.7087    1553.0277    1409.3179    1882.7655    111.02393   -37.776297    -476.4733   -4576.0245 
26129000     127.8879   -4992.8102   -4746.1676   -4992.8102            0    1869.6862    20.081774    19.994171    20.722882    8320.6187     3074.644    842.89394    1691.5205   -200.33419   -430.92623   -61.062484   -4519.2855 
26130000    121.99972   -5026.1154   -4790.8287   -5026.1154            0    1788.2659    20.070704    19.966125    20.740979    8311.6194    1172.9205     1710.879    2480.9981   -55.763484    116.64421    758.27833   -4574.0615 
26131000    119.11889   -5017.4331   -4787.7023   -5017.4331            0    932.27751     20.06083    19.872092    21.031791    8384.3375    903.73818    1668.7383    224.35606    312.15314     309.3798     741.1274   -4673.7062 
26132000    126.77179   -4997.6931    -4753.203   -4997.6931            0    1948.7018    19.971889    19.858837    20.917055     8296.091     3081.574    1298.0505    1466.4807   -654.01696    385.70635   -244.54218   -4517.4296 
26133000    126.63618   -4997.0464   -4752.8179   -4997.0464            0    2142.8446    20.099215    19.949091    20.747751    8319.0404    1705.3339    3132.0959    1591.1041   -166.83523    772.19993    133.40842    -4492.838 
26134000    119.97738   -5009.1469   -4777.7604   -5009.1469            0    1446.6478    20.094279    20.082065    20.576372    8303.2785    43.637357    1428.6307    2867.6753    36.812253     454.8397   -302.71292   -4602.5789 
26135000    121.79018   -5004.3919   -4769.5093   -5004.3919            0    1926.2166    19.800425     20.01706    20.881939    8276.4792    3087.8042    912.20982    1778.6358    145.86843   -295.71012   -251.82096   -4537.0074 
26136000    126.08974    -5009.628   -4766.4533    -5009.628            0    1910.9832    20.014212    19.965259    20.786868    8306.2021    665.69885    2668.4337    2398.8171   -378.05426    252.45912   -73.028461   -4534.9617 
26137000    121.67755   -5012.4606   -4777.7953   -5012.4606            0    1657.5824    19.901889    20.078602    20.749429    8291.5153    2659.5614   -105.18033    2418.3662   -24.550577    1363.2764   -768.57193    -4577.355 
26138000    118.87149   -5003.0755   -4773.8218   -5003.0755            0    1484.2799     19.97547    20.090148    20.746141     8325.637    1034.4919    1683.4909     1734.857    155.62962   -229.90617    859.49629   -4593.5992 
26139000    117.54665   -5015.4079   -4788.7093   -5015.4079            0    2277.6078    19.938204    19.860244    20.967391    8302.6172    2555.7547    2021.4514    2255.6173   -455.55458    624.75461    -56.07884   -4512.9248 
26140000    124.28831   -5004.5872   -4764.8867   -5004.5872            0    1652.5755    20.024123     19.95541     20.93479     8365.324    944.85582    2455.6694    1557.2013   -106.38342   -386.90151    1293.3274   -4563.2731 
26141000    124.61405   -5011.9933   -4771.6646   -5011.9933            0    1131.3046    19.869472    20.053514     20.86317    8312.9869    1556.4712   -4.6105667    1842.0533   -374.32008   -221.20594    -475.0273   -4634.5093 
26142000    119.14558   -5000.9155   -4771.1332   -5000.9155            0    1427.8321     20.05362    19.948457    20.787782    8315.9185    439.69297     3026.355    817.44841   -65.841275    1092.4645    386.44305    -4597.967 
26143000    119.09568   -5005.1468   -4775.4607   -5005.1468            0    1153.9212    20.073655    19.902017    20.922693    8358.7464    799.51561    1287.9842    1374.2638   -121.04925   -599.99799   -173.15921   -4634.7934 
26144000    123.11625   -5003.9526   -4766.5126   -5003.9526            0    2205.8345     20.06654    19.932384    20.688906    8275.0242    1465.6044    2216.7355    2935.1636    527.71666    941.45316    60.312713   -4500.3064 
26145000    121.05656   -5002.1924   -4768.7246   -5002.1924            0    1742.8723      20.0789    19.935779     20.65777    8269.0679    540.88706    2814.4212    1873.3086     355.2725    95.796892    635.11344   -4558.5414 
26146000    118.93153   -5010.2937   -4780.9242   -5010.2937            0    1286.1935    20.035958      19.9628    20.853801    8340.9744    2545.5849   -195.20533    1508.2009    50.744522   -355.21071   -23.251707   -4624.4658 
26147000    113.32887   -5001.5789   -4783.0147   -5001.5789            0    2132.7119    20.134186    19.771634    20.755501    8262.4692    788.86089    3320.9657    2288.3092   -194.21121   -1005.0067   -392.19671   -4526.0236 
26148000    117.03417   -5000.9369   -4775.2266   -5000.9369            0    2345.1792     20.03836    19.860115    20.775243    8267.8018    3187.1501    1685.1942    2163.1932   -222.38925    60.903518   -360.94385    -4492.451 
26149000    126.06628   -5001.7445    -4758.615   -5001.7445            0    2693.9963    19.961247    19.929526    20.748359    8254.0743    3743.8814    1800.5727     2537.535     81.90041    279.52374   -212.01575   -4434.3193 
26150000    117.08654   -4999.0558   -4773.2445   -4999.0558            0    1504.4354    19.989022    20.070518    20.821712    8353.4633    2142.3531    1074.1587    1296.7943   -93.074661    120.57913    146.43607   -4589.9642 
26151000    130.55751   -5005.5278   -4753.7366   -5005.5278            0    1607.5231    20.141727    19.922742    20.716356     8313.027    234.20199    2789.1537    1799.2137   -776.48873    37.574375    101.02206   -4558.8454 
26152000    122.22019   -4997.1475   -4761.4355   -4997.1475            0    996.63747    20.062843    19.948176    20.954777    8386.4609    1288.1295   -50.925299    1752.7082    -209.7177    272.99642    209.09279   -4639.5389 
26153000    124.02818   -5009.2887   -4770.0899   -5009.2887            0     1863.729    19.855251    20.063028     20.90436     8327.387    2069.4645    1992.6412    1529.0812    41.759307     165.2183   -369.45231   -4543.7467 
26154000    121.18159   -5003.0382   -4769.3294   -5003.0382            0    2595.7649    19.838152    20.073225    20.851507    8303.3973    3322.0236    1773.7761    2691.4949   -33.639657    782.63292   -867.17624   -4454.9912 
26155000    120.47345   -5000.6171    -4768.274   -5000.6171            0    2594.8986    20.026685    19.940368    20.772333    8295.2124    2829.1723    1978.5446    2976.9789   -513.83302   -417.04916    88.134816   -4454.3505 
26156000    118.70319   -5008.1057   -4779.1767   -5008.1057            0    2062.8594    20.046728    19.959597    20.806579    8325.2246    1634.9408    2611.7118    1941.9255    16.363314    -223.2122    283.03024   -4528.7149 
26157000    130.88448   -5019.8225   -4767.4008   -5019.8225            0    1033.3641    20.003368    19.965039    20.900631    8347.0438   -292.30514    2383.7907    1008.6068   -7.3997352    -372.6514   -237.61592   -4641.6062 
26158000     119.7474   -5016.3272   -4785.3843   -5016.3272            0      1160.03    19.951661    20.173813    20.692369    8328.7007    642.20641    473.10363    2364.7798   -355.45814   -176.89334    66.079613   -4644.4806 
26159000    119.34307   -5008.1938   -4778.0307   -5008.1938            0    1920.2994    20.020077    19.962183    20.762936    8297.7922    2092.2413    1832.9799    1835.6769    22.331208    -307.4001     328.8464   -4545.6461 
26160000    122.25179   -5005.9876   -4770.2148   -5005.9876            0      719.692    20.035964    19.976493    20.909002    8368.7923    853.21166    638.24266    667.62168   -125.29806    525.21404   -568.78394   -4682.3762 
26161000     118.6528   -5005.7967   -4776.9648   -5005.7967            0     2186.978    19.975916    19.916729    20.823958     8284.914    2177.8319    2981.6888    1401.4132   -441.21768    763.89045   -476.53682   -4512.7189 
26162000    122.49023   -5003.5217    -4767.289   -5003.5217            0    2098.7669    19.972258    20.048896       20.722    8297.5386    2211.1688    1884.6661    2200.4659   -6.5705491    390.81561    321.41617   -4513.3149 
26163000    124.14767    -5001.689   -4762.2598    -5001.689            0    1788.4074    20.048931    20.056123    20.701825    8324.2831    2506.9301    1348.0427    1510.2494      269.143     218.4225   -592.00753   -4545.1451 
26164000    121.30977   -5013.5584   -4779.6023   -5013.5584            0    605.62953    20.047237     19.98869    20.877198    8365.8691   -363.40922    1509.2176    671.08016   -254.22982    371.04607   -14.819701   -4705.7109 
26165000    121.48608   -5005.1372    -4770.841   -5005.1372            0    1647.0451    20.081557      19.8387    20.872559    8315.4607     1228.834      3079.56    632.74141   -316.47069    157.09675    153.75768   -4571.0998 
26166000     124.4429   -5000.6463   -4760.6477   -5000.6463            0    1395.3285    20.053947    19.843121    20.915029    8322.7781    1385.5669    1741.5589    1058.8595   -104.01197    203.32223     1074.671   -4591.2839 
26167000     122.2532   -5004.6864   -4768.9108   -5004.6864            0    1886.4848    19.966172    19.968723    20.826011    8303.3094    2093.1348    1674.7176    1891.6021   -261.94099   -697.66452    -590.6103   -4540.4664 
26168000    121.44962   -4985.9922   -4751.7664   -4985.9922            0    1603.7611    19.917779    20.049149    20.809852    8310.0925    2111.6467    1769.6206    930.01612    143.91091    179.55645   -71.290839   -4557.3999 
26169000    130.35797   -5004.7165   -4753.3102   -5004.7165            0    3249.5121    19.982158    19.960091    20.682815    8249.2516    3637.7008    3093.0914    3017.7442   -770.29895    -132.6585    441.51139   -4362.3716 
26170000    121.48289   -4999.7794   -4765.4894   -4999.7794            0    1762.4583    19.919793    20.010583    20.967578    8357.8165    3116.6634    885.90872    1284.8029   -554.26264    358.27941   -29.504634   -4550.6631 
26171000     123.5716   -4998.0951   -4759.7768   -4998.0951            0     2104.809    19.986684    19.943668    20.846618    8309.6244     2280.183    1913.3058    2120.9381   -164.92676   -145.62159   -476.21865   -4504.7006 
26172000    120.26637   -5007.3103   -4775.3665   -5007.3103            0    1877.3378    19.927036    20.064337    20.784661    8310.1806    2381.3445    1410.1024    1840.5665    -45.04931    240.52368   -852.82502   -4547.8417 
26173000    116.59785   -5006.3901   -4781.5213   -5006.3901            0    1260.3519    20.048642    19.890326    20.818587    8301.9117   -12.475096    2282.3184    1511.2125   -354.37095    537.34365   -52.277276   -4628.9244 
26174000    123.35037    -5007.373   -4769.4815    -5007.373            0    1252.9115     19.91215    20.049951    20.873254    8333.3885    2000.5822    89.811316     1668.341   -498.72809   -83.830812   -421.00076   -4617.2102 
26175000    119.60197   -5002.6825     -4772.02   -5002.6825            0    1841.2506    19.900854    20.109379    20.710061    8288.0382    932.39774    2634.0928    1957.2614   -147.82125    491.70787   -171.48947   -4549.4634 
26176000    122.29325   -5018.4326   -4782.5798   -5018.4326            0    1163.3836    20.151767    20.064206    20.782756    8403.0753    88.842166    1381.7156     2019.593   -213.61033   -1092.8353    319.71975   -4640.0068 
26177000    124.82264   -5005.1974   -4764.4664   -5005.1974            0    1645.8984    19.987241     19.93496    20.899509    8327.3019    -585.1058    3903.5718    1619.2292   -308.11962    1006.5832   -736.83333     -4564.58 
26178000    121.38679   -5002.9228   -4768.8181   -5002.9228            0    1503.6033    20.033282    19.849461    20.907693    8313.9405    873.51763    2424.6665    1212.6258   -611.26201     1382.343    807.73617   -4586.5058 
26179000    127.66855   -5002.6663   -4756.4468   -5002.6663            0     1655.985    20.025064    19.983238    20.829182    8335.1221    2448.6734    1428.0797     1091.202    83.143679    91.510506   -130.45086   -4555.1465 
26180000    126.56018   -5002.0553   -4757.9733   -5002.0553            0    2464.3059    20.132747    19.751926    20.751989    8252.2471    1435.9043    3485.0599    2471.9535   -694.01208   -139.89169    53.691326   -4461.3927 
26181000    122.97787   -5008.0333   -4770.8601   -5008.0333            0    2716.8368    20.148282    19.847375    20.768706    8305.2089    4305.1467    2515.9836    1329.3799   -230.70312   -329.05615   -57.740498   -4441.7888 
26182000    120.70967   -5001.0778    -4768.279   -5001.0778            0    2364.6198    20.119347    19.860198     20.74184    8287.9044    1088.6091    2651.6462    3353.6041    -333.6155    1112.3701    149.02142    -4482.466 
26183000    117.83562    -5010.423   -4783.1671    -5010.423            0    3203.7601    19.932054    19.801576    21.079216    8319.6734    3613.3222    4061.9919    1935.9661    38.301286    17.528621   -84.138978   -4394.4423 
26184000    118.83308   -5013.8703   -4784.6907   -5013.8703            0    2288.3534    20.053357    19.892515     20.79191    8294.1363    1724.6173    3163.3781    1977.0648   -411.83376    341.75382     974.4453   -4507.8881 
26185000    120.85158   -4990.3731   -4757.3007   -4990.3731            0    2163.6175    20.038928     19.99987    20.711612    8300.7163    457.26912    3456.1815     2577.402    161.34503    75.527814    730.61452   -4495.3787 
26186000    130.90803   -5010.0783   -4757.6112   -5010.0783            0     3234.632    19.922828    19.837484    20.857443    8243.2536    2659.8812    4982.7318    2061.2829    519.58105    833.41278   -283.69446   -4368.7457 
26187000    121.97762   -5009.6366   -4774.3925   -5009.6366            0    2394.2339    20.027028    19.980107    20.824809    8332.8844     1768.868    2763.7141    2650.1197   -666.94869    271.38772    31.691289   -4483.4295 
26188000    126.57192   -5006.1182   -4762.0136   -5006.1182            0    2596.6002    19.923226    19.983354    20.826376    8291.6654    3208.4949    2314.3888    2266.9169   -176.65618    679.52998   -660.49995   -4448.0186 
26189000    119.87865   -5012.8287   -4781.6326   -5012.8287            0    2797.2263    19.963973    19.989974    20.664788     8246.889    3484.9381    2159.2127     2747.528    191.17595    410.71887   -576.11758   -4445.2034 
26190000    127.63885   -4993.3356   -4747.1733   -4993.3356            0    2215.9847    20.208466    20.001345    20.491221    8282.4797    554.28348    2832.6125    3261.0582   -261.35897    989.85534   -310.26814   -4479.5013 
26191000    123.20173   -5003.0603   -4765.4554   -5003.0603            0    1627.2354    19.948118    19.856539    20.969519    8306.0389    583.47067    3373.6611    924.57429   -626.95273    333.21382   -7.2377653   -4568.3401 
26192000    124.96087    -5005.843   -4764.8455    -5005.843            0    1452.3877    19.949796    20.000166    20.995496     8377.187    2138.2162    1494.6205    724.32622    107.35481    557.14451    -904.8994   -4587.4034 
26193000    129.68226   -5013.6796   -4763.5765   -5013.6796            0    2716.1673      19.9657    19.977325    20.696086    8254.8674    3049.5658    2386.1842    2712.7518   -309.14461    807.81964     353.8502   -4436.5804 
26194000    126.71804   -4999.3658   -4754.9794   -4999.3658            0    2883.4904    20.131948    19.890821    20.649948    8269.0851    865.68377    3677.4154    4107.3719   -195.87135   -206.38084    416.39984   -4407.2416 
26195000    121.99643   -5003.6436   -4768.3632   -5003.6436            0    2027.0317    20.088736    19.918705     20.88441    8356.7211    2161.5192    2346.1098     1573.466    141.57179   -161.57464   -251.56849   -4521.3203 
26196000    127.45356   -5021.6536   -4775.8486   -5021.6536            0    1643.8985    19.906915    19.986442    20.833629    8289.0425    1352.4594    2114.2529    1464.9833   -137.75005    1467.3232    139.86808   -4577.1224 
26197000    121.82637   -5001.0142   -4766.0618   -5001.0142            0    2250.6432    19.960957     19.84507    20.880988    8271.5143    2012.8482    2051.6015    2687.4801    54.902927    868.42576     670.0911   -4494.5632 
26198000    124.71359   -5004.1253   -4763.6046   -5004.1253            0    3379.9056    20.028788    19.741116    20.888748    8259.2151    2763.5147         4444     2932.202    573.16089    197.55367    636.88756   -4356.4876 
26199000    125.79721   -5000.1433   -4757.5328   -5000.1433            0     2826.756     19.94479    19.927476    20.863655    8292.2452    2715.1247    2905.1974    2859.9459    261.60665    828.47799   -91.960895   -4415.6822 
26200000    126.68178   -5016.0163   -4771.6999   -5016.0163            0    4108.2967    19.965267    20.044039    20.615553    8250.0266    2540.4907    5325.1212    4459.2783   -434.31954     376.1718   -37.555859   -4277.3971 
26201000    122.81721   -5009.0235   -4772.1601   -5009.0235            0    145.66121    20.063914    20.065113    20.768629    8361.1319    201.52836   -80.998775    316.45405    104.49259    324.73668    428.84224   -4754.3984 
26202000    126.62866   -5012.9661   -4768.7521   -5012.9661            0    1628.8529     20.06699    19.924791    20.787488    8311.4731    -321.1843    3013.5134    2194.2295   -61.257322    89.006216   -101.52617   -4571.3118 
26203000    115.08227   -5002.8232   -4780.8773   -5002.8232            0    1428.2364    20.067312    19.963128    20.884427    8366.4335      698.372    2296.8656    1289.4715    111.25573    -238.3048    756.77082   -4606.6098 
26204000    120.72076   -5012.1466   -4779.3265   -5012.1466            0    2304.7751    19.975161    19.976181    20.786135    8294.2378    2881.7862    2091.4819    1941.0573    147.35129    685.59197   -650.62847   -4500.5341 
26205000      115.042    -5004.237   -4782.3688    -5004.237            0    3397.3331    19.768152    20.085938    20.783613    8252.3805    5082.2173    2582.7461    2527.0361   -71.844472    498.62788   -50.595516   -4373.4913 
26206000    121.21653   -5016.6602   -4782.8839   -5016.6602            0    1163.2067    20.098937    19.976217    20.814937    8357.2125    173.32459    1621.3485    1694.9469     74.66891   -781.78534    297.17787   -4641.1107 
26207000    128.31527    -5019.847   -4772.3802    -5019.847            0    1911.4257    19.992651    19.993243     20.86199    8338.9116     2002.808      2327.52    1403.9491    -222.4723    -636.7728    107.84634   -4539.9232 
26208000    124.10962   -4999.7256   -4760.3698   -4999.7256            0     1610.613     20.01389    20.167021     20.54877    8293.9057    1030.5586     735.5474     3065.733   -422.88794    62.575379   -228.24589   -4565.5531 
26209000      124.795   -5011.5337    -4770.856   -5011.5337            0    2716.8524    19.980484    19.926317    20.799261     8280.965      2869.79    3128.6866    2152.0806   -179.83432    559.72124    226.29621   -4442.7434 
26210000    128.26971   -5002.2592   -4754.8803   -5002.2592            0    1478.0598    20.038752    19.961212    20.884739    8353.8487    1545.9044    1297.1188    1591.1563   -214.21893   -192.62898    -21.52723   -4574.8048 
26211000    119.24519   -4998.6612   -4768.6868   -4998.6612            0    1109.8615    19.850122     20.00313    21.021383    8346.8467    1571.7605    932.22835    825.59568   -230.38053   -96.967851    742.82583   -4633.5832 
26212000    124.62067   -5009.2515     -4768.91   -5009.2515            0    1001.7853    19.949555    20.016315    20.800871    8306.1327    82.807662    1590.9994    1331.5489   -133.42209   -628.11063   -135.22568   -4647.5574 
26213000    128.04285   -5000.9021   -4753.9607   -5000.9021            0    3061.3934    19.892223    19.862352    20.866348    8244.4264    3823.5333    3195.6197    2165.0273    258.96349    -564.8342    690.13955   -4385.8695 
26214000    125.80216   -5007.8047   -4765.1847   -5007.8047            0    2131.1165    19.945298    19.967872    20.848145    8303.0898      1543.51    2375.6389    2474.2007   -216.35899   -609.58663     366.6377   -4507.1234 
26215000    121.99366   -5025.4481    -4790.173   -5025.4481            0    2258.0916    19.924044    19.977786    20.722939    8248.5231     3413.319    923.91264    2437.0432   -38.501586    863.24641   -127.48735   -4518.5331 
26216000    118.50201   -5004.2144   -4775.6733   -5004.2144            0     2981.192    20.110933    19.848305     20.77175    8291.4166    1788.6843    4077.4595    3077.4322    2.2379182     67.70239    1152.6527   -4415.1822 
26217000     117.9863    -5012.867   -4785.3205    -5012.867            0    1548.0405    20.007936    19.933268     20.79639    8294.0899    826.86573     2514.762    1302.4939    485.92618    390.93216   -78.805621   -4598.0683 
26218000    129.16887   -5008.0088   -4758.8958   -5008.0088            0     1932.201    19.953385    20.015244    20.760133    8291.0133    2059.3661    2150.6588    1586.5781   -165.54054    738.03691    160.12017   -4525.2619 
26219000    122.98456   -5001.1572   -4763.9712   -5001.1572            0    2516.8152    19.958442    19.928566    20.982349    8345.5852    2824.3378    1890.1643    2835.9434   -3.7338836    1295.2554    574.26696   -4457.6451 
26220000    119.42325   -5013.1623   -4782.8445   -5013.1623            0    2788.0283     19.95791    19.940157    20.827829     8288.723    2551.3937    2904.1415    2908.5497   -174.44519    585.51758    896.23707   -4445.8206 
26221000    116.51277   -4994.5952   -4769.8905   -4994.5952            0     1676.767    20.142579    19.830523    20.780676    8300.5892    787.75505    2706.2606    1536.2854   -293.36161    123.60116   -96.934018   -4566.9085 
26222000    122.07173   -5017.2103   -4781.7848   -5017.2103            0    1935.4079     19.94804    20.026586    20.828036    8320.6153    2399.8684    1292.0588    2114.2965   -227.48336   -434.65839   -249.48021   -4546.9276 
26223000    121.60313   -5011.3661   -4776.8443   -5011.3661            0    1518.5515    19.833526    20.017158    20.896881    8296.2879    2544.0357    1364.7157    646.90293   -337.66153    78.527499     269.7926   -4593.1104 
26224000    120.41171   -5001.4105   -4769.1863   -5001.4105            0    1422.4418    20.017581    19.995756    20.741028    8301.9418    1243.4595    1821.7583    1202.1077    275.86198   -487.26685   -819.52298   -4596.9638 
26225000      119.063   -5010.1558   -4780.5328   -5010.1558            0    1972.0474    20.090362    19.873719    20.729303    8276.5933    42.254556    3861.5153    2012.3723   -21.889061    100.40972   -187.29429   -4542.4956 
26226000    122.28461   -5006.1389   -4770.3027   -5006.1389            0    2558.4996    19.965343       19.864    20.818612    8256.4865    2927.6306    2980.0937    1767.7744   -77.295279      428.799   -723.05579   -4462.2277 
26227000    136.34719   -5004.0901   -4741.1331   -5004.0901            0    2517.8414    20.063808    19.826676    20.955158    8335.9327    2104.6261    3442.1958    2006.7023    345.75031    39.488906    730.62426   -4435.0365 
26228000    124.19464   -4998.9625   -4759.4427   -4998.9625            0    1124.5263    19.977824    20.051166    20.821333    8340.5816    2281.7459    244.40464     847.4283    421.61094    998.75948   -220.24745   -4622.6566 
26229000    123.34273   -5000.1139    -4762.237   -5000.1139            0    1995.5151    20.085925     19.99688    20.759788    8338.2897    556.84927    3232.0577    2197.6385    -175.1636     1153.016   -352.16596   -4519.5716 
26230000     126.5378   -4995.2481   -4751.2093   -4995.2481            0    2665.6345    20.037435       19.927    20.739325    8280.9214    3255.9049      2379.94    2361.0586   -150.19483   -873.91993    795.38041    -4429.284 
26231000    126.95083   -5002.1028   -4757.2675   -5002.1028            0    2893.1288    19.991995     19.82826    20.881942    8277.7368    2064.8612    3905.5199    2709.0053    22.055102   -25.893353   -530.64653   -4408.0023 
26232000    125.48084   -5012.5395   -4770.5391   -5012.5395            0    1023.8252    20.012994    20.066947     20.84495    8371.3256    852.21072    270.19101    1949.0738   -300.74688   -33.381965   -768.50417   -4645.5432 
26233000    125.36902   -5012.9716   -4771.1869   -5012.9716            0    1914.5433     20.12213    19.996985    20.600144     8289.126    2076.3766     1668.185    1999.0683     303.0685    138.39443    443.16137   -4539.7409 
26234000    125.49403   -5003.2812   -4761.2554   -5003.2812            0    882.27217    20.092454    20.104553    20.675564    8351.8902    300.02846    371.85998    1974.9281    189.13333   -879.99239    -75.53458   -4653.7914 
26235000    121.56034   -5017.8183   -4783.3789   -5017.8183            0    1843.8146    19.893101    19.978214    20.955506    8328.3179    2203.7637    1686.3075    1641.3727   -5.9391769   -49.223008    401.48356   -4559.4292 
26236000    115.18534   -5000.3853   -4778.2407   -5000.3853            0    3756.4775    19.846829    20.037788    20.768383    8259.3063    4808.4874    3106.2323     3354.713   -403.72661   -502.65587   -235.75982   -4325.7598 
26237000    119.09197    -5003.648   -4773.9691    -5003.648            0    1287.7742    19.989864    20.131627    20.747087    8349.2184    2185.5114   -292.74417    1970.5554   -87.320832    -359.3431   -117.77912   -4617.1635 
26238000    124.87123    -5003.403   -4762.5783    -5003.403            0    2282.8813    19.990116    20.054622    20.808462    8341.9921    1730.0618    2773.0043    2345.5779   -107.61301     611.9022   -188.32477   -4484.8444 
26239000    117.33472   -4996.9066   -4770.6167   -4996.9066            0    1412.0279    19.900722     20.01444     20.84402    8302.2105     1693.142    1552.6522    990.28943   -78.509351   -90.332685   -55.687767   -4599.6494 
26240000    124.60886   -5005.0628   -4764.7442   -5005.0628            0    1970.2919    19.979996    20.020773    20.787973    8315.5002    2372.0481    1512.0563    2026.7714    -307.5376    301.06547   -261.04923   -4525.8009 
26241000    116.71484   -5003.2467   -4778.1523   -5003.2467            0    1644.8053    19.969687    20.057982    20.658323     8274.725    1680.8207    1066.1624    2187.4327     35.53915    427.95916   -1110.4539   -4579.6599 
26242000    124.22088   -5010.9112   -4771.3408   -5010.9112            0    1374.9847    19.929671    20.104529    20.802312    8335.0006    1643.2031    145.60576    2336.1451   -139.02828    600.41666   -444.76886   -4604.2012 
26243000    123.02517   -4995.6616   -4758.3972   -4995.6616            0    2952.0393    19.833781    20.023919    20.718497    8228.3517    2554.8986    2211.0574    4090.1621    -351.8391    791.83616    3.3996147   -4404.1464 
26244000    124.85335    -5002.402   -4761.6118    -5002.402            0    953.05761    19.863342    19.920431    21.052069    8330.0163    1325.4819    1595.7782   -62.087286    21.482639    1014.2698    385.81158   -4645.8298 
26245000    128.76663   -4998.3957   -4750.0585   -4998.3957            0    1188.5591    19.932542    20.043475    20.777455    8300.9548    309.38455    2408.2694    848.02321    1.9116085    1360.2048   -704.41025   -4606.1704 
26246000    124.63748   -4996.9831   -4756.6092   -4996.9831            0     2056.471    19.989757    20.084183    20.647604    8289.5576    1959.6571    1173.6602    3036.0956    39.237769   -232.40423   -356.61539   -4507.9928 
26247000    127.53562   -5015.4872    -4769.524   -5015.4872            0    2221.1567    19.873084    20.048661    20.695371    8245.6301    2303.7129    1872.3302     2487.427   -171.60621    615.29953    775.11019   -4502.4209 
26248000    124.02326   -5001.4389   -4762.2496   -5001.4389            0    3195.2897    19.890207    19.892141    20.998141     8308.099    5061.8128    2757.4462    1766.6102    8.6767247   -258.81267   -465.27441    -4375.092 
26249000    116.66835   -5006.7188   -4781.7141   -5006.7188            0    1421.3463    20.046635    19.950505    20.777993    8309.9609    232.59677    2490.7454    1540.6967   -205.68099    367.18357   -560.19328   -4609.4579 
26250000    123.32505   -4988.5861   -4750.7434   -4988.5861            0    1873.5871    19.925352    20.018033    20.804611    8298.2594    2348.0585    1421.5643    1851.1386   -79.878046    1547.4129     102.3496   -4523.9989 
Loop time of 350.801 on 64 procs for 250000 steps with 972 atoms

Performance: 123.147 ns/day, 0.195 hours/ns, 712.655 timesteps/s
194.8% CPU use with 32 MPI tasks x 2 OpenMP threads

MPI task timing breakdown:
Section |  min time  |  avg time  |  max time  |%varavg| %total
---------------------------------------------------------------
Pair    | 26.542     | 34.718     | 44.553     |  77.0 |  9.90
Bond    | 1.0685     | 1.2022     | 1.4571     |   9.1 |  0.34
Kspace  | 154.01     | 164.49     | 173.41     |  35.7 | 46.89
Neigh   | 0.85025    | 0.89027    | 0.96755    |   3.6 |  0.25
Comm    | 59.534     | 64.796     | 68.507     |  26.2 | 18.47
Output  | 0.62122    | 0.62153    | 0.62309    |   0.0 |  0.18
Modify  | 68.375     | 70.04      | 73.037     |  14.4 | 19.97
Other   |            | 14.04      |            |       |  4.00

Nlocal:        30.3750 ave          36 max          24 min
Histogram: 1 2 2 5 3 5 6 3 3 2
Nghost:        2624.44 ave        2656 max        2591 min
Histogram: 3 1 4 3 2 3 7 6 1 2
Neighs:        9498.44 ave       11930 max        7452 min
Histogram: 5 1 3 4 3 7 3 3 1 2

Total # of neighbors = 303950
Ave neighs/atom = 312.70576
Ave special neighs/atom = 2.0000000
Neighbor list builds = 2679
Dangerous builds = 0

unfix		3
unfix		2
unfix		1

write_data	data.final.${pid}
write_data	data.final.1
System init for write_data ...
PPPM initialization ...
  extracting TIP4P info from pair style
  using 12-bit tables for long-range coulomb (../kspace.cpp:340)
  G vector (1/distance) = 0.37246758
  grid = 24 24 25
  stencil order = 5
  estimated absolute RMS force accuracy = 0.003400293
  estimated relative force accuracy = 1.0239881e-05
  using double precision FFTW3
  3d grid and FFT values/proc = 3458 576
Last active /omp style is kspace_style pppm/tip4p/omp
WARNING: Not all mixed pair coeffs generated from mixing. Use write_data with 'pair ij' option to store all pair coeffs. (../write_data.cpp:312)

write_restart   restart.lmp.${pid}
write_restart   restart.lmp.1
System init for write_restart ...
PPPM initialization ...
  extracting TIP4P info from pair style
  using 12-bit tables for long-range coulomb (../kspace.cpp:340)
  G vector (1/distance) = 0.37246758
  grid = 24 24 25
  stencil order = 5
  estimated absolute RMS force accuracy = 0.003400293
  estimated relative force accuracy = 1.0239881e-05
  using double precision FFTW3
  3d grid and FFT values/proc = 3458 576
Last active /omp style is kspace_style pppm/tip4p/omp
Total wall time: 0:05:50
