#include		in.partitions
include		in.temp
variable        temperature equal 95.56
variable	tempDamp equal 100.0
include		in.pressure
variable        pressure equal 7858.3
variable        pressureDamp equal 1000.0 # This is 1 ps
include		in.seed
variable        seed equal 745823

units		real
atom_style	full
box tilt large
read_restart	restart.lmp.${pid}
read_restart	restart.lmp.0
Reading restart file ...
  restart file = 30 Jul 2021, LAMMPS = 30 Jul 2021
  restoring atom style full from restart
  triclinic box = (-10.533821 -9.0577023 0.17737596) to (12.513821 12.047700 21.682623) with tilt (-9.0668030 1.6187316 2.6660907)
  4 by 2 by 4 MPI processor grid
  restoring pair style lj/cut/tip4p/long/omp from restart
  restoring bond style harmonic/omp from restart
  restoring angle style harmonic/omp from restart
  1296 atoms
  864 bonds
  432 angles
Finding 1-2 1-3 1-4 neighbors ...
  special bond factors lj:    0        0        0       
  special bond factors coul:  0        0        0       
     2 = max # of 1-2 neighbors
     1 = max # of 1-3 neighbors
     1 = max # of 1-4 neighbors
     2 = max # of special neighbors
  special bonds CPU = 0.002 seconds
  read_restart CPU = 0.008 seconds
include 	in.setup
variable	out_freq equal 1000
variable	out_freq2 equal 10000
variable	out_freq3 equal 1000

timestep	2.0

neigh_modify    delay 7 every 1

include		in.tip4p
# This is TIP4P/Ice

# create groups ###
group ox type 2
432 atoms in group ox
group hy type 1
864 atoms in group hy

# set charges - beside manually ###
set group ox charge -1.1794
Setting atom values ...
  432 settings made for charge
set group hy charge 0.5897
Setting atom values ...
  864 settings made for charge

# ### TIP3P Potential Parameters ###
pair_style lj/cut/tip4p/long/omp 2 1 1 1 0.1577 8.5
pair_coeff 1 1*2 0.000 0.000
pair_coeff 2 2 0.21084 3.1668
bond_style  harmonic
bond_coeff  1 450 0.9572
angle_style harmonic
angle_coeff 1 55 104.52
kspace_style pppm/tip4p/omp 1.0e-5
pair_modify tail yes

thermo          ${out_freq}
thermo          1000
thermo_style    custom step temp pe etotal epair emol press lx ly lz vol pxx pyy pzz pxy pxz pyz enthalpy

restart 	${out_freq3} restart.lmp.${pid} restart2.lmp.${pid}
restart 	1000 restart.lmp.${pid} restart2.lmp.${pid}
restart 	1000 restart.lmp.0 restart2.lmp.${pid}
restart 	1000 restart.lmp.0 restart2.lmp.0


include         in.dump
dump            myDump all atom ${out_freq2} dump.water.${pid}
dump            myDump all atom 10000 dump.water.${pid}
dump            myDump all atom 10000 dump.water.0
dump            myDump2 all dcd ${out_freq2} dump.dcd
dump            myDump2 all dcd 10000 dump.dcd
dump_modify     myDump append yes
dump_modify     myDump2 append yes


variable natoms 	equal  "count(all)"                        # NUMBER ATOMS
variable H      	equal  "enthalpy/v_natoms"                 # ENTHALPY-per-atom
variable Vol      	equal  "vol/v_natoms"                 # volume-per-atom
fix AVG all 		ave/time ${out_freq} 1 ${out_freq} v_Vol v_H file vol_enthalpy.dat
fix AVG all 		ave/time 1000 1 ${out_freq} v_Vol v_H file vol_enthalpy.dat
fix AVG all 		ave/time 1000 1 1000 v_Vol v_H file vol_enthalpy.dat


timer           timeout 10:00:00 every 1000
New timer settings: style=normal  mode=nosync  timeout=10:00:00

fix 		1 all shake 1e-6 200 0 b 1 a 1
       0 = # of size 2 clusters
       0 = # of size 3 clusters
       0 = # of size 4 clusters
     432 = # of frozen angles
  find clusters CPU = 0.001 seconds
fix             2 all nph tri ${pressure} ${pressure} ${pressureDamp}
fix             2 all nph tri 7858.3 ${pressure} ${pressureDamp}
fix             2 all nph tri 7858.3 7858.3 ${pressureDamp}
fix             2 all nph tri 7858.3 7858.3 1000
fix             3 all temp/csvr ${temperature} ${temperature} ${tempDamp} ${seed}
fix             3 all temp/csvr 95.56 ${temperature} ${tempDamp} ${seed}
fix             3 all temp/csvr 95.56 95.56 ${tempDamp} ${seed}
fix             3 all temp/csvr 95.56 95.56 100 ${seed}
fix             3 all temp/csvr 95.56 95.56 100 745823


run             250000
PPPM initialization ...
  extracting TIP4P info from pair style
  using 12-bit tables for long-range coulomb (../kspace.cpp:340)
  G vector (1/distance) = 0.37233442
  grid = 30 36 32
  stencil order = 5
  estimated absolute RMS force accuracy = 0.0035224943
  estimated relative force accuracy = 1.0607887e-05
  using double precision FFTW3
  3d grid and FFT values/proc = 7344 1152
Last active /omp style is kspace_style pppm/tip4p/omp
Neighbor list info ...
  update every 1 steps, delay 7 steps, check yes
  max neighbors/atom: 2000, page size: 100000
  master list distance cutoff = 10.8154
  ghost atom cutoff = 10.8154
  binsize = 5.4077, bins = 7 5 4
  1 neighbor lists, perpetual/occasional/extra = 1 0 0
  (1) pair lj/cut/tip4p/long/omp, perpetual
      attributes: half, newton on, omp
      pair build: half/bin/newton/tri/omp
      stencil: half/bin/3d/tri
      bin: standard
Per MPI rank memory allocation (min/avg/max) = 10.63 | 10.63 | 10.64 Mbytes
Step Temp PotEng TotEng E_pair E_mol Press Lx Ly Lz Volume Pxx Pyy Pzz Pxy Pxz Pyz Enthalpy 
 3250000    105.83827     -6760.82   -6488.5575     -6760.82            0    8479.8935    23.047642    21.105403    21.505247    10460.792    9526.7902    7860.4745    8052.4157   -350.23846    163.67218    808.41021   -5194.8656 
 3251000    94.377648   -6767.3134   -6524.5327   -6767.3134            0    6738.1163    23.097021    21.225795    21.469357    10525.409    6929.1447    6904.8276    6380.3767   -81.666081    275.83576    754.66659   -5490.2163 
 3252000    94.604252   -6763.2099   -6519.8462   -6763.2099            0    7528.8671    23.078443     21.28474    21.368741    10496.724    7170.6028    7668.4605    7747.5379   -378.17953    1209.4926     55.38822   -5367.2974 
 3253000    94.116125   -6764.5384   -6522.4304   -6764.5384            0      7929.95    23.063511    21.246498    21.406573    10489.624    8044.6769    7643.7039    8101.4692    512.22581    98.729969   -328.63553   -5309.3034 
 3254000    90.415172   -6768.3898   -6535.8023   -6768.3898            0    7725.5431    23.111159    21.243115      21.3844    10498.736    7859.9507    7267.2911    8049.3875   -1079.4388    1.2919731   -161.66134   -5352.9189 
 3255000    94.619678   -6766.2272   -6522.8239   -6766.2272            0     8186.745    23.158119     21.23626    21.322436      10486.2    8158.4197    8177.0518    8224.7634    -437.2757   -559.39259   -993.45601   -5270.8211 
 3256000    96.101918   -6761.1918   -6513.9754   -6761.1918            0    7550.6262    23.086417    21.266176    21.404417    10508.709    8207.2622    7249.0175    7195.5989   -1038.2501    82.663468    -1119.112    -5356.776 
 3257000    92.999309    -6768.153   -6528.9179    -6768.153            0    7555.8992    23.098083    21.271717    21.374881    10502.246    6589.7355    8021.6266    8056.3355    438.54378    285.06501    358.45489   -5371.6225 
 3258000    94.578374   -6761.0426   -6517.7455   -6761.0426            0    7576.0098    23.092008    21.229046    21.394668    10488.122     8312.145    7191.7486    7224.1359    21.268367    152.50437   -684.53037   -5358.9304 
 3259000    101.84177   -6765.5226   -6503.5409   -6765.5226            0    7368.0081    23.057109    21.178343    21.496095    10496.788    6949.8919    8338.5565    6815.5759    767.87681   -806.46694    278.11502   -5375.6102 
 3260000    97.714373   -6769.8963    -6518.532   -6769.8963            0    7850.5336    23.114839    21.130505    21.487494    10495.098    8158.4729    8133.1769    7259.9511   -88.559368    286.83456    55.378385   -5316.9274 
 3261000     99.64694   -6775.1096   -6518.7739   -6775.1096            0    7783.9228    23.159305    21.083248    21.412085    10454.951    7303.9034    8406.9766    7640.8883   -682.25364    657.46746    235.84022   -5331.9223 
 3262000    99.174441   -6763.6992    -6508.579   -6763.6992            0    6706.8284    23.097844    21.222169    21.491976    10535.073    7294.2833     5648.751     7177.451   -138.32486    902.47001    1700.2299   -5478.1202 
 3263000    98.966361   -6767.7677   -6513.1828   -6767.7677            0    7644.2059    22.920377    21.328606    21.470956    10496.285    8485.8786    7215.2242     7231.515   -1412.5486     404.3347    617.00685   -5343.0265 
 3264000    93.086139   -6773.6296   -6534.1712   -6773.6296            0    7688.4818    23.031289    21.314836    21.376136     10493.72    7877.7693    7196.4653    7991.2107    -563.3472    644.35664   -443.23439   -5357.5248 
 3265000     97.49544   -6772.8057   -6522.0046   -6772.8057            0     7441.361     23.15114    21.266385    21.327288      10500.3    7348.8641    7233.3514    7741.8675     -468.816   -569.38197   -261.16033   -5382.4636 
 3266000     95.50284   -6763.6727   -6517.9974   -6763.6727            0    7901.4388    23.082122    21.195308     21.41696    10477.877    7856.0481    8641.0054    7207.2629    62.167739   -406.74719    53.315095   -5310.5858 
 3267000    97.056266   -6768.9279   -6519.2565   -6768.9279            0    8334.7044      23.0928    21.087705    21.513289    10476.415     8265.254    9491.2474    7247.6117    301.62783   -705.47336   -1345.6836   -5245.8156 
 3268000    91.008249   -6770.4237   -6536.3105   -6770.4237            0     7266.759    23.094674    21.276175    21.374251    10502.587     6875.791    7375.0568    7549.4293    353.64511    316.21064     52.67714   -5423.2649 
 3269000    95.973115   -6773.0356   -6526.1506   -6773.0356            0    6668.4773    23.014452       21.381    21.342586    10502.089    7537.3764    5754.1264    6713.9291    186.93065   -414.61419    39.673174   -5504.7919 
 3270000    92.703063   -6763.6764   -6525.2034   -6763.6764            0    8331.7094    23.019642    21.215148    21.473476    10486.896       8099.1    9113.2922    7782.7359   -54.253626    464.21915   -406.51382   -5250.9465 
 3271000    92.483321   -6771.5104   -6533.6027   -6771.5104            0    8456.8647    23.031342    21.175915    21.470583    10471.412    9122.6674    7681.1472    8566.7795   -935.67074    358.16288    350.60897   -5242.1142 
 3272000    97.688317   -6769.6676   -6518.3704   -6769.6676            0    7469.0815    23.238994    21.184196    21.307055     10489.45    6451.9323    7670.2111    8285.1011   -365.63388    156.50108    163.95914   -5375.7661 
 3273000    95.419614   -6771.9341    -6526.473   -6771.9341            0    7815.2433    23.179422    21.127313    21.400549    10480.253      7092.94    8076.9033    8275.8866    312.36591    15.176411   -281.70586   -5331.9619 
 3274000    98.408891   -6748.8033   -6495.6524   -6748.8033            0    7729.6158    23.012818     21.23703    21.481753    10498.646    7147.4764    8584.4885    7456.8826   -158.94789    270.01898   -118.97804   -5312.1556 
 3275000    101.71452    -6766.249   -6504.5946    -6766.249            0    8232.3629    23.065067    21.258897    21.357801    10472.539    8047.2161    8239.0159    8410.8568    857.39556   -742.50426    174.99485   -5247.2557 
 3276000    98.963353   -6763.9182    -6509.341   -6763.9182            0    7961.6445    23.079399     21.24817    21.381657    10485.457    7399.3615    8233.7451    8251.8269   -1200.4079    1028.4844    -575.0894   -5291.8492 
 3277000    95.059048   -6756.6523   -6512.1187   -6756.6523            0    8415.3227    23.004377    21.247449    21.439036    10479.065    9373.3141    7750.9371     8121.717   -299.59376   -663.91044   -249.44147   -5226.0351 
 3278000    92.717766   -6769.4022   -6530.8914   -6769.4022            0    8486.3728     23.13241     21.15556    21.375581    10460.763    7102.0634    9128.8763    9228.1788   -141.99252    762.53217    86.650125   -5236.2146 
 3279000    93.481077   -6766.6153   -6526.1409   -6766.6153            0    8022.4606    23.193993    21.179558    21.289357    10458.152    7909.7773    8047.5106    8110.0939   -183.04509    95.576456    45.701059   -5302.5438 
 3280000    101.10612   -6770.4082   -6510.3189   -6770.4082            0    7344.9587    23.045928    21.196073    21.516742    10510.566    7246.2785    8431.3303    6357.2673    125.95236    236.96216      83.4123   -5384.4408 
 3281000     98.05345   -6759.1062   -6506.8697   -6759.1062            0    8658.8406    22.975237    21.164051    21.517267    10462.751    9207.6033    8605.4921    8163.4263    796.55664    84.360245    1242.5182   -5185.6302 
 3282000    96.866144   -6764.6844   -6515.5022   -6764.6844            0    7294.0914    23.100919    21.223683    21.413958    10498.977    7370.9582    7368.6565    7142.6595    -40.10392    498.55362    1001.1133   -5398.6542 
 3283000    95.417612   -6761.2811   -6515.8251   -6761.2811            0    8873.3153    23.062226    21.129904     21.43759    10446.594    8590.1096     8674.349    9355.4873    280.08732    65.386051    539.21436   -5163.9501 
 3284000    95.107863   -6774.4799   -6529.8207   -6774.4799            0    7546.0769    23.065693    21.120403    21.560844     10503.51    7442.5509    8292.6703    6903.0094    1136.9259    50.911594   -305.99905   -5373.8906 
 3285000    93.723144    -6766.473   -6525.3759    -6766.473            0    8720.0182     23.05511    21.196543    21.374942    10445.691    9396.8432    8457.1061    8306.1054   -572.37672   -635.11258   -346.39856    -5196.971 
 3286000    92.105716    -6766.749   -6529.8127    -6766.749            0    7657.6976    23.085612    21.332576    21.330622    10504.811     7319.639    7425.6702    8227.7835    151.17435   -295.80722   -549.98453    -5356.639 
 3287000    92.669312    -6757.582   -6519.1958    -6757.582            0    7937.1589    23.066389    21.239615    21.392134     10480.46    7860.8787    8283.2471    7667.3508   -199.34055    680.65125      29.2137   -5306.0268 
 3288000     97.22678   -6771.1032   -6520.9932   -6771.1032            0    7779.0245    23.030032    21.267365    21.428111    10495.234    8354.8719    7443.7319    7538.4697   -973.48479   -723.26148   -543.48724   -5330.3185 
 3289000    94.709025   -6765.2025   -6521.5693   -6765.2025            0    7577.4746    23.136169    21.232805     21.36309    10494.528    7706.7001    7376.5616    7649.1621    58.402899   -72.044721   -306.72714   -5361.8222 
 3290000    95.217187   -6771.2639   -6526.3235   -6771.2639            0    8195.9273    23.131865    21.121623    21.403175    10457.217    7853.5006    8387.1262    8347.1551    346.21339    149.37516   -126.24157   -5276.3807 
 3291000    98.641094   -6784.0788   -6530.3306   -6784.0788            0    7263.1203    23.004405    21.191649    21.534443    10498.068    7499.3843      7203.75    7086.2266    -337.8256    7.5775893    576.10727   -5418.3211 
 3292000    96.861693   -6774.7993   -6525.6285   -6774.7993            0    6912.8468    23.040836    21.283377    21.448678    10518.148    6967.0888    6742.6381    7028.8135    1157.5659    287.33397    610.21145   -5465.2227 
 3293000     97.59634   -6766.2424   -6515.1818   -6766.2424            0    8385.2913    23.086091    21.203312    21.364642    10458.026    8474.2074    7997.2668    8684.3997   -85.407828    238.77486   -58.182075   -5236.2606 
 3294000    95.973673   -6767.5061   -6520.6197   -6767.5061            0    7026.1791    23.072237    21.218925    21.486679    10519.192    7050.6193    7650.5522    6377.3658    270.05673     380.7947    13.640675   -5442.7221 
 3295000    89.334794   -6770.8094   -6541.0011   -6770.8094            0    8669.1002    23.117557    21.036932    21.503321    10457.548    8617.9386    9206.0278    8183.3342   -428.30204   -60.295034    47.588791    -5218.854 
 3296000    95.703288   -6766.1355   -6519.9446   -6766.1355            0    7767.5789    23.232048    21.139381    21.377477    10498.717    6956.8731    8504.7912    7841.0723    1309.9661   -1027.3434      366.633   -5330.6272 
 3297000    93.915275   -6769.8219   -6528.2306   -6769.8219            0    8376.0497      23.0595    21.259521     21.34072    10461.945    8480.4981    8092.5148    8555.1361   -211.87324   -17.355186   -277.13563   -5250.2403 
 3298000    96.112172   -6763.7026   -6516.4599   -6763.7026            0    7602.3201    22.995792    21.352268    21.402925      10509.1    7166.4659    8069.8761    7570.6183    1025.1228   -76.713563   -630.64597   -5351.2946 
 3299000     97.12249   -6764.6648   -6514.8231   -6764.6648            0    7426.1361    23.044747    21.316559    21.365124     10495.29    8101.5463    6472.8859    7703.9761   -904.43899    524.66469   -64.800088   -5378.1561 
 3300000     96.02502   -6765.2035   -6518.1849   -6765.2035            0    8190.2883    23.106618    21.215083    21.346497    10464.241    7164.6918     8203.391    9202.7822    514.29053   -407.60482   -168.00951   -5268.2632 
 3301000    97.199712   -6763.2603     -6513.22   -6763.2603            0    7848.3158    23.101572    21.122836    21.504708    10493.668    8237.6425    8223.3117    7083.9932   -710.36202    190.55132    207.28555   -5312.1186 
 3302000     94.60566   -6769.9651   -6526.5978   -6769.9651            0    8209.5061    23.053204    21.092189    21.494484    10451.532      8439.83    9238.1894    6950.4989    -411.9717    49.485134    513.70063   -5275.2648 
 3303000    95.536099   -6767.8344   -6522.0736   -6767.8344            0    8481.5929    22.995836    21.255498    21.383169    10451.835    8688.8043    8168.1256     8587.849   -301.63429    291.43689     812.1347   -5229.2303 
 3304000    94.702937   -6759.3356   -6515.7181   -6759.3356            0    8267.7878    23.033584    21.240971    21.395018    10467.634    8613.8826     7887.651    8301.8297     514.3063    444.80907    370.18145     -5253.56 
 3305000     99.46269     -6767.77   -6511.9083     -6767.77            0    8597.7085    23.025046    21.113444    21.495578    10449.817    8772.2364    8725.7691      8295.12   -267.13653    38.999418    388.04082   -5201.6187 
 3306000    98.219594   -6759.8087   -6507.1448   -6759.8087            0    7838.0193    23.170233    21.156258     21.38501    10482.834    7695.3553    7832.0921    7986.6105   -748.67389   -352.64072    137.93404   -5308.8575 
 3307000    100.44211   -6778.9966   -6520.6154   -6778.9966            0    8075.5781    23.123015    21.181397    21.407863    10485.095    8089.9139    7593.7445    8543.0758    407.64104    70.519596    -308.6756   -5285.7435 
 3308000    95.241751   -6768.2304   -6523.2268   -6768.2304            0    7816.0118    22.983139    21.329776    21.401853    10491.728    8331.0655    7556.2647     7560.705   -785.43226    285.04617   -1181.5228   -5327.2903 
 3309000    95.822354   -6767.9924   -6521.4953   -6767.9924            0     7865.392    23.037118    21.300143    21.390328    10496.103    8688.2325    7656.1116     7251.832   -534.50076   -604.44082   -820.87669   -5317.5012 
 3310000    90.963313   -6771.3816   -6537.3841   -6771.3816            0    7748.8048    23.116585    21.203882    21.373213    10476.323    7596.1919    8098.7696    7551.4529   -86.430548    1163.7782    279.29039   -5353.4719 
 3311000    93.324395   -6763.6974   -6523.6261   -6763.6974            0    7387.2505    23.137936     21.11208     21.49744    10501.283    7850.4823    6619.0026    7692.2666   -145.93584   -667.60758    792.36871   -5392.2654 
 3312000    99.188871   -6776.2203   -6521.0629   -6776.2203            0    7119.3938    23.122517    21.172941    21.483843    10517.882    6822.1906    8378.2229     6157.768   -32.014064    -687.2567    163.53712   -5429.0012 
 3313000    98.006637   -6757.2215   -6505.1054   -6757.2215            0    7238.2678    23.123396    21.254207      21.3505    10493.119    7901.1511    6414.6594    7398.9929   -350.30428   -149.45804    402.92178   -5397.4234 
 3314000     95.41435   -6773.2448   -6527.7972   -6773.2448            0    7317.6728    23.045008    21.282969    21.415104    10503.385    7495.4768    6925.1216    7532.4199    933.55093     120.4828    289.43848   -5406.8681 
 3315000    93.772921    -6780.419   -6539.1939    -6780.419            0    7987.9919    22.906071    21.288584    21.485693    10477.236    8959.6309    7217.9594    7786.3855   -647.01428    135.65373    782.12937   -5318.6307 
 3316000      100.398    -6766.908   -6508.6402    -6766.908            0    8024.0862    23.125884    21.176929    21.395617    10478.187    8304.1574    7844.2274    7923.8738   -103.92897   -889.56585    982.02952   -5282.4507 
 3317000    93.947055   -6779.8989   -6538.2259   -6779.8989            0    7391.6598    23.276763    21.039783    21.450147    10504.953    5846.0845    8344.3589     7984.536    160.92843    334.75787    104.66458   -5405.7943 
 3318000    95.897497   -6779.8056   -6533.1152   -6779.8056            0    7705.6208    23.121952    21.209265    21.396506    10492.839    8117.8928    7668.6329    7330.3368   -330.04974   -69.369016    306.77166   -5353.9449 
 3319000    94.484951    -6778.628   -6535.5712    -6778.628            0    8509.3082    22.967447    21.289787    21.366489    10447.616    8699.6142    8118.5016    8709.8088    568.34227    409.53719    31.863545    -5239.027 
 3320000    92.662441   -6763.3996   -6525.0311   -6763.3996            0    7448.8025    22.955872    21.345972    21.407354    10489.933    8403.8469     6685.174    7257.3866   -366.85987    816.66882   -364.24829   -5385.4767 
 3321000    98.459652    -6770.353   -6517.0716    -6770.353            0    8081.5309     23.06817    21.217058     21.38813    10468.179    7874.0939     8626.454    7744.0449   -330.35604    366.27281   -674.17632   -5283.2833 
 3322000     95.03329   -6746.2283    -6501.761   -6746.2283            0    7139.0172    23.264671    21.124281    21.416834    10525.291    6656.6066    7279.1618    7481.2831    138.49645    -734.3255    45.453569   -5405.9177 
 3323000    92.962703   -6770.2371   -6531.0962   -6770.2371            0     7787.393    23.242934    21.069155    21.435126    10496.973    7199.1868    8698.8102     7464.182   -227.36624    -17.21642   -882.16412    -5338.943 
 3324000    96.109061   -6770.0574   -6522.8227   -6770.0574            0    8085.1574    23.025668    21.300162    21.349246    10470.747     8207.313    7815.7223    8232.4369    -6.152598   -63.880067    -112.8817   -5288.1778 
 3325000    93.234693   -6767.5413   -6527.7007   -6767.5413            0    7244.2548    23.009421    21.349393    21.390753    10507.933    7427.9206    7476.2525    6828.5912    84.920496     26.63449   -349.41356   -5417.5374 
 3326000    93.713676   -6763.9878   -6522.9151   -6763.9878            0    7947.2394    23.056418    21.245197    21.399081    10482.086    7864.4424    7986.6394    7990.6365   -3.1355509    1096.4717   -273.57729   -5308.0169 
 3327000    92.040735   -6766.5573   -6529.7881   -6766.5573            0    7811.1889    23.144855    21.156605    21.414837    10486.129    8013.9362    8427.8462    6991.7843    286.48601    -297.2909     93.77967   -5335.2274 
 3328000    96.658501   -6756.2283   -6507.5802   -6756.2283            0    8150.0171    23.211269    21.073364     21.46914    10501.405    6837.5659    9673.5091    7938.9763   -382.39099   -510.93281    82.070992    -5259.387 
 3329000    90.008022   -6759.8739   -6528.3337   -6759.8739            0    8252.9147    23.157787    21.178821    21.346311    10469.397    7747.0149    7951.6812     9060.048    591.01348   -195.62925    790.76784    -5268.234 
 3330000    97.647187   -6757.4879   -6506.2965   -6757.4879            0    8180.9342    22.972766    21.253482    21.471409    10483.443    9206.8505    7296.5174    8039.4349   -129.95224    570.67066    82.957736   -5255.5113 
 3331000    94.539452   -6771.9187   -6528.7217   -6771.9187            0    7947.8096    22.948106    21.291933    21.430885    10471.335    8636.8308    7734.3293    7472.2689    1305.6229   -915.21853    305.30419   -5314.9825 
 3332000    95.638792   -6776.2699   -6530.2449   -6776.2699            0    7440.1691    23.093474    21.236166    21.401921    10495.863    7437.9021    7403.0731     7479.532   -207.03634   -45.920077   -675.57964   -5391.3679 
 3333000    96.502754   -6772.9463   -6524.6988   -6772.9463            0    6896.1716     23.15404    21.141204    21.488582    10518.753    6331.8996     7176.432    7180.1831    615.89866   -784.29153    524.67813   -5466.7901 
 3334000    98.864934   -6754.8389   -6500.5149   -6754.8389            0    8285.4036    23.180785    21.034254     21.48951    10478.081    7701.8562    9461.5274    7692.8271   -401.71568    261.32511   -1126.7974   -5234.4052 
 3335000    93.533955   -6766.2538   -6525.6434   -6766.2538            0    8206.6995     23.10577    21.216022    21.356293    10469.122    8382.6225    7695.7077    8541.7682   -382.06294   -453.99538    440.55749    -5272.633 
 3336000    95.150593   -6775.3074   -6530.5383   -6775.3074            0    6917.8666    23.039847    21.337911    21.381263    10511.503    7026.8979    6605.9477    7120.7543   -344.68383    814.94769    637.05926   -5470.0328 
 3337000    92.685598   -6771.0903   -6532.6622   -6771.0903            0    8074.7463    22.956145    21.240742    21.464891      10466.4    9080.4109    7627.8383    7515.9896    -327.3469    21.759174    73.177272   -5300.1192 
 3338000    95.023233   -6760.7141   -6516.2727   -6760.7141            0    8693.9076    23.051916    21.145246    21.456855    10458.896    8161.5033    8987.4383    8932.7814    217.29556    202.97971    315.23978   -5190.1712 
 3339000    92.364169   -6785.1282    -6547.527   -6785.1282            0    6246.7535    23.164125    21.238556    21.425011    10540.517    6472.7885    6200.8251    6066.6468   -285.88996   -991.71738      317.662   -5587.2596 
 3340000    96.845079   -6774.2232   -6525.0951   -6774.2232            0    8757.3199    23.058149    21.120164    21.458946    10450.332     8941.074    9366.3578     7964.528   -257.16664    345.87813   -562.34768    -5190.415 
 3341000    92.974767    -6773.602     -6534.43    -6773.602            0    8169.6844    23.069854    21.237734    21.386809    10478.498    8812.9248    6660.4475     9035.681   -471.41404    7.4012464   -325.09118   -5285.9541 
 3342000    99.338772    -6776.021    -6520.478    -6776.021            0    7696.0294    23.002242    21.308606    21.374627    10476.682    8060.4356    7334.7686    7692.8839    152.76583    -455.2161   -795.61883    -5344.589 
 3343000     94.61914   -6767.1824   -6523.7804   -6767.1824            0    7540.2882    23.007557    21.307399    21.402047    10491.951    7201.6785    8047.9565    7371.2296   -631.04155    382.66906   -565.06458   -5370.0081 
 3344000    97.483306   -6769.2738   -6518.5039   -6769.2738            0    8090.0828    23.138232    21.128342    21.430789    10476.923    7579.6759    8446.7146    8243.8579    1011.4689    -692.2112   -422.26844   -5282.3783 
 3345000    94.600164   -6783.5467   -6540.1935   -6783.5467            0    7840.5851    23.144645     21.08054    21.484348    10482.248    7268.9132    8782.8188    7470.0234   -234.31653    281.46272    691.40721   -5341.5811 
 3346000    100.41728   -6771.4632   -6513.1459   -6771.4632            0    7284.8723    23.163725    21.097141    21.501603    10507.584    7602.2848    7975.6807    6276.6513   -402.39506    420.95849    466.05776   -5396.7951 
 3347000    96.098187   -6770.0538   -6522.8471   -6770.0538            0     8336.034    22.969368    21.252294    21.453041     10472.34    8188.4331    8742.0647    8077.6042    278.56709   -152.14056    533.48341   -5249.6984 
 3348000     93.29367    -6778.759   -6538.7667    -6778.759            0    7540.2569    22.963828    21.285532    21.460214    10489.695    7881.0714    7502.8437    7236.8555    272.14189    190.13289    14.497007   -5385.2474 
 3349000    96.873615   -6770.3123   -6521.1108   -6770.3123            0    7612.5018    23.140863    21.220435    21.358515    10488.295    7320.0312    7629.4822    7887.9921   -226.48446      73.3467    274.34523   -5356.6948 
 3350000    94.076396   -6773.5902   -6531.5844   -6773.5902            0    7793.8047    23.183561    21.135646     21.41832    10494.967    8096.8948    8385.3893    6899.1301   -351.13482    57.907938   -695.71506   -5338.6777 
 3351000    92.703081   -6773.0714   -6534.5984   -6773.0714            0    7993.3936     23.15347     21.08023    21.486601     10487.19    7490.6309     9116.366    7373.1838   -255.43228   -226.17425   -759.33899   -5312.0495 
 3352000    100.84564   -6781.5347   -6522.1154   -6781.5347            0    7772.4168    23.094252    21.179695    21.421192    10477.731    7580.6443    8034.5319    7702.0741   -864.13719   -47.592318   -733.01006   -5334.4361 
 3353000     97.59496   -6762.2545   -6511.1975   -6762.2545            0    7526.4849    23.082762    21.285706    21.334901    10482.539    6604.1758    7529.9112    8445.3676    324.74946    258.46631    1040.7577   -5360.5705 
 3354000    98.110948   -6769.5448   -6517.1604   -6769.5448            0    7952.2234    22.920021     21.27039    21.497686    10480.505    8874.0959    7563.8409    7418.7335   -836.08555    702.39577    51.498018   -5301.6836 
 3355000    94.430986   -6763.3001   -6520.3822   -6763.3001            0     7412.637    23.040336    21.216023    21.499493    10509.474    8279.6573    7955.7071    6002.5466    683.45526    794.62346    285.05531    -5384.248 
 3356000    92.768319   -6758.8324   -6520.1916   -6758.8324            0    9551.8446    23.112216    21.104335    21.339004    10408.483    9434.7563      9788.64    9432.1376    -783.8836    1094.4881    482.83603   -5070.2498 
 3357000    93.226469   -6765.4369   -6525.6175   -6765.4369            0    8205.9705    23.141904    21.139827    21.380442    10459.651    7854.9088    8553.3144    8209.6883    1071.1629    100.47962    321.14887   -5273.8518 
 3358000    93.710289   -6772.3117   -6531.2477   -6772.3117            0    7204.8872    23.052117    21.191115    21.530868     10517.83    7426.4609    6962.7118    7225.4889    45.818468    152.84439    229.19023   -5426.0774 
 3359000    92.614732   -6765.4588    -6527.213   -6765.4588            0    8990.8503    22.931187    21.292646    21.408609    10453.089    9888.5643    8456.8053    8627.1813   -214.61563   -384.01203   -36.522153   -5156.5797 
 3360000    96.935504   -6776.8943   -6527.5336   -6776.8943            0    8305.4795    23.085914    21.289244    21.281028    10459.235    8633.6998    7547.3543    8735.3844   -422.30975   -660.38839   -809.27552   -5260.6389 
 3361000    95.334163   -6770.0069   -6524.7656   -6770.0069            0    7348.8714    23.164012    21.186079     21.41073    10507.414    7493.7075     7908.574    6644.3328   -810.92266   -104.94561   -933.77596   -5398.6256 
 3362000     95.56598   -6762.3116   -6516.4739   -6762.3116            0    7952.8213    23.106127    21.142662    21.463937    10485.671    7854.3944    7919.2445    8084.8249   -23.756306   -366.73278    180.43185   -5300.3066 
 3363000    94.150451   -6761.1207   -6518.9244   -6761.1207            0    7610.8498    23.121852    21.198258    21.416028    10496.916    8010.8309    7876.7727    6944.9459   -588.35637   -126.78658   -707.72843   -5353.8041 
 3364000    95.400881   -6760.1486   -6514.7356   -6760.1486            0    8105.5847    23.016098    21.252173    21.395108    10465.248    9213.3225    7904.3194    7199.1122   -11.359298   -143.15183   -26.564341   -5277.6215 
 3365000    95.821376   -6763.5779   -6517.0833   -6763.5779            0    7417.3161    22.995968    21.270731    21.445193    10489.724    6670.1221    8177.8838    7403.9424    551.83891    624.26313      46.8568   -5382.3684 
 3366000    91.350874    -6775.639   -6540.6444    -6775.639            0    7187.8039    23.074743    21.150967     21.49388    10490.155    7400.0215    7393.0709    6770.3193    842.87581    940.59188    669.33536   -5440.9956 
 3367000    88.942527   -6773.5384   -6544.7392   -6773.5384            0    8358.3323    23.122393    21.097644    21.434681    10456.438    8309.7811    8517.3552    8247.8607   -434.50453    206.62415    302.90938   -5270.1234 
 3368000    93.466745   -6773.4053   -6532.9678   -6773.4053            0    8202.4463    23.156052    21.090672    21.450879    10476.109     8632.611    7928.5684    8046.1595   -261.98926   -514.52485    703.54078   -5279.7709 
 3369000    98.608567   -6779.8942   -6526.2297   -6779.8942            0    7847.8209     23.10028    21.166196    21.441141     10483.54    7243.0839    8249.6199    8050.7589    534.13091    352.10614    422.08195   -5326.3632 
 3370000    97.865212   -6776.2637   -6524.5114   -6776.2637            0    7809.9331    23.059193    21.327418    21.321054    10485.546    7653.5307    7472.8358    8303.4328   -427.48794    93.183963    546.58755   -5330.2092 
 3371000    95.568228   -6769.9555   -6524.1121   -6769.9555            0    8445.5222    22.952205    21.328947    21.367552    10460.408    8956.6168    8054.2642    8325.6857   -264.58145   -597.37283   -387.97472   -5235.7112 
 3372000    95.745677    -6755.754    -6509.454    -6755.754            0    8044.8267    23.137339    21.189288    21.415076    10499.036    7848.1902    8125.6082    8160.6817    644.75619   -784.97971   -760.41084    -5277.649 
 3373000    93.855155   -6767.9604   -6526.5237   -6767.9604            0    7595.5305    23.249003    21.152274    21.333415    10491.118    6417.9854    7703.5076    8665.0985    52.364976   -344.88075  -0.58363709   -5364.3908 
 3374000    97.332368   -6767.1501   -6516.7685   -6767.1501            0    7930.3603    23.159988    21.123087    21.416384    10477.118    7732.9809     8660.126    7397.9742   -100.88181   -263.36495   -152.09845   -5305.0251 
 3375000    93.221147   -6753.9811   -6514.1754   -6753.9811            0    7997.8159     23.02877    21.154475    21.532906    10490.004    8272.4318    8272.5908    7448.4252    1293.3616    359.28507   -432.40949   -5290.6219 
 3376000      98.1933   -6774.1029   -6521.5067   -6774.1029            0    8082.6643    23.025309    21.272217     21.35368    10459.019    7958.5643    7537.5174    8751.9111   -543.11804   -313.81059    1020.2117   -5288.6251 
 3377000    93.966631   -6770.9992   -6529.2758   -6770.9992            0    7541.4632    23.053212      21.2777    21.399245    10496.743    8067.5897    7134.7448     7422.055    31.149267    182.88042   -307.15654   -5374.7967 
 3378000    96.226535   -6769.5077   -6521.9708   -6769.5077            0    8241.0109    23.089448    21.112738    21.475932    10469.119    8041.4844     9224.663    7456.8852   -212.30715   -412.93161   -255.56046    -5263.722 
 3379000    99.521373   -6764.0949   -6508.0822   -6764.0949            0    7591.9531    23.163265    21.214182     21.36703    10499.539    7350.1839    7695.8114    7729.8641   -64.115253   -413.49832    601.81969   -5345.5644 
 3380000    89.071127   -6771.7189   -6542.5889   -6771.7189            0    7671.8901    23.216126     21.18291    21.319028    10484.381    6703.7896    8074.6433    8237.2372    522.17687   -48.813402    -110.2464   -5369.5267 
 3381000    93.698695   -6777.0086   -6535.9744   -6777.0086            0    8401.4063    23.050087    21.156474    21.439751    10455.278    8893.9201    8558.3999    7751.8989    790.37739    105.81929   -336.80562   -5254.9322 
 3382000    95.201576   -6757.0144   -6512.1142   -6757.0144            0    7309.5363     23.05162    21.272694    21.440099    10513.583    6894.1822    7869.7775    7164.6492    212.48361   -2.0755385   -139.79735   -5391.3443 
 3383000    92.599478   -6748.4149   -6510.2084   -6748.4149            0    9226.0139    23.050664    21.226488    21.322158    10432.604     9711.809    8225.1675     9741.065   -75.922384   -558.46074    793.42141   -5106.4812 
 3384000    90.933271   -6776.7551   -6542.8348   -6776.7551            0     6987.996    23.059364    21.210912    21.510673    10521.089    7208.5395    7673.4205    6082.0281   -173.71663    1784.4768   -162.47053   -5470.6017 
 3385000      94.2994   -6778.8541   -6536.2746   -6778.8541            0    7255.2631    23.045257    21.196513     21.49039    10497.606    8049.8004    7494.1074    6221.8814   -49.065953   -260.10873    957.41108    -5425.517 
 3386000    100.96329   -6769.0717   -6509.3498   -6769.0717            0    8618.9963    23.169653    21.087377    21.371622    10441.901    7632.1719    10005.953    8218.8641   -252.82493    701.23756   -276.98445   -5196.8109 
 3387000      93.6151    -6770.811   -6529.9919    -6770.811            0    7238.8775    23.163375    21.169531     21.43476    10510.702    6311.1444    8497.1002    6908.3879    699.29699    253.61497   -523.72391   -5420.3603 
 3388000    92.769971   -6773.9909   -6535.3458   -6773.9909            0    8024.2566    22.965764     21.30759    21.424182    10483.818    9022.0581    7745.0572    7305.6544   -1539.6439   -445.57868   -703.76277   -5308.4712 
 3389000     95.74173   -6773.0653   -6526.7756   -6773.0653            0    8473.1253    23.056371    21.210258    21.405061    10467.751    8981.5898    8318.1903     8119.596    291.79835    473.56402   -706.23412   -5233.2563 
 3390000    96.671832   -6774.0906   -6525.4082   -6774.0906            0    7532.1639    23.144949    21.293325    21.276069    10485.548    7276.2798    7222.6102    8097.6018   -586.39451    629.24027    202.78858   -5373.5825 
 3391000    96.101646     -6781.71   -6534.4944     -6781.71            0    6878.4423    23.110426    21.263508    21.388305    10510.399    6652.4713    6729.6377     7253.218   -817.66836    -141.1985   -517.27215   -5480.1434 
 3392000    96.070018   -6767.9784   -6520.8441   -6767.9784            0    8349.1472    23.039771    21.087196    21.527953     10459.23    8774.1915    8782.7104    7490.5397   -211.41711   -3.0888343   -111.50953    -5247.289 
 3393000    93.475527   -6761.0989   -6520.6388   -6761.0989            0    8007.8832    23.057654    21.226533    21.386665    10467.362    8050.6135    8412.6512    7560.3848   -46.734979    223.81964    1040.3368   -5298.1895 
 3394000    91.790562   -6768.1856   -6532.0599   -6768.1856            0    6927.1923    23.072244    21.324911    21.383751    10521.095    6478.1479    6392.4453    7910.9836    609.80519     4.589653    769.14643   -5469.1558 
 3395000    100.67163   -6761.7501   -6502.7785   -6761.7501            0    9549.9696    22.957385    21.171165    21.473234    10436.734    10733.888     8955.142    8960.8784   -147.13169   -525.79429    126.66322   -5049.1865 
 3396000    94.452518   -6773.8312   -6530.8578   -6773.8312            0    7426.1428     23.18703    21.184117    21.375441    10499.547    6809.9769    7666.6237     7801.828    14.141301   -186.37031   -61.549094   -5393.7288 
 3397000     96.40082    -6779.343   -6531.3577    -6779.343            0     7323.977    23.358801    21.056798    21.312251    10482.677    5958.2829    7878.1507    8135.4974    109.69227   -385.69563     252.2443   -5411.6748 
 3398000    92.379984   -6773.0971   -6535.4552   -6773.0971            0    7788.1493    23.054227    21.170162    21.476386    10481.802    7662.8329    7904.6289     7796.986   -221.41086    0.9747322   -347.06763   -5344.9094 
 3399000    99.105756   -6769.6491   -6514.7056   -6769.6491            0    7666.3883    22.947609    21.333929     21.46864    10510.244     7885.918    7465.2391    7648.0079    12.748539   -143.88494   -294.53867   -5339.5929 
 3400000    95.912786   -6772.8531   -6526.1233   -6772.8531            0    7506.3829     23.08843    21.405055    21.223889    10489.039    6904.4453    6637.8962    8976.8071    234.65235    673.24302     202.7526   -5377.8578 
 3401000    97.906392   -6765.2308   -6513.3726   -6765.2308            0       8218.9     23.10234    21.180023    21.408762    10475.481    8876.9821    7902.5517    7877.1663   -158.64027    -579.3858    723.08729   -5257.7372 
 3402000    93.449356   -6776.5135   -6536.1207   -6776.5135            0    7256.6794    23.151034    21.104635    21.523572    10516.291    7280.1129    8083.3072    6406.6181   -949.33919    126.24383   -512.90921   -5423.1687 
 3403000    95.934069   -6761.0692   -6514.2846   -6761.0692            0    7272.9928    23.209727    21.084103    21.465321     10504.19    7684.8223    6966.7671    7167.3889   -547.84747   -433.18974    46.212666   -5400.1143 
 3404000    93.594865   -6763.2061   -6522.4391   -6763.2061            0    8237.6954    23.057202    21.236917    21.392994    10475.377    8174.1602     8261.041     8277.885    1017.0255   -190.11607    52.725857   -5263.9447 
 3405000    91.830951   -6771.6132   -6535.3837   -6771.6132            0    7926.7599    22.895145    21.373704    21.426752    10485.267     8445.118    7234.8305    8100.3311   -61.699234   -169.71658    469.95254   -5323.2484 
 3406000    91.549963   -6778.3789   -6542.8722   -6778.3789            0    8091.3202    22.946458    21.314492    21.405672    10469.345    7535.9926     8020.396    8717.5718    694.63424    1372.7114   -618.48602   -5307.4517 
 3407000    93.239053   -6769.2699   -6529.4181   -6769.2699            0      7960.73    23.199636    21.106548    21.408521    10482.987    8077.9521    7882.5707    7921.6673   -167.03747    82.308838    724.43731   -5312.3529 
 3408000    91.139464   -6768.6127    -6534.162   -6768.6127            0    7792.8883     23.16744    21.078972    21.500578    10499.717    7314.9173    8655.0036    7408.7438   -1193.2978    405.00287   -299.90351   -5340.8556 
 3409000    96.509829   -6768.5193   -6520.2537   -6768.5193            0    8778.1066    23.102712     21.12689    21.422158    10455.908    7944.8287    9528.5408    8860.9502    -214.5186    392.04584   -478.89432   -5181.6917 
 3410000    98.308684   -6775.1817   -6522.2886   -6775.1817            0    8058.9845    23.075833    21.309187    21.265512    10456.832    7716.9205    6777.0636    9682.9693    418.18541      612.755    715.40648    -5293.276 
 3411000    92.269485   -6775.0385   -6537.6809   -6775.0385            0    7200.1442    23.031662    21.317428    21.368301    10491.318    8026.8066    6438.5576    7135.0684     488.8639   -373.80024   -220.52925    -5436.022 
 3412000    99.341687   -6779.8007   -6524.2503   -6779.8007            0    7764.2477    23.018713    21.148302    21.540714    10486.164    7175.4854     8649.056    7468.2015   -104.69239    164.57531    645.88455   -5336.8644 
 3413000    97.902826   -6776.1191   -6524.2701   -6776.1191            0    8068.0903    23.207873     21.05507    21.453156    10482.943    7673.3239    8767.5348    7763.4123    278.35259   -316.16333    637.81137   -5290.7964 
 3414000     93.53623   -6769.9898   -6529.3736   -6769.9898            0    8140.8932    23.219553    21.147004    21.302549    10460.062    8117.1828    7646.2634    8659.2333   -144.02712    116.91876      179.863   -5287.4862 
 3415000    94.806086     -6769.41   -6525.5271     -6769.41            0    7460.5918    23.095997    21.227458     21.41921    10501.181    7728.0037    7213.1421    7440.6295    1073.5362   -188.74506    1.7044038   -5382.9452 
 3416000    98.567997   -6767.7022    -6514.142   -6767.7022            0    7868.6429    22.947266    21.269169    21.523091     10504.76    8341.5732    8439.5405     6824.815    -640.9757    259.38991   -411.67398   -5308.6569 
 3417000     95.27925    -6774.362    -6529.262    -6774.362            0    7151.5157     23.05941    21.300419    21.384959     10503.76    7678.7711    7214.6753    6561.1008    26.272474   -239.23256    174.41107   -5433.7459 
 3418000    98.782912   -6767.3635   -6513.2505   -6767.3635            0    7209.9878    23.167038    21.198431    21.398586     10508.95    6951.8324    7443.8561     7234.275     36.70306   -72.316498    856.15379   -5408.2315 
 3419000     98.12462   -6756.8682   -6504.4486   -6756.8682            0     7945.389    23.239938    20.968877    21.579423    10515.985    7554.7123    9576.1235    6705.3312     -560.812   -386.51027   -517.01745   -5285.9051 
 3420000    94.462349   -6767.1391   -6524.1404   -6767.1391            0    8533.3501    23.082403    21.125822    21.432914    10451.433    8589.5482    8708.9547    8301.5474    143.84744   -843.78037   -202.61983   -5223.4579 
 3421000    95.349074   -6768.2092   -6522.9295   -6768.2092            0    7972.9838    23.103182    21.291973    21.297463    10476.485    7140.4499     7547.279    9231.2224    1365.7895    3.5978048    769.75079    -5304.747 
 3422000    98.502019   -6775.9126   -6522.5221   -6775.9126            0    7616.2908    22.985297    21.298154    21.454826    10503.089    8986.0216    6277.6416     7585.209    278.31094   -639.88259    267.64306   -5355.8832 
 3423000    93.698172   -6775.6885   -6534.6557   -6775.6885            0    7280.3943    23.017233    21.278136    21.471235    10515.834    7946.4746    6895.5995    6999.1088    220.12769   -761.26222     7.270097   -5418.1151 
 3424000    96.717467   -6779.0394   -6530.2396   -6779.0394            0    7966.1226    23.108449    21.209401    21.347307    10462.664    8200.1943     7583.501    8114.6725   -774.23221    303.71353   -370.07636    -5314.711 
 3425000    95.643441   -6769.6313   -6523.5944   -6769.6313            0    7183.7395    23.248236     21.11696    21.404829    10508.317    6522.2389    7373.5497    7655.4298    656.14457    191.84287   -553.75527   -5422.6646 
 3426000    94.462116   -6771.9166   -6528.9185   -6771.9166            0    8551.0936    23.041844    21.107514    21.484893    10449.308     8639.483    9487.9646    7525.8333   -911.23115   -164.58364      178.427   -5225.7965 
 3427000    98.782447   -6762.6367   -6508.5249   -6762.6367            0    8000.1543    23.046449    21.202336    21.451622     10482.09    8282.8624    7944.0329    7773.5676    273.29699   -8.9900849   -193.30658   -5285.5371 
 3428000    95.342921   -6770.1213   -6524.8575   -6770.1213            0    6831.6865    23.109214    21.229585    21.462089     10529.28    6171.3033    6849.8641    7473.8922     530.4845    1142.3728    692.62407   -5475.7922 
 3429000    96.755376   -6765.3711   -6516.4738   -6765.3711            0    9160.8752    22.997638    21.190099    21.408086    10432.636      9968.28     8774.612    8739.7335   -126.38302   -473.26754   -671.55106    -5122.653 
 3430000    94.584386   -6764.1958   -6520.8832   -6764.1958            0    8270.4051    23.103156    21.162907    21.426677    10476.144    8075.7396    8559.6279    8175.8479   -543.52663    34.064811    305.91309   -5257.2992 
 3431000    96.945831   -6776.1542   -6526.7669   -6776.1542            0    7664.9085    23.217384    21.058105    21.443891    10484.221    7643.3865    7559.4959    7791.8431    72.927581   -227.82058   -182.96185   -5354.7901 
 3432000    96.238812   -6758.9436   -6511.3752   -6758.9436            0    8761.0233     23.14756    21.208469    21.303693    10458.501    8047.9421    8609.8855    9625.2423    182.03917   -349.32544   -190.18686   -5175.0869 
 3433000    92.276635   -6773.9175   -6536.5415   -6773.9175            0    7224.8617    23.077085    21.261486    21.438278    10518.758    6815.0152    8007.5684    6852.0016      308.205    173.72537   -689.89479   -5428.2094 
 3434000    97.217907   -6779.3768   -6529.2897   -6779.3768            0      7260.27    23.060519    21.301824    21.349873    10487.722    7604.3737    6911.5894    7264.8468   -44.669714    330.76046   -66.594928    -5418.812 
 3435000    96.419504   -6762.3381   -6514.3048   -6762.3381            0    8206.5689    23.030038    21.327749    21.319477    10471.676    8674.2505    7143.4035    8802.0528    14.369196   -184.79991    80.583769   -5261.0086 
 3436000     98.05877   -6767.3134   -6515.0632   -6767.3134            0    7668.9203     23.07244    21.144176    21.496547    10487.042    7936.0096     7938.198    7132.5531   -293.17253    -399.3487    9.0480534   -5342.1574 
 3437000     93.17015   -6776.0372   -6536.3626   -6776.0372            0    7919.7297    23.150504    21.135903    21.417885    10479.917    7463.2283    8422.3365    7873.6243    690.97996   -252.28262    473.28022   -5325.9203 
 3438000    93.444309   -6750.0005   -6509.6207   -6750.0005            0    8806.6591    23.065491    21.147191      21.4428    10459.162    8995.5882    8344.7527    9079.6364   -161.60105    141.55348    671.74137   -5166.2868 
 3439000    92.318404    -6777.984   -6540.5006    -6777.984            0    7285.4348    22.902922    21.273749     21.56622    10507.731    8145.7122    7824.4815    5886.1106    618.14247    -311.9382    210.06503   -5424.0479 
 3440000    99.035111   -6756.2649   -6501.5031   -6756.2649            0    8355.8069    23.006049    21.276648    21.426026     10487.86    8745.9643    7475.2517    8846.2047    356.70901    -148.6311    513.99705   -5223.4434 
 3441000    101.51205    -6768.124   -6506.9904    -6768.124            0    8992.1812    23.162305    21.109633    21.319183    10423.966    8499.3836    9115.8058    9361.3542    22.042016    205.94167    521.83351   -5139.9733 
 3442000    95.141569   -6769.6598    -6524.914   -6769.6598            0     6737.498    23.221457    21.179517    21.422517    10536.006    6056.5608    7320.0361    6835.8971   -286.75803     789.4702    217.98436   -5489.6513 
 3443000     93.61434    -6768.953   -6528.1358    -6768.953            0    8219.9307     23.13708    21.128504    21.445437    10483.642    8039.7379    8363.2282    8256.8259   -1181.4316    401.13075    6.3360494   -5271.3646 
 3444000    97.349707   -6770.5043   -6520.0781   -6770.5043            0    8094.8815    23.073093    21.310292    21.307669     10476.86     8556.099    7990.5631    7737.9826    622.77736   -500.94959   -694.52997   -5283.2266 
 3445000    94.559387   -6763.8412   -6520.5929   -6763.8412            0      7215.98    23.033998    21.358064    21.379858    10518.069    7132.8571     6765.207    7749.8759   -489.65019    226.88401    401.17239   -5413.6959 
 3446000    95.893522   -6775.1871   -6528.5068   -6775.1871            0    7932.8054    23.049971    21.171105     21.49291    10488.397     8024.565    7640.3912    8133.4599   -593.83733    694.46997     241.9553    -5315.085 
 3447000    97.095656   -6771.3605   -6521.5878   -6771.3605            0    7555.3433    23.184734    21.035529    21.516069    10493.455    7337.0439    8472.2954    6856.6906    -171.0328    608.14028     -495.606   -5365.3463 
 3448000    94.672561   -6756.9422   -6513.4028   -6756.9422            0     8649.688    23.132214    21.130033    21.401646    10460.792      8546.36    8717.5882    8685.1158   -195.83045   -493.94364     684.7271   -5193.8071 
 3449000    96.589401   -6765.3464    -6516.876   -6765.3464            0    7826.3793    23.128728     21.22928    21.358261     10487.04    8339.3358    7588.4498    7551.3524    549.93668    -342.9944    43.706201   -5319.8883 
 3450000    92.794558   -6769.9979   -6531.2896   -6769.9979            0    7906.7539    23.008479    21.317067    21.409167    10500.625    8492.5478    7465.2205    7762.4933     221.7588    178.74997   -221.18626   -5320.4426 
 3451000    97.236354    -6771.201   -6521.0664    -6771.201            0      7921.22    23.002522    21.297181    21.425801    10496.262    8218.3275    7403.3878    8141.9446    127.22176   -407.02598   -108.06783   -5308.5081 
 3452000    97.229859   -6774.1049   -6523.9871   -6774.1049            0     7997.947    23.092915    21.269269    21.316345    10469.937    8204.9878    7509.2098    8279.6434   -277.99592   -534.21789   -807.51797   -5302.7542 
 3453000    89.220953    -6775.072   -6545.5566    -6775.072            0    7426.7959     23.13779    21.277283    21.343708    10507.706    6947.0195     7176.451    8156.9172      570.743   -437.77099    385.44654   -5407.4438 
 3454000     96.83575   -6772.3486   -6523.2445   -6772.3486            0      8769.22    23.119668    21.036391    21.494827    10454.104    9120.8822    9776.1377    7410.6399   -101.02166    24.648425   -124.15248   -5186.2684 
 3455000    95.687825   -6777.5629   -6531.4118   -6777.5629            0    7932.3109    23.114309    21.101114    21.497326    10485.056    8271.4689    8733.8216    6791.6421   -233.93062    223.30537    175.87984   -5318.4521 
 3456000    94.851862   -6780.3052   -6536.3045   -6780.3052            0    7723.0328    23.129702    21.239392    21.309533    10468.538    6495.2824    8083.1643    8590.6517   -164.68168    539.60854    1180.3851   -5357.2068 
 3457000     95.65123   -6782.1386   -6536.0816   -6782.1386            0    7766.1055    22.981341    21.248905    21.473686    10486.209    8540.2385    7378.0106    7380.0674   -474.59115    311.09792   -515.89917   -5348.4064 
 3458000     97.04288   -6772.2439    -6522.607   -6772.2439            0    7620.5564    22.876942    21.289916    21.541892    10491.939    8613.9108    7995.8017    6251.9566     865.7184   -338.51672    10.017565   -5356.5539 
 3459000    97.314614   -6767.5136   -6517.1776   -6767.5136            0    7440.6911    23.153048    21.186789    21.393707    10494.442    7156.5175    7955.1551    7210.4007   -614.90552    364.96446    639.62282   -5378.3748 
 3460000    95.051117   -6769.4671   -6524.9538   -6769.4671            0    7678.0398    23.284721    21.093865    21.366205    10494.327    7226.7078    8347.1768    7460.2349   -576.13924    277.58896   -804.40031   -5349.8375 
 3461000     94.19812   -6765.2103   -6522.8914   -6765.2103            0    7463.7238    23.041137    21.273476    21.470003    10523.846    8383.2924    6896.0057    7111.8733     431.0088   -148.30474    544.07252   -5377.3628 
 3462000    89.438297   -6764.7407   -6534.6661   -6764.7407            0    6928.4647    23.009677     21.35199    21.416435    10521.946    6903.8563    6431.0287    7450.5092   -330.10172    1001.0046   -36.012748   -5471.4809 
 3463000    93.399922   -6767.7304   -6527.4648   -6767.7304            0    8268.8002    22.995724    21.260798    21.418684    10471.754     8054.512    8298.3539    8453.5347    1159.2958    306.80029    545.76222   -5264.6554 
 3464000    94.993571   -6771.3325   -6526.9673   -6771.3325            0    7525.5898    23.100112    21.170563    21.469616    10499.552    7282.5898     8742.347    6551.8327   -237.81907    269.34705   -1117.6011   -5374.6099 
 3465000    89.510588   -6771.7263   -6541.4657   -6771.7263            0    7034.6569    23.196493     21.08152    21.495041    10511.448    7144.0909    7185.6564    6774.2235   -746.66568   -180.30414    18.344783   -5463.0621 
 3466000    93.304157   -6760.2643   -6520.2451   -6760.2643            0    9129.1925    23.147622    21.156595    21.303317    10432.764     9324.507    8464.8255    9598.2451   -499.41551     625.4683    703.72503   -5131.2279 
 3467000    97.056635   -6775.0626   -6525.3903   -6775.0626            0    7411.9044    22.996896    21.267988    21.457312    10494.722    7267.1864    7326.9622    7641.5645   -0.5007171     401.0593    753.76883   -5390.9631 
 3468000    96.672495    -6767.618   -6518.9339    -6767.618            0    7908.7833    22.931917    21.346831    21.455802    10503.124    8714.3689    7707.1613    7304.8199   -21.084594    101.32594    257.12348   -5307.4878 
 3469000    92.850758    -6760.814   -6521.9611    -6760.814            0    8691.3057    23.025488    21.298139    21.284014    10437.681    8037.7638    8927.5197    9108.6336    895.79848    483.11191    108.24025   -5198.9455 
 3470000    88.799395   -6769.5086   -6541.0775   -6769.5086            0    7873.1937    23.076141    21.181513    21.474765    10496.598    7841.2158    7293.8044    8484.5609    325.41924   -309.97412    917.41454   -5335.8323 
 3471000    92.097827   -6766.6458   -6529.7298   -6766.6458            0    8158.1377    23.139099    21.082595    21.457604    10467.711    8535.5268    9757.9117    6180.9745   -612.17209   -361.36104   -777.09829   -5284.3017 
 3472000    95.049129   -6773.7317   -6529.2236   -6773.7317            0    8157.4992    23.159771    21.186633    21.327458    10464.905    6895.6747    8576.7146    9000.1083    792.78322     93.32188    181.77068   -5284.2268 
 3473000    93.470282   -6775.9462   -6535.4996   -6775.9462            0    8365.8599    22.957937    21.291125    21.442334     10481.02    9472.3589    7808.6655    7816.5553   -330.30244   -768.30153    104.11691   -5256.7367 
 3474000    99.133515   -6769.1703   -6514.1553   -6769.1703            0    7798.9654     22.94711    21.377014     21.36766    10481.707    7792.6102    7639.0942     7965.192    92.788463     609.6816    211.20958   -5321.9669 
 3475000    93.228948   -6773.4474   -6533.6216   -6773.4474            0    7162.0207    23.154839    21.226701     21.36661    10501.707    6770.8736     7541.819    7173.3694   -100.83177    109.64011   -703.26544   -5436.7107 
 3476000    94.035924    -6766.129   -6524.2273    -6766.129            0    8437.8372    23.150177    21.125467    21.406057     10468.81    8107.5296    7752.6886    9453.2934   -247.77355   -414.38728    521.66961   -5235.9649 
 3477000    103.21474   -6773.4022   -6507.8885   -6773.4022            0    6969.3313    23.154671    21.170545     21.45953    10519.397    6780.5254    7413.2992    6714.1694   -422.25042   -347.79658    469.48897   -5438.6912 
 3478000    97.564979   -6760.8084   -6509.8285   -6760.8084            0    7673.7463    22.967884    21.338607     21.43853     10507.08    8907.1325    7375.7795    6738.3268   -511.88266   -455.55526   -308.44339    -5333.942 
 3479000    95.818428   -6760.7032   -6514.2161   -6760.7032            0    8544.2736    22.954964    21.298305    21.388973    10457.108    8364.4045    8810.8136    8457.6028    1245.8973   -394.17637   -202.93937   -5211.1615 
 3480000    97.267149   -6766.7833   -6516.5695   -6766.7833            0    7373.2917    23.166959    21.208003    21.409028    10518.789    6501.8101    7961.7135    7656.3515    685.41113    61.657379   -421.29708   -5385.4641 
 3481000    93.213686    -6749.364   -6509.5775    -6749.364            0    8449.0485    23.246118    21.036426    21.409547    10469.595    7827.5991    8810.8255    8708.7209    86.094227   -63.368822    448.79299   -5219.5066 
 3482000    94.687318   -6762.8598   -6519.2824   -6762.8598            0    8085.4353    23.154109    21.112157    21.451237    10486.077    7459.5529    8895.6379     7901.115    181.92313   -24.729914    124.87307   -5282.7875 
 3483000    92.006148   -6769.3915   -6532.7113   -6769.3915            0     7681.276    22.975236     21.28823    21.459981    10496.122    9158.5003    7355.9642    6529.3636   -168.57264   -16.681188    958.45127   -5356.8986 
 3484000    98.945093   -6776.3758   -6521.8455   -6776.3758            0    7666.1247    22.922237    21.340972    21.412671    10474.711    7830.7143    6876.0355    8291.6242    617.96285    371.23416    669.63911    -5350.746 
 3485000    96.513998   -6776.3127   -6528.0363   -6776.3127            0     7503.284    23.084063    21.249994    21.409761    10502.263    7208.9021    7646.5997    7654.3502   -28.759348    80.565014    307.71618   -5378.7978 
 3486000     94.05118   -6767.2276   -6525.2867   -6767.2276            0    8483.0899    23.184535    21.089729    21.393495    10460.468    7726.4291    8931.2624    8791.5781   -1062.0672   -520.06401    96.876376   -5231.1472 
 3487000    91.677862   -6772.0502   -6536.2145   -6772.0502            0    7035.0823    23.226768    21.110872    21.460821    10523.041    7249.7261    7429.4558    6426.0649   -99.593779   -678.12499   -546.83047   -5456.5562 
 3488000      97.4084   -6762.8414   -6512.2643   -6762.8414            0    7963.0381     23.09179    21.207758     21.43669    10498.085    7367.7646    8623.7638     7897.586   -384.36655   -83.859828   -600.74746   -5293.0928 
 3489000    94.335564   -6772.3272   -6529.6547   -6772.3272            0    7524.1496     23.00504    21.352746    21.392681    10508.529    8536.1459    7107.5081     6928.795    408.54463   -182.24893   -201.52902   -5376.5327 
 3490000    97.244155   -6766.8241   -6516.6694   -6766.8241            0    8289.9211    23.007574    21.261591    21.395542    10466.221    7769.2667    9027.1825    8073.3141    541.42888    496.87253   -644.11995   -5251.3034 
 3491000    94.058107   -6769.7543   -6527.7955   -6769.7543            0    8302.6553    23.072667    21.111873    21.498775    10472.208    8422.8019    8563.4136    7921.7504   -203.61269   -473.68722    514.26941   -5259.7607 
 3492000    93.060668   -6769.0443   -6529.6514   -6769.0443            0    8354.6417    23.197499    21.070915    21.425566    10472.657    8370.9373    8190.1876    8502.8003    377.63543   -763.10999    636.19806   -5253.6223 
 3493000    93.414208   -6757.3619   -6517.0596   -6757.3619            0    8722.7941    23.125463    21.131139    21.388114    10451.673    7477.6767      10231.6    8459.1058      427.556    406.49802    185.91025   -5187.4708 
 3494000     94.96402   -6771.5543   -6527.2651   -6771.5543            0    7594.0344    23.020694    21.324922     21.39742    10504.303    7535.6719    6980.9269    8265.5045    756.90375    418.37194    679.83247   -5363.9009 
 3495000     100.4734   -6764.0362   -6505.5745   -6764.0362            0    8234.6666    22.906476    21.322091    21.442075    10472.609     9438.759    7532.8816    7732.3593    480.77608    -592.3864   -391.30285   -5247.8752 
 3496000    90.989605   -6767.0221   -6532.9569   -6767.0221            0    7090.4056    23.087969     21.23978    21.462098    10524.656    7190.6677    6934.7716    7145.7774   -62.206418    153.23886     334.0691   -5444.6412 
 3497000    98.098289    -6771.612   -6519.2601    -6771.612            0     8582.717    23.194272    21.103355    21.346705     10448.72    8349.7984    9048.4587    8349.8938   -319.79348   -593.82526   -566.86147   -5211.3925 
 3498000    95.918015    -6766.997   -6520.2538    -6766.997            0    7792.2927    23.174764    21.142455    21.415076    10492.775    7882.7063    8220.4395    7273.7323    -461.5976  -0.73191918   -416.94407   -5327.8276 
 3499000    92.337615   -6769.4975   -6531.9646   -6769.4975            0    7926.0001    23.015677    21.156195    21.555595    10495.939    7730.6376    8545.4986    7501.8639    138.92077    200.34704   -181.36587   -5318.7119 
 3500000    103.11592   -6765.3655   -6500.1061   -6765.3655            0    8311.7308    23.005638    21.315149    21.323995    10456.618    8726.3321    7625.4027    8583.4576    466.25657    269.13217   -124.84376   -5232.5751 
Loop time of 540.407 on 64 procs for 250000 steps with 1296 atoms

Performance: 79.940 ns/day, 0.300 hours/ns, 462.615 timesteps/s
196.7% CPU use with 32 MPI tasks x 2 OpenMP threads

MPI task timing breakdown:
Section |  min time  |  avg time  |  max time  |%varavg| %total
---------------------------------------------------------------
Pair    | 38.63      | 48.971     | 57.579     | 100.3 |  9.06
Bond    | 0.68743    | 1.0442     | 1.3809     |  13.5 |  0.19
Kspace  | 278.56     | 290.65     | 304.8      |  47.4 | 53.78
Neigh   | 1.04       | 1.1244     | 1.2739     |   6.6 |  0.21
Comm    | 72.504     | 80.224     | 85.185     |  39.9 | 14.85
Output  | 0.56783    | 0.56817    | 0.56986    |   0.0 |  0.11
Modify  | 101.56     | 105.13     | 107.03     |  10.4 | 19.45
Other   |            | 12.7       |            |       |  2.35

Nlocal:        40.5000 ave          50 max          30 min
Histogram: 3 2 5 5 0 1 0 2 11 3
Nghost:        3188.81 ave        3208 max        3167 min
Histogram: 2 0 5 1 6 5 5 2 2 4
Neighs:        13361.8 ave       16472 max        9975 min
Histogram: 4 3 5 3 0 1 0 5 8 3

Total # of neighbors = 427579
Ave neighs/atom = 329.92207
Ave special neighs/atom = 2.0000000
Neighbor list builds = 2233
Dangerous builds = 0

unfix		3
unfix		2
unfix		1

write_data	data.final.${pid}
write_data	data.final.0
System init for write_data ...
PPPM initialization ...
  extracting TIP4P info from pair style
  using 12-bit tables for long-range coulomb (../kspace.cpp:340)
  G vector (1/distance) = 0.37107527
  grid = 30 40 32
  stencil order = 5
  estimated absolute RMS force accuracy = 0.0037700634
  estimated relative force accuracy = 1.1353434e-05
  using double precision FFTW3
  3d grid and FFT values/proc = 7888 1280
Last active /omp style is kspace_style pppm/tip4p/omp
WARNING: Not all mixed pair coeffs generated from mixing. Use write_data with 'pair ij' option to store all pair coeffs. (../write_data.cpp:312)

write_restart   restart.lmp.${pid}
write_restart   restart.lmp.0
System init for write_restart ...
PPPM initialization ...
  extracting TIP4P info from pair style
  using 12-bit tables for long-range coulomb (../kspace.cpp:340)
  G vector (1/distance) = 0.37107527
  grid = 30 40 32
  stencil order = 5
  estimated absolute RMS force accuracy = 0.0037700634
  estimated relative force accuracy = 1.1353434e-05
  using double precision FFTW3
  3d grid and FFT values/proc = 7888 1280
Last active /omp style is kspace_style pppm/tip4p/omp
Total wall time: 0:09:00
