LAMMPS (30 Jul 2021)
  using 1 OpenMP thread(s) per MPI task
package omp 0
using multi-threaded neighbor list subroutines
echo both

include		in.partitions
variable        pid world 0
include		in.temp
variable        temperature equal 278.03
variable	tempDamp equal 100.0
include		in.pressure
variable        pressure equal 10500.0
variable        pressureDamp equal 1000.0 # This is 1 ps
include		in.seed
variable        seed world 745823

units		real
atom_style	full
read_restart	restart.lmp.${pid}
read_restart	restart.lmp.0
Reading restart file ...
  restart file = 30 Jul 2021, LAMMPS = 30 Jul 2021
  restoring atom style full from restart
  orthogonal box = (0.67303312 1.8842754 0.82109884) to (17.534539 21.744902 21.392097)
  4 by 4 by 4 MPI processor grid
  restoring pair style lj/cut/tip4p/long/omp from restart
  restoring bond style harmonic/omp from restart
  restoring angle style harmonic/omp from restart
  864 atoms
  576 bonds
  288 angles
Finding 1-2 1-3 1-4 neighbors ...
  special bond factors lj:    0        0        0       
  special bond factors coul:  0        0        0       
     2 = max # of 1-2 neighbors
     1 = max # of 1-3 neighbors
     1 = max # of 1-4 neighbors
     2 = max # of special neighbors
  special bonds CPU = 1.356 seconds
  read_restart CPU = 1.695 seconds
include 	in.setup
variable	out_freq equal 1000
variable	out_freq2 equal 10000
variable	out_freq3 equal 1000

timestep	2.0

neigh_modify    delay 7 every 1

include		in.tip4p
# This is TIP4P/Ice

# create groups ###
group ox type 2
288 atoms in group ox
group hy type 1
576 atoms in group hy

# set charges - beside manually ###
set group ox charge -1.1794
Setting atom values ...
  288 settings made for charge
set group hy charge 0.5897
Setting atom values ...
  576 settings made for charge

# ### TIP3P Potential Parameters ###
pair_style lj/cut/tip4p/long/omp 2 1 1 1 0.1577 8.5
pair_coeff 1 1*2 0.000 0.000
pair_coeff 2 2 0.21084 3.1668
bond_style  harmonic
bond_coeff  1 450 0.9572
angle_style harmonic
angle_coeff 1 55 104.52
kspace_style pppm/tip4p/omp 1.0e-5
pair_modify tail yes

thermo          ${out_freq}
thermo          1000
thermo_style    custom step temp pe etotal epair emol press lx ly lz vol pxx pyy pzz pxy pxz pyz enthalpy

restart 	${out_freq3} restart.lmp.${pid} restart2.lmp.${pid}
restart 	1000 restart.lmp.${pid} restart2.lmp.${pid}
restart 	1000 restart.lmp.0 restart2.lmp.${pid}
restart 	1000 restart.lmp.0 restart2.lmp.0


include         in.dump
dump            myDump all atom ${out_freq2} dump.water.${pid}
dump            myDump all atom 10000 dump.water.${pid}
dump            myDump all atom 10000 dump.water.0
dump            myDump2 all dcd ${out_freq2} dump.dcd
dump            myDump2 all dcd 10000 dump.dcd
dump_modify     myDump append yes
dump_modify     myDump2 append yes


variable natoms 	equal  "count(all)"                        # NUMBER ATOMS
variable H      	equal  "enthalpy/v_natoms"                 # ENTHALPY-per-atom
variable Vol      	equal  "vol/v_natoms"                 # volume-per-atom
fix AVG all 		ave/time ${out_freq} 1 ${out_freq} v_Vol v_H file vol_enthalpy.dat
fix AVG all 		ave/time 1000 1 ${out_freq} v_Vol v_H file vol_enthalpy.dat
fix AVG all 		ave/time 1000 1 1000 v_Vol v_H file vol_enthalpy.dat


timer           timeout 23:50:00 every 1000
New timer settings: style=normal  mode=nosync  timeout=23:50:00

fix 		1 all shake 1e-6 200 0 b 1 a 1
       0 = # of size 2 clusters
       0 = # of size 3 clusters
       0 = # of size 4 clusters
     288 = # of frozen angles
  find clusters CPU = 0.214 seconds
fix             2 all nph iso ${pressure} ${pressure} ${pressureDamp}
fix             2 all nph iso 10500 ${pressure} ${pressureDamp}
fix             2 all nph iso 10500 10500 ${pressureDamp}
fix             2 all nph iso 10500 10500 1000
fix             3 all temp/csvr ${temperature} ${temperature} ${tempDamp} ${seed}
fix             3 all temp/csvr 278.03 ${temperature} ${tempDamp} ${seed}
fix             3 all temp/csvr 278.03 278.03 ${tempDamp} ${seed}
fix             3 all temp/csvr 278.03 278.03 100 ${seed}
fix             3 all temp/csvr 278.03 278.03 100 745823

run             250000
PPPM initialization ...
  extracting TIP4P info from pair style
  using 12-bit tables for long-range coulomb (../kspace.cpp:340)
  G vector (1/distance) = 0.37481405
  grid = 24 24 24
  stencil order = 5
  estimated absolute RMS force accuracy = 0.0030985403
  estimated relative force accuracy = 9.331162e-06
  using double precision FFTW3
  3d grid and FFT values/proc = 2535 216
Last active /omp style is kspace_style pppm/tip4p/omp
Neighbor list info ...
  update every 1 steps, delay 7 steps, check yes
  max neighbors/atom: 2000, page size: 100000
  master list distance cutoff = 10.8154
  ghost atom cutoff = 10.8154
  binsize = 5.4077, bins = 4 4 4
  1 neighbor lists, perpetual/occasional/extra = 1 0 0
  (1) pair lj/cut/tip4p/long/omp, perpetual
      attributes: half, newton on, omp
      pair build: half/bin/newton/omp
      stencil: half/bin/3d
      bin: standard
Per MPI rank memory allocation (min/avg/max) = 9.237 | 9.240 | 9.245 Mbytes
Step Temp PotEng TotEng E_pair E_mol Press Lx Ly Lz Volume Pxx Pyy Pzz Pxy Pxz Pyz Enthalpy 
 2000000    287.81134   -3767.8839   -3274.5851   -3767.8839            0    11788.503    16.861506    19.860627    20.570998    6888.8176    11971.289    10915.516    12478.705     28.66283   -892.04062   -646.04532   -2090.2374 
 2001000    280.38887   -3798.1765   -3317.5995   -3798.1765            0    9241.4454    16.897153    19.902615    20.614488    6932.6013     9698.941    8912.1386    9113.2566   -1860.8666    1779.4745   -106.79016   -2383.2443 
 2002000    274.05128   -3784.7299   -3315.0153   -3784.7299            0    9490.8911    16.875908     19.87759    20.588568    6906.4844     9584.094    7952.1264    10936.453    300.14412   -462.24285    570.50857   -2359.0549 
 2003000    279.53748   -3778.3539   -3299.2362   -3778.3539            0    9781.8539    16.950142    19.965028    20.679134    6998.0269    9506.3299    10739.118    9100.1141    548.69889    838.94037     1279.755   -2300.9096 
 2004000    269.02959   -3835.2138   -3374.1063   -3835.2138            0    9503.5662    16.948268    19.962821    20.676848    6995.7064    8823.4307    11007.132    8680.1361    -597.6199   -184.04748    472.24119   -2404.5031 
 2005000    272.74877   -3771.2603   -3303.7783   -3771.2603            0    12217.691    16.845637    19.841935    20.551638    6869.3858    11159.938    11832.581    13660.553   -1434.2583     1293.312    843.62584    -2079.774 
 2006000    291.49959   -3813.6938   -3314.0735   -3813.6938            0    8702.1895    16.935574    19.947869    20.661361    6979.9989    8626.5213    8491.0976    8988.9497    2655.6395    -1338.539   -17.254871   -2428.2243 
 2007000    281.52376   -3779.3765   -3296.8544   -3779.3765            0    11133.812    16.889626    19.893749    20.605305    6923.3408    11295.286    12314.355    9791.7952   -466.68917    889.04563    227.46196   -2172.6754 
 2008000    272.88944   -3755.9371   -3288.2139   -3755.9371            0    10871.918    16.937918     19.95063     20.66422    6982.8971    11787.703     11068.71    9759.3396    590.59548   -504.80244    563.26997   -2181.0353 
 2009000     281.5344   -3764.0277   -3281.4874   -3764.0277            0    11323.379    16.859806    19.858625    20.568924    6886.7344    11852.995    11143.695    10973.448   -790.21274    1276.3561   -678.79679   -2144.2129 
 2010000    277.07147   -3783.7071   -3308.8161   -3783.7071            0    9450.9548    16.934719    19.946862    20.660317    6978.9414    9133.1472    9194.5234    10025.194    -1956.463    1008.8741   -210.14258   -2346.8913 
 2011000    290.01866   -3817.8114   -3320.7294   -3817.8114            0    9880.4925    16.877094    19.878987    20.590015    6907.9404    9716.7326    9804.0568    10120.688   -244.80985   -1178.4099   -805.16739   -2325.3169 
 2012000    290.23644   -3787.0941   -3289.6388   -3787.0941            0    10116.174    16.954406    19.970051    20.684336    7003.3094    10466.374    9353.4273     10528.72    216.52532    164.84475    620.30931   -2256.4124 
 2013000    297.37051   -3789.1359   -3279.4531   -3789.1359            0    11750.163    16.905132    19.912012    20.624221    6942.4261    9606.6665    11743.353    13900.469    412.61846    14.322314    61.455262   -2089.7706 
 2014000    277.72471   -3814.8103   -3338.7997   -3814.8103            0    9006.1674    16.840793    19.836229    20.545728     6863.461    8560.7924    9146.9263    9310.7835   -1354.4285    740.09001    -1217.107   -2437.3135 
 2015000    266.38008   -3788.9575   -3332.3911   -3788.9575            0    13476.226    16.837751    19.832646    20.542016    6859.7425    13829.127    14362.709    12236.843    1591.8858     -661.508    831.30038   -1984.1983 
 2016000    275.81174   -3803.2357   -3330.5038   -3803.2357            0    10462.101    16.925347    19.935823    20.648884    6967.3612    9315.1968    10889.073    11182.034   -1687.6053    414.31652     10.56668   -2267.4307 
 2017000     275.3147   -3779.0385   -3307.1585   -3779.0385            0     10065.11    16.848915    19.845796    20.555637    6873.3967    9218.8493    10508.317    10468.164    616.32325     479.1896    -363.4629   -2298.2174 
 2018000    269.15303   -3831.5726   -3370.2535   -3831.5726            0    10202.547    16.911209    19.919171    20.631636    6949.9166    9188.3103    11440.969    9978.3627   -2153.7826    -2285.324     672.0983   -2336.1498 
 2019000    283.54311   -3832.2759   -3346.2927   -3832.2759            0    11591.947    16.831847    19.825693    20.534815      6852.53     9649.999    12973.862    12151.979    1099.7359    310.54906     1088.777    -2187.827 
 2020000    272.84626   -3808.8631    -3341.214   -3808.8631            0    11803.417    16.719378    19.693219    20.397603    6716.0816    11243.904    12244.714    11921.632   -859.14119   -866.92094    1479.0677   -2185.1028 
 2021000    276.45763   -3842.2596   -3368.4207   -3842.2596            0     9998.885    16.870145    19.870802    20.581537     6899.411    11243.376    8550.9961    10202.283    445.88547   -255.90131    211.93993   -2362.3246 
 2022000     284.0465    -3816.592   -3329.7461    -3816.592            0    11700.588    16.866472    19.866477    20.577057    6894.9063    10278.445    11421.951    13401.368     279.2724    134.52676      1472.86   -2153.1919 
 2023000    266.85161   -3827.8695    -3370.495   -3827.8695            0    9498.7036    16.861933     19.86113    20.571519    6889.3407    8059.1541      10086.4    10350.557    477.15708    109.67718    730.32992   -2416.1225 
 2024000    294.43789   -3785.6604   -3281.0039   -3785.6604            0    10280.095    16.884851    19.888124    20.599479    6917.4701    10778.645    10796.603    9265.0373   -889.87116    451.74655   -1288.9504   -2243.9047 
 2025000    276.23477   -3812.2768   -3338.8199   -3812.2768            0    11342.859    16.846948     19.84348    20.553238    6870.9901    10079.824    12373.446    11575.307   -825.40171    1438.1088    589.99421   -2202.1935 
 2026000    288.30784   -3775.4471   -3281.2973   -3775.4471            0    12151.288    16.794852    19.782117     20.48968    6807.4451    10284.471    11004.061    15165.331   -164.01879    533.15997    1724.8865   -2074.9223 
 2027000    286.99883   -3814.2529   -3322.3468   -3814.2529            0    9414.2382    16.900321    19.906346    20.618352    6936.5009    9552.4435    9088.1107    9602.1603    199.67257   -794.55511    231.49507    -2369.986 
 2028000    294.46518   -3858.5101   -3353.8068   -3858.5101            0     10777.26    16.833651    19.827817    20.537014    6854.7325    8798.2639    11785.553    11747.963   -646.61157    334.63121    371.00959   -2276.4123 
 2029000    270.20174   -3839.6367   -3376.5202   -3839.6367            0    10629.138    16.847688    19.844352    20.554141    6871.8957    10498.804    11903.805    9484.8073   -181.59092     -156.841   -300.96523   -2311.2727 
 2030000    278.05673   -3787.5075   -3310.9278   -3787.5075            0    9233.2535    16.920315    19.929896    20.642745    6961.1491    9719.8022    11096.533    6883.4252    728.00516   -668.44341    287.68773   -2373.5566 
 2031000    287.59693   -3774.1435   -3281.2122   -3774.1435            0    9334.9852    16.897062    19.902507    20.614376    6932.4883     10304.58    9611.2763    8089.0991    48.995735   -139.18811    1436.4629   -2337.4151 
 2032000    279.23724   -3780.3318   -3301.7287   -3780.3318            0    10939.151     16.85783    19.856297    20.566513    6884.3129    9988.8429    9132.8289    13695.782    1577.4627    299.06811   -679.29664   -2203.4308 
 2033000    274.28221   -3791.3255   -3321.2152   -3791.3255            0    10137.989    16.898004    19.903617    20.615526    6933.6487    9421.9174    11012.538    9979.5116     157.2523     27.77567    1648.2293   -2296.0602 
 2034000    276.65327   -3851.7526   -3377.5784   -3851.7526            0    10474.958    16.838141    19.833106    20.542493      6860.22    8994.2165    11292.825    11137.833    1158.0818    124.96554   -39.949896   -2329.5664 
 2035000    276.11833   -3839.4649   -3366.2075   -3839.4649            0    9956.1252    16.824343    19.816854     20.52566    6843.3691    8355.2623    9759.8072    11753.306    52.400445    -634.3342   -743.14133   -2372.5512 
 2036000    285.55478   -3835.3169   -3345.8858   -3835.3169            0     11928.55    16.818465     19.80993    20.518488    6836.1979    12111.779    10814.531    12859.339    2076.5724    -228.5408    760.83826   -2156.6221 
 2037000    284.35166   -3813.2796   -3325.9105   -3813.2796            0    9940.8501    16.878692     19.88087    20.591965    6909.9029    11774.151    8346.4787    9701.9202    -148.5205   -668.85225    41.127198   -2324.1328 
 2038000    285.97937   -3814.7699    -3324.611   -3814.7699            0    13063.005    16.801515    19.789966    20.497809    6815.5504    12310.179    15085.565    11793.273    568.79881   -520.12494   -190.36782   -2026.1769 
 2039000    276.80623    -3826.776   -3352.3396    -3826.776            0    8291.8363     16.95344    19.968913    20.683158     7002.113    4692.7619    8362.8714    11819.875   -100.05257   -884.84849   -1062.5027   -2505.5886 
 2040000    287.61414   -3827.1827   -3334.2219   -3827.1827            0    11428.615    16.870016    19.870651     20.58138    6899.2533    12731.889    9221.3961    12332.561    14.836508   -667.63184     695.1575   -2184.2913 
 2041000    253.35236   -3752.0786   -3317.8413   -3752.0786            0    11361.011    16.903732    19.910363    20.622513    6940.7013    9128.1292    12554.009    12400.896   -394.88571   -1161.5755   -1068.4116   -2167.8455 
 2042000    292.50566   -3825.0771   -3323.7324   -3825.0771            0    11941.454    16.812478    19.802878    20.511183       6828.9    11988.185    10141.797    13694.379   -996.98141   -1147.2804   -214.63499   -2134.4532 
 2043000    283.53798   -3806.4585   -3320.4841   -3806.4585            0    11426.164     16.83853    19.833564    20.542967    6860.6946    11098.832    11290.944    11888.716     294.5952     2403.355   -1879.4137   -2177.2256 
 2044000    283.81809   -3829.8728   -3343.4183   -3829.8728            0     9398.067    16.892065    19.896622     20.60828    6926.3408    10432.867    9707.5068    8053.8277   -1353.7061   -737.94796   -575.37656    -2394.086 
 2045000    257.30946   -3831.1822   -3390.1626   -3831.1822            0    9598.9294    16.853558    19.851265    20.561301    6879.0805    11617.142    8928.0576    8251.5889    754.79817   -240.07478   -64.562065   -2427.1564 
 2046000    287.04149   -3802.1308   -3310.1515   -3802.1308            0    10627.198    16.881722    19.884438    20.595661    6913.6246    12747.275    10598.052    8536.2677    594.25346   -367.57804   -1447.5785   -2238.6311 
 2047000    256.43536   -3780.3577   -3340.8363   -3780.3577            0    10435.264    16.859526    19.858294    20.568582    6886.3904    9040.5474    11854.103    10411.142   -2137.9026    -935.0989   -2118.5076   -2292.8129 
 2048000    270.48201   -3785.7298   -3322.1329   -3785.7298            0    10541.903    16.877005    19.878883    20.589907    6907.8317     10450.04    10811.276    10364.393   -1354.7618    188.03973   -480.99803   -2260.1033 
 2049000    282.41625   -3781.8311   -3297.7793   -3781.8311            0     9147.037    16.864564    19.864229    20.574729     6892.566     6053.638    11189.192    10198.281    344.95866    995.19159    1675.0928     -2378.31 
 2050000    275.82365   -3806.4858   -3333.7335   -3806.4858            0    10176.247    16.880627    19.883149    20.594326    6912.2803      7992.16    12925.186    9611.3955    1982.5797   -1940.7622   -647.93861   -2307.8812 
 2051000    275.47693   -3794.5775   -3322.4195   -3794.5775            0    10245.377    16.893443    19.898245    20.609962     6928.036    10104.115    10777.616    9854.3988    27.446767    1617.1673   -629.40197   -2287.2441 
 2052000    259.70169   -3761.1021   -3315.9823   -3761.1021            0     11442.58    16.885963    19.889434    20.600836    6918.8374     11310.24    10727.793    12289.707   -615.40058   -1648.9161   -473.88892   -2161.3785 
 2053000    280.83789   -3829.9631   -3348.6166   -3829.9631            0    11695.656    16.896576    19.901934    20.613783    6931.8904    10951.584    13099.056    11036.326    1864.1215   -166.59698     924.3519     -2166.25 
 2054000     283.3938   -3792.5234   -3306.7962   -3792.5234            0    8754.8812    16.915075    19.923724    20.636352    6954.6835    8790.7536    7796.9654    9676.9247   -640.98342   -636.30581   -1396.7792   -2418.8155 
 2055000     284.6422   -3855.8739   -3368.0069   -3855.8739            0    8930.0101    16.910447    19.918273    20.630706    6948.9766    7391.0433    8517.9754    10881.012    539.60944    2385.0342   -406.41993   -2463.0067 
 2056000     280.1174   -3783.4161   -3303.3045   -3783.4161            0    7844.1335    16.916249    19.925107    20.637784    6956.1319    7872.0121    8209.9619    7450.4266   -460.08515   -73.836552   -1212.7722   -2507.5324 
 2057000     277.9645   -3811.9545   -3335.5329   -3811.9545            0    10919.915    16.917821    19.926958    20.639702     6958.071     9871.007    13124.394    9764.3434    1661.3537   -204.53707   -154.49411     -2227.42 
 2058000      268.931    -3769.777   -3308.8385    -3769.777            0    12315.476    16.860684    19.859659    20.569995    6887.8098    10592.168     15068.63    11285.629   -851.74183    408.48155    1023.4832   -2071.7287 
 2059000    293.64962   -3833.7083   -3330.4029   -3833.7083            0    8524.3927    16.949501    19.964274    20.678352    6997.2337    8958.7408    9067.1306    7547.3066   -80.891189   -807.99343   -529.74375   -2460.5102 
 2060000    273.06548   -3821.3051   -3353.2802   -3821.3051            0    9948.5857    16.839865    19.835136    20.544595    6862.3264    12145.017    7357.1871    10343.553    -1218.451    -920.2696   -672.73389   -2357.6258 
 2061000     272.0657   -3806.3322   -3340.0209   -3806.3322            0    8443.4145    16.940034    19.953123    20.666802    6985.5154    8887.5406    9165.1293    7277.5737   -1071.1685   -308.94903   -2245.0832   -2479.8347 
 2062000    266.83277   -3754.7548   -3297.4125   -3754.7548            0    9797.1291    16.904556    19.911334    20.623518    6941.7165    10263.522    11295.031    7832.8336   -896.93805    720.13208     1895.475   -2305.5726 
 2063000    280.53985   -3753.0192   -3272.1835   -3753.0192            0    9713.4753    16.906702    19.913862    20.626137     6944.361    10219.479    9651.7036    9269.2437   -164.16782    600.64586    -731.0072   -2288.4378 
 2064000    285.17279   -3797.9947   -3309.2183   -3797.9947            0    9201.2911    16.860516    19.859461     20.56979    6887.6041    8863.1364    8040.8577    10699.879    1021.6392    595.86381    610.43314   -2384.9611 
 2065000     270.1978   -3848.9728   -3385.8631   -3848.9728            0    10136.528    16.900792    19.906901    20.618927    6937.0811    11941.606    10850.326    7617.6508    97.390992   -135.51648   -165.53765   -2360.3484 
 2066000    302.48743   -3822.2582   -3303.8051   -3822.2582            0    8338.3871    16.912468    19.920653    20.633171    6951.4681    9508.9507    9116.4537     6389.757    274.22331    -1152.729    191.63518   -2458.4592 
 2067000    271.92649   -3863.4009   -3397.3282   -3863.4009            0    7288.0967    16.885241    19.888583    20.599954    6917.9493     5869.217    8583.4339     7411.639   -2349.7562    316.36886   -279.11505   -2662.0234 
 2068000    281.55424   -3848.2296   -3365.6552   -3848.2296            0    10437.971    16.829049    19.822397    20.531401    6849.1133    10508.669     11220.63    9584.6151   -681.15195    395.81118    1259.0853   -2323.0345 
 2069000    265.30946   -3834.6589   -3379.9276   -3834.6589            0    8047.1864    16.846754    19.843251       20.553    6870.7521    5583.1812     9431.726    9126.6521   -538.51311   -1070.9693   -1124.6688   -2573.5764 
 2070000    284.13502   -3810.3977      -3323.4   -3810.3977            0    12168.215    16.840687    19.836105    20.545599     6863.332    11317.329    12949.405    12237.911    530.34741     808.5579   -333.00373   -2105.4267 
 2071000    262.77075   -3812.6138   -3362.2337   -3812.6138            0      10336.3     16.87502    19.876544    20.587485    6905.3939    12887.004    8303.3099    9818.5871   -1274.1348   -1109.3041    1152.2743   -2321.2847 
 2072000     306.2683   -3787.3475   -3262.4141   -3787.3475            0    11608.902     16.86327    19.862704     20.57315    6890.9795    10559.148    12438.513    11829.045    2153.9217    358.34517    649.23048   -2095.7442 
 2073000    274.82632   -3838.8154   -3367.7724   -3838.8154            0    9095.8656    16.867361    19.867524    20.578141    6895.9966    7491.4116     10574.58    9221.6046   -1530.7586    58.304122    -429.2872   -2452.9918 
 2074000    276.56902   -3796.1814   -3322.1516   -3796.1814            0    12411.006    16.796171     19.78367    20.491289    6809.0484    13038.956    12042.878    12151.184     1287.976   -551.45116    512.55652   -2089.7016 
 2075000     262.1778   -3786.2529   -3336.8892   -3786.2529            0    11749.572    16.840795    19.836231     20.54573    6863.4633    11226.995    11962.388    12059.334    234.92209    269.85058    1885.5899   -2160.7972 
 2076000    285.03798   -3849.3375   -3360.7922   -3849.3375            0     9468.424    16.904988    19.911843    20.624046     6942.249    9854.3647    9268.3439    9282.5635    -222.6585    1212.7157    1747.4041   -2402.1561 
 2077000     286.1062   -3862.1266   -3371.7504   -3862.1266            0    9164.8407    16.899677    19.905587    20.617567    6935.7082    12993.926     9590.063    4910.5327    1496.6293   -725.77118   -548.02803    -2444.725 
 2078000    289.56691   -3804.1409   -3307.8331   -3804.1409            0    10346.772    16.935679    19.947993    20.661489    6980.1284    11467.033    9664.1988    9909.0838   -1218.3392   -1812.5083   -432.08717   -2254.5523 
 2079000    278.48825   -3842.2542   -3364.9349   -3842.2542            0    10060.669    16.944813    19.958751    20.672632    6991.4282    10296.412    8587.5289    11298.065   -574.65177   -55.782288   -1523.5176   -2339.1209 
 2080000    294.77683   -3793.3788   -3288.1414   -3793.3788            0    13553.511    16.853646    19.851369    20.561409    6879.1884    12533.311    15475.149    12652.072   -914.57277   -646.99237   -254.99238   -1928.3731 
 2081000    267.33641   -3811.2519   -3353.0465   -3811.2519            0    10040.694    16.936861    19.949385    20.662931    6981.5902    10311.887    10773.319    9036.8778   -1659.7838    383.60627    552.74322   -2330.7097 
 2082000    277.69422   -3849.8135   -3373.8551   -3849.8135            0    12141.366    16.848965    19.845855    20.555698    6873.4575    11271.799    13457.143    11695.156   -276.59651    20.346284    639.62563   -2156.7763 
 2083000    255.99774   -3804.0406   -3365.2693   -3804.0406            0     9042.056    16.918093    19.927278    20.640033    6958.4062    8480.9553    8203.4963    10441.716    437.03066    1869.8973    754.47551   -2447.6704 
 2084000    297.86059    -3790.381   -3279.8582    -3790.381            0    9579.5518    16.896183    19.901472    20.613304    6931.4075    7876.4443    10044.485    10817.726   -338.61625   -1273.8768    -622.6443   -2311.4855 
 2085000    287.14558   -3816.2964   -3324.1388   -3816.2964            0    10624.143    16.771663    19.754803    20.461389    6779.2859    11429.073    10166.277    10277.079     743.1201    700.52417   -376.45916   -2273.7411 
 2086000    276.56268   -3810.2677   -3336.2487   -3810.2677            0    8574.6893    16.887385    19.891109     20.60257    6920.5851    7721.1016    9584.5857    8418.3807   -874.90651   -186.16528    190.83999   -2470.8085 
 2087000    278.79946   -3853.7145   -3375.8618   -3853.7145            0    10697.686    16.879074     19.88132    20.592431    6910.3725      10995.9    11332.841    9764.3163    341.02814    474.50064     297.6828   -2297.7416 
 2088000    282.51991   -3791.0045    -3306.775   -3791.0045            0    11165.248    16.869894    19.870506    20.581231     6899.103    12434.493    10226.299    10834.954     1211.197   -1241.6017    294.10507   -2183.3686 
 2089000     258.7196   -3813.9658   -3370.5292   -3813.9658            0    12942.179    16.856604    19.854853    20.565018    6882.8112     14659.21    12241.162    11926.167   -751.72202    992.56451   -1791.3799   -2071.4095 
 2090000    273.06324   -3818.1065   -3350.0855   -3818.1065            0    12397.742    16.919598    19.929051     20.64187    6960.2636    13873.564    9934.6727    13384.988    419.40761   -161.90922   -2098.2174   -2091.6117 
 2091000    273.08954   -3831.1181    -3363.052   -3831.1181            0    9916.1915    16.951848    19.967037    20.681214    7000.1397    10348.049    9188.4984    10212.027   -171.99195    647.43823    272.18502   -2350.7095 
 2092000    287.65142   -3805.4361   -3312.4114   -3805.4361            0    10794.125    16.913475    19.921839    20.634399    6952.7096    13102.746    11606.231    7673.3988     630.9695   -138.98227   -156.65251   -2217.9072 
 2093000    272.06618   -3788.0427   -3321.7306   -3788.0427            0    8672.3416    16.940851    19.954085    20.667799    6986.5256    9599.7716    8720.6425    7696.6107    501.30051    1540.7926   -39.683293   -2438.0943 
 2094000    274.80657   -3796.9915   -3325.9825   -3796.9915            0    9891.0592    16.898996    19.904785    20.616736    6934.8696    9343.2462    10522.573    9807.3587    19.107127    310.79543    787.29168   -2325.6209 
 2095000    281.55045   -3835.1107   -3352.5429   -3835.1107            0    9938.7185    16.925858    19.936425    20.649507    6967.9926    10791.573    8540.7471    10483.836   0.35637363    342.48477   -69.904368   -2342.5601 
 2096000    285.84829   -3793.5332   -3303.5991   -3793.5332            0    9787.9727    16.902481     19.90889    20.620987    6939.1605    10737.874    8955.0469    9670.9975    488.25602   -379.81975   -1308.1687    -2313.051 
 2097000    279.67268   -3773.4508   -3294.1014   -3773.4508            0    12298.935    16.809306    19.799142    20.507314    6825.0359    13748.852    11384.729    11763.223    616.63438    244.19907   -586.60828   -2069.9128 
 2098000    281.26009   -3842.7869   -3360.7167   -3842.7869            0    8400.8545    16.855004    19.852969    20.563066    6880.8515    8990.2483    7960.7136    8251.6016    789.15948   -875.59547    645.78078   -2517.6896 
 2099000    280.15594   -3818.1327    -3337.955   -3818.1327            0    9395.2674     16.93947    19.952458    20.666114    6984.8169    9591.6609    9259.1232    9335.0181   -945.09425   -123.99022   -1607.6496    -2380.893 
 2100000    274.12402   -3805.0917   -3335.2526   -3805.0917            0    11495.927    16.871863    19.872825    20.583633    6901.5188    11163.561    11976.276    11347.943    142.66869    119.06736     882.9725   -2178.1695 
 2101000    275.22622   -3822.5015   -3350.7732   -3822.5015            0     11223.16    16.867289    19.867438    20.578053    6895.9077    11632.509    10346.872    11690.098   -394.02087     1877.715    289.22524   -2222.0629 
 2102000    291.91186    -3805.412   -3305.0851    -3805.412            0    10651.659    16.903539    19.910136    20.622278    6940.4642    12442.475    9017.1677    10495.336   -605.94668   -272.62753    202.80217   -2226.9289 
 2103000      283.016   -3797.4604   -3312.3807   -3797.4604            0     9007.225    16.913772    19.922189    20.634762    6953.0763    9422.0359    7355.2179    10244.421    968.22732    438.18295    145.97819   -2399.0167 
 2104000    276.73071   -3817.8031   -3343.4961   -3817.8031            0    6974.1775    16.966706    19.984539    20.699342    7018.5633    8930.9915    4863.4559     7128.085   -1282.8868    622.94901   -1255.2981   -2629.6295 
 2105000    286.45139   -3788.3581   -3297.3902   -3788.3581            0    10601.492    16.938215     19.95098    20.664582    6983.2645    11846.827    10679.545    9278.1034    332.06811     1237.976   -720.80364   -2217.6945 
 2106000     265.5479   -3803.5913   -3348.4513   -3803.5913            0     10363.23    16.913821    19.922246    20.634822    6953.1363    8838.1403    10659.211    11592.338    237.88081    -1271.996     426.5695   -2297.5746 
 2107000    281.65848   -3838.7783   -3356.0253   -3838.7783            0    10100.826     16.84209    19.837757     20.54731    6865.0473    9137.6486    10656.279     10508.55   -273.41229    169.58294   -343.78114   -2344.7339 
 2108000    267.00076   -3772.3321   -3314.7019   -3772.3321            0    9285.1739    16.938444     19.95125    20.664862    6983.5484    9838.5448    10079.492    7937.4851   -7.5884003    263.43714    38.027429   -2369.0265 
 2109000    283.17731   -3810.9928   -3325.6366   -3810.9928            0    10277.793    16.883684     19.88675    20.598055    6916.0362    11362.481     9312.221    10158.676   -1351.3221    105.04534   -665.43853   -2288.9846 
 2110000    273.05318   -3799.1918    -3331.188   -3799.1918            0    11022.027    16.889362    19.893437    20.604982    6923.0155    11296.258    12418.613    9351.2123    1150.8035     992.1913    291.32278   -2218.3481 
 2111000    288.97406   -3824.9016     -3329.61   -3824.9016            0    9972.0062    16.879144    19.881402    20.592516    6910.4581    9863.5436    11578.441     8474.034   -1058.7261    193.22076    1913.6808   -2324.6118 
 2112000    280.97705   -3830.6119   -3349.0268   -3830.6119            0    10381.398    16.925309    19.935779    20.648838    6967.3149     9297.527    9912.1566    11934.512    -1228.925    355.46214     23.59407   -2294.1611 
 2113000    272.58639   -3810.6075   -3343.4038   -3810.6075            0     10484.47    16.860213    19.859104     20.56942    6887.2327    10546.154     9331.209    11576.046   -2167.0734    -1078.259   -1303.2346   -2290.3098 
 2114000    293.05836   -3803.5306   -3301.2386   -3803.5306            0    9848.6264    16.934938     19.94712    20.660585    6979.2126    10709.451    9837.2837    8999.1447   -740.20427    418.60582    1063.8481   -2298.7996 
 2115000    286.67197   -3790.2007   -3298.8547   -3790.2007            0    11575.096    16.880534    19.883039    20.594212    6912.1651    11754.284    10629.729    12341.276    201.95965    429.17543   -498.02405   -2132.0059 
 2116000    286.41463   -3820.0937   -3329.1888   -3820.0937            0    10940.388    16.845022    19.841211    20.550887    6868.6333     8294.895    10938.082    13588.187    497.17889    253.97476   -233.96245   -2233.2686 
 2117000    263.75683   -3832.6823   -3380.6121   -3832.6823            0    9179.5257    16.888276    19.892159    20.603658     6921.681     10649.66    10042.177    6846.7399    412.77092   -56.595872   -334.83271   -2453.9792 
 2118000    269.70171   -3809.7347   -3347.4752   -3809.7347            0    9941.1835    16.841795     19.83741     20.54695    6864.6866     8968.916    10578.321    10276.313    711.22319    667.86477    284.31852   -2352.2195 
 2119000    284.45586   -3840.6937   -3353.1461   -3840.6937            0    9657.1514    16.894997    19.900075    20.611857    6929.9481    9237.0624    10653.071    9081.3208    2.0917082    1644.6303    133.51673   -2377.1347 
 2120000    276.68702   -3816.3883   -3342.1562   -3816.3883            0      10874.9    16.856668    19.854928    20.565096    6882.8893    10912.359    10521.747    11190.593    2168.7601    -2.519993    425.86806   -2250.5351 
 2121000    275.95783   -3800.8667   -3327.8844   -3800.8667            0    9767.3327    16.812272    19.802635    20.510932    6828.6488    9997.6041    7700.1343     11604.26    773.75634   -185.20825   -138.04362   -2355.1671 
 2122000    287.60542   -3804.5303   -3311.5844   -3804.5303            0    7334.3992    16.974161    19.993319    20.708436     7027.818    8096.3197    7331.3484    6575.5297    369.40002   -492.92886   -268.98598   -2559.8561 
 2123000    260.01956   -3819.3163   -3373.6517   -3819.3163            0    10223.348    16.854433    19.852296    20.562369    6880.1519    10422.527    10308.335    9939.1819   -1147.9041   -290.97979   -462.79593   -2347.8414 
 2124000    289.23562   -3805.6208   -3309.8809   -3805.6208            0    10511.836    16.912774    19.921014    20.633545    6951.8458    11162.473      9185.52    11187.515   -1716.9817    1535.5488   -1379.8002   -2244.1327 
 2125000    291.11319   -3755.4803   -3256.5223   -3755.4803            0    12951.245    16.846823    19.843332    20.553085    6870.8367    13498.632    12585.691    12769.412    358.22944     1236.728    285.78169   -1958.7544 
 2126000    279.11105   -3801.2026   -3322.8158   -3801.2026            0    9943.8466    16.889465    19.893559    20.605108     6923.143    10752.745    9502.0464    9576.7483   -333.39943    1116.6922    -955.9286   -2318.8161 
 2127000    286.00927   -3818.0833   -3327.8732   -3818.0833            0    12070.547    16.859423    19.858174    20.568457    6886.2649    13667.742    13333.628    9210.2729   -933.95551   -1371.6236    343.45846   -2115.6389 
 2128000    278.67442   -3803.0593   -3325.4208   -3803.0593            0    9704.7265    16.941371    19.954697    20.668433    6987.1687    10803.242    7679.4934    10631.444     1880.319   -1384.9598   -623.82128   -2336.5025 
 2129000    290.70186   -3798.8764   -3300.6234   -3798.8764            0    8860.1284    16.997305    20.020581    20.736673    7056.6053    7785.1271    9639.7668    9155.4913    1119.1856    269.55544    369.57129   -2388.7979 
 2130000    270.15348   -3850.0715   -3387.0377   -3850.0715            0     11683.22    16.925274    19.935737    20.648794    6967.2708    11329.643    12245.461    11474.557    203.77783    552.48354   -193.66272   -2199.8998 
 2131000    269.75014    -3844.939   -3382.5965    -3844.939            0    11357.177    16.873763    19.875064    20.585952    6903.8513    10545.704     10986.55    12539.277    717.93302    752.16335    626.00482   -2239.0925 
 2132000    279.32211   -3812.2449   -3333.4963   -3812.2449            0    8208.2702    16.942953     19.95656    20.670363    6989.1262    9449.3218    7019.9255    8155.5634   -887.05897    209.25343   -1763.3458   -2496.8336 
 2133000    269.19657   -3820.7819   -3359.3882   -3820.7819            0    9004.2419    16.964398     19.98182    20.696526    7015.6987    9711.4493    8317.9361    8983.3403    471.46168     -472.897    -503.7814   -2438.1032 
 2134000    271.30196   -3801.1313    -3336.129   -3801.1313            0    10852.443    16.832068    19.825953    20.535084    6852.7999    10138.601    11998.935    10419.792    1875.3408    621.46814   -278.99775   -2251.5244 
 2135000    262.80514   -3806.1152   -3355.6762   -3806.1152            0    11150.222     16.82827     19.82148     20.53045     6848.162    10876.766    12543.763    10030.138   -6.8896415   -1221.7665   -723.22738   -2242.0654 
 2136000    282.11278   -3835.3045   -3351.7728   -3835.3045            0    12970.527    16.846373    19.842802    20.552535    6870.2858    13612.538    13560.989    11738.054   -692.27608    533.99745   -610.57412    -2052.177 
 2137000    281.21689   -3829.0099   -3347.0138   -3829.0099            0     14443.32     16.77285    19.756202    20.462838    6780.7258    12834.843     16345.57    14149.547    1348.8835    1387.4299    -690.6838   -1918.7149 
 2138000    282.20208     -3831.56   -3347.8753     -3831.56            0    9604.1944    16.872108    19.873114    20.583932    6901.8198    10675.193    9348.2063    8789.1838    1323.8677   -573.62373    556.92972   -2381.1558 
 2139000    261.00468   -3852.1809   -3404.8278   -3852.1809            0    11908.522    16.894563    19.899563    20.611327    6929.4132    11637.456    10149.365    13938.746    2360.6483    130.93241    126.76495   -2201.3718 
 2140000    272.74444   -3796.9075   -3329.4328   -3796.9075            0    11018.351     16.87731    19.879242    20.590279    6908.2061     8366.594    13922.556    10765.902   -1260.4309   -1252.8044    1206.2899   -2219.3439 
 2141000    267.62931   -3813.4346   -3354.7271   -3813.4346            0    10222.512    16.854643    19.852543    20.562625    6880.4092    10530.352    8625.5135    11511.672    -1148.692    382.60123   -688.02648   -2328.9623 
 2142000    273.06805   -3825.7424   -3357.7131   -3825.7424            0    10321.152    16.919086    19.928448    20.641245     6959.632    10400.869    10276.606    10285.981   -2310.5392    110.46129    350.40924   -2310.1255 
 2143000    265.04043   -3782.2555   -3327.9852   -3782.2555            0    10555.709     16.89045    19.894719     20.60631    6924.3538    10999.344    10661.265    10006.518   -1052.0265   -744.56611    1186.7134   -2262.0212 
 2144000    266.18849   -3803.1324   -3346.8945   -3803.1324            0    9346.3685    16.918862    19.928185    20.640972     6959.356     8423.793    10159.927    9455.3854   -2131.8804    961.34107   -776.40895   -2398.2841 
 2145000    288.52589   -3808.7497   -3314.2262   -3808.7497            0    10867.978    16.836997    19.831758    20.541097     6858.821    13991.685    9834.1692    8778.0788    585.03991    846.88606   -697.54155   -2227.1147 
 2146000    268.28167   -3821.9439   -3362.1183   -3821.9439            0    8787.9273    16.907235     19.91449    20.626788    6945.0183    9642.4614    8499.4082    8221.9124    488.13946   -2049.0556    1864.1146   -2472.0245 
 2147000    264.41699   -3816.7937   -3363.5921   -3816.7937            0    10882.405    16.898423     19.90411    20.616037    6934.1644    11846.003    8752.0061    12049.206    194.29009   -401.72594   -1067.8181   -2263.0797 
 2148000    273.57994   -3822.3639   -3353.4572   -3822.3639            0    9995.7311    16.892664    19.897327    20.609011    6927.0773    8650.1442    10554.079     10782.97   -670.68668    433.52412   -1057.7216   -2343.6453 
 2149000     273.0651   -3740.9916   -3272.9674   -3740.9916            0    10476.081    16.943565    19.957281     20.67111     6989.884     11375.63    8727.7053    11324.908    34.258443    290.16483    249.97028   -2205.0327 
 2150000    271.86494   -3804.8335   -3338.8663   -3804.8335            0    10623.887    16.905299    19.912209    20.624425    6942.6321    11117.686    10856.766    9897.2094    543.11194    310.59257   -467.41129   -2263.1854 
 2151000    293.21299   -3823.2022   -3320.6451   -3823.2022            0    10209.913    16.913337    19.921677    20.634232    6952.5405    9978.8131    10777.971    9872.9543   -406.17062   -1294.0312     166.1758   -2285.4042 
 2152000    273.49016    -3834.893   -3366.1402    -3834.893            0    8626.2354    16.917965    19.927128    20.639878    6958.2492    10831.633    7562.0871    7484.9867   -827.39105   -135.74682    182.43074   -2490.7591 
 2153000    280.52841   -3813.7859   -3332.9698   -3813.7859            0    9908.7478    16.911434    19.919435    20.631909    6950.1929    11243.174    8480.5716    10002.498    1392.9667   -651.10553     148.0306   -2328.6049 
 2154000    268.10391   -3826.2884   -3366.7674   -3826.2884            0    11760.315    16.802337    19.790933    20.498812    6816.5504    11939.506    11638.144    11703.295     1256.018   -471.11244    440.32719   -2197.6463 
 2155000    275.48316   -3836.9947    -3364.826   -3836.9947            0    10536.335     16.89515    19.900255    20.612044    6930.1358     12967.94    7349.4308    11291.633   -263.27342    350.38369   -118.52907   -2299.9301 
 2156000    269.52004   -3872.8418   -3410.8936   -3872.8418            0    9137.0872    16.833057    19.827118     20.53629    6854.0074    7858.9714    10052.379    9499.9112   -2211.4535    2325.9558    1724.3988   -2497.5626 
 2157000    269.62481   -3833.4047    -3371.277   -3833.4047            0    11648.527    16.821785     19.81384    20.522538     6840.247     12443.52    11310.336    11191.725    -1490.492   -246.04694    494.25429   -2209.2434 
 2158000    276.96155   -3820.2269   -3345.5243   -3820.2269            0     12619.82     16.74778    19.726673    20.432253    6750.3667    12373.043    12249.699     13236.72    561.93167      761.083    -276.6378   -2103.1387 
 2159000     275.5045   -3804.4988   -3332.2935   -3804.4988            0    9972.8837    16.871716    19.872653    20.583454    6901.3389    10861.497    9894.6668    9162.4874   -1273.6112   -542.65214   -936.32401   -2328.5332 
 2160000    280.78514    -3789.084   -3307.8279    -3789.084            0    12593.043    16.914211    19.922706    20.635298    6953.6176    11288.149     13646.67     12844.31     20.51726   -1167.0115    1704.8463   -2030.7501 
 2161000    258.92876   -3805.6892   -3361.8942   -3805.6892            0    10878.131    16.935413    19.947679    20.661164    6979.7994    10818.167    8993.1064    12823.121    -698.8242    1786.1021   -1346.3805   -2254.5742 
 2162000    273.98083   -3813.0059   -3343.4121   -3813.0059            0     10900.42    16.868953    19.869399    20.580084    6897.9492     12425.19    8762.9044    11513.166    -237.1244   -408.65953    1230.1669   -2246.8351 
 2163000    271.24543   -3799.6014    -3334.696   -3799.6014            0    9399.8338    16.886403    19.889953    20.601373     6919.378    10016.146    8923.0101    9260.3451    63.576929    362.48682   -292.07912   -2386.1397 
 2164000     271.7355   -3823.4604    -3357.715   -3823.4604            0    11237.738    16.801357    19.789779    20.497616    6815.3577    11088.964    9002.9921    13621.258   -1668.5371    79.011234     -924.648   -2240.7401 
 2165000    279.68089   -3811.7803   -3332.4168   -3811.7803            0     11492.74    16.846783    19.843285    20.553036    6870.7876    11884.809    11702.396    10891.016    1709.1284   -85.013481    129.43318   -2180.8053 
 2166000    271.24433   -3769.5515    -3304.648   -3769.5515            0    14123.722    16.787572    19.773542    20.480798    6798.5958    15336.365    14143.233    12891.567    295.91203   -556.38762    1493.0736   -1904.2733 
 2167000    271.14149   -3840.6416   -3375.9144   -3840.6416            0    10481.502    16.803986    19.792876    20.500824     6818.558    9375.4446     11232.23    10836.831   -29.437436    586.04927   -234.69536   -2333.6163 
 2168000    288.54714   -3806.9861   -3312.4262   -3806.9861            0    10403.539    16.867512    19.867701    20.578326    6896.1816     9483.633    10559.799    11167.185   -339.81178    1696.5691    389.61392   -2266.1034 
 2169000    270.92208   -3790.6369   -3326.2857   -3790.6369            0    11080.517    16.872664     19.87377    20.584611    6902.5025    11434.064    11970.372    9837.1149   -521.48226      678.312   -603.58779   -2210.8553 
 2170000    283.29788   -3787.3756   -3301.8127   -3787.3756            0    12123.805    16.804637    19.793642    20.501617    6819.3497    12386.036    12260.443    11724.935    1549.5045    1550.4443   -569.39313   -2096.0613 
 2171000     275.9576   -3783.9697   -3310.9878   -3783.9697            0    11474.305    16.935988    19.948357    20.661866    6980.5108    12356.897    10493.415    11572.603    1369.4237   -116.90606    491.02752   -2142.8624 
 2172000     273.9707   -3801.1711   -3331.5947   -3801.1711            0    11832.438    16.890591    19.894886    20.606482    6924.5277    12104.782    13722.791    9669.7414   -452.67834    1201.5414   -226.72366   -2136.6707 
 2173000     275.2652   -3823.2543   -3351.4592   -3823.2543            0    10290.919    16.926968    19.937733    20.650862    6969.3638    9370.9256     10869.85    10631.981   -237.04355    830.70678    48.735541   -2305.4797 
 2174000    274.39857   -3838.5379   -3368.2282   -3838.5379            0    9016.9342    16.914563    19.923121    20.635727    6954.0521    8349.1725     10544.51    8157.1206    178.40992    1071.7098    347.97186   -2453.7513 
 2175000    283.02032   -3820.7965   -3335.7093   -3820.7965            0    8412.3525    16.925909    19.936485     20.64957    6968.0557    8304.1387    9066.4924    7866.4264    1325.3606    -541.5845    528.01134   -2480.8297 
 2176000    302.73446   -3861.5825    -3342.706   -3861.5825            0    11534.991    16.762804    19.744368    20.450581    6768.5487    10050.999    13722.647    10831.326   -382.11461    43.634596   -1669.6002     -2204.06 
 2177000    287.33375   -3814.1102     -3321.63   -3814.1102            0    10149.803    16.858469     19.85705    20.567293    6885.0958    9799.5266    11198.926    9450.9552    1167.1536     291.3012    465.61563   -2302.4674 
 2178000    273.20245    -3797.885   -3329.6254    -3797.885            0    9921.3696    16.864154    19.863746    20.574229    6892.0637    7373.2666    10268.378    12122.464    248.96342   -2694.5623    105.66299    -2332.392 
 2179000    270.25279   -3826.5775   -3363.3735   -3826.5775            0    9387.3007    16.862028    19.861242    20.571635    6889.4571    9369.7778    7627.1935    11164.931   -853.82265   -807.62881   -30.703644   -2420.1782 
 2180000    268.50752   -3790.3898   -3330.1771   -3790.3898            0    10927.053    16.907687    19.915022    20.627338    6945.5744    9416.0227    12653.793    10711.345   -1684.5814   -459.78754    1047.1697   -2223.3313 
 2181000    296.89222   -3811.3139   -3302.4508   -3811.3139            0    11655.087    16.823268    19.815587    20.524347    6842.0564    9669.4575    13139.945    12155.859    1056.6381    885.68119    549.26558   -2139.4552 
 2182000    312.99673   -3839.5563   -3303.0906   -3839.5563            0     11456.84    16.844727    19.840863    20.550527     6868.272    11504.892    10743.327    12122.302   -218.47701   -1682.5292    177.03753   -2155.4967 
 2183000    274.05827   -3828.0344   -3358.3079   -3828.0344            0    9418.0645    16.872354    19.873404    20.584232    6902.1217     10045.25    9077.3922    9131.5512    62.150635    663.05377   -1044.4482   -2410.2821 
 2184000    281.71804   -3841.6942   -3358.8391   -3841.6942            0    10061.145    16.822625     19.81483    20.523563    6841.2726    10948.308    9349.0921    9886.0347   -141.72086    2283.5607    918.33288   -2355.0091 
 2185000    273.18282    -3787.169    -3318.943    -3787.169            0    13135.558    16.868986    19.869437    20.580123    6897.9891     10876.39    14249.462     14280.82   -1003.7697   -976.86933   -613.09968   -1997.5046 
 2186000    284.29748   -3808.7183   -3321.4421   -3808.7183            0    9974.3861    16.913253    19.921578    20.634129    6952.4364    11519.478    10168.235    8235.4452     2422.278     1219.944   -242.34397   -2310.0977 
 2187000    270.41896   -3816.6766   -3353.1878   -3816.6766            0    10523.015    16.836442    19.831105     20.54042    6858.1429     9498.662    12573.191    9497.1932    1413.2246    53.973437   -975.97043   -2300.6865 
 2188000    289.63958   -3789.1034   -3292.6711   -3789.1034            0    11881.681    16.813664    19.804275    20.512631    6830.3455    11484.726    12803.402    11356.914    665.64816    617.59964    295.29393   -2109.0943 
 2189000    260.78574    -3810.831   -3363.8531    -3810.831            0    9352.8495    16.882971     19.88591    20.597185    6915.1599    8450.1573    9925.9065    9682.4847    2563.7697     749.8469    552.84177   -2420.6134 
 2190000    298.36097   -3791.1602   -3279.7797   -3791.1602            0    12283.595    16.895493    19.900659    20.612462    6930.5581    11741.402    12231.585    12877.799    1433.2972   -632.03195   -429.00408   -2038.2144 
 2191000    285.42468   -3766.6306   -3277.4225   -3766.6306            0     11560.85    16.865422     19.86524    20.575776    6893.6187    10665.263    11902.109    12115.178    1353.3775    1134.2338   -1269.7496   -2115.1368 
 2192000    286.51534   -3782.1965    -3291.119   -3782.1965            0    13058.706    16.800463    19.788726    20.496526    6814.2701    11080.602    15079.963    13015.552    841.06368    652.17611   -479.74091    -1993.356 
 2193000    292.69264   -3845.4609   -3343.7957   -3845.4609            0    10939.386     16.89275    19.897428    20.609115    6927.1826    11187.522    10498.801    11131.834   -1135.2791      157.886    1718.8648   -2238.6349 
 2194000     293.9351   -3809.4125   -3305.6178   -3809.4125            0    10253.297    16.813628    19.804233    20.512587     6830.302     9624.464    9108.4879    12026.939    1247.3479   -2613.5239   -319.17379   -2284.2567 
 2195000    267.76414   -3803.9856   -3345.0471   -3803.9856            0    9468.9339    16.892072     19.89663    20.608289    6926.3493    10496.416    7612.9102    10297.476   -1227.8232    -3109.497    958.26354    -2388.555 
 2196000    277.00355   -3829.8333   -3355.0587   -3829.8333            0    9403.5589    16.891718    19.896212    20.607856    6925.9128    10937.269     8246.001    9027.4066    1072.6284   -929.96411    356.23626   -2405.2303 
 2197000    264.26954    -3798.917    -3345.968    -3798.917            0    11373.155    16.831176    19.824902    20.533995    6851.7094    10636.215    11885.282    11597.966   -634.20191   -934.97178    553.34611   -2209.5038 
 2198000    285.91918   -3814.6727    -3324.617   -3814.6727            0     9860.097    16.885668    19.889086    20.600475    6918.4736    9185.8572    11957.023    8437.4111    1548.5113     650.0957    2426.6149   -2329.7446 
 2199000    292.57713   -3826.0591   -3324.5919   -3826.0591            0    9719.5001    16.927612    19.938492    20.651648    6970.1594    10376.142    8890.5099    9891.8487    -1124.816    214.53994   -557.11621   -2336.5792 
 2200000    269.50159   -3818.8418   -3356.9253   -3818.8418            0    10537.366    16.916727     19.92567    20.638368    6956.7215    11234.722    10276.476    10100.898   -716.41659   -153.63919    633.15265   -2287.8395 
 2201000     276.3476   -3815.9428   -3342.2924   -3815.9428            0    9257.2539    16.841099     19.83659    20.546101    6863.8356    8949.8134    9404.7319    9417.2164   -20.097468    109.15578    1118.5543   -2415.6228 
 2202000    282.37865   -3793.5729   -3309.5856   -3793.5729            0    11664.089    16.832999    19.827049    20.536219    6853.9361    10745.715    11443.057    12803.494    1444.9223    1081.3821   -63.607045    -2143.671 
 2203000     271.7086   -3834.2042    -3368.505   -3834.2042            0    11598.721    16.817242     19.80849    20.516996    6834.7074    12443.052    11764.588    10588.524   -174.07225   -1689.4447    1158.8945    -2212.377 
 2204000     272.6015   -3828.1957   -3360.9661   -3828.1957            0    10360.219    16.845495    19.841768    20.551464    6869.2117    10659.677    10022.858    10398.122    -720.4044   -1094.8417    1005.9409   -2323.0751 
 2205000    261.81981   -3797.4833   -3348.7331   -3797.4833            0    12904.216     16.77817    19.762468    20.469328    6787.1794    12679.699    11647.043    14385.904   -579.94023    633.91782     122.9608   -2071.4216 
 2206000    276.03268   -3821.3343   -3348.2237   -3821.3343            0    12119.038    16.834947    19.829344    20.538596    6856.3162    12381.656    12595.403    11380.055   -291.02093     438.2021   -1656.4273   -2136.4128 
 2207000    266.93143    -3794.804   -3337.2926    -3794.804            0    10717.051    16.910076    19.917836    20.630253    6948.5193    7777.9275    11850.948    12522.279    136.04515   -107.36311   -580.55107   -2251.2585 
 2208000     283.5324   -3797.0495   -3311.0847   -3797.0495            0    12446.381    16.901154    19.907327    20.619368    6937.5264    12229.009    12317.261    12792.873   -319.01022    1236.6338    96.064521   -2051.8009 
 2209000    281.44707   -3817.5018   -3335.1111   -3817.5018            0    11444.446    16.878366    19.880486    20.591567    6909.5029    10887.607    11526.771    11918.961    -1153.548   -292.54917    887.15297    -2181.877 
 2210000    284.73094   -3794.0178   -3305.9988   -3794.0178            0    12774.696    16.828479    19.821725    20.530705    6848.4167    11171.781    14896.255    12256.054     1642.756     2442.383    1123.1493   -2030.0987 
 2211000    266.95217    -3837.434   -3379.8871    -3837.434            0     10635.15    16.909356    19.916988    20.629375    6947.6319     11055.59    10244.527    10605.332    73.331779    690.60028   -662.96165   -2302.2903 
 2212000    276.44087    -3824.551   -3350.7408    -3824.551            0    12580.906    16.802597     19.79124    20.499129    6816.8668    12312.409    12810.511    12619.798    242.95597   -239.56622   -641.37145   -2099.9848 
 2213000    288.86756   -3822.4895   -3327.3804   -3822.4895            0    9988.8223    16.858997    19.857671    20.567937    6885.7423    10062.346    9118.9161    10785.205    723.16261    434.97054    771.18362    -2324.288 
 2214000    272.34767   -3820.9481   -3354.1536   -3820.9481            0    10334.722    16.871917    19.872889    20.583699    6901.5852    10804.996    9425.6402     10773.53    1490.0333   -303.58817    904.88332   -2313.9375 
 2215000    266.15249   -3856.8353    -3400.659   -3856.8353            0    9554.5641    16.855019    19.852986    20.563083    6880.8693    8305.8915    9231.9726    11125.828   -343.46451   -472.18428    891.68522   -2441.8545 
 2216000    275.90821    -3793.244   -3320.3468    -3793.244            0    11920.899    16.804805    19.793841    20.501823     6819.555     13948.25    10386.421    11428.026   -614.21129    496.28353   -81.266366   -2134.7393 
 2217000    273.35383   -3806.6393   -3338.1202   -3806.6393            0    12724.761    16.857118    19.855458    20.565644    6883.4403    12847.326    11596.092    13730.865   -118.69611    446.87053   -605.52555    -2060.708 
 2218000    291.50919   -3819.5588   -3319.9221   -3819.5588            0    12349.553    16.851268    19.848568    20.558508    6876.2767    10308.708    13604.361     13135.59    895.74272    1342.0063   -1768.8799   -2081.4664 
 2219000    282.21788   -3780.7024   -3296.9906   -3780.7024            0    11287.579    16.876903    19.878763    20.589782    6907.7063    10074.927    12340.596    11447.212   -1900.5703   -455.51652    219.54386   -2159.8595 
 2220000    278.42926    -3828.582   -3351.3638    -3828.582            0    11738.098    16.777153     19.76127    20.468087    6785.9456    11013.814    13807.627    10392.852     1574.196    -788.1317   -554.20524   -2189.6906 
 2221000    278.75332   -3830.6178   -3352.8441   -3830.6178            0    9217.6914     16.88531    19.888665    20.600039    6918.0342    9269.3139    10632.471    7751.2893     1004.639   -842.40575    870.24673   -2422.8488 
 2222000    273.59981    -3835.288   -3366.3473    -3835.288            0    11256.632    16.820256     19.81204    20.520673    6838.3825    10094.799     11831.81    11843.287    245.58589   -1599.0854   -713.26594   -2243.7144 
 2223000    274.96099    -3833.839   -3362.5653    -3833.839            0    10168.213    16.886213    19.889729    20.601141    6919.1447    8727.9644    9985.1496    11791.526    1631.1383    325.06194    1539.5291   -2336.5048 
 2224000    268.28817   -3782.6104   -3322.7737   -3782.6104            0    10007.424    16.930843    19.942296    20.655589    6974.1507    9530.2944    9035.8439    11456.133     1892.825     364.7513    781.00064   -2304.9103 
 2225000    281.02863   -3820.4666   -3338.7932   -3820.4666            0    9409.6452    16.916795     19.92575    20.638451    6956.8056    10729.152    6949.0086    10550.775     209.5237    973.19519    629.22546   -2384.1106 
 2226000    276.87401   -3815.9434   -3341.3908   -3815.9434            0    8632.1526    16.982338    20.002951    20.718413    7037.9805    7860.5913    8142.6269    9893.2397   -668.82105    125.21174   -1536.2662   -2455.3718 
 2227000    290.47837   -3761.9128   -3264.0428   -3761.9128            0    10326.141    16.890731    19.895051    20.606653    6924.6999    11274.715    10427.636    9276.0725   -391.07823   -723.50866    141.69459   -2221.2095 
 2228000    285.59874   -3786.3859   -3296.8794   -3786.3859            0    10871.932    16.892802     19.89749     20.60918    6927.2475     10207.54     11189.21    11219.045   -445.39446    1535.0021   -1758.8205   -2198.5229 
 2229000    282.27881   -3792.4434   -3308.6272   -3792.4434            0    11686.647    16.919897    19.929404    20.642235    6960.6331    12470.975    10704.152    11884.814     875.8944    49.539218    465.59032   -2122.2725 
 2230000    278.98116   -3775.1045   -3296.9403   -3775.1045            0    9849.5449    16.936906    19.949438    20.662986    6981.6464     11206.11    9964.1238    8378.4006    585.49087   -1474.6516   -1058.7985   -2294.0582 
 2231000    288.08345   -3790.5312    -3296.766   -3790.5312            0    11795.519    16.875369    19.876955    20.587911    6905.8224    11687.011    15093.636    8605.9095   -1157.3938    518.30738   -596.13485   -2108.7882 
 2232000    278.30782   -3797.2219   -3320.2118   -3797.2219            0    9956.5774    16.819078    19.810652    20.519235    6836.9453    8290.3666     11110.09    10469.275   -380.55307   -867.25508    733.55296   -2327.4431 
 2233000    279.40995   -3832.0167   -3353.1176   -3832.0167            0    12591.803    16.781221    19.766062    20.473051    6790.8835     11218.22    13111.147    13446.043    836.05795    -205.9237    70.838196   -2106.0497 
 2234000    285.65933   -3802.0658   -3312.4555   -3802.0658            0    12134.557    16.780708    19.765457    20.472424    6790.2603    10687.643    14200.327    11515.702    1619.9632      2122.38   -10.785141   -2110.7826 
 2235000    278.62711   -3835.6395   -3358.0822   -3835.6395            0    11467.639    16.776413    19.760398    20.467184    6785.0475    10805.633    12830.119    10767.165    83.599599    796.56117   -1401.7529   -2223.3254 
 2236000    269.70726   -3821.2474   -3358.9783   -3821.2474            0    10406.982    16.839739    19.834989    20.544443    6862.1733    11082.358    10050.787    10087.801   -910.24505   -232.66116     -1331.06   -2317.4709 
 2237000    272.81115   -3835.5233   -3367.9343   -3835.5233            0    7589.7361    16.949882    19.964723    20.678817    6997.7054    7915.8147    6842.3676     8011.026   -935.96107   -798.47969    1472.0878   -2593.3687 
 2238000    296.19512   -3853.4488   -3345.7805   -3853.4488            0    10464.319    16.876654    19.878469    20.589478    6907.3999    11048.604     9496.726    10847.626    419.85544    208.24565    2010.7639   -2291.6328 
 2239000    275.88461   -3829.0545   -3356.1977   -3829.0545            0    9908.3544    16.904418    19.911172    20.623351    6941.5472    10036.306    9332.8897    10355.867   -1025.5974   -627.61295    654.77298    -2353.122 
 2240000    277.65114   -3789.8663   -3313.9818   -3789.8663            0    13807.912     16.78976     19.77612    20.483469    6801.2554    12734.578    13758.992    14930.165    391.97725   -1838.8465    1640.2975   -1944.3842 
 2241000    276.06925   -3833.8922    -3360.719   -3833.8922            0    12398.559     16.80857    19.798275    20.506416    6824.1396    13942.884    13521.695    9731.0978   -833.41181    542.85207   -260.13093   -2126.7762 
 2242000    286.00853   -3836.8135   -3346.6047   -3836.8135            0    11095.655     16.86876    19.869171    20.579848    6897.7121    11694.036    10958.431      10634.5     1463.183    47.339903    21.041389   -2230.4255 
 2243000    282.90054   -3795.0412   -3310.1594   -3795.0412            0     9403.624    16.870452    19.871164    20.581912    6899.7883    8935.2803    9227.0583    10048.533   -1310.4247    215.83173   -2145.4623   -2363.9072 
 2244000    279.75985   -3802.9394   -3323.4406   -3802.9394            0      12252.7    16.837208    19.832006    20.541354    6859.0787    10765.457    11635.253    14357.391   -1056.2048     -77.6492    668.35666   -2097.7708 
 2245000    283.40469   -3798.7499   -3313.0039   -3798.7499            0    10843.166    16.834205     19.82847     20.53769    6855.4096    11458.266    10155.382     10915.85    952.64014     54.48658   -1191.3177   -2228.9138 
 2246000     271.0769   -3795.7712   -3331.1547   -3795.7712            0    10816.959     16.83522    19.829666    20.538929    6856.6503     10860.74     12485.62    9104.5176    262.95505   -165.97791    517.74709   -2249.4889 
 2247000    262.08302   -3799.3105   -3350.1091   -3799.3105            0    10743.864    16.846129    19.842515    20.552238    6869.9879    11695.553    11259.203    9276.8364   -200.94557    -17.73248    617.82865   -2273.6628 
 2248000    293.36075   -3801.5564   -3298.7461   -3801.5564            0      10592.7    16.871303    19.872166     20.58295    6900.8319    11015.238    10466.854    10296.007    1816.4038   -477.35875    171.10556   -2232.6803 
 2249000    260.53969   -3818.5206   -3371.9645   -3818.5206            0    9321.1004    16.944705    19.958625    20.672501    6991.2955    10225.096     8978.902     8759.303   -35.509086   -1142.5088   -1425.3344   -2421.5769 
 2250000    297.45434   -3822.7425   -3312.9159   -3822.7425            0     7563.157    16.932834    19.944641    20.658017     6976.611    6373.5163    6327.7483    9988.2064    1327.6434   -829.49285    454.63201   -2543.3895 
Loop time of 517.254 on 64 procs for 250000 steps with 864 atoms

Performance: 83.518 ns/day, 0.287 hours/ns, 483.322 timesteps/s
99.1% CPU use with 64 MPI tasks x 1 OpenMP threads

MPI task timing breakdown:
Section |  min time  |  avg time  |  max time  |%varavg| %total
---------------------------------------------------------------
Pair    | 22.493     | 27.463     | 32.303     |  47.6 |  5.31
Bond    | 0.26311    | 0.2848     | 0.29961    |   1.1 |  0.06
Kspace  | 213.01     | 227.11     | 241.14     |  40.4 | 43.91
Neigh   | 5.7973     | 7.3906     | 9.2896     |  33.4 |  1.43
Comm    | 111.7      | 127.46     | 140.51     |  58.9 | 24.64
Output  | 1.4747     | 1.4774     | 1.492      |   0.3 |  0.29
Modify  | 118.99     | 121.53     | 123.75     |  11.8 | 23.49
Other   |            | 4.547      |            |       |  0.88

Nlocal:        13.5000 ave          21 max           9 min
Histogram: 10 5 8 7 11 17 4 0 1 1
Nghost:        2280.83 ave        2313 max        2245 min
Histogram: 3 6 3 7 7 11 11 9 4 3
Neighs:        4418.78 ave        7445 max        2589 min
Histogram: 6 7 10 8 16 13 1 1 1 1

Total # of neighbors = 282802
Ave neighs/atom = 327.31713
Ave special neighs/atom = 2.0000000
Neighbor list builds = 15601
Dangerous builds = 1

unfix		3
unfix		2
unfix		1

write_data	data.final.${pid}
write_data	data.final.0
System init for write_data ...
PPPM initialization ...
  extracting TIP4P info from pair style
  using 12-bit tables for long-range coulomb (../kspace.cpp:340)
  G vector (1/distance) = 0.37446654
  grid = 24 24 24
  stencil order = 5
  estimated absolute RMS force accuracy = 0.0031376981
  estimated relative force accuracy = 9.4490846e-06
  using double precision FFTW3
  3d grid and FFT values/proc = 2535 216
Last active /omp style is kspace_style pppm/tip4p/omp
WARNING: Not all mixed pair coeffs generated from mixing. Use write_data with 'pair ij' option to store all pair coeffs. (../write_data.cpp:312)

write_restart   restart.lmp.${pid}
write_restart   restart.lmp.0
System init for write_restart ...
PPPM initialization ...
  extracting TIP4P info from pair style
  using 12-bit tables for long-range coulomb (../kspace.cpp:340)
  G vector (1/distance) = 0.37446654
  grid = 24 24 24
  stencil order = 5
  estimated absolute RMS force accuracy = 0.0031376981
  estimated relative force accuracy = 9.4490846e-06
  using double precision FFTW3
  3d grid and FFT values/proc = 2535 216
Last active /omp style is kspace_style pppm/tip4p/omp
Total wall time: 0:08:39
