LAMMPS (30 Jul 2021)
  using 1 OpenMP thread(s) per MPI task
package omp 0
using multi-threaded neighbor list subroutines
echo both

include		in.partitions
variable        pid world 0
include		in.temp
variable        temperature equal 262.60
variable	tempDamp equal 100.0
include		in.pressure
variable        pressure equal 8250.0
variable        pressureDamp equal 1000.0 # This is 1 ps
include		in.seed
variable        seed world 745823

units		real
atom_style	full
read_restart	restart.lmp.${pid}
read_restart	restart.lmp.0
Reading restart file ...
  restart file = 30 Jul 2021, LAMMPS = 30 Jul 2021
  restoring atom style full from restart
  orthogonal box = (0.58009228 1.7748034 0.70771122) to (17.627480 21.854374 21.505485)
  4 by 4 by 4 MPI processor grid
  restoring pair style lj/cut/tip4p/long/omp from restart
  restoring bond style harmonic/omp from restart
  restoring angle style harmonic/omp from restart
  864 atoms
  576 bonds
  288 angles
Finding 1-2 1-3 1-4 neighbors ...
  special bond factors lj:    0        0        0       
  special bond factors coul:  0        0        0       
     2 = max # of 1-2 neighbors
     1 = max # of 1-3 neighbors
     1 = max # of 1-4 neighbors
     2 = max # of special neighbors
  special bonds CPU = 1.335 seconds
  read_restart CPU = 1.689 seconds
include 	in.setup
variable	out_freq equal 1000
variable	out_freq2 equal 10000
variable	out_freq3 equal 1000

timestep	2.0

neigh_modify    delay 7 every 1

include		in.tip4p
# This is TIP4P/Ice

# create groups ###
group ox type 2
288 atoms in group ox
group hy type 1
576 atoms in group hy

# set charges - beside manually ###
set group ox charge -1.1794
Setting atom values ...
  288 settings made for charge
set group hy charge 0.5897
Setting atom values ...
  576 settings made for charge

# ### TIP3P Potential Parameters ###
pair_style lj/cut/tip4p/long/omp 2 1 1 1 0.1577 8.5
pair_coeff 1 1*2 0.000 0.000
pair_coeff 2 2 0.21084 3.1668
bond_style  harmonic
bond_coeff  1 450 0.9572
angle_style harmonic
angle_coeff 1 55 104.52
kspace_style pppm/tip4p/omp 1.0e-5
pair_modify tail yes

thermo          ${out_freq}
thermo          1000
thermo_style    custom step temp pe etotal epair emol press lx ly lz vol pxx pyy pzz pxy pxz pyz enthalpy

restart 	${out_freq3} restart.lmp.${pid} restart2.lmp.${pid}
restart 	1000 restart.lmp.${pid} restart2.lmp.${pid}
restart 	1000 restart.lmp.0 restart2.lmp.${pid}
restart 	1000 restart.lmp.0 restart2.lmp.0


include         in.dump
dump            myDump all atom ${out_freq2} dump.water.${pid}
dump            myDump all atom 10000 dump.water.${pid}
dump            myDump all atom 10000 dump.water.0
dump            myDump2 all dcd ${out_freq2} dump.dcd
dump            myDump2 all dcd 10000 dump.dcd
dump_modify     myDump append yes
dump_modify     myDump2 append yes


variable natoms 	equal  "count(all)"                        # NUMBER ATOMS
variable H      	equal  "enthalpy/v_natoms"                 # ENTHALPY-per-atom
variable Vol      	equal  "vol/v_natoms"                 # volume-per-atom
fix AVG all 		ave/time ${out_freq} 1 ${out_freq} v_Vol v_H file vol_enthalpy.dat
fix AVG all 		ave/time 1000 1 ${out_freq} v_Vol v_H file vol_enthalpy.dat
fix AVG all 		ave/time 1000 1 1000 v_Vol v_H file vol_enthalpy.dat


timer           timeout 23:50:00 every 1000
New timer settings: style=normal  mode=nosync  timeout=23:50:00

fix 		1 all shake 1e-6 200 0 b 1 a 1
       0 = # of size 2 clusters
       0 = # of size 3 clusters
       0 = # of size 4 clusters
     288 = # of frozen angles
  find clusters CPU = 0.401 seconds
fix             2 all nph iso ${pressure} ${pressure} ${pressureDamp}
fix             2 all nph iso 8250 ${pressure} ${pressureDamp}
fix             2 all nph iso 8250 8250 ${pressureDamp}
fix             2 all nph iso 8250 8250 1000
fix             3 all temp/csvr ${temperature} ${temperature} ${tempDamp} ${seed}
fix             3 all temp/csvr 262.6 ${temperature} ${tempDamp} ${seed}
fix             3 all temp/csvr 262.6 262.6 ${tempDamp} ${seed}
fix             3 all temp/csvr 262.6 262.6 100 ${seed}
fix             3 all temp/csvr 262.6 262.6 100 745823

run             250000
PPPM initialization ...
  extracting TIP4P info from pair style
  using 12-bit tables for long-range coulomb (../kspace.cpp:340)
  G vector (1/distance) = 0.37391027
  grid = 24 24 24
  stencil order = 5
  estimated absolute RMS force accuracy = 0.0032013214
  estimated relative force accuracy = 9.6406844e-06
  using double precision FFTW3
  3d grid and FFT values/proc = 2535 216
Last active /omp style is kspace_style pppm/tip4p/omp
Neighbor list info ...
  update every 1 steps, delay 7 steps, check yes
  max neighbors/atom: 2000, page size: 100000
  master list distance cutoff = 10.8154
  ghost atom cutoff = 10.8154
  binsize = 5.4077, bins = 4 4 4
  1 neighbor lists, perpetual/occasional/extra = 1 0 0
  (1) pair lj/cut/tip4p/long/omp, perpetual
      attributes: half, newton on, omp
      pair build: half/bin/newton/omp
      stencil: half/bin/3d
      bin: standard
Per MPI rank memory allocation (min/avg/max) = 9.235 | 9.239 | 9.242 Mbytes
Step Temp PotEng TotEng E_pair E_mol Press Lx Ly Lz Volume Pxx Pyy Pzz Pxy Pxz Pyz Enthalpy 
17250000    267.01727   -3853.2858   -3395.6273   -3853.2858            0    7005.8647    17.047388    20.079571    20.797773    7119.1659    5938.5517    6265.1026    8813.9398   -1427.4296   -104.75126    65.113311   -2668.2383 
17251000    267.28569   -3863.7177   -3405.5992   -3863.7177            0    9677.5129    16.987929    20.009536    20.725234    7044.9336    11074.151    9647.4001    8310.9874   -744.74169    1394.2723    -727.4163   -2411.3012 
17252000     262.9147   -3883.6459   -3433.0191   -3883.6459            0    7943.7852    16.967154    19.985067    20.699889    7019.1192    8468.1692     7441.434    7921.7523   -555.93679   -1312.7877    -1451.561   -2619.8404 
17253000     251.0233   -3838.3278   -3408.0825   -3838.3278            0    9013.8201    17.004989     20.02963    20.746046    7066.1789    10368.821    10127.696    6544.9432   -1047.6929     1021.473   -347.01195   -2479.1815 
17254000    243.87467   -3861.8814   -3443.8886   -3861.8814            0    9982.1778    16.927967    19.938909     20.65208     6970.597     9797.183    12725.318     7424.032   -1240.1053   -18.142473   -721.75166   -2429.1103 
17255000    259.06194   -3816.0768   -3372.0535   -3816.0768            0    10491.745    16.938487      19.9513    20.664914    6983.6009     11276.34    10762.922    9435.9738   -77.859449   -56.199111   -257.09579   -2303.4833 
17256000    277.14797   -3872.0532   -3397.0311   -3872.0532            0    8226.3253    16.981461    20.001917    20.717342    7036.8892    9290.1807    7959.0281    7429.7669   -1206.1394    669.85478    888.08787   -2552.7978 
17257000    278.79036   -3877.8436   -3400.0065   -3877.8436            0    7348.2259    16.966795    19.984644     20.69945    7018.6735    6998.7281    7653.0219    7392.9277   -820.87213    352.61645    1495.2458    -2647.841 
17258000    265.33877   -3833.2777   -3378.4962   -3833.2777            0    8662.6674    16.976659    19.996261    20.711484    7030.9214    8825.8218    7166.8166    9995.3638   -1238.1133    1338.6356   -2044.9101   -2490.2368 
17259000    288.55994   -3843.7528   -3349.1709   -3843.7528            0    7827.9267    16.955899    19.971809    20.686157    7005.1594    7813.9595    8402.9547     7266.866    189.99813    189.51968    3103.5213   -2549.4459 
17260000    255.81265    -3834.897   -3396.4428    -3834.897            0    7627.2063    16.978022    19.997867    20.713147    7032.6155    8211.1327    6631.9588    8038.5273    260.92375    116.73875     -828.699     -2614.17 
17261000    259.10405   -3818.4334    -3374.338   -3818.4334            0    6995.0816     16.96548    19.983095    20.697847     7017.042    5915.3169    7714.5719     7355.356   -1033.9539   -56.386185    1366.9458   -2658.4868 
17262000    276.19543   -3835.9188   -3362.5293   -3835.9188            0    7218.5736    17.061977    20.096755    20.815572    7137.4596    7392.4514    7796.1374    6467.1319    314.70587     1872.811    1202.8492   -2611.1298 
17263000    279.93913   -3850.7004   -3370.8943   -3850.7004            0    9534.6633    16.954539    19.970207    20.684498    7003.4742    9797.8809    9924.6382    8881.4708    501.78113   -584.20932   -2629.2374   -2397.0382 
17264000    254.91769   -3842.0927   -3405.1725   -3842.0927            0    9353.8799     17.02459    20.052719     20.76996    7090.6426    9966.6482    9909.5574    8185.4341  -0.12110313   -1294.2535    740.02345   -2437.8902 
17265000    264.07807   -3854.4374   -3401.8167   -3854.4374            0    8278.4672    17.038813    20.069471    20.787312    7108.4282    8551.1141    6977.6684     9306.619   -147.39031    923.13517   -1024.2035   -2543.5952 
17266000    261.35249   -3837.0006   -3389.0514   -3837.0006            0    6201.3324    17.035304    20.065338    20.783031    7104.0376    7017.4964    7835.2064    3751.2944   -377.17565    -753.9376   -285.06547   -2746.5617 
17267000    248.12122   -3810.3769   -3385.1056   -3810.3769            0    9485.2573    17.062014    20.096798    20.815617    7137.5054    9709.2372    8136.7303    10609.804   -569.31704   -432.26547   -314.08285   -2397.7549 
17268000     256.9078   -3872.7865   -3432.4553   -3872.7865            0    6674.7927    17.067127    20.102821    20.821855    7143.9243    7092.6308    7353.3656    5578.3816    1200.2362    40.147131   -88.782277     -2737.03 
17269000    263.48637   -3848.1777   -3396.5711   -3848.1777            0    9126.9803    17.002102     20.02623    20.742524    7062.5804    8080.3184    11327.987    7972.6352    204.06311    1006.4685    -538.4642   -2456.4876 
17270000    255.24962   -3875.9294   -3438.4403   -3875.9294            0    6446.7635    17.040648    20.071633    20.789551    7110.7256     6213.806    6983.4724    6143.0121    420.08892    743.79903   -1068.1227   -2769.8939 
17271000    265.62125   -3888.9353   -3433.6695   -3888.9353            0    8341.0065    16.997025     20.02025     20.73633    7056.2554    9477.5352    7903.2615    7642.2226     805.6245    173.00267     21.38268   -2575.3112 
17272000    269.22774   -3851.3163   -3389.8692   -3851.3163            0     9377.006     17.01028    20.035863    20.752502    7072.7775    9367.6014     10269.34    8494.0772    515.84085   -2301.7908   -983.49242   -2422.6385 
17273000    248.49235   -3849.1803   -3423.2729   -3849.1803            0    6962.9407    17.001821    20.025899    20.742182    7062.2305    5372.7066    8243.6623     7272.453    736.76961    167.56364   -538.67942   -2706.1221 
17274000    271.76884   -3818.7067   -3352.9042   -3818.7067            0    7165.5994    17.057271    20.091213    20.809831    7131.5556    7149.3744    5347.2222    9000.2016   -208.13289    980.13783   -488.78484   -2607.6359 
17275000    258.32943     -3831.71   -3388.9422     -3831.71            0    8658.2185    17.012969     20.03903    20.755782    7076.1315    9694.2927    9503.5925    6776.7703    110.08499     525.1484    600.03368   -2495.4303 
17276000    270.84879    -3855.167   -3390.9414    -3855.167            0    7887.4998    17.067524    20.103289    20.822339    7144.4227    7487.2056    7313.4328    8861.8612    1265.3031    559.45173   -382.04846   -2569.1106 
17277000    260.35456   -3859.8051   -3413.5663   -3859.8051            0    8507.0347     17.02771    20.056393    20.773766     7094.541    7276.6011    10023.526    8220.9766    -724.6776    658.15785   -285.99777   -2533.3723 
17278000     256.8668   -3872.7363   -3432.4754   -3872.7363            0     9061.994    16.929688    19.940936     20.65418    6972.7236    9072.3628     8929.995    9183.6241   -119.04413   -408.46017   -8.0059656    -2510.961 
17279000    257.98269   -3914.1203   -3471.9468   -3914.1203            0    7470.6834    17.025018    20.053222    20.770482    7091.1772    7691.1136    6319.0506    8401.8861     914.2778   -30.168963    -503.8373    -2699.347 
17280000    265.22346   -3841.5682   -3386.9843   -3841.5682            0    9182.6236    16.972125    19.990922    20.705953    7025.2904    8760.5744    8766.1727    10021.124     475.4064   -655.27452    2095.3849   -2446.1634 
17281000    268.92846   -3830.8815   -3369.9473   -3830.8815            0    7985.7681    17.022183    20.049883    20.767023    7087.6346    8410.6644    10648.824    4897.8157   -404.69509    954.11414    641.97654   -2544.4914 
17282000    265.70565   -3873.3916   -3417.9812   -3873.3916            0    7545.1083    17.048478    20.080855    20.799103    7120.5319    7600.0756    7780.9718    7254.2774    1198.5935    1751.3815    489.77555   -2634.4545 
17283000    260.17973   -3858.9414   -3413.0023   -3858.9414            0    7373.0689    17.052971    20.086147    20.804585    7126.1631    6083.0727    8084.6959    7951.4382    -635.2796    584.19127   -1226.0729   -2646.7356 
17284000    256.98262   -3870.1419   -3429.6825   -3870.1419            0    9400.6107    16.924458    19.934775    20.647799    6966.2629    8626.4316    11500.855     8074.545   -1734.4923    -1627.046   -224.16576   -2474.6199 
17285000    257.30688   -3881.0613   -3440.0461   -3881.0613            0    8998.0046    17.006905    20.031887    20.748384    7068.5678    9917.0993    9062.1983    8014.7161   -63.538439    396.40873    1064.8157   -2512.4616 
17286000    262.79006   -3868.6423   -3418.2291   -3868.6423            0    7122.1804    17.003782    20.028209    20.744575    7064.6751    8203.3647    6426.3223    6736.8542   -954.20897   -1308.6819   -1282.7675   -2684.4235 
17287000    268.75068   -3872.9044   -3412.2749   -3872.9044            0    8966.3676    17.002537    20.026742    20.743055    7063.1227    10324.039    6807.1499    9767.9137    798.29059     647.6572   -1033.8596   -2488.6637 
17288000    270.29371   -3899.2064   -3435.9322   -3899.2064            0    8991.8943    16.989351    20.011212    20.726969     7046.703    7055.2189    9578.0955    10342.369   -105.30454    1342.0752    66.046075   -2511.8448 
17289000    265.88596   -3867.7753   -3412.0558   -3867.7753            0    8720.5706    16.939903    19.952968    20.666642    6985.3528    8271.1829    9926.1901    7964.3389    961.14776    -1408.106    451.42495   -2523.6546 
17290000    260.85715   -3872.4575   -3425.3573   -3872.4575            0    6987.4648    17.022068    20.049748    20.766883    7087.4916    5802.9879    7364.7433    7794.6634    272.18242   -463.22953    254.61351   -2703.1064 
17291000    265.08583   -3842.6748   -3388.3267   -3842.6748            0    8076.3363    17.031383    20.060719    20.778247    7099.1331    9461.5439    6207.4449    8560.0201   -1029.0018    746.33542   -149.58943   -2552.1548 
17292000    261.85172   -3855.1566   -3406.3517   -3855.1566            0    8048.3451    17.000664    20.024537    20.740771    7060.7897    9583.5337    6081.7681    8479.7336    584.84968   -51.665208    580.07319   -2577.5784 
17293000    259.86414   -3825.9857   -3380.5875   -3825.9857            0    6207.4679    17.086134    20.125209    20.845044    7167.8191    3714.8915    7446.1404    7461.3716     963.6066    337.03357   -1639.7393    -2731.688 
17294000    260.41056   -3856.2344   -3409.8996   -3856.2344            0    11564.509    16.968407    19.986542    20.701417    7020.6742    10899.183    11634.328    12160.016   -788.55218   -863.75332    599.92706   -2225.8172 
17295000    247.70022   -3882.1361   -3457.5864   -3882.1361            0     8204.191    16.967421    19.985381    20.700214    7019.4501    8676.5317    7034.1698    8901.8716    968.08398   -517.74152    695.27207   -2617.7113 
17296000    264.63202   -3847.1163    -3393.546   -3847.1163            0     8883.617    16.971444     19.99012    20.705123    7024.4449    7768.2942     8288.507     10594.05    1410.6328   -791.34823   -485.63157   -2483.4699 
17297000    256.90753   -3875.6963   -3435.3656   -3875.6963            0    7210.8334    17.023226    20.051111    20.768296    7088.9379    8016.1098    7487.2896    6129.1009    881.97352    1210.5131    393.14881   -2689.8744 
17298000    257.79502   -3863.1996   -3421.3478   -3863.1996            0    7080.3779    17.000418    20.024247    20.740471     7060.483    6436.7747    7810.1485    6994.2106    2322.0983    46.716857    905.74594    -2692.282 
17299000    278.48393   -3869.9021   -3392.5902   -3869.9021            0    9285.9104     16.96754    19.985521     20.70036    7019.5983    9908.4562    9726.7027    8222.5722   -745.25204   -637.54741      1841.68   -2441.9577 
17300000    262.59462   -3873.8089   -3423.7307   -3873.8089            0    7677.3298    16.964084     19.98145    20.696143    7015.3091    6788.2046    9783.1221    6460.6628    1731.1878   -707.11586   -951.24626   -2638.2547 
17301000    276.56857    -3857.104    -3383.075    -3857.104            0    8127.2239    16.935259    19.947498    20.660977    6979.6096    7874.7414    8655.0379    7851.8923    658.63363   -1157.2883    1975.6158   -2555.8012 
17302000     254.4119   -3872.4519   -3436.3986   -3872.4519            0    8220.8622    16.987006     20.00845    20.724108    7043.7859     6270.291    9639.1925    8753.1032    480.51395   -553.97017      1389.17   -2591.8991 
17303000    255.46434   -3871.4271     -3433.57   -3871.4271            0    7981.8086    16.994603    20.017398    20.733376    7053.2403    8502.6365    6879.0929    8563.6965   -854.41793    70.636986   -765.19458    -2612.527 
17304000    274.25386   -3846.8016   -3376.7399   -3846.8016            0    7952.1413    17.044494    20.076162    20.794242    7115.5406    8785.1397    8619.7774    6451.5069   -941.04298   -1813.5833    1544.7146   -2551.5234 
17305000    264.43922   -3861.4319   -3408.1921   -3861.4319            0    8074.6478     17.02001    20.047324    20.764373    7084.9213    6175.0849    9873.2838    8175.5747    287.40866   -229.60685   -627.20781   -2573.8686 
17306000    267.43495   -3830.9129   -3372.5386   -3830.9129            0     6148.513    17.116283    20.160721    20.881826    7205.8296    3634.3389    7605.6117    7205.5884   -846.09266   -1141.0135    42.882057   -2726.3936 
17307000     266.0095   -3838.8838   -3382.9526   -3838.8838            0    11204.297     16.91772     19.92684    20.639579    6957.9471    11567.948    9070.7017    12974.242   -818.04381   -1218.8793   -330.88645   -2246.0019 
17308000    267.70665   -3871.8641   -3413.0241   -3871.8641            0    10064.825    16.962306    19.979356    20.693974    7013.1038    8981.1625    11605.629    9607.6843    1275.1264   -162.75227    1151.1466   -2383.6046 
17309000    259.95087   -3850.2151   -3404.6682   -3850.2151            0    7256.9115    17.006054    20.030886    20.747346    7067.5073    5019.3991    7888.5871    8862.7484    728.25373   -554.72015   -295.51587   -2656.6814 
17310000    249.14328   -3876.6743   -3449.6513   -3876.6743            0    8788.5187    16.986816    20.008226    20.723876    7043.5491    9829.6414    8531.3559    8004.5588   -388.16335   -1216.1599    132.01451   -2546.8688 
17311000    267.70612   -3865.4984   -3406.6593   -3865.4984            0    6987.0765    16.992045    20.014385    20.730256    7050.0561    8509.7991    6815.5866    5635.8439   -264.41819    346.94734   -2059.1173   -2688.2632 
17312000    265.33675   -3848.2075   -3393.4294   -3848.2075            0    8405.2982    16.988661    20.010399    20.726127    7045.8448    8177.4986    7960.1301     9078.266    233.20211    2007.7049   -2331.8575   -2529.7311 
17313000    274.61843   -3858.6082   -3387.9216   -3858.6082            0    8311.2877    17.009019    20.034377    20.750963    7071.2038    6371.4016    7460.8712     11101.59   -898.26097    1508.6329   -627.48634   -2530.8096 
17314000    262.53567   -3869.1942    -3419.217   -3869.1942            0    8739.7256    16.979771    19.999927    20.715281    7034.7889    10140.407    6492.9037    9585.8661   -1337.1147    82.720832    -1354.626   -2522.5633 
17315000    259.44157   -3922.8834   -3478.2094   -3922.8834            0    7786.4411    16.961113     19.97795    20.692518     7011.624    6752.7464    7675.1701    8931.4066   -495.90559    490.02828   -902.76607   -2681.9886 
17316000    273.69806   -3867.5394   -3398.4303   -3867.5394            0    8292.8285    16.952263    19.967526    20.681721    7000.6541    9534.3833    7616.8892    7727.2128    377.97958   -312.20314    1352.1431   -2551.7544 
17317000    254.79258   -3881.8459   -3445.1401   -3881.8459            0    9324.1056    16.894844    19.899895    20.611671    6929.7596    7828.3489    9989.4537    10154.514    222.46597   -2315.5823     1361.599   -2502.8139 
17318000    265.21066    -3897.279    -3442.717    -3897.279            0    5936.2067     16.98194    20.002482    20.717927    7037.4847    5900.4848    6099.2419    5808.8935    928.23467     1674.408    1566.6265   -2833.4574 
17319000    244.42108   -3901.1385   -3482.2091   -3901.1385            0    8653.5308    16.933323    19.945218    20.658615    6977.2162    7818.3309    10248.703    7893.5586    1545.7803    606.07615    306.93349   -2601.6644 
17320000    272.54778   -3858.5424   -3391.4048   -3858.5424            0    9335.7516    16.892593    19.897243    20.608924    6926.9898    9829.2468    8764.1346    9413.8733     866.2201   -505.89945    114.05184   -2448.2788 
17321000    268.05712   -3882.6778   -3423.2371   -3882.6778            0    7251.2618    16.990844     20.01297     20.72879    7048.5604    7611.5948    7851.0001    6291.1905   -236.83474    815.81399    680.29313   -2677.8362 
17322000    279.63917   -3826.6874   -3347.3954   -3826.6874            0    7582.0365    16.978777    19.998756    20.714068     7033.553    6533.1349    6760.9292    9452.0453   -795.32634   -1401.6832    2298.4134   -2569.6517 
17323000    259.69507   -3913.8296   -3468.7212   -3913.8296            0    8353.7788    16.974244    19.993418    20.708538     7027.922    7008.5258     8064.971    9987.8398    271.19238   -607.94175     530.0543   -2612.5003 
17324000    260.10057    -3867.065   -3421.2615    -3867.065            0    10081.355    16.930246    19.941594    20.654861    6973.4133    8542.7828    11844.793     9856.488   -2112.1697     1581.551     368.9625    -2395.987 
17325000    263.25703    -3864.727   -3413.5135    -3864.727            0    7655.7116    17.014522    20.040859    20.757677    7078.0695    6364.3923     7576.752    9025.9905    910.23177   -1093.7495   -1524.5139   -2623.2421 
17326000    264.10598   -3869.0151   -3416.3465   -3869.0151            0    7276.5169    16.981239    20.001657    20.717072     7036.614    9229.7416    7107.6959    5492.1132    225.42137   -14.700793     2390.057   -2669.6172 
17327000    249.98147    -3869.206   -3440.7463    -3869.206            0    8635.2889    17.033647    20.063386    20.781009    7101.9647    7186.1421    8360.2938    10359.431    921.97118   -817.34308    2226.7992   -2546.3474 
17328000    280.24921   -3863.0282   -3382.6906   -3863.0282            0    8222.0131    16.979283    19.999353    20.714686    7034.1827    7123.1713    9240.0199    8302.8482   -172.07929   -984.35763   -73.377729   -2539.2244 
17329000    274.17361   -3882.8018   -3412.8776   -3882.8018            0    8663.9409    16.917959     19.92712     20.63987    6958.2409    8265.2042    10433.153    7293.4651   -1119.7408   -1167.2713     419.0242   -2533.6712 
17330000    278.17667   -3870.2985   -3393.5132   -3870.2985            0    6260.3014    17.065983    20.101474    20.820459    7142.4878    8355.4907     5783.862    4641.5515   -672.91507   -614.30433    1279.1043   -2741.4035 
17331000    264.17366    -3869.787   -3417.0024    -3869.787            0    7923.2803    16.978358    19.998263    20.713557    7033.0327    7328.8512    8662.0167    7778.9729   -1248.8304    467.09592    866.60565   -2604.3149 
17332000    271.54963   -3912.1412   -3446.7144   -3912.1412            0    5768.7031    17.015244     20.04171    20.758558    7078.9708    6150.1914    5092.4081    6063.5099    641.99581   -272.71871    233.42008   -2851.1562 
17333000     252.5074   -3873.8484   -3441.0594   -3873.8484            0    6690.9702    17.013697    20.039888    20.756671    7077.0409    7407.5552    6112.7697    6552.5856    1064.8265   -706.04004    229.10813   -2750.4751 
17334000    277.99706   -3861.2836   -3384.8062   -3861.2836            0    6795.7711    17.070285     20.10654    20.825707    7147.8901    7550.9294    6959.4357    5876.9484   -620.45201    424.30696    52.520756   -2676.3834 
17335000    268.43997   -3870.9028   -3410.8059   -3870.9028            0    7097.7275     16.99657    20.019714    20.735775    7055.6889    6976.0785    6089.0957    8228.0082    -919.8062   -1426.9207    402.08314   -2680.4498 
17336000    262.65341   -3861.3459    -3411.167   -3861.3459            0    8039.9923    17.003669    20.028077    20.744437    7064.5344    9386.6128    6837.3668    7895.9973    507.19368   -1078.3016   -608.96564   -2582.8147 
17337000    263.50151   -3884.6685   -3433.0359   -3884.6685            0    9474.9471    17.013997    20.040241    20.757037    7077.4151    8496.7056    10320.012    9608.1242   -155.89377   -1195.7188    1255.3079   -2455.0618 
17338000     271.0463   -3814.6888   -3350.1247   -3814.6888            0    6254.5444    17.076297    20.113623    20.833043    7155.4462    4205.0121    8281.6432    6276.9779   -27.058531   -284.98529   -122.07978   -2697.4327 
17339000    249.99099   -3880.9334   -3452.4574   -3880.9334            0    7549.3796     17.04436    20.076005     20.79408    7115.3737     6506.844    8003.7823    8137.5125   -1053.6413    1.8589353   -1005.0046   -2669.0551 
17340000    250.76937   -3815.6912   -3385.8811   -3815.6912            0    10793.493    16.915784    19.924559    20.637217    6955.5578    11130.032     9985.696    11264.749   -729.32978    2430.1964   -74.439297   -2290.9927 
17341000    260.04593   -3894.5991   -3448.8893   -3894.5991            0    9893.9286    16.950475    19.965421     20.67954    6998.4398    9470.9943    11435.777    8775.0146    1188.5217    789.41868   -856.58011   -2439.0648 
17342000    254.58319    -3842.305   -3405.9581    -3842.305            0    8951.9856    17.045798    20.077698    20.795834    7117.1741     9100.562    9549.4496    8205.9452   -869.86938    680.98031   -1360.6655   -2476.7717 
17343000    253.12054   -3855.8495   -3422.0096   -3855.8495            0    8986.9616    17.002199    20.026345    20.742643    7062.7018    9948.5633    10229.757    6782.5649   -865.54444    5.1303725   -553.16844   -2496.3322 
17344000    255.68419   -3873.1097   -3434.8757   -3873.1097            0    6381.0966    17.000818    20.024718    20.740958     7060.981    5584.1941    5001.3047    8557.7909   -1017.4159    801.34386    -2234.137   -2777.7685 
17345000    251.81172   -3876.8111   -3445.2144   -3876.8111            0    8154.6358    16.977139    19.996827     20.71207    7031.5181    9539.6951    8703.9423    6220.2698    1097.5396   -962.27376    86.600496   -2608.9771 
17346000    268.30187   -3835.0222    -3375.162   -3835.0222            0    8315.1139    16.931472    19.943038    20.656357    6974.9286    7956.2914    9161.6517    7827.3987    787.17737   -525.63399    788.72087   -2529.3305 
17347000    273.05776   -3882.0173   -3414.0056   -3882.0173            0    8531.3434    16.953129    19.968546    20.682777    7001.7268    8724.0187    9551.0626    7318.9488    222.04979    -207.5147    74.480251   -2542.8445 
17348000    250.61059   -3905.8592   -3476.3212   -3905.8592            0    6639.4024    16.985001    20.006088    20.721662     7041.292    6413.9782    6187.2846    7316.9444   -2056.9532    979.96832    265.59969   -2794.5208 
17349000    261.46292   -3905.1477   -3457.0092   -3905.1477            0    8470.2185    16.997468    20.020773    20.736872    7056.8082    10077.787    6138.0626    9194.8064   -1034.4554    110.36188   -524.33819   -2585.2856 
17350000     247.4912   -3873.3795    -3449.188   -3873.3795            0    8220.6206    16.930912    19.942378    20.655673    6974.2358    10727.712    7698.4268    6235.7233   -872.11729   -687.11178    81.554692   -2613.0516 
17351000    257.91604    -3898.058   -3455.9987    -3898.058            0    9505.5249    16.956003    19.971932    20.686284    7005.2891    10139.784    10282.521    8094.2701   -440.75017    453.91069   -194.79137   -2484.8672 
17352000    267.44868   -3884.8365   -3426.4386   -3884.8365            0    7367.5794    17.031156    20.060452     20.77797     7098.849    7169.5894    8237.9399     6695.209   -467.78995     1197.196    748.54896   -2663.6773 
17353000     262.7151   -3874.0073   -3423.7226   -3874.0073            0    7495.4348    17.014625    20.040981    20.757803    7078.1985    8022.9966    7952.6081    6510.6997   -1516.3031    469.16852    13.641255   -2649.9818 
17354000    265.62676   -3894.6988   -3439.4236   -3894.6988            0    7872.9415    17.016973    20.043746    20.760667    7081.1292     9101.878    6327.0079    8189.9388    1015.9222   -1206.1695    751.17479    -2626.377 
17355000    265.96679   -3854.3977   -3398.5397   -3854.3977            0    6888.6115    17.032401    20.061919     20.77949    7100.4069    7721.8315     6811.718    6132.2851   -813.41672   -527.07151   -518.67923   -2685.2092 
17356000    244.02462   -3867.5539   -3449.3041   -3867.5539            0    7621.2718    16.967208     19.98513    20.699954    7019.1855    9227.5717    6954.0232    6682.2206   -818.03261    1191.3588    211.84574   -2669.1326 
17357000    258.18854   -3889.6517   -3447.1254   -3889.6517            0    7797.2782    16.960201    19.976877    20.691406    7010.4938    8443.2081       9034.4    5914.2264   -1517.1806   -3.9183037    604.55797   -2649.9249 
17358000    260.60373   -3869.5474   -3422.8815   -3869.5474            0    5877.4396    17.031097    20.060382    20.777898    7098.7753    6607.6214    6251.6702    4773.0272    1512.6288   -46.100273   -945.12192   -2814.3999 
17359000    263.07888   -3900.9202    -3450.012   -3900.9202            0    6923.8766    17.040693    20.071686    20.789606    7110.7822    6029.8299    6986.5255    7755.2742    882.85589     1268.707   -1635.6831    -2731.982 
17360000    258.09366   -3886.3319   -3443.9682   -3886.3319            0    6848.1413    17.030562    20.059752    20.777245    7098.1062    7674.1025    5771.1288    7099.1925    426.53344    228.20096    463.82788   -2735.0582 
17361000    262.80421   -3843.8463   -3393.4089   -3843.8463            0    8366.4058    16.989901     20.01186     20.72764    7047.3877    10250.734    8027.8371    6820.6464    279.83279    -1353.148   -420.25582   -2533.5187 
17362000     255.6777   -3846.5767   -3408.3539   -3846.5767            0    7557.2539    16.976755    19.996375    20.711601    7031.0406    7017.0644    8324.8231    7329.8743    1056.6992    358.57451    173.30927   -2633.4292 
17363000    258.32452   -3869.5166   -3426.7572   -3869.5166            0    6827.4184    16.959486    19.976034    20.690533    7009.6063    5780.8685    6960.0215    7741.3652    1368.6328    1657.3457    2290.6536   -2728.8044 
17364000    263.22971   -3832.7269   -3381.5602   -3832.7269            0    5346.9023    17.060598    20.095131     20.81389    7135.7293    6767.4054    5415.0681    3858.2334    566.23082    686.64891    79.919117   -2825.1226 
17365000    275.68697   -3870.5939   -3398.0758   -3870.5939            0    8416.9399    16.970339    19.988817    20.703774    7023.0719    9111.6038     6985.706      9153.51    312.95084    558.88755   -751.31934   -2535.9767 
17366000    257.91834   -3906.2506   -3464.1874   -3906.2506            0    7273.1988     16.97981    19.999973    20.715328    7034.8369    9259.3924     6468.257    6091.9471   -489.35078    1377.7536    726.66691   -2717.9872 
17367000    256.97239    -3903.353   -3462.9111    -3903.353            0    9017.3387    16.947835    19.962311    20.676319    6995.1703    8427.8587    9493.0268    9131.1305   -878.33355   -1647.4925   -522.75401   -2542.9858 
17368000    260.50561    -3886.526   -3440.0283    -3886.526            0    8932.2382    16.914704    19.923287    20.635899    6954.2256    7511.9019    9911.8735    9372.9394   -914.92471   -1505.7655   -282.79071   -2534.1185 
17369000    276.25254    -3882.884   -3409.3966    -3882.884            0    8287.2161    16.995305    20.018224    20.734232    7054.1141    9459.8603    8387.7829    7014.0051   -68.280357    -193.4307    316.19673   -2556.8326 
17370000    251.78519    -3850.199   -3418.6478    -3850.199            0    7986.3709    16.952346    19.967624    20.681823    7000.7572    6122.4246    9603.3964    8233.2917   -129.65397   -318.05198   -66.383823   -2603.2484 
17371000    262.01291   -3879.3548   -3430.2736   -3879.3548            0    6696.8562    16.994923    20.017774    20.733766    7053.6383    5145.2028    7703.8231    7241.5428    -63.94898    170.44065   -2184.4616   -2741.3675 
17372000    266.96287   -3831.7614   -3374.1962   -3831.7614            0    9734.8332    16.935731    19.948054    20.661552    6980.1927    10181.107     9021.719    10001.673    50.623669     200.0784    593.28145   -2383.2004 
17373000    263.69346   -3910.2128   -3458.2512   -3910.2128            0    7282.4081    16.976402     19.99596    20.711171     7030.603    6684.1565    8063.3706    7099.6971     670.3649   -153.96353    158.87243   -2711.5558 
17374000    267.31158   -3852.5453   -3394.3824   -3852.5453            0     9352.349     16.97001    19.988431    20.703373    7022.6642    9108.8232    9284.6361    9663.5876   -29.155153    264.59018   -183.33951   -2436.5302 
17375000    269.27172   -3813.9782   -3352.4557   -3813.9782            0    8593.6354    16.936008    19.948381    20.661891     6980.536    10793.031    7023.0839    7964.7912    687.96296   -746.21044   -925.86741   -2477.5896 
17376000    259.64068   -3860.5216   -3415.5064   -3860.5216            0    7281.4121    16.980588    20.000889    20.716277    7035.8042    8529.6981    7843.4887    5471.0494    877.76974   -2011.9925    1359.4272   -2668.3608 
17377000    274.61843    -3875.253   -3404.5664    -3875.253            0    9477.2119    16.968788    19.986991    20.701882    7021.1473    10986.109    8532.1514    8913.3759    216.77003   -774.32363    599.68159   -2434.1357 
17378000    267.40982   -3838.2804   -3379.9491   -3838.2804            0    10198.555    16.931096    19.942595    20.655898    6974.4638    9081.1412    11892.621    9621.9022    958.83981    871.36445    2734.1434    -2342.599 
17379000    276.59036   -3825.6534    -3351.587   -3825.6534            0    11215.807    16.939363    19.952332    20.665983     6984.685    9046.2455    14566.971    10034.205    1385.6135   -556.03951   -396.18376   -2209.0948 
17380000    254.95521    -3870.939   -3433.9545    -3870.939            0    7373.2673    17.042358    20.073646    20.791637     7112.866    6944.5061    6513.0897    8662.2059   -937.93187    357.88695   -197.36708   -2669.0971 
17381000    257.31473   -3882.2676    -3441.239   -3882.2676            0    6922.2098    17.015534    20.042051    20.758911    7079.3326    7246.5305    6340.5708     7179.528    4.2448462    1779.2785    1604.3646   -2726.5568 
17382000    271.12728   -3843.4112   -3378.7083   -3843.4112            0    8211.7396    17.031964    20.061404    20.778956    7099.8599    9634.5095     6215.813    8784.8965   -2442.0826    445.96753    158.44247   -2528.4305 
17383000    260.51043   -3856.2413   -3409.7354   -3856.2413            0    7819.3694    17.016253    20.042898    20.759789    7080.2303    6231.8497    9167.7793    8058.4791   -476.95166    1616.2255    199.97837   -2602.3238 
17384000    254.37215   -3871.4952   -3435.5101   -3871.4952            0    7142.9627    17.096481    20.137396    20.857667    7180.8485    5373.5215    8689.0342    7366.3323   -329.57445    1052.7389   -90.637789   -2687.4611 
17385000    243.72681   -3857.2487   -3439.5092   -3857.2487            0     8276.512     16.94651    19.960751    20.674703    6993.5296    10277.433    6050.5203    8501.5828    -1024.819   -514.07297   -72.852718   -2595.3592 
17386000    268.37818   -3863.1368   -3403.1458   -3863.1368            0     7536.048    17.005645    20.030404    20.746847    7066.9974    6645.1115    8823.0099    7140.0225    1212.4804    2261.5569    821.43489   -2626.4437 
17387000    261.02475   -3880.8134   -3433.4259   -3880.8134            0    8362.2964    16.960145     19.97681    20.691337    7010.4235    10669.561    6971.0467    7446.2816   -601.03442   -795.18844   -510.30055   -2578.4661 
17388000    252.73917   -3832.4743    -3399.288   -3832.4743            0    8607.6372    16.952455    19.967752    20.681955    7000.8918    11809.111    6824.8616    7188.9384    292.64335   -357.28036   -488.97752   -2520.4411 
17389000    251.14628    -3890.925   -3460.4689    -3890.925            0     8376.815     16.97372      19.9928    20.707899    7027.2711    9880.6825    7800.5506    7449.2118   -841.88941    29.699439    1703.5074   -2601.9665 
17390000    247.71588   -3847.7524   -3423.1759   -3847.7524            0    7192.0942    17.070645    20.106965    20.826147     7148.343    7096.9125    6711.2795    7768.0906    407.47557   -618.54456    618.51334   -2673.3911 
17391000     261.0613   -3901.0058   -3453.5556   -3901.0058            0    7161.2513    16.949282    19.964015    20.678084    6996.9615    8143.8172    7697.2622    5642.6747   -568.57519    2151.6112   -1199.0193   -2722.7964 
17392000    248.38924   -3871.7371   -3446.0064   -3871.7371            0    7933.4907    16.981816    20.002336    20.717776    7037.3307    8333.9358    7204.0389    8262.4975   -862.79645   -33.148548     2119.521   -2631.7744 
17393000     255.5755   -3867.3638   -3429.3162   -3867.3638            0     9348.619    16.979097    19.999134    20.714459    7033.9514    7568.1215    9049.7079    11428.028    42.328818    244.72492   -699.51232   -2470.3071 
17394000    259.57742   -3871.0218    -3426.115   -3871.0218            0    8268.5565    17.040339    20.071268    20.789173    7110.3381    8523.5729    9167.8147    7114.2818   -608.02186   -728.59664   -44.456151   -2568.6906 
17395000    264.41559   -3851.0359   -3397.8366   -3851.0359            0    7709.4449    17.064375     20.09958    20.818498    7140.4691    6553.9156    6784.1758    9790.2434   -98.346521    101.56606    1335.7476   -2595.0027 
17396000    257.64906   -3884.6499   -3443.0483   -3884.6499            0    7116.6691     17.02024    20.047595    20.764653    7085.2086    8386.6166    6906.7823    6056.6083    356.12363   -1602.1634    1114.5299   -2707.6793 
17397000    236.08396   -3841.4601   -3436.8202   -3841.4601            0     9315.505    16.992167    20.014528    20.730404    7050.2074     9750.191    7577.6551    10618.669    699.87228    1250.8085    405.70844   -2478.9996 
17398000    253.89716   -3838.8103   -3403.6392   -3838.8103            0    6506.7282    16.975113    19.994441    20.709598    7029.0012    7491.3629    5296.9705    6731.8511   -893.03068    19.318942   -519.25681   -2736.6295 
17399000    268.27024   -3832.0383   -3372.2322   -3832.0383            0    9783.4413    16.976168    19.995683    20.710885    7030.3113    11506.011    8596.5036     9247.809   -487.95125    15.221562    1048.6768   -2369.1372 
17400000    266.49278   -3860.3452   -3403.5857   -3860.3452            0    7259.3242    17.011933     20.03781    20.754518     7074.839    8765.9022    6921.4034    6090.6669   -794.24445   -1113.4107    648.40307   -2654.5739 
17401000    259.01818   -3843.7437   -3399.7954   -3843.7437            0    9095.1314    17.031336    20.060664     20.77819     7099.075    10773.893    9046.1373    7465.3643    2044.0653   -189.45563   -1176.1422   -2458.1517 
17402000    249.45434    -3863.989   -3436.4328    -3863.989            0    7847.3077    17.002572    20.026783    20.743098    7063.1662    7006.8331    7135.8301    9399.2601    1004.2243      238.012    113.19744   -2628.0892 
17403000    265.47612   -3873.8317   -3418.8147   -3873.8317            0    6544.1993    17.035284    20.065315    20.783007    7104.0128    5706.7696    5911.6487    8014.1796    552.05154   -698.73269   -363.58684   -2740.8046 
17404000    247.87482   -3865.8735   -3441.0245   -3865.8735            0    7442.0314    16.964546    19.981994    20.696707    7015.8828     7354.404    8795.3707    6176.3196    614.31148   -1293.9011   -1328.7538   -2679.5599 
17405000    251.51654   -3869.7756   -3438.6849   -3869.7756            0    8943.8833    16.959178    19.975671    20.690157    7009.2245    7783.4266    10916.758    8131.4654    356.83814    1160.5247   -501.75852   -2524.4201 
17406000    248.12269    -3911.455   -3486.1812    -3911.455            0    7075.4251    16.996827    20.020018     20.73609    7056.0099    6114.9117    7827.4913    7283.8722    810.21006    873.95074    114.68663    -2758.087 
17407000     254.2778   -3896.1993   -3460.3759   -3896.1993            0    7994.8629    17.010206    20.035776    20.752412     7072.685    7554.0434    7345.4535    9085.0917   -983.52528     -131.688    820.05026   -2635.7229 
17408000    250.44213   -3857.3697   -3428.1205   -3857.3697            0    8333.0818    16.966114    19.983842     20.69862    7017.8287    9521.1694    7853.0209    7625.0551   -1055.1813    754.55469    536.75631   -2575.2476 
17409000    258.66246   -3871.3115   -3427.9729   -3871.3115            0    5028.0647    17.006794    20.031757    20.748249    7068.4296    5120.1294    4266.9145    5697.1503    -84.01606    628.30879   -568.50164   -2909.6509 
17410000    261.31783    -3816.894   -3369.0041    -3816.894            0    7167.7859    17.024923    20.053111    20.770367    7091.0589    5665.7797    8132.2325    7705.3455   -215.48803   -1129.0238   -1639.4121   -2627.7417 
17411000    250.71282   -3864.0952    -3434.382   -3864.0952            0    9143.9254     16.94487    19.958819    20.672702    6991.4998    10281.774    9559.3263     7590.676   -2549.8988   -1275.6631   -1153.7277   -2502.0321 
17412000    256.50132   -3841.2985    -3401.664   -3841.2985            0    6075.9095     17.02991    20.058985    20.776451    7097.2919    7462.8869    3238.1586     7526.683   -316.27845   -297.85363   -559.41848   -2772.7666 
17413000    259.96788   -3851.3516   -3405.7755   -3851.3516            0    9003.6417    16.966827    19.984681    20.699489    7018.7126    7006.6751    9198.4845    10805.766   -521.74462   -1745.6052    840.10007   -2484.1562 
17414000    262.26559   -3866.0222   -3416.5079   -3866.0222            0     9288.693     17.03317    20.062825    20.780428    7101.3685      9194.03    8257.4332    10414.616    159.93305   -1597.8638   -177.88837   -2454.5135 
17415000    247.49393   -3814.7919   -3390.5958   -3814.7919            0    9305.6338    16.994287    20.017026    20.732991    7052.8468    9752.8487    7513.0188    10651.034    249.03329    1490.4914   -39.040973   -2433.4319 
17416000    270.25817   -3859.5585   -3396.3452   -3859.5585            0    7998.5756    17.002208    20.026356    20.742655    7062.7136    7898.8879    7621.5756    8475.2632    1298.3677    478.00189   -7.6598992   -2572.4725 
17417000    254.69482    -3886.253   -3449.7148    -3886.253            0    8690.5813    16.971054    19.989659    20.704646    7023.9595      8299.22     7467.269    10305.255   -1107.0911   -307.79246    -461.8039   -2559.4756 
17418000    281.43856    -3850.972   -3368.5959    -3850.972            0    7580.1297    17.003831    20.028267    20.744634    7064.7356    7124.5463    8223.5396    7392.3031   -639.11952    -500.5281    156.80604   -2587.6006 
17419000    273.11963   -3837.9532   -3369.8355   -3837.9532            0    7936.6426    17.016478    20.043163    20.760063    7080.5113    8672.8495    7602.0805    7534.9977     1732.184    738.85725   -1149.9787    -2550.282 
17420000    261.67671   -3847.0944   -3398.5895   -3847.0944            0    6837.7306    17.018467    20.045507    20.762491     7082.995    6736.7861    7297.2483    6479.1574   -696.96882    129.21444   -1554.3571   -2692.2641 
17421000    265.00533   -3863.1723   -3408.9622   -3863.1723            0    8666.9704    16.954871    19.970598    20.684903    7003.8854    8203.7751    8043.3074    9753.8286    155.72235    64.039205   -1844.3681    -2523.679 
17422000    269.46491   -3864.6067   -3402.7531   -3864.6067            0    9943.9619    17.003117    20.027426    20.743763    7063.8464     9804.757    10376.363    9650.7653   -1536.5592    800.16102    550.08719   -2378.3365 
17423000    269.12947   -3881.5134   -3420.2347   -3881.5134            0    6753.9517    17.021648    20.049254    20.766371    7086.9675    6583.5111    6587.9795    7090.3644   -270.39692      14.6319    913.82295   -2722.1722 
17424000    251.36749   -3878.6178   -3447.7826   -3878.6178            0    6946.5232     17.05169    20.084639    20.803022    7124.5572    7393.2121    5887.8657    7558.4919    371.22377    241.83762   -223.39992   -2726.0085 
17425000    273.61425   -3875.1687   -3406.2032   -3875.1687            0    7990.7893    17.016432    20.043109    20.760007    7080.4537    7808.2027    8912.1142    7252.0511    420.63666    216.18309   -718.72493   -2581.0651 
17426000    264.42615   -3888.8506   -3435.6332   -3888.8506            0     8102.399    16.970287    19.988756     20.70371    7023.0075    6590.8081    8464.5358    9251.8533    2742.1265   -107.88439   -1955.1403   -2605.7583 
17427000     265.6215   -3850.3146   -3395.0484   -3850.3146            0    8664.6758    16.993681    20.016312    20.732252    7052.0926    10508.197    7905.3851    7580.4448   -1471.6442   -1648.3252    258.80417   -2503.9078 
17428000    271.35117   -3893.2216    -3428.135   -3893.2216            0    7749.6801     17.01937    20.046569    20.763591    7084.1214    7982.2711     7008.064    8258.7052    77.357533   -404.57371    1196.2312   -2627.4795 
17429000    262.94109   -3884.3841    -3433.712   -3884.3841            0    6226.0759    17.038838      20.0695    20.787342    7108.4593    5824.4447    6657.6575    6196.1256    1136.1766   -259.70974   -1375.8494   -2788.2573 
17430000    260.94148   -3906.7133   -3459.4685   -3906.7133            0    7560.9938    17.013238    20.039347     20.75611    7076.4674    6882.0487    8134.2203    7666.7125    888.91388   -705.98025    23.462051   -2679.1511 
17431000    266.07732   -3855.3117   -3399.2642   -3855.3117            0    8400.7307    16.995877    20.018898     20.73493    7054.8263    8604.8902    8126.2172    8471.0845   -409.02034   -1107.5779   -2017.9834   -2534.9349 
17432000    259.44323   -3844.1317   -3399.4549   -3844.1317            0     8105.635    17.085709    20.124708    20.844525    7167.2839    7241.5257    9317.5893    7757.7899    279.79375   -309.01664    1901.3851   -2552.1932 
17433000    258.51235   -3894.7257   -3451.6444   -3894.7257            0    8187.3228    16.979552    19.999669    20.715014    7034.5167    7447.3256    10181.379    6933.2635   -17.389613   -310.83032   -276.89928    -2611.697 
17434000      253.655   -3897.7488   -3462.9928   -3897.7488            0    9234.8748    17.000134    20.023913    20.740124    7060.1292    8554.5547     8363.118    10786.952   -15.172881   -1.2501213    -1291.858   -2512.1263 
17435000    261.74844    -3853.619   -3404.9911    -3853.619            0    4945.7059    17.104043    20.146304    20.866893    7190.3819    4778.2856    4566.8428    5491.9892    -408.2401   -308.62802   -1170.8822   -2886.3629 
17436000    263.34834   -3836.9781    -3385.608   -3836.9781            0    10194.557    16.986869    20.008288     20.72394    7043.6145    10534.764    9312.8251    10736.083    -1269.558   -1399.3357   -1311.1353   -2338.3834 
17437000    264.84028   -3881.3453   -3427.4181   -3881.3453            0    7362.0843    16.986145    20.007435    20.723057     7042.714    7074.2593    6914.4976     8097.496    1437.7538    1364.8187   -438.92772   -2671.2528 
17438000    271.97491   -3821.5985   -3355.4428   -3821.5985            0    9982.7943    16.943441    19.957136    20.670959    6989.7307    9833.5416    9223.7196    10891.122   -604.40842    715.22256    333.27431   -2337.8162 
17439000    252.91111   -3864.7901   -3431.3091   -3864.7901            0    7820.2169    16.987222    20.008704    20.724371     7044.054    5941.3011    6827.7146    10691.635   -1147.5392    118.31495   -156.42523   -2627.9359 
17440000    267.13275   -3832.2476   -3374.3912   -3832.2476            0    8848.1488    16.981641     20.00213    20.717563    7037.1139    9015.8742    10283.996    7244.5764   -1490.9936   -203.74659    821.00717   -2466.3137 
17441000    267.33684   -3855.9278   -3397.7216   -3855.9278            0    7750.2826    17.014737    20.041113     20.75794    7078.3384    6136.3869     8336.327     8778.134   -910.73765    921.79277    2.0051773   -2597.6575 
17442000    260.17782   -3848.5904   -3402.6545   -3848.5904            0    8975.5861    16.955282    19.971083    20.685404    7004.3952    10193.794    8115.7901    8617.1743    1321.0515    813.57563   -140.03017   -2485.7812 
17443000    258.05611   -3826.0445   -3383.7451   -3826.0445            0    7924.5602    16.994626    20.017425    20.733404    7053.2686    7743.9059    10128.426    5901.3486    128.90713   -1270.0647   -288.61537   -2568.5877 
17444000    276.57288   -3865.1751   -3391.1387   -3865.1751            0    9014.1242    16.981502    20.001966    20.717392    7036.9403     10867.65    7776.9185    8397.8046   -21.541267    874.67159    1514.8444   -2466.0501 
17445000    267.30704   -3862.1929   -3404.0378   -3862.1929            0    10101.697    16.970242    19.988703    20.703655    7022.9513    9943.2419    10459.684    9902.1642      527.458   -47.703671    408.94455   -2369.3963 
17446000    266.13122   -3881.3608    -3425.221   -3881.3608            0    5458.6331    17.059023    20.093276    20.811968    7133.7526    4899.2098    6127.6572    5349.0322   -175.48748   -1040.7809   -883.82843   -2857.3132 
17447000    265.85254   -3862.0801   -3406.4179   -3862.0801            0    8269.8793    17.006262     20.03113      20.7476    7067.7664    8477.9796    9509.5536    6822.1047    666.21705   -257.92304   -744.83949   -2553.9908 
17448000    263.15659   -3869.0888   -3418.0474   -3869.0888            0    7051.0448    17.034839     20.06479    20.782464     7103.456    6027.0587      7876.06    7250.0157   -463.39361   -5.0933766   -524.13697    -2687.583 
17449000    269.68585    -3854.687   -3392.4547    -3854.687            0     8830.999    17.036897    20.067215    20.784975    7106.0311    9664.3017    8810.7004    8017.9948   -159.33103    229.99282   -1154.3631   -2477.2614 
17450000    263.37508    -3868.597   -3417.1811    -3868.597            0    7644.8819    17.048668    20.081078    20.799335    7120.7694    6811.4371    8465.9388    7657.2697    539.88945   -1.2054923    1222.6376   -2623.2669 
17451000    262.76998   -3854.0461   -3403.6674   -3854.0461            0    7247.1209    17.104247    20.146544    20.867142    7190.6393     8600.775    6728.7317     6411.856   -81.549985    458.24271    635.70479   -2643.6756 
17452000    265.31921   -3845.0307   -3390.2827   -3845.0307            0    6546.5936    17.048231    20.080565    20.798802    7120.2226    5181.3484    5648.1649    8810.2675    471.40152    587.10827   -265.36403   -2710.4769 
17453000    250.71905    -3868.628   -3438.9041    -3868.628            0    9196.0348    17.023016    20.050864    20.768039    7088.6752    8329.2387    11297.498    7961.3673    144.17113    718.68297   -69.771799   -2488.2083 
17454000     253.6114   -3866.4339   -3431.7527   -3866.4339            0    7594.7963    17.025743    20.054077    20.771367    7092.0835    9356.6807    5143.8411    8283.8671    839.42144   -581.43945    -1314.373   -2646.2171 
17455000    250.87366   -3876.1961   -3446.2072   -3876.1961            0    7678.3915    17.035286    20.065316    20.783009    7104.0146    7945.7913    7563.9378    7525.4454    49.920298     1790.178    1495.6523   -2650.6892 
17456000     251.2213   -3880.6881   -3450.1034   -3880.6881            0    5817.7914    17.061422    20.096101    20.814895    7136.7625    6022.2409    5630.1068    5801.0266    209.03587   -1480.1035   -18.200446   -2844.5739 
17457000    257.11619   -3843.9448   -3403.2564   -3843.9448            0    8259.6388    17.005172    20.029846     20.74627    7066.4074    8017.7911    10334.448    6426.6775    751.33086   -1181.4555    179.19658   -2552.0486 
17458000    261.97215   -3827.5828   -3378.5715   -3827.5828            0    8675.3825    17.041902     20.07311    20.791081    7112.2959    9384.3377    7687.2939    8954.5159   -246.47681    -1375.246   -1311.8042   -2478.7128 
17459000    245.32193   -3828.0404    -3407.567   -3828.0404            0    7834.9438    16.990404    20.012451    20.728253    7048.0128    9651.4659    7128.4278    6724.9378   -22.174709   -1424.8782   -680.31582   -2602.2285 
17460000    277.40953   -3867.1148   -3391.6443   -3867.1148            0    8944.7343    16.976501    19.996076    20.711291    7030.7253     9498.678    11380.803    5954.7218   -126.21806     417.4414   -244.19476   -2474.4878 
17461000    253.11629   -3857.3955   -3423.5628   -3857.3955            0    7980.4522    16.979858     20.00003    20.715387    7034.8975    8138.5985     6436.583     9366.175   -1420.8673   -1040.4311    836.78472   -2604.7943 
17462000     260.4207   -3872.4428   -3426.0906   -3872.4428            0    7905.9677    17.001957    20.026059    20.742347    7062.3999    8951.3256    9254.3731    5512.2043   -491.45203   -353.42574    1308.8311   -2611.7929 
17463000    282.46241   -3870.7782   -3386.6473   -3870.7782            0    9238.3777    17.014649    20.041009    20.757832     7078.228    8108.9339    9845.7272    9760.4722   -1220.7789    533.25539    2116.5077   -2432.9816 
17464000    259.64014   -3873.9655   -3428.9512   -3873.9655            0    8193.4427    17.013066    20.039144      20.7559    7076.2524     8176.872     9132.194    7271.2623   -1145.2956   -376.68523   -184.79948   -2583.3889 
17465000    251.67818   -3926.7716   -3495.4039   -3926.7716            0    6004.9243    16.975344    19.994713    20.709881    7029.2885     7366.565    5408.3098    5239.8982   -324.28038    1601.3218    916.14676   -2879.8093 
17466000    248.38741   -3895.6747   -3469.9471   -3895.6747            0    8133.8164    16.982352    20.002967    20.718429    7037.9971    8835.1328    8429.3616    7136.9549    192.26956   -1843.4673    584.86412   -2635.0762 
17467000    258.08992    -3901.939   -3459.5817    -3901.939            0    8355.0695    16.935675    19.947988    20.661484    6980.1234    8914.7565    6176.1904    9974.2615    622.58907   -802.26673    1078.3249   -2609.0528 
17468000    272.03696   -3901.9588   -3435.6968   -3901.9588            0    7541.6108     17.03598    20.066134    20.783855     7104.883    7744.8088    8057.8966     6822.127    1183.0188   -832.41816   -597.88111   -2654.2544 
17469000    259.55416   -3849.9369     -3405.07   -3849.9369            0    6846.7226    17.018609    20.045674    20.762663    7083.1719    6298.8115    7341.8818    6899.4744    351.53406   -1733.3402   -485.16591   -2697.7981 
17470000     255.4836   -3882.5682   -3444.6781   -3882.5682            0    10077.434    16.922775    19.932794    20.645746    6964.1859     10950.31    7884.8329     11397.16    292.85443   -1053.1563    523.85838   -2421.1583 
17471000    268.11023   -3886.2304   -3426.6986   -3886.2304            0     8455.594    16.940621    19.953814    20.667518    6986.2408    7908.4044    8145.9753    9312.4023   -670.39131    648.53827    1237.4903   -2565.1822 
17472000    260.48504   -3885.4082   -3438.9457   -3885.4082            0    10032.576    16.949525    19.964302    20.678381    6997.2631    8202.9313    10932.245    10962.553   -943.22595    1141.5498   -1361.9307   -2415.1423 
17473000    253.42647   -3859.8997   -3425.5355   -3859.8997            0    6589.1321    17.003336    20.027684     20.74403    7064.1186    7397.5883    5979.8953    6389.9127   -115.31445    714.95046    1753.2262   -2746.7038 
17474000    265.23261   -3865.1669   -3410.5672   -3865.1669            0    8103.9909    16.924774    19.935148    20.648185    6966.6539    8306.6126    7323.4817    8681.8784    516.63075   -323.93102     346.3328   -2587.1896 
17475000    247.17876   -3836.0487   -3412.3928   -3836.0487            0     7565.524    17.026547    20.055023    20.772347    7093.0873    7461.1072    7391.8768     7843.588    803.53389   -479.51354    543.05337   -2629.7741 
17476000      250.183   -3831.6844   -3402.8793   -3831.6844            0    7487.4874      16.9506    19.965568    20.679692     6998.594    5530.5594    7271.3677     9660.535    743.13148    1443.5389   -1123.5086   -2638.6516 
17477000    275.94928   -3829.9362   -3356.9685   -3829.9362            0     7198.834    17.007611    20.032719    20.749246    7069.4484    9369.2002    5876.3125    6350.9894   -777.81444   -1460.1872    396.00673   -2614.7641 
17478000    268.35636   -3863.0207   -3403.0671   -3863.0207            0    9290.6697    16.960745    19.977518     20.69207    7011.1683    8851.6971    8025.4296    10994.882   -641.58694    450.31764    852.65683   -2453.0896 
17479000     260.0721   -3836.9649   -3391.2102   -3836.9649            0    8288.3488    17.017609    20.044495    20.761443    7081.9229    6331.6915    10401.308     8132.047   -78.224979    1419.3982    652.77259   -2535.1682 
17480000    271.92951   -3817.3623   -3351.2844   -3817.3623            0    7496.6693    17.001152    20.025111    20.741366     7061.397    7522.7805    8207.2428    6759.9846   -338.24076   -614.74359    2491.1464   -2579.2531 
17481000    278.46038   -3867.5931   -3390.3216   -3867.5931            0    10031.314    16.903736    19.910368    20.622518    6940.7062    12487.622     9222.631    8383.6875    1040.1482   -2157.1067    -821.9475   -2374.9211 
17482000    264.34662   -3876.5214   -3423.4403   -3876.5214            0    9499.6333    16.929673    19.940919    20.654162    6972.7052    10263.718    11107.355    7127.8278   -157.72939   -1776.2378     1209.342   -2457.4249 
17483000     259.0633   -3875.7405   -3431.7148   -3875.7405            0    8268.1909    17.012242    20.038174    20.754896    7075.2252    6400.2629    10241.464     8162.846    1043.5197    1023.3451    1347.4029   -2578.5624 
17484000    276.15874   -3873.6344   -3400.3078   -3873.6344            0    9199.9528    16.980795    20.001133     20.71653    7036.0612    9199.6197    8547.2949    9852.9437    142.85797   -275.77872    200.12164   -2456.2662 
17485000     259.0661   -3879.2868   -3435.2564   -3879.2868            0    9301.7378    17.027307    20.055918    20.773275    7094.0375    9362.1871    10297.503    8245.5237    278.17689    886.87311    1066.4644   -2472.9055 
17486000    278.81688   -3893.9731   -3416.0905   -3893.9731            0     7247.077    17.045003    20.076762    20.794863    7116.1781    6139.9678    7560.3231    8040.9402   -8.6468861   -31.310085     239.2484   -2663.9732 
17487000    261.40524   -3858.8271   -3410.7875   -3858.8271            0    8518.5378    16.986439    20.007781    20.723416    7043.0796    9491.5078    10114.119    5949.9871   -1128.0826   -76.373892    239.78116   -2535.7966 
17488000    264.85147   -3842.6326   -3388.6863   -3842.6326            0    9563.9575    16.951813    19.966997    20.681172     7000.097    10793.206     8480.559    9418.1073   -916.85979   -153.07526    2724.5233   -2412.3092 
17489000    257.79309   -3863.2333   -3421.3848   -3863.2333            0    7950.0363    16.987382    20.008892    20.724566    7044.2531      9562.59    7561.3265    6726.1924   -1962.8731   -272.45975   -1466.3369    -2604.652 
17490000    255.42116   -3857.0505   -3419.2673   -3857.0505            0    7344.8912    17.020564    20.047976    20.765048    7085.6132    7720.4581    5546.0332    8768.1823    430.04266    1214.6115   -543.40152   -2660.2727 
17491000    256.91243   -3886.2705   -3445.9314   -3886.2705            0    9822.2805    16.967253    19.985183    20.700009    7019.2415     10235.93    7803.7108    11427.201   -216.47243   -399.19212     280.9243   -2440.4399 
17492000    271.77659   -3879.3506   -3413.5349   -3879.3506            0    7679.2603    16.966326    19.984091    20.698878     7018.091    7589.3774    8175.1725     7273.231    1058.3212    22.678572    819.46478   -2627.5498 
17493000    265.64015   -3857.0493   -3401.7512   -3857.0493            0    8212.6908    16.986518    20.007874    20.723512     7043.178     8128.671    9064.6564    7444.7449    769.48473     1204.512    72.586576   -2558.1639 
17494000    276.30519   -3903.1032   -3429.5255   -3903.1032            0    6489.9386    16.950815    19.965821    20.679955    6998.8607    4614.8913    7662.3961    7192.5285    146.38009   -438.45987   -1424.6753   -2767.0897 
17495000    262.13538   -3849.3553   -3400.0642   -3849.3553            0    6665.1972    16.977985    19.997823    20.713102    7032.5689    5993.4257    7002.1494    7000.0165    769.56158   -1472.4568    574.71192   -2716.4629 
17496000    254.62213   -3859.8318   -3423.4182   -3859.8318            0    9954.0916    16.909981    19.917724    20.630137     6948.402    12023.972    8361.7137    9476.5889    122.89333   -2903.8499   -1145.2491   -2414.7172 
17497000    260.11846    -3859.643   -3413.8089    -3859.643            0    8097.9082    16.953839    19.969383    20.683644    7002.6075    7238.5774    9295.8374      7759.31    1776.5755    -465.6395    -974.6278   -2586.8032 
17498000    273.87134    -3868.173   -3398.7669    -3868.173            0    8748.9806    16.938985    19.951887    20.665522    6984.2169    5464.9801    9001.9318     11780.03    40.210376    181.77038    866.21944   -2507.6164 
17499000    245.19892   -3870.6098   -3450.3473   -3870.6098            0    7293.0403    17.012228    20.038157    20.754878     7075.207    6966.5463    7239.5323    7673.0424    562.17372   -744.75853   -282.15954   -2697.8175 
17500000    261.80463   -3842.5943   -3393.8701   -3842.5943            0    8770.2063    17.062286    20.097119    20.815949    7137.8471    8362.8723    9487.1177    8460.6288   -497.72835     753.9619   -355.68131   -2480.9076 
Loop time of 491.631 on 64 procs for 250000 steps with 864 atoms

Performance: 87.871 ns/day, 0.273 hours/ns, 508.512 timesteps/s
99.0% CPU use with 64 MPI tasks x 1 OpenMP threads

MPI task timing breakdown:
Section |  min time  |  avg time  |  max time  |%varavg| %total
---------------------------------------------------------------
Pair    | 21.496     | 27.191     | 31.157     |  45.1 |  5.53
Bond    | 0.27529    | 0.28634    | 0.29755    |   1.1 |  0.06
Kspace  | 207.96     | 216.07     | 224.31     |  30.1 | 43.95
Neigh   | 5.6882     | 6.5221     | 7.4653     |  19.7 |  1.33
Comm    | 107.07     | 117.26     | 127.35     |  46.0 | 23.85
Output  | 1.3739     | 1.3772     | 1.3901     |   0.4 |  0.28
Modify  | 115.64     | 117.97     | 120.6      |  11.0 | 24.00
Other   |            | 4.959      |            |       |  1.01

Nlocal:        13.5000 ave          18 max          10 min
Histogram: 6 6 3 16 0 12 15 3 1 2
Nghost:        2238.58 ave        2287 max        2189 min
Histogram: 2 1 8 9 12 10 9 6 5 2
Neighs:        4321.34 ave        6636 max        2975 min
Histogram: 6 4 16 12 10 10 2 3 0 1

Total # of neighbors = 276566
Ave neighs/atom = 320.09954
Ave special neighs/atom = 2.0000000
Neighbor list builds = 14226
Dangerous builds = 0

unfix		3
unfix		2
unfix		1

write_data	data.final.${pid}
write_data	data.final.0
System init for write_data ...
PPPM initialization ...
  extracting TIP4P info from pair style
  using 12-bit tables for long-range coulomb (../kspace.cpp:340)
  G vector (1/distance) = 0.37383809
  grid = 24 24 24
  stencil order = 5
  estimated absolute RMS force accuracy = 0.0032096626
  estimated relative force accuracy = 9.6658035e-06
  using double precision FFTW3
  3d grid and FFT values/proc = 2535 216
Last active /omp style is kspace_style pppm/tip4p/omp
WARNING: Not all mixed pair coeffs generated from mixing. Use write_data with 'pair ij' option to store all pair coeffs. (../write_data.cpp:312)

write_restart   restart.lmp.${pid}
write_restart   restart.lmp.0
System init for write_restart ...
PPPM initialization ...
  extracting TIP4P info from pair style
  using 12-bit tables for long-range coulomb (../kspace.cpp:340)
  G vector (1/distance) = 0.37383809
  grid = 24 24 24
  stencil order = 5
  estimated absolute RMS force accuracy = 0.0032096626
  estimated relative force accuracy = 9.6658035e-06
  using double precision FFTW3
  3d grid and FFT values/proc = 2535 216
Last active /omp style is kspace_style pppm/tip4p/omp
Total wall time: 0:08:15
