LAMMPS (30 Jul 2021)
Processor partition = 1
  using 2 OpenMP thread(s) per MPI task
using multi-threaded neighbor list subroutines
variable        pid world 0 1
variable        phase world IceIh IceIII

shell cd ${phase}
shell cd IceIII
include Restart.lmp
echo both
log log.lammps
#include		in.partitions
include		in.temp
variable        temperature equal 30.22
variable	tempDamp equal 100.0
include		in.pressure
variable        pressure equal 2171.0
variable        pressureDamp equal 1000.0 # This is 1 ps
include		in.seed
variable        seed equal 745823

units		real
atom_style	full

read_restart	restart.lmp.${pid}
read_restart	restart.lmp.1
Reading restart file ...
  restart file = 30 Jul 2021, LAMMPS = 30 Jul 2021
  restoring atom style full from restart
  orthogonal box = (0.069891146 0.087568266 -0.016789897) to (19.930110 19.912433 20.716788)
  4 by 2 by 4 MPI processor grid
  restoring pair style lj/cut/tip4p/long/omp from restart
  restoring bond style harmonic/omp from restart
  restoring angle style harmonic/omp from restart
  972 atoms
  648 bonds
  324 angles
Finding 1-2 1-3 1-4 neighbors ...
  special bond factors lj:    0        0        0       
  special bond factors coul:  0        0        0       
     2 = max # of 1-2 neighbors
     1 = max # of 1-3 neighbors
     1 = max # of 1-4 neighbors
     2 = max # of special neighbors
  special bonds CPU = 0.003 seconds
  read_restart CPU = 0.009 seconds
include 	in.setup
variable	out_freq equal 1000
variable	out_freq2 equal 10000
variable	out_freq3 equal 1000

timestep	2.0

neigh_modify    delay 7 every 1

include		in.tip4p
# This is TIP4P/Ice

# create groups ###
group ox type 2
324 atoms in group ox
group hy type 1
648 atoms in group hy

# set charges - beside manually ###
set group ox charge -1.1794
Setting atom values ...
  324 settings made for charge
set group hy charge 0.5897
Setting atom values ...
  648 settings made for charge

# ### TIP3P Potential Parameters ###
pair_style lj/cut/tip4p/long/omp 2 1 1 1 0.1577 8.5
pair_coeff 1 1*2 0.000 0.000
pair_coeff 2 2 0.21084 3.1668
bond_style  harmonic
bond_coeff  1 450 0.9572
angle_style harmonic
angle_coeff 1 55 104.52
kspace_style pppm/tip4p/omp 1.0e-5
pair_modify tail yes

thermo          ${out_freq}
thermo          1000
thermo_style    custom step temp pe etotal epair emol press lx ly lz vol pxx pyy pzz pxy pxz pyz enthalpy

restart 	${out_freq3} restart.lmp.${pid} restart2.lmp.${pid}
restart 	1000 restart.lmp.${pid} restart2.lmp.${pid}
restart 	1000 restart.lmp.1 restart2.lmp.${pid}
restart 	1000 restart.lmp.1 restart2.lmp.1


include         in.dump
dump            myDump all atom ${out_freq2} dump.water.${pid}
dump            myDump all atom 10000 dump.water.${pid}
dump            myDump all atom 10000 dump.water.1
dump            myDump2 all dcd ${out_freq2} dump.dcd
dump            myDump2 all dcd 10000 dump.dcd
dump_modify     myDump append yes
dump_modify     myDump2 append yes


variable natoms 	equal  "count(all)"                        # NUMBER ATOMS
variable H      	equal  "enthalpy/v_natoms"                 # ENTHALPY-per-atom
variable Vol      	equal  "vol/v_natoms"                 # volume-per-atom
fix AVG all 		ave/time ${out_freq} 1 ${out_freq} v_Vol v_H file vol_enthalpy.dat
fix AVG all 		ave/time 1000 1 ${out_freq} v_Vol v_H file vol_enthalpy.dat
fix AVG all 		ave/time 1000 1 1000 v_Vol v_H file vol_enthalpy.dat


timer           timeout 02:55:00 every 1000
New timer settings: style=normal  mode=nosync  timeout=02:55:00

fix 		1 all shake 1e-6 200 0 b 1 a 1
Finding SHAKE clusters ...
       0 = # of size 2 clusters
       0 = # of size 3 clusters
       0 = # of size 4 clusters
     324 = # of frozen angles
  find clusters CPU = 0.000 seconds
fix             2 all nph aniso ${pressure} ${pressure} ${pressureDamp}
fix             2 all nph aniso 2171 ${pressure} ${pressureDamp}
fix             2 all nph aniso 2171 2171 ${pressureDamp}
fix             2 all nph aniso 2171 2171 1000
fix             3 all temp/csvr ${temperature} ${temperature} ${tempDamp} ${seed}
fix             3 all temp/csvr 30.22 ${temperature} ${tempDamp} ${seed}
fix             3 all temp/csvr 30.22 30.22 ${tempDamp} ${seed}
fix             3 all temp/csvr 30.22 30.22 100 ${seed}
fix             3 all temp/csvr 30.22 30.22 100 745823


run             250000
PPPM initialization ...
  extracting TIP4P info from pair style
  using 12-bit tables for long-range coulomb (../kspace.cpp:340)
  G vector (1/distance) = 0.37292454
  grid = 24 24 25
  stencil order = 5
  estimated absolute RMS force accuracy = 0.0033447613
  estimated relative force accuracy = 1.0072649e-05
  using double precision FFTW3
  3d grid and FFT values/proc = 3458 576
Last active /omp style is kspace_style pppm/tip4p/omp
Neighbor list info ...
  update every 1 steps, delay 7 steps, check yes
  max neighbors/atom: 2000, page size: 100000
  master list distance cutoff = 10.8154
  ghost atom cutoff = 10.8154
  binsize = 5.4077, bins = 4 4 4
  1 neighbor lists, perpetual/occasional/extra = 1 0 0
  (1) pair lj/cut/tip4p/long/omp, perpetual
      attributes: half, newton on, omp
      pair build: half/bin/newton/omp
      stencil: half/bin/3d
      bin: standard
Setting up Verlet run ...
  Unit style    : real
  Current step  : 44750000
  Time step     : 2
  Walltime left : 2:54:59.93
Per MPI rank memory allocation (min/avg/max) = 10.19 | 10.20 | 10.21 Mbytes
Step Temp PotEng TotEng E_pair E_mol Press Lx Ly Lz Volume Pxx Pyy Pzz Pxy Pxz Pyz Enthalpy 
44750000    32.465878   -5193.0819   -5130.4687   -5193.0819            0    2241.8221    19.860219    19.824864    20.733578    8163.3516    2538.5476    2203.2437     1983.675   -111.48148    614.50888   -159.23482   -4863.5706 
44751000    30.923306   -5196.2669   -5136.6287   -5196.2669            0    1965.7114    19.803989    19.967086    20.715644    8191.5445    3027.9597    1227.8987    1641.2757   -72.105549    578.39579    270.84137   -4901.7944 
44752000    30.892865   -5193.5733   -5133.9938   -5193.5733            0    2034.5257    19.864754    19.832226    20.730472    8167.0238    1716.2727     2758.263    1629.0414   -343.16636    35.644366    548.90422   -4891.6662 
44753000    30.291281   -5193.2495   -5134.8302   -5193.2495            0    2426.0541     19.92694    19.864828    20.577192    8145.3834    2282.7526    2382.4221    2612.9875   -446.80755     51.66648   -162.23289   -4846.6342 
44754000    29.864944   -5196.9318   -5139.3348   -5196.9318            0    2090.8094    19.880916    19.888972    20.732126    8197.7101    2020.9028    2292.9629    1958.5623   0.73984122   -261.97579   -247.92462   -4889.3677 
44755000    30.862615   -5192.7289   -5133.2078   -5192.7289            0    2706.5706    19.888559    19.898818     20.55094    8133.2153    2789.0432    2560.3156    2770.3529   -180.23996    330.23845   -97.442176    -4812.169 
44756000    31.324785   -5193.1211   -5132.7086   -5193.1211            0    2303.0095    20.004269     19.77225    20.594496    8145.7289    1389.8299    3244.4201    2274.7785    84.606465   -416.82145   -38.764033   -4859.1177 
44757000    30.604834   -5195.0884   -5136.0644   -5195.0884            0    2055.5736     19.84809    19.840285    20.754338    8172.8878     2088.305    2677.8767     1400.539   -349.85543     270.0615   -265.99058    -4891.054 
44758000    30.137151   -5193.2171   -5135.0951   -5193.2171            0    2129.0988    19.942745    19.875827    20.629412    8177.0561    1827.5451    2108.4005    2451.3509     92.87541    321.84344    343.95872   -4881.1916 
44759000    32.288079   -5193.8359   -5131.5656   -5193.8359            0    1937.7106    19.859689    19.911987    20.674682    8175.7175    2118.7119    1929.3872    1765.0326   -202.44567     -154.206    24.175677   -4900.5237 
44760000    29.801774   -5190.1685   -5132.6933   -5190.1685            0    2205.5843    19.874913    19.879276    20.639178    8154.5163    1582.5791    3019.6189    2014.5547   -51.132197   -62.269394    311.32405   -4870.3936 
44761000    30.224601   -5193.3764   -5135.0857   -5193.3764            0    2145.0648    19.913919    19.918204    20.616705    8177.6059    2591.5242    1096.2996    2747.3706   -362.21527   -135.10534    501.50805    -4879.261 
44762000    31.066933   -5189.5756   -5129.6604   -5189.5756            0    2327.9121    19.938895    19.864823    20.647547    8178.1348    2474.9795    2061.2819     2447.475    -419.5493    83.164367    266.32003    -4852.011 
44763000    31.459316    -5191.785    -5131.113    -5191.785            0    2113.9995    19.935695    19.850657    20.703369    8193.0817    1687.5323    2351.4266    2303.0395    82.116137   -155.28596    620.44269   -4878.5161 
44764000    29.703913    -5193.098   -5135.8115    -5193.098            0    1980.4728    19.862195     19.92236    20.665253    8177.2775    2464.5399     1452.995    2023.8835    -23.41819     145.3982   -119.53418   -4899.6258 
44765000    30.195724   -5192.6577   -5134.4227   -5192.6577            0    2254.0058    19.920683    19.796737    20.686286    8157.9372    2496.8286    1848.1723    2417.0166   -297.81557    383.05877    -105.2264   -4866.2521 
44766000    29.086335   -5189.8255   -5133.7301   -5189.8255            0    2638.1604    19.929689     19.83005    20.681245    8173.3674    2687.2752    2634.8106    2592.3955   -290.33625    342.09739   -61.266431   -4819.2609 
44767000    31.190117   -5195.9616   -5135.8088   -5195.9616            0    2121.4377    19.953902     19.81171     20.66235     8168.259    2044.1073    2468.6445    1851.5611    23.992711   -202.69586    688.98016   -4883.0911 
44768000    28.574118   -5193.1083   -5138.0007   -5193.1083            0    1907.0246    19.881832    19.939659     20.67402    8195.9455    2808.9208    1271.1913    1640.9617    -187.0999    8.4584751   -170.46348   -4910.0551 
44769000    29.894071   -5192.3133   -5134.6601   -5192.3133            0    2367.2636    19.955191    19.831199    20.592053    8149.0036    2280.2623    2483.7938    2337.7348   -159.21125    127.34358   -341.06953   -4853.3229 
44770000    30.731222   -5194.4899   -5135.2222   -5194.4899            0     2896.171    19.904596    19.926673    20.555078    8152.8095    2941.7533    2536.4283    3210.3314   -280.06986    277.06337    116.00602   -4790.8664 
44771000    29.738695   -5196.4974   -5139.1438   -5196.4974            0     2027.495    19.989183    19.839547    20.683766    8202.6922    2175.1398    1713.0866    2194.2587   -245.33935   -262.52071   -307.35687   -4896.5989 
44772000    29.759397    -5192.463   -5135.0695    -5192.463            0    2583.2106     19.88087    19.900097     20.63794    8165.0139    3174.2278    1861.8165    2713.5875    227.57457   -119.49178    67.390342   -4827.4651 
44773000    29.331246   -5193.5661   -5136.9983   -5193.5661            0    2500.5635    19.883501    19.849086    20.647489    8148.9303    2480.6788    2949.2101    2071.8015    85.260823    766.58277   -323.51908   -4839.8219 
44774000    31.321616    -5188.111   -5127.7046    -5188.111            0    3182.3209    19.905738    19.869093    20.556456    8130.2626    2678.0182    3349.0928    3519.8518   -326.23471    255.53331    233.90615   -4750.3719 
44775000    31.666823   -5192.0852   -5131.0131   -5192.0852            0    2630.2408    19.859644     19.88538     20.68178    8167.5776    3395.8397    2144.0874    2350.7953   -58.568507    338.48374    282.89524     -4817.71 
44776000    30.719152   -5189.5919   -5130.3474   -5189.5919            0     2387.735    19.839904    19.866509    20.689583    8154.7913    2660.3573    2081.1738    2421.6739    43.086134    193.86205    159.05261   -4846.3759 
44777000    31.576537   -5191.8155   -5130.9175   -5191.8155            0    2263.9288    19.880154    19.896681    20.652385    8169.0319    1685.9427    2734.7868     2371.057    217.33418   -208.36587    217.35361   -4861.1999 
44778000    29.298405   -5192.6005   -5136.0961   -5192.6005            0    2408.1791    19.874479    19.866217    20.658865    8156.7546    1870.7226    3314.7384    2039.0764   -32.118137    431.33604    125.97157   -4849.6242 
44779000    30.055684    -5191.927   -5133.9621    -5191.927            0     2109.883    19.909284    19.844065    20.655059    8160.4238    1877.8184    2801.5235    1650.3072   -334.54094    444.59699    168.47981    -4882.862 
44780000    29.596016   -5190.0841   -5133.0057   -5190.0841            0    2135.1903     19.89988    19.927558    20.602848    8170.1833     1328.506    2364.1275    2712.9375   -319.65905   -331.18199    -194.0177   -4878.5898 
44781000     31.99008   -5194.1894   -5132.4938   -5194.1894            0    1839.5296    19.934047    19.884258     20.63512    8179.2195    1452.0822    2108.6166    1957.8899   -53.701279    453.86151    84.118846   -4913.0646 
44782000    30.363001   -5192.3292   -5133.7716   -5192.3292            0    2055.2876    19.927602    19.927635     20.57007      8168.58    1516.5315    1927.2714    2722.0598   -322.68542    -160.3836   -179.45539   -4888.9245 
44783000    30.454033   -5192.5004   -5133.7672   -5192.5004            0     2221.967     19.89748    19.884314    20.615304    8156.3988    1233.6107    2824.3814     2607.909   -70.416183      187.212    187.55728   -4869.4582 
44784000    30.039365   -5196.1717   -5138.2382   -5196.1717            0    1536.3969     19.89768    19.924118    20.639342    8182.3377    1799.3575    1302.3177    1507.5155   -529.48541    84.286468    2.9392043   -4954.8984 
44785000    29.686769   -5198.4755   -5141.2221   -5198.4755            0    2307.3141    19.884153     19.86598    20.657793    8160.2038    2213.3336    2652.6923    2055.9163   -116.60847   -152.09943    245.27289   -4866.6328 
44786000    29.283255   -5195.3468   -5138.8716   -5195.3468            0    1834.9077    19.867843    19.861996    20.704712    8170.3906    2335.6102    1588.3848    1580.7281   -93.660075    471.49762    340.09336   -4920.2299 
44787000    30.743634   -5194.5027    -5135.211   -5194.5027            0     1754.664    19.947652    19.844039    20.654198    8175.7986    2605.0985    1568.8363    1090.0571   -235.77216      525.491   -456.83543   -4925.9926 
44788000    30.463557   -5192.3181   -5133.5666   -5192.3181            0    1906.2856     19.91625    19.822176     20.70315    8173.2602    2052.1963    2167.5241    1499.1365    -201.0728    498.60922    422.40348   -4906.3399 
44789000    30.922476   -5198.3105   -5138.6739   -5198.3105            0    1836.5015    19.899308    19.948473    20.598799    8176.9159    1930.5604    1360.8305    2218.1137    18.692785   -271.90108   -408.06031   -4919.6675 
44790000    29.780546   -5192.9288   -5135.4945   -5192.9288            0    1931.5354    19.925542    19.919042    20.588004    8171.3317    2223.0179    1175.8688    2395.7195    18.714546    681.86841   -480.14174   -4905.3125 
44791000     30.40599   -5193.4942   -5134.8537   -5193.4942            0    2330.4202    19.947651    19.861241    20.580491     8153.684    1941.4767    2239.8432    2809.9407   -30.784198   -67.228426    393.22068   -4857.7362 
44792000    29.181041   -5192.0184   -5135.7403   -5192.0184            0    3171.3269    19.917695    19.836296      20.6294    8150.5376    2988.8505    3027.0609    3498.0694   -110.97835    778.71365    20.472924   -4758.7735 
44793000     31.13599   -5191.7966   -5131.7482   -5191.7966            0    2378.0627    19.974323     19.83577    20.594543    8159.6834    2699.9111    1916.2382    2518.0388    131.61755     79.27364   -304.82879   -4848.7573 
44794000    30.561251   -5195.9517   -5137.0118   -5195.9517            0    2541.0235    19.942341    19.790227    20.653307    8151.1054    1678.0179     3378.935    2566.1176   -48.857749     282.1116   -272.31134   -4834.9463 
44795000    28.738442   -5194.8331   -5139.4086   -5194.8331            0    2439.2561    19.898852    19.849899     20.67068    8164.7162    1772.4797    3446.2825    2099.0061   -84.360714    551.80669   -294.76477   -4848.9566 
44796000     30.14095   -5195.6319   -5137.5025   -5195.6319            0    2106.5902    20.018104    19.868483    20.543123    8170.6031    1923.0511    1932.4952    2464.2242    -228.5446    409.69463   -209.91683   -4886.4815 
44797000    30.596312   -5194.9124   -5135.9049   -5194.9124            0    2226.9257    19.848645    19.895946    20.715971    8180.8938    2699.3133    1834.5108    2146.9531   -262.85832     315.2691   -41.031249   -4870.2105 
44798000    28.770061   -5192.8616   -5137.3761   -5192.8616            0    2063.1784    19.914419    19.846207     20.67403    8170.9075    1902.8015    2491.4001    1795.3337   -366.33306    201.14122   -290.10396   -4891.5189 
44799000    31.609573   -5192.2685   -5131.3067   -5192.2685            0    2317.6307    19.923211      19.8551    20.571014    8137.4274    2310.2219    2326.2517    2316.4185    109.02003   -100.89717     585.3332   -4856.2595 
44800000    29.658733   -5195.0222   -5137.8228   -5195.0222            0    2260.8978    19.870112    19.873971    20.657535    8157.6198    2388.3408    2081.6453    2312.7074   -275.17099    691.30724   -336.30282   -4868.8426 
44801000    31.603795   -5187.7986   -5126.8481   -5187.7986            0    2584.4948    19.901327    19.869304    20.627629    8156.6909    1973.2634     3046.558    2733.6629    -164.9527    168.59851    -387.9825   -4819.4044 
44802000    28.535996   -5191.3782   -5136.3441   -5191.3782            0     2149.592    19.911208    19.890908    20.627719    8169.6495    2382.2184     2087.953    1978.6047   -73.718556   -49.767506    357.89544   -4880.2289 
44803000    29.279882   -5196.4476   -5139.9789   -5196.4476            0    2005.2718    19.899183    19.909363     20.62127    8169.7361     2016.833    2013.2688    1985.7137    -60.16618   -127.58559    -446.4776   -4901.0564 
44804000    30.038259   -5191.8461   -5133.9148   -5191.8461            0    1915.7077    19.860014    19.870734    20.770263    8196.6325    2069.9737      1992.86    1684.2895   -124.13747    423.05008    -117.0164   -4904.9121 
44805000    30.318051   -5193.9393   -5135.4684   -5193.9393            0    1860.8316    19.916656    19.930567    20.644069    8194.6685    1703.0336    1473.7108    2405.7504    103.56481    842.56959    397.35077   -4913.0788 
44806000    31.512326   -5191.4294   -5130.6552   -5191.4294            0    2210.3793    19.934808    19.907004    20.581238    8167.5057    2799.6842    1538.8887     2292.565   -159.61747    581.04178    660.51162   -4867.3666 
44807000    28.471015   -5193.6799   -5138.7711   -5193.6799            0    2555.4041    19.937809     19.81594     20.62473    8148.5507     1745.696    3474.0361    2446.4801    187.71075    142.91625    200.80504   -4835.0914 
44808000    30.671813   -5194.2225   -5135.0694   -5194.2225            0    2295.3459    19.929185    19.871603    20.598719    8157.6048    2271.0456    2524.8832    2090.1088   -233.16445   -186.81465   -24.695424   -4861.9914 
44809000     30.00473   -5193.4881   -5135.6215   -5193.4881            0    2335.1009    19.853846     19.87357    20.625029    8137.9517    2991.6005    1832.3856    2181.3167   -126.72773    398.80991   -184.85528   -4858.4831 
44810000    30.119584   -5192.9404   -5134.8522   -5192.9404            0    2158.5464    19.912189    19.871485    20.649069    8170.5225    2406.5719    1964.2289    2104.8383   -13.310795    271.83107   -31.435777   -4877.6427 
44811000    30.639774   -5193.9387   -5134.8474   -5193.9387            0    1756.9785    19.834558    19.869638    20.776007    8187.9382    2665.4498    1283.3862    1322.0995   -96.015774   -116.67872    112.71454   -4925.0419 
44812000    31.820824   -5191.9771   -5130.6079   -5191.9771            0    2469.8395    19.899866    19.876637    20.617606    8155.1376    2583.0299    2422.0062    2404.4823    -75.57429     487.9742   -364.96178   -4836.8593 
44813000    30.031611   -5191.1065    -5133.188   -5191.1065            0     2172.021    19.939601    19.890638    20.588152    8165.4956    2446.0697     1635.481    2434.5123    171.92139    442.16993    359.44163   -4874.5321 
44814000    31.010384   -5195.6328   -5135.8266   -5195.6328            0     2224.083    19.908179    19.870192    20.681583    8181.2069    2365.0515     2917.182    1390.0155    10.581776    524.85012    57.848934   -4870.4612 
44815000    30.159922   -5193.6989    -5135.533   -5193.6989            0    2356.2932    19.884327    19.843041    20.691251    8164.0541    1720.6437    2702.1114    2646.1247   -470.47086   -306.57148   -186.42419   -4854.9824 
44816000    31.277748   -5188.4821   -5128.1603   -5188.4821            0     2716.751    19.931589    19.809111    20.612286    8138.2882    2564.6285    2688.1048    2897.5198   -153.61524    269.00173    659.69273    -4805.713 
44817000    29.284833   -5193.5896   -5137.1113   -5193.5896            0    2014.0031    19.904429    19.869206    20.648362    8166.1216    1747.6293    2291.0973    2003.2827   -31.565283    410.86982     615.5332   -4897.2546 
44818000    30.298729   -5194.5862   -5136.1526   -5194.5862            0    2307.9729    19.907685    19.915345    20.582706    8160.3928    2696.0986    1797.5374    2430.2829    129.75584    428.61071   -146.25796   -4861.4785 
44819000    29.385667   -5195.9868   -5139.3141   -5195.9868            0    2581.0338    19.933604    19.872456    20.625237    8170.2684    3069.5235     1928.612     2744.966    63.108309     326.3013    177.44009    -4831.771 
44820000    31.033368   -5193.4783   -5133.6279   -5193.4783            0    2594.7413    19.900859    19.823461    20.683241    8159.6188     2852.022     2348.212    2583.9899   -168.12995   -55.428541    261.16356   -4824.8545 
44821000     31.09177   -5193.8818   -5133.9187   -5193.8818            0     2326.426    19.909769    19.789886    20.727763    8166.9886    2440.2712    2372.0369    2166.9699   -385.33575    284.08443    138.32144   -4856.8248 
44822000    30.844962   -5187.5803   -5128.0932   -5187.5803            0    2138.8727    19.931317    19.874543    20.585223    8154.3383    2148.7253    1999.7575    2268.1354    76.903983    220.65376   -86.376232   -4873.7328 
44823000    28.850209   -5194.6014   -5138.9614   -5194.6014            0    1865.8814    19.865937    19.929015    20.618832    8163.1719    1768.2958    1953.1498    1876.1985   -196.30921    259.47149    38.145183   -4916.8254 
44824000    27.428685    -5191.079   -5138.1805    -5191.079            0    2501.8629    19.891809    19.897735     20.62222    8162.3148    2712.0679      2433.64    2359.8808   -294.27378    327.67132    142.25077   -4840.3612 
44825000    30.165951    -5195.709   -5137.5315    -5195.709            0    2148.3358    19.854267    19.911132    20.709765    8187.0035    2253.7855    2208.8227    1982.3993    89.349055    645.85173   -175.26143   -4881.0222 
44826000     30.21054   -5194.3099   -5136.0463   -5194.3099            0    1638.6599    19.966994    19.857851    20.642389    8184.7401    1432.7483    2056.5081    1426.7232   -300.07953   -229.04509    655.65634    -4940.446 
44827000    28.880778   -5194.7706   -5139.0716   -5194.7706            0    2288.3756    19.900269    19.867107    20.597217    8143.3318    1856.1776    2672.9059    2336.0434   -180.24775   -237.67165    16.918139   -4867.2992 
44828000    30.939003   -5189.1418   -5129.4733   -5189.1418            0    2897.7632    19.951254    19.872293    20.601189    8167.9011    3490.1983    2273.9697    2929.1216    1.8758941    393.78441    244.86393   -4784.2905 
44829000    30.416914   -5194.4431   -5135.7815   -5194.4431            0    2346.5037    19.871136    19.865604    20.662323    8156.4959    2273.6708    2543.9068    2221.9335   -283.58485   -5.8037929   -7.2007998   -4856.6552 
44830000    30.644134   -5191.6935   -5132.5938   -5191.6935            0    1917.5693    19.900566    19.886811     20.67385    8181.8582    2007.8359    1455.2385    2289.6335   -221.38441    786.31253    271.99797   -4903.7817 
44831000    28.801747   -5189.4172   -5133.8706   -5189.4172            0    2741.3859    19.869994    19.834791    20.694337    8155.9939    2646.0932    3357.2032    2220.8612   -267.58764    343.73033    262.78454   -4807.7915 
44832000    29.753797   -5195.6174   -5138.2347   -5195.6174            0    2145.4304    19.857997    19.888927    20.642134     8152.699    2595.2845    1872.0673    1968.9393   -35.120386    129.64971   -217.09645   -4883.1457 
44833000    29.753305   -5190.4788   -5133.0971   -5190.4788            0    2067.3595    19.803392    19.861768    20.721931    8150.5649    2475.8655     2427.378    1298.8351   -40.736978    20.742323    399.58508   -4887.3549 
44834000    31.508784   -5191.3113   -5130.5439   -5191.3113            0    2297.0642     19.90858    19.898682    20.584594    8154.6794    2198.2047    2234.6407    2458.3472   -77.499466    512.36902   -182.34811   -4857.3595 
44835000    29.881136   -5195.7104   -5138.0821   -5195.7104            0    1985.4264    19.893189    19.789615    20.763406    8174.1076    1779.7861     2487.333    1689.1601    -137.3468    271.53724   -688.34964   -4901.3975 
44836000    31.717114   -5197.1229   -5135.9538   -5197.1229            0    2300.6961    19.931015    19.870743    20.580093    8150.6242    1592.9187    2889.8347    2419.3349   -17.606795    735.41833    347.82758   -4862.4735 
44837000     30.75535   -5196.2155   -5136.9012   -5196.2155            0     2271.154    19.851724    19.873914    20.645654    8145.3598    2644.4955    2224.8964      1944.07    89.414097    628.24752    50.842666   -4867.1069 
44838000     30.60725   -5194.0492   -5135.0205   -5194.0492            0    2180.0564    19.901845    19.924046    20.596457    8167.0161    3022.7511    1199.4846    2317.9334   -42.998198    327.26738     464.3884   -4875.3594 
44839000    29.505743   -5196.9999   -5140.0956   -5196.9999            0    2044.4237    19.961889    19.866322     20.62327    8178.5562    1287.8213    2041.3414    2804.1086   -54.827628    384.49462    440.85318   -4896.2452 
44840000    29.456083     -5192.28   -5135.4715     -5192.28            0    1800.3819    19.931365    19.867972    20.666955    8184.0274    1677.3556    2029.4524    1694.3377   -185.73621    150.81572   -76.256815   -4920.5857 
44841000    29.183932   -5191.1577    -5134.874   -5191.1577            0    2208.0192    19.944446    19.820722    20.567201    8130.4885    2319.7831    2190.6841    2113.5904   -34.060497    23.688624    57.011048   -4873.0585 
44842000    30.605156   -5195.4865   -5136.4619   -5195.4865            0    2702.3462    19.866516    19.888192    20.604952     8141.204    3021.5315    2375.1748    2710.3321   -210.61606    431.06187    85.191998   -4815.6094 
44843000    30.049967   -5190.1269    -5132.173   -5190.1269            0    2326.6311    19.896937    19.890409    20.643703    8169.9151    2670.3018    1896.2318    2413.3596   -29.501082    557.15993   -229.31134   -4854.9553 
44844000    28.781449   -5190.0296   -5134.5221   -5190.0296            0    2271.4093    19.884763    19.911025    20.618038    8163.2174     2082.388    2298.2019    2433.6381     76.39803    603.50024     40.96961   -4864.1059 
44845000    29.332835   -5196.2583   -5139.6875   -5196.2583            0    2294.4092    19.875609      19.8572    20.661144    8154.4152    1839.3276    2916.4168    2127.4833   -150.51955    434.14153    291.83226   -4866.8277 
44846000    31.796795   -5194.4023   -5133.0795   -5194.4023            0    1659.2396    19.934217    19.837411     20.69558     8183.928    2091.3692    1651.3663    1234.9834   -222.76486    327.55753    268.77983   -4935.0423 
44847000    30.277201   -5193.0015   -5134.6093   -5193.0015            0    2326.0313    19.951381     19.80036    20.611668    8142.5266    1942.5758    2177.8005    2857.7177   -87.095711     47.25033    112.78251   -4858.3922 
44848000    28.927199   -5191.3515    -5135.563   -5191.3515            0    2793.2988    19.892716    19.855691    20.642464    8153.4349    2868.0746    2504.2311    3007.5906     12.00241    105.67397    445.13843   -4803.4133 
44849000    31.029839   -5194.4382   -5134.5945   -5194.4382            0    2608.5275    19.918171    19.813686    20.632528    8142.6768    2974.8046    2425.4019    2425.3761   -134.59556    449.52873   -512.76773   -4824.8251 
44850000    29.911079    -5193.762   -5136.0759    -5193.762            0     2239.195    19.981285    19.824952    20.561858    8145.1279    1774.7993    2396.9727    2545.8129   -252.11558    168.84806    153.97705   -4870.0857 
44851000    29.523284   -5198.8252    -5141.887   -5198.8252            0    1730.9351    19.928487    19.843698    20.693473    8183.3347    1854.0591    1511.0049    1827.7413   -112.56027     143.5945    543.39448   -4935.3076 
44852000    30.102441   -5193.0588   -5135.0037   -5193.0588            0    2120.4506    19.873576     19.87531    20.666833    8163.2647    2665.8067    1465.4363     2230.109   -125.16699     510.1338   -597.62736    -4882.558 
44853000    29.928627    -5190.947   -5133.2271    -5190.947            0    2004.0832    19.945653     19.83854    20.668628    8178.4239    1931.2273    2202.0452    1878.9773   -171.55836    464.99675    598.48157   -4894.1922 
44854000    30.553118   -5193.0158   -5134.0915   -5193.0158            0    1397.6717    19.887706    19.850519    20.764975    8197.6233    1086.4512     1904.285    1202.2788   -142.96157    191.88884   -32.984685   -4966.9944 
44855000    30.185345    -5185.315      -5127.1    -5185.315            0    2323.3642    19.887626    19.926355     20.53833    8139.0914    2425.6811    1825.4535    2718.9581   -101.08422    199.12578   -291.64871    -4851.316 
44856000    29.523762   -5194.1142   -5137.1752   -5194.1142            0    2095.1685    19.868892     19.84192    20.683865    8154.3444    2230.0036    2223.1003    1832.4016   -185.07406    667.08807    273.14579    -4888.012 
44857000    30.286336   -5194.5979   -5136.1882   -5194.5979            0    1937.7908    19.870975    19.910331    20.702511    8190.6936    2143.0795    1792.4931    1877.7999   -91.642855    669.90764   -532.76394   -4904.7135 
44858000    30.997105   -5191.4211   -5131.6406   -5191.4211            0    2488.6559    19.879253    19.876225    20.617696    8146.5568    2365.6825    2602.3428    2497.9424    137.48534    179.86829   -367.61131   -4835.9654 
44859000    29.590091   -5191.7345   -5134.6675   -5191.7345            0    2394.1645    19.876969    19.833264    20.696896    8159.2376    2181.1083    2667.7625    2333.6227    283.63733    53.915362   -112.15051    -4849.776 
44860000     29.46036   -5190.0606   -5133.2438   -5190.0606            0    1669.4087    19.879278    19.898321    20.657595    8171.4057     2159.283    1175.6533    1673.2896   -95.850938    44.388434    -736.0864   -4934.2978 
44861000    30.722321   -5190.3212   -5131.0706   -5190.3212            0    2528.1867    19.834753    19.950662    20.622608     8160.705    3158.8133    1638.3645    2787.3823   -205.94346    88.509676    138.34049   -4830.1772 
44862000    29.516796   -5189.8483   -5132.9227   -5189.8483            0    2427.3665    19.853567    19.858627    20.698404    8160.6476    2711.0873    2228.9825    2342.0296   -8.2057838   -8.8899426    228.45479   -4844.0305 
44863000     30.38523   -5196.5332   -5137.9327   -5196.5332            0    2286.6728    19.940444    19.872358    20.586678    8157.7519    1735.6142    2450.2646    2674.1397    -194.7893    436.66867   -161.53145   -4865.8817 
44864000    30.394598   -5191.6025   -5132.9839   -5191.6025            0    2110.1997    19.975997    19.794685    20.598929    8145.1988     1673.884    2316.0072    2340.7081   -230.17998    460.86851   -346.23051   -4882.3146 
44865000    30.317075   -5194.1271   -5135.6581   -5194.1271            0    2138.6706    19.933149    19.824676    20.665753    8166.4486    1682.5493     3078.019    1655.4435    22.153847    33.495085    164.78634    -4880.944 
44866000    29.604539   -5196.7515   -5139.6566   -5196.7515            0    2279.9505    19.882512    19.859418    20.699888    8173.4566    2613.7722    2098.6932    2127.3861    237.60549    321.51459    160.68984   -4867.8831 
44867000    30.422884   -5196.9789   -5138.3058   -5196.9789            0    1850.5378    19.876919    19.882083    20.630008    8152.8666    1805.7155    1701.6214    2044.2766   -183.45789    172.24517   -176.96799   -4918.2747 
44868000    28.489662   -5192.6826   -5137.7379   -5192.6826            0    2635.7393    19.917562     19.79741    20.660515    8146.7744    2398.8028    3255.0516    2253.3636   -325.50908    109.44275    225.62245   -4824.5796 
44869000    29.377842   -5194.2028   -5137.5452   -5194.2028            0    2017.5329    19.902535    19.925302    20.617786    8176.2724     2425.306    1536.6488    2090.6438    89.850094    288.61454    458.41009   -4896.9694 
44870000    30.332007   -5191.6751   -5133.1772   -5191.6751            0    2274.4665    20.012304    19.788021    20.604154    8159.3253    1793.8493    2765.5838    2263.9665   -85.906083    299.71925    202.86501   -4862.5262 
44871000    28.103362   -5194.7657    -5140.566   -5194.7657            0    1905.9582      19.9743    19.850547    20.666326    8194.2145    1614.5592    2229.8298    1873.4857   -18.355585   -225.87599   -170.56113   -4912.7959 
44872000    30.956973   -5192.7208   -5133.0177   -5192.7208            0    2177.5699    19.864716    19.856853    20.686334      8159.74    2319.3414    2235.1808    1978.1873    112.45453    365.10042   -272.73922   -4873.8838 
44873000    29.124897   -5191.3539   -5135.1841   -5191.3539            0    2201.4728     19.89421    19.879679    20.660066    8170.8598    2642.0992    2077.9168    1884.4024   -290.86379    259.43117    27.187867   -4872.8486 
44874000    30.923524   -5193.4245   -5133.7859   -5193.4245            0    2385.9099    19.923315    19.783922    20.720566    8167.2454    1489.5159    3493.1831    2175.0307   -361.34981    61.626638   -266.80157    -4849.598 
44875000    30.096175   -5190.2022   -5132.1592   -5190.2022            0    2035.0409    19.809801    19.890327    20.700203     8156.365    2112.8883    2357.1429    1635.0916    89.330769    451.78912    346.72165   -4890.0866 
44876000    28.586242   -5194.1085   -5138.9775   -5194.1085            0    2322.5868    19.871587    19.865845     20.64162    8148.6072    2322.0244    2499.6507    2146.0854   -38.262265   -6.8210339    108.03006   -4862.9634 
44877000     30.25794   -5194.4114   -5136.0564   -5194.4114            0    1792.5839    19.879759    19.894546    20.693265    8184.1609    2244.5701    1325.6535    1807.5282   -241.79686    73.296273   -123.61471   -4922.0979 
44878000    28.735973   -5192.0024   -5136.5826   -5192.0024            0    1880.3096    19.893731    19.832938    20.727101    8177.9016    2155.3914    2240.3768    1245.1607    72.135379    312.86632   -169.23578   -4912.3251 
44879000    32.545793    -5192.251   -5129.4837    -5192.251            0    2255.1396    19.904277      19.9021     20.62056    8168.5653    2296.4375    2316.1635    2152.8178   -159.54116    345.55817    104.48433   -4860.8286 
44880000    29.320156   -5197.1343   -5140.5879   -5197.1343            0    2017.5655    19.871424    19.913651    20.615523    8157.8223    2258.5995    1549.4495    2244.6475   -80.477237   -281.68667    -77.90407   -4900.5511 
44881000    28.496255   -5196.1036   -5141.1462   -5196.1036            0    1686.7382    19.910232    19.935249    20.652053    8197.1186    1267.7258    1972.4197     1820.069   -53.979426    315.18735    226.32742   -4939.5024 
44882000    31.156258   -5190.3134   -5130.2259   -5190.3134            0    2221.9234      19.9074    19.899188    20.589131    8156.2005    1944.5413    1896.5395    2824.6893   -118.31311    526.72174   -242.87586   -4865.9285 
44883000    31.208176   -5190.5035   -5130.3159   -5190.5035            0    2171.5794    19.915467    19.849789     20.59655    8142.1832    2262.7426    1976.4523    2275.5432   -153.67835   -409.44485    295.86775   -4872.4509 
44884000    30.484526   -5196.0921   -5137.3002   -5196.0921            0    2440.7935     19.82148    19.838582     20.79516    8177.2823    2992.8851    2266.8224     2062.673    26.571545   -269.86503    315.85762   -4846.2178 
44885000    30.952584   -5195.5762   -5135.8815   -5195.5762            0    2217.2918     19.85833    19.919323    20.636063    8162.8934    2318.6845    2208.5185    2124.6725    -205.9705    251.98495    300.49934   -4871.9186 
44886000    30.267602   -5191.8704   -5133.4968   -5191.8704            0    2505.2688    19.915239    19.868837     20.63958      8166.93    2119.5415    3062.8854    2333.3795   -173.26167    214.28587   -271.28474   -4835.1035 
44887000    28.873312   -5192.8045   -5137.1199   -5192.8045            0    2883.0367    19.906231    19.820918    20.631041    8140.1789    3049.9618     2877.524    2721.6245   -109.34168    486.99793   -166.32287   -4794.8568 
44888000    29.566916   -5192.8917   -5135.8694   -5192.8917            0    2436.4564    19.919041     19.86192    20.592487    8147.0141    2801.7114    2287.7461    2219.9116   -21.213814    332.14011   -72.163193   -4846.3798 
44889000    28.412423   -5194.3643   -5139.5685   -5194.3643            0    1940.5114    19.952026    19.955609    20.499642    8162.0317    1481.9722    1979.8057    2359.7564   -249.93078   -63.159073    -7.796498     -4908.58 
44890000    32.089387   -5194.9725   -5133.0854   -5194.9725            0    2986.4803    19.861262    19.860551    20.671437    8153.9642    3209.9568    2639.4108    3110.0734   -113.28278    328.61001    -188.5401   -4777.9415 
44891000    30.093767   -5192.5117   -5134.4733   -5192.5117            0     2527.408    19.886244    19.841674    20.659549    8151.7697    2475.8222    2622.0459     2484.356   -54.358393   -19.029265   -477.25908   -4834.0019 
44892000    30.153209   -5193.2904   -5135.1374   -5193.2904            0    2500.7774    19.887474    19.844575    20.659433    8153.4201    3193.7947    2168.2688    2140.2687     -204.368    92.820611    239.82932   -4837.7718 
44893000    30.511226   -5195.2384    -5136.395   -5195.2384            0    2202.1019    19.945599    19.848983    20.621756    8164.1499    2209.5123    2200.4531    2196.3403   -111.63522    303.52886    429.66035      -4874.2 
44894000    31.213788   -5194.6338   -5134.4354   -5194.6338            0    2197.3241    19.820443    19.915741    20.673666     8160.698    2698.6731    1846.7914    2046.5078   -99.480023    23.140125   -46.193591     -4872.92 
44895000     31.23704   -5195.0023    -5134.759   -5195.0023            0    2139.4814    19.869316     19.91369    20.614463    8156.5533    2581.0603    1440.6762    2396.7078    82.660818    339.44531   -88.129654   -4880.2571 
44896000    29.673904   -5193.9014   -5136.6727   -5193.9014            0    2563.3489    19.851584    19.904539     20.62367    8149.1678    2615.7136    2426.4874    2647.8456    14.566504     745.9943    158.54746   -4832.0258 
44897000      29.4204   -5195.8401   -5139.1004   -5195.8401            0    1920.4331    19.943855    19.875041    20.579041    8157.2222    1998.3288     2241.919    1521.0514    102.64376   -123.01466    80.806341   -4910.6366 
44898000    28.764025   -5194.4004   -5138.9266   -5194.4004            0    1767.3628    19.875433    19.888245    20.704817    8184.3551    2133.6398    1587.2805    1581.1681    -190.8965   -129.25364    399.35355   -4927.9734 
44899000    31.164142   -5193.4028   -5133.3002   -5193.4028            0    1858.3151    19.954331    19.849444    20.690331    8195.0756    2058.9303    1912.1716    1603.8435   0.55486924    99.448734    419.87689   -4911.2003 
44900000    30.466057   -5194.9997   -5136.2434   -5194.9997            0    1917.6906    19.897249    19.876238    20.649647     8166.573    1989.5549    1964.4208    1799.0961   -110.78232     201.2049    214.79344   -4907.8443 
44901000    29.734645   -5188.5663   -5131.2205   -5188.5663            0    2207.9877    19.925445    19.871185    20.601209    8156.8881    2396.4595    1935.6693    2291.8343   -207.37308    84.446208    -144.7018   -4868.5586 
44902000     32.97055   -5197.7755   -5134.1891   -5197.7755            0    1587.6045    19.945101    19.866659    20.679335    8194.0318     1461.034    1914.0825     1387.697   -25.493358    824.56869   -267.56034   -4944.4679 
44903000    30.625641   -5195.8048   -5136.7406   -5195.8048            0     2220.638    19.874619    19.899767    20.708628    8190.2683    2569.0131    1843.1267    2249.7741   -141.30979    549.66232    175.93665   -4871.4928 
44904000    29.633316   -5192.9255   -5135.7752   -5192.9255            0    2215.9974    19.850001    19.855269    20.698545    8157.8576    1279.5239    2950.9027    2417.5656    34.985328   -86.451965   -196.51825   -4872.1291 
44905000    29.341809   -5191.9548   -5135.3667   -5191.9548            0    2642.5542    19.901303    19.850409    20.619406    8145.6757    1960.8849    3421.1987    2545.5788   -36.587469    7.1334172    549.86285    -4821.441 
44906000    30.966971   -5198.5396   -5138.8172   -5198.5396            0    2416.3314     19.88022    19.888471    20.635947    8159.1889    2849.2869    2153.5172      2246.19   -41.335367     358.7512   -621.35569   -4851.2897 
44907000    29.977486   -5193.2605   -5135.4464   -5193.2605            0    1010.2743    19.955155    19.904814    20.681278     8214.679    640.87514    1076.9264    1313.0215   -58.051289     52.80555   -476.68337   -5014.4128 
44908000    28.433435   -5193.4334   -5138.5972   -5193.4334            0      2407.47    19.940058    19.896079    20.538367    8148.1654    1427.2027     2725.144    3070.0633   -179.34592    190.32428   -231.64917   -4852.5112 
44909000    29.186396   -5193.6297   -5137.3413   -5193.6297            0    2310.1175    19.962542    19.868969    20.533202    8144.1893     2450.068    2068.7677    2411.5168   -39.319267    299.44119    132.75957   -4862.9579 
44910000    31.346065   -5195.7542   -5135.3007   -5195.7542            0    1962.8295    19.853775    19.897652    20.700413    8177.5634    2985.8913    1497.5467    1405.0506    -54.00936    404.82504    198.54902   -4901.2109 
44911000    30.317534   -5196.5318   -5138.0619   -5196.5318            0    2171.0634    19.934705    19.866921     20.64527    8176.3775    2181.1191    2126.8384    2205.2328   -152.02083    311.83591   -92.585826   -4879.1755 
44912000    30.837383   -5193.5889   -5134.1164   -5193.5889            0    1568.8507    19.956973    19.890726    20.580913    8169.7719    1172.5172    1781.0201    1753.0149   -209.52644    153.42552   -46.230707   -4947.1914 
44913000     31.52723   -5195.5362   -5134.7333   -5195.5362            0    2243.4822     19.91676    19.847844    20.678319    8174.2378    2520.4066    1905.9635    2304.0765   -195.11152    297.90877    132.13829   -4867.2813 
44914000    31.333808   -5197.8556   -5137.4257   -5197.8556            0    2728.2589    19.902717    19.910066    20.599479    8162.8403     3281.008    2099.4935    2804.2753     110.1139     578.8783    503.76631   -4812.6356 
44915000    29.182904   -5191.2781   -5134.9964   -5191.2781            0    2955.1715    19.923963    19.844632    20.643069    8161.9329    2355.3079    3211.1878    3299.0187    -183.6886    249.86894   -219.66993   -4783.2322 
44916000    31.026391    -5193.352    -5133.515    -5193.352            0    2010.4247    19.917956    19.889994     20.67575    8191.0712    2242.9046    1347.2091    2441.1602    34.695482    291.29806    331.79512   -4893.3529 
44917000    30.848406   -5194.1494   -5134.6557   -5194.1494            0    2148.0268    19.866147     19.92886    20.619445    8163.4377     2142.414    1884.2831    2417.3834    -105.7996    196.66631    476.84346   -4878.9216 
44918000    32.042273   -5192.0139   -5130.2177   -5192.0139            0    2486.3755    19.918797    19.865094    20.614813    8157.0499    1873.8706    2708.9114    2876.3443    33.377612   -354.92805    3.3849606    -4834.433 
44919000    31.678983   -5193.2084   -5132.1128   -5193.2084            0    2236.3261    19.881943    19.874772    20.693725    8177.1062    2139.5988    2695.1502    1874.2294   -150.26372    640.78911    304.29858   -4865.4204 
44920000     29.85565   -5192.2485   -5134.6694   -5192.2485            0     2294.966    19.905432    19.904449     20.57998    8153.9247    2323.8024    2162.8136     2398.282   -163.71855   -56.273944   -267.75316   -4861.7597 
44921000    30.649309   -5192.7105   -5133.6007   -5192.7105            0     2099.752    19.886724    19.920658    20.594474    8158.6373     2430.539    1285.5332    2583.1839   -225.68731    414.52115   -237.95233    -4883.761 
44922000    29.465901   -5193.6278   -5136.8003   -5193.6278            0    2594.0886    19.890762     19.85838    20.699408    8176.2314    3274.2372    1984.6563    2523.3723    57.744896    464.70662   -271.32213   -4827.4761 
44923000    29.926845   -5196.3388   -5138.6224   -5196.3388            0    1876.3316    19.900801    19.876056    20.669599    8175.8485    2428.2488    1823.3076    1377.4383   -208.69216    287.53249   -69.847265   -4914.8955 
44924000    30.566997   -5193.6879   -5134.7369   -5193.6879            0    1984.1038    19.976625    19.866055    20.614786    8181.1167    1541.3786    2015.0339     2395.899   -163.28386    17.439839    26.903805   -4898.0071 
44925000    30.091364   -5194.9081   -5136.8744   -5194.9081            0    2373.4485    19.882433    19.877682    20.696353    8179.5439    2668.7394    1924.6193    2526.9869   -91.641314   -133.22015   -14.140171   -4853.7451 
44926000    30.206815   -5195.5984    -5137.342   -5195.5984            0    2481.0909     19.91246    19.821733    20.617059    8137.5423    2419.9422    2596.0409    2427.2898    66.985808     158.3876   -48.370589   -4842.8918 
44927000    28.595554   -5188.7876   -5133.6386   -5188.7876            0    2630.6155     19.87853    19.806348    20.659285    8133.9959    3184.0497    2290.5691    2417.2275     307.5613    43.144236    53.067217   -4821.5793 
44928000    30.112183   -5193.6817   -5135.6079   -5193.6817            0    2113.4842    19.915689    19.803856    20.715009    8170.1538    1780.9627    2973.0798    1586.4102    30.693119     645.2425    75.122408   -4883.7792 
44929000    31.139468   -5192.0352   -5131.9801   -5192.0352            0     2202.414    19.887087     19.92997    20.640821    8180.9696    2484.1617    1762.0899    2360.9905    152.95192    172.76791    280.90803   -4869.2078 
44930000    31.872728   -5194.9347   -5133.4655   -5194.9347            0    1975.6772     19.90999    19.946166    20.574328     8170.641    2258.4173    1258.4518    2410.1624    113.25649    163.46977   -31.150806   -4898.0429 
44931000    29.688133   -5193.6122   -5136.3561   -5193.6122            0    2536.6604    19.853516     19.88933    20.626943    8145.0257    2429.5797      2573.89    2606.5114   -2.9218477    439.62454   -253.51391   -4835.0343 
44932000    30.133546    -5194.215   -5136.0999    -5194.215            0    2197.1983    19.983798    19.882828    20.534873    8159.2119     1902.057    1972.6176    2716.9202    37.373525    557.42722   -282.02723   -4874.6471 
44933000    27.855069   -5191.1288   -5137.4079   -5191.1288            0    2196.1848    19.872091    19.889616    20.616349    8148.5763    2134.1814    2408.0433    2046.3298    131.48605    382.57229   -177.03834   -4876.4163 
44934000     28.82172   -5192.2523   -5136.6671   -5192.2523            0    2339.9786     19.96431    19.770856    20.644019    8148.4317       1424.2    3344.4342    2251.3015    87.621359    198.37594    188.64897   -4858.5922 
44935000    30.895172   -5192.0481   -5132.4642   -5192.0481            0     2342.289    19.841267    19.935653    20.630785     8160.478    2700.1971    2017.1014    2309.5685    -200.7179    649.96835   -36.003361   -4853.7032 
44936000    31.044345   -5192.9723   -5133.1006   -5192.9723            0    2095.1255    19.993486    19.859235    20.587326    8174.3077    2438.0059    1568.7638    2278.6068    21.885602   -49.097569    414.45911   -4883.3326 
44937000    30.680623   -5195.5443   -5136.3741   -5195.5443            0     2321.078    19.887563     19.90825    20.643028    8173.1237    2684.9357    1956.2515    2322.0467    89.453384    241.28993    105.91851   -4859.7094 
44938000    30.280838   -5192.3364   -5133.9373   -5192.3364            0    2188.7853    19.930787    19.841655    20.641207    8162.7675     1405.952    2723.2531    2437.1509   -61.177418   -66.187069   -126.70439    -4873.372 
44939000     29.15052   -5197.3249   -5141.1057   -5197.3249            0    1989.0431    19.922005    19.801866    20.743529    8183.1748    2252.3318     1753.539    1961.2584   -149.78027    627.81978    480.98282   -4903.7269 
44940000    30.793597   -5191.1594   -5131.7713   -5191.1594            0    1847.7107     19.90476    19.851574    20.752641    8200.2154    1912.4595    2092.3136     1538.359   -56.066904    62.929201   -147.03584   -4910.8004 
44941000    30.498986   -5191.9193   -5133.0994   -5191.9193            0    2410.8402     19.89616    19.892753     20.58562    8147.5698    2556.5123    2214.7008    2461.3075    106.03647    231.51112    34.626722   -4846.6338 
44942000    30.283625   -5193.3196   -5134.9151   -5193.3196            0    2278.2556    19.901894    19.890954    20.662285    8179.5303    1918.5545    2649.8127    2266.3996   -4.1245494   -128.96073    13.345978   -4863.1419 
44943000    29.336023   -5190.1326   -5133.5556   -5190.1326            0    2505.5988     19.93304    19.824168    20.592955    8137.4285    2790.3569    2107.4989    2618.9405   -101.60014     145.7549   -481.95284    -4836.201 
44944000    30.625648   -5190.0999   -5131.0357   -5190.0999            0    2779.3194    19.839696     19.87127    20.633101    8134.3927    2941.0818    2758.2307    2638.6459   -84.673225    584.49411    215.67059   -4801.3201 
44945000    30.092416    -5193.507   -5135.4712    -5193.507            0    2088.7763    19.970701    19.835117    20.662914    8185.0184    1381.9064    2369.0381    2515.3845   -102.94209    218.52946    443.44114   -4886.1338 
44946000    28.807439   -5190.3911   -5134.8336   -5190.3911            0    2289.6037    19.864411    19.879409    20.636583     8149.237    3025.1724    1735.2468    2108.3918   -49.520748    448.53654   -188.40528   -4862.7182 
44947000    29.961625   -5192.8988   -5135.1153   -5192.8988            0    2296.3667    19.806985    19.914974     20.65325    8146.7898    2936.2483    1839.7247     2113.127   -218.55855    201.39264   -282.60763    -4862.278 
44948000    29.605503   -5193.8793   -5136.7826   -5193.8793            0    1791.1293     19.82878    19.841056    20.815324    8189.2467    1901.2859    2123.7955    1348.3065   -90.229579    317.23113    190.13879   -4922.8648 
44949000    30.214379   -5191.2892   -5133.0182   -5191.2892            0    1890.3945    19.937543    19.866821    20.662111    8184.1709    2001.2573    2196.0472    1473.8789    49.884086    298.11939    460.49796    -4907.385 
44950000     29.34645   -5192.6177   -5136.0206   -5192.6177            0    1819.5004    19.825265     19.91473    20.652055    8153.7369    2387.6389    1534.1484     1536.714   -309.86393   -179.89521    188.01756   -4919.6567 
44951000    29.829533   -5193.2528    -5135.724   -5193.2528            0    1971.3523    19.933888     19.90036    20.623978    8181.3575    1686.4117    2185.9919    2041.6533   -29.749621   -290.43866    729.63399   -4900.5087 
44952000    30.478919   -5193.3563   -5134.5752   -5193.3563            0    2503.5241    19.946425    19.814582    20.622343    8150.5699    2425.1074    3007.8891    2077.5757    -465.8765    1190.5292    227.71572    -4836.987 
44953000     28.43477   -5191.7335   -5136.8947   -5191.7335            0    2529.9474    19.857089    19.821634    20.684039     8141.237     2320.286    3000.5994    2268.9568   -122.62553     46.31865    237.43646     -4836.51 
44954000    29.715325   -5194.6911   -5137.3826   -5194.6911            0     2192.711    19.896384    19.897992    20.601199    8155.9753    2032.3658    1889.9229    2655.8444   -207.59744      241.684    431.87185   -4876.5672 
44955000    29.613347   -5196.8532   -5139.7414   -5196.8532            0     1835.478    19.984899     19.87197    20.571191    8169.6288    2145.8263    1140.4214    2220.1864   -87.742614    721.89475    52.950499   -4921.0521 
44956000    28.812151   -5194.7843   -5139.2177   -5194.7843            0    1852.4311    19.932268    19.908867    20.569642    8162.6281    1323.4722    2239.1246    1994.6964   -102.22632    53.405895    216.48081   -4918.6977 
44957000    29.446962   -5192.7371   -5135.9462   -5192.7371            0    2439.3284    19.938101    19.825089    20.665797    8168.6651    1955.4357    2944.8652    2417.6842    58.934185    41.411265   -287.03077   -4845.3451 
44958000    29.824421   -5192.4767   -5134.9578   -5192.4767            0    2146.1041    19.926905     19.83371    20.718623    8188.5061    2133.0333    2253.7351     2051.544   -364.91438    473.81282   -12.492419    -4878.668 
44959000    30.267392   -5194.5673   -5136.1941   -5194.5673            0    2321.6061    19.912946    19.834033    20.667309    8162.6368    2628.7075    2275.0791    2061.0318   -2.2099572    288.66642    18.901088   -4859.8215 
44960000    31.035048   -5192.0039   -5132.1502   -5192.0039            0    2295.1365     19.86311    19.842787    20.696528    8157.3185    2380.5648     2389.914    2114.9307   -158.28851    279.68055    492.33662   -4859.1067 
44961000    30.630225   -5195.3933   -5136.3204   -5195.3933            0    2296.2407    19.890585    19.879019    20.689364    8180.6844    3191.1341     1361.015     2336.573    107.76386    620.60648  -0.47716963    -4862.363 
44962000    31.250492   -5195.0445   -5134.7753   -5195.0445            0    2416.8399    19.964493    19.855286    20.588948    8161.4733     1705.738    2933.9629    2610.8189   -64.469144   -110.03647   -196.58428   -4847.1067 
44963000    31.561885   -5193.4207   -5132.5509   -5193.4207            0     2365.664    19.952869    19.810706    20.657196    8165.3853       2612.2    2005.1215    2479.6705    25.904338    297.70302   -290.18403   -4850.8387 
44964000     30.79445   -5195.0486   -5135.6589   -5195.0486            0    2284.8416    19.914843    19.839724    20.651712    8159.5946     1669.638    2283.5903    2901.2965   -61.176641    128.17457    284.97916   -4863.7643 
44965000    28.574009    -5195.541   -5140.4336    -5195.541            0    1867.5361    19.968759    19.782446     20.68997    8173.1775    2092.5109    1997.1529    1512.9445   -321.32282   -563.89533    -2.974234   -4917.8282 
44966000    30.445737   -5194.8722    -5136.155   -5194.8722            0    1723.8666    19.901284    19.860129     20.70728    8184.3882    1579.3939    1731.9887    1860.2172   -51.940355    284.93349   -159.26507   -4930.3927 
44967000    29.432411   -5194.6175   -5137.8546   -5194.6175            0    2242.2394    19.907556    19.927389    20.495497    8130.6786    2055.7153     2239.805     2431.198   -132.99721     19.10156   -59.694387   -4871.9752 
44968000    31.159779   -5193.4762    -5133.382   -5193.4762            0    2148.2903    19.874867    19.899843    20.626122    8157.7703    1912.9199    1936.4642    2595.4868   -23.623698    628.85059     504.3502    -4877.794 
44969000    30.484787   -5193.8968   -5135.1043   -5193.8968            0    1501.0096    19.921738      19.8775    20.717117    8203.8613    1959.0257    1473.0393    1070.9639   -26.076554    282.82982   -273.53419   -4955.5161 
44970000    29.664557   -5196.6145   -5139.4039   -5196.6145            0    1832.4381    19.881964    19.857153    20.725077    8182.2442    2307.8842    1635.5932    1553.8368   -19.577552    192.80701   -11.246857   -4920.7398 
44971000    29.434162   -5192.1995   -5135.4332   -5192.1995            0    2629.1079    19.914348    19.851567    20.615415     8149.913    2855.0838    2585.9249    2446.3151   -273.14098   -122.27129    96.376224   -4822.9424 
44972000      28.6113    -5193.796   -5138.6167    -5193.796            0    2340.1155    19.935344    19.816766     20.68456    8171.5191    2148.7274    2668.0412    2203.5779   -86.625631    320.39881    287.02538   -4859.7376 
44973000     28.96907   -5193.7774   -5137.9081   -5193.7774            0    2169.6551      19.9065     19.94086    20.578503    8168.6933    1807.9637    2402.4032    2298.5985   -153.42256    69.894653   -292.94769   -4879.4327 
44974000    29.582217   -5191.6786   -5134.6268   -5191.6786            0    2082.0261     19.91419    19.933602    20.594319    8175.1526    2026.7186    1894.1852    2325.1744   -155.84649    134.73348   -124.82781   -4886.3947 
44975000    29.329606   -5195.6794   -5139.1148   -5195.6794            0    2425.2314    19.874221    19.882817    20.687564    8174.8047    3048.9572    2039.1895    2187.5475   -157.78026    550.43969    182.92081   -4849.9759 
44976000    31.321699   -5195.7062   -5135.2997   -5195.7062            0    2233.7892    19.870588    19.969733    20.550988    8154.8446    2925.6771    1268.0333    2507.6573   -176.76923    321.96553   -410.44171   -4869.6351 
44977000    31.976283   -5191.0462   -5129.3773   -5191.0462            0    2433.2858    19.943761    19.890502    20.634809    8185.6516    2250.0856    2734.9909    2314.7808    115.29093    370.43781     652.4281   -4838.8933 
44978000    31.721102   -5194.4793   -5133.3025   -5194.4793            0    2228.8453     19.94699    19.873561    20.663916    8191.5422    2200.9393    2415.7536     2069.843    219.39976    290.15536   -24.569662   -4867.0329 
44979000    30.562196   -5192.5058    -5133.564   -5192.5058            0    2317.1014    19.871422    19.809909    20.751936    8169.0214    3126.4915    2119.1969    1705.6159   -52.410343    712.44999    578.62812   -4857.5119 
44980000    30.720453   -5190.3987   -5131.1518   -5190.3987            0    2679.6032    19.910191    19.837757    20.630532     8148.514    2190.1426     2882.363    2966.3041    58.002538    103.56053    213.41478   -4812.7138 
44981000    31.638466    -5193.745   -5132.7276    -5193.745            0    2096.5408    19.841769      19.8964    20.696755    8170.6602    2775.5042    1683.9325    1830.1856   -89.697594    504.13201   -303.37524   -4882.9023 
44982000    30.542667    -5195.302   -5136.3979    -5195.302            0    1865.5421    19.867611    19.877349    20.696468    8173.3546    1932.8204    2227.8159    1435.9899   -109.00768    272.10668   -648.03067   -4914.0253 
44983000    30.173022   -5195.8506   -5137.6594   -5195.8506            0    2244.5806    19.945672     19.87441    20.611648    8170.6318     2187.256     1855.534    2690.9518   -136.87496   -18.266963   -510.01282   -4870.1945 
44984000    30.423312   -5191.7217   -5133.0478   -5191.7217            0    2045.4313    19.898224    19.902543    20.630404    8170.1612    1533.0608    2101.9476    2501.2855   -81.600773     249.3579    357.49391   -4889.3277 
44985000    29.700907   -5194.8628   -5137.5821   -5194.8628            0    2585.2765     19.86397    19.887874    20.638601    8153.3236    3210.5697    2423.1111    2122.1487   -112.45883    150.44102     29.31157   -4830.1724 
44986000    28.702766   -5192.3345   -5136.9788   -5192.3345            0    2667.9271    19.889639    19.922261    20.600094    8162.7169     2945.935    2161.9727    2895.8736   -111.01306    102.76531   -127.88903   -4819.3758 
44987000     30.13964    -5194.136   -5136.0091    -5194.136            0    2706.8616    19.814923    19.834186    20.766853    8161.6405     2779.269    3087.3285    2253.9872   -166.40991    -256.1541    44.409585   -4813.8137 
44988000    29.381539   -5189.3044   -5132.6396   -5189.3044            0    1935.8832     19.84461    19.929142    20.597878    8146.1732    2239.4622    1287.8875    2280.2999   -10.607952    94.298447    52.436928   -4902.6498 
44989000    29.537057   -5191.8177    -5134.853   -5191.8177            0    2210.2533    19.875442    19.898763    20.594297    8144.9766     1343.917    3034.4721    2252.3707    214.50702    532.73231    126.87372   -4872.3056 
44990000    30.825779   -5194.1761    -5134.726   -5194.1761            0      2242.69    19.852517    19.831671    20.741379    8166.0591     2666.198    2180.8043    1881.0676   -71.796081    66.325438   -499.26817    -4867.636 
44991000    29.467042   -5195.1972   -5138.3676   -5195.1972            0    1701.8265    19.870566    19.932229    20.664238    8184.3745    1613.3026    1493.1416    1999.0354   -82.443582    402.58708   -462.71453   -4935.2363 
44992000    30.689976   -5194.4701   -5135.2819   -5194.4701            0    2312.2996    19.948277    19.870373     20.56158    8150.1931    2021.4701    2567.4237    2348.0049    172.12305    282.20313    542.34826   -4860.4368 
44993000     30.51244   -5192.6068    -5133.761   -5192.6068            0    1365.7473    19.814688    19.925391    20.754138    8194.0531    1645.0936    1471.0103    981.13816   -180.61372    349.52572     267.6952   -4970.5516 
44994000    32.014061    -5195.665   -5133.9232    -5195.665            0    2002.3733    19.888317    19.851536    20.664006    8158.4316    1563.2127    2258.0509    2185.8562     -135.609    235.68568   -1006.3159   -4895.6761 
44995000    32.747329   -5194.3193   -5131.1633   -5194.3193            0    2624.0271    19.988374    19.890313    20.504323    8152.0068    2465.5576    2308.1394    3098.3844    28.288019     425.6393    185.59993   -4819.1962 
44996000    30.345079   -5193.3906   -5134.8676   -5193.3906            0    1823.2939    19.910988    19.919535    20.701329    8210.5121    2098.9228    1432.4112    1938.5478   -117.43536    201.60614   -113.39935   -4916.5429 
44997000    30.972195   -5197.8444   -5138.1119   -5197.8444            0    1801.5637    19.923503    19.839509    20.698889    8181.7018     1442.113    2216.2329    1746.3452   -69.514016    838.14135   -480.11158   -4923.1462 
44998000    30.136014   -5190.3893   -5132.2695   -5190.3893            0    2361.9492    19.915732    19.874574    20.624746    8163.6186    1907.0829    2805.8913    2372.8733   -258.74585      354.693   -19.486521   -4851.0605 
44999000    29.160654   -5194.8841   -5138.6454   -5194.8841            0    2350.4353    19.877984    19.779184    20.769415    8165.9173    2255.6208      2947.27     1848.415    -117.1501   -15.617494    586.20308   -4858.7284 
45000000    30.897038   -5189.5083   -5129.9207   -5189.5083            0    2408.9213    19.870415    19.836605    20.654533    8141.2234    2122.0021     2913.482    2191.2799   -50.197343     111.6716    216.89858   -4843.9062 
Loop time of 368.321 on 64 procs for 250000 steps with 972 atoms

Performance: 117.289 ns/day, 0.205 hours/ns, 678.757 timesteps/s
194.4% CPU use with 32 MPI tasks x 2 OpenMP threads

MPI task timing breakdown:
Section |  min time  |  avg time  |  max time  |%varavg| %total
---------------------------------------------------------------
Pair    | 25.226     | 34.349     | 42.109     |  71.4 |  9.33
Bond    | 1.022      | 1.2497     | 1.9346     |  15.1 |  0.34
Kspace  | 166.05     | 174.81     | 188.32     |  40.3 | 47.46
Neigh   | 0.09023    | 0.099135   | 0.1129     |   2.5 |  0.03
Comm    | 57.215     | 65.362     | 69.034     |  43.8 | 17.75
Output  | 0.53531    | 0.53561    | 0.53722    |   0.0 |  0.15
Modify  | 71.213     | 73.762     | 76.315     |  13.9 | 20.03
Other   |            | 18.16      |            |       |  4.93

Nlocal:        30.3750 ave          35 max          22 min
Histogram: 1 0 1 4 3 1 11 2 4 5
Nghost:        2700.44 ave        2732 max        2680 min
Histogram: 4 3 3 7 8 2 1 1 2 1
Neighs:        9675.25 ave       12599 max        7113 min
Histogram: 3 2 3 3 8 2 6 3 0 2

Total # of neighbors = 309608
Ave neighs/atom = 318.52675
Ave special neighs/atom = 2.0000000
Neighbor list builds = 250
Dangerous builds = 0

unfix		3
unfix		2
unfix		1

write_data	data.final.${pid}
write_data	data.final.1
System init for write_data ...
PPPM initialization ...
  extracting TIP4P info from pair style
  using 12-bit tables for long-range coulomb (../kspace.cpp:340)
  G vector (1/distance) = 0.37177982
  grid = 24 24 24
  stencil order = 5
  estimated absolute RMS force accuracy = 0.003562664
  estimated relative force accuracy = 1.0728857e-05
  using double precision FFTW3
  3d grid and FFT values/proc = 3211 432
Last active /omp style is kspace_style pppm/tip4p/omp
WARNING: Not all mixed pair coeffs generated from mixing. Use write_data with 'pair ij' option to store all pair coeffs. (../write_data.cpp:312)

write_restart   restart.lmp.${pid}
write_restart   restart.lmp.1
System init for write_restart ...
PPPM initialization ...
  extracting TIP4P info from pair style
  using 12-bit tables for long-range coulomb (../kspace.cpp:340)
  G vector (1/distance) = 0.37177982
  grid = 24 24 24
  stencil order = 5
  estimated absolute RMS force accuracy = 0.003562664
  estimated relative force accuracy = 1.0728857e-05
  using double precision FFTW3
  3d grid and FFT values/proc = 3211 432
Last active /omp style is kspace_style pppm/tip4p/omp
Total wall time: 0:06:08
