LAMMPS (30 Jul 2021)
  using 1 OpenMP thread(s) per MPI task
package omp 0
using multi-threaded neighbor list subroutines
echo both

include		in.partitions
variable        pid world 0
include		in.temp
variable        temperature equal 250.62
variable	tempDamp equal 100.0
include		in.pressure
variable        pressure equal 5375.0
variable        pressureDamp equal 1000.0 # This is 1 ps
include		in.seed
variable        seed world 745823

units		real
atom_style	full
read_restart    restart.lmp.${pid}
read_restart    restart.lmp.0
Reading restart file ...
  restart file = 30 Jul 2021, LAMMPS = 30 Jul 2021
  restoring atom style full from restart
  triclinic box = (-3.3560644 -0.011498059 -0.15626412) to (14.966063 22.591497 19.386262) with tilt (-0.0028271742 -6.6110607 0.17926619)
  4 by 4 by 4 MPI processor grid
  restoring pair style lj/cut/tip4p/long/omp from restart
  restoring bond style harmonic/omp from restart
  restoring angle style harmonic/omp from restart
  1008 atoms
  672 bonds
  336 angles
Finding 1-2 1-3 1-4 neighbors ...
  special bond factors lj:    0        0        0       
  special bond factors coul:  0        0        0       
     2 = max # of 1-2 neighbors
     1 = max # of 1-3 neighbors
     1 = max # of 1-4 neighbors
     2 = max # of special neighbors
  special bonds CPU = 0.921 seconds
  read_restart CPU = 1.099 seconds

include 	in.setup
variable	out_freq equal 1000
variable	out_freq2 equal 10000
variable	out_freq3 equal 1000

timestep	2.0

neigh_modify    delay 7 every 1

include		in.tip4p
# This is TIP4P/Ice

# create groups ###
group ox type 2
336 atoms in group ox
group hy type 1
672 atoms in group hy

# set charges - beside manually ###
set group ox charge -1.1794
Setting atom values ...
  336 settings made for charge
set group hy charge 0.5897
Setting atom values ...
  672 settings made for charge

# ### TIP3P Potential Parameters ###
pair_style lj/cut/tip4p/long/omp 2 1 1 1 0.1577 8.5
pair_coeff 1 1*2 0.000 0.000
pair_coeff 2 2 0.21084 3.1668
bond_style  harmonic
bond_coeff  1 450 0.9572
angle_style harmonic
angle_coeff 1 55 104.52
kspace_style pppm/tip4p/omp 1.0e-5
pair_modify tail yes

thermo          ${out_freq}
thermo          1000
thermo_style    custom step temp pe etotal epair emol press lx ly lz vol pxx pyy pzz pxy pxz pyz enthalpy

restart 	${out_freq3} restart.lmp.${pid} restart2.lmp.${pid}
restart 	1000 restart.lmp.${pid} restart2.lmp.${pid}
restart 	1000 restart.lmp.0 restart2.lmp.${pid}
restart 	1000 restart.lmp.0 restart2.lmp.0


include         in.dump
dump            myDump all atom ${out_freq2} dump.water.${pid}
dump            myDump all atom 10000 dump.water.${pid}
dump            myDump all atom 10000 dump.water.0
dump            myDump2 all dcd ${out_freq2} dump.dcd
dump            myDump2 all dcd 10000 dump.dcd
dump_modify     myDump append yes
dump_modify     myDump2 append yes


variable natoms 	equal  "count(all)"                        # NUMBER ATOMS
variable H      	equal  "enthalpy/v_natoms"                 # ENTHALPY-per-atom
variable Vol      	equal  "vol/v_natoms"                 # volume-per-atom
fix AVG all 		ave/time ${out_freq} 1 ${out_freq} v_Vol v_H file vol_enthalpy.dat
fix AVG all 		ave/time 1000 1 ${out_freq} v_Vol v_H file vol_enthalpy.dat
fix AVG all 		ave/time 1000 1 1000 v_Vol v_H file vol_enthalpy.dat



fix 		1 all shake 1e-6 200 0 b 1 a 1
       0 = # of size 2 clusters
       0 = # of size 3 clusters
       0 = # of size 4 clusters
     336 = # of frozen angles
  find clusters CPU = 0.002 seconds
fix             2 all nph tri ${pressure} ${pressure} ${pressureDamp}
fix             2 all nph tri 5375 ${pressure} ${pressureDamp}
fix             2 all nph tri 5375 5375 ${pressureDamp}
fix             2 all nph tri 5375 5375 1000
fix             3 all temp/csvr ${temperature} ${temperature} ${tempDamp} ${seed}
fix             3 all temp/csvr 250.62 ${temperature} ${tempDamp} ${seed}
fix             3 all temp/csvr 250.62 250.62 ${tempDamp} ${seed}
fix             3 all temp/csvr 250.62 250.62 100 ${seed}
fix             3 all temp/csvr 250.62 250.62 100 745823


run             250000
PPPM initialization ...
  extracting TIP4P info from pair style
  using 12-bit tables for long-range coulomb (../kspace.cpp:340)
  G vector (1/distance) = 0.37873043
  grid = 24 27 36
  stencil order = 5
  estimated absolute RMS force accuracy = 0.0024967413
  estimated relative force accuracy = 7.5188623e-06
  using double precision FFTW3
  3d grid and FFT values/proc = 4050 480
Last active /omp style is kspace_style pppm/tip4p/omp
Neighbor list info ...
  update every 1 steps, delay 7 steps, check yes
  max neighbors/atom: 2000, page size: 100000
  master list distance cutoff = 10.8154
  ghost atom cutoff = 10.8154
  binsize = 5.4077, bins = 5 5 4
  1 neighbor lists, perpetual/occasional/extra = 1 0 0
  (1) pair lj/cut/tip4p/long/omp, perpetual
      attributes: half, newton on, omp
      pair build: half/bin/newton/tri/omp
      stencil: half/bin/3d/tri
      bin: standard
Per MPI rank memory allocation (min/avg/max) = 9.326 | 9.338 | 9.353 Mbytes
Step Temp PotEng TotEng E_pair E_mol Press Lx Ly Lz Volume Pxx Pyy Pzz Pxy Pxz Pyz Enthalpy 
 5750000    255.65907   -4815.7557    -4304.406   -4815.7557            0    5074.8733    18.322128    22.602995    19.542526    8093.2434    4411.6512    6704.0951    4108.8736   -274.26983   -128.06358    555.53445   -3705.4103 
 5751000    249.74068   -4848.8045   -4349.2923   -4848.8045            0    6159.9677    18.147633    22.628379    19.546494    8026.7978      5770.25    7434.4553    5275.1977    882.70972    229.61359   -142.07426   -3628.1904 
 5752000     251.4346   -4834.6808   -4331.7806   -4834.6808            0    5718.7969    18.149166    22.771205    19.583315    8093.3608    6345.0646    5783.5133     5027.813   -348.56393    409.99374   -834.28277   -3656.7717 
 5753000    253.71485   -4855.7405   -4348.2795   -4855.7405            0    4527.9392     18.10009    23.026287    19.355716    8067.0339    3483.4404    4206.2433    5894.1341    1742.5195   -18.191953    39.210007   -3815.5701 
 5754000    244.02726   -4866.6525   -4378.5678   -4866.6525            0    3811.2707    18.038232    23.088096    19.387442    8074.2578    2973.7237    3508.1494    4951.9389    761.05948    853.01884    648.85439   -3929.7726 
 5755000    248.27839   -4830.9207   -4334.3332   -4830.9207            0    5776.4315    17.954379    23.321356    19.220684    8048.0937    6831.1932    3541.1112    6956.9903    641.59422   -32.818712   -521.64111    -3656.335 
 5756000    258.30235    -4839.264   -4322.6274    -4839.264            0    5432.3212    17.899222    23.297595    19.248285    8026.7045    8647.8015    2545.7354    5103.4267    1487.5351   -739.92946    1556.3015   -3686.7131 
 5757000    246.98922   -4829.2197   -4335.2107   -4829.2197            0    4064.3611    18.036715    23.191487    19.258932    8055.9773    2724.0317    3659.6042    5809.4474   -655.78766   -1158.5658   -70.389153   -3857.6964 
 5758000    256.69286   -4857.9481   -4344.5307   -4857.9481            0    5897.1139    17.879194    23.061948    19.463107    8025.2041    6937.5256    5027.0959    5726.7202   -336.18522   -1405.4038    1672.3651   -3654.3362 
 5759000    246.33923   -4800.1254   -4307.4165   -4800.1254            0    6704.0485     18.01937    23.045229    19.334051    8028.6678    7221.9028     6742.032    6148.2106    405.41245    644.19586   -235.76831   -3522.4403 
 5760000    259.62565   -4843.0265   -4323.7432   -4843.0265            0    4849.2271    18.057273    23.115364    19.377467    8088.1632    4347.6383    5046.7108    5153.3321   -945.90042    1884.0167   -465.82087   -3751.7401 
 5761000     257.0532   -4857.6565   -4343.5184   -4857.6565            0    7929.0688    17.974446    22.879962    19.353728    7959.3104    9030.4405    7293.4367    7463.3292    427.94133    188.32244    1665.4242   -3423.1249 
 5762000    262.34028   -4820.0061   -4295.2931   -4820.0061            0    5040.5485    18.128269    22.876212    19.444109    8063.5907    7051.2696    3605.9411    4464.4348   -623.90407    -1195.731     1205.487   -3702.5287 
 5763000    261.63427   -4823.4102   -4300.1093   -4823.4102            0    4685.3216    18.072278    22.913617    19.424378    8043.6597    4744.4905    4122.5713    5188.9031    313.50859   -832.12865    809.39731   -3750.4812 
 5764000    246.31298   -4840.3885   -4347.7321   -4840.3885            0    4537.6962    18.165618    22.887496    19.493572    8104.7551    5858.0153    4019.7473    3735.3261   -1072.4248   -263.97978   -1241.6248   -3811.3785 
 5765000     259.8027   -4863.8152   -4344.1777   -4863.8152            0    5558.7512    18.119538    22.911487    19.369854    8041.3089    5368.8319     5671.925    5635.4966   -598.36946    926.36946    284.91658   -3692.2793 
 5766000    243.90784    -4811.115   -4323.2692    -4811.115            0    6804.4423    17.970314    22.750802    19.598671    8012.7022    5999.7455    7441.7608    6971.8206    623.59981    991.57852   -127.75124   -3528.1222 
 5767000    254.33989   -4843.1641   -4334.4529   -4843.1641            0    5128.1808    18.270467    22.810998    19.267804    8030.1961    3760.7963    5751.4696    5872.2763   -137.13501   -657.14332   -2268.6923   -3733.8805 
 5768000    245.03272   -4855.6964   -4365.6007   -4855.6964            0    4520.6341    18.055597    23.057506    19.495465     8116.294    6234.3884    3714.5342    3612.9796   -47.998295    553.08818   -817.09875   -3830.5031 
 5769000    249.07495    -4833.199   -4335.0183    -4833.199            0    6505.8384    17.986496    23.165248    19.256814    8023.5757    5452.4087     6497.887    7567.2197     124.9261    832.95878   -183.40456   -3573.7336 
 5770000    250.55665   -4842.9898   -4341.8455   -4842.9898            0    4722.8283    17.950584    23.279374    19.301116    8065.5188    5682.5385    3292.0446    5193.9017   -2071.7084    468.18599   -745.66962   -3786.3119 
 5771000    247.03962   -4855.5192   -4361.4094   -4855.5192            0    5597.2723    18.015831     23.03444    19.345746    8028.1861    6404.4516    4867.4576    5519.9077    -1060.006   -1359.0145    757.90587   -3706.0647 
 5772000    251.62862   -4845.8079   -4342.5196   -4845.8079            0    4780.5249    18.223047    22.776245    19.516492    8100.3706    5278.9356    4989.1767    4073.4625   -1311.0427   -327.30564   -1383.1612   -3777.7694 
 5773000    242.28482   -4854.8758   -4370.2762   -4854.8758            0    4097.2955    18.238908    22.898833    19.393955    8099.8798    3014.1257    4747.8927     4529.868    972.21934    416.60702    1457.3184   -3886.2691 
 5774000     268.8403   -4829.8008    -4292.087   -4829.8008            0    4126.9987    18.241685    22.686952    19.551799     8091.477    5284.2209    4796.0342     2300.741   -1279.5531   -225.36678   -1338.4945   -3805.0768 
 5775000    262.78081   -4838.8651    -4313.271   -4838.8651            0     4792.629    18.197459     22.71676    19.526175    8071.8731    5315.1456    5123.8741    3938.8672    781.75484   -745.68992   -87.498487   -3749.0828 
 5776000    245.33393   -4805.1784   -4314.4802   -4805.1784            0    7549.0732    18.175312    22.791872    19.328838    8006.9589    4969.8611    8682.0602    8995.2983    63.750019   -1018.8956    666.24246   -3432.9502 
 5777000    266.41174   -4839.8248   -4306.9684   -4839.8248            0    5488.6739    17.909716    22.879295    19.596404     8029.855    4871.5787    6619.5555    4974.8874   -1453.4991    67.997682    580.39076   -3664.2052 
 5778000    237.68516   -4825.8395   -4350.4399   -4825.8395            0    6458.2352      18.1859     22.85874    19.282184    8015.7344    3175.1449    8542.1143    7657.4465    1084.0028    645.10435    1645.7182    -3595.464 
 5779000    252.15599   -4840.5697   -4336.2266   -4840.5697            0    6181.3051    18.042746    22.934758    19.442751    8045.5273     6105.484    5465.8658    6972.5655   -464.65171   -704.39728   -190.20497   -3610.9384 
 5780000    263.25105   -4830.6099   -4304.0752   -4830.6099            0    4597.0329    18.004443    23.109443    19.373454    8060.7644    5018.5008    4883.3913    3889.2064   -406.02278   -704.57429    1392.5587   -3763.6573 
 5781000     258.2406    -4827.996   -4311.4829    -4827.996            0    4351.1253    17.923326     23.20451    19.419863    8076.7598    5301.4288    3349.2657    4402.6813    123.81539   -95.609835    936.97576   -3798.9584 
 5782000     260.7722   -4841.1118   -4319.5351   -4841.1118            0    5782.8095    18.045326     22.90732    19.386496     8013.797    7185.4823    5474.9965    4687.9495    -1425.206    1254.1818    296.52869   -3643.6808 
 5783000    248.77783   -4831.5392   -4333.9528   -4831.5392            0    5621.6108    18.169645    22.686589    19.517417    8045.2212     5276.847    6198.5648    5389.4207    378.41985    692.45694    91.743467   -3674.3619 
 5784000    257.48958    -4878.207   -4363.1961    -4878.207            0    5974.2136    18.164829    22.672003    19.432034     8002.754    3868.6068    7682.3638    6371.6704    -287.7288    130.25457    613.38392   -3665.9339 
 5785000    256.97665    -4875.029    -4361.044    -4875.029            0    5213.6929    17.889121    22.906409    19.519238    7998.5063    6571.4992    5092.4824    3977.0971   -1537.2656   -939.84365    -2780.727   -3752.8667 
 5786000    248.96339   -4860.8321   -4362.8746   -4860.8321            0    5450.6846    18.002088    22.979777    19.390852    8021.6846    5792.2155    5040.8095    5519.0288    716.10065    826.77311   -840.48761   -3725.2097 
 5787000    259.35204   -4845.5053   -4326.7692   -4845.5053            0     6831.373    18.109125    22.869861    19.298506    7992.5374    6940.6147    5888.7025    7664.8019   -163.54808    -300.8259   -946.86588   -3530.4841 
 5788000    250.31044   -4836.4895   -4335.8377   -4836.4895            0    6046.6986    17.985033    23.055264     19.41914    8052.1401    7893.6423     5614.455    4631.9985     1785.765   -680.65613    860.39934   -3625.7605 
 5789000    261.78275   -4876.5374   -4352.9395   -4876.5374            0    3085.0199    18.128589     23.05858    19.407952    8112.9029    1375.1179     3808.291    4071.6507    227.67556    1141.6848    57.990304    -3987.925 
 5790000    243.10792   -4822.4754   -4336.2295   -4822.4754            0    4396.5796    18.135436    23.050842    19.398965    8109.4867    3575.5994     4603.716    5010.4235    402.51507   -280.45505    1232.0239   -3816.2525 
 5791000    252.10727   -4831.1065   -4326.8608   -4831.1065            0    6614.7123    17.980997    23.257411    19.063659    7972.2589     5201.597    5890.3275    8752.2126    561.86906    1181.6509    20.704497   -3557.7866 
 5792000    246.61707   -4825.9626   -4332.6979   -4825.9626            0    6313.4469    17.983511    22.947621    19.436864    8021.1814    9078.0683    5737.4149    4124.8576     135.8126   -126.79048   -1129.0584   -3594.1465 
 5793000    260.72994   -4831.8464   -4310.3543   -4831.8464            0     5849.131    18.046333    23.059789    19.403668    8074.7323    6050.3081    5076.2568     6420.828    1214.1416   -251.58829    1601.7708   -3621.5508 
 5794000    244.47047    -4859.022   -4370.0508    -4859.022            0    5270.0278    17.995548    22.866506    19.578049    8056.2755    7063.1887    5746.4494    3000.4453    152.79445    409.43097   -2091.4799    -3750.862 
 5795000    247.51556   -4866.0537    -4370.992   -4866.0537            0    6205.3927    17.987306    22.883997    19.449992    8006.0339     6717.187    6309.3154    5589.6756    1479.9765   -861.98797   -1123.5082   -3646.4517 
 5796000    239.57427   -4837.3017   -4358.1236   -4837.3017            0    3592.8717    18.266487    22.828721    19.408644     8093.415    2255.1236    4204.4278    4319.0636    292.54904   -162.67965   -2460.5604    -3934.042 
 5797000    253.05715    -4846.873   -4340.7274    -4846.873            0    4939.1391    18.165291    22.613735    19.578279    8042.4647    5490.7689    6250.3892    3076.2594    1157.2848    717.16663     495.5955   -3761.4103 
 5798000    250.58836   -4855.4203   -4354.2126   -4855.4203            0    5002.6612     18.28939    22.487257    19.568049    8047.9119     3068.442    7305.3632    4634.1783    113.02953     570.9129    1741.0729   -3767.0476 
 5799000    259.28351   -4830.9475   -4312.3485   -4830.9475            0    6005.1003    18.173311    22.451256    19.671028    8026.0479    7602.8421     6604.076    3808.3827    255.44931   -1193.8456    1404.6041   -3609.4414 
 5800000    245.29997   -4856.7183    -4366.088   -4856.7183            0    5757.2006    18.224776    22.849899    19.324401    8047.3431    5717.1361    5572.4241    5982.0416   -615.70964   -236.56113    264.42173     -3690.41 
 5801000    257.01517   -4792.0525   -4277.9904   -4792.0525            0    4523.2106    18.078579    22.971481    19.545086    8116.9128    7771.5418    3338.8099      2459.28    400.18624   -1912.7798    441.78177    -3742.547 
 5802000    248.46739   -4857.6952   -4360.7297   -4857.6952            0    5453.5717    18.048915    22.884636    19.397749    8012.1014    4119.0216    6319.4985     5922.195    679.33498   -570.93637     968.5158   -3723.4892 
 5803000    237.38606   -4845.5581   -4370.7566   -4845.5581            0    5459.3761     18.12432    22.907964    19.363531    8039.5689    6320.8548    5014.4381    5042.8355   -1861.4237    446.49192   -1071.0851    -3730.651 
 5804000    258.78083    -4820.939   -4303.3454    -4820.939            0    6310.2748    18.154759    22.936484    19.299511     8036.439    6185.9769    6050.7225     6694.125   -182.94338    906.89595   -110.37857   -3563.7609 
 5805000    254.95041   -4826.5384   -4316.6061   -4826.5384            0    6041.5056    17.972972    22.835439    19.623393    8053.8465     7247.379    5907.4786    4969.6591   -1422.6616    637.63483    503.41937   -3606.9884 
 5806000    265.29762   -4824.1417   -4293.5137   -4824.1417            0    5967.9517    18.150946    22.872535    19.362463    8038.4844    7623.2317    5676.8802    4603.7433     -1038.35     313.6346   -1398.5713   -3593.8725 
 5807000    241.32922    -4855.482   -4372.7938    -4855.482            0    4942.9558    18.058978    22.857342    19.539453    8065.5003     5109.704    4442.1113     5277.052    1192.0992   -196.86134    1150.9387   -3791.3685 
 5808000    250.42934   -4838.7458   -4337.8562   -4838.7458            0    2969.5309    18.148575     22.99034    19.449644    8115.2069    2217.1387    3132.0701     3559.384   -1110.4565    1474.4707    421.33535   -3986.4064 
 5809000    246.61399   -4846.8945   -4353.6361   -4846.8945            0    2779.7635    18.087034    23.097957    19.483357    8139.6304    2300.6223     2767.542    3271.1262    87.613511   -786.88201    956.67514   -4023.6555 
 5810000    253.35525   -4850.1336   -4343.3918   -4850.1336            0     6284.256    18.026511    23.122281    19.202333     8003.802    5225.0019    6341.7258    7286.0402   -1590.1097    -1276.243   -1889.9403    -3609.848 
 5811000    251.64054   -4824.4512   -4321.1391   -4824.4512            0    5760.5136    17.979838    23.108683    19.391257    8056.8809    5331.8696    5500.9532    6448.7178   -975.85209   -818.14358    1135.3783    -3644.271 
 5812000    262.38435   -4808.8739   -4284.0728   -4808.8739            0    5215.6556    18.079381    22.992325    19.422853    8073.8279    5418.6224    4444.9916    5783.3528   -937.79625    1061.7759    569.06275   -3669.9372 
 5813000    257.48307   -4824.7997   -4309.8018   -4824.7997            0    5868.9192    18.013557     23.02404    19.426767    8057.1516    7330.6614      6695.84    3580.2562   -1004.9445    834.31031    1438.5476   -3620.1727 
 5814000    238.89067   -4818.8131   -4341.0023   -4818.8131            0    5919.7948    17.990535    22.931725    19.526081    8055.5624    7840.5682    4833.7168    5085.0995   -175.71249   -18.243025    475.41322   -3645.5323 
 5815000    232.72305   -4829.0532   -4363.5783   -4829.0532            0    4460.9754    18.099405    22.879351     19.48386    8068.3177    4286.3829    4712.2745    4384.2686   -737.57173   -513.97312    1595.9463   -3838.6637 
 5816000    256.97606   -4819.0587   -4305.0748   -4819.0587            0    4234.8519    18.112749    22.910879    19.476388    8082.2921    3419.8285    4674.6022    4610.1248   -804.89254    481.72234   -921.38633   -3805.9046 
 5817000    240.37301   -4832.3757      -4351.6   -4832.3757            0    5487.1816    18.220785    22.852106    19.301671    8036.8935    4489.9311    5559.8937    6411.7199   -1129.0204    561.59821   -1139.1988   -3708.4482 
 5818000    241.61832   -4819.5512   -4336.2847   -4819.5512            0    6725.5317     18.04719    22.846452    19.509999    8044.2512    6818.7417     6595.687    6762.1663   -546.13333     85.23019   -1840.2862   -3547.2645 
 5819000    245.20197   -4858.3944   -4367.9601   -4858.3944            0    6573.5168    18.154772    22.895459    19.274366    8011.6188    5159.9991    7015.3424    7545.2089    1057.2595    76.557864    466.31915   -3599.9023 
 5820000    249.08115   -4831.4496   -4333.2565   -4831.4496            0      5021.97    17.793163    23.391102    19.397926    8073.4497    5637.1713    4637.8587      4790.88    10.398375    277.82666   -1115.4164   -3741.9548 
 5821000    250.75084   -4837.0329   -4335.5002   -4837.0329            0    6741.8199    18.003605    23.114173    19.230649    8002.6126    5726.3142    6893.1467     7605.999   -824.52035   -510.58784   -544.52724   -3548.6631 
 5822000    261.17141   -4796.2641    -4273.889   -4796.2641            0    4089.9745    17.853059    23.385649    19.405272    8101.8054    7834.7876    1834.9321    2600.2039   -1114.6068   -413.06589    -1169.708   -3790.6318 
 5823000    247.83898   -4869.7661   -4374.0576   -4869.7661            0    5151.1022    17.992634      23.2671    19.159808    8020.9934    5755.2362    3433.1158    6264.9546   -33.144169    87.433297   -1673.9109   -3771.4921 
 5824000    237.99061    -4851.311   -4375.3004    -4851.311            0    5160.3189     17.93958    23.064134    19.403952    8028.5961    6137.7612    4817.6186    4525.5769    290.56998   -384.65632    707.40437   -3771.0846 
 5825000    257.22782   -4860.7833   -4346.2959   -4860.7833            0    6653.5606    18.039263    22.849143    19.398795    7995.8282    7896.7174    6294.2023     5769.762    126.98464    549.36538    134.21077   -3570.4178 
 5826000    250.01306    -4825.936   -4325.8789    -4825.936            0    4197.3137    18.283314    22.698031    19.512041     8097.404    4545.2176     3958.392    4088.3315    1605.4487   -1443.8063    352.44942   -3830.2084 
 5827000    239.69805   -4864.6081   -4385.1824   -4864.6081            0    3832.4758    18.107352    22.728272    19.642479    8083.8391    3439.9969    5213.5128    2843.9178   -1356.2099    43.579415   -257.82024   -3933.3545 
 5828000    264.19372   -4821.9025   -4293.4824   -4821.9025            0    7526.2553     18.24209    22.724943    19.350737     8021.857    7645.0882    6746.6867    8186.9911    725.23388   -562.91083     774.1426   -3412.9816 
 5829000    246.72249   -4851.7027   -4358.2272   -4851.7027            0    7187.6697    18.144716    22.623407    19.515083    8010.8495    7141.6685    7836.2334    6585.1071   -494.05355    2166.6288    1006.0963   -3518.4916 
 5830000     258.8847   -4824.5084    -4306.707   -4824.5084            0    6318.9174    18.190514     22.60694    19.460272    8002.6839    6181.6231    7290.5789    5484.5502    2.3641793   -588.16193   -738.55231   -3569.2203 
 5831000    242.46223   -4820.8715   -4335.9171   -4820.8715            0    5657.9068     18.14946    22.798744    19.532848    8082.3974    7923.4273    4020.8449    5029.4481   -157.96602    162.37848    1163.8655        -3669 
 5832000    244.33013   -4854.2202   -4365.5298   -4854.2202            0    5719.9385    18.219821    22.697284    19.429546     8034.903    6632.4245    5279.7006    5247.6905   -2790.6408   -126.21237    -1644.224   -3695.2627 
 5833000    264.41648   -4844.6725   -4315.8069   -4844.6725            0    4812.3256    18.146977    22.707903    19.479832    8027.2452    4135.6332    5911.4889    4389.8548    999.70029     328.3148    1002.5121    -3752.432 
 5834000    255.85637   -4821.3119   -4309.5675   -4821.3119            0    3060.5682    18.020634    23.074979    19.615891    8156.7928    3625.6306    3285.9477    2270.1264   -156.72533   -163.17435    53.330411    -3945.487 
 5835000    244.68575   -4841.7854   -4352.3837   -4841.7854            0    6840.5624    18.059532    22.973303       19.269    7994.4596    5641.3264    6757.9977    8122.3631    673.77802   -423.40273    1942.5362   -3554.8357 
 5836000    244.21449    -4840.047   -4351.5879    -4840.047            0    5211.0561    17.933676    23.178072    19.353448    8044.6096    6254.4092    3909.5903    5469.1689   -1266.6505   -304.48518   -270.15607   -3740.2144 
 5837000    253.14562   -4859.4252   -4353.1027   -4859.4252            0     5557.768    18.007965    22.939966    19.404092    8015.8711    6571.5024    5344.7361    4757.0654   -653.87936    231.35658    790.67718   -3703.3815 
 5838000    255.20848   -4852.8599   -4342.4114   -4852.8599            0    5031.9793    18.116001    22.899925     19.42841    8059.9745     6420.503    4294.8307    4380.6041   -771.95109   -651.72863     -1560.68     -3750.92 
 5839000    238.79048   -4873.0479   -4395.4375   -4873.0479            0    4475.9796    18.165717    22.796903    19.510404    8079.6896    4288.4385    5435.1291    3704.3714    773.95478    209.76637    874.39842   -3868.0149 
 5840000    251.19583   -4852.9134   -4350.4907   -4852.9134            0    7215.1755    18.106532    22.754144    19.381613    7985.1985    7135.8748    6352.5122    8157.1394    193.37782   -50.338354    311.31395   -3510.2407 
 5841000     245.1352   -4845.8666   -4355.5659   -4845.8666            0    4076.8063    18.077151    22.904271    19.545586    8092.7318    3741.3565    4952.8988    3536.1638     62.03494   -574.43158   -692.74985   -3874.4041 
 5842000    258.75561   -4860.0339   -4342.4908   -4860.0339            0    6450.8105    18.078665    22.771157     19.42329    7996.0269    6284.1215    6538.5911    6529.7188    661.21801   -1924.2093   -1438.8662   -3590.2369 
 5843000    255.84062   -4827.6465   -4315.9336   -4827.6465            0    5472.8363    18.102471    22.876693    19.420934    8042.6877    6082.1267    5700.7677    4635.6146    910.81544   -366.01155   -237.06263   -3674.0008 
 5844000    247.18959   -4826.0646   -4331.6549   -4826.0646            0    7103.0084    18.243522    22.726952    19.247351    7980.3299     5177.663    7416.1815    8715.1808   -2500.5395   -700.07615   -435.04033   -3504.9718 
 5845000    234.33707   -4849.5908   -4380.8877   -4849.5908            0     4293.473    18.022886    22.929178    19.522858    8067.8202    3915.9766    3390.9358    5573.5066   -145.49724   -271.75183    1504.8413   -3875.7138 
 5846000    259.67288    -4853.503   -4334.1252    -4853.503            0    6390.0912    18.126714    22.931652    19.351084    8043.7711    6221.5067    4974.3225    7974.4445   -697.13583   -1719.5407    1563.6149   -3584.5026 
 5847000    253.50339   -4849.7531    -4342.715   -4849.7531            0    4624.9595    18.111146    22.954592    19.409306     8069.108    4982.3624    4405.5289    4486.9873    239.61272   -620.91447    2479.4682   -3798.4513 
 5848000    254.97143   -4860.9582   -4350.9838   -4860.9582            0    5228.0303    18.158188    22.843943    19.477991    8079.5605    6313.8673    4625.8078    4744.4159     -2207.43   -1363.2413    19.911713    -3734.954 
 5849000    243.62383    -4839.303   -4352.0253    -4839.303            0    4653.0352    18.039351    22.905836    19.482772    8050.4061    5177.2831    4649.8483    4131.9742   -259.58572   -592.56878   -834.44992   -3805.7268 
 5850000    248.71057   -4848.7203   -4351.2684   -4848.7203            0    5159.0912     18.28843    22.727737    19.389261    8059.2359    4053.5133    4898.2297    6525.5307   -1910.8148   -339.92742   -2761.5257   -3744.8911 
 5851000    240.26017   -4859.7764   -4379.2264   -4859.7764            0    7330.6423    18.099818    22.861376    19.335212    8000.6542    8341.8717    7051.7245    6598.3307   -287.40399    93.907698    1580.9354   -3523.8773 
 5852000     251.4264   -4845.2077   -4342.3239   -4845.2077            0    3459.2982    18.049934    23.080547    19.437858    8097.8572    3991.0008    4140.2469    2246.6469   -964.03508    -453.5495   -1847.9741   -3933.7844 
 5853000    245.67154   -4811.5301   -4320.1566   -4811.5301            0     4372.776     18.02424    23.172844    19.393738    8100.2389    4850.7939    4115.2226    4152.3116   -49.253995   -606.59205    1388.8544   -3803.5845 
 5854000    264.73647   -4854.0698   -4324.5641   -4854.0698            0    6797.3466    18.060189    22.866225    19.343417     7988.219    7857.9185    6135.0632     6399.058   -497.75922   -374.82078   -559.33283   -3532.6734 
 5855000     256.2651   -4806.3416   -4293.7798   -4806.3416            0    4370.8139    18.152644    22.773424    19.664947    8129.4473    4071.7956    4469.9134    4570.7327    528.75379    20.505452   -791.97184   -3775.5776 
 5856000    237.19128   -4841.0629   -4366.6511   -4841.0629            0    5348.0722     18.22834    22.789268    19.342996    8035.2845    4609.4316    5992.7551      5442.03   -1045.3813     1330.407    328.34742   -3739.9298 
 5857000    243.76099   -4818.0751    -4330.523   -4818.0751            0    4909.7976    18.066655    22.998042    19.401709    8061.3655      5040.41    5515.3998    4173.5831    612.08448    1000.5302    176.92672   -3753.2941 
 5858000    245.38624   -4812.9928     -4322.19   -4812.9928            0    4758.4743      17.9146    23.192916    19.474607    8091.5401     6784.781    3794.3885    3696.2535   -267.11077    733.64215    -1135.087   -3760.6576 
 5859000    262.84315   -4878.7962   -4353.0774   -4878.7962            0    5009.0833    18.175431    22.798136    19.343665    8015.3562    4010.4657    5213.0805    5803.7038    719.66233   -310.78614    650.75298   -3767.5368 
 5860000    251.14664   -4817.9292   -4315.6049   -4817.9292            0    5537.7393    18.197887    22.603285    19.587921    8057.1391    4776.5008    7032.2551    4804.4619    1160.1747    349.03133   -172.86597   -3664.8922 
 5861000    259.08297   -4809.7812   -4291.5832   -4809.7812            0    6728.6553    18.231793    22.449176    19.602309    8023.0037     6141.356    9138.9503    4905.6595    1344.5697   -397.42299    158.36703   -3504.2816 
 5862000    254.64721   -4847.6386   -4338.3127   -4847.6386            0    5305.3808    18.206158    22.725417    19.489468    8063.6216    4083.9333     6215.959    5616.2503   -1756.4878     447.7382   -1168.3522   -3714.4018 
 5863000    249.14718   -4852.5988   -4354.2736   -4852.5988            0    6299.6793    18.007336    22.817116    19.435103    7985.4073    6749.3268    6752.8124    5396.8985   -352.00467    392.92737    1981.9958   -3620.6194 
 5864000    257.66852   -4839.9544   -4324.5856   -4839.9544            0    3387.6868    18.425095    22.781667     19.37415    8132.3842    1046.0323     4604.569    4512.4592   -1365.5242   -792.07409    -266.9449   -3922.7975 
 5865000    247.35329   -4832.4713   -4337.7342   -4832.4713            0    4333.9982    18.175795    22.798068    19.483546    8073.4554    3520.2182    4593.2689    4888.5076    1011.5079   -1036.6287    386.56083   -3827.4359 
 5866000    239.16681   -4846.7456   -4368.3824   -4846.7456            0    5546.4125    18.185247    22.716068    19.452809    8035.9026    5923.5644    5828.1749     4887.498    407.58167   -430.95679     891.2721   -3718.3684 
 5867000    246.58751   -4870.5083   -4377.3028   -4870.5083            0    5575.3354    18.197539    22.889391    19.327903    8050.6624    4594.6707    7140.4545    4990.8809   -674.96575    346.63105   -1977.9706    -3722.699 
 5868000    251.84334   -4870.1898    -4366.472   -4870.1898            0    4427.6989    17.980331    22.997397    19.495143    8061.2579     6140.647    3121.2496    4021.2002   -60.499546    335.95406    1014.0895   -3845.9288 
 5869000    249.44353    -4862.122   -4363.2041    -4862.122            0    4814.0585    18.149885    22.887626    19.381305    8051.1449    5542.5171    4736.3899    4163.2685    -1849.047   -354.08997   -91.455772   -3797.9485 
 5870000    260.17884   -4868.5054   -4348.1155   -4868.5054            0    6151.0881    18.100165    22.818832    19.456516    8036.0204    5530.7719    5912.3827    7010.1097    122.19353    278.35129    1159.5986   -3627.2258 
 5871000    244.46003   -4855.0679   -4366.1177   -4855.0679            0    3812.7055    18.120849    22.858521    19.503147    8078.5115    2697.2146    4287.0016    4453.9002   -1269.2646    -1065.035   -829.24871   -3916.9169 
 5872000    253.86594   -4826.4038   -4318.6406   -4826.4038            0    5206.5513    18.157038    22.988772    19.294263      8053.58    3703.4085    4576.8127    7339.4328    856.57978    533.45138    1019.4655   -3707.1145 
 5873000      243.805   -4830.1962    -4342.556   -4830.1962            0    5611.9312    17.921412    23.148778    19.331066    8019.6631    4797.4821    6224.5483    5813.7631    42.151201    994.65893    1128.7793   -3686.1927 
 5874000    259.60943   -4837.5614   -4318.3104   -4837.5614            0    4638.9135    18.194546    23.122722    19.149413    8056.2999    3710.0464    4222.0886    5984.6057   -861.64369   -744.03293   -225.04842   -3773.2712 
 5875000    261.43092   -4832.7577   -4309.8636   -4832.7577            0    4969.9979    18.127155    22.894382    19.439383    8067.5385    4898.5305    4766.0435    5245.4197   -187.45406    29.024066    1961.9705   -3725.1096 
 5876000    254.84054   -4864.1632   -4354.4506   -4864.1632            0    5733.2446    18.124137    22.824307    19.426989    8036.3796    4738.4171    7561.9213    4899.3953    607.15098    23.198546   -1588.6105   -3682.5008 
 5877000    237.93005   -4831.2932   -4355.4037   -4831.2932            0    5155.7618      18.2247    22.772152    19.378165    8042.2417     2156.202    6500.5361    6810.5474    1042.2412    456.31362   -602.98809   -3750.6955 
 5878000    248.51954   -4852.1788    -4355.109   -4852.1788            0    5096.7988    18.061442    22.768737    19.579311    8051.7218    5337.7918    6078.3949    3874.2097   -412.01207    502.77056   -507.17731   -3756.6118 
 5879000    267.37323   -4823.9641   -4289.1846   -4823.9641            0    5088.3186     18.18468    22.853396     19.37446    8051.6708    3639.7552    5046.2087    6578.9919    1646.1359   -326.96912   -291.47362    -3691.687 
 5880000    242.34624   -4854.9231   -4370.2007   -4854.9231            0    5410.4742    17.970491    22.865369    19.548139    8032.3675    6317.1433    5424.2469    4490.0323   -316.02886   -143.00817   -1097.1626    -3736.397 
 5881000    239.51631   -4853.2521   -4374.1899   -4853.2521            0    6989.6975    18.189681    22.710131    19.356497    7995.9759    6756.9662    7853.2484    6358.8778    19.374747   -1808.2027    860.31331   -3559.0996 
 5882000     252.2526    -4822.812   -4318.2756    -4822.812            0     3998.416    18.295034    22.550807    19.699687    8127.4561     4154.803    5246.0485    2594.3966     288.4769    338.82339    1829.2846    -3844.341 
 5883000    255.50867    -4830.063   -4319.0141    -4830.063            0    4521.0529    17.960502    22.930702        19.63    8084.5547    7282.3987    4073.3931    2207.3669   -233.57758   -176.99013   -583.02421   -3785.9596 
 5884000    245.71245   -4860.5087   -4369.0535   -4860.5087            0     4785.941    18.214157    22.789997    19.344474    8029.9027    3615.0643    5407.8239     5334.935   -325.11223   -337.53571   -1123.0187    -3808.582 
 5885000     238.2835   -4834.2296   -4357.6332   -4834.2296            0    6321.3548    17.926129    22.956719    19.504059    8026.4097    9378.1015    5592.7648     3993.198    382.51388   -417.81045    1175.5602   -3617.6747 
 5886000     256.8058   -4832.8912   -4319.2478   -4832.8912            0    6567.4358     17.96824     23.10003    19.427494    8063.7092    8401.3231    5318.1605    5982.8237    1683.2289   -203.84736    219.54959   -3546.9113 
 5887000     243.0118   -4838.1528   -4352.0992   -4838.1528            0    6288.1144    17.927381    23.106919    19.312282    8000.0458    5644.6165    6295.2095    6924.5172    464.68296   -565.90762    188.83155   -3618.4494 
 5888000    249.46364   -4841.7741    -4342.816   -4841.7741            0    5005.0912    17.921575    23.366701    19.253902    8062.9197    5103.2651    3911.4629    6000.5457   -973.29241   -284.69277   -1211.3635   -3754.2703 
 5889000    238.17068     -4855.11   -4378.7392     -4855.11            0    5646.9625    17.951159    23.138684    19.327701     8028.074    4825.7644    5286.3426    6828.7806    153.75695    365.46111   -1622.1194   -3717.5859 
 5890000    265.79059    -4859.296    -4327.682    -4859.296            0    6144.9371    18.130027    22.881575    19.418682    8055.7157    6311.4194    6029.1528    6094.2392     873.8066    1437.0902   -870.12262   -3605.7481 
 5891000    255.60684   -4858.5086   -4347.2634   -4858.5086            0    6228.0007    18.313664    22.561427    19.381842    8008.2358    5147.6406    6876.3171    6660.0445     807.1609    752.24884   -737.52104   -3619.8833 
 5892000    251.61283   -4845.3272   -4342.0705   -4845.3272            0    4046.6584    18.216501    22.641414    19.609268    8087.7904    4277.5062    4403.4103    3459.0588    105.02343   -17.839464    205.72828   -3864.7585 
 5893000    254.20457   -4866.4417   -4358.0012   -4866.4417            0    5196.6326    18.157882     22.80114    19.472176    8061.8783    4310.4093     6449.894    4829.5947     844.1361   -815.45843   -475.13685   -3747.0111 
 5894000    244.38385    -4833.934   -4345.1361    -4833.934            0    4222.6843    18.310172    22.605151    19.574956    8102.1566     4187.171    3957.5515    4523.3305    553.64265   -457.37005    370.33683   -3846.1768 
 5895000    257.64522   -4861.4456   -4346.1233   -4861.4456            0    2844.8503    18.117657    22.772401    19.696247    8126.3278    2871.7965    3627.2624    2035.4921   -479.45087    -778.4125   -768.25599   -4008.9682 
 5896000    248.08863   -4852.2952   -4356.0872   -4852.2952            0    5832.3585    18.208803    22.900177    19.260629      8031.39    4876.7212     6242.921    6377.4332   -395.46361    1156.1378    519.23976   -3672.9455 
 5897000    240.55497   -4861.6931   -4380.5535   -4861.6931            0    5961.8145    17.988049    22.844382    19.529962    8025.3664    6827.6701    6132.7204     4925.053    285.92137    965.87577   -664.59488   -3682.7723 
 5898000    261.14918   -4873.4864   -4351.1557   -4873.4864            0    5128.8118    18.233237    22.890025     19.23758    8028.9819    4238.9407    5593.3997     5554.095    803.37982   -749.98447   -987.98761   -3750.6003 
 5899000    262.26926   -4841.6353   -4317.0644   -4841.6353            0    3564.4588    18.162418    22.907004    19.553731    8135.2628    4243.3569    4075.2624    2374.7572   -549.25797    283.56306    238.97997   -3894.1611 
 5900000    247.44311   -4854.5704   -4359.6537   -4854.5704            0    5407.3153    18.097685     22.77908    19.512648     8044.062    6554.4029    5202.8635    4464.6795   -678.30613   -248.05611    781.27602   -3725.2977 
 5901000     263.4864   -4821.8618   -4294.8565   -4821.8618            0    5782.2006    18.250298     22.86552    19.273329    8042.8094    5373.5931    5588.3471    6384.6618    534.10618    -327.2445    1166.0645   -3616.6267 
 5902000    248.92259   -4831.2565   -4333.3805   -4831.2565            0    5023.1275    17.997036    23.176933    19.355999    8073.6984     5044.738    4736.0982    5288.5462   -1627.7831    -1198.686   -1979.4346   -3741.9243 
 5903000    253.43598   -4838.8606   -4331.9573   -4838.8606            0    4826.0141    18.084592     22.98162     19.36542    8048.5246    5649.1773    4706.2117    4122.6534    1910.0409   -788.29242     1765.743   -3765.4823 
 5904000    251.95474   -4852.7982   -4348.8576   -4852.7982            0    4370.2457    18.061511    22.841175    19.519201    8052.5707    4272.4093    4996.5701    3841.7578   -1242.2061   -506.47035    798.66801   -3835.6226 
 5905000    243.51022   -4842.7969   -4355.7464   -4842.7969            0    5812.3379    18.175463    22.908402    19.324692    8046.2378    4881.6455     6151.078    6404.2901   -844.14948    526.77796   -1943.8045   -3673.6911 
 5906000    240.14508   -4847.0734   -4366.7535   -4847.0734            0    4088.2803     17.95973    22.847188     19.67847    8074.6537    4661.1994    5043.5615      2560.08   -607.67781   -718.43744    953.28424   -3885.3154 
 5907000    252.96254   -4850.1052   -4344.1489   -4850.1052            0    6191.9912    18.258159    22.564346    19.445677    8011.2965    6136.0162    7574.4458    4865.5115     261.1091    649.42315    1210.3057   -3620.6981 
 5908000    237.39988   -4853.3966   -4378.5675   -4853.3966            0    6804.1364    18.194907    22.631702    19.487917    8024.7679    7001.4069    6301.2988    7109.7036   -687.70666    1467.1293   -1136.5049    -3582.259 
 5909000    250.68663   -4869.6336   -4368.2294   -4869.6336            0    5552.6465    18.167536    22.737327    19.540327    8071.7419    5286.6634    6014.6166    5356.6595    -58.94589    489.52496    730.24528   -3714.5825 
 5910000    263.48518   -4850.3131   -4323.3102   -4850.3131            0    4820.4338    18.096527    22.998045     19.35711    8056.1334    6606.6468    4232.4007     3622.254    213.55307    1028.6979     2373.658   -3756.9553 
 5911000       240.61   -4843.2519   -4362.0021   -4843.2519            0    6720.0896    17.795035    23.184481    19.307734    7965.7658    7245.0739      7424.92     5490.275   -866.19691    278.23095    443.12798   -3581.3124 
 5912000    244.63809   -4827.5459   -4338.2395   -4827.5459            0    5108.0395    17.928461    23.384868    19.223488    8059.5376    4026.6154    4049.9072    7247.5958   -88.426309   -108.78172    90.988682   -3737.8401 
 5913000    246.65019   -4848.2752   -4354.9444   -4848.2752            0    4800.0058    17.917404    23.232575    19.329294    8046.1556    5002.2441    4142.2362    5255.5372   -1406.3196    764.43699    822.57509    -3791.688 
 5914000    248.55618   -4848.3629   -4351.2199   -4848.3629            0    6462.7149    18.134745    23.059213    19.203713    8030.4735    4339.8754    6101.5785    8946.6909    155.32799   -564.58918    3566.6779   -3594.3311 
 5915000    254.36617   -4850.0708    -4341.307   -4850.0708            0    4499.3401    17.912231    23.190003    19.400918    8058.8445    5428.3588    3713.7903    4355.8713   -1906.5496    532.80989    566.80569   -3812.4997 
 5916000    260.11609   -4825.9611   -4305.6967   -4825.9611            0    6590.9535    18.021282     23.04333    19.398695    8055.7025    6432.3895    6499.7866    6840.6844    278.88041    -28.74786    365.54138   -3531.3641 
 5917000    261.56029   -4879.1372   -4355.9843   -4879.1372            0    4112.7067    18.047454    23.000047    19.414631    8058.8637    3763.3133    4404.1184    4170.6884   -256.82958   -997.19652   -1146.7278   -3872.6168 
 5918000    257.33211   -4837.2239   -4322.5279   -4837.2239            0    6076.1412    18.083074    22.851656    19.407811    8019.8549    6360.0175    5802.9141     6065.492   -899.98356   -1521.2997   -714.35591   -3611.8541 
 5919000    260.77911   -4820.4412   -4298.8507   -4820.4412            0    4321.0764    18.221788    22.511847    19.677365    8071.7757    4287.6474    5909.0205    2766.5614    1497.2336    30.509033    1219.7812   -3790.1798 
 5920000    261.43029   -4849.9405   -4327.0477   -4849.9405            0     5918.869    18.337419    22.546665    19.477247    8052.8217    4532.7749    7314.9657    5908.8663   -104.13554    892.95111   -644.10061    -3631.923 
 5921000    251.84969   -4835.1629   -4331.4324   -4835.1629            0    4936.5508    18.277244    22.702898     19.47608    8081.5296     3999.516    4973.7992    5836.3371    1279.3348   -1406.7831    1044.1188   -3749.6065 
 5922000    248.20646    -4854.205   -4357.7614    -4854.205            0    6288.0874     17.96372     22.91091    19.492141    8022.2862    6439.2489     6855.434    5569.5794   -1050.7389   -164.83828    -499.8371   -3622.0752 
 5923000    242.69085   -4846.1621   -4360.7504   -4846.1621            0    4851.6966    18.080968     23.11327    19.275331    8055.3592    5882.8728    3556.1281    5116.0889   -1322.3905   -483.77117    131.68918   -3790.7772 
 5924000    245.81068   -4837.7278    -4346.076   -4837.7278            0    7125.6061    17.648869    23.534667    19.186388    7969.2632    7475.3286    6252.6116    7648.8782     603.6134   -684.75504     578.8734   -3517.9129 
 5925000     253.2268   -4853.6906   -4347.2057   -4853.6906            0    5778.1796    18.029271    23.156186    19.189307    8011.3273    4876.6084     6366.014    6091.9165   -709.87526    367.84041     -532.395   -3672.1006 
 5926000    245.71332   -4848.3599    -4356.903   -4848.3599            0    4847.0561    17.950274    23.064888    19.439666    8048.4309    5315.4032    4121.0019    5104.7631   -909.60627    152.67934   -89.956885   -3787.9647 
 5927000    255.47006   -4833.4652   -4322.4936   -4833.4652            0    4564.6078    18.083398    22.959911    19.433746    8068.7591    3926.0014     5544.112      4223.71   -163.02827    702.12974    433.28008   -3785.3553 
 5928000    257.24154   -4841.7441   -4327.2293   -4841.7441            0     6996.625    17.954142    22.985072     19.33673    7979.8282    8270.2204    6238.9794    6480.6752   -521.52048   -635.98396   -534.84136   -3512.9788 
 5929000    249.79837   -4820.4657   -4320.8381   -4820.4657            0    4954.7366    18.009001    23.016084    19.545121    8101.3881    6301.0571    4359.8703    4203.2823   -1803.0895    755.88705    158.41803   -3735.4338 
 5930000    249.37949   -4833.1116   -4334.3218   -4833.1116            0    5290.7755    18.163751    23.126319    19.186282     8059.403    5882.9607    4046.9779     5942.388    674.86659   -1087.2951     1678.526   -3712.4539 
 5931000    243.69764   -4843.3388   -4355.9134   -4843.3388            0    6715.1387    17.838586    23.053352    19.428876    7989.9155    6540.2872    6808.5321    6796.5967   -521.67621    149.37714    463.92456   -3573.4337 
 5932000    249.84239   -4836.2516    -4336.536   -4836.2516            0    6241.5757    18.123309    23.094172    19.247586    8055.9386    5773.6623    5272.6374    7678.4274    224.54483   -44.440514    2243.1794   -3603.2282 
 5933000    241.42051   -4853.5096   -4370.6388   -4853.5096            0    5514.5602    17.905323    22.954566    19.507416    8017.7217    4730.1048    6301.1596    5512.4161    126.57941    160.19213    1436.0438   -3725.8199 
 5934000    233.57822   -4843.6668   -4376.4815   -4843.6668            0    3146.0124    18.211921    23.075784    19.340255    8127.8266    3070.9459    2713.5604    3653.5308   -96.926951    135.13916   -73.876107   -4003.5657 
 5935000    253.68815   -4824.3186   -4316.9109   -4824.3186            0     5817.794    18.031965    23.011569    19.441785     8067.248    6014.1121    5892.4559    5546.8138    -720.8641    674.78372    -127.1757   -3632.4327 
 5936000    256.40303   -4833.3615   -4320.5238   -4833.3615            0    4291.8327    18.002435    23.092498    19.439761    8081.5209     6364.305    2879.3252    3631.8678   -1803.4141    -693.5324   -1788.1738   -3814.6854 
 5937000    250.78753   -4857.2252   -4355.6192   -4857.2252            0     4039.742    18.101109    23.079316    19.336035    8077.8453    4099.4564    4200.6604    3819.1093    1699.1662   -1117.3393    1020.9819   -3879.7089 
 5938000    255.81275    -4824.735   -4313.0779    -4824.735            0    6982.9911    17.981887    22.993947    19.323775    7989.8893    6613.9149    7128.1879    7206.8705   -702.32627   -946.47701   -254.98305   -3499.3895 
 5939000    235.73685   -4847.8333   -4376.3305   -4847.8333            0    5283.9253    18.074069    22.954006    19.380918    8040.6058    4911.4506    5018.5997    5921.7256    613.13001   -102.27166    1540.3272   -3756.7163 
 5940000    259.59737   -4824.4747   -4305.2479   -4824.4747            0    5433.9956    18.102898    23.000952    19.379149    8069.1657    7286.3749     4196.757    4818.8548   -1549.3418   -1039.9021   -1415.7096   -3665.7726 
 5941000    252.44566   -4830.6456   -4325.7231   -4830.6456            0    5593.3358    18.066122    23.168059    19.256921    8060.1186     5427.841    5239.5223     6112.644    663.57728   -615.25756    1308.6071   -3668.2345 
 5942000    249.83339   -4827.9976   -4328.2999   -4827.9976            0    4835.7323    17.948033    23.279659    19.354736    8086.8751    4911.4935    3929.1473    5666.5562   -851.82181   -199.10328   -1838.7573   -3757.9796 
 5943000    263.80812   -4867.3018    -4339.653   -4867.3018            0    5280.7677       17.981    23.147548    19.285985    8027.1369    6615.3551    4132.8889     5094.059    223.17157    -1731.003    759.89205   -3721.4464 
 5944000    245.09747   -4823.6246   -4333.3994   -4823.6246            0    4733.6163    18.013762    23.001604    19.448576    8058.4282    4819.5434    5019.9035    4361.4019   -43.573449    583.43277   -1165.5268   -3777.0863 
 5945000    247.78839    -4833.362   -4337.7546    -4833.362            0    4753.2318    18.172553    22.842761    19.475859    8084.6486    5271.7664    5062.0797    3925.8493   -230.30146    381.32328    1103.2672   -3777.3186 
 5946000    245.21929   -4846.8443   -4356.3754   -4846.8443            0    4371.9108    18.340131      22.5653    19.584325     8104.984    3979.7312    5344.2168    3791.7843    38.143928    586.14272   -1531.9482    -3839.603 
 5947000     251.9214   -4840.4479    -4336.574   -4840.4479            0    6884.7129    18.080045    22.679181    19.499134    7995.4369    6740.9161    8276.6947    5636.5281    787.87544     245.9431    921.56394   -3533.7804 
 5948000    251.06666   -4841.0673   -4338.9029   -4841.0673            0    6379.8446     18.17319    22.571258    19.536638    8013.7683    5867.2792    6631.9198    6640.3347   -881.10943   -651.58232    300.12028    -3593.274 
 5949000    253.15662   -4836.5644   -4330.2199   -4836.5644            0    5100.7024    18.204559    22.947826    19.421997    8113.6373    4761.9075    5386.3831    5153.8167   -73.482681    530.87904   -361.32583   -3726.6585 
 5950000    237.36999   -4820.8797   -4346.1104   -4820.8797            0    5771.3999    18.017813    22.899927    19.360052    7988.0852    6100.7073    5084.1904     6129.302   -799.81294   -769.36445   -601.38543   -3673.7537 
 5951000    246.49898   -4833.8719   -4340.8435   -4833.8719            0    4310.8367    18.108528    23.132879    19.295838    8083.0728    3740.1572    4859.3289    4333.0239   -621.86255    924.41488    743.77171   -3832.6677 
 5952000    253.51404   -4838.3833   -4331.3239   -4838.3833            0    6604.1216    17.959811    23.173073    19.238649    8006.8182     6598.987    5477.9726    7735.4052    182.69747   -1435.3711    958.11115   -3560.1525 
 5953000    240.56091   -4854.3156   -4373.1641   -4854.3156            0    5302.4981    17.977498    23.063097    19.337552    8017.6736    4631.7606    5321.0709    5954.6626    -507.5431    67.990994   -1810.0472   -3753.1454 
 5954000    240.63381    -4854.572   -4373.2747    -4854.572            0    5510.2429    17.960954     23.08811    19.370965    8032.8386    5481.7354    4962.9101    6086.0833      148.515    210.11774    754.36489   -3727.7458 
 5955000    246.61439    -4862.174   -4368.9148    -4862.174            0    6244.9537    17.972471    23.312436    19.123671    8012.4758    6366.4647    4182.5903    8185.8059    759.22583   -222.88481   -784.24687   -3639.1686 
 5956000    260.13828   -4884.5626   -4364.2539   -4884.5626            0    5773.1902    17.956385    22.902563    19.433552    7991.9945    7119.8249    5527.4506     4672.295   -313.56955   -548.72867   -72.931639   -3691.3595 
 5957000    255.71015   -4854.0295   -4342.5776   -4854.0295            0    4066.1893    18.188957    22.928452    19.391093    8086.9512    5470.9931    4268.0078     2459.567    1110.3745   -447.99346     1523.279   -3863.0117 
 5958000    255.23744   -4832.8773   -4322.3709   -4832.8773            0    5620.7538    18.061567    22.757515    19.545952    8034.0976     4418.846    7137.4602    5305.9554   -550.71419   -478.58989   -1674.6876   -3663.7924 
 5959000    254.16201   -4851.4963   -4343.1409   -4851.4963            0    4396.7116    18.027296     22.87314    19.504327    8042.4308     5176.537    5157.2372    2856.3606    2109.4802   -985.57686   -52.902058    -3827.448 
 5960000    269.96107   -4867.4043   -4327.4488   -4867.4043            0    6287.9549    18.255841    22.628608    19.419132    8022.1263    5091.4309    6452.2397    7320.1939     388.0159    1172.2393    522.53976   -3591.7927 
 5961000    249.13959   -4840.1717   -4341.8617   -4840.1717            0    4423.0939    18.174928    22.774111    19.548192     8091.345    4040.6613    4214.6881    5013.9321    1120.8835   -626.20897    1544.8217   -3819.9191 
 5962000    259.93002   -4852.8048   -4332.9127   -4852.8048            0    5303.4845    18.273316    22.682809    19.351632    8021.0604    4071.0683    5577.8854    6261.4999    1260.6913   -850.77354   -122.13623   -3712.5167 
 5963000    255.61495   -4846.0605    -4334.799   -4846.0605            0    5655.4061    18.054782    22.929991    19.434309     8045.726     4700.402    6475.5443    5790.2719    1020.7385    -38.44879   -557.24361   -3671.2012 
 5964000     258.4695   -4863.9581   -4346.9872   -4863.9581            0    6035.0039    17.981356     22.94658    19.403876    8006.2457    4984.8236    6867.0724    6253.1157    658.63102    595.95263   -530.80436   -3642.3227 
 5965000    245.08161   -4881.9773   -4391.7838   -4881.9773            0    4443.7614    18.167134    23.143657    19.159686    8055.7649    2944.1914    2827.2117     7559.881    86.855976    919.58977    -130.6993   -3869.7082 
 5966000    248.34975   -4848.1842    -4351.454   -4848.1842            0    5221.4484    18.007945    23.078881    19.334226    8035.3669    3600.6204    6010.8635    6052.8614   -547.70714    1449.1091   -1809.7709   -3739.5651 
 5967000    253.62979   -4887.6137   -4380.3228   -4887.6137            0    5173.9294    18.052534    22.993095    19.337658    8026.7451    4574.1637    6145.8583    4801.7662   -915.33478   -816.75504   -334.85868   -3774.6531 
 5968000    264.35518   -4846.8226   -4318.0796   -4846.8226            0    5469.9305    18.144949    22.879377    19.368734    8040.8354    6554.6564    4906.9099     4948.225   -116.13924    246.28714    1739.7556   -3676.6354 
 5969000    246.97675   -4840.1298   -4346.1458   -4840.1298            0    6987.5521    17.928389    22.914969    19.520664    8019.6449    6094.5187    7699.5098    7168.6279    66.593518    874.68443   -2336.8227   -3528.8936 
 5970000    241.71594    -4866.144   -4382.6823    -4866.144            0    3950.2965    18.252258    22.896177    19.387252    8102.0672    2836.8381    3775.9036     5238.148   -370.08845   -1234.9356   -655.05943   -3915.9139 
 5971000    246.94103   -4846.1839   -4352.2714   -4846.1839            0    5087.1965    18.171944    22.681546    19.518304     8044.816    4463.3769    5608.4268    5189.7859    71.554316    536.72485    1149.9485   -3755.4141 
 5972000    242.59698   -4875.1471   -4389.9231   -4875.1471            0    4407.1767     18.19608    22.774324    19.533102    8094.5842    5109.9108    4460.9155    3650.7038   -479.12083    727.50229   -998.90364   -3869.6506 
 5973000    244.87102   -4872.9076   -4383.1353   -4872.9076            0    4891.5117    18.262943     22.50782    19.530268    8028.0931    4151.6594    5075.0669    5447.8088   -727.99936    77.519775     519.6624   -3810.4298 
 5974000    255.24289   -4853.2187   -4342.7014   -4853.2187            0    3194.3433    18.287971    22.575868    19.568571    8079.2138    2232.4062    3973.3489     3377.275   -1202.2792    -1091.465    1373.5782   -3966.3214 
 5975000    240.46892   -4842.9909   -4362.0234   -4842.9909            0    6148.1592    18.074774    22.708059     19.47268    7992.4257      5607.37    6990.9425    5846.1652    1056.5678    530.74111    292.55695   -3645.3858 
 5976000    245.21856    -4837.168   -4346.7005    -4837.168            0    6654.9455    18.165326    22.637676    19.461339    8002.9066    8121.8317    5986.9734    5856.0314   -1040.5137     849.3334    862.00757    -3569.974 
 5977000    266.19265   -4812.5926   -4280.1744   -4812.5926            0    4509.5921    18.112247    22.667484    19.719927    8096.1949    3713.3977    5476.8634    4338.5153    85.362582    388.50509   -93.222084   -3747.7057 
 5978000    249.58305   -4814.1971   -4315.0002   -4814.1971            0    6110.9225    18.375968    22.602001    19.324398    8026.0726    6174.6395    5558.8395    6599.2886    1129.7582    358.93697    648.15445   -3599.7042 
 5979000    256.79988    -4840.735   -4327.1036    -4840.735            0    6010.1229    18.112174    22.723409    19.488048    8020.7024    7002.5767    5704.9222    5322.8699    1128.0074   -124.69735    1827.6552   -3624.0771 
 5980000    262.33161   -4829.7669   -4305.0712   -4829.7669            0    4624.6391    18.257868    23.054201     19.27507    8113.2735     3050.427    4170.6016    6652.8888    951.97071    425.59091    202.22773   -3757.8665 
 5981000     257.2601   -4835.4037   -4320.8517   -4835.4037            0    5641.5068     17.76081    23.267206    19.431589    8029.9956    6892.7996    4725.4555    5306.2651    1427.3337    807.83957   -585.02748   -3660.1791 
 5982000    244.38915   -4829.9747   -4341.1662   -4829.9747            0    6731.6282     18.02502    23.274067    19.117827    8020.2255    7967.3584    5031.6839    7195.8422    235.60268    301.35507   -1206.5608   -3553.7895 
 5983000    247.72229   -4852.6929   -4357.2177   -4852.6929            0    6233.1801    17.932639    23.197397    19.301387    8029.1951     7872.548    5035.1853    5791.8068   -156.12152   -136.02524   -443.68377   -3627.3275 
 5984000    261.36087   -4842.7797   -4320.0257   -4842.7797            0    6688.4529    18.077453    23.161483    19.151956    8018.9357    7586.3372    5738.8153    6740.2061   -191.16547   -806.41215   -658.40937   -3537.8248 
 5985000    249.36265   -4869.4898   -4370.7337   -4869.4898            0    4098.1769    18.033032    22.929837     19.49809    8062.3529    5599.9419    4265.8728    2428.7159    856.88794   -608.09203   -984.02985   -3888.8653 
 5986000    249.06681   -4857.1961   -4359.0317   -4857.1961            0    4605.6196      18.2753    22.779706    19.382889    8069.2123    2348.6432     5039.234    6428.9817   -440.05287   -391.79687   -931.32628    -3817.037 
 5987000    237.08717   -4837.3231   -4363.1195   -4837.3231            0    5162.5158    18.268254    22.716048    19.520028    8100.4707    4657.3173    5207.4878    5622.7422    201.73899   -90.903391     490.5076   -3753.2351 
 5988000    260.44671   -4841.9582   -4321.0326   -4841.9582            0    6132.7874    18.093989    22.758589    19.435708    8003.5011    5136.9978     5924.065    7337.2994   -486.62907   -498.66068   -345.31481   -3605.1962 
 5989000    251.11805   -4843.4706   -4341.2035   -4843.4706            0    3466.9492    18.264198     22.80404     19.48432    8115.1705    1641.5486    3980.0295    4779.2695   -2292.2212    974.79006    621.54573   -3930.8851 
 5990000    247.85671   -4826.1557   -4330.4117   -4826.1557            0     6625.771    18.066753     22.80886    19.433323    8008.1235    6038.8879    7193.3372    6645.0878   -1081.1646     -123.641     -582.818   -3556.5861 
 5991000    246.44117   -4853.3671   -4360.4543   -4853.3671            0    5620.9677    18.092675    22.913496    19.405365    8044.8131     4219.843    5805.9001    6837.1601   -694.04818    242.78311    455.23157   -3700.9723 
 5992000    250.30451   -4853.0664   -4352.4265   -4853.0664            0    5485.1772    18.133734    22.884154     19.37424    8039.8286    5562.6478    4854.0448    6038.8391    -304.6514   -1425.1487    857.92015   -3709.2749 
 5993000      271.221   -4848.7322   -4306.2567   -4848.7322            0    5695.7867    17.968939    23.016282    19.453071    8045.3655    6604.1984     4456.543    6026.6188    798.56927    610.18786    345.62927   -3637.9507 
 5994000    262.30372   -4844.4264   -4319.7865   -4844.4264            0    5534.2558    18.035432    23.119791    19.246488    8025.3122    3870.8546    5908.9887    6822.9242    980.08988     1396.622   -111.98939    -3672.052 
 5995000     254.1492   -4810.8988    -4302.569   -4810.8988            0    5100.1379    17.982133    23.261643    19.372642    8103.4593    5808.8982     3509.634    5981.8816    317.60327    52.153453   -80.459996   -3699.8314 
 5996000    251.94968   -4852.8613   -4348.9308   -4852.8613            0    4392.9014    17.996347    23.236838     19.28899    8066.2353    4852.3587    3390.7002    4935.6453    374.41688   -1611.6132   -274.80351   -3832.1597 
 5997000    248.75424   -4842.2142    -4344.675   -4842.2142            0    5893.8706    18.018333    23.105363    19.328651    8046.9068    7770.9817    4076.7152     5833.915    412.49206   -833.28572   -496.44471   -3652.9946 
 5998000    251.26218    -4819.933   -4317.3776    -4819.933            0    5758.4877    17.897911    23.101645       19.416    8027.9564    7270.8752    4891.7753    5112.8126   -316.32021    1579.4698   -1996.2827   -3643.1766 
 5999000    238.76964   -4841.4664   -4363.8976   -4841.4664            0    4104.0782    18.333475    22.938099    19.265319    8101.7419    3246.4595    4479.5918    4586.1832    240.58716   -237.74399    629.48957   -3878.9778 
 6000000     259.7674   -4828.2997   -4308.7328   -4828.2997            0    4598.5782    18.233434    22.786107    19.442736    8077.8536    5700.8801    4761.7376    3333.1169   -1091.4762   -356.42011   -1243.9574   -3766.9871 
Loop time of 455.514 on 64 procs for 250000 steps with 1008 atoms

Performance: 94.838 ns/day, 0.253 hours/ns, 548.831 timesteps/s
99.2% CPU use with 64 MPI tasks x 1 OpenMP threads

MPI task timing breakdown:
Section |  min time  |  avg time  |  max time  |%varavg| %total
---------------------------------------------------------------
Pair    | 28.084     | 32.234     | 35.868     |  32.2 |  7.08
Bond    | 0.27159    | 0.28408    | 0.30218    |   0.9 |  0.06
Kspace  | 211.36     | 217.19     | 224.39     |  19.8 | 47.68
Neigh   | 3.9755     | 4.3863     | 4.7301     |   9.5 |  0.96
Comm    | 87.821     | 91.854     | 98.122     |  29.1 | 20.16
Output  | 1.3001     | 1.3023     | 1.3082     |   0.1 |  0.29
Modify  | 95.13      | 99.262     | 104.4      |  27.7 | 21.79
Other   |            | 9.001      |            |       |  1.98

Nlocal:        15.7500 ave          21 max          12 min
Histogram: 4 4 8 13 12 13 6 1 2 1
Nghost:        2482.34 ave        2518 max        2451 min
Histogram: 1 4 8 9 16 13 6 3 2 2
Neighs:        5184.58 ave        6912 max        3887 min
Histogram: 4 4 8 13 12 13 6 0 3 1

Total # of neighbors = 331813
Ave neighs/atom = 329.17956
Ave special neighs/atom = 2.0000000
Neighbor list builds = 8898
Dangerous builds = 0

unfix		3
unfix		2
unfix		1

write_data	data.final.${pid}
write_data	data.final.0
System init for write_data ...
PPPM initialization ...
  extracting TIP4P info from pair style
  using 12-bit tables for long-range coulomb (../kspace.cpp:340)
  G vector (1/distance) = 0.37886541
  grid = 24 27 36
  stencil order = 5
  estimated absolute RMS force accuracy = 0.0024807274
  estimated relative force accuracy = 7.4706368e-06
  using double precision FFTW3
  3d grid and FFT values/proc = 4050 480
Last active /omp style is kspace_style pppm/tip4p/omp
WARNING: Not all mixed pair coeffs generated from mixing. Use write_data with 'pair ij' option to store all pair coeffs. (../write_data.cpp:312)

write_restart   restart.lmp.${pid}
write_restart   restart.lmp.0
System init for write_restart ...
PPPM initialization ...
  extracting TIP4P info from pair style
  using 12-bit tables for long-range coulomb (../kspace.cpp:340)
  G vector (1/distance) = 0.37886541
  grid = 24 27 36
  stencil order = 5
  estimated absolute RMS force accuracy = 0.0024807274
  estimated relative force accuracy = 7.4706368e-06
  using double precision FFTW3
  3d grid and FFT values/proc = 4050 480
Last active /omp style is kspace_style pppm/tip4p/omp
Total wall time: 0:07:37
